     Program PWSCF v.6.7GPU starts on  5Nov2021 at 17:12: 4

     R & G space division:  proc/nbgrp/npool/nimage =       8
     Reading input from /storage/home/hcoda1/3/ntian30/research/carbon/CxH_vib/CH2_calc/ads_slab/N2/out_0010/pw.inp
Warning: card &CELL ignored
Warning: card   CELL_DYNAMICS='IPI', ignored
Warning: card / ignored

     Current dimensions of program PWSCF are:
     Max number of different atomic species (ntypx) = 10
     Max number of k-points (npk) =  40000
     Max angular momentum in pseudopotentials (lmaxx) =  3
     Presently no symmetry can be used with electric field

     Message from routine cell_base_init:
     DEPRECATED: use true lattice parameter, not A to a.u. conversion factor

     IMPORTANT: XC functional enforced from input :
     Exchange-correlation= BEEF-VDW
                           (   1   4  43  14   2   0   0)
     Any further DFT definition will be discarded
     Please, verify this is what you really want

  @ DRIVER MODE: Connecting to
 qe_1139763_3472288.sched-torque.pace.gatech.edu88nsq9qa_scratch
  using UNIX socket
  @ DRIVER MODE: Message from server: STATUS
  @ DRIVER MODE: Message from server: INIT
  @ DRIVER MODE: Receiving replica           0          -1
  @ DRIVER MODE: Receiving encoded integer          25
  @ DRIVER MODE:  SCF:  T  FORCE:  T  STRESS:  F  VC:  F  ENSEMBLE:  F
  @ DRIVER MODE:  SCF:  T  FORCE:  T  STRESS:  F  VC:  F  ENSEMBLE:  F

     Using Slab Decomposition

     bravais-lattice index     =            0
     lattice parameter (alat)  =       1.8897  a.u.
     unit-cell volume          =    6658.9804 (a.u.)^3
     number of atoms/cell      =           49
     number of atomic types    =            3
     number of electrons       =       388.00
     number of Kohn-Sham states=          204
     kinetic-energy cutoff     =      29.3995  Ry
     charge density cutoff     =     293.9946  Ry
     scf convergence threshold =      7.3E-08
     mixing beta               =       0.0500
     number of iterations used =            8  plain     mixing
     Exchange-correlation= BEEF-VDW
                           (   1   4  43  14   2   0   0)

     celldm(1)=   1.889726  celldm(2)=   0.000000  celldm(3)=   0.000000
     celldm(4)=   0.000000  celldm(5)=   0.000000  celldm(6)=   0.000000

     crystal axes: (cart. coord. in units of alat)
               a(1) = (   6.579727   0.000000   0.000000 )
               a(2) = (  -0.000775   5.961596   0.000000 )
               a(3) = (   0.000000   0.000000  25.155947 )

     reciprocal axes: (cart. coord. in units 2 pi/alat)
               b(1) = (  0.151982  0.000020  0.000000 )
               b(2) = (  0.000000  0.167740  0.000000 )
               b(3) = (  0.000000  0.000000  0.039752 )

     PseudoPot. # 1 for Ti read from file:
     /storage/coda1/p-amedford6/0/shared/rich_project_chbe-medford/medford-share/data/pseudos_module/espresso/nninc/pbe/van/Ti.UPF
     MD5 check sum: 8e4df49b7f0d34bbd5052bf3f5ea0213
     Pseudo is Ultrasoft, Zval = 12.0
     Generated by new atomic code, or converted to UPF format
     Using radial grid of  851 points,  6 beta functions with:
                l(1) =   0
                l(2) =   0
                l(3) =   1
                l(4) =   1
                l(5) =   2
                l(6) =   2
     Q(r) pseudized with  8 coefficients,  rinner =    1.000   1.000   1.000
                                                       1.000   1.000

     PseudoPot. # 2 for O  read from file:
     /storage/coda1/p-amedford6/0/shared/rich_project_chbe-medford/medford-share/data/pseudos_module/espresso/nninc/pbe/van/O.UPF
     MD5 check sum: 78c19812648e8988a0fe644b0f25305e
     Pseudo is Ultrasoft, Zval =  6.0
     Generated by new atomic code, or converted to UPF format
     Using radial grid of  737 points,  4 beta functions with:
                l(1) =   0
                l(2) =   0
                l(3) =   1
                l(4) =   1
     Q(r) pseudized with  8 coefficients,  rinner =    0.800   0.800   0.800

     PseudoPot. # 3 for N  read from file:
     /storage/coda1/p-amedford6/0/shared/rich_project_chbe-medford/medford-share/data/pseudos_module/espresso/nninc/pbe/van/N.UPF
     MD5 check sum: 90d10febe142ad51ac9d5be1deb811c4
     Pseudo is Ultrasoft, Zval =  5.0
     Generated by new atomic code, or converted to UPF format
     Using radial grid of  729 points,  4 beta functions with:
                l(1) =   0
                l(2) =   0
                l(3) =   1
                l(4) =   1
     Q(r) pseudized with  8 coefficients,  rinner =    0.800   0.800   0.800

     atomic species   valence    mass     pseudopotential
        Ti1           12.00    47.86700     Ti( 1.00)
        O1             6.00    15.99900     O ( 1.00)
        N1             5.00    14.00700     N ( 1.00)

     No symmetry found

   Cartesian axes

     site n.     atom                  positions (alat units)
         1           Ti1 tau(   1) = (   0.0004258   2.9801865   6.0000000  )
         2           Ti1 tau(   2) = (   3.2906075   1.4906267   6.0002472  )
         3           O1  tau(   3) = (   0.0006271   0.0005054   7.9858123  )
         4           O1  tau(   4) = (   3.2906025   0.0005020   7.3038282  )
         5           O1  tau(   5) = (   4.5942328   1.4918067   9.2879030  )
         6           O1  tau(   6) = (   1.9868534   1.4903216   9.2879459  )
         7           Ti1 tau(   7) = (   3.2908052   2.9770834   9.1558022  )
         8           Ti1 tau(   8) = (   0.0014723   1.4899557   9.2574618  )
         9           O1  tau(   9) = (   3.2881908   5.9516078  11.3945087  )
        10           O1  tau(  10) = (  -0.0003175   5.9583709  10.6096931  )
        11           O1  tau(  11) = (   1.2852824   1.4845632  12.6702234  )
        12           O1  tau(  12) = (   5.2939303   1.4843324  12.6686402  )
        13           Ti1 tau(  13) = (   6.5787990   2.9666629  12.5005897  )
        14           Ti1 tau(  14) = (   3.2868008   1.4811001  12.5380687  )
        15           O1  tau(  15) = (   6.5784413   5.9555407  14.6880896  )
        16           O1  tau(  16) = (   3.2900854   5.9490857  14.0192957  )
        17           O1  tau(  17) = (   4.5550864   1.4910534  16.1905290  )
        18           O1  tau(  18) = (   2.0267207   1.4911860  16.1885539  )
        19           Ti1 tau(  19) = (   3.2920938   2.9632630  15.7783758  )
        20           Ti1 tau(  20) = (   0.0012712   1.3436693  15.9485112  )
        21           O1  tau(  21) = (   3.2904802   0.0005063   4.7018136  )
        22           O1  tau(  22) = (   0.0010074   5.9436290  17.2207989  )
        23           O1  tau(  23) = (   1.3043587   1.4918075   6.0039043  )
        24           O1  tau(  24) = (   5.2767064   1.4903225   6.0039473  )
        25           Ti1 tau(  25) = (   0.0000382   5.9609847   6.0000000  )
        26           Ti1 tau(  26) = (   3.2902200   4.4714249   6.0002472  )
        27           O1  tau(  27) = (   0.0002396   2.9813036   7.9858123  )
        28           O1  tau(  28) = (   3.2902150   2.9813002   7.3038282  )
        29           O1  tau(  29) = (   4.5938453   4.4726049   9.2879030  )
        30           O1  tau(  30) = (   1.9864658   4.4711199   9.2879459  )
        31           Ti1 tau(  31) = (   3.2904038   5.9576809   9.1543053  )
        32           Ti1 tau(  32) = (   0.0010712   4.4688839   9.2576884  )
        33           O1  tau(  33) = (   3.2885413   2.9721674  11.3880671  )
        34           O1  tau(  34) = (   0.0004151   2.9779830  10.6294632  )
        35           O1  tau(  35) = (   1.2846649   4.4573343  12.6727517  )
        36           O1  tau(  36) = (   5.2936178   4.4572275  12.6712304  )
        37           Ti1 tau(  37) = (   6.5756517   5.9477182  12.4782824  )
        38           Ti1 tau(  38) = (   3.2865759   4.4596547  12.5399293  )
        39           O1  tau(  39) = (   6.5788509   2.9666905  14.9890508  )
        40           O1  tau(  40) = (   3.2903703   2.9673333  13.9858678  )
        41           O1  tau(  41) = (   4.5544046   4.4428806  16.1860403  )
        42           O1  tau(  42) = (   2.0267033   4.4429097  16.1842269  )
        43           Ti1 tau(  43) = (   3.2900559   5.9435813  15.8195655  )
        44           Ti1 tau(  44) = (   0.0007437   4.6011129  15.9424720  )
        45           O1  tau(  45) = (   3.2900926   2.9813045   4.7018136  )
        46           O1  tau(  46) = (   1.3039711   4.4726057   6.0039043  )
        47           O1  tau(  47) = (   5.2763189   4.4711207   6.0039473  )
        48           N1  tau(  48) = (   0.1199117   2.9186963  19.5608096  )
        49           N1  tau(  49) = (   0.0588791   2.9454632  18.4591897  )

     number of k points=    10  Fermi-Dirac smearing, width (Ry)=  0.0073
                       cart. coord. in units 2pi/alat
        k(    1) = (   0.0000000   0.0000000   0.0000000), wk =   0.1250000
        k(    2) = (   0.0000000   0.0419351   0.0000000), wk =   0.2500000
        k(    3) = (   0.0000000  -0.0838702   0.0000000), wk =   0.1250000
        k(    4) = (   0.0379955   0.0000049   0.0000000), wk =   0.2500000
        k(    5) = (   0.0379955   0.0419400   0.0000000), wk =   0.2500000
        k(    6) = (   0.0379955  -0.0838652   0.0000000), wk =   0.2500000
        k(    7) = (   0.0379955  -0.0419301   0.0000000), wk =   0.2500000
        k(    8) = (  -0.0759910  -0.0000099   0.0000000), wk =   0.1250000
        k(    9) = (  -0.0759910   0.0419252   0.0000000), wk =   0.2500000
        k(   10) = (  -0.0759910  -0.0838800   0.0000000), wk =   0.1250000

     Initial potential from superposition of free atoms

     starting charge  371.99923, renormalised to  388.00000

     negative rho (up, down):  1.868E-02 0.000E+00

     %%%%%%%%%%%%%%%%%%%%%%%%%%%%%%%%%%%%%%%%%%%%%%%%%%%%%%%%%%%%%%%%%%%%%%%%
     %                                                                      %
     % You are using vdW-DF, which was implemented by the Thonhauser group. %
     % Please cite the following two papers that made this development      %
     % possible and the two reviews that describe the various versions:     %
     %                                                                      %
     %   T. Thonhauser et al., PRL 115, 136402 (2015).                      %
     %   T. Thonhauser et al., PRB 76, 125112 (2007).                       %
     %   K. Berland et al., Rep. Prog. Phys. 78, 066501 (2015).             %
     %   D.C. Langreth et al., J. Phys.: Condens. Matter 21, 084203 (2009). %
     %                                                                      %
     %                                                                      %
     % If you are calculating the stress with vdW-DF, please also cite:     %
     %                                                                      %
     %   R. Sabatini et al., J. Phys.: Condens. Matter 24, 424209 (2012).   %
     %                                                                      %
     %%%%%%%%%%%%%%%%%%%%%%%%%%%%%%%%%%%%%%%%%%%%%%%%%%%%%%%%%%%%%%%%%%%%%%%%

     Adding external electric field

     Computed dipole along edir(3) :
        Dipole               -5.4532 Ry au,        -13.8607 Debye
        Dipole field         -0.0103 Ry au,

        Potential amp.        0.9540 Ry
        Total length         46.3494 bohr

     Starting wfcs are  292 atomic wfcs
  @ DRIVER MODE: Message from server: STATUS
  @ DRIVER MODE: Message from server: POSDATA
  @ DRIVER MODE: Reading and sharing cell
  @ DRIVER MODE: Reading and sharing positions
  @ DRIVER MODE: Received positions

     Self-consistent Calculation

     iteration #  1     ecut=    29.40 Ry     beta= 0.05
     Davidson diagonalization with overlap
     c_bands:  3 eigenvalues not converged
     c_bands:  2 eigenvalues not converged
     c_bands:  2 eigenvalues not converged
     c_bands:  1 eigenvalues not converged
     c_bands:  3 eigenvalues not converged
     c_bands:  2 eigenvalues not converged
     c_bands:  4 eigenvalues not converged
     c_bands:  1 eigenvalues not converged
     ethr =  1.00E-05,  avg # of iterations = 21.4

[...]

     total energy              =   -2822.47935856 Ry
     estimated scf accuracy    <    1128.82705812 Ry

     iteration #  2     ecut=    29.40 Ry     beta= 0.05
     Davidson diagonalization with overlap
     ethr =  1.00E-02,  avg # of iterations = 17.1

[...]

     iteration # 68     ecut=    29.40 Ry     beta= 0.05
     Davidson diagonalization with overlap
     c_bands:  2 eigenvalues not converged
     ethr =  5.13E-11,  avg # of iterations = 12.1

[...]

     total energy              =   -2924.04890877 Ry
     estimated scf accuracy    <       0.00000009 Ry

     iteration # 72     ecut=    29.40 Ry     beta= 0.05
     Davidson diagonalization with overlap
     ethr =  2.20E-11,  avg # of iterations = 14.5

     negative rho (up, down):  1.840E-02 0.000E+00

     Adding external electric field

     Computed dipole along edir(3) :
        Dipole                0.7001 Ry au,          1.7795 Debye
        Dipole field          0.0013 Ry au,

        Potential amp.       -0.1225 Ry
        Total length         46.3494 bohr

     End of self-consistent calculation

          k = 0.0000 0.0000 0.0000 ( 18029 PWs)   bands (ev):

   -55.9040 -55.8681 -55.8578 -55.8235 -55.7870 -55.7762 -55.7415 -55.7412
   -55.7296 -55.7073 -55.7052 -55.6842 -55.6678 -55.6503 -54.9681 -54.9340
   -32.4681 -32.4142 -32.3590 -32.2617 -32.2143 -32.2117 -32.2093 -32.1973
   -32.1479 -32.1366 -32.1107 -32.1043 -32.1028 -32.0762 -32.0706 -32.0543
   -32.0400 -32.0375 -32.0320 -32.0181 -32.0096 -32.0059 -32.0029 -32.0010
   -31.9794 -31.9728 -31.9553 -31.9134 -31.9067 -31.8999 -31.8930 -31.8878
   -31.8793 -31.8777 -31.8764 -31.8704 -31.8611 -31.8388 -31.8279 -31.8169
   -31.7989 -31.7453 -31.3809 -31.2766 -31.2552 -31.1970 -31.1107 -30.9996
   -21.8205 -16.7345 -16.5014 -16.3637 -16.2356 -16.1299 -16.0210 -15.9222
   -15.8552 -15.7835 -15.6289 -15.5972 -15.5674 -15.5320 -15.5113 -15.5057
   -15.4959 -15.4606 -15.4387 -15.4144 -15.4129 -15.3962 -15.3825 -15.3499
   -15.2962 -15.2145 -15.1358 -15.0658 -15.0075 -14.6779 -13.4690 -13.3492
    -7.2608  -4.9646  -4.9575  -4.0699  -4.0207  -3.9169  -3.8392  -3.8255
    -3.7314  -3.6696  -3.4651  -3.3889  -3.3518  -3.2013  -3.1585  -3.1016
    -3.0515  -2.9626  -2.8981  -2.8909  -2.8015  -2.7784  -2.7766  -2.7669
    -2.6772  -2.6646  -2.6286  -2.6213  -2.5943  -2.4999  -2.3760  -2.3405
    -2.2856  -2.2845  -2.2625  -2.2486  -2.2237  -2.1840  -2.1611  -2.1519
    -2.1004  -2.0887  -1.9474  -1.8036  -1.7692  -1.6926  -1.6076  -1.5141
    -1.4645  -1.4235  -1.3637  -1.3589  -1.3122  -1.2843  -1.2485  -1.1640
    -1.0740  -1.0332  -0.9379  -0.9211  -0.8489  -0.8119  -0.7583  -0.6987
    -0.6966  -0.6569  -0.5617  -0.5271  -0.4095  -0.3998  -0.3859  -0.3659
    -0.3020  -0.2490  -0.1435  -0.1148  -0.1131  -0.1035   0.0043   0.0323
     0.0343   0.0476   0.0587   0.1221   0.1909   0.2313   0.2738   0.4214
     0.6458   0.6487   0.7086   0.9422   1.0198   1.0580   1.2151   1.6440
     1.6980   3.1918   3.2585   3.2893   3.3222   3.3569   3.3988   3.6875
     3.7032   3.7297   3.7466   3.7668

[...]

          k = 0.0380-0.0419 0.0000 ( 17876 PWs)   bands (ev):

[...]

          k =-0.0760-0.0000 0.0000 ( 17886 PWs)   bands (ev):

[...]

          k =-0.0760-0.0839 0.0000 ( 17948 PWs)   bands (ev):

   -55.8862 -55.8857 -55.8414 -55.8398 -55.7831 -55.7618 -55.7555 -55.7254
   -55.7231 -55.7230 -55.7088 -55.6743 -55.6675 -55.6671 -54.9510 -54.9509
   -32.3394 -32.2722 -32.2713 -32.1778 -32.1744 -32.1729 -32.1576 -32.1343
   -32.1320 -32.1039 -32.1024 -32.1003 -32.0930 -32.0507 -32.0443 -32.0430
   -32.0402 -32.0387 -32.0287 -32.0240 -32.0230 -32.0109 -32.0008 -31.9880
   -31.9836 -31.9832 -31.9811 -31.9792 -31.9594 -31.9583 -31.9553 -31.9477
   -31.9213 -31.9198 -31.9045 -31.8961 -31.8957 -31.8908 -31.8763 -31.8532
   -31.8524 -31.8469 -31.2678 -31.2677 -31.1935 -31.1934 -31.1539 -31.1538
   -21.8204 -16.4117 -16.1049 -16.0649 -15.9500 -15.9450 -15.8640 -15.8484
   -15.7423 -15.6971 -15.6869 -15.6858 -15.6248 -15.6223 -15.6025 -15.5910
   -15.5176 -15.5066 -15.4827 -15.4792 -15.4220 -15.4178 -15.4163 -15.4121
   -15.3745 -15.3739 -15.3382 -15.3350 -15.2161 -15.0488 -13.4502 -13.4501
    -7.2651  -4.9605  -4.9595  -3.9854  -3.4417  -3.3774  -3.3233  -3.1717
    -3.0944  -3.0835  -3.0379  -3.0083  -2.9347  -2.8990  -2.8987  -2.8165
    -2.8068  -2.8016  -2.8003  -2.7326  -2.7193  -2.6892  -2.6734  -2.6213
    -2.6208  -2.5986  -2.5948  -2.5797  -2.5707  -2.5518  -2.5455  -2.5161
    -2.4862  -2.4314  -2.4232  -2.2838  -2.2730  -2.2179  -2.1427  -2.1396
    -2.0576  -2.0429  -2.0066  -1.9753  -1.9102  -1.8950  -1.7258  -1.7047
    -1.7011  -1.6408  -1.5531  -1.5300  -1.4823  -1.4631  -1.4113  -1.3572
    -1.2538  -1.2273  -1.2075  -1.1003  -1.0929  -1.0283  -0.9424  -0.9012
    -0.8993  -0.8947  -0.8713  -0.8511  -0.8491  -0.7473  -0.6966  -0.6490
    -0.6380  -0.6256  -0.4251  -0.3687  -0.3414  -0.2346  -0.1919   0.0043
     0.0122   0.0390   0.1545   0.1555   0.1615   0.2214   0.3478   0.3529
     0.4230   0.4646   0.4926   0.5160   0.5183   1.4070   1.4081   1.5151
     1.5157   3.3524   3.4337   3.4511   3.5081   3.6377   3.6452   3.7002
     3.7386   3.7469   3.7476   3.8334

     the Fermi energy is     3.2560 ev

!    total energy              =   -2924.04891994 Ry
     estimated scf accuracy    <       0.00000004 Ry
     smearing contrib. (-TS)   =      -0.03676862 Ry
     internal energy E=F+TS    =   -2924.01215132 Ry

     The total energy is F=E-TS. E is the sum of the following terms:
     one-electron contribution =  -24117.05751544 Ry
     hartree contribution      =   12140.96138008 Ry
     xc contribution           =    -479.17625888 Ry
     ewald contribution        =    9531.25931797 Ry
     electric field correction =       0.00092495 Ry

     convergence has been achieved in  72 iterations

     Forces acting on atoms (cartesian axes, Ry/au):

     atom    1 type  1   force =     0.00005849    0.00004203    0.09028190
     atom    2 type  1   force =    -0.00003063    0.00038243   -0.18447918
     atom    3 type  2   force =     0.00007494   -0.00046430   -0.02389159
     atom    4 type  2   force =     0.00002018   -0.00009168    0.05158103
     atom    5 type  2   force =    -0.01361517   -0.00063546    0.00573680
     atom    6 type  2   force =     0.01348724   -0.00016239    0.00564391
     atom    7 type  1   force =     0.00011591   -0.00003554    0.00096889
     atom    8 type  1   force =     0.00002084    0.00011213    0.00023501
     atom    9 type  2   force =     0.00005959    0.00011291   -0.00041497
     atom   10 type  2   force =     0.00000137    0.00008169    0.00078226
     atom   11 type  2   force =    -0.00000766    0.00022423    0.00001629
     atom   12 type  2   force =    -0.00000839    0.00022847    0.00009841
     atom   13 type  1   force =     0.00003894    0.00029018   -0.00059300
     atom   14 type  1   force =    -0.00006030    0.00012390   -0.00112732
     atom   15 type  2   force =     0.00008870   -0.00033547   -0.00040219
     atom   16 type  2   force =    -0.00005173    0.00021978   -0.00024046
     atom   17 type  2   force =    -0.00011913   -0.00014528    0.00019113
     atom   18 type  2   force =     0.00020277   -0.00019324    0.00024465
     atom   19 type  1   force =     0.00011586    0.00009119    0.00068910
     atom   20 type  1   force =    -0.00007596    0.00002352    0.00161659
     atom   21 type  2   force =     0.00007169    0.00014588    0.10522884
     atom   22 type  2   force =     0.00002060    0.00031847   -0.00094950
     atom   23 type  2   force =    -0.06756049   -0.00012368   -0.02617207
     atom   24 type  2   force =     0.06748958    0.00031227   -0.02621245
     atom   25 type  1   force =     0.00007089    0.00005355    0.09056421
     atom   26 type  1   force =    -0.00008004   -0.00032728   -0.18443602
     atom   27 type  2   force =     0.00006399   -0.00048760   -0.02270269
     atom   28 type  2   force =     0.00002432   -0.00008454    0.05141471
     atom   29 type  2   force =    -0.01362086   -0.00058241    0.00567091
     atom   30 type  2   force =     0.01348648   -0.00006660    0.00558089
     atom   31 type  1   force =     0.00008140    0.00008264    0.00080151
     atom   32 type  1   force =     0.00001138   -0.00001962    0.00019257
     atom   33 type  2   force =     0.00007184   -0.00005385    0.00001925
     atom   34 type  2   force =    -0.00000840   -0.00003735   -0.00000665
     atom   35 type  2   force =    -0.00008972    0.00000709   -0.00002877
     atom   36 type  2   force =     0.00010814    0.00000410    0.00003774
     atom   37 type  1   force =     0.00007233    0.00010204    0.00089410
     atom   38 type  1   force =    -0.00006046   -0.00015822   -0.00128819
     atom   39 type  2   force =     0.00009806    0.00030906   -0.00003168
     atom   40 type  2   force =     0.00004602    0.00001058    0.00011469
     atom   41 type  2   force =     0.00005595    0.00006370    0.00015625
     atom   42 type  2   force =     0.00001842    0.00003800    0.00021330
     atom   43 type  1   force =     0.00003661    0.00045462    0.00091456
     atom   44 type  1   force =    -0.00008631   -0.00030399    0.00178218
     atom   45 type  2   force =     0.00006452    0.00013924    0.10518716
     atom   46 type  2   force =    -0.06756892   -0.00018418   -0.02616558
     atom   47 type  2   force =     0.06749021    0.00024596   -0.02621183
     atom   48 type  3   force =    -0.00022834    0.00056906   -0.00094375
     atom   49 type  3   force =    -0.00039474   -0.00029603   -0.00056098

     Total force =     0.367145     Total SCF correction =     0.000397
  @ DRIVER MODE: Message from server: STATUS
  @ DRIVER MODE: Message from server: GETFORCE
  @ DRIVER MODE: Returning v,forces,stress,ensemble

     Writing output data file ./calc.save/
  @ DRIVER MODE: Message from server: EXIT
  @ DRIVE MODE: Exiting

     General routines

     Parallel routines

   This run was terminated on:  17:33:22   5Nov2021

   JOB DONE.