     Program PWSCF v.6.7GPU starts on 15Sep2021 at 18:11:53

     R & G space division:  proc/nbgrp/npool/nimage =      10
     Reading input from /storage/home/hcoda1/3/ntian30/research/carbon/CxH_vib/H2O_calc/ads_slab/CH3NH2O_a/out_0009/pw.inp
Warning: card &CELL ignored
Warning: card   CELL_DYNAMICS='IPI', ignored
Warning: card / ignored

     Current dimensions of program PWSCF are:
     Max number of different atomic species (ntypx) = 10
     Max number of k-points (npk) =  40000
     Max angular momentum in pseudopotentials (lmaxx) =  3
     Presently no symmetry can be used with electric field

     Message from routine cell_base_init:
     DEPRECATED: use true lattice parameter, not A to a.u. conversion factor

     IMPORTANT: XC functional enforced from input :
     Exchange-correlation= BEEF-VDW
                           (   1   4  43  14   2   0   0)
     Any further DFT definition will be discarded
     Please, verify this is what you really want

  @ DRIVER MODE: Connecting to
 qe_1139763_2852618.sched-torque.pace.gatech.eduvenom4x7_scratch
  using UNIX socket
  @ DRIVER MODE: Message from server: STATUS
  @ DRIVER MODE: Message from server: INIT
  @ DRIVER MODE: Receiving replica           0          -1
  @ DRIVER MODE: Receiving encoded integer          25
  @ DRIVER MODE:  SCF:  T  FORCE:  T  STRESS:  F  VC:  F  ENSEMBLE:  F
  @ DRIVER MODE:  SCF:  T  FORCE:  T  STRESS:  F  VC:  F  ENSEMBLE:  F

     Using Slab Decomposition

     bravais-lattice index     =            0
     lattice parameter (alat)  =       1.8897  a.u.
     unit-cell volume          =    6658.9804 (a.u.)^3
     number of atoms/cell      =           55
     number of atomic types    =            5
     number of electrons       =       398.00
     number of Kohn-Sham states=          209
     kinetic-energy cutoff     =      29.3995  Ry
     charge density cutoff     =     293.9946  Ry
     scf convergence threshold =      7.3E-08
     mixing beta               =       0.0500
     number of iterations used =            8  plain     mixing
     Exchange-correlation= BEEF-VDW
                           (   1   4  43  14   2   0   0)

     celldm(1)=   1.889726  celldm(2)=   0.000000  celldm(3)=   0.000000
     celldm(4)=   0.000000  celldm(5)=   0.000000  celldm(6)=   0.000000

     crystal axes: (cart. coord. in units of alat)
               a(1) = (   6.579727   0.000000   0.000000 )
               a(2) = (  -0.000775   5.961596   0.000000 )
               a(3) = (   0.000000   0.000000  25.155947 )

     reciprocal axes: (cart. coord. in units 2 pi/alat)
               b(1) = (  0.151982  0.000020  0.000000 )
               b(2) = (  0.000000  0.167740  0.000000 )
               b(3) = (  0.000000  0.000000  0.039752 )

     PseudoPot. # 1 for Ti read from file:
     /storage/coda1/p-amedford6/0/shared/rich_project_chbe-medford/medford-share/data/pseudos_module/espresso/nninc/pbe/van/Ti.UPF
     MD5 check sum: 8e4df49b7f0d34bbd5052bf3f5ea0213
     Pseudo is Ultrasoft, Zval = 12.0
     Generated by new atomic code, or converted to UPF format
     Using radial grid of  851 points,  6 beta functions with:
                l(1) =   0
                l(2) =   0
                l(3) =   1
                l(4) =   1
                l(5) =   2
                l(6) =   2
     Q(r) pseudized with  8 coefficients,  rinner =    1.000   1.000   1.000
                                                       1.000   1.000

     PseudoPot. # 2 for O  read from file:
     /storage/coda1/p-amedford6/0/shared/rich_project_chbe-medford/medford-share/data/pseudos_module/espresso/nninc/pbe/van/O.UPF
     MD5 check sum: 78c19812648e8988a0fe644b0f25305e
     Pseudo is Ultrasoft, Zval =  6.0
     Generated by new atomic code, or converted to UPF format
     Using radial grid of  737 points,  4 beta functions with:
                l(1) =   0
                l(2) =   0
                l(3) =   1
                l(4) =   1
     Q(r) pseudized with  8 coefficients,  rinner =    0.800   0.800   0.800

     PseudoPot. # 3 for N  read from file:
     /storage/coda1/p-amedford6/0/shared/rich_project_chbe-medford/medford-share/data/pseudos_module/espresso/nninc/pbe/van/N.UPF
     MD5 check sum: 90d10febe142ad51ac9d5be1deb811c4
     Pseudo is Ultrasoft, Zval =  5.0
     Generated by new atomic code, or converted to UPF format
     Using radial grid of  729 points,  4 beta functions with:
                l(1) =   0
                l(2) =   0
                l(3) =   1
                l(4) =   1
     Q(r) pseudized with  8 coefficients,  rinner =    0.800   0.800   0.800

     PseudoPot. # 4 for C  read from file:
     /storage/coda1/p-amedford6/0/shared/rich_project_chbe-medford/medford-share/data/pseudos_module/espresso/nninc/pbe/van/C.UPF
     MD5 check sum: 1a69bf6b8db32088f5b2163dbdb77a27
     Pseudo is Ultrasoft, Zval =  4.0
     Generated by new atomic code, or converted to UPF format
     Using radial grid of  721 points,  4 beta functions with:
                l(1) =   0
                l(2) =   0
                l(3) =   1
                l(4) =   1
     Q(r) pseudized with  8 coefficients,  rinner =    0.800   0.800   0.800

     PseudoPot. # 5 for H  read from file:
     /storage/coda1/p-amedford6/0/shared/rich_project_chbe-medford/medford-share/data/pseudos_module/espresso/nninc/pbe/van/H.UPF
     MD5 check sum: b5ee9d7bfd3a09ee7748110bda690ff7
     Pseudo is Ultrasoft, Zval =  1.0
     Generated by new atomic code, or converted to UPF format
     Using radial grid of  615 points,  1 beta functions with:
                l(1) =   0
     Q(r) pseudized with  8 coefficients,  rinner =    0.800

     atomic species   valence    mass     pseudopotential
        Ti1           12.00    47.86700     Ti( 1.00)
        O1             6.00    15.99900     O ( 1.00)
        N1             5.00    14.00700     N ( 1.00)
        C1             4.00    12.01100     C ( 1.00)
        H1             1.00     1.00800     H ( 1.00)

     No symmetry found

   Cartesian axes

     site n.     atom                  positions (alat units)
         1           Ti1 tau(   1) = (   0.0004258   2.9801865   6.0000000  )
         2           Ti1 tau(   2) = (   3.2906075   1.4906267   6.0002472  )
         3           O1  tau(   3) = (   0.0006271   0.0005054   7.9858123  )
         4           O1  tau(   4) = (   3.2906025   0.0005020   7.3038282  )
         5           O1  tau(   5) = (   4.5942328   1.4918067   9.2879030  )
         6           O1  tau(   6) = (   1.9868534   1.4903216   9.2879459  )
         7           Ti1 tau(   7) = (   3.2907910   2.8959150   9.1758416  )
         8           Ti1 tau(   8) = (   0.0015273   1.4827037   9.2680791  )
         9           O1  tau(   9) = (   3.2951577   0.0167633  11.2896499  )
        10           O1  tau(  10) = (   0.0116148   5.9584955  10.6183126  )
        11           O1  tau(  11) = (   1.3222759   1.5071707  12.6129440  )
        12           O1  tau(  12) = (   5.3060066   1.5095485  12.6267335  )
        13           Ti1 tau(  13) = (   6.4824898   3.0013615  12.7357613  )
        14           Ti1 tau(  14) = (   3.1735365   1.4973312  12.4739500  )
        15           O1  tau(  15) = (   0.0245190   0.0017265  14.5963640  )
        16           O1  tau(  16) = (   3.2983568   0.0259644  13.8884976  )
        17           O1  tau(  17) = (   4.5535709   1.5599051  15.9919625  )
        18           O1  tau(  18) = (   2.0723989   1.5598234  15.9883263  )
        19           Ti1 tau(  19) = (   3.3263631   3.0313633  15.6478355  )
        20           Ti1 tau(  20) = (   0.0083359   1.6222165  16.0589653  )
        21           O1  tau(  21) = (   3.2904802   0.0005063   4.7018136  )
        22           O1  tau(  22) = (   0.0206953   0.0548308  17.2083480  )
        23           O1  tau(  23) = (   1.3043587   1.4918075   6.0039043  )
        24           O1  tau(  24) = (   5.2767064   1.4903225   6.0039473  )
        25           Ti1 tau(  25) = (   0.0000382   5.9609847   6.0000000  )
        26           Ti1 tau(  26) = (   3.2902200   4.4714249   6.0002472  )
        27           O1  tau(  27) = (   0.0002396   2.9813036   7.9858123  )
        28           O1  tau(  28) = (   3.2902150   2.9813002   7.3038282  )
        29           O1  tau(  29) = (   4.5938453   4.4726049   9.2879030  )
        30           O1  tau(  30) = (   1.9864658   4.4711199   9.2879459  )
        31           Ti1 tau(  31) = (   3.2891106   5.8743827   9.1763621  )
        32           Ti1 tau(  32) = (   0.0006254   4.4649316   9.2693709  )
        33           O1  tau(  33) = (   3.2909539   2.9954008  11.2901670  )
        34           O1  tau(  34) = (   0.0092240   2.9805883  10.6323155  )
        35           O1  tau(  35) = (   1.3211080   4.4795309  12.6092917  )
        36           O1  tau(  36) = (   5.3058445   4.4798052  12.6251394  )
        37           Ti1 tau(  37) = (   6.5140999   0.0198189  12.7603067  )
        38           Ti1 tau(  38) = (   3.1705570   4.4938763  12.4677136  )
        39           O1  tau(  39) = (   0.0016069   2.9863809  14.6467327  )
        40           O1  tau(  40) = (   3.3112668   3.0122049  13.8485686  )
        41           O1  tau(  41) = (   4.5534170   4.5051619  16.0179686  )
        42           O1  tau(  42) = (   2.0797414   4.5084034  16.0201905  )
        43           Ti1 tau(  43) = (   3.2815144   0.0627375  15.7417980  )
        44           Ti1 tau(  44) = (   0.0076503   4.5954094  16.1032789  )
        45           O1  tau(  45) = (   3.2900926   2.9813045   4.7018136  )
        46           O1  tau(  46) = (   1.3039711   4.4726057   6.0039043  )
        47           O1  tau(  47) = (   5.2763189   4.4711207   6.0039473  )
        48           N1  tau(  48) = (   0.0651939   3.0276870  17.3150544  )
        49           C1  tau(  49) = (   0.3375872   3.0085870  18.7284822  )
        50           H1  tau(  50) = (   0.4544735   4.0311245  19.1352477  )
        51           H1  tau(  51) = (   6.1015407   2.5302758  19.2785169  )
        52           H1  tau(  52) = (   1.2508204   2.4494767  18.9518403  )
        53           O1  tau(  53) = (   3.3357083   0.1159715  18.1615364  )
        54           H1  tau(  54) = (   4.1514219   5.6051498  18.3929375  )
        55           H1  tau(  55) = (   2.5926282   5.5337384  18.4710493  )

     number of k points=    10  Fermi-Dirac smearing, width (Ry)=  0.0073
                       cart. coord. in units 2pi/alat
        k(    1) = (   0.0000000   0.0000000   0.0000000), wk =   0.1250000
        k(    2) = (   0.0000000   0.0419351   0.0000000), wk =   0.2500000
        k(    3) = (   0.0000000  -0.0838702   0.0000000), wk =   0.1250000
        k(    4) = (   0.0379955   0.0000049   0.0000000), wk =   0.2500000
        k(    5) = (   0.0379955   0.0419400   0.0000000), wk =   0.2500000
        k(    6) = (   0.0379955  -0.0838652   0.0000000), wk =   0.2500000
        k(    7) = (   0.0379955  -0.0419301   0.0000000), wk =   0.2500000
        k(    8) = (  -0.0759910  -0.0000099   0.0000000), wk =   0.1250000
        k(    9) = (  -0.0759910   0.0419252   0.0000000), wk =   0.2500000
        k(   10) = (  -0.0759910  -0.0838800   0.0000000), wk =   0.1250000

     Initial potential from superposition of free atoms

     starting charge  381.99915, renormalised to  398.00000

     negative rho (up, down):  1.656E-02 0.000E+00

     %%%%%%%%%%%%%%%%%%%%%%%%%%%%%%%%%%%%%%%%%%%%%%%%%%%%%%%%%%%%%%%%%%%%%%%%
     %                                                                      %
     % You are using vdW-DF, which was implemented by the Thonhauser group. %
     % Please cite the following two papers that made this development      %
     % possible and the two reviews that describe the various versions:     %
     %                                                                      %
     %   T. Thonhauser et al., PRL 115, 136402 (2015).                      %
     %   T. Thonhauser et al., PRB 76, 125112 (2007).                       %
     %   K. Berland et al., Rep. Prog. Phys. 78, 066501 (2015).             %
     %   D.C. Langreth et al., J. Phys.: Condens. Matter 21, 084203 (2009). %
     %                                                                      %
     %                                                                      %
     % If you are calculating the stress with vdW-DF, please also cite:     %
     %                                                                      %
     %   R. Sabatini et al., J. Phys.: Condens. Matter 24, 424209 (2012).   %
     %                                                                      %
     %%%%%%%%%%%%%%%%%%%%%%%%%%%%%%%%%%%%%%%%%%%%%%%%%%%%%%%%%%%%%%%%%%%%%%%%

     Adding external electric field

     Computed dipole along edir(3) :
        Dipole               -9.1079 Ry au,        -23.1500 Debye
        Dipole field         -0.0172 Ry au,

        Potential amp.        1.5933 Ry
        Total length         46.3494 bohr

     Starting wfcs are  301 atomic wfcs
  @ DRIVER MODE: Message from server: STATUS
  @ DRIVER MODE: Message from server: POSDATA
  @ DRIVER MODE: Reading and sharing cell
  @ DRIVER MODE: Reading and sharing positions
  @ DRIVER MODE: Received positions

     Self-consistent Calculation

     iteration #  1     ecut=    29.40 Ry     beta= 0.05
     Davidson diagonalization with overlap
     c_bands:  1 eigenvalues not converged
     c_bands:  1 eigenvalues not converged
     c_bands:  1 eigenvalues not converged
     c_bands:  1 eigenvalues not converged
     c_bands:  1 eigenvalues not converged
     c_bands:  1 eigenvalues not converged
     c_bands:  1 eigenvalues not converged
     c_bands:  2 eigenvalues not converged
     ethr =  1.00E-05,  avg # of iterations = 19.6

[...]

     total energy              =   -2564.52318202 Ry
     estimated scf accuracy    <    4317.17902868 Ry

     iteration #  2     ecut=    29.40 Ry     beta= 0.05
     Davidson diagonalization with overlap
     ethr =  1.00E-02,  avg # of iterations = 23.7

[...]

     iteration # 46     ecut=    29.40 Ry     beta= 0.05
     Davidson diagonalization with overlap
     c_bands:  1 eigenvalues not converged
     ethr =  1.90E-07,  avg # of iterations =  6.7

[...]

     total energy              =   -2953.97090063 Ry
     estimated scf accuracy    <       0.00000009 Ry

     iteration # 70     ecut=    29.40 Ry     beta= 0.05
     Davidson diagonalization with overlap
     ethr =  2.18E-11,  avg # of iterations =  2.0

     negative rho (up, down):  1.669E-02 0.000E+00

     Adding external electric field

     Computed dipole along edir(3) :
        Dipole                0.5270 Ry au,          1.3396 Debye
        Dipole field          0.0010 Ry au,

        Potential amp.       -0.0922 Ry
        Total length         46.3494 bohr

     End of self-consistent calculation

          k = 0.0000 0.0000 0.0000 ( 18029 PWs)   bands (ev):

   -56.5969 -56.5633 -55.7136 -55.6797 -55.6695 -55.6347 -55.4919 -55.4557
   -55.3610 -55.2448 -55.2294 -55.2276 -55.2109 -55.1319 -54.7256 -54.6745
   -33.0235 -32.8712 -32.8431 -32.7733 -32.6824 -32.6497 -32.1815 -32.1520
   -32.0275 -31.9785 -31.9307 -31.9115 -31.8824 -31.8721 -31.8445 -31.8385
   -31.8193 -31.8145 -31.7903 -31.7763 -31.7678 -31.7113 -31.7070 -31.6695
   -31.6559 -31.6357 -31.6259 -31.6181 -31.5946 -31.5859 -31.5845 -31.5603
   -31.4656 -31.4548 -31.4189 -31.4060 -31.3789 -31.3717 -31.3561 -31.3370
   -31.3092 -31.2607 -31.2398 -30.9685 -30.9479 -30.9174 -30.8929 -30.7841
   -18.7840 -16.7518 -16.2873 -16.0456 -15.9527 -15.8697 -15.8307 -15.7870
   -15.6373 -15.5664 -15.5458 -15.5445 -15.4751 -15.3307 -15.2776 -15.1797
   -15.0927 -14.9511 -14.9397 -14.9008 -14.8853 -14.8495 -14.8455 -14.7945
   -14.6267 -14.5908 -14.5458 -14.4856 -14.3947 -14.1729 -13.7431 -13.6334
   -12.9673  -7.7701  -6.5781  -4.3191  -3.7858  -3.5200  -3.4886  -3.3605
    -3.3549  -3.3108  -3.1689  -3.1560  -3.0859  -3.0651  -2.9995  -2.9513
    -2.9386  -2.8691  -2.7801  -2.7672  -2.7471  -2.7367  -2.7165  -2.6000
    -2.5554  -2.5051  -2.4029  -2.2921  -2.2487  -2.2221  -2.1772  -2.1429
    -2.0927  -2.0806  -2.0680  -2.0575  -1.9519  -1.8327  -1.8061  -1.7823
    -1.7378  -1.7211  -1.7143  -1.6895  -1.6044  -1.4967  -1.4027  -1.3359
    -1.3279  -1.2547  -1.2460  -1.1851  -1.0757  -1.0135  -1.0110  -0.9900
    -0.8865  -0.8599  -0.7884  -0.7253  -0.6672  -0.6142  -0.5521  -0.4992
    -0.4777  -0.4674  -0.3688  -0.2996  -0.2745  -0.2193  -0.2105  -0.2059
    -0.1799  -0.0836  -0.0486   0.0297   0.0635   0.1116   0.1477   0.2272
     0.2858   0.3523   0.3995   0.4204   0.4865   0.5411   0.5973   0.6884
     0.7452   0.7505   0.7769   0.8366   0.8500   0.9252   1.0069   1.0254
     1.0937   1.1645   1.3267   1.3657   1.6235   1.6870   2.3082   2.6806
     2.8418   3.1370   3.3273   3.4656   3.6600   3.6701   3.6775   3.9006
     3.9281

[...]

          k = 0.0380-0.0419 0.0000 ( 17876 PWs)   bands (ev):

[...]

          k =-0.0760-0.0000 0.0000 ( 17886 PWs)   bands (ev):

[...]

          k =-0.0760-0.0839 0.0000 ( 17948 PWs)   bands (ev):

   -56.5802 -56.5798 -55.6986 -55.6943 -55.6567 -55.6477 -55.4779 -55.4696
   -55.3586 -55.2316 -55.2278 -55.2277 -55.2243 -55.1350 -54.7188 -54.6812
   -32.8571 -32.8567 -32.8405 -32.8403 -32.7265 -32.7261 -32.0051 -31.9993
   -31.9878 -31.9808 -31.9045 -31.8899 -31.8888 -31.8844 -31.8778 -31.8762
   -31.8688 -31.8608 -31.8333 -31.8163 -31.7229 -31.7164 -31.6849 -31.6771
   -31.6533 -31.6179 -31.5859 -31.5734 -31.5733 -31.5693 -31.5483 -31.5303
   -31.4794 -31.4526 -31.4524 -31.4465 -31.4306 -31.4135 -31.4134 -31.4008
   -31.3741 -31.3385 -31.1011 -31.0375 -30.9456 -30.9196 -30.9023 -30.8553
   -18.7831 -16.1025 -16.1006 -16.0652 -16.0645 -15.7978 -15.7945 -15.7038
   -15.6984 -15.5663 -15.4459 -15.3422 -15.3296 -15.2955 -15.2687 -15.1582
   -15.1372 -15.1254 -15.1150 -15.0069 -14.9877 -14.9398 -14.9260 -14.9098
   -14.9028 -14.6084 -14.5919 -14.4921 -14.4659 -14.3251 -13.7370 -13.7370
   -12.9858  -7.7636  -6.5712  -3.1992  -3.1924  -3.1566  -3.1376  -3.1366
    -3.0323  -2.9786  -2.9475  -2.9310  -2.9300  -2.8552  -2.7835  -2.7756
    -2.7018  -2.6687  -2.6513  -2.5940  -2.5784  -2.5157  -2.4894  -2.4811
    -2.4633  -2.4404  -2.4392  -2.3436  -2.2776  -2.2318  -2.2265  -2.1667
    -2.1374  -2.0775  -2.0553  -2.0444  -2.0129  -1.9709  -1.9594  -1.9198
    -1.8783  -1.8424  -1.7793  -1.6146  -1.6053  -1.5955  -1.5751  -1.4532
    -1.4460  -1.4117  -1.3810  -1.3755  -1.3033  -1.2545  -1.2171  -1.1645
    -1.0778  -1.0563  -0.9510  -0.8993  -0.8565  -0.8002  -0.6950  -0.6747
    -0.6665  -0.6560  -0.6249  -0.5553  -0.5203  -0.5171  -0.3938  -0.3697
    -0.3297  -0.3026  -0.2442  -0.2153  -0.1569  -0.1245  -0.0543  -0.0412
     0.0008   0.0777   0.1520   0.1870   0.2355   0.2419   0.5170   0.5904
     0.7206   0.7836   0.8464   0.9139   0.9810   1.0080   1.0372   1.1612
     1.1655   1.1745   1.1750   1.2465   1.2518   1.6000   2.1859   3.2568
     3.2570   3.3233   3.3240   3.6449   3.6511   3.7583   3.7685   3.9297
     3.9442

     the Fermi energy is     2.5069 ev

!    total energy              =   -2953.97092670 Ry
     estimated scf accuracy    <       0.00000006 Ry
     smearing contrib. (-TS)   =      -0.00440750 Ry
     internal energy E=F+TS    =   -2953.96651920 Ry

     The total energy is F=E-TS. E is the sum of the following terms:
     one-electron contribution =  -24343.92340451 Ry
     hartree contribution      =   12263.84539569 Ry
     xc contribution           =    -488.77153271 Ry
     ewald contribution        =    9614.88249813 Ry
     electric field correction =       0.00052420 Ry

     convergence has been achieved in  70 iterations

     Forces acting on atoms (cartesian axes, Ry/au):

     atom    1 type  1   force =    -0.00002968   -0.00048286    0.12446056
     atom    2 type  1   force =    -0.00003345   -0.00048304   -0.15976963
     atom    3 type  2   force =     0.00019946   -0.00023907   -0.06788515
     atom    4 type  2   force =     0.00000106   -0.00009051    0.02608890
     atom    5 type  2   force =    -0.01437107    0.00191682   -0.00991518
     atom    6 type  2   force =     0.01615341    0.00232706   -0.01029180
     atom    7 type  1   force =     0.00072122   -0.00389889    0.02855803
     atom    8 type  1   force =    -0.00033684   -0.00436031    0.10942145
     atom    9 type  2   force =     0.00002233    0.00001413    0.00003513
     atom   10 type  2   force =    -0.00225631    0.00266520   -0.07368996
     atom   11 type  2   force =     0.00081316   -0.00002581   -0.00025867
     atom   12 type  2   force =    -0.00042720    0.00005884   -0.00021726
     atom   13 type  1   force =    -0.00001515    0.00013024   -0.00004064
     atom   14 type  1   force =    -0.00034946    0.00048213   -0.00034975
     atom   15 type  2   force =     0.00002746   -0.00076504   -0.00034514
     atom   16 type  2   force =    -0.00018694   -0.00000529    0.00036082
     atom   17 type  2   force =    -0.00068179   -0.00032403   -0.00033790
     atom   18 type  2   force =     0.00033795   -0.00020044    0.00008342
     atom   19 type  1   force =     0.00043381   -0.00001020   -0.00023747
     atom   20 type  1   force =    -0.00021263   -0.00084689   -0.00094756
     atom   21 type  2   force =     0.00006614   -0.00004061    0.09952798
     atom   22 type  2   force =     0.00004665   -0.00050332    0.00014096
     atom   23 type  2   force =    -0.07972213   -0.00006416   -0.03247330
     atom   24 type  2   force =     0.07959269    0.00037525   -0.03253156
     atom   25 type  1   force =    -0.00000596   -0.00057459    0.12409984
     atom   26 type  1   force =    -0.00010703   -0.00062736   -0.15989594
     atom   27 type  2   force =     0.00033153   -0.00035984   -0.06695522
     atom   28 type  2   force =    -0.00002529    0.00017890    0.02511110
     atom   29 type  2   force =    -0.01496094    0.00189868   -0.00989241
     atom   30 type  2   force =     0.01664693    0.00242606   -0.01022516
     atom   31 type  1   force =     0.00078663   -0.00077384    0.02382593
     atom   32 type  1   force =    -0.00022819    0.00200569    0.11005120
     atom   33 type  2   force =     0.00004325   -0.00027242    0.00029835
     atom   34 type  2   force =    -0.00212246    0.00207150   -0.07180118
     atom   35 type  2   force =     0.00024024   -0.00013000   -0.00010808
     atom   36 type  2   force =    -0.00015748   -0.00025996   -0.00018203
     atom   37 type  1   force =     0.00042621   -0.00003469    0.00049256
     atom   38 type  1   force =     0.00000745   -0.00056648   -0.00012692
     atom   39 type  2   force =     0.00006341    0.00020199    0.00062900
     atom   40 type  2   force =    -0.00009128   -0.00023982    0.00022406
     atom   41 type  2   force =     0.00071289   -0.00033349    0.00007562
     atom   42 type  2   force =    -0.00096114   -0.00039559    0.00056226
     atom   43 type  1   force =     0.00002307   -0.00034674    0.00011945
     atom   44 type  1   force =    -0.00028549   -0.00018299   -0.00059113
     atom   45 type  2   force =     0.00005559   -0.00004804    0.09949234
     atom   46 type  2   force =    -0.07973118    0.00000163   -0.03249476
     atom   47 type  2   force =     0.07961041    0.00042999   -0.03252089
     atom   48 type  3   force =    -0.00056664   -0.00188352   -0.00065327
     atom   49 type  4   force =    -0.00034867    0.01922189    0.00034610
     atom   50 type  5   force =    -0.00121400   -0.00920961   -0.00234295
     atom   51 type  5   force =    -0.00320323   -0.00409636    0.00240496
     atom   52 type  5   force =     0.00445372   -0.00404115    0.00093144
     atom   53 type  2   force =    -0.00060774   -0.00008074   -0.00073038
     atom   54 type  5   force =     0.00081788    0.00038033    0.00068529
     atom   55 type  5   force =     0.00060482    0.00001137   -0.00021548

     Total force =     0.424100     Total SCF correction =     0.000711
  @ DRIVER MODE: Message from server: STATUS
  @ DRIVER MODE: Message from server: GETFORCE
  @ DRIVER MODE: Returning v,forces,stress,ensemble

     Writing output data file ./calc.save/
  @ DRIVER MODE: Message from server: EXIT
  @ DRIVE MODE: Exiting

     General routines

     Parallel routines

   This run was terminated on:  18:30:11  15Sep2021

   JOB DONE.