     Program PWSCF v.6.7GPU starts on 16Sep2021 at  1: 0:18

     R & G space division:  proc/nbgrp/npool/nimage =      10
     Reading input from /storage/home/hcoda1/3/ntian30/research/carbon/CxH_vib/H2O_calc/ads_slab/CHOH2O_a/out_0029/pw.inp
Warning: card &CELL ignored
Warning: card   CELL_DYNAMICS='IPI', ignored
Warning: card / ignored

     Current dimensions of program PWSCF are:
     Max number of different atomic species (ntypx) = 10
     Max number of k-points (npk) =  40000
     Max angular momentum in pseudopotentials (lmaxx) =  3
     Presently no symmetry can be used with electric field

     Message from routine cell_base_init:
     DEPRECATED: use true lattice parameter, not A to a.u. conversion factor

     IMPORTANT: XC functional enforced from input :
     Exchange-correlation= BEEF-VDW
                           (   1   4  43  14   2   0   0)
     Any further DFT definition will be discarded
     Please, verify this is what you really want

  @ DRIVER MODE: Connecting to
 qe_1139763_2852631.sched-torque.pace.gatech.edu174__ije_scratch
  using UNIX socket
  @ DRIVER MODE: Message from server: STATUS
  @ DRIVER MODE: Message from server: INIT
  @ DRIVER MODE: Receiving replica           0          -1
  @ DRIVER MODE: Receiving encoded integer          25
  @ DRIVER MODE:  SCF:  T  FORCE:  T  STRESS:  F  VC:  F  ENSEMBLE:  F
  @ DRIVER MODE:  SCF:  T  FORCE:  T  STRESS:  F  VC:  F  ENSEMBLE:  F

     Using Slab Decomposition

     bravais-lattice index     =            0
     lattice parameter (alat)  =       1.8897  a.u.
     unit-cell volume          =    6658.9804 (a.u.)^3
     number of atoms/cell      =           53
     number of atomic types    =            4
     number of electrons       =       397.00
     number of Kohn-Sham states=          208
     kinetic-energy cutoff     =      29.3995  Ry
     charge density cutoff     =     293.9946  Ry
     scf convergence threshold =      7.3E-08
     mixing beta               =       0.0500
     number of iterations used =            8  plain     mixing
     Exchange-correlation= BEEF-VDW
                           (   1   4  43  14   2   0   0)

     celldm(1)=   1.889726  celldm(2)=   0.000000  celldm(3)=   0.000000
     celldm(4)=   0.000000  celldm(5)=   0.000000  celldm(6)=   0.000000

     crystal axes: (cart. coord. in units of alat)
               a(1) = (   6.579727   0.000000   0.000000 )
               a(2) = (  -0.000775   5.961596   0.000000 )
               a(3) = (   0.000000   0.000000  25.155947 )

     reciprocal axes: (cart. coord. in units 2 pi/alat)
               b(1) = (  0.151982  0.000020  0.000000 )
               b(2) = (  0.000000  0.167740  0.000000 )
               b(3) = (  0.000000  0.000000  0.039752 )

     PseudoPot. # 1 for O  read from file:
     /storage/coda1/p-amedford6/0/shared/rich_project_chbe-medford/medford-share/data/pseudos_module/espresso/nninc/pbe/van/O.UPF
     MD5 check sum: 78c19812648e8988a0fe644b0f25305e
     Pseudo is Ultrasoft, Zval =  6.0
     Generated by new atomic code, or converted to UPF format
     Using radial grid of  737 points,  4 beta functions with:
                l(1) =   0
                l(2) =   0
                l(3) =   1
                l(4) =   1
     Q(r) pseudized with  8 coefficients,  rinner =    0.800   0.800   0.800

     PseudoPot. # 2 for Ti read from file:
     /storage/coda1/p-amedford6/0/shared/rich_project_chbe-medford/medford-share/data/pseudos_module/espresso/nninc/pbe/van/Ti.UPF
     MD5 check sum: 8e4df49b7f0d34bbd5052bf3f5ea0213
     Pseudo is Ultrasoft, Zval = 12.0
     Generated by new atomic code, or converted to UPF format
     Using radial grid of  851 points,  6 beta functions with:
                l(1) =   0
                l(2) =   0
                l(3) =   1
                l(4) =   1
                l(5) =   2
                l(6) =   2
     Q(r) pseudized with  8 coefficients,  rinner =    1.000   1.000   1.000
                                                       1.000   1.000

     PseudoPot. # 3 for C  read from file:
     /storage/coda1/p-amedford6/0/shared/rich_project_chbe-medford/medford-share/data/pseudos_module/espresso/nninc/pbe/van/C.UPF
     MD5 check sum: 1a69bf6b8db32088f5b2163dbdb77a27
     Pseudo is Ultrasoft, Zval =  4.0
     Generated by new atomic code, or converted to UPF format
     Using radial grid of  721 points,  4 beta functions with:
                l(1) =   0
                l(2) =   0
                l(3) =   1
                l(4) =   1
     Q(r) pseudized with  8 coefficients,  rinner =    0.800   0.800   0.800

     PseudoPot. # 4 for H  read from file:
     /storage/coda1/p-amedford6/0/shared/rich_project_chbe-medford/medford-share/data/pseudos_module/espresso/nninc/pbe/van/H.UPF
     MD5 check sum: b5ee9d7bfd3a09ee7748110bda690ff7
     Pseudo is Ultrasoft, Zval =  1.0
     Generated by new atomic code, or converted to UPF format
     Using radial grid of  615 points,  1 beta functions with:
                l(1) =   0
     Q(r) pseudized with  8 coefficients,  rinner =    0.800

     atomic species   valence    mass     pseudopotential
        O1             6.00    15.99900     O ( 1.00)
        Ti1           12.00    47.86700     Ti( 1.00)
        C1             4.00    12.01100     C ( 1.00)
        H1             1.00     1.00800     H ( 1.00)

     No symmetry found

   Cartesian axes

     site n.     atom                  positions (alat units)
         1           O1  tau(   1) = (   3.2904802   0.0005063   4.7018136  )
         2           O1  tau(   2) = (   3.2900926   2.9813045   4.7018136  )
         3           Ti1 tau(   3) = (   0.0004258   2.9801865   6.0000000  )
         4           Ti1 tau(   4) = (   0.0000382   5.9609847   6.0000000  )
         5           Ti1 tau(   5) = (   3.2906075   1.4906267   6.0002472  )
         6           Ti1 tau(   6) = (   3.2902200   4.4714249   6.0002472  )
         7           O1  tau(   7) = (   1.3043587   1.4918075   6.0039043  )
         8           O1  tau(   8) = (   1.3039711   4.4726057   6.0039043  )
         9           O1  tau(   9) = (   5.2767064   1.4903225   6.0039473  )
        10           O1  tau(  10) = (   5.2763189   4.4711207   6.0039473  )
        11           O1  tau(  11) = (   3.2906025   0.0005020   7.3038282  )
        12           O1  tau(  12) = (   3.2902150   2.9813002   7.3038282  )
        13           O1  tau(  13) = (   0.0006271   0.0005054   7.9858123  )
        14           O1  tau(  14) = (   0.0002396   2.9813036   7.9858123  )
        15           Ti1 tau(  15) = (   3.2898052   0.0549011   9.1556235  )
        16           Ti1 tau(  16) = (   3.3203827   3.0319468   9.1649589  )
        17           Ti1 tau(  17) = (   0.0233352   4.5284096   9.2575609  )
        18           Ti1 tau(  18) = (   0.0173867   1.6076536   9.3607995  )
        19           O1  tau(  19) = (   4.5942328   1.4918067   9.2879030  )
        20           O1  tau(  20) = (   4.5938453   4.4726049   9.2879030  )
        21           O1  tau(  21) = (   1.9868534   1.4903216   9.2879459  )
        22           O1  tau(  22) = (   1.9864658   4.4711199   9.2879459  )
        23           O1  tau(  23) = (   0.0034721   0.0125384  10.6021848  )
        24           O1  tau(  24) = (   0.0020335   2.9928551  10.5785608  )
        25           O1  tau(  25) = (   3.2937812   2.9995440  11.3622203  )
        26           O1  tau(  26) = (   3.2898347   0.0201518  11.3605052  )
        27           Ti1 tau(  27) = (   0.0300534   0.0302837  12.4945235  )
        28           Ti1 tau(  28) = (   3.3347356   4.5017157  12.5123549  )
        29           Ti1 tau(  29) = (   3.3349302   1.5071924  12.5110355  )
        30           Ti1 tau(  30) = (   0.0295963   3.0145660  12.7881340  )
        31           O1  tau(  31) = (   1.2797855   4.4923438  12.6426172  )
        32           O1  tau(  32) = (   1.2799313   1.5104473  12.6443552  )
        33           O1  tau(  33) = (   5.2866386   4.4922094  12.6434695  )
        34           O1  tau(  34) = (   5.2866683   1.5083124  12.6439979  )
        35           O1  tau(  35) = (   3.2814828   3.0070543  13.9178409  )
        36           O1  tau(  36) = (   3.2867003   0.0227894  13.9786966  )
        37           O1  tau(  37) = (   0.0021618   0.0175046  14.6784646  )
        38           O1  tau(  38) = (   0.0002945   3.0143855  14.7103493  )
        39           Ti1 tau(  39) = (   3.2869621   3.0144872  15.7052805  )
        40           Ti1 tau(  40) = (   3.3044863   0.0423327  15.8215216  )
        41           Ti1 tau(  41) = (   0.0135451   4.5796903  15.9522020  )
        42           Ti1 tau(  42) = (   0.0105102   1.3838334  15.9764479  )
        43           O1  tau(  43) = (   4.5519026   4.4709862  16.0573678  )
        44           O1  tau(  44) = (   4.5564327   1.5473262  16.0430495  )
        45           O1  tau(  45) = (   2.0152543   1.5518810  16.0555283  )
        46           O1  tau(  46) = (   2.0123771   4.4621050  16.0713562  )
        47           O1  tau(  47) = (   0.0008539   0.0298781  17.1953024  )
        48           O1  tau(  48) = (   6.5358978   3.0350243  17.4695059  )
        49           C1  tau(  49) = (   6.3916590   3.0774531  18.7359330  )
        50           H1  tau(  50) = (   6.4332689   2.0249999  19.1325638  )
        51           O1  tau(  51) = (   3.2941481   0.0813851  18.1811625  )
        52           H1  tau(  52) = (   4.0521942   5.5777154  18.5614528  )
        53           H1  tau(  53) = (   2.4879692   5.6555715  18.5615442  )

     number of k points=    10  Fermi-Dirac smearing, width (Ry)=  0.0073
                       cart. coord. in units 2pi/alat
        k(    1) = (   0.0000000   0.0000000   0.0000000), wk =   0.1250000
        k(    2) = (   0.0000000   0.0419351   0.0000000), wk =   0.2500000
        k(    3) = (   0.0000000  -0.0838702   0.0000000), wk =   0.1250000
        k(    4) = (   0.0379955   0.0000049   0.0000000), wk =   0.2500000
        k(    5) = (   0.0379955   0.0419400   0.0000000), wk =   0.2500000
        k(    6) = (   0.0379955  -0.0838652   0.0000000), wk =   0.2500000
        k(    7) = (   0.0379955  -0.0419301   0.0000000), wk =   0.2500000
        k(    8) = (  -0.0759910  -0.0000099   0.0000000), wk =   0.1250000
        k(    9) = (  -0.0759910   0.0419252   0.0000000), wk =   0.2500000
        k(   10) = (  -0.0759910  -0.0838800   0.0000000), wk =   0.1250000

     Initial potential from superposition of free atoms

     starting charge  380.99918, renormalised to  397.00000

     negative rho (up, down):  1.752E-02 0.000E+00

     %%%%%%%%%%%%%%%%%%%%%%%%%%%%%%%%%%%%%%%%%%%%%%%%%%%%%%%%%%%%%%%%%%%%%%%%
     %                                                                      %
     % You are using vdW-DF, which was implemented by the Thonhauser group. %
     % Please cite the following two papers that made this development      %
     % possible and the two reviews that describe the various versions:     %
     %                                                                      %
     %   T. Thonhauser et al., PRL 115, 136402 (2015).                      %
     %   T. Thonhauser et al., PRB 76, 125112 (2007).                       %
     %   K. Berland et al., Rep. Prog. Phys. 78, 066501 (2015).             %
     %   D.C. Langreth et al., J. Phys.: Condens. Matter 21, 084203 (2009). %
     %                                                                      %
     %                                                                      %
     % If you are calculating the stress with vdW-DF, please also cite:     %
     %                                                                      %
     %   R. Sabatini et al., J. Phys.: Condens. Matter 24, 424209 (2012).   %
     %                                                                      %
     %%%%%%%%%%%%%%%%%%%%%%%%%%%%%%%%%%%%%%%%%%%%%%%%%%%%%%%%%%%%%%%%%%%%%%%%

     Adding external electric field

     Computed dipole along edir(3) :
        Dipole               -8.9483 Ry au,        -22.7442 Debye
        Dipole field         -0.0169 Ry au,

        Potential amp.        1.5654 Ry
        Total length         46.3494 bohr

     Starting wfcs are  299 atomic wfcs
  @ DRIVER MODE: Message from server: STATUS
  @ DRIVER MODE: Message from server: POSDATA
  @ DRIVER MODE: Reading and sharing cell
  @ DRIVER MODE: Reading and sharing positions
  @ DRIVER MODE: Received positions

     Self-consistent Calculation

     iteration #  1     ecut=    29.40 Ry     beta= 0.05
     Davidson diagonalization with overlap
     c_bands:  1 eigenvalues not converged
     c_bands:  1 eigenvalues not converged
     c_bands:  1 eigenvalues not converged
     c_bands:  1 eigenvalues not converged
     c_bands:  2 eigenvalues not converged
     ethr =  1.00E-05,  avg # of iterations = 19.3

[...]

     total energy              =   -2583.15001467 Ry
     estimated scf accuracy    <    4233.79792322 Ry

     iteration #  2     ecut=    29.40 Ry     beta= 0.05
     Davidson diagonalization with overlap
     ethr =  1.00E-02,  avg # of iterations = 24.4

[...]

     iteration # 60     ecut=    29.40 Ry     beta= 0.05
     Davidson diagonalization with overlap
     c_bands:  1 eigenvalues not converged
     ethr =  6.97E-11,  avg # of iterations = 15.8

[...]

     total energy              =   -2963.67525570 Ry
     estimated scf accuracy    <       0.00000012 Ry

     iteration # 63     ecut=    29.40 Ry     beta= 0.05
     Davidson diagonalization with overlap
     ethr =  3.13E-11,  avg # of iterations =  7.5

     negative rho (up, down):  1.624E-02 0.000E+00

     Adding external electric field

     Computed dipole along edir(3) :
        Dipole                0.4614 Ry au,          1.1727 Debye
        Dipole field          0.0009 Ry au,

        Potential amp.       -0.0807 Ry
        Total length         46.3494 bohr

     End of self-consistent calculation

          k = 0.0000 0.0000 0.0000 ( 18029 PWs)   bands (ev):

   -56.0150 -55.9784 -55.9781 -55.9566 -55.9423 -55.8979 -55.8640 -55.8296
   -55.7977 -55.7933 -55.7821 -55.7559 -55.7485 -55.6882 -55.0240 -54.9899
   -32.5315 -32.4856 -32.4077 -32.3748 -32.3656 -32.3108 -32.2913 -32.2801
   -32.2605 -32.2476 -32.2090 -32.2021 -32.1921 -32.1734 -32.1726 -32.1606
   -32.1340 -32.1205 -32.1076 -32.1068 -32.0864 -32.0781 -32.0727 -32.0663
   -32.0521 -32.0438 -32.0409 -32.0295 -32.0131 -32.0033 -31.9996 -31.9865
   -31.9668 -31.9605 -31.9575 -31.9552 -31.9265 -31.9086 -31.8986 -31.8875
   -31.8746 -31.8707 -31.4335 -31.3376 -31.3152 -31.2499 -31.1638 -31.0528
   -19.4401 -19.1363 -16.7356 -16.4746 -16.3150 -16.1960 -16.1474 -15.9310
   -15.8471 -15.7969 -15.7092 -15.6334 -15.6047 -15.5879 -15.5546 -15.5399
   -15.5336 -15.5128 -15.4604 -15.4435 -15.4214 -15.4163 -15.4047 -15.3854
   -15.3041 -15.2316 -15.1686 -15.1364 -15.0641 -15.0246 -14.9870 -13.5252
   -13.4073  -7.8991  -6.9598  -4.6609  -4.0934  -3.9505  -3.9313  -3.9028
    -3.8316  -3.6529  -3.6166  -3.4702  -3.3175  -3.3066  -3.1867  -3.1498
    -3.1252  -3.0574  -3.0391  -2.9791  -2.8504  -2.8371  -2.8261  -2.8084
    -2.7978  -2.7540  -2.7321  -2.6954  -2.6548  -2.5887  -2.5179  -2.4924
    -2.4172  -2.4114  -2.3740  -2.3184  -2.3131  -2.2887  -2.2741  -2.2480
    -2.1975  -2.1831  -2.1721  -2.0686  -1.9809  -1.8696  -1.7084  -1.6829
    -1.6791  -1.5563  -1.5071  -1.4534  -1.4203  -1.4184  -1.3688  -1.3201
    -1.2741  -1.2552  -1.1505  -1.0370  -1.0050  -0.9444  -0.9173  -0.7926
    -0.7423  -0.7366  -0.7275  -0.7191  -0.6963  -0.6261  -0.5116  -0.4395
    -0.4303  -0.3387  -0.3166  -0.3036  -0.2451  -0.2359  -0.2148  -0.1601
    -0.1150  -0.0678  -0.0508  -0.0209   0.0163   0.0211   0.1515   0.2008
     0.2293   0.2505   0.2883   0.4568   0.5015   0.6315   0.7368   0.9074
     0.9998   1.0648   1.1743   1.5853   1.6427   2.8408   3.1623   3.2066
     3.2201   3.2346   3.2972   3.3997   3.5449   3.6154   3.6298   3.6650

[...]

          k = 0.0380-0.0419 0.0000 ( 17876 PWs)   bands (ev):

[...]

          k =-0.0760-0.0000 0.0000 ( 17886 PWs)   bands (ev):

[...]

          k =-0.0760-0.0839 0.0000 ( 17948 PWs)   bands (ev):

   -56.0036 -55.9893 -55.9615 -55.9591 -55.9545 -55.8858 -55.8762 -55.8252
   -55.7951 -55.7945 -55.7672 -55.7637 -55.7600 -55.6909 -55.0075 -55.0063
   -32.3464 -32.3258 -32.3201 -32.3097 -32.2972 -32.2940 -32.2743 -32.2473
   -32.2386 -32.2278 -32.2178 -32.2111 -32.1698 -32.1592 -32.1519 -32.1411
   -32.1279 -32.1238 -32.1188 -32.1172 -32.1132 -32.1120 -32.0939 -32.0898
   -32.0894 -32.0830 -32.0769 -32.0494 -32.0329 -32.0269 -32.0190 -32.0172
   -32.0091 -31.9961 -31.9851 -31.9784 -31.9758 -31.9731 -31.9627 -31.9491
   -31.9152 -31.8845 -31.3286 -31.3271 -31.2469 -31.2459 -31.2074 -31.2064
   -19.4317 -19.1357 -16.1882 -16.0808 -16.0719 -15.8969 -15.8831 -15.8605
   -15.8183 -15.8083 -15.7156 -15.7130 -15.6691 -15.6563 -15.6301 -15.5959
   -15.5910 -15.5296 -15.5287 -15.5244 -15.4693 -15.4635 -15.4416 -15.4265
   -15.4048 -15.3948 -15.3495 -15.3381 -15.2748 -15.2060 -15.1930 -13.5097
   -13.5075  -7.9000  -6.9531  -4.6059  -3.7158  -3.4702  -3.3226  -3.2915
    -3.2300  -3.1332  -3.1065  -3.0688  -3.0206  -2.9803  -2.9310  -2.8711
    -2.8477  -2.8442  -2.8332  -2.8276  -2.8083  -2.8020  -2.7628  -2.7376
    -2.7061  -2.6775  -2.6587  -2.6358  -2.6302  -2.6122  -2.5876  -2.5764
    -2.5636  -2.5547  -2.4853  -2.4556  -2.3330  -2.3254  -2.2448  -2.2127
    -2.1510  -2.1442  -2.1215  -2.0792  -2.0703  -2.0552  -1.8805  -1.8567
    -1.7479  -1.7411  -1.7195  -1.6902  -1.6003  -1.5321  -1.4954  -1.4784
    -1.4252  -1.4078  -1.3357  -1.2707  -1.2105  -1.1743  -1.1060  -1.0751
    -1.0589  -0.9809  -0.9713  -0.9356  -0.9104  -0.8926  -0.7733  -0.7664
    -0.7309  -0.6951  -0.6644  -0.6119  -0.5636  -0.5468  -0.5109  -0.4574
    -0.3849  -0.3611  -0.1715   0.0101   0.0168   0.0461   0.1370   0.1758
     0.2945   0.3266   0.3322   0.3674   0.4081   0.5020   0.5246   0.5321
     0.6057   1.3601   1.3610   1.4475   1.4585   2.7079   3.3517   3.4113
     3.4752   3.5112   3.6160   3.6334   3.6481   3.6593   3.6958   3.7999

     the Fermi energy is     3.1357 ev

!    total energy              =   -2963.67530035 Ry
     estimated scf accuracy    <       0.00000006 Ry
     smearing contrib. (-TS)   =      -0.02584851 Ry
     internal energy E=F+TS    =   -2963.64945184 Ry

     The total energy is F=E-TS. E is the sum of the following terms:
     one-electron contribution =  -24423.43997949 Ry
     hartree contribution      =   12299.11854081 Ry
     xc contribution           =    -489.19310406 Ry
     ewald contribution        =    9649.86468918 Ry
     electric field correction =       0.00040171 Ry

     convergence has been achieved in  63 iterations

     Forces acting on atoms (cartesian axes, Ry/au):

     atom    1 type  1   force =    -0.00006571    0.00006992    0.10401350
     atom    2 type  1   force =    -0.00005755    0.00005962    0.10403576
     atom    3 type  2   force =    -0.00018197   -0.00195722    0.10279040
     atom    4 type  2   force =    -0.00008474    0.00161052    0.11468431
     atom    5 type  2   force =    -0.00026314    0.00155485   -0.17901227
     atom    6 type  2   force =    -0.00014529   -0.00104562   -0.17938172
     atom    7 type  1   force =    -0.06954420    0.00066177   -0.02929076
     atom    8 type  1   force =    -0.06908661   -0.00122419   -0.02933474
     atom    9 type  1   force =     0.06922461    0.00119116   -0.02934432
     atom   10 type  1   force =     0.06884958   -0.00085681   -0.02941800
     atom   11 type  1   force =     0.00006077    0.00064182    0.04735486
     atom   12 type  1   force =     0.00063990    0.00090336    0.04972464
     atom   13 type  1   force =     0.00021856   -0.00562746   -0.03309955
     atom   14 type  1   force =     0.00028293    0.00398182   -0.02650565
     atom   15 type  2   force =    -0.00015866   -0.00005443   -0.00072960
     atom   16 type  2   force =    -0.00020122   -0.00006630   -0.00077931
     atom   17 type  2   force =     0.00009055   -0.00092477   -0.00007387
     atom   18 type  2   force =     0.00011741    0.00111426   -0.00008551
     atom   19 type  1   force =    -0.01880340   -0.00005798    0.00452467
     atom   20 type  1   force =    -0.01689780    0.00164758    0.00397817
     atom   21 type  1   force =     0.01838327   -0.00109678    0.00450781
     atom   22 type  1   force =     0.01749102    0.00197731    0.00383732
     atom   23 type  1   force =     0.00018147    0.00005946   -0.00074391
     atom   24 type  1   force =     0.00011191   -0.00022834   -0.00028647
     atom   25 type  1   force =    -0.00031664    0.00016191   -0.00068488
     atom   26 type  1   force =    -0.00019427   -0.00004248   -0.00085885
     atom   27 type  2   force =    -0.00021474    0.00044812    0.00035040
     atom   28 type  2   force =     0.00027652    0.00065718    0.00080490
     atom   29 type  2   force =     0.00028579   -0.00012459    0.00098625
     atom   30 type  2   force =    -0.00019825   -0.00023917    0.00017725
     atom   31 type  1   force =     0.00024613   -0.00008353   -0.00035880
     atom   32 type  1   force =     0.00002877    0.00013049   -0.00009435
     atom   33 type  1   force =    -0.00010099   -0.00018147   -0.00072066
     atom   34 type  1   force =     0.00004385    0.00012819   -0.00042801
     atom   35 type  1   force =     0.00011208   -0.00003245   -0.00114191
     atom   36 type  1   force =     0.00012863   -0.00054062    0.00031623
     atom   37 type  1   force =    -0.00020466    0.00015460    0.00004118
     atom   38 type  1   force =     0.00014813   -0.00002524   -0.00063388
     atom   39 type  2   force =    -0.00016992   -0.00056823    0.00074705
     atom   40 type  2   force =    -0.00020524   -0.00061752   -0.00010073
     atom   41 type  2   force =     0.00032517   -0.00087291   -0.00014928
     atom   42 type  2   force =     0.00006506    0.00051581    0.00015321
     atom   43 type  1   force =    -0.00084793   -0.00039309    0.00025608
     atom   44 type  1   force =    -0.00016228   -0.00018343    0.00010791
     atom   45 type  1   force =     0.00012757   -0.00028306    0.00014971
     atom   46 type  1   force =     0.00077836   -0.00017350    0.00006054
     atom   47 type  1   force =    -0.00034326    0.00033865    0.00017252
     atom   48 type  1   force =     0.00009203    0.00061470   -0.00007704
     atom   49 type  3   force =     0.00000602   -0.00019304   -0.00045482
     atom   50 type  4   force =    -0.00058751    0.00081244   -0.00072194
     atom   51 type  1   force =    -0.00604009    0.00404319   -0.00496996
     atom   52 type  4   force =     0.00632813   -0.00509901    0.00496907
     atom   53 type  4   force =     0.00043187   -0.00068551    0.00073710

     Total force =     0.374562     Total SCF correction =     0.000416
  @ DRIVER MODE: Message from server: STATUS
  @ DRIVER MODE: Message from server: GETFORCE
  @ DRIVER MODE: Returning v,forces,stress,ensemble

     Writing output data file ./calc.save/
  @ DRIVER MODE: Message from server: EXIT
  @ DRIVE MODE: Exiting

     General routines

     Parallel routines

   This run was terminated on:   1:17:43  16Sep2021

   JOB DONE.