     Program PWSCF v.6.7GPU starts on 16Jul2021 at  4:34:25

     R & G space division:  proc/nbgrp/npool/nimage =      16
     Reading input from /storage/home/hcoda1/3/ntian30/research/carbon/15Jul_vib/ads_slab/CH3NNH3_a/out_0023/pw.inp
Warning: card &CELL ignored
Warning: card   CELL_DYNAMICS='IPI', ignored
Warning: card / ignored

     Current dimensions of program PWSCF are:
     Max number of different atomic species (ntypx) = 10
     Max number of k-points (npk) =  40000
     Max angular momentum in pseudopotentials (lmaxx) =  3
     Presently no symmetry can be used with electric field

     Message from routine cell_base_init:
     DEPRECATED: use true lattice parameter, not A to a.u. conversion factor

     IMPORTANT: XC functional enforced from input :
     Exchange-correlation= BEEF-VDW
                           (   1   4  43  14   2   0   0)
     Any further DFT definition will be discarded
     Please, verify this is what you really want

  @ DRIVER MODE: Connecting to
 qe_1139763_2351650.sched-torque.pace.gatech.eduka20m5sj_scratch
  using UNIX socket
  @ DRIVER MODE: Message from server: STATUS
  @ DRIVER MODE: Message from server: INIT
  @ DRIVER MODE: Receiving replica           0          -1
  @ DRIVER MODE: Receiving encoded integer          25
  @ DRIVER MODE:  SCF:  T  FORCE:  T  STRESS:  F  VC:  F  ENSEMBLE:  F
  @ DRIVER MODE:  SCF:  T  FORCE:  T  STRESS:  F  VC:  F  ENSEMBLE:  F

     Using Slab Decomposition

     bravais-lattice index     =            0
     lattice parameter (alat)  =       1.8897  a.u.
     unit-cell volume          =    6658.9804 (a.u.)^3
     number of atoms/cell      =           56
     number of atomic types    =            5
     number of electrons       =       398.00
     number of Kohn-Sham states=          209
     kinetic-energy cutoff     =      29.3995  Ry
     charge density cutoff     =     293.9946  Ry
     scf convergence threshold =      7.3E-08
     mixing beta               =       0.0500
     number of iterations used =            8  plain     mixing
     Exchange-correlation= BEEF-VDW
                           (   1   4  43  14   2   0   0)

     celldm(1)=   1.889726  celldm(2)=   0.000000  celldm(3)=   0.000000
     celldm(4)=   0.000000  celldm(5)=   0.000000  celldm(6)=   0.000000

     crystal axes: (cart. coord. in units of alat)
               a(1) = (   6.579727   0.000000   0.000000 )
               a(2) = (  -0.000775   5.961596   0.000000 )
               a(3) = (   0.000000   0.000000  25.155947 )

     reciprocal axes: (cart. coord. in units 2 pi/alat)
               b(1) = (  0.151982  0.000020  0.000000 )
               b(2) = (  0.000000  0.167740  0.000000 )
               b(3) = (  0.000000  0.000000  0.039752 )

     PseudoPot. # 1 for Ti read from file:
     /storage/coda1/p-amedford6/0/shared/rich_project_chbe-medford/medford-share/data/pseudos_module/espresso/nninc/pbe/van/Ti.UPF
     MD5 check sum: 8e4df49b7f0d34bbd5052bf3f5ea0213
     Pseudo is Ultrasoft, Zval = 12.0
     Generated by new atomic code, or converted to UPF format
     Using radial grid of  851 points,  6 beta functions with:
                l(1) =   0
                l(2) =   0
                l(3) =   1
                l(4) =   1
                l(5) =   2
                l(6) =   2
     Q(r) pseudized with  8 coefficients,  rinner =    1.000   1.000   1.000
                                                       1.000   1.000

     PseudoPot. # 2 for O  read from file:
     /storage/coda1/p-amedford6/0/shared/rich_project_chbe-medford/medford-share/data/pseudos_module/espresso/nninc/pbe/van/O.UPF
     MD5 check sum: 78c19812648e8988a0fe644b0f25305e
     Pseudo is Ultrasoft, Zval =  6.0
     Generated by new atomic code, or converted to UPF format
     Using radial grid of  737 points,  4 beta functions with:
                l(1) =   0
                l(2) =   0
                l(3) =   1
                l(4) =   1
     Q(r) pseudized with  8 coefficients,  rinner =    0.800   0.800   0.800

     PseudoPot. # 3 for N  read from file:
     /storage/coda1/p-amedford6/0/shared/rich_project_chbe-medford/medford-share/data/pseudos_module/espresso/nninc/pbe/van/N.UPF
     MD5 check sum: 90d10febe142ad51ac9d5be1deb811c4
     Pseudo is Ultrasoft, Zval =  5.0
     Generated by new atomic code, or converted to UPF format
     Using radial grid of  729 points,  4 beta functions with:
                l(1) =   0
                l(2) =   0
                l(3) =   1
                l(4) =   1
     Q(r) pseudized with  8 coefficients,  rinner =    0.800   0.800   0.800

     PseudoPot. # 4 for C  read from file:
     /storage/coda1/p-amedford6/0/shared/rich_project_chbe-medford/medford-share/data/pseudos_module/espresso/nninc/pbe/van/C.UPF
     MD5 check sum: 1a69bf6b8db32088f5b2163dbdb77a27
     Pseudo is Ultrasoft, Zval =  4.0
     Generated by new atomic code, or converted to UPF format
     Using radial grid of  721 points,  4 beta functions with:
                l(1) =   0
                l(2) =   0
                l(3) =   1
                l(4) =   1
     Q(r) pseudized with  8 coefficients,  rinner =    0.800   0.800   0.800

     PseudoPot. # 5 for H  read from file:
     /storage/coda1/p-amedford6/0/shared/rich_project_chbe-medford/medford-share/data/pseudos_module/espresso/nninc/pbe/van/H.UPF
     MD5 check sum: b5ee9d7bfd3a09ee7748110bda690ff7
     Pseudo is Ultrasoft, Zval =  1.0
     Generated by new atomic code, or converted to UPF format
     Using radial grid of  615 points,  1 beta functions with:
                l(1) =   0
     Q(r) pseudized with  8 coefficients,  rinner =    0.800

     atomic species   valence    mass     pseudopotential
        Ti1           12.00    47.86700     Ti( 1.00)
        O1             6.00    15.99900     O ( 1.00)
        N1             5.00    14.00700     N ( 1.00)
        C1             4.00    12.01100     C ( 1.00)
        H1             1.00     1.00800     H ( 1.00)

     Starting magnetic structure
     atomic species   magnetization
        Ti1          0.000
        O1           0.000
        N1           0.000
        C1           0.025
        H1           0.000

     No symmetry found

   Cartesian axes

     site n.     atom                  positions (alat units)
         1           Ti1 tau(   1) = (   0.0004258   2.9801865   6.0000000  )
         2           Ti1 tau(   2) = (   3.2906075   1.4906267   6.0002472  )
         3           O1  tau(   3) = (   0.0006271   0.0005054   7.9858123  )
         4           O1  tau(   4) = (   3.2906025   0.0005020   7.3038282  )
         5           O1  tau(   5) = (   4.5942328   1.4918067   9.2879030  )
         6           O1  tau(   6) = (   1.9868534   1.4903216   9.2879459  )
         7           Ti1 tau(   7) = (   3.2907910   2.8959150   9.1758416  )
         8           Ti1 tau(   8) = (   0.0015273   1.4827037   9.2680791  )
         9           O1  tau(   9) = (   3.3019049   5.9598586  11.2958584  )
        10           O1  tau(  10) = (   0.0116148   5.9584955  10.6183126  )
        11           O1  tau(  11) = (   1.3346742   1.4914638  12.6145280  )
        12           O1  tau(  12) = (   5.3113054   1.4894223  12.6320738  )
        13           Ti1 tau(  13) = (   6.4919192   2.9607050  12.7581921  )
        14           Ti1 tau(  14) = (   3.1808934   1.4809541  12.4628303  )
        15           O1  tau(  15) = (   0.0259758   5.9327586  14.5948705  )
        16           O1  tau(  16) = (   3.3179433   0.0111293  13.8771559  )
        17           O1  tau(  17) = (   4.5450242   1.5254396  16.0425357  )
        18           O1  tau(  18) = (   2.0945915   1.5254857  16.0466093  )
        19           Ti1 tau(  19) = (   3.3175380   3.0118254  15.6854273  )
        20           Ti1 tau(  20) = (   0.0287691   1.6153805  16.0968480  )
        21           O1  tau(  21) = (   3.2904802   0.0005063   4.7018136  )
        22           O1  tau(  22) = (   0.0272082   0.0527987  17.2096484  )
        23           O1  tau(  23) = (   1.3043587   1.4918075   6.0039043  )
        24           O1  tau(  24) = (   5.2767064   1.4903225   6.0039473  )
        25           Ti1 tau(  25) = (   0.0000382   5.9609847   6.0000000  )
        26           Ti1 tau(  26) = (   3.2902200   4.4714249   6.0002472  )
        27           O1  tau(  27) = (   0.0002396   2.9813036   7.9858123  )
        28           O1  tau(  28) = (   3.2902150   2.9813002   7.3038282  )
        29           O1  tau(  29) = (   4.5938453   4.4726049   9.2879030  )
        30           O1  tau(  30) = (   1.9864658   4.4711199   9.2879459  )
        31           Ti1 tau(  31) = (   3.2891106   5.8743827   9.1763621  )
        32           Ti1 tau(  32) = (   0.0006254   4.4649316   9.2693709  )
        33           O1  tau(  33) = (   3.3007599   2.9794320  11.2948048  )
        34           O1  tau(  34) = (   0.0092240   2.9805883  10.6323155  )
        35           O1  tau(  35) = (   1.3367187   4.4652043  12.6121808  )
        36           O1  tau(  36) = (   5.3110114   4.4536366  12.6300246  )
        37           Ti1 tau(  37) = (   6.5175235   5.9394146  12.7678677  )
        38           Ti1 tau(  38) = (   3.1810223   4.4618757  12.4682998  )
        39           O1  tau(  39) = (   0.0141956   2.9656780  14.6533049  )
        40           O1  tau(  40) = (   3.3125561   2.9946134  13.8784269  )
        41           O1  tau(  41) = (   4.5469694   4.5079638  16.0550352  )
        42           O1  tau(  42) = (   2.0896055   4.5089645  16.0567747  )
        43           Ti1 tau(  43) = (   3.3249511   0.0336637  15.6879192  )
        44           Ti1 tau(  44) = (   0.0309337   4.5948497  16.1324869  )
        45           O1  tau(  45) = (   3.2900926   2.9813045   4.7018136  )
        46           O1  tau(  46) = (   1.3039711   4.4726057   6.0039043  )
        47           O1  tau(  47) = (   5.2763189   4.4711207   6.0039473  )
        48           N1  tau(  48) = (   0.0510883   3.0100077  17.3315927  )
        49           C1  tau(  49) = (   0.2149723   3.0659314  18.7643681  )
        50           H1  tau(  50) = (   6.1109748   3.7957518  19.2115106  )
        51           H1  tau(  51) = (   0.0391147   2.0919789  19.2177120  )
        52           H1  tau(  52) = (   1.2341903   3.3897193  19.0223879  )
        53           N1  tau(  53) = (   4.7717085   1.8344328  21.5424420  )
        54           H1  tau(  54) = (   4.4711387   2.7986659  21.4441960  )
        55           H1  tau(  55) = (   4.1840297   1.2822813  20.9257432  )
        56           H1  tau(  56) = (   4.5427024   1.5537098  22.4892962  )

     number of k points=    10  Fermi-Dirac smearing, width (Ry)=  0.0073
                       cart. coord. in units 2pi/alat
        k(    1) = (   0.0000000   0.0000000   0.0000000), wk =   0.0625000
        k(    2) = (   0.0000000   0.0419351   0.0000000), wk =   0.1250000
        k(    3) = (   0.0000000  -0.0838702   0.0000000), wk =   0.0625000
        k(    4) = (   0.0379955   0.0000049   0.0000000), wk =   0.1250000
        k(    5) = (   0.0379955   0.0419400   0.0000000), wk =   0.1250000
[...]
     % You are using vdW-DF, which was implemented by the Thonhauser group. %
     % Please cite the following two papers that made this development      %
     % possible and the two reviews that describe the various versions:     %
     %                                                                      %
     %   T. Thonhauser et al., PRL 115, 136402 (2015).                      %
     %   T. Thonhauser et al., PRB 76, 125112 (2007).                       %
     %   K. Berland et al., Rep. Prog. Phys. 78, 066501 (2015).             %
     %   D.C. Langreth et al., J. Phys.: Condens. Matter 21, 084203 (2009). %
     %                                                                      %
     %                                                                      %
     % If you are calculating the stress with vdW-DF, please also cite:     %
     %                                                                      %
     %   R. Sabatini et al., J. Phys.: Condens. Matter 24, 424209 (2012).   %
     %                                                                      %
     %%%%%%%%%%%%%%%%%%%%%%%%%%%%%%%%%%%%%%%%%%%%%%%%%%%%%%%%%%%%%%%%%%%%%%%%

     Adding external electric field

     Computed dipole along edir(3) :
        Dipole              -11.2909 Ry au,        -28.6987 Debye
        Dipole field         -0.0213 Ry au,

        Potential amp.        1.9752 Ry
        Total length         46.3494 bohr

[...]

     Starting wfcs are  302 atomic wfcs
  @ DRIVER MODE: Message from server: STATUS
  @ DRIVER MODE: Message from server: POSDATA
  @ DRIVER MODE: Reading and sharing cell
  @ DRIVER MODE: Reading and sharing positions
  @ DRIVER MODE: Received positions

     Self-consistent Calculation

     iteration #  1     ecut=    29.40 Ry     beta= 0.05
     Davidson diagonalization with overlap
     c_bands:  1 eigenvalues not converged
     c_bands:  1 eigenvalues not converged
     c_bands:  2 eigenvalues not converged
     c_bands:  1 eigenvalues not converged
     c_bands:  1 eigenvalues not converged
     c_bands:  1 eigenvalues not converged
     c_bands:  2 eigenvalues not converged
     c_bands:  2 eigenvalues not converged
     c_bands:  1 eigenvalues not converged
     c_bands:  1 eigenvalues not converged
     c_bands:  2 eigenvalues not converged
     c_bands:  1 eigenvalues not converged
     c_bands:  1 eigenvalues not converged
     c_bands:  1 eigenvalues not converged
     c_bands:  2 eigenvalues not converged
     c_bands:  2 eigenvalues not converged
     ethr =  1.00E-05,  avg # of iterations = 19.6

[...]

     total energy              =   -2520.82385768 Ry
     estimated scf accuracy    <    4704.32319895 Ry

     total magnetization       =     0.00 Bohr mag/cell
     absolute magnetization    =     0.01 Bohr mag/cell

     iteration #  2     ecut=    29.40 Ry     beta= 0.05
     Davidson diagonalization with overlap
     ethr =  1.00E-02,  avg # of iterations = 21.9

[...]

     iteration # 54     ecut=    29.40 Ry     beta= 0.05
     Davidson diagonalization with overlap
     c_bands:  1 eigenvalues not converged
     ethr =  1.81E-08,  avg # of iterations =  8.6

[...]

     total energy              =   -2942.90776620 Ry
     estimated scf accuracy    <       0.00000023 Ry

[...]

     iteration # 77     ecut=    29.40 Ry     beta= 0.05
     Davidson diagonalization with overlap
     ethr =  1.96E-11,  avg # of iterations =  8.1

     negative rho (up, down):  5.680E-03 5.680E-03

[...]

     Adding external electric field

     Computed dipole along edir(3) :
        Dipole                0.4185 Ry au,          1.0637 Debye
        Dipole field          0.0008 Ry au,

        Potential amp.       -0.0732 Ry
        Total length         46.3494 bohr

     Magnetic moment per site  (integrated on atomic sphere of radius R)
     atom   1 (R=0.735)  charge=  8.0053  magn=  0.0003
     atom   2 (R=0.735)  charge=  8.0011  magn=  0.0002
     atom   3 (R=0.735)  charge=  4.9958  magn= -0.0001
     atom   4 (R=0.735)  charge=  5.0345  magn= -0.0000
     atom   5 (R=0.735)  charge=  4.9982  magn= -0.0000
     atom   6 (R=0.735)  charge=  4.9995  magn= -0.0000
     atom   7 (R=0.735)  charge=  7.9947  magn=  0.0000
     atom   8 (R=0.735)  charge=  7.9823  magn=  0.0000
     atom   9 (R=0.735)  charge=  5.0127  magn= -0.0000
     atom  10 (R=0.735)  charge=  4.9434  magn= -0.0000
     atom  11 (R=0.735)  charge=  4.9999  magn= -0.0000
     atom  12 (R=0.735)  charge=  5.0035  magn= -0.0000
     atom  13 (R=0.735)  charge=  7.9933  magn=  0.0000
     atom  14 (R=0.735)  charge=  8.0007  magn=  0.0000
     atom  15 (R=0.735)  charge=  4.9894  magn= -0.0000
     atom  16 (R=0.735)  charge=  5.0146  magn=  0.0000
     atom  17 (R=0.735)  charge=  4.9900  magn= -0.0000
     atom  18 (R=0.735)  charge=  4.9888  magn= -0.0000
     atom  19 (R=0.735)  charge=  8.0209  magn=  0.0000
     atom  20 (R=0.735)  charge=  8.0243  magn=  0.0000
     atom  21 (R=0.735)  charge=  4.8827  magn= -0.0004
     atom  22 (R=0.735)  charge=  4.9721  magn= -0.0000
     atom  23 (R=0.735)  charge=  4.9884  magn= -0.0002
     atom  24 (R=0.735)  charge=  4.9885  magn= -0.0002
     atom  25 (R=0.735)  charge=  8.0054  magn=  0.0003
     atom  26 (R=0.735)  charge=  8.0011  magn=  0.0002
     atom  27 (R=0.735)  charge=  4.9957  magn= -0.0001
     atom  28 (R=0.735)  charge=  5.0347  magn= -0.0000
     atom  29 (R=0.735)  charge=  4.9990  magn= -0.0000
     atom  30 (R=0.735)  charge=  5.0001  magn= -0.0000
     atom  31 (R=0.735)  charge=  7.9947  magn=  0.0000
     atom  32 (R=0.735)  charge=  7.9826  magn=  0.0000
     atom  33 (R=0.735)  charge=  5.0125  magn=  0.0000
     atom  34 (R=0.735)  charge=  4.9424  magn= -0.0000
     atom  35 (R=0.735)  charge=  5.0005  magn= -0.0000
     atom  36 (R=0.735)  charge=  5.0043  magn= -0.0000
     atom  37 (R=0.735)  charge=  7.9990  magn=  0.0000
     atom  38 (R=0.735)  charge=  8.0004  magn=  0.0000
     atom  39 (R=0.735)  charge=  4.9853  magn= -0.0000
     atom  40 (R=0.735)  charge=  5.0159  magn=  0.0000
     atom  41 (R=0.735)  charge=  4.9884  magn= -0.0000
     atom  42 (R=0.735)  charge=  4.9878  magn= -0.0000
     atom  43 (R=0.735)  charge=  8.0214  magn= -0.0000
     atom  44 (R=0.735)  charge=  8.0216  magn=  0.0000
     atom  45 (R=0.735)  charge=  4.8827  magn= -0.0004
     atom  46 (R=0.735)  charge=  4.9884  magn= -0.0002
     atom  47 (R=0.735)  charge=  4.9885  magn= -0.0002
     atom  48 (R=0.418)  charge=  1.3137  magn= -0.0001
     atom  49 (R=0.449)  charge=  0.8452  magn=  0.0000
     atom  50 (R=0.418)  charge=  0.4371  magn= -0.0000
     atom  51 (R=0.418)  charge=  0.4411  magn= -0.0000
     atom  52 (R=0.418)  charge=  0.4339  magn= -0.0000
     atom  53 (R=0.418)  charge=  1.3298  magn= -0.0000
     atom  54 (R=0.418)  charge=  0.4522  magn=  0.0000
     atom  55 (R=0.418)  charge=  0.4511  magn=  0.0000
     atom  56 (R=0.418)  charge=  0.4538  magn=  0.0000

     End of self-consistent calculation

 ------ SPIN UP ------------

          k = 0.0000 0.0000 0.0000 ( 18029 PWs)   bands (ev):

   -56.6312 -56.5976 -55.7554 -55.7432 -55.7205 -55.7103 -55.6100 -55.5747
   -55.3929 -55.3571 -55.2965 -55.2905 -55.2626 -55.1928 -54.7266 -54.6154
   -33.0589 -32.9059 -32.8777 -32.8070 -32.7159 -32.6849 -32.2259 -32.2199
   -32.1526 -32.0392 -31.9931 -31.9690 -31.9504 -31.9293 -31.8956 -31.8910
   -31.8900 -31.8844 -31.8586 -31.8566 -31.8446 -31.8175 -31.7927 -31.7776
   -31.7646 -31.7463 -31.7372 -31.7126 -31.6887 -31.6348 -31.6235 -31.6107
   -31.5333 -31.5310 -31.5073 -31.4662 -31.4588 -31.4238 -31.4208 -31.3965
   -31.3740 -31.3130 -31.2325 -30.9725 -30.9571 -30.8745 -30.8374 -30.7470
   -16.7954 -16.3635 -16.1329 -15.9933 -15.9279 -15.8715 -15.8288 -15.7035
   -15.6353 -15.6271 -15.5853 -15.5576 -15.4862 -15.3465 -15.2479 -15.1953
   -15.1508 -15.0302 -14.9692 -14.9369 -14.9265 -14.8836 -14.8741 -14.6801
   -14.6570 -14.5634 -14.5423 -14.4213 -14.1870 -13.7939 -13.7025 -13.6837
   -12.8051  -7.5004  -4.3608  -3.8594  -3.7692  -3.7446  -3.6209  -3.5344
    -3.4272  -3.4131  -3.3268  -3.2121  -3.1679  -3.1202  -3.0038  -3.0025
    -2.8543  -2.8225  -2.8066  -2.8054  -2.7631  -2.6962  -2.6728  -2.6409
    -2.6321  -2.6017  -2.4759  -2.3794  -2.3087  -2.2845  -2.2787  -2.2429
    -2.1684  -2.1388  -2.1296  -2.1260  -2.0187  -1.8733  -1.8672  -1.8438
    -1.8019  -1.7965  -1.7541  -1.7410  -1.6225  -1.5327  -1.4295  -1.4138
    -1.3701  -1.3134  -1.3055  -1.2159  -1.1376  -1.0466  -1.0456  -0.9358
    -0.8885  -0.8716  -0.7816  -0.7218  -0.6823  -0.6563  -0.6437  -0.5437
    -0.5208  -0.5109  -0.4269  -0.4150  -0.3659  -0.2770  -0.2541  -0.2453
    -0.1631  -0.1604  -0.0656  -0.0233   0.0166   0.0519   0.1678   0.1850
     0.2833   0.3122   0.3394   0.4526   0.4687   0.5338   0.6086   0.6712
     0.6990   0.7260   0.7548   0.7743   0.8487   0.9605   0.9700   1.0717
     1.1040   1.2790   1.3178   1.3920   1.6029   1.6345   2.3058   2.6435
     2.8028   3.1013   3.2893   3.4024   3.6180   3.6340   3.6392   3.8084
     3.8613

[...]

          k =-0.0760-0.0000 0.0000 ( 17886 PWs)   bands (ev):

[...]

 ------ SPIN DOWN ----------

[...]

          k = 0.0380-0.0419 0.0000 ( 17876 PWs)   bands (ev):

[...]

          k =-0.0760-0.0839 0.0000 ( 17948 PWs)   bands (ev):

   -56.6135 -56.6131 -55.7402 -55.7343 -55.7274 -55.7269 -55.5926 -55.5919
   -55.3791 -55.3707 -55.2872 -55.2788 -55.2787 -55.1959 -54.7236 -54.6181
   -32.8907 -32.8904 -32.8751 -32.8749 -32.7589 -32.7587 -32.0557 -32.0534
   -32.0443 -32.0377 -31.9845 -31.9835 -31.9409 -31.9406 -31.9383 -31.9371
   -31.9296 -31.9267 -31.9245 -31.9229 -31.8452 -31.8432 -31.7942 -31.7913
   -31.7298 -31.7195 -31.6607 -31.6527 -31.6230 -31.6229 -31.6165 -31.5774
   -31.5733 -31.5448 -31.5106 -31.5042 -31.5041 -31.4651 -31.4651 -31.4615
   -31.4383 -31.3987 -31.1125 -30.9925 -30.9565 -30.9257 -30.8398 -30.8024
   -16.1445 -16.1424 -16.1096 -16.1093 -15.8408 -15.8372 -15.7946 -15.7921
   -15.6183 -15.6122 -15.4056 -15.3970 -15.3903 -15.3889 -15.2609 -15.2550
   -15.1895 -15.1791 -15.0901 -15.0808 -15.0242 -15.0177 -14.9754 -14.9544
   -14.6440 -14.6348 -14.5140 -14.4967 -14.3309 -13.7886 -13.7885 -13.7017
   -12.8217  -7.4907  -3.7765  -3.7528  -3.2433  -3.2430  -3.1792  -3.1782
    -3.0570  -3.0529  -2.9739  -2.9732  -2.8753  -2.8740  -2.7810  -2.7317
    -2.7285  -2.7283  -2.7144  -2.6647  -2.5748  -2.5714  -2.5611  -2.5470
    -2.4885  -2.4865  -2.4625  -2.3981  -2.3845  -2.3532  -2.3154  -2.2014
    -2.1911  -2.1794  -2.1474  -2.0834  -2.0768  -2.0639  -2.0214  -1.9893
    -1.9118  -1.8383  -1.8015  -1.6879  -1.6834  -1.6714  -1.6596  -1.5060
    -1.4657  -1.4353  -1.4282  -1.4221  -1.3742  -1.2792  -1.2718  -1.1398
    -1.1381  -1.0641  -0.9825  -0.9613  -0.9328  -0.8043  -0.7602  -0.7257
    -0.7180  -0.6899  -0.6699  -0.6481  -0.6048  -0.4688  -0.4573  -0.4182
    -0.3837  -0.3616  -0.3273  -0.2696  -0.1836  -0.1053  -0.1049  -0.0509
     0.0182   0.0791   0.1660   0.1762   0.1815   0.4627   0.5415   0.6309
     0.7068   0.7727   0.8365   0.8673   0.9226   0.9676   1.1036   1.1069
     1.1260   1.1263   1.1859   1.1896   1.3749   1.6410   2.1952   3.2169
     3.2172   3.2842   3.2846   3.6081   3.6139   3.7220   3.7314   3.8379
     3.8429

     the Fermi energy is     2.4843 ev

!    total energy              =   -2942.90777685 Ry
     estimated scf accuracy    <       0.00000005 Ry
     smearing contrib. (-TS)   =      -0.00487640 Ry
     internal energy E=F+TS    =   -2942.90290045 Ry

     The total energy is F=E-TS. E is the sum of the following terms:
     one-electron contribution =  -23242.86052566 Ry
     hartree contribution      =   11711.63973720 Ry
     xc contribution           =    -487.47521524 Ry
     ewald contribution        =    9075.79277276 Ry
     electric field correction =       0.00033049 Ry

     total magnetization       =     0.00 Bohr mag/cell
     absolute magnetization    =     0.00 Bohr mag/cell

     convergence has been achieved in  77 iterations

     Forces acting on atoms (cartesian axes, Ry/au):

     atom    1 type  1   force =     0.00003856   -0.00040822    0.12406676
     atom    2 type  1   force =    -0.00010611   -0.00056924   -0.16066914
     atom    3 type  2   force =     0.00023567   -0.00026783   -0.06798523
     atom    4 type  2   force =     0.00001248   -0.00029263    0.02760096
     atom    5 type  2   force =    -0.01615709    0.00175409   -0.00936452
     atom    6 type  2   force =     0.01818905    0.00219270   -0.00898637
     atom    7 type  1   force =     0.00114895   -0.00377687    0.02170914
     atom    8 type  1   force =    -0.00057551   -0.00290757    0.11107061
     atom    9 type  2   force =    -0.00018376    0.00030757   -0.00045308
     atom   10 type  2   force =    -0.00195687    0.00129382   -0.07321689
     atom   11 type  2   force =     0.00023027   -0.00010547    0.00017208
     atom   12 type  2   force =    -0.00026198    0.00022282    0.00020665
     atom   13 type  1   force =    -0.00008872    0.00008563   -0.00041652
     atom   14 type  1   force =    -0.00058877    0.00045282    0.00040424
     atom   15 type  2   force =     0.00027871    0.00000608    0.00013328
     atom   16 type  2   force =    -0.00049171   -0.00036911    0.00057579
     atom   17 type  2   force =    -0.00060781    0.00024188    0.00009926
     atom   18 type  2   force =     0.00003763    0.00024435    0.00010535
     atom   19 type  1   force =     0.00038536   -0.00054591   -0.00002732
     atom   20 type  1   force =    -0.00010208    0.00028580    0.00011527
     atom   21 type  2   force =     0.00004955   -0.00000586    0.09971496
     atom   22 type  2   force =     0.00027576    0.00001522   -0.00025972
     atom   23 type  2   force =    -0.07916295    0.00000238   -0.03243462
     atom   24 type  2   force =     0.07904894    0.00043990   -0.03245731
     atom   25 type  1   force =     0.00001772   -0.00041368    0.12358403
     atom   26 type  1   force =    -0.00010062   -0.00046649   -0.16080326
     atom   27 type  2   force =     0.00033067   -0.00048342   -0.06703710
     atom   28 type  2   force =     0.00002750   -0.00012070    0.02732859
     atom   29 type  2   force =    -0.01663311    0.00127635   -0.00947032
     atom   30 type  2   force =     0.01856276    0.00165468   -0.00910478
     atom   31 type  1   force =     0.00116429   -0.00138373    0.02113804
     atom   32 type  1   force =    -0.00053026    0.00034655    0.11171660
     atom   33 type  2   force =    -0.00016366   -0.00024809    0.00007108
     atom   34 type  2   force =    -0.00132279    0.00066918   -0.07266884
     atom   35 type  2   force =    -0.00077934   -0.00043205   -0.00002049
     atom   36 type  2   force =     0.00010531   -0.00001972    0.00011136
     atom   37 type  1   force =     0.00006555    0.00063345    0.00022265
     atom   38 type  1   force =    -0.00022001    0.00002732   -0.00017384
     atom   39 type  2   force =     0.00012902   -0.00016855    0.00085900
     atom   40 type  2   force =    -0.00018380   -0.00046362    0.00033941
     atom   41 type  2   force =     0.00007393   -0.00009211    0.00006950
     atom   42 type  2   force =     0.00040515    0.00001720    0.00003757
     atom   43 type  1   force =    -0.00022793   -0.00012537    0.00003628
     atom   44 type  1   force =    -0.00026876    0.00038650    0.00002315
     atom   45 type  2   force =     0.00002478   -0.00003061    0.09974267
     atom   46 type  2   force =    -0.07916869    0.00005440   -0.03243533
     atom   47 type  2   force =     0.07904872    0.00047720   -0.03244966
     atom   48 type  3   force =     0.00100314    0.00158041   -0.00251768
     atom   49 type  4   force =     0.00072834    0.00282713   -0.00288132
     atom   50 type  5   force =    -0.00017468    0.00036661    0.00102169
     atom   51 type  5   force =    -0.00037953   -0.00321792    0.00368026
     atom   52 type  5   force =    -0.00028325   -0.00046223    0.00013825
     atom   53 type  3   force =     0.00004439   -0.00086829   -0.00012035
     atom   54 type  5   force =    -0.00002420    0.00020936   -0.00054587
     atom   55 type  5   force =     0.00014715    0.00031832   -0.00082678
     atom   56 type  5   force =    -0.00106536   -0.00014447    0.00123184

     Total force =     0.424430     Total SCF correction =     0.000384
  @ DRIVER MODE: Message from server: STATUS
  @ DRIVER MODE: Message from server: GETFORCE
  @ DRIVER MODE: Returning v,forces,stress,ensemble

     Writing output data file ./calc.save/
  @ DRIVER MODE: Message from server: EXIT
  @ DRIVE MODE: Exiting

     General routines

     Parallel routines

   This run was terminated on:   5: 9:37  16Jul2021

   JOB DONE.