     Program PWSCF v.6.7GPU starts on 24Sep2021 at  8:37:42

     R & G space division:  proc/nbgrp/npool/nimage =       8
     Reading input from /storage/home/hcoda1/3/ntian30/research/carbon/CxH_vib/H2O_calc/ads_slab/CH3NNHHHHO_a/out_0053/pw.inp
Warning: card &CELL ignored
Warning: card   CELL_DYNAMICS='IPI', ignored
Warning: card / ignored

     Current dimensions of program PWSCF are:
     Max number of different atomic species (ntypx) = 10
     Max number of k-points (npk) =  40000
     Max angular momentum in pseudopotentials (lmaxx) =  3
     Presently no symmetry can be used with electric field

     Message from routine cell_base_init:
     DEPRECATED: use true lattice parameter, not A to a.u. conversion factor

     IMPORTANT: XC functional enforced from input :
     Exchange-correlation= BEEF-VDW
                           (   1   4  43  14   2   0   0)
     Any further DFT definition will be discarded
     Please, verify this is what you really want

  @ DRIVER MODE: Connecting to
 qe_1139763_2947308.sched-torque.pace.gatech.edu22kned_9_scratch
  using UNIX socket
  @ DRIVER MODE: Message from server: STATUS
  @ DRIVER MODE: Message from server: INIT
  @ DRIVER MODE: Receiving replica           0          -1
  @ DRIVER MODE: Receiving encoded integer          25
  @ DRIVER MODE:  SCF:  T  FORCE:  T  STRESS:  F  VC:  F  ENSEMBLE:  F
  @ DRIVER MODE:  SCF:  T  FORCE:  T  STRESS:  F  VC:  F  ENSEMBLE:  F

     Using Slab Decomposition

     bravais-lattice index     =            0
     lattice parameter (alat)  =       1.8897  a.u.
     unit-cell volume          =    6658.9804 (a.u.)^3
     number of atoms/cell      =           58
     number of atomic types    =            5
     number of electrons       =       405.00
     number of Kohn-Sham states=          212
     kinetic-energy cutoff     =      29.3995  Ry
     charge density cutoff     =     293.9946  Ry
     scf convergence threshold =      7.3E-08
     mixing beta               =       0.0500
     number of iterations used =            8  plain     mixing
     Exchange-correlation= BEEF-VDW
                           (   1   4  43  14   2   0   0)

     celldm(1)=   1.889726  celldm(2)=   0.000000  celldm(3)=   0.000000
     celldm(4)=   0.000000  celldm(5)=   0.000000  celldm(6)=   0.000000

     crystal axes: (cart. coord. in units of alat)
               a(1) = (   6.579727   0.000000   0.000000 )
               a(2) = (  -0.000775   5.961596   0.000000 )
               a(3) = (   0.000000   0.000000  25.155947 )

     reciprocal axes: (cart. coord. in units 2 pi/alat)
               b(1) = (  0.151982  0.000020  0.000000 )
               b(2) = (  0.000000  0.167740  0.000000 )
               b(3) = (  0.000000  0.000000  0.039752 )

     PseudoPot. # 1 for Ti read from file:
     /storage/coda1/p-amedford6/0/shared/rich_project_chbe-medford/medford-share/data/pseudos_module/espresso/nninc/pbe/van/Ti.UPF
     MD5 check sum: 8e4df49b7f0d34bbd5052bf3f5ea0213
     Pseudo is Ultrasoft, Zval = 12.0
     Generated by new atomic code, or converted to UPF format
     Using radial grid of  851 points,  6 beta functions with:
                l(1) =   0
                l(2) =   0
                l(3) =   1
                l(4) =   1
                l(5) =   2
                l(6) =   2
     Q(r) pseudized with  8 coefficients,  rinner =    1.000   1.000   1.000
                                                       1.000   1.000

     PseudoPot. # 2 for O  read from file:
     /storage/coda1/p-amedford6/0/shared/rich_project_chbe-medford/medford-share/data/pseudos_module/espresso/nninc/pbe/van/O.UPF
     MD5 check sum: 78c19812648e8988a0fe644b0f25305e
     Pseudo is Ultrasoft, Zval =  6.0
     Generated by new atomic code, or converted to UPF format
     Using radial grid of  737 points,  4 beta functions with:
                l(1) =   0
                l(2) =   0
                l(3) =   1
                l(4) =   1
     Q(r) pseudized with  8 coefficients,  rinner =    0.800   0.800   0.800

     PseudoPot. # 3 for N  read from file:
     /storage/coda1/p-amedford6/0/shared/rich_project_chbe-medford/medford-share/data/pseudos_module/espresso/nninc/pbe/van/N.UPF
     MD5 check sum: 90d10febe142ad51ac9d5be1deb811c4
     Pseudo is Ultrasoft, Zval =  5.0
     Generated by new atomic code, or converted to UPF format
     Using radial grid of  729 points,  4 beta functions with:
                l(1) =   0
                l(2) =   0
                l(3) =   1
                l(4) =   1
     Q(r) pseudized with  8 coefficients,  rinner =    0.800   0.800   0.800

     PseudoPot. # 4 for C  read from file:
     /storage/coda1/p-amedford6/0/shared/rich_project_chbe-medford/medford-share/data/pseudos_module/espresso/nninc/pbe/van/C.UPF
     MD5 check sum: 1a69bf6b8db32088f5b2163dbdb77a27
     Pseudo is Ultrasoft, Zval =  4.0
     Generated by new atomic code, or converted to UPF format
     Using radial grid of  721 points,  4 beta functions with:
                l(1) =   0
                l(2) =   0
                l(3) =   1
                l(4) =   1
     Q(r) pseudized with  8 coefficients,  rinner =    0.800   0.800   0.800

     PseudoPot. # 5 for H  read from file:
     /storage/coda1/p-amedford6/0/shared/rich_project_chbe-medford/medford-share/data/pseudos_module/espresso/nninc/pbe/van/H.UPF
     MD5 check sum: b5ee9d7bfd3a09ee7748110bda690ff7
     Pseudo is Ultrasoft, Zval =  1.0
     Generated by new atomic code, or converted to UPF format
     Using radial grid of  615 points,  1 beta functions with:
                l(1) =   0
     Q(r) pseudized with  8 coefficients,  rinner =    0.800

     atomic species   valence    mass     pseudopotential
        Ti1           12.00    47.86700     Ti( 1.00)
        O1             6.00    15.99900     O ( 1.00)
        N1             5.00    14.00700     N ( 1.00)
        C1             4.00    12.01100     C ( 1.00)
        H1             1.00     1.00800     H ( 1.00)

     No symmetry found

   Cartesian axes

     site n.     atom                  positions (alat units)
         1           Ti1 tau(   1) = (   0.0004258   2.9801865   6.0000000  )
         2           Ti1 tau(   2) = (   3.2906075   1.4906267   6.0002472  )
         3           O1  tau(   3) = (   0.0006271   0.0005054   7.9858123  )
         4           O1  tau(   4) = (   3.2906025   0.0005020   7.3038282  )
         5           O1  tau(   5) = (   4.5942328   1.4918067   9.2879030  )
         6           O1  tau(   6) = (   1.9868534   1.4903216   9.2879459  )
         7           Ti1 tau(   7) = (   3.2907910   2.8959150   9.1758416  )
         8           Ti1 tau(   8) = (   0.0015273   1.4827037   9.2680791  )
         9           O1  tau(   9) = (   3.3066316   0.0080679  11.3583267  )
        10           O1  tau(  10) = (   0.0116148   5.9584955  10.6183126  )
        11           O1  tau(  11) = (   1.3000076   1.5005770  12.6434233  )
        12           O1  tau(  12) = (   5.3281586   1.4930334  12.6431679  )
        13           Ti1 tau(  13) = (   0.0126194   3.0144704  12.5166071  )
        14           Ti1 tau(  14) = (   3.3185830   1.5708444  12.4374219  )
        15           O1  tau(  15) = (   0.0449490   0.0685618  14.6579901  )
        16           O1  tau(  16) = (   3.3164028   5.8986079  13.9921319  )
        17           O1  tau(  17) = (   4.5763498   1.4919541  16.1892649  )
        18           O1  tau(  18) = (   2.0390356   1.5007807  16.1677599  )
        19           Ti1 tau(  19) = (   3.3152479   2.9236451  15.6986563  )
        20           Ti1 tau(  20) = (   0.0808212   1.4292116  16.0039943  )
        21           O1  tau(  21) = (   3.2904802   0.0005063   4.7018136  )
        22           O1  tau(  22) = (   0.0303022   5.8046116  17.1736243  )
        23           O1  tau(  23) = (   1.3043587   1.4918075   6.0039043  )
        24           O1  tau(  24) = (   5.2767064   1.4903225   6.0039473  )
        25           Ti1 tau(  25) = (   0.0000382   5.9609847   6.0000000  )
        26           Ti1 tau(  26) = (   3.2902200   4.4714249   6.0002472  )
        27           O1  tau(  27) = (   0.0002396   2.9813036   7.9858123  )
        28           O1  tau(  28) = (   3.2902150   2.9813002   7.3038282  )
        29           O1  tau(  29) = (   4.5938453   4.4726049   9.2879030  )
        30           O1  tau(  30) = (   1.9864658   4.4711199   9.2879459  )
        31           Ti1 tau(  31) = (   3.2891106   5.8743827   9.1763621  )
        32           Ti1 tau(  32) = (   0.0006254   4.4649316   9.2693709  )
        33           O1  tau(  33) = (   3.3101163   2.9547251  11.3177968  )
        34           O1  tau(  34) = (   0.0092240   2.9805883  10.6323155  )
        35           O1  tau(  35) = (   1.2917786   4.4638488  12.6831265  )
        36           O1  tau(  36) = (   5.3332004   4.4701953  12.6833355  )
        37           Ti1 tau(  37) = (   0.0360484   0.0435164  12.5022323  )
        38           Ti1 tau(  38) = (   3.3166134   4.6596848  12.7231989  )
        39           O1  tau(  39) = (   6.5734590   2.9070644  14.8960501  )
        40           O1  tau(  40) = (   3.3256711   2.9499323  13.9293234  )
        41           O1  tau(  41) = (   4.5718193   4.3849529  16.1598725  )
        42           O1  tau(  42) = (   2.0293811   4.3548050  16.0908550  )
        43           Ti1 tau(  43) = (   3.3839698   5.9011270  16.3477160  )
        44           Ti1 tau(  44) = (   0.0762916   4.6312412  15.8077656  )
        45           O1  tau(  45) = (   3.2900926   2.9813045   4.7018136  )
        46           O1  tau(  46) = (   1.3039711   4.4726057   6.0039043  )
        47           O1  tau(  47) = (   5.2763189   4.4711207   6.0039473  )
        48           N1  tau(  48) = (   1.0338470   3.0145746  18.8549854  )
        49           N1  tau(  49) = (   6.4614719   2.5758313  18.0922931  )
        50           C1  tau(  50) = (   0.6385090   3.7489381  20.0602371  )
        51           H1  tau(  51) = (   6.5128770   4.5633600  19.8465500  )
        52           H1  tau(  52) = (   0.1876125   3.0656416  20.7809517  )
        53           H1  tau(  53) = (   1.5398112   4.1767214  20.4987412  )
        54           H1  tau(  54) = (   5.7034478   3.2665398  18.1448723  )
        55           H1  tau(  55) = (   6.1095767   1.7263867  18.5341855  )
        56           H1  tau(  56) = (   1.5400177   3.6533120  18.2366354  )
        57           O1  tau(  57) = (   3.2295176   5.8880611  18.1942677  )
        58           H1  tau(  58) = (   2.6769533   0.6239085  18.5854980  )

     number of k points=    10  Fermi-Dirac smearing, width (Ry)=  0.0073
                       cart. coord. in units 2pi/alat
        k(    1) = (   0.0000000   0.0000000   0.0000000), wk =   0.1250000
        k(    2) = (   0.0000000   0.0419351   0.0000000), wk =   0.2500000
        k(    3) = (   0.0000000  -0.0838702   0.0000000), wk =   0.1250000
        k(    4) = (   0.0379955   0.0000049   0.0000000), wk =   0.2500000
        k(    5) = (   0.0379955   0.0419400   0.0000000), wk =   0.2500000
        k(    6) = (   0.0379955  -0.0838652   0.0000000), wk =   0.2500000
        k(    7) = (   0.0379955  -0.0419301   0.0000000), wk =   0.2500000
        k(    8) = (  -0.0759910  -0.0000099   0.0000000), wk =   0.1250000
        k(    9) = (  -0.0759910   0.0419252   0.0000000), wk =   0.2500000
        k(   10) = (  -0.0759910  -0.0838800   0.0000000), wk =   0.1250000

     Initial potential from superposition of free atoms

     starting charge  388.99913, renormalised to  405.00000

     negative rho (up, down):  1.325E-02 0.000E+00

     %%%%%%%%%%%%%%%%%%%%%%%%%%%%%%%%%%%%%%%%%%%%%%%%%%%%%%%%%%%%%%%%%%%%%%%%
     %                                                                      %
     % You are using vdW-DF, which was implemented by the Thonhauser group. %
     % Please cite the following two papers that made this development      %
     % possible and the two reviews that describe the various versions:     %
     %                                                                      %
     %   T. Thonhauser et al., PRL 115, 136402 (2015).                      %
     %   T. Thonhauser et al., PRB 76, 125112 (2007).                       %
     %   K. Berland et al., Rep. Prog. Phys. 78, 066501 (2015).             %
     %   D.C. Langreth et al., J. Phys.: Condens. Matter 21, 084203 (2009). %
     %                                                                      %
     %                                                                      %
     % If you are calculating the stress with vdW-DF, please also cite:     %
     %                                                                      %
     %   R. Sabatini et al., J. Phys.: Condens. Matter 24, 424209 (2012).   %
     %                                                                      %
     %%%%%%%%%%%%%%%%%%%%%%%%%%%%%%%%%%%%%%%%%%%%%%%%%%%%%%%%%%%%%%%%%%%%%%%%

     Adding external electric field

     Computed dipole along edir(3) :
        Dipole              -14.7644 Ry au,        -37.5273 Debye
        Dipole field         -0.0279 Ry au,

        Potential amp.        2.5828 Ry
        Total length         46.3494 bohr

     Starting wfcs are  307 atomic wfcs
  @ DRIVER MODE: Message from server: STATUS
  @ DRIVER MODE: Message from server: POSDATA
  @ DRIVER MODE: Reading and sharing cell
  @ DRIVER MODE: Reading and sharing positions
  @ DRIVER MODE: Received positions

     Self-consistent Calculation

     iteration #  1     ecut=    29.40 Ry     beta= 0.05
     Davidson diagonalization with overlap
     c_bands:  3 eigenvalues not converged
     c_bands:  4 eigenvalues not converged
     c_bands:  2 eigenvalues not converged
     c_bands:  3 eigenvalues not converged
     c_bands:  3 eigenvalues not converged
     c_bands:  3 eigenvalues not converged
     ethr =  1.00E-05,  avg # of iterations = 23.2

[...]

     total energy              =   -2204.25402719 Ry
     estimated scf accuracy    <    8785.80764490 Ry

     iteration #  2     ecut=    29.40 Ry     beta= 0.05
     Davidson diagonalization with overlap
     ethr =  1.00E-02,  avg # of iterations = 29.9

[...]

     iteration # 65     ecut=    29.40 Ry     beta= 0.05
     Davidson diagonalization with overlap
     c_bands:  1 eigenvalues not converged
     c_bands:  1 eigenvalues not converged
     ethr =  1.03E-07,  avg # of iterations = 16.1

[...]

     total energy              =   -2976.49822046 Ry
     estimated scf accuracy    <       0.00000009 Ry

     iteration # 91     ecut=    29.40 Ry     beta= 0.05
     Davidson diagonalization with overlap
     ethr =  2.12E-11,  avg # of iterations =  2.0

     negative rho (up, down):  1.443E-02 0.000E+00

     Adding external electric field

     Computed dipole along edir(3) :
        Dipole                0.9921 Ry au,          2.5216 Debye
        Dipole field          0.0019 Ry au,

        Potential amp.       -0.1735 Ry
        Total length         46.3494 bohr

     End of self-consistent calculation

          k = 0.0000 0.0000 0.0000 ( 18029 PWs)   bands (ev):

   -55.5824 -55.4991 -55.4650 -55.3642 -55.3429 -55.3269 -55.3136 -55.3065
   -55.2931 -55.2634 -55.2197 -55.0978 -55.0870 -55.0102 -54.4681 -54.4341
   -31.9836 -31.9190 -31.8780 -31.8305 -31.8290 -31.8098 -31.7993 -31.7899
   -31.7500 -31.7450 -31.7275 -31.6517 -31.6279 -31.6077 -31.6056 -31.6035
   -31.5978 -31.5860 -31.5836 -31.5567 -31.5505 -31.5256 -31.5243 -31.5128
   -31.4981 -31.4863 -31.4788 -31.4618 -31.4571 -31.4542 -31.4446 -31.4386
   -31.4349 -31.4154 -31.3736 -31.3719 -31.3017 -31.2944 -31.2803 -31.2598
   -31.2229 -31.2156 -30.8738 -30.7883 -30.7659 -30.6914 -30.6050 -30.4932
   -17.5718 -16.3998 -16.1399 -15.9775 -15.7618 -15.6763 -15.6478 -15.4551
   -15.3499 -15.2968 -15.1106 -15.0649 -15.0338 -15.0239 -15.0073 -14.9846
   -14.9649 -14.9266 -14.9182 -14.9079 -14.9023 -14.8638 -14.8413 -14.7909
   -14.7691 -14.7056 -14.6333 -14.5656 -14.5183 -14.2570 -14.2397 -12.9664
   -12.9494 -12.8502  -9.4528  -6.1446  -5.1777  -4.6396  -3.9613  -3.5045
    -3.4037  -3.3878  -3.3325  -3.2692  -3.1669  -2.9964  -2.8875  -2.8335
    -2.7330  -2.6257  -2.5709  -2.5072  -2.4763  -2.4305  -2.3979  -2.3856
    -2.3790  -2.2831  -2.2744  -2.2475  -2.2119  -2.1560  -2.1404  -2.0624
    -2.0261  -2.0177  -1.8938  -1.8804  -1.8148  -1.8105  -1.8043  -1.7706
    -1.7495  -1.7346  -1.7055  -1.6218  -1.5690  -1.4984  -1.4756  -1.4457
    -1.1867  -1.0945  -1.0570  -1.0298  -0.9314  -0.9136  -0.9011  -0.8982
    -0.8842  -0.8347  -0.7878  -0.7042  -0.5942  -0.5733  -0.5655  -0.5206
    -0.4551  -0.3733  -0.3003  -0.2707  -0.2333  -0.2201  -0.1538  -0.0765
    -0.0604  -0.0481   0.0601   0.0749   0.1572   0.2160   0.2299   0.2743
     0.3156   0.3487   0.4049   0.4414   0.4718   0.4777   0.5109   0.5553
     0.6113   0.6417   0.6696   0.7519   0.8073   0.8527   0.8804   1.0519
     1.0829   1.1435   1.1782   1.2655   1.5082   1.5585   1.5976   1.7529
     2.1247   2.1699   3.5856   3.7368   3.7519   3.8214   3.8466   3.9375
     4.0750   4.1427   4.2745   4.2835

[...]

          k = 0.0380-0.0419 0.0000 ( 17876 PWs)   bands (ev):

[...]

          k =-0.0760-0.0000 0.0000 ( 17886 PWs)   bands (ev):

[...]

          k =-0.0760-0.0839 0.0000 ( 17948 PWs)   bands (ev):

   -55.5816 -55.4821 -55.4818 -55.3629 -55.3298 -55.3195 -55.3142 -55.3100
   -55.3096 -55.2555 -55.2277 -55.0946 -55.0881 -55.0132 -54.4512 -54.4508
   -31.8663 -31.8083 -31.8035 -31.7990 -31.7988 -31.7843 -31.7756 -31.7752
   -31.7070 -31.6504 -31.6423 -31.6348 -31.6302 -31.6173 -31.6022 -31.6021
   -31.5997 -31.5994 -31.5851 -31.5748 -31.5672 -31.5589 -31.5378 -31.5195
   -31.5172 -31.5127 -31.5054 -31.5026 -31.4903 -31.4828 -31.4804 -31.4744
   -31.4693 -31.4506 -31.4449 -31.3680 -31.3561 -31.3421 -31.3036 -31.2985
   -31.2651 -31.2190 -30.7787 -30.7785 -30.6869 -30.6864 -30.6484 -30.6481
   -17.5657 -16.3856 -15.7482 -15.5704 -15.4738 -15.4673 -15.3366 -15.2708
   -15.2620 -15.2279 -15.2088 -15.1942 -15.1611 -15.1436 -15.1052 -15.0510
   -15.0179 -14.9951 -14.9835 -14.9465 -14.9339 -14.9121 -14.9046 -14.8959
   -14.8377 -14.8055 -14.7964 -14.7660 -14.5705 -14.5480 -14.3723 -12.9521
   -12.9520 -12.9509  -9.4503  -6.1297  -5.1796  -4.6496  -3.9573  -3.1667
    -2.9224  -2.7793  -2.7028  -2.5687  -2.5590  -2.5011  -2.4885  -2.4480
    -2.4396  -2.3988  -2.3447  -2.3290  -2.2855  -2.2804  -2.2499  -2.2375
    -2.2268  -2.2178  -2.1925  -2.1729  -2.1640  -2.1233  -2.1187  -2.1031
    -2.0828  -2.0668  -2.0392  -2.0281  -1.9882  -1.9484  -1.8838  -1.8097
    -1.7239  -1.6410  -1.6305  -1.6196  -1.5734  -1.5669  -1.5202  -1.5084
    -1.4612  -1.4095  -1.2961  -1.1739  -1.1328  -1.1066  -1.0746  -1.0419
    -0.9877  -0.9649  -0.9300  -0.8815  -0.8497  -0.7261  -0.7151  -0.6497
    -0.5643  -0.5316  -0.4561  -0.4429  -0.4282  -0.4119  -0.3903  -0.3735
    -0.3439  -0.3277  -0.2237  -0.1996  -0.1965  -0.1737  -0.1224  -0.0204
     0.0539   0.1369   0.2394   0.2892   0.3169   0.3504   0.4506   0.5687
     0.5937   0.6572   0.6890   0.7317   0.7990   0.8198   0.8675   0.9522
     1.0058   1.0384   1.0647   1.0697   1.1246   1.1605   1.9215   1.9300
     1.9901   1.9904   3.7994   4.0755   4.1011   4.1172   4.1544   4.1586
     4.1805   4.1950   4.2602   4.2753

     the Fermi energy is     3.6226 ev

!    total energy              =   -2976.49822293 Ry
     estimated scf accuracy    <       0.00000007 Ry
     smearing contrib. (-TS)   =      -0.01952858 Ry
     internal energy E=F+TS    =   -2976.47869435 Ry

     The total energy is F=E-TS. E is the sum of the following terms:
     one-electron contribution =  -23034.90415725 Ry
     hartree contribution      =   11613.80434711 Ry
     xc contribution           =    -495.70462794 Ry
     ewald contribution        =    8940.32388644 Ry
     electric field correction =       0.00185729 Ry

     convergence has been achieved in  91 iterations

     Forces acting on atoms (cartesian axes, Ry/au):

     atom    1 type  1   force =     0.00000561   -0.00022174    0.09405262
     atom    2 type  1   force =    -0.00015837    0.00025233   -0.17515723
     atom    3 type  2   force =     0.00007371   -0.00016178   -0.02116464
     atom    4 type  2   force =     0.00000291   -0.00104175    0.05355468
     atom    5 type  2   force =    -0.00454427   -0.00322601    0.00115126
     atom    6 type  2   force =     0.00660100   -0.00242467    0.00161310
     atom    7 type  1   force =     0.00037428    0.00456219    0.01035888
     atom    8 type  1   force =    -0.00056258    0.00199209    0.00311952
     atom    9 type  2   force =     0.00010381   -0.00050646   -0.00048214
     atom   10 type  2   force =    -0.00030984   -0.00004355   -0.01128814
     atom   11 type  2   force =    -0.00022459    0.00045675    0.00005123
     atom   12 type  2   force =    -0.00027820    0.00067072    0.00008883
     atom   13 type  1   force =     0.00060969   -0.00064949    0.00022285
     atom   14 type  1   force =    -0.00035524    0.00015276    0.00018292
     atom   15 type  2   force =    -0.00016683    0.00006859    0.00050402
     atom   16 type  2   force =     0.00003914   -0.00001961    0.00044863
     atom   17 type  2   force =    -0.00039694    0.00023923    0.00004833
     atom   18 type  2   force =     0.00002442    0.00011831    0.00023502
     atom   19 type  1   force =     0.00004891    0.00042555   -0.00033687
     atom   20 type  1   force =    -0.00004853   -0.00011212   -0.00003437
     atom   21 type  2   force =     0.00002779   -0.00001123    0.10313285
     atom   22 type  2   force =    -0.00006296   -0.00020398   -0.00043844
     atom   23 type  2   force =    -0.07213363   -0.00021008   -0.02723386
     atom   24 type  2   force =     0.07203873    0.00023178   -0.02731179
     atom   25 type  1   force =     0.00007084   -0.00035156    0.09402492
     atom   26 type  1   force =    -0.00000583   -0.00128162   -0.17519321
     atom   27 type  2   force =     0.00015232   -0.00021306   -0.01994668
     atom   28 type  2   force =     0.00008536   -0.00110921    0.04907513
     atom   29 type  2   force =    -0.00668143    0.00152624    0.00212664
     atom   30 type  2   force =     0.00854844    0.00170532    0.00249510
     atom   31 type  1   force =     0.00050219   -0.00020489    0.00051888
     atom   32 type  1   force =    -0.00020020   -0.00145279    0.00350843
     atom   33 type  2   force =    -0.00007937    0.00000259   -0.00002915
     atom   34 type  2   force =    -0.00088870    0.00246369   -0.01149830
     atom   35 type  2   force =     0.00004057   -0.00042657    0.00049636
     atom   36 type  2   force =    -0.00053740   -0.00040458    0.00034929
     atom   37 type  1   force =     0.00037563    0.00029826    0.00001945
     atom   38 type  1   force =    -0.00038056    0.00022932    0.00029364
     atom   39 type  2   force =    -0.00049825    0.00042880    0.00045396
     atom   40 type  2   force =    -0.00002434   -0.00007280   -0.00002924
     atom   41 type  2   force =    -0.00039438   -0.00028322    0.00024264
     atom   42 type  2   force =    -0.00028270   -0.00031000   -0.00013541
     atom   43 type  1   force =     0.00005547   -0.00027629    0.00085215
     atom   44 type  1   force =    -0.00033341    0.00024538    0.00011483
     atom   45 type  2   force =     0.00002213   -0.00001863    0.10299130
     atom   46 type  2   force =    -0.07214197   -0.00008299   -0.02723113
     atom   47 type  2   force =     0.07199304    0.00035232   -0.02727542
     atom   48 type  3   force =     0.00489487    0.00431950   -0.00723499
     atom   49 type  3   force =    -0.00147137   -0.00064886    0.00044179
     atom   50 type  4   force =     0.00085265    0.00046012   -0.00067471
     atom   51 type  5   force =    -0.00030397    0.00024701    0.00009500
     atom   52 type  5   force =    -0.00005695   -0.00094948   -0.00014249
     atom   53 type  5   force =     0.00018514   -0.00052213    0.00002907
     atom   54 type  5   force =     0.00015013    0.00019053   -0.00055406
     atom   55 type  5   force =    -0.00036728    0.00027876    0.00037271
     atom   56 type  5   force =    -0.00354184   -0.00441289    0.00716323
     atom   57 type  2   force =    -0.00019009    0.00054322   -0.00086373
     atom   58 type  5   force =    -0.00025675   -0.00060732   -0.00017325

     Total force =     0.361965     Total SCF correction =     0.000362
  @ DRIVER MODE: Message from server: STATUS
  @ DRIVER MODE: Message from server: GETFORCE
  @ DRIVER MODE: Returning v,forces,stress,ensemble

     Writing output data file ./calc.save/
  @ DRIVER MODE: Message from server: EXIT
  @ DRIVE MODE: Exiting

     General routines

     Parallel routines

   This run was terminated on:   9: 7: 1  24Sep2021

   JOB DONE.