     Program PWSCF v.6.7GPU starts on 16Sep2021 at  4:31:11

     R & G space division:  proc/nbgrp/npool/nimage =      10
     Reading input from /storage/home/hcoda1/3/ntian30/research/carbon/CxH_vib/H2O_calc/ads_slab/CH3NHH2O_a/out_0041/pw.inp
Warning: card &CELL ignored
Warning: card   CELL_DYNAMICS='IPI', ignored
Warning: card / ignored

     Current dimensions of program PWSCF are:
     Max number of different atomic species (ntypx) = 10
     Max number of k-points (npk) =  40000
     Max angular momentum in pseudopotentials (lmaxx) =  3
     Presently no symmetry can be used with electric field

     Message from routine cell_base_init:
     DEPRECATED: use true lattice parameter, not A to a.u. conversion factor

     IMPORTANT: XC functional enforced from input :
     Exchange-correlation= BEEF-VDW
                           (   1   4  43  14   2   0   0)
     Any further DFT definition will be discarded
     Please, verify this is what you really want

  @ DRIVER MODE: Connecting to
 qe_1139763_2852633.sched-torque.pace.gatech.edujlihehh8_scratch
  using UNIX socket
  @ DRIVER MODE: Message from server: STATUS
  @ DRIVER MODE: Message from server: INIT
  @ DRIVER MODE: Receiving replica           0          -1
  @ DRIVER MODE: Receiving encoded integer          25
  @ DRIVER MODE:  SCF:  T  FORCE:  T  STRESS:  F  VC:  F  ENSEMBLE:  F
  @ DRIVER MODE:  SCF:  T  FORCE:  T  STRESS:  F  VC:  F  ENSEMBLE:  F

     Using Slab Decomposition

     bravais-lattice index     =            0
     lattice parameter (alat)  =       1.8897  a.u.
     unit-cell volume          =    6658.9804 (a.u.)^3
     number of atoms/cell      =           56
     number of atomic types    =            5
     number of electrons       =       399.00
     number of Kohn-Sham states=          209
     kinetic-energy cutoff     =      29.3995  Ry
     charge density cutoff     =     293.9946  Ry
     scf convergence threshold =      7.3E-08
     mixing beta               =       0.0500
     number of iterations used =            8  plain     mixing
     Exchange-correlation= BEEF-VDW
                           (   1   4  43  14   2   0   0)

     celldm(1)=   1.889726  celldm(2)=   0.000000  celldm(3)=   0.000000
     celldm(4)=   0.000000  celldm(5)=   0.000000  celldm(6)=   0.000000

     crystal axes: (cart. coord. in units of alat)
               a(1) = (   6.579727   0.000000   0.000000 )
               a(2) = (  -0.000775   5.961596   0.000000 )
               a(3) = (   0.000000   0.000000  25.155947 )

     reciprocal axes: (cart. coord. in units 2 pi/alat)
               b(1) = (  0.151982  0.000020  0.000000 )
               b(2) = (  0.000000  0.167740  0.000000 )
               b(3) = (  0.000000  0.000000  0.039752 )

     PseudoPot. # 1 for Ti read from file:
     /storage/coda1/p-amedford6/0/shared/rich_project_chbe-medford/medford-share/data/pseudos_module/espresso/nninc/pbe/van/Ti.UPF
     MD5 check sum: 8e4df49b7f0d34bbd5052bf3f5ea0213
     Pseudo is Ultrasoft, Zval = 12.0
     Generated by new atomic code, or converted to UPF format
     Using radial grid of  851 points,  6 beta functions with:
                l(1) =   0
                l(2) =   0
                l(3) =   1
                l(4) =   1
                l(5) =   2
                l(6) =   2
     Q(r) pseudized with  8 coefficients,  rinner =    1.000   1.000   1.000
                                                       1.000   1.000

     PseudoPot. # 2 for O  read from file:
     /storage/coda1/p-amedford6/0/shared/rich_project_chbe-medford/medford-share/data/pseudos_module/espresso/nninc/pbe/van/O.UPF
     MD5 check sum: 78c19812648e8988a0fe644b0f25305e
     Pseudo is Ultrasoft, Zval =  6.0
     Generated by new atomic code, or converted to UPF format
     Using radial grid of  737 points,  4 beta functions with:
                l(1) =   0
                l(2) =   0
                l(3) =   1
                l(4) =   1
     Q(r) pseudized with  8 coefficients,  rinner =    0.800   0.800   0.800

     PseudoPot. # 3 for H  read from file:
     /storage/coda1/p-amedford6/0/shared/rich_project_chbe-medford/medford-share/data/pseudos_module/espresso/nninc/pbe/van/H.UPF
     MD5 check sum: b5ee9d7bfd3a09ee7748110bda690ff7
     Pseudo is Ultrasoft, Zval =  1.0
     Generated by new atomic code, or converted to UPF format
     Using radial grid of  615 points,  1 beta functions with:
                l(1) =   0
     Q(r) pseudized with  8 coefficients,  rinner =    0.800

     PseudoPot. # 4 for N  read from file:
     /storage/coda1/p-amedford6/0/shared/rich_project_chbe-medford/medford-share/data/pseudos_module/espresso/nninc/pbe/van/N.UPF
     MD5 check sum: 90d10febe142ad51ac9d5be1deb811c4
     Pseudo is Ultrasoft, Zval =  5.0
     Generated by new atomic code, or converted to UPF format
     Using radial grid of  729 points,  4 beta functions with:
                l(1) =   0
                l(2) =   0
                l(3) =   1
                l(4) =   1
     Q(r) pseudized with  8 coefficients,  rinner =    0.800   0.800   0.800

     PseudoPot. # 5 for C  read from file:
     /storage/coda1/p-amedford6/0/shared/rich_project_chbe-medford/medford-share/data/pseudos_module/espresso/nninc/pbe/van/C.UPF
     MD5 check sum: 1a69bf6b8db32088f5b2163dbdb77a27
     Pseudo is Ultrasoft, Zval =  4.0
     Generated by new atomic code, or converted to UPF format
     Using radial grid of  721 points,  4 beta functions with:
                l(1) =   0
                l(2) =   0
                l(3) =   1
                l(4) =   1
     Q(r) pseudized with  8 coefficients,  rinner =    0.800   0.800   0.800

     atomic species   valence    mass     pseudopotential
        Ti1           12.00    47.86700     Ti( 1.00)
        O1             6.00    15.99900     O ( 1.00)
        H1             1.00     1.00800     H ( 1.00)
        N1             5.00    14.00700     N ( 1.00)
        C1             4.00    12.01100     C ( 1.00)

     No symmetry found

   Cartesian axes

     site n.     atom                  positions (alat units)
         1           Ti1 tau(   1) = (   0.0004258   2.9801865   6.0000000  )
         2           Ti1 tau(   2) = (   3.2906075   1.4906267   6.0002472  )
         3           O1  tau(   3) = (   0.0006271   0.0005054   7.9858123  )
         4           O1  tau(   4) = (   3.2906025   0.0005020   7.3038282  )
         5           O1  tau(   5) = (   4.5942328   1.4918067   9.2879030  )
         6           O1  tau(   6) = (   1.9868534   1.4903216   9.2879459  )
         7           Ti1 tau(   7) = (   3.2907910   2.8959150   9.1758416  )
         8           Ti1 tau(   8) = (   0.0015273   1.4827037   9.2680791  )
         9           O1  tau(   9) = (   3.2896571   0.0076959  11.3233140  )
        10           O1  tau(  10) = (   0.0116148   5.9584955  10.6183126  )
        11           O1  tau(  11) = (   1.3168077   1.5009220  12.6157425  )
        12           O1  tau(  12) = (   5.2956243   1.4929856  12.6075824  )
        13           Ti1 tau(  13) = (   6.5239244   2.9540340  12.6210794  )
        14           Ti1 tau(  14) = (   3.2085880   1.4976218  12.4699624  )
        15           O1  tau(  15) = (   6.5712616   0.0419518  14.6436513  )
        16           O1  tau(  16) = (   3.3111435   0.0202601  13.9161875  )
        17           O1  tau(  17) = (   4.5291760   1.5523016  16.0784362  )
        18           O1  tau(  18) = (   2.0445308   1.5488630  16.0432715  )
        19           Ti1 tau(  19) = (   3.3059752   3.0257308  15.6838679  )
        20           Ti1 tau(  20) = (   0.0592185   1.5662548  15.8694889  )
        21           O1  tau(  21) = (   3.2904802   0.0005063   4.7018136  )
        22           O1  tau(  22) = (   0.0264932   0.0561689  17.2024660  )
        23           O1  tau(  23) = (   1.3043587   1.4918075   6.0039043  )
        24           O1  tau(  24) = (   5.2767064   1.4903225   6.0039473  )
        25           Ti1 tau(  25) = (   0.0000382   5.9609847   6.0000000  )
        26           Ti1 tau(  26) = (   3.2902200   4.4714249   6.0002472  )
        27           O1  tau(  27) = (   0.0002396   2.9813036   7.9858123  )
        28           O1  tau(  28) = (   3.2902150   2.9813002   7.3038282  )
        29           O1  tau(  29) = (   4.5938453   4.4726049   9.2879030  )
        30           O1  tau(  30) = (   1.9864658   4.4711199   9.2879459  )
        31           Ti1 tau(  31) = (   3.2891106   5.8743827   9.1763621  )
        32           Ti1 tau(  32) = (   0.0006254   4.4649316   9.2693709  )
        33           O1  tau(  33) = (   3.2898653   2.9926188  11.3210358  )
        34           O1  tau(  34) = (   0.0092240   2.9805883  10.6323155  )
        35           O1  tau(  35) = (   1.3106253   4.4883450  12.6271249  )
        36           O1  tau(  36) = (   5.2968722   4.4793810  12.6200386  )
        37           Ti1 tau(  37) = (   6.5212985   5.9329073  12.5685303  )
        38           Ti1 tau(  38) = (   3.2059443   4.4781599  12.4721232  )
        39           O1  tau(  39) = (   6.5764971   2.9600267  14.6431433  )
        40           O1  tau(  40) = (   3.3056941   3.0038382  13.8936370  )
        41           O1  tau(  41) = (   4.5394310   4.5052612  16.0827012  )
        42           O1  tau(  42) = (   2.0570581   4.5113261  16.0718816  )
        43           Ti1 tau(  43) = (   3.3383738   0.0382055  15.7109988  )
        44           Ti1 tau(  44) = (   0.0469139   4.6840235  16.0886640  )
        45           O1  tau(  45) = (   3.2900926   2.9813045   4.7018136  )
        46           O1  tau(  46) = (   1.3039711   4.4726057   6.0039043  )
        47           O1  tau(  47) = (   5.2763189   4.4711207   6.0039473  )
        48           H1  tau(  48) = (   5.6101632   2.9904038  17.7880820  )
        49           N1  tau(  49) = (   6.5649722   3.0046358  17.4438072  )
        50           C1  tau(  50) = (   0.8874553   2.9889031  18.6120612  )
        51           H1  tau(  51) = (   1.3591778   3.9628686  18.7739097  )
        52           H1  tau(  52) = (   0.3310755   2.7322232  19.5165709  )
        53           H1  tau(  53) = (   1.6717793   2.2402645  18.4914768  )
        54           O1  tau(  54) = (   3.2567199   5.9268012  21.6117354  )
        55           H1  tau(  55) = (   4.0245811   5.9269051  22.2091127  )
        56           H1  tau(  56) = (   2.4887544   5.9269923  22.2092946  )

     number of k points=    10  Fermi-Dirac smearing, width (Ry)=  0.0073
                       cart. coord. in units 2pi/alat
        k(    1) = (   0.0000000   0.0000000   0.0000000), wk =   0.1250000
        k(    2) = (   0.0000000   0.0419351   0.0000000), wk =   0.2500000
        k(    3) = (   0.0000000  -0.0838702   0.0000000), wk =   0.1250000
        k(    4) = (   0.0379955   0.0000049   0.0000000), wk =   0.2500000
        k(    5) = (   0.0379955   0.0419400   0.0000000), wk =   0.2500000
        k(    6) = (   0.0379955  -0.0838652   0.0000000), wk =   0.2500000
        k(    7) = (   0.0379955  -0.0419301   0.0000000), wk =   0.2500000
        k(    8) = (  -0.0759910  -0.0000099   0.0000000), wk =   0.1250000
        k(    9) = (  -0.0759910   0.0419252   0.0000000), wk =   0.2500000
        k(   10) = (  -0.0759910  -0.0838800   0.0000000), wk =   0.1250000

     Initial potential from superposition of free atoms

     starting charge  382.99914, renormalised to  399.00000

     negative rho (up, down):  9.625E-03 0.000E+00

     %%%%%%%%%%%%%%%%%%%%%%%%%%%%%%%%%%%%%%%%%%%%%%%%%%%%%%%%%%%%%%%%%%%%%%%%
     %                                                                      %
     % You are using vdW-DF, which was implemented by the Thonhauser group. %
     % Please cite the following two papers that made this development      %
     % possible and the two reviews that describe the various versions:     %
     %                                                                      %
     %   T. Thonhauser et al., PRL 115, 136402 (2015).                      %
     %   T. Thonhauser et al., PRB 76, 125112 (2007).                       %
     %   K. Berland et al., Rep. Prog. Phys. 78, 066501 (2015).             %
     %   D.C. Langreth et al., J. Phys.: Condens. Matter 21, 084203 (2009). %
     %                                                                      %
     %                                                                      %
     % If you are calculating the stress with vdW-DF, please also cite:     %
     %                                                                      %
     %   R. Sabatini et al., J. Phys.: Condens. Matter 24, 424209 (2012).   %
     %                                                                      %
     %%%%%%%%%%%%%%%%%%%%%%%%%%%%%%%%%%%%%%%%%%%%%%%%%%%%%%%%%%%%%%%%%%%%%%%%

     Adding external electric field

     Computed dipole along edir(3) :
        Dipole              -12.5446 Ry au,        -31.8852 Debye
        Dipole field         -0.0237 Ry au,

        Potential amp.        2.1945 Ry
        Total length         46.3494 bohr

     Starting wfcs are  302 atomic wfcs
  @ DRIVER MODE: Message from server: STATUS
  @ DRIVER MODE: Message from server: POSDATA
  @ DRIVER MODE: Reading and sharing cell
  @ DRIVER MODE: Reading and sharing positions
  @ DRIVER MODE: Received positions

     Self-consistent Calculation

     iteration #  1     ecut=    29.40 Ry     beta= 0.05
     Davidson diagonalization with overlap
     c_bands:  2 eigenvalues not converged
     c_bands:  2 eigenvalues not converged
     c_bands:  4 eigenvalues not converged
     c_bands:  3 eigenvalues not converged
     c_bands:  3 eigenvalues not converged
     c_bands:  3 eigenvalues not converged
     c_bands:  5 eigenvalues not converged
     c_bands:  4 eigenvalues not converged
     c_bands:  5 eigenvalues not converged
     ethr =  1.00E-05,  avg # of iterations = 22.0

[...]

     total energy              =   -2445.30602818 Ry
     estimated scf accuracy    <    5721.71087963 Ry

     iteration #  2     ecut=    29.40 Ry     beta= 0.05
     Davidson diagonalization with overlap
     ethr =  1.00E-02,  avg # of iterations = 22.2

[...]

     iteration # 77     ecut=    29.40 Ry     beta= 0.05
     Davidson diagonalization with overlap
     c_bands:  1 eigenvalues not converged
     ethr =  9.61E-11,  avg # of iterations =  9.6

[...]

     total energy              =   -2955.21552788 Ry
     estimated scf accuracy    <       0.00000008 Ry

     iteration # 82     ecut=    29.40 Ry     beta= 0.05
     Davidson diagonalization with overlap
     ethr =  1.99E-11,  avg # of iterations = 13.9

     negative rho (up, down):  1.109E-02 0.000E+00

     Adding external electric field

     Computed dipole along edir(3) :
        Dipole                1.3316 Ry au,          3.3847 Debye
        Dipole field          0.0025 Ry au,

        Potential amp.       -0.2329 Ry
        Total length         46.3494 bohr

     End of self-consistent calculation

          k = 0.0000 0.0000 0.0000 ( 18029 PWs)   bands (ev):

   -55.4937 -55.4851 -55.4596 -55.4491 -55.4042 -55.3353 -55.3320 -55.2981
   -55.2974 -55.2642 -55.2563 -55.2226 -55.0691 -54.7867 -54.4655 -54.4315
   -32.0434 -31.9750 -31.8489 -31.8338 -31.8132 -31.7975 -31.7870 -31.7474
   -31.7351 -31.7350 -31.7084 -31.7007 -31.6675 -31.6458 -31.6376 -31.6344
   -31.6273 -31.5970 -31.5756 -31.5509 -31.5434 -31.5388 -31.5231 -31.5019
   -31.4925 -31.4879 -31.4842 -31.4759 -31.4595 -31.4567 -31.4515 -31.4474
   -31.4337 -31.4283 -31.4097 -31.4050 -31.3690 -31.3331 -31.2385 -31.0607
   -31.0547 -30.9854 -30.8724 -30.7846 -30.7622 -30.6891 -30.6026 -30.4916
   -18.5304 -16.2520 -15.9701 -15.7904 -15.6475 -15.6154 -15.5274 -15.3294
   -15.2037 -15.1885 -15.0843 -15.0522 -15.0275 -15.0211 -14.9926 -14.9888
   -14.9336 -14.9263 -14.9174 -14.9043 -14.8454 -14.8215 -14.7810 -14.6903
   -14.6659 -14.6506 -14.6229 -14.5406 -14.5350 -14.0923 -13.6294 -12.9680
   -12.8517  -8.4728  -6.2830  -3.9128  -3.6224  -3.4485  -3.4102  -3.3956
    -3.3452  -3.0947  -3.0773  -2.8431  -2.7104  -2.6934  -2.6778  -2.6646
    -2.6475  -2.6287  -2.4535  -2.3918  -2.3243  -2.3081  -2.2863  -2.2780
    -2.2718  -2.2621  -2.2584  -2.2139  -2.1587  -2.0453  -2.0271  -1.9207
    -1.8770  -1.8514  -1.8027  -1.7585  -1.7525  -1.7419  -1.7225  -1.7106
    -1.6884  -1.6707  -1.5356  -1.4729  -1.3404  -1.2945  -1.2870  -1.0930
    -1.0554  -0.9628  -0.9361  -0.9197  -0.9114  -0.8793  -0.7975  -0.7058
    -0.6521  -0.6402  -0.5861  -0.5070  -0.4933  -0.3917  -0.3843  -0.3787
    -0.3256  -0.2622  -0.2524  -0.2435  -0.1982  -0.1305  -0.0545   0.0210
     0.0733   0.0947   0.1212   0.2002   0.2293   0.3240   0.3451   0.3901
     0.3971   0.4434   0.4854   0.4941   0.4997   0.5155   0.5348   0.6827
     0.7907   0.8462   0.8791   0.8901   1.0475   1.0832   1.1712   1.2581
     1.4837   1.5564   1.6510   1.7496   1.8058   2.1272   2.1725   3.6496
     3.7287   3.7825   3.7916   3.8871   3.8945   4.0993   4.1084   4.1194
     4.1913

[...]

          k = 0.0380-0.0419 0.0000 ( 17876 PWs)   bands (ev):

[...]

          k =-0.0760-0.0000 0.0000 ( 17886 PWs)   bands (ev):

[...]

          k =-0.0760-0.0839 0.0000 ( 17948 PWs)   bands (ev):

   -55.4771 -55.4761 -55.4672 -55.4668 -55.3995 -55.3398 -55.3168 -55.3126
   -55.2818 -55.2800 -55.2399 -55.2392 -55.0681 -54.7876 -54.4486 -54.4482
   -31.8477 -31.8459 -31.7907 -31.7899 -31.7808 -31.7728 -31.7718 -31.7565
   -31.6972 -31.6950 -31.6883 -31.6846 -31.6635 -31.6309 -31.6141 -31.6108
   -31.6025 -31.5985 -31.5965 -31.5956 -31.5930 -31.5802 -31.5779 -31.5455
   -31.5353 -31.5340 -31.5092 -31.4950 -31.4782 -31.4777 -31.4726 -31.4720
   -31.4552 -31.4548 -31.4545 -31.4508 -31.4014 -31.3358 -31.2337 -31.1236
   -31.0570 -31.0103 -30.7750 -30.7747 -30.6853 -30.6850 -30.6460 -30.6458
   -18.5302 -15.7032 -15.6709 -15.4326 -15.4265 -15.4167 -15.4019 -15.2604
   -15.2059 -15.1971 -15.1902 -15.1645 -15.1431 -15.0908 -15.0639 -15.0259
   -15.0201 -15.0146 -15.0119 -14.9498 -14.9439 -14.9226 -14.9153 -14.8014
   -14.7986 -14.7973 -14.7258 -14.6564 -14.5209 -14.2609 -13.6509 -12.9537
   -12.9534  -8.4766  -6.2846  -3.9241  -2.9968  -2.9592  -2.8123  -2.7165
    -2.6735  -2.6595  -2.6422  -2.5640  -2.4503  -2.4039  -2.3876  -2.3707
    -2.3561  -2.3189  -2.3123  -2.2998  -2.2873  -2.2798  -2.2618  -2.2258
    -2.1872  -2.1593  -2.1515  -2.1420  -2.1173  -2.1052  -2.0797  -2.0744
    -2.0399  -2.0316  -2.0153  -1.9915  -1.7344  -1.7112  -1.6927  -1.6222
    -1.6150  -1.5826  -1.5743  -1.5546  -1.5414  -1.4892  -1.3903  -1.2236
    -1.1902  -1.1839  -1.1634  -1.0983  -1.0771  -0.9276  -0.9004  -0.8813
    -0.8438  -0.7945  -0.7622  -0.7232  -0.6873  -0.6516  -0.5894  -0.5814
    -0.5015  -0.4527  -0.4517  -0.4265  -0.4107  -0.3556  -0.2767  -0.2578
    -0.2469  -0.2053  -0.1922  -0.1109  -0.0883   0.0096   0.0239   0.0890
     0.1227   0.1931   0.3880   0.4915   0.5507   0.5762   0.6296   0.7248
     0.7788   0.7927   0.8269   0.8321   0.8930   0.9343   1.0489   1.0558
     1.1234   1.2256   1.7519   1.9208   1.9217   1.9922   1.9924   3.9106
     3.9171   3.9681   3.9968   4.1494   4.1541   4.1766   4.1777   4.2984
     4.3205

     the Fermi energy is     3.6425 ev

!    total energy              =   -2955.21553365 Ry
     estimated scf accuracy    <       0.00000004 Ry
     smearing contrib. (-TS)   =      -0.02205427 Ry
     internal energy E=F+TS    =   -2955.19347938 Ry

     The total energy is F=E-TS. E is the sum of the following terms:
     one-electron contribution =  -23381.10569196 Ry
     hartree contribution      =   11782.47196839 Ry
     xc contribution           =    -489.66772322 Ry
     ewald contribution        =    9133.10462104 Ry
     electric field correction =       0.00334637 Ry

     convergence has been achieved in  82 iterations

     Forces acting on atoms (cartesian axes, Ry/au):

     atom    1 type  1   force =     0.00011997   -0.00019996    0.09687328
     atom    2 type  1   force =     0.00004458   -0.00046525   -0.17496312
     atom    3 type  2   force =     0.00013059    0.00001491   -0.02541057
     atom    4 type  2   force =    -0.00003024   -0.00127012    0.05223047
     atom    5 type  2   force =    -0.01215077    0.00000585    0.00287907
     atom    6 type  2   force =     0.01359901    0.00054914    0.00225163
     atom    7 type  1   force =     0.00059536    0.00030577   -0.01253248
     atom    8 type  1   force =     0.00044220    0.00706769    0.03084941
     atom    9 type  2   force =     0.00032477    0.00016311    0.00044393
     atom   10 type  2   force =    -0.00271366    0.00207479   -0.01688568
     atom   11 type  2   force =     0.00017709   -0.00036121    0.00012894
     atom   12 type  2   force =     0.00006319   -0.00035793    0.00022869
     atom   13 type  1   force =    -0.00018949    0.00035591   -0.00003232
     atom   14 type  1   force =    -0.00012087    0.00032527   -0.00035491
     atom   15 type  2   force =    -0.00003363   -0.00030114   -0.00006422
     atom   16 type  2   force =     0.00014755    0.00038176    0.00129467
     atom   17 type  2   force =    -0.00027931   -0.00036327    0.00030168
     atom   18 type  2   force =     0.00035064   -0.00033967    0.00006133
     atom   19 type  1   force =     0.00021475   -0.00038900    0.00041292
     atom   20 type  1   force =    -0.00046919    0.00024546    0.00033250
     atom   21 type  2   force =     0.00005883   -0.00002320    0.10304985
     atom   22 type  2   force =     0.00017152   -0.00080973    0.00026914
     atom   23 type  2   force =    -0.07166965   -0.00016087   -0.02782882
     atom   24 type  2   force =     0.07156776    0.00033967   -0.02788333
     atom   25 type  1   force =     0.00008649   -0.00016903    0.09667682
     atom   26 type  1   force =     0.00009254   -0.00025637   -0.17506491
     atom   27 type  2   force =     0.00012119   -0.00010733   -0.02447007
     atom   28 type  2   force =     0.00004060   -0.00101305    0.05206353
     atom   29 type  2   force =    -0.01234500    0.00066941    0.00264590
     atom   30 type  2   force =     0.01366282    0.00105820    0.00202783
     atom   31 type  1   force =     0.00049688    0.00306986   -0.01334037
     atom   32 type  1   force =     0.00030693   -0.00927250    0.03128462
     atom   33 type  2   force =    -0.00012537    0.00016324    0.00078206
     atom   34 type  2   force =    -0.00202581    0.00179276   -0.02551239
     atom   35 type  2   force =     0.00026480    0.00019237    0.00035552
     atom   36 type  2   force =     0.00021687    0.00010562    0.00034519
     atom   37 type  1   force =    -0.00026676   -0.00064580    0.00015648
     atom   38 type  1   force =    -0.00007982    0.00003460   -0.00023165
     atom   39 type  2   force =     0.00005364   -0.00078882    0.00029461
     atom   40 type  2   force =     0.00025042    0.00003294   -0.00009166
     atom   41 type  2   force =    -0.00040971    0.00009602   -0.00004197
     atom   42 type  2   force =     0.00037927   -0.00011902   -0.00030281
     atom   43 type  1   force =    -0.00032429    0.00050996   -0.00073941
     atom   44 type  1   force =    -0.00041891   -0.00060465    0.00123111
     atom   45 type  2   force =     0.00004013   -0.00004536    0.10309808
     atom   46 type  2   force =    -0.07166007   -0.00005551   -0.02782592
     atom   47 type  2   force =     0.07157901    0.00036304   -0.02789222
     atom   48 type  3   force =     0.00027526   -0.00044555    0.00011672
     atom   49 type  4   force =    -0.00007516   -0.00042969   -0.00024082
     atom   50 type  5   force =    -0.00023413   -0.00011369    0.00087060
     atom   51 type  3   force =    -0.00049539   -0.00036228    0.00042836
     atom   52 type  3   force =     0.00044752   -0.00067542   -0.00070336
     atom   53 type  3   force =     0.00030017    0.00028510   -0.00001405
     atom   54 type  2   force =    -0.00064947   -0.00005699    0.01606457
     atom   55 type  3   force =    -0.00788143   -0.00001895   -0.00866174
     atom   56 type  3   force =     0.00802573    0.00001888   -0.00896072

     Total force =     0.369007     Total SCF correction =     0.000577
  @ DRIVER MODE: Message from server: STATUS
  @ DRIVER MODE: Message from server: GETFORCE
  @ DRIVER MODE: Returning v,forces,stress,ensemble

     Writing output data file ./calc.save/
  @ DRIVER MODE: Message from server: EXIT
  @ DRIVE MODE: Exiting

     General routines

     Parallel routines

   This run was terminated on:   4:52:34  16Sep2021

   JOB DONE.