     Program PWSCF v.6.7GPU starts on 15Sep2021 at 20:48:48

     R & G space division:  proc/nbgrp/npool/nimage =      10
     Reading input from /storage/home/hcoda1/3/ntian30/research/carbon/CxH_vib/H2O_calc/ads_slab/CHN2HH2O_a/out_0017/pw.inp
Warning: card &CELL ignored
Warning: card   CELL_DYNAMICS='IPI', ignored
Warning: card / ignored

     Current dimensions of program PWSCF are:
     Max number of different atomic species (ntypx) = 10
     Max number of k-points (npk) =  40000
     Max angular momentum in pseudopotentials (lmaxx) =  3
     Presently no symmetry can be used with electric field

     Message from routine cell_base_init:
     DEPRECATED: use true lattice parameter, not A to a.u. conversion factor

     IMPORTANT: XC functional enforced from input :
     Exchange-correlation= BEEF-VDW
                           (   1   4  43  14   2   0   0)
     Any further DFT definition will be discarded
     Please, verify this is what you really want

  @ DRIVER MODE: Connecting to
 qe_1139763_2852626.sched-torque.pace.gatech.edusxs00d1c_scratch
  using UNIX socket
  @ DRIVER MODE: Message from server: STATUS
  @ DRIVER MODE: Message from server: INIT
  @ DRIVER MODE: Receiving replica           0          -1
  @ DRIVER MODE: Receiving encoded integer          25
  @ DRIVER MODE:  SCF:  T  FORCE:  T  STRESS:  F  VC:  F  ENSEMBLE:  F
  @ DRIVER MODE:  SCF:  T  FORCE:  T  STRESS:  F  VC:  F  ENSEMBLE:  F

     Using Slab Decomposition

     bravais-lattice index     =            0
     lattice parameter (alat)  =       1.8897  a.u.
     unit-cell volume          =    6658.9804 (a.u.)^3
     number of atoms/cell      =           55
     number of atomic types    =            5
     number of electrons       =       402.00
     number of Kohn-Sham states=          211
     kinetic-energy cutoff     =      29.3995  Ry
     charge density cutoff     =     293.9946  Ry
     scf convergence threshold =      7.3E-08
     mixing beta               =       0.0500
     number of iterations used =            8  plain     mixing
     Exchange-correlation= BEEF-VDW
                           (   1   4  43  14   2   0   0)

     celldm(1)=   1.889726  celldm(2)=   0.000000  celldm(3)=   0.000000
     celldm(4)=   0.000000  celldm(5)=   0.000000  celldm(6)=   0.000000

     crystal axes: (cart. coord. in units of alat)
               a(1) = (   6.579727   0.000000   0.000000 )
               a(2) = (  -0.000775   5.961596   0.000000 )
               a(3) = (   0.000000   0.000000  25.155947 )

     reciprocal axes: (cart. coord. in units 2 pi/alat)
               b(1) = (  0.151982  0.000020  0.000000 )
               b(2) = (  0.000000  0.167740  0.000000 )
               b(3) = (  0.000000  0.000000  0.039752 )

     PseudoPot. # 1 for Ti read from file:
     /storage/coda1/p-amedford6/0/shared/rich_project_chbe-medford/medford-share/data/pseudos_module/espresso/nninc/pbe/van/Ti.UPF
     MD5 check sum: 8e4df49b7f0d34bbd5052bf3f5ea0213
     Pseudo is Ultrasoft, Zval = 12.0
     Generated by new atomic code, or converted to UPF format
     Using radial grid of  851 points,  6 beta functions with:
                l(1) =   0
                l(2) =   0
                l(3) =   1
                l(4) =   1
                l(5) =   2
                l(6) =   2
     Q(r) pseudized with  8 coefficients,  rinner =    1.000   1.000   1.000
                                                       1.000   1.000

     PseudoPot. # 2 for O  read from file:
     /storage/coda1/p-amedford6/0/shared/rich_project_chbe-medford/medford-share/data/pseudos_module/espresso/nninc/pbe/van/O.UPF
     MD5 check sum: 78c19812648e8988a0fe644b0f25305e
     Pseudo is Ultrasoft, Zval =  6.0
     Generated by new atomic code, or converted to UPF format
     Using radial grid of  737 points,  4 beta functions with:
                l(1) =   0
                l(2) =   0
                l(3) =   1
                l(4) =   1
     Q(r) pseudized with  8 coefficients,  rinner =    0.800   0.800   0.800

     PseudoPot. # 3 for N  read from file:
     /storage/coda1/p-amedford6/0/shared/rich_project_chbe-medford/medford-share/data/pseudos_module/espresso/nninc/pbe/van/N.UPF
     MD5 check sum: 90d10febe142ad51ac9d5be1deb811c4
     Pseudo is Ultrasoft, Zval =  5.0
     Generated by new atomic code, or converted to UPF format
     Using radial grid of  729 points,  4 beta functions with:
                l(1) =   0
                l(2) =   0
                l(3) =   1
                l(4) =   1
     Q(r) pseudized with  8 coefficients,  rinner =    0.800   0.800   0.800

     PseudoPot. # 4 for C  read from file:
     /storage/coda1/p-amedford6/0/shared/rich_project_chbe-medford/medford-share/data/pseudos_module/espresso/nninc/pbe/van/C.UPF
     MD5 check sum: 1a69bf6b8db32088f5b2163dbdb77a27
     Pseudo is Ultrasoft, Zval =  4.0
     Generated by new atomic code, or converted to UPF format
     Using radial grid of  721 points,  4 beta functions with:
                l(1) =   0
                l(2) =   0
                l(3) =   1
                l(4) =   1
     Q(r) pseudized with  8 coefficients,  rinner =    0.800   0.800   0.800

     PseudoPot. # 5 for H  read from file:
     /storage/coda1/p-amedford6/0/shared/rich_project_chbe-medford/medford-share/data/pseudos_module/espresso/nninc/pbe/van/H.UPF
     MD5 check sum: b5ee9d7bfd3a09ee7748110bda690ff7
     Pseudo is Ultrasoft, Zval =  1.0
     Generated by new atomic code, or converted to UPF format
     Using radial grid of  615 points,  1 beta functions with:
                l(1) =   0
     Q(r) pseudized with  8 coefficients,  rinner =    0.800

     atomic species   valence    mass     pseudopotential
        Ti1           12.00    47.86700     Ti( 1.00)
        O1             6.00    15.99900     O ( 1.00)
        N1             5.00    14.00700     N ( 1.00)
        C1             4.00    12.01100     C ( 1.00)
        H1             1.00     1.00800     H ( 1.00)

     No symmetry found

   Cartesian axes

     site n.     atom                  positions (alat units)
         1           Ti1 tau(   1) = (   0.0004258   2.9801865   6.0000000  )
         2           Ti1 tau(   2) = (   3.2906075   1.4906267   6.0002472  )
         3           O1  tau(   3) = (   0.0006271   0.0005054   7.9858123  )
         4           O1  tau(   4) = (   3.2906025   0.0005020   7.3038282  )
         5           O1  tau(   5) = (   4.5942328   1.4918067   9.2879030  )
         6           O1  tau(   6) = (   1.9868534   1.4903216   9.2879459  )
         7           Ti1 tau(   7) = (   3.2907910   2.8959150   9.1758416  )
         8           Ti1 tau(   8) = (   0.0015273   1.4827037   9.2680791  )
         9           O1  tau(   9) = (   3.2768631   0.0039008  11.3091060  )
        10           O1  tau(  10) = (   0.0116148   5.9584955  10.6183126  )
        11           O1  tau(  11) = (   1.2710838   1.4709840  12.6395574  )
        12           O1  tau(  12) = (   5.2772223   1.5075092  12.6020671  )
        13           Ti1 tau(  13) = (   0.0276258   2.9086511  12.7028215  )
        14           Ti1 tau(  14) = (   3.3492493   1.4375301  12.4845766  )
        15           O1  tau(  15) = (   6.5006329   5.9509897  14.6081112  )
        16           O1  tau(  16) = (   3.3450391   0.0041935  13.9069437  )
        17           O1  tau(  17) = (   4.5555219   1.5659029  16.0522165  )
        18           O1  tau(  18) = (   1.9836904   1.4119734  15.8927236  )
        19           Ti1 tau(  19) = (   3.2827818   2.9316656  15.8555152  )
        20           Ti1 tau(  20) = (   6.5629331   1.3437128  15.9803530  )
        21           O1  tau(  21) = (   3.2904802   0.0005063   4.7018136  )
        22           O1  tau(  22) = (   6.5074089   5.9525318  17.1494500  )
        23           O1  tau(  23) = (   1.3043587   1.4918075   6.0039043  )
        24           O1  tau(  24) = (   5.2767064   1.4903225   6.0039473  )
        25           Ti1 tau(  25) = (   0.0000382   5.9609847   6.0000000  )
        26           Ti1 tau(  26) = (   3.2902200   4.4714249   6.0002472  )
        27           O1  tau(  27) = (   0.0002396   2.9813036   7.9858123  )
        28           O1  tau(  28) = (   3.2902150   2.9813002   7.3038282  )
        29           O1  tau(  29) = (   4.5938453   4.4726049   9.2879030  )
        30           O1  tau(  30) = (   1.9864658   4.4711199   9.2879459  )
        31           Ti1 tau(  31) = (   3.2891106   5.8743827   9.1763621  )
        32           Ti1 tau(  32) = (   0.0006254   4.4649316   9.2693709  )
        33           O1  tau(  33) = (   3.2854303   2.9668816  11.2996989  )
        34           O1  tau(  34) = (   0.0092240   2.9805883  10.6323155  )
        35           O1  tau(  35) = (   1.2743094   4.4851408  12.6236879  )
        36           O1  tau(  36) = (   5.2782958   4.4707264  12.5946799  )
        37           Ti1 tau(  37) = (   0.0481499   5.8920156  12.5607908  )
        38           Ti1 tau(  38) = (   3.3544845   4.3749597  12.5572158  )
        39           O1  tau(  39) = (   6.5410016   3.0017514  14.6365314  )
        40           O1  tau(  40) = (   3.2441134   3.0029108  13.8718978  )
        41           O1  tau(  41) = (   4.5385932   4.4028810  16.0550583  )
        42           O1  tau(  42) = (   1.9619458   4.5383001  15.8611175  )
        43           Ti1 tau(  43) = (   3.2178196   5.9097812  15.7399460  )
        44           Ti1 tau(  44) = (   6.5330930   4.4908980  15.8705378  )
        45           O1  tau(  45) = (   3.2900926   2.9813045   4.7018136  )
        46           O1  tau(  46) = (   1.3039711   4.4726057   6.0039043  )
        47           O1  tau(  47) = (   5.2763189   4.4711207   6.0039473  )
        48           N1  tau(  48) = (   1.2867840   3.0293760  18.3347772  )
        49           C1  tau(  49) = (   2.5003166   3.0326976  17.9707196  )
        50           H1  tau(  50) = (   3.2053588   3.1791635  18.7900936  )
        51           N1  tau(  51) = (   0.2138509   2.9871109  17.4421441  )
        52           H1  tau(  52) = (   5.9621615   2.9869774  18.0311354  )
        53           O1  tau(  53) = (   3.4290693   5.9360351  18.0748810  )
        54           H1  tau(  54) = (   4.3780305   0.1327944  18.2306609  )
        55           H1  tau(  55) = (   2.9458904   0.7245148  18.4607207  )

     number of k points=    10  Fermi-Dirac smearing, width (Ry)=  0.0073
                       cart. coord. in units 2pi/alat
        k(    1) = (   0.0000000   0.0000000   0.0000000), wk =   0.1250000
        k(    2) = (   0.0000000   0.0419351   0.0000000), wk =   0.2500000
        k(    3) = (   0.0000000  -0.0838702   0.0000000), wk =   0.1250000
        k(    4) = (   0.0379955   0.0000049   0.0000000), wk =   0.2500000
        k(    5) = (   0.0379955   0.0419400   0.0000000), wk =   0.2500000
        k(    6) = (   0.0379955  -0.0838652   0.0000000), wk =   0.2500000
        k(    7) = (   0.0379955  -0.0419301   0.0000000), wk =   0.2500000
        k(    8) = (  -0.0759910  -0.0000099   0.0000000), wk =   0.1250000
        k(    9) = (  -0.0759910   0.0419252   0.0000000), wk =   0.2500000
        k(   10) = (  -0.0759910  -0.0838800   0.0000000), wk =   0.1250000

     Initial potential from superposition of free atoms

     starting charge  385.99915, renormalised to  402.00000

     negative rho (up, down):  1.832E-02 0.000E+00

     %%%%%%%%%%%%%%%%%%%%%%%%%%%%%%%%%%%%%%%%%%%%%%%%%%%%%%%%%%%%%%%%%%%%%%%%
     %                                                                      %
     % You are using vdW-DF, which was implemented by the Thonhauser group. %
     % Please cite the following two papers that made this development      %
     % possible and the two reviews that describe the various versions:     %
     %                                                                      %
     %   T. Thonhauser et al., PRL 115, 136402 (2015).                      %
     %   T. Thonhauser et al., PRB 76, 125112 (2007).                       %
     %   K. Berland et al., Rep. Prog. Phys. 78, 066501 (2015).             %
     %   D.C. Langreth et al., J. Phys.: Condens. Matter 21, 084203 (2009). %
     %                                                                      %
     %                                                                      %
     % If you are calculating the stress with vdW-DF, please also cite:     %
     %                                                                      %
     %   R. Sabatini et al., J. Phys.: Condens. Matter 24, 424209 (2012).   %
     %                                                                      %
     %%%%%%%%%%%%%%%%%%%%%%%%%%%%%%%%%%%%%%%%%%%%%%%%%%%%%%%%%%%%%%%%%%%%%%%%

     Adding external electric field

     Computed dipole along edir(3) :
        Dipole              -11.0891 Ry au,        -28.1857 Debye
        Dipole field         -0.0209 Ry au,

        Potential amp.        1.9399 Ry
        Total length         46.3494 bohr

     Starting wfcs are  304 atomic wfcs
  @ DRIVER MODE: Message from server: STATUS
  @ DRIVER MODE: Message from server: POSDATA
  @ DRIVER MODE: Reading and sharing cell
  @ DRIVER MODE: Reading and sharing positions
  @ DRIVER MODE: Received positions

     Self-consistent Calculation

     iteration #  1     ecut=    29.40 Ry     beta= 0.05
     Davidson diagonalization with overlap
     c_bands:  5 eigenvalues not converged
     c_bands:  1 eigenvalues not converged
     c_bands:  3 eigenvalues not converged
     c_bands:  4 eigenvalues not converged
     c_bands:  1 eigenvalues not converged
     c_bands:  2 eigenvalues not converged
     c_bands:  1 eigenvalues not converged
     c_bands:  1 eigenvalues not converged
     ethr =  1.00E-05,  avg # of iterations = 28.9

[...]

     total energy              =   -2403.77170020 Ry
     estimated scf accuracy    <    6374.60101521 Ry

     iteration #  2     ecut=    29.40 Ry     beta= 0.05
     Davidson diagonalization with overlap
     ethr =  1.00E-02,  avg # of iterations = 26.4

[...]

     iteration # 39     ecut=    29.40 Ry     beta= 0.05
     Davidson diagonalization with overlap
     c_bands:  1 eigenvalues not converged
     ethr =  1.44E-06,  avg # of iterations =  4.9

[...]

     total energy              =   -2972.69109123 Ry
     estimated scf accuracy    <       0.00000008 Ry

     iteration # 68     ecut=    29.40 Ry     beta= 0.05
     Davidson diagonalization with overlap
     ethr =  1.98E-11,  avg # of iterations =  6.5

     negative rho (up, down):  1.794E-02 0.000E+00

     Adding external electric field

     Computed dipole along edir(3) :
        Dipole                0.3651 Ry au,          0.9281 Debye
        Dipole field          0.0007 Ry au,

        Potential amp.       -0.0639 Ry
        Total length         46.3494 bohr

     End of self-consistent calculation

          k = 0.0000 0.0000 0.0000 ( 18029 PWs)   bands (ev):

   -56.3407 -56.3068 -55.9392 -55.9055 -55.7509 -55.7144 -55.5600 -55.5559
   -55.5470 -55.5233 -55.5137 -55.4524 -55.2541 -55.2379 -55.1445 -55.1105
   -32.7942 -32.6332 -32.6063 -32.4988 -32.4180 -32.4143 -32.4059 -32.2398
   -32.1567 -32.1525 -32.0940 -32.0813 -32.0676 -32.0426 -32.0373 -31.9782
   -31.9736 -31.9653 -31.9320 -31.9100 -31.9082 -31.8648 -31.8508 -31.8426
   -31.8183 -31.7802 -31.7590 -31.7313 -31.7282 -31.7093 -31.7076 -31.7047
   -31.6903 -31.6691 -31.6524 -31.6398 -31.5505 -31.5431 -31.5113 -31.4986
   -31.4751 -31.4707 -31.4516 -31.4417 -31.3613 -31.3312 -31.2763 -31.1646
   -18.7504 -16.9425 -16.6579 -16.3463 -16.1452 -15.9612 -15.8990 -15.8388
   -15.7859 -15.6651 -15.6044 -15.5751 -15.5032 -15.3982 -15.3783 -15.3528
   -15.3005 -15.2851 -15.2673 -15.2386 -15.1844 -15.1516 -15.1325 -15.0568
   -15.0354 -15.0228 -14.9002 -14.8313 -14.8070 -14.7723 -14.5215 -13.6432
   -13.5302 -12.2868  -6.7548  -6.5342  -4.1594  -4.0830  -3.9050  -3.7847
    -3.6661  -3.6181  -3.4838  -3.4140  -3.3636  -3.2678  -3.1186  -3.0866
    -3.0136  -2.9635  -2.9216  -2.8631  -2.8038  -2.7583  -2.7190  -2.6347
    -2.6291  -2.6167  -2.5986  -2.5788  -2.5627  -2.4483  -2.3559  -2.3382
    -2.3140  -2.2707  -2.2517  -2.2397  -2.1890  -2.1602  -2.0766  -2.0672
    -2.0207  -1.9625  -1.9162  -1.8078  -1.7967  -1.7210  -1.7011  -1.6591
    -1.5290  -1.4044  -1.3735  -1.3223  -1.3110  -1.2257  -1.2031  -1.1761
    -1.0784  -1.0656  -1.0218  -1.0004  -0.8755  -0.8497  -0.8015  -0.7948
    -0.7658  -0.6698  -0.6317  -0.5196  -0.4757  -0.4304  -0.4205  -0.3461
    -0.3168  -0.2721  -0.2221  -0.1694  -0.1674  -0.1394  -0.0572  -0.0152
     0.0306   0.0789   0.1149   0.2035   0.2567   0.2927   0.3072   0.3958
     0.4391   0.4541   0.5192   0.5882   0.6390   0.7055   0.7492   0.8634
     0.8792   0.8962   0.9772   1.1012   1.4098   1.4323   1.4727   1.6565
     2.6502   2.8824   3.0032   3.1671   3.3127   3.3618   3.6301   3.6857
     3.7621   3.8340   3.8563

[...]

          k = 0.0380-0.0419 0.0000 ( 17876 PWs)   bands (ev):

[...]

          k =-0.0760-0.0000 0.0000 ( 17886 PWs)   bands (ev):

[...]

          k =-0.0760-0.0839 0.0000 ( 17948 PWs)   bands (ev):

   -56.3243 -56.3231 -55.9241 -55.9204 -55.7395 -55.7258 -55.5556 -55.5440
   -55.5374 -55.5326 -55.5289 -55.4509 -55.2554 -55.2389 -55.1274 -55.1274
   -32.6193 -32.6180 -32.6104 -32.6097 -32.4511 -32.4498 -32.2397 -32.2356
   -32.1294 -32.1260 -32.1165 -32.1092 -32.0398 -32.0297 -31.9676 -31.9576
   -31.9482 -31.9455 -31.8976 -31.8880 -31.8664 -31.8645 -31.8580 -31.8286
   -31.8121 -31.7818 -31.7738 -31.7576 -31.7550 -31.7468 -31.7458 -31.7302
   -31.7251 -31.7163 -31.7055 -31.6365 -31.6075 -31.5548 -31.5260 -31.5113
   -31.4754 -31.4645 -31.4645 -31.3574 -31.3572 -31.3326 -31.3189 -31.3188
   -18.7481 -16.9211 -16.0623 -16.0500 -15.9320 -15.9270 -15.7486 -15.7300
   -15.6966 -15.6714 -15.6356 -15.5491 -15.4843 -15.4765 -15.4697 -15.4064
   -15.3610 -15.3515 -15.3324 -15.3049 -15.2792 -15.2532 -15.1610 -15.1346
   -15.1311 -15.1014 -15.0195 -15.0073 -14.9476 -14.8098 -14.7404 -13.6334
   -13.6326 -12.3083  -6.7325  -6.4593  -3.9988  -3.8583  -3.2331  -3.1925
    -3.1733  -3.0639  -3.0380  -2.9632  -2.8665  -2.8502  -2.8345  -2.8008
    -2.7755  -2.7672  -2.7514  -2.7076  -2.6594  -2.6377  -2.6220  -2.6135
    -2.6082  -2.5961  -2.5655  -2.5372  -2.4783  -2.4694  -2.4367  -2.4174
    -2.3900  -2.3129  -2.3045  -2.2874  -2.2862  -2.2321  -2.1319  -2.1157
    -2.1070  -2.0643  -2.0012  -1.9309  -1.8418  -1.8007  -1.7348  -1.6787
    -1.6214  -1.5933  -1.5806  -1.4813  -1.4217  -1.4117  -1.3640  -1.3119
    -1.2347  -1.1961  -1.1586  -1.1467  -1.1340  -1.0960  -1.0457  -0.9848
    -0.8696  -0.8454  -0.8346  -0.7712  -0.7668  -0.7569  -0.6482  -0.6177
    -0.5661  -0.5414  -0.5215  -0.4843  -0.4537  -0.3811  -0.2883  -0.2422
    -0.1143  -0.0987  -0.0438   0.0048   0.0165   0.1067   0.1964   0.2205
     0.3586   0.3727   0.4047   0.5367   0.6077   0.6578   0.6756   0.7985
     0.8178   0.8534   1.0206   1.2656   1.2700   1.2889   1.2902   1.6066
     2.6269   3.4216   3.4239   3.4537   3.4558   3.6655   3.6791   3.7569
     3.7941   3.8854   3.9234

     the Fermi energy is     2.8239 ev

!    total energy              =   -2972.69111968 Ry
     estimated scf accuracy    <       0.00000002 Ry
     smearing contrib. (-TS)   =      -0.01346474 Ry
     internal energy E=F+TS    =   -2972.67765494 Ry

     The total energy is F=E-TS. E is the sum of the following terms:
     one-electron contribution =  -24587.30082904 Ry
     hartree contribution      =   12385.67984636 Ry
     xc contribution           =    -493.18002986 Ry
     ewald contribution        =    9722.12310598 Ry
     electric field correction =       0.00025162 Ry

     convergence has been achieved in  68 iterations

     Forces acting on atoms (cartesian axes, Ry/au):

     atom    1 type  1   force =    -0.00001223   -0.00027850    0.10604844
     atom    2 type  1   force =    -0.00022316   -0.00075191   -0.16693112
     atom    3 type  2   force =    -0.00002375   -0.00013942   -0.03885331
     atom    4 type  2   force =    -0.00009959   -0.00038029    0.03650157
     atom    5 type  2   force =    -0.00756675   -0.00012892   -0.00576354
     atom    6 type  2   force =     0.00858065    0.00077973   -0.00745085
     atom    7 type  1   force =    -0.00079575   -0.00144986    0.01968851
     atom    8 type  1   force =     0.00110255    0.01827776    0.06306522
     atom    9 type  2   force =    -0.00008604   -0.00019136    0.00037334
     atom   10 type  2   force =    -0.00264997    0.00202980   -0.04756134
     atom   11 type  2   force =    -0.00024467   -0.00001785    0.00013110
     atom   12 type  2   force =     0.00038387   -0.00013478    0.00009645
     atom   13 type  1   force =     0.00006290   -0.00011037   -0.00051741
     atom   14 type  1   force =    -0.00049376    0.00003418    0.00000067
     atom   15 type  2   force =     0.00025220    0.00007865   -0.00021783
     atom   16 type  2   force =    -0.00012712   -0.00029679    0.00066330
     atom   17 type  2   force =     0.00010140   -0.00026784    0.00046892
     atom   18 type  2   force =     0.00010676    0.00000801   -0.00024793
     atom   19 type  1   force =    -0.00009911    0.00004494    0.00096583
     atom   20 type  1   force =     0.00025837    0.00024390   -0.00015277
     atom   21 type  2   force =     0.00004869   -0.00002035    0.10086605
     atom   22 type  2   force =     0.00029096    0.00025245    0.00060030
     atom   23 type  2   force =    -0.07579167   -0.00011192   -0.02986051
     atom   24 type  2   force =     0.07568389    0.00034338   -0.02987112
     atom   25 type  1   force =     0.00020293   -0.00055967    0.10641258
     atom   26 type  1   force =    -0.00006524   -0.00028130   -0.16736845
     atom   27 type  2   force =    -0.00006301   -0.00031917   -0.03751375
     atom   28 type  2   force =     0.00007174   -0.00045695    0.03695172
     atom   29 type  2   force =    -0.00853939    0.00126234   -0.00515880
     atom   30 type  2   force =     0.00949490    0.00122464   -0.00687491
     atom   31 type  1   force =    -0.00129513   -0.00008353    0.02601227
     atom   32 type  1   force =     0.00116005   -0.02137893    0.06364274
     atom   33 type  2   force =    -0.00002036    0.00024357   -0.00001101
     atom   34 type  2   force =    -0.00008258    0.00090764   -0.05936348
     atom   35 type  2   force =    -0.00010176    0.00009706   -0.00012051
     atom   36 type  2   force =    -0.00009565    0.00036845   -0.00013800
     atom   37 type  1   force =     0.00002506   -0.00032487   -0.00007878
     atom   38 type  1   force =    -0.00043231   -0.00012326   -0.00016566
     atom   39 type  2   force =    -0.00021115    0.00039572    0.00060566
     atom   40 type  2   force =     0.00042901    0.00013568   -0.00042073
     atom   41 type  2   force =    -0.00004613    0.00036551    0.00000802
     atom   42 type  2   force =     0.00046136    0.00023319    0.00011396
     atom   43 type  1   force =    -0.00045206    0.00002794   -0.00027322
     atom   44 type  1   force =     0.00046683    0.00005083   -0.00050712
     atom   45 type  2   force =     0.00002463   -0.00000258    0.10093291
     atom   46 type  2   force =    -0.07580241   -0.00011360   -0.02981560
     atom   47 type  2   force =     0.07567300    0.00031506   -0.02985415
     atom   48 type  3   force =     0.00032274    0.00036479    0.00026000
     atom   49 type  4   force =    -0.00452832   -0.00012892   -0.00626747
     atom   50 type  5   force =     0.00469170   -0.00022012    0.00680087
     atom   51 type  3   force =     0.00031865   -0.00001527   -0.00013577
     atom   52 type  5   force =     0.00004726    0.00027794    0.00026855
     atom   53 type  2   force =    -0.00054076    0.00001517   -0.00078594
     atom   54 type  5   force =    -0.00023469    0.00011838    0.00041524
     atom   55 type  5   force =     0.00046244   -0.00020836    0.00038683

     Total force =     0.383693     Total SCF correction =     0.000449
  @ DRIVER MODE: Message from server: STATUS
  @ DRIVER MODE: Message from server: GETFORCE
  @ DRIVER MODE: Returning v,forces,stress,ensemble

     Writing output data file ./calc.save/
  @ DRIVER MODE: Message from server: EXIT
  @ DRIVE MODE: Exiting

     General routines

     Parallel routines

   This run was terminated on:  21: 6:11  15Sep2021

   JOB DONE.