     Program PWSCF v.6.7GPU starts on 23Sep2021 at 20:49:32

     R & G space division:  proc/nbgrp/npool/nimage =       8
     Reading input from /storage/home/hcoda1/3/ntian30/research/carbon/CxH_vib/H2O_calc/ads_slab/CH3ON2HO_a/out_0021/pw.inp
Warning: card &CELL ignored
Warning: card   CELL_DYNAMICS='IPI', ignored
Warning: card / ignored

     Current dimensions of program PWSCF are:
     Max number of different atomic species (ntypx) = 10
     Max number of k-points (npk) =  40000
     Max angular momentum in pseudopotentials (lmaxx) =  3
     Presently no symmetry can be used with electric field

     Message from routine cell_base_init:
     DEPRECATED: use true lattice parameter, not A to a.u. conversion factor

     IMPORTANT: XC functional enforced from input :
     Exchange-correlation= BEEF-VDW
                           (   1   4  43  14   2   0   0)
     Any further DFT definition will be discarded
     Please, verify this is what you really want

  @ DRIVER MODE: Connecting to
 qe_1139763_2947306.sched-torque.pace.gatech.edufvw128b__scratch
  using UNIX socket
  @ DRIVER MODE: Message from server: STATUS
  @ DRIVER MODE: Message from server: INIT
  @ DRIVER MODE: Receiving replica           0          -1
  @ DRIVER MODE: Receiving encoded integer          25
  @ DRIVER MODE:  SCF:  T  FORCE:  T  STRESS:  F  VC:  F  ENSEMBLE:  F
  @ DRIVER MODE:  SCF:  T  FORCE:  T  STRESS:  F  VC:  F  ENSEMBLE:  F

     Using Slab Decomposition

     bravais-lattice index     =            0
     lattice parameter (alat)  =       1.8897  a.u.
     unit-cell volume          =    6658.9804 (a.u.)^3
     number of atoms/cell      =           56
     number of atomic types    =            5
     number of electrons       =       408.00
     number of Kohn-Sham states=          214
     kinetic-energy cutoff     =      29.3995  Ry
     charge density cutoff     =     293.9946  Ry
     scf convergence threshold =      7.3E-08
     mixing beta               =       0.0500
     number of iterations used =            8  plain     mixing
     Exchange-correlation= BEEF-VDW
                           (   1   4  43  14   2   0   0)

     celldm(1)=   1.889726  celldm(2)=   0.000000  celldm(3)=   0.000000
     celldm(4)=   0.000000  celldm(5)=   0.000000  celldm(6)=   0.000000

     crystal axes: (cart. coord. in units of alat)
               a(1) = (   6.579727   0.000000   0.000000 )
               a(2) = (  -0.000775   5.961596   0.000000 )
               a(3) = (   0.000000   0.000000  25.155947 )

     reciprocal axes: (cart. coord. in units 2 pi/alat)
               b(1) = (  0.151982  0.000020  0.000000 )
               b(2) = (  0.000000  0.167740  0.000000 )
               b(3) = (  0.000000  0.000000  0.039752 )

     PseudoPot. # 1 for Ti read from file:
     /storage/coda1/p-amedford6/0/shared/rich_project_chbe-medford/medford-share/data/pseudos_module/espresso/nninc/pbe/van/Ti.UPF
     MD5 check sum: 8e4df49b7f0d34bbd5052bf3f5ea0213
     Pseudo is Ultrasoft, Zval = 12.0
     Generated by new atomic code, or converted to UPF format
     Using radial grid of  851 points,  6 beta functions with:
                l(1) =   0
                l(2) =   0
                l(3) =   1
                l(4) =   1
                l(5) =   2
                l(6) =   2
     Q(r) pseudized with  8 coefficients,  rinner =    1.000   1.000   1.000
                                                       1.000   1.000

     PseudoPot. # 2 for O  read from file:
     /storage/coda1/p-amedford6/0/shared/rich_project_chbe-medford/medford-share/data/pseudos_module/espresso/nninc/pbe/van/O.UPF
     MD5 check sum: 78c19812648e8988a0fe644b0f25305e
     Pseudo is Ultrasoft, Zval =  6.0
     Generated by new atomic code, or converted to UPF format
     Using radial grid of  737 points,  4 beta functions with:
                l(1) =   0
                l(2) =   0
                l(3) =   1
                l(4) =   1
     Q(r) pseudized with  8 coefficients,  rinner =    0.800   0.800   0.800

     PseudoPot. # 3 for C  read from file:
     /storage/coda1/p-amedford6/0/shared/rich_project_chbe-medford/medford-share/data/pseudos_module/espresso/nninc/pbe/van/C.UPF
     MD5 check sum: 1a69bf6b8db32088f5b2163dbdb77a27
     Pseudo is Ultrasoft, Zval =  4.0
     Generated by new atomic code, or converted to UPF format
     Using radial grid of  721 points,  4 beta functions with:
                l(1) =   0
                l(2) =   0
                l(3) =   1
                l(4) =   1
     Q(r) pseudized with  8 coefficients,  rinner =    0.800   0.800   0.800

     PseudoPot. # 4 for H  read from file:
     /storage/coda1/p-amedford6/0/shared/rich_project_chbe-medford/medford-share/data/pseudos_module/espresso/nninc/pbe/van/H.UPF
     MD5 check sum: b5ee9d7bfd3a09ee7748110bda690ff7
     Pseudo is Ultrasoft, Zval =  1.0
     Generated by new atomic code, or converted to UPF format
     Using radial grid of  615 points,  1 beta functions with:
                l(1) =   0
     Q(r) pseudized with  8 coefficients,  rinner =    0.800

     PseudoPot. # 5 for N  read from file:
     /storage/coda1/p-amedford6/0/shared/rich_project_chbe-medford/medford-share/data/pseudos_module/espresso/nninc/pbe/van/N.UPF
     MD5 check sum: 90d10febe142ad51ac9d5be1deb811c4
     Pseudo is Ultrasoft, Zval =  5.0
     Generated by new atomic code, or converted to UPF format
     Using radial grid of  729 points,  4 beta functions with:
                l(1) =   0
                l(2) =   0
                l(3) =   1
                l(4) =   1
     Q(r) pseudized with  8 coefficients,  rinner =    0.800   0.800   0.800

     atomic species   valence    mass     pseudopotential
        Ti1           12.00    47.86700     Ti( 1.00)
        O1             6.00    15.99900     O ( 1.00)
        C1             4.00    12.01100     C ( 1.00)
        H1             1.00     1.00800     H ( 1.00)
        N1             5.00    14.00700     N ( 1.00)

     No symmetry found

   Cartesian axes

     site n.     atom                  positions (alat units)
         1           Ti1 tau(   1) = (   0.0004258   2.9801865   6.0000000  )
         2           Ti1 tau(   2) = (   3.2906075   1.4906267   6.0002472  )
         3           O1  tau(   3) = (   0.0006271   0.0005054   7.9858123  )
         4           O1  tau(   4) = (   3.2906025   0.0005020   7.3038282  )
         5           O1  tau(   5) = (   4.5942328   1.4918067   9.2879030  )
         6           O1  tau(   6) = (   1.9868534   1.4903216   9.2879459  )
         7           Ti1 tau(   7) = (   3.3138730   3.1023225   9.2183157  )
         8           Ti1 tau(   8) = (   0.0392070   1.5780841   9.3433077  )
         9           O1  tau(   9) = (   3.2868017   0.0212601  11.3135411  )
        10           O1  tau(  10) = (   0.0022550   0.0140515  10.5858881  )
        11           O1  tau(  11) = (   1.2767464   1.5002397  12.6205121  )
        12           O1  tau(  12) = (   5.2993684   1.4943797  12.6172415  )
        13           Ti1 tau(  13) = (   0.0200588   3.0780815  12.7918821  )
        14           Ti1 tau(  14) = (   3.2574684   1.5637424  12.4212484  )
        15           O1  tau(  15) = (   6.5768379   0.0158506  14.6682411  )
        16           O1  tau(  16) = (   3.2886937   5.9311801  13.9109749  )
        17           O1  tau(  17) = (   4.5620935   1.5260772  16.0398494  )
        18           O1  tau(  18) = (   2.0292830   1.5431627  16.0187044  )
        19           Ti1 tau(  19) = (   3.3027642   2.9567202  15.6520962  )
        20           Ti1 tau(  20) = (   0.0552782   1.4362356  15.9688716  )
        21           O1  tau(  21) = (   3.2904802   0.0005063   4.7018136  )
        22           O1  tau(  22) = (   0.0488089   0.0211857  17.1900833  )
        23           O1  tau(  23) = (   1.3043587   1.4918075   6.0039043  )
        24           O1  tau(  24) = (   5.2767064   1.4903225   6.0039473  )
        25           Ti1 tau(  25) = (   0.0000382   5.9609847   6.0000000  )
        26           Ti1 tau(  26) = (   3.2902200   4.4714249   6.0002472  )
        27           O1  tau(  27) = (   0.0002396   2.9813036   7.9858123  )
        28           O1  tau(  28) = (   3.2902150   2.9813002   7.3038282  )
        29           O1  tau(  29) = (   4.5938453   4.4726049   9.2879030  )
        30           O1  tau(  30) = (   1.9864658   4.4711199   9.2879459  )
        31           Ti1 tau(  31) = (   3.3219941   0.1169887   9.1790125  )
        32           Ti1 tau(  32) = (   0.0373256   4.5280481   9.3594506  )
        33           O1  tau(  33) = (   3.2887547   2.9594671  11.2851190  )
        34           O1  tau(  34) = (   0.0046902   2.9985155  10.5475055  )
        35           O1  tau(  35) = (   1.2817606   4.4707209  12.6310527  )
        36           O1  tau(  36) = (   5.3098963   4.4869072  12.6241852  )
        37           Ti1 tau(  37) = (   6.5328698   0.0937101  12.6083326  )
        38           Ti1 tau(  38) = (   3.2790761   4.6595539  12.6693962  )
        39           O1  tau(  39) = (   0.0062896   2.9920245  14.6683812  )
        40           O1  tau(  40) = (   3.3079832   2.9813091  13.8732900  )
        41           O1  tau(  41) = (   4.5514670   4.4448635  16.0695425  )
        42           O1  tau(  42) = (   2.0242163   4.4286948  16.0089506  )
        43           Ti1 tau(  43) = (   3.3772342   5.9382356  16.2476532  )
        44           Ti1 tau(  44) = (   0.0845355   4.5653432  16.0322982  )
        45           O1  tau(  45) = (   3.2900926   2.9813045   4.7018136  )
        46           O1  tau(  46) = (   1.3039711   4.4726057   6.0039043  )
        47           O1  tau(  47) = (   5.2763189   4.4711207   6.0039473  )
        48           C1  tau(  48) = (   6.0101766   2.9784267  18.6088694  )
        49           O1  tau(  49) = (   6.5649008   2.9952511  17.2928482  )
        50           H1  tau(  50) = (   4.9185495   2.9407445  18.5675634  )
        51           H1  tau(  51) = (   6.3703738   2.0836667  19.1370987  )
        52           H1  tau(  52) = (   6.3118891   3.8824302  19.1399426  )
        53           N1  tau(  53) = (   6.0262039   3.1690275  22.5535725  )
        54           N1  tau(  54) = (   5.1417247   3.1052473  21.8962875  )
        55           O1  tau(  55) = (   3.2068502   5.9581871  18.0710493  )
        56           H1  tau(  56) = (   2.3500504   0.2277792  18.4614507  )

     number of k points=    10  Fermi-Dirac smearing, width (Ry)=  0.0073
                       cart. coord. in units 2pi/alat
        k(    1) = (   0.0000000   0.0000000   0.0000000), wk =   0.1250000
        k(    2) = (   0.0000000   0.0419351   0.0000000), wk =   0.2500000
        k(    3) = (   0.0000000  -0.0838702   0.0000000), wk =   0.1250000
        k(    4) = (   0.0379955   0.0000049   0.0000000), wk =   0.2500000
        k(    5) = (   0.0379955   0.0419400   0.0000000), wk =   0.2500000
        k(    6) = (   0.0379955  -0.0838652   0.0000000), wk =   0.2500000
        k(    7) = (   0.0379955  -0.0419301   0.0000000), wk =   0.2500000
        k(    8) = (  -0.0759910  -0.0000099   0.0000000), wk =   0.1250000
        k(    9) = (  -0.0759910   0.0419252   0.0000000), wk =   0.2500000
        k(   10) = (  -0.0759910  -0.0838800   0.0000000), wk =   0.1250000

     Initial potential from superposition of free atoms

     starting charge  391.99915, renormalised to  408.00000

     negative rho (up, down):  9.975E-03 0.000E+00

     %%%%%%%%%%%%%%%%%%%%%%%%%%%%%%%%%%%%%%%%%%%%%%%%%%%%%%%%%%%%%%%%%%%%%%%%
     %                                                                      %
     % You are using vdW-DF, which was implemented by the Thonhauser group. %
     % Please cite the following two papers that made this development      %
     % possible and the two reviews that describe the various versions:     %
     %                                                                      %
     %   T. Thonhauser et al., PRL 115, 136402 (2015).                      %
     %   T. Thonhauser et al., PRB 76, 125112 (2007).                       %
     %   K. Berland et al., Rep. Prog. Phys. 78, 066501 (2015).             %
     %   D.C. Langreth et al., J. Phys.: Condens. Matter 21, 084203 (2009). %
     %                                                                      %
     %                                                                      %
     % If you are calculating the stress with vdW-DF, please also cite:     %
     %                                                                      %
     %   R. Sabatini et al., J. Phys.: Condens. Matter 24, 424209 (2012).   %
     %                                                                      %
     %%%%%%%%%%%%%%%%%%%%%%%%%%%%%%%%%%%%%%%%%%%%%%%%%%%%%%%%%%%%%%%%%%%%%%%%

     Adding external electric field

     Computed dipole along edir(3) :
        Dipole              -16.8152 Ry au,        -42.7399 Debye
        Dipole field         -0.0317 Ry au,

        Potential amp.        2.9416 Ry
        Total length         46.3494 bohr

     Starting wfcs are  308 atomic wfcs
  @ DRIVER MODE: Message from server: STATUS
  @ DRIVER MODE: Message from server: POSDATA
  @ DRIVER MODE: Reading and sharing cell
  @ DRIVER MODE: Reading and sharing positions
  @ DRIVER MODE: Received positions

     Self-consistent Calculation

     iteration #  1     ecut=    29.40 Ry     beta= 0.05
     Davidson diagonalization with overlap
     c_bands:  4 eigenvalues not converged
     c_bands:  1 eigenvalues not converged
     c_bands:  5 eigenvalues not converged
     c_bands:  1 eigenvalues not converged
     c_bands:  2 eigenvalues not converged
     c_bands:  2 eigenvalues not converged
     c_bands:  1 eigenvalues not converged
     c_bands:  5 eigenvalues not converged
     ethr =  1.00E-05,  avg # of iterations = 27.4

[...]

     total energy              =   -2248.48718818 Ry
     estimated scf accuracy    <    8688.98486161 Ry

     iteration #  2     ecut=    29.40 Ry     beta= 0.05
     Davidson diagonalization with overlap
     ethr =  1.00E-02,  avg # of iterations = 31.2

[...]

     iteration # 65     ecut=    29.40 Ry     beta= 0.05
     Davidson diagonalization with overlap
     c_bands:  1 eigenvalues not converged
     c_bands:  1 eigenvalues not converged
     c_bands:  1 eigenvalues not converged
     c_bands:  1 eigenvalues not converged
     c_bands:  1 eigenvalues not converged
     c_bands:  1 eigenvalues not converged
     ethr =  6.40E-07,  avg # of iterations = 17.4

[...]

     total energy              =   -3005.28910247 Ry
     estimated scf accuracy    <       0.00000009 Ry

     iteration # 92     ecut=    29.40 Ry     beta= 0.05
     Davidson diagonalization with overlap
     ethr =  2.20E-11,  avg # of iterations =  1.4

     negative rho (up, down):  1.140E-02 0.000E+00

     Adding external electric field

     Computed dipole along edir(3) :
        Dipole                0.5461 Ry au,          1.3880 Debye
        Dipole field          0.0010 Ry au,

        Potential amp.       -0.0955 Ry
        Total length         46.3494 bohr

     End of self-consistent calculation

          k = 0.0000 0.0000 0.0000 ( 18029 PWs)   bands (ev):

   -56.1310 -56.0835 -55.5735 -55.5539 -55.5398 -55.5160 -55.4824 -55.4587
   -55.4241 -55.3980 -55.3641 -55.3224 -55.3213 -55.1852 -54.7440 -54.7101
   -32.5439 -32.3952 -32.3447 -32.3105 -32.2158 -32.1703 -32.0767 -32.0204
   -32.0120 -31.9055 -31.8616 -31.8441 -31.8388 -31.8170 -31.8147 -31.7765
   -31.7738 -31.7602 -31.7399 -31.7331 -31.7292 -31.6878 -31.6785 -31.6634
   -31.6602 -31.6423 -31.6393 -31.6299 -31.6223 -31.6126 -31.6058 -31.5883
   -31.5736 -31.5683 -31.5621 -31.5272 -31.5184 -31.5153 -31.4849 -31.4398
   -31.4019 -31.3903 -31.1384 -31.0841 -31.0597 -30.9552 -30.8704 -30.7595
   -20.8539 -17.3381 -16.3430 -16.2878 -16.1466 -15.9100 -15.7655 -15.6881
   -15.4586 -15.4482 -15.3334 -15.3264 -15.2916 -15.1605 -15.1432 -15.1355
   -15.0840 -15.0698 -15.0466 -15.0444 -15.0408 -15.0324 -14.9749 -14.9557
   -14.9162 -14.8572 -14.7812 -14.7606 -14.7117 -14.7010 -14.6591 -14.4335
   -13.2453 -13.1367  -9.0694  -6.0145  -4.1082  -3.9915  -3.9780  -3.9287
    -3.8145  -3.7597  -3.5895  -3.4907  -3.4579  -3.3818  -3.2927  -3.1875
    -2.9732  -2.8217  -2.7586  -2.7199  -2.7136  -2.6777  -2.6363  -2.5747
    -2.5201  -2.4778  -2.4440  -2.4102  -2.3500  -2.3365  -2.3215  -2.2912
    -2.2715  -2.2506  -2.2140  -2.2029  -2.0717  -2.0350  -2.0052  -1.9938
    -1.9405  -1.9221  -1.9032  -1.8932  -1.8484  -1.7521  -1.6540  -1.6398
    -1.5960  -1.4099  -1.3343  -1.2882  -1.2099  -1.1445  -1.0666  -1.0463
    -1.0364  -0.9819  -0.9440  -0.8425  -0.8085  -0.7695  -0.7016  -0.6965
    -0.6573  -0.5967  -0.5722  -0.5111  -0.4834  -0.4498  -0.3104  -0.2749
    -0.2575  -0.1956  -0.1948  -0.1025  -0.0437   0.0094   0.0284   0.0840
     0.1238   0.1462   0.1972   0.2279   0.2418   0.3252   0.3743   0.3812
     0.4160   0.4548   0.4736   0.5048   0.5935   0.6422   0.6680   0.6937
     0.8379   0.8524   0.9064   1.0128   1.0237   1.2043   1.2737   1.3093
     1.4959   1.5341   1.8253   1.8710   3.1691   3.3323   3.6116   3.7242
     3.7682   3.8081   3.8836   3.9106   4.0647   4.0922

[...]

          k = 0.0380-0.0419 0.0000 ( 17876 PWs)   bands (ev):

[...]

          k =-0.0760-0.0000 0.0000 ( 17886 PWs)   bands (ev):

[...]

          k =-0.0760-0.0839 0.0000 ( 17948 PWs)   bands (ev):

   -56.1240 -56.0903 -55.5714 -55.5491 -55.5387 -55.5100 -55.4869 -55.4645
   -55.4260 -55.3993 -55.3555 -55.3306 -55.3196 -55.1871 -54.7272 -54.7267
   -32.3907 -32.3751 -32.3487 -32.3464 -32.2760 -32.2473 -31.9652 -31.8853
   -31.8564 -31.8388 -31.8163 -31.8065 -31.7933 -31.7878 -31.7779 -31.7633
   -31.7579 -31.7482 -31.7479 -31.7400 -31.7307 -31.7220 -31.7087 -31.7071
   -31.7052 -31.6882 -31.6832 -31.6581 -31.6498 -31.6485 -31.6311 -31.6248
   -31.6019 -31.5950 -31.5794 -31.5676 -31.5649 -31.5374 -31.5225 -31.5045
   -31.4404 -31.3938 -31.0729 -31.0726 -30.9540 -30.9522 -30.9125 -30.9116
   -20.8538 -17.3006 -16.3168 -15.6944 -15.6048 -15.5955 -15.5881 -15.5552
   -15.5194 -15.4546 -15.4400 -15.3719 -15.2999 -15.2692 -15.2283 -15.2034
   -15.1875 -15.1506 -15.1461 -15.0842 -15.0406 -15.0317 -15.0171 -15.0032
   -14.9586 -14.9507 -14.9419 -14.9258 -14.9168 -14.8558 -14.7561 -14.5782
   -13.2409 -13.2398  -9.0695  -6.0160  -4.0436  -3.9948  -3.9732  -3.8574
    -3.7007  -3.4473  -2.9274  -2.8472  -2.7684  -2.7663  -2.6997  -2.6774
    -2.6295  -2.6066  -2.5702  -2.5549  -2.5328  -2.4673  -2.4426  -2.4282
    -2.4246  -2.4159  -2.3999  -2.3810  -2.3386  -2.3293  -2.3160  -2.3068
    -2.2879  -2.2834  -2.2709  -2.2493  -2.2094  -2.1474  -2.0894  -1.9496
    -1.9414  -1.9152  -1.8962  -1.8719  -1.8467  -1.7959  -1.7144  -1.6943
    -1.6757  -1.5998  -1.5411  -1.3359  -1.3149  -1.2973  -1.2276  -1.1590
    -1.0928  -1.0751  -1.0405  -1.0063  -0.9830  -0.9430  -0.8860  -0.8521
    -0.8090  -0.7961  -0.7581  -0.7203  -0.6718  -0.6100  -0.6020  -0.5691
    -0.5192  -0.4954  -0.4053  -0.3972  -0.3731  -0.3555  -0.3218  -0.2306
    -0.1779  -0.1322  -0.0430  -0.0038   0.0364   0.1690   0.2358   0.2714
     0.3440   0.3866   0.4923   0.5142   0.5937   0.6151   0.6443   0.6697
     0.7359   0.8059   0.8574   0.9066   0.9471   0.9619   1.0129   1.0634
     1.6671   1.6696   1.6771   1.6835   3.7120   3.7382   3.7461   3.7794
     3.9835   4.0135   4.0865   4.1032   4.1240   4.1797

     the Fermi energy is     2.5773 ev

!    total energy              =   -3005.28911646 Ry
     estimated scf accuracy    <       0.00000004 Ry
     smearing contrib. (-TS)   =      -0.00015444 Ry
     internal energy E=F+TS    =   -3005.28896202 Ry

     The total energy is F=E-TS. E is the sum of the following terms:
     one-electron contribution =  -22581.80360032 Ry
     hartree contribution      =   11387.19417092 Ry
     xc contribution           =    -500.23575246 Ry
     ewald contribution        =    8689.55565707 Ry
     electric field correction =       0.00056277 Ry

     convergence has been achieved in  92 iterations

     Forces acting on atoms (cartesian axes, Ry/au):

     atom    1 type  1   force =     0.00012449    0.00010528    0.13281392
     atom    2 type  1   force =    -0.00010591    0.00820716   -0.15824198
     atom    3 type  2   force =     0.00029828   -0.00362317   -0.05308903
     atom    4 type  2   force =     0.00059176    0.00104964    0.04009589
     atom    5 type  2   force =    -0.00786157   -0.00195063   -0.00034641
     atom    6 type  2   force =     0.00846250   -0.00490361   -0.00005226
     atom    7 type  1   force =    -0.00017477   -0.00031645   -0.00006858
     atom    8 type  1   force =    -0.00000354   -0.00026962    0.00020768
     atom    9 type  2   force =     0.00013141    0.00009843    0.00002163
     atom   10 type  2   force =    -0.00003275    0.00020494    0.00009162
     atom   11 type  2   force =    -0.00004204    0.00013029   -0.00000416
     atom   12 type  2   force =     0.00036549   -0.00011038   -0.00005016
     atom   13 type  1   force =    -0.00017758    0.00002521    0.00015678
     atom   14 type  1   force =     0.00011569    0.00056854    0.00009711
     atom   15 type  2   force =    -0.00011216    0.00012975   -0.00002221
     atom   16 type  2   force =     0.00002380    0.00004664   -0.00044795
     atom   17 type  2   force =     0.00013688   -0.00045507    0.00022479
     atom   18 type  2   force =    -0.00009919   -0.00054842    0.00012725
     atom   19 type  1   force =    -0.00038345    0.00031486   -0.00001637
     atom   20 type  1   force =     0.00042601    0.00004975   -0.00011403
     atom   21 type  2   force =    -0.00006645    0.00009607    0.09917585
     atom   22 type  2   force =    -0.00023522    0.00013447    0.00001393
     atom   23 type  2   force =    -0.08058800    0.00058143   -0.03415309
     atom   24 type  2   force =     0.08035930    0.00110358   -0.03419493
     atom   25 type  1   force =    -0.00022317   -0.00017490    0.14173172
     atom   26 type  1   force =    -0.00018312   -0.00686830   -0.15774291
     atom   27 type  2   force =     0.00043753    0.00018005   -0.05213235
     atom   28 type  2   force =     0.00043799    0.00035369    0.04188051
     atom   29 type  2   force =    -0.00939982    0.00598278    0.00164488
     atom   30 type  2   force =     0.00931277    0.00235595    0.00175615
     atom   31 type  1   force =    -0.00002719    0.00010231    0.00013204
     atom   32 type  1   force =     0.00001825   -0.00013042   -0.00011496
     atom   33 type  2   force =    -0.00006521   -0.00032295    0.00027967
     atom   34 type  2   force =    -0.00009807   -0.00005528    0.00003069
     atom   35 type  2   force =     0.00062662    0.00026023   -0.00006779
     atom   36 type  2   force =    -0.00019598    0.00015358    0.00005486
     atom   37 type  1   force =    -0.00039162    0.00047426   -0.00063942
     atom   38 type  1   force =     0.00024583   -0.00033889   -0.00011936
     atom   39 type  2   force =    -0.00002696   -0.00000551    0.00028419
     atom   40 type  2   force =     0.00012954   -0.00008552   -0.00033766
     atom   41 type  2   force =     0.00074189    0.00014456    0.00019180
     atom   42 type  2   force =    -0.00039455    0.00035229    0.00001130
     atom   43 type  1   force =    -0.00059079   -0.00033278    0.00003827
     atom   44 type  1   force =     0.00005175   -0.00037059   -0.00043756
     atom   45 type  2   force =    -0.00007772    0.00018255    0.09874402
     atom   46 type  2   force =    -0.08055197   -0.00156772   -0.03410814
     atom   47 type  2   force =     0.08035484   -0.00103474   -0.03419377
     atom   48 type  3   force =     0.00295065   -0.00817854    0.00372331
     atom   49 type  2   force =    -0.00031879   -0.00014075    0.00070497
     atom   50 type  4   force =    -0.00045299    0.00021583   -0.00037786
     atom   51 type  4   force =    -0.00300813    0.00845376   -0.00370986
     atom   52 type  4   force =     0.00057873   -0.00035299    0.00011663
     atom   53 type  5   force =     0.00097326    0.00010771    0.00072448
     atom   54 type  5   force =    -0.00130199    0.00000252   -0.00083989
     atom   55 type  2   force =    -0.00111287    0.00082579    0.00024720
     atom   56 type  4   force =     0.00040832   -0.00085667    0.00029957

     Total force =     0.383950     Total SCF correction =     0.000511
  @ DRIVER MODE: Message from server: STATUS
  @ DRIVER MODE: Message from server: GETFORCE
  @ DRIVER MODE: Returning v,forces,stress,ensemble

     Writing output data file ./calc.save/
  @ DRIVER MODE: Message from server: EXIT
  @ DRIVE MODE: Exiting

     General routines

     Parallel routines

   This run was terminated on:  21:22:52  23Sep2021

   JOB DONE.