     Program PWSCF v.6.7GPU starts on 16Sep2021 at  6: 4:41

     R & G space division:  proc/nbgrp/npool/nimage =      10
     Reading input from /storage/home/hcoda1/3/ntian30/research/carbon/CxH_vib/H2O_calc/ads_slab/CH3OHH2O_e/out_0045/pw.inp
Warning: card &CELL ignored
Warning: card   CELL_DYNAMICS='IPI', ignored
Warning: card / ignored

     Current dimensions of program PWSCF are:
     Max number of different atomic species (ntypx) = 10
     Max number of k-points (npk) =  40000
     Max angular momentum in pseudopotentials (lmaxx) =  3
     Presently no symmetry can be used with electric field

     Message from routine cell_base_init:
     DEPRECATED: use true lattice parameter, not A to a.u. conversion factor

     IMPORTANT: XC functional enforced from input :
     Exchange-correlation= BEEF-VDW
                           (   1   4  43  14   2   0   0)
     Any further DFT definition will be discarded
     Please, verify this is what you really want

  @ DRIVER MODE: Connecting to
 qe_1139763_2852623.sched-torque.pace.gatech.edu5mgz5bdo_scratch
  using UNIX socket
  @ DRIVER MODE: Message from server: STATUS
  @ DRIVER MODE: Message from server: INIT
  @ DRIVER MODE: Receiving replica           0          -1
  @ DRIVER MODE: Receiving encoded integer          25
  @ DRIVER MODE:  SCF:  T  FORCE:  T  STRESS:  F  VC:  F  ENSEMBLE:  F
  @ DRIVER MODE:  SCF:  T  FORCE:  T  STRESS:  F  VC:  F  ENSEMBLE:  F

     Using Slab Decomposition

     bravais-lattice index     =            0
     lattice parameter (alat)  =       1.8897  a.u.
     unit-cell volume          =    6658.9804 (a.u.)^3
     number of atoms/cell      =           56
     number of atomic types    =            4
     number of electrons       =       400.00
     number of Kohn-Sham states=          210
     kinetic-energy cutoff     =      29.3995  Ry
     charge density cutoff     =     293.9946  Ry
     scf convergence threshold =      7.3E-08
     mixing beta               =       0.0500
     number of iterations used =            8  plain     mixing
     Exchange-correlation= BEEF-VDW
                           (   1   4  43  14   2   0   0)

     celldm(1)=   1.889726  celldm(2)=   0.000000  celldm(3)=   0.000000
     celldm(4)=   0.000000  celldm(5)=   0.000000  celldm(6)=   0.000000

     crystal axes: (cart. coord. in units of alat)
               a(1) = (   6.579727   0.000000   0.000000 )
               a(2) = (  -0.000775   5.961596   0.000000 )
               a(3) = (   0.000000   0.000000  25.155947 )

     reciprocal axes: (cart. coord. in units 2 pi/alat)
               b(1) = (  0.151982  0.000020  0.000000 )
               b(2) = (  0.000000  0.167740  0.000000 )
               b(3) = (  0.000000  0.000000  0.039752 )

     PseudoPot. # 1 for Ti read from file:
     /storage/coda1/p-amedford6/0/shared/rich_project_chbe-medford/medford-share/data/pseudos_module/espresso/nninc/pbe/van/Ti.UPF
     MD5 check sum: 8e4df49b7f0d34bbd5052bf3f5ea0213
     Pseudo is Ultrasoft, Zval = 12.0
     Generated by new atomic code, or converted to UPF format
     Using radial grid of  851 points,  6 beta functions with:
                l(1) =   0
                l(2) =   0
                l(3) =   1
                l(4) =   1
                l(5) =   2
                l(6) =   2
     Q(r) pseudized with  8 coefficients,  rinner =    1.000   1.000   1.000
                                                       1.000   1.000

     PseudoPot. # 2 for O  read from file:
     /storage/coda1/p-amedford6/0/shared/rich_project_chbe-medford/medford-share/data/pseudos_module/espresso/nninc/pbe/van/O.UPF
     MD5 check sum: 78c19812648e8988a0fe644b0f25305e
     Pseudo is Ultrasoft, Zval =  6.0
     Generated by new atomic code, or converted to UPF format
     Using radial grid of  737 points,  4 beta functions with:
                l(1) =   0
                l(2) =   0
                l(3) =   1
                l(4) =   1
     Q(r) pseudized with  8 coefficients,  rinner =    0.800   0.800   0.800

     PseudoPot. # 3 for C  read from file:
     /storage/coda1/p-amedford6/0/shared/rich_project_chbe-medford/medford-share/data/pseudos_module/espresso/nninc/pbe/van/C.UPF
     MD5 check sum: 1a69bf6b8db32088f5b2163dbdb77a27
     Pseudo is Ultrasoft, Zval =  4.0
     Generated by new atomic code, or converted to UPF format
     Using radial grid of  721 points,  4 beta functions with:
                l(1) =   0
                l(2) =   0
                l(3) =   1
                l(4) =   1
     Q(r) pseudized with  8 coefficients,  rinner =    0.800   0.800   0.800

     PseudoPot. # 4 for H  read from file:
     /storage/coda1/p-amedford6/0/shared/rich_project_chbe-medford/medford-share/data/pseudos_module/espresso/nninc/pbe/van/H.UPF
     MD5 check sum: b5ee9d7bfd3a09ee7748110bda690ff7
     Pseudo is Ultrasoft, Zval =  1.0
     Generated by new atomic code, or converted to UPF format
     Using radial grid of  615 points,  1 beta functions with:
                l(1) =   0
     Q(r) pseudized with  8 coefficients,  rinner =    0.800

     atomic species   valence    mass     pseudopotential
        Ti1           12.00    47.86700     Ti( 1.00)
        O1             6.00    15.99900     O ( 1.00)
        C1             4.00    12.01100     C ( 1.00)
        H1             1.00     1.00800     H ( 1.00)

     No symmetry found

   Cartesian axes

     site n.     atom                  positions (alat units)
         1           Ti1 tau(   1) = (   0.0004258   2.9801865   6.0000000  )
         2           Ti1 tau(   2) = (   3.2906075   1.4906267   6.0002472  )
         3           O1  tau(   3) = (   0.0006271   0.0005054   7.9858123  )
         4           O1  tau(   4) = (   3.2906025   0.0005020   7.3038282  )
         5           O1  tau(   5) = (   4.5942328   1.4918067   9.2879030  )
         6           O1  tau(   6) = (   1.9868534   1.4903216   9.2879459  )
         7           Ti1 tau(   7) = (   3.3179988   2.9667087   9.1587561  )
         8           Ti1 tau(   8) = (   0.0368451   1.4888401   9.2646154  )
         9           O1  tau(   9) = (   3.2981896   5.9413050  11.3756853  )
        10           O1  tau(  10) = (   0.0022081   5.9550161  10.6068466  )
        11           O1  tau(  11) = (   1.2930414   1.4711740  12.6526869  )
        12           O1  tau(  12) = (   5.2963464   1.4745835  12.6500758  )
        13           Ti1 tau(  13) = (   0.0229324   2.9590759  12.5385950  )
        14           Ti1 tau(  14) = (   3.3157970   1.4644123  12.5194148  )
        15           O1  tau(  15) = (   6.5691168   5.9481840  14.6869282  )
        16           O1  tau(  16) = (   3.2964787   5.9455965  14.0277316  )
        17           O1  tau(  17) = (   4.5665908   1.5027878  16.2081754  )
        18           O1  tau(  18) = (   2.0283028   1.5092035  16.1774433  )
        19           Ti1 tau(  19) = (   3.2999954   2.9453206  15.7178785  )
        20           Ti1 tau(  20) = (   6.5724188   1.3235339  15.9896992  )
        21           O1  tau(  21) = (   3.2904802   0.0005063   4.7018136  )
        22           O1  tau(  22) = (   0.0286320   5.9425150  17.2304330  )
        23           O1  tau(  23) = (   1.3043587   1.4918075   6.0039043  )
        24           O1  tau(  24) = (   5.2767064   1.4903225   6.0039473  )
        25           Ti1 tau(  25) = (   0.0000382   5.9609847   6.0000000  )
        26           Ti1 tau(  26) = (   3.2902200   4.4714249   6.0002472  )
        27           O1  tau(  27) = (   0.0002396   2.9813036   7.9858123  )
        28           O1  tau(  28) = (   3.2902150   2.9813002   7.3038282  )
        29           O1  tau(  29) = (   4.5938453   4.4726049   9.2879030  )
        30           O1  tau(  30) = (   1.9864658   4.4711199   9.2879459  )
        31           Ti1 tau(  31) = (   3.3176359   5.9492212   9.1540102  )
        32           Ti1 tau(  32) = (   0.0367062   4.4560090   9.2708352  )
        33           O1  tau(  33) = (   3.2951800   2.9650663  11.3684769  )
        34           O1  tau(  34) = (   0.0080098   2.9764013  10.6279654  )
        35           O1  tau(  35) = (   1.2931912   4.4560454  12.6592269  )
        36           O1  tau(  36) = (   5.2946864   4.4524020  12.6579832  )
        37           Ti1 tau(  37) = (   0.0159028   5.9413441  12.4831893  )
        38           Ti1 tau(  38) = (   3.3151975   4.4500431  12.5204281  )
        39           O1  tau(  39) = (   0.0034497   2.9621527  14.8596962  )
        40           O1  tau(  40) = (   3.2989893   2.9535984  13.9376031  )
        41           O1  tau(  41) = (   4.5724332   4.4114593  16.1445292  )
        42           O1  tau(  42) = (   2.0255208   4.3883007  16.1585022  )
        43           Ti1 tau(  43) = (   3.2821299   5.9114753  15.8432964  )
        44           Ti1 tau(  44) = (   6.5414858   4.5242847  15.8739915  )
        45           O1  tau(  45) = (   3.2900926   2.9813045   4.7018136  )
        46           O1  tau(  46) = (   1.3039711   4.4726057   6.0039043  )
        47           O1  tau(  47) = (   5.2763189   4.4711207   6.0039473  )
        48           C1  tau(  48) = (   5.9754720   3.1749164  18.9278073  )
        49           O1  tau(  49) = (   0.1533887   3.0270296  17.7012840  )
        50           H1  tau(  50) = (   4.9293134   3.0706859  18.6584277  )
        51           H1  tau(  51) = (   1.0910173   3.2466920  17.8500278  )
        52           H1  tau(  52) = (   6.2690755   2.3937635  19.6305738  )
        53           H1  tau(  53) = (   6.1431946   4.1694627  19.3379575  )
        54           O1  tau(  54) = (   3.1723115   5.9428592  18.3689464  )
        55           H1  tau(  55) = (   3.8852673   0.6253712  18.4582360  )
        56           H1  tau(  56) = (   2.3406934   0.4831942  18.3201771  )

     number of k points=    10  Fermi-Dirac smearing, width (Ry)=  0.0073
                       cart. coord. in units 2pi/alat
        k(    1) = (   0.0000000   0.0000000   0.0000000), wk =   0.1250000
        k(    2) = (   0.0000000   0.0419351   0.0000000), wk =   0.2500000
        k(    3) = (   0.0000000  -0.0838702   0.0000000), wk =   0.1250000
        k(    4) = (   0.0379955   0.0000049   0.0000000), wk =   0.2500000
        k(    5) = (   0.0379955   0.0419400   0.0000000), wk =   0.2500000
        k(    6) = (   0.0379955  -0.0838652   0.0000000), wk =   0.2500000
        k(    7) = (   0.0379955  -0.0419301   0.0000000), wk =   0.2500000
        k(    8) = (  -0.0759910  -0.0000099   0.0000000), wk =   0.1250000
        k(    9) = (  -0.0759910   0.0419252   0.0000000), wk =   0.2500000
        k(   10) = (  -0.0759910  -0.0838800   0.0000000), wk =   0.1250000

     Initial potential from superposition of free atoms

     starting charge  383.99915, renormalised to  400.00000

     negative rho (up, down):  1.599E-02 0.000E+00

     %%%%%%%%%%%%%%%%%%%%%%%%%%%%%%%%%%%%%%%%%%%%%%%%%%%%%%%%%%%%%%%%%%%%%%%%
     %                                                                      %
     % You are using vdW-DF, which was implemented by the Thonhauser group. %
     % Please cite the following two papers that made this development      %
     % possible and the two reviews that describe the various versions:     %
     %                                                                      %
     %   T. Thonhauser et al., PRL 115, 136402 (2015).                      %
     %   T. Thonhauser et al., PRB 76, 125112 (2007).                       %
     %   K. Berland et al., Rep. Prog. Phys. 78, 066501 (2015).             %
     %   D.C. Langreth et al., J. Phys.: Condens. Matter 21, 084203 (2009). %
     %                                                                      %
     %                                                                      %
     % If you are calculating the stress with vdW-DF, please also cite:     %
     %                                                                      %
     %   R. Sabatini et al., J. Phys.: Condens. Matter 24, 424209 (2012).   %
     %                                                                      %
     %%%%%%%%%%%%%%%%%%%%%%%%%%%%%%%%%%%%%%%%%%%%%%%%%%%%%%%%%%%%%%%%%%%%%%%%

     Adding external electric field

     Computed dipole along edir(3) :
        Dipole              -11.7400 Ry au,        -29.8402 Debye
        Dipole field         -0.0222 Ry au,

        Potential amp.        2.0537 Ry
        Total length         46.3494 bohr

     Starting wfcs are  302 atomic wfcs
  @ DRIVER MODE: Message from server: STATUS
  @ DRIVER MODE: Message from server: POSDATA
  @ DRIVER MODE: Reading and sharing cell
  @ DRIVER MODE: Reading and sharing positions
  @ DRIVER MODE: Received positions

     Self-consistent Calculation

     iteration #  1     ecut=    29.40 Ry     beta= 0.05
     Davidson diagonalization with overlap
     c_bands:  2 eigenvalues not converged
     c_bands:  2 eigenvalues not converged
     c_bands:  4 eigenvalues not converged
     c_bands:  3 eigenvalues not converged
     c_bands:  4 eigenvalues not converged
     c_bands:  4 eigenvalues not converged
     c_bands:  3 eigenvalues not converged
     c_bands:  2 eigenvalues not converged
     ethr =  1.00E-05,  avg # of iterations = 21.3

[...]

     total energy              =   -2420.21212146 Ry
     estimated scf accuracy    <    6189.10907699 Ry

     iteration #  2     ecut=    29.40 Ry     beta= 0.05
     Davidson diagonalization with overlap
     ethr =  1.00E-02,  avg # of iterations = 28.5

[...]

     iteration # 60     ecut=    29.40 Ry     beta= 0.05
     Davidson diagonalization with overlap
     c_bands:  1 eigenvalues not converged
     ethr =  4.94E-11,  avg # of iterations = 11.5

[...]

     total energy              =   -2967.47587828 Ry
     estimated scf accuracy    <       0.00000011 Ry

     iteration # 61     ecut=    29.40 Ry     beta= 0.05
     Davidson diagonalization with overlap
     ethr =  2.66E-11,  avg # of iterations = 12.5

     negative rho (up, down):  1.588E-02 0.000E+00

     Adding external electric field

     Computed dipole along edir(3) :
        Dipole                1.3786 Ry au,          3.5040 Debye
        Dipole field          0.0026 Ry au,

        Potential amp.       -0.2412 Ry
        Total length         46.3494 bohr

     End of self-consistent calculation

          k = 0.0000 0.0000 0.0000 ( 18029 PWs)   bands (ev):

   -55.2501 -55.2225 -55.2140 -55.1881 -55.1564 -55.1486 -55.1429 -55.0962
   -55.0958 -55.0895 -55.0552 -55.0376 -55.0077 -55.0036 -54.3116 -54.2775
   -31.8167 -31.7663 -31.7175 -31.6273 -31.5649 -31.5549 -31.5500 -31.5477
   -31.5111 -31.4819 -31.4655 -31.4633 -31.4524 -31.4422 -31.4281 -31.4137
   -31.3965 -31.3904 -31.3870 -31.3827 -31.3767 -31.3677 -31.3449 -31.3402
   -31.3384 -31.3184 -31.3157 -31.3140 -31.2931 -31.2799 -31.2639 -31.2434
   -31.2419 -31.2412 -31.2299 -31.2208 -31.2026 -31.1888 -31.1769 -31.1724
   -31.1592 -31.1488 -30.7237 -30.6212 -30.5996 -30.5399 -30.4536 -30.3425
   -20.1690 -19.1184 -16.0794 -15.8324 -15.6925 -15.5940 -15.4732 -15.3396
   -15.2794 -15.1647 -15.0736 -14.9834 -14.9686 -14.9498 -14.9210 -14.8982
   -14.8733 -14.8351 -14.8092 -14.7652 -14.7563 -14.7400 -14.7332 -14.6966
   -14.6929 -14.6483 -14.6400 -14.4829 -14.4129 -14.3527 -14.1312 -12.8126
   -12.6932 -11.1873  -6.9381  -6.8957  -5.1364  -5.0159  -3.4190  -3.2623
    -3.2260  -3.1989  -3.1828  -3.1361  -3.0585  -2.9605  -2.7874  -2.6789
    -2.5416  -2.5343  -2.4876  -2.4610  -2.4039  -2.3218  -2.2338  -2.2071
    -2.1721  -2.1388  -2.1355  -2.1197  -2.1094  -2.0534  -2.0180  -1.9598
    -1.8636  -1.8140  -1.7740  -1.7554  -1.6949  -1.6510  -1.6180  -1.5890
    -1.5821  -1.5758  -1.5172  -1.5150  -1.5070  -1.4957  -1.4776  -1.2893
    -1.2494  -1.1169  -1.0260  -0.9855  -0.9721  -0.8174  -0.8106  -0.7665
    -0.7334  -0.6990  -0.6585  -0.6007  -0.5034  -0.4741  -0.4213  -0.3831
    -0.2750  -0.2429  -0.2119  -0.1574  -0.0499  -0.0416  -0.0157   0.0035
     0.0778   0.1733   0.2030   0.2241   0.3008   0.3059   0.3670   0.4078
     0.4419   0.5165   0.5616   0.5729   0.6646   0.6814   0.6950   0.7217
     0.7250   0.8237   0.8597   0.9044   0.9228   1.0744   1.1685   1.3082
     1.3370   1.6034   1.6988   1.7141   1.8744   2.3001   2.3548   3.8411
     3.9094   3.9478   3.9556   3.9689   4.0485   4.3322   4.3473   4.3593
     4.3689   4.3870

[...]

          k = 0.0380-0.0419 0.0000 ( 17876 PWs)   bands (ev):

[...]

          k =-0.0760-0.0000 0.0000 ( 17886 PWs)   bands (ev):

[...]

          k =-0.0760-0.0839 0.0000 ( 17948 PWs)   bands (ev):

   -55.2331 -55.2308 -55.2072 -55.2032 -55.1534 -55.1428 -55.1356 -55.1035
   -55.1025 -55.0736 -55.0708 -55.0225 -55.0188 -55.0096 -54.2945 -54.2944
   -31.6833 -31.6238 -31.6167 -31.5344 -31.5305 -31.5170 -31.5053 -31.5002
   -31.4926 -31.4721 -31.4539 -31.4484 -31.4443 -31.4309 -31.4050 -31.4027
   -31.3909 -31.3885 -31.3813 -31.3805 -31.3770 -31.3737 -31.3610 -31.3471
   -31.3392 -31.3341 -31.3332 -31.3271 -31.3239 -31.3237 -31.3232 -31.3050
   -31.2979 -31.2950 -31.2765 -31.2720 -31.2714 -31.2475 -31.2436 -31.2086
   -31.2043 -31.1913 -30.6121 -30.6121 -30.5365 -30.5362 -30.4968 -30.4967
   -20.1657 -19.1178 -15.6378 -15.5389 -15.3887 -15.2656 -15.2533 -15.2405
   -15.1885 -15.1241 -15.1102 -15.0600 -15.0473 -15.0164 -15.0007 -14.9946
   -14.9586 -14.8503 -14.8462 -14.8358 -14.8151 -14.7702 -14.7592 -14.7521
   -14.7399 -14.7037 -14.6953 -14.6811 -14.6707 -14.5789 -14.4406 -12.7945
   -12.7938 -11.1891  -6.9289  -6.9014  -5.1374  -4.9949  -3.1724  -2.9828
    -2.8069  -2.7283  -2.6306  -2.4835  -2.4686  -2.3876  -2.3756  -2.3253
    -2.2545  -2.2514  -2.2479  -2.1665  -2.1544  -2.1543  -2.1330  -2.1136
    -2.0729  -2.0644  -2.0410  -2.0305  -1.9890  -1.9585  -1.9455  -1.9287
    -1.9181  -1.9142  -1.8832  -1.8685  -1.8533  -1.8110  -1.7883  -1.7281
    -1.6407  -1.6029  -1.4804  -1.4777  -1.4410  -1.4143  -1.3872  -1.3468
    -1.3268  -1.2788  -1.2593  -1.2330  -1.0497  -1.0337  -0.9794  -0.9400
    -0.9199  -0.9060  -0.8441  -0.7723  -0.7458  -0.7141  -0.6480  -0.5751
    -0.4793  -0.4549  -0.4463  -0.3413  -0.2882  -0.2488  -0.2444  -0.2351
    -0.2109  -0.1625  -0.1428  -0.0809  -0.0419   0.0017   0.0272   0.0441
     0.2254   0.2637   0.3221   0.4131   0.4420   0.5876   0.6358   0.6876
     0.7483   0.8245   0.8356   0.9016   1.0158   1.0279   1.0576   1.1350
     1.1783   1.1840   1.2092   2.0653   2.0675   2.1691   2.1721   3.9708
     4.0783   4.0969   4.1758   4.2422   4.3502   4.3633   4.3926   4.4031
     4.4478   4.4798

     the Fermi energy is     3.8975 ev

!    total energy              =   -2967.47593515 Ry
     estimated scf accuracy    <       0.00000006 Ry
     smearing contrib. (-TS)   =      -0.03654043 Ry
     internal energy E=F+TS    =   -2967.43939472 Ry

     The total energy is F=E-TS. E is the sum of the following terms:
     one-electron contribution =  -23962.87759673 Ry
     hartree contribution      =   12077.03772271 Ry
     xc contribution           =    -491.86607998 Ry
     ewald contribution        =    9410.26297285 Ry
     electric field correction =       0.00358642 Ry

     convergence has been achieved in  61 iterations

     Forces acting on atoms (cartesian axes, Ry/au):

     atom    1 type  1   force =    -0.00027838    0.00019475    0.09246588
     atom    2 type  1   force =    -0.00035535    0.00104765   -0.18339875
     atom    3 type  2   force =     0.00050697   -0.00072342   -0.02348607
     atom    4 type  2   force =     0.00072525   -0.00018750    0.05069050
     atom    5 type  2   force =    -0.01404888   -0.00131860    0.00494964
     atom    6 type  2   force =     0.01521382   -0.00065215    0.00509263
     atom    7 type  1   force =    -0.00048684    0.00106598   -0.00012044
     atom    8 type  1   force =     0.00016659   -0.00053345    0.00040996
     atom    9 type  2   force =    -0.00043863    0.00018089    0.00040908
     atom   10 type  2   force =     0.00040957    0.00016487    0.00046215
     atom   11 type  2   force =     0.00035294    0.00044311    0.00034326
     atom   12 type  2   force =     0.00006101    0.00014183    0.00027084
     atom   13 type  1   force =    -0.00089597   -0.00118620   -0.00011487
     atom   14 type  1   force =     0.00060302   -0.00004156    0.00022025
     atom   15 type  2   force =     0.00051950    0.00075793    0.00009913
     atom   16 type  2   force =    -0.00061353   -0.00036558    0.00006196
     atom   17 type  2   force =     0.00006068    0.00015353   -0.00043690
     atom   18 type  2   force =    -0.00016692    0.00025423   -0.00015432
     atom   19 type  1   force =     0.00063834   -0.00008734   -0.00027058
     atom   20 type  1   force =    -0.00007745    0.00021994   -0.00020180
     atom   21 type  2   force =    -0.00004443    0.00015456    0.10496369
     atom   22 type  2   force =    -0.00035709    0.00057510   -0.00081945
     atom   23 type  2   force =    -0.06801126    0.00013261   -0.02679645
     atom   24 type  2   force =     0.06773429    0.00053930   -0.02686355
     atom   25 type  1   force =    -0.00039341   -0.00008880    0.09625770
     atom   26 type  1   force =    -0.00036112   -0.00099751   -0.18317934
     atom   27 type  2   force =     0.00042069   -0.00125048   -0.02225691
     atom   28 type  2   force =     0.00070356   -0.00033392    0.05100949
     atom   29 type  2   force =    -0.01423556   -0.00106213    0.00465920
     atom   30 type  2   force =     0.01518479    0.00021259    0.00484505
     atom   31 type  1   force =    -0.00049973   -0.00145943    0.00018276
     atom   32 type  1   force =     0.00013668    0.00071048   -0.00025725
     atom   33 type  2   force =     0.00002428   -0.00021218    0.00007521
     atom   34 type  2   force =     0.00002522   -0.00006657   -0.00009627
     atom   35 type  2   force =     0.00020345    0.00008405    0.00031028
     atom   36 type  2   force =     0.00040526    0.00045153    0.00005714
     atom   37 type  1   force =    -0.00107082    0.00126459   -0.00006307
     atom   38 type  1   force =     0.00038568    0.00010883   -0.00043432
     atom   39 type  2   force =     0.00038957    0.00022016   -0.00030796
     atom   40 type  2   force =    -0.00008174    0.00019178    0.00005157
     atom   41 type  2   force =    -0.00019660    0.00022711   -0.00048981
     atom   42 type  2   force =     0.00010084   -0.00001629    0.00015556
     atom   43 type  1   force =    -0.00062692    0.00015190    0.00008718
     atom   44 type  1   force =    -0.00001548    0.00000156   -0.00092161
     atom   45 type  2   force =    -0.00005886    0.00015132    0.10490729
     atom   46 type  2   force =    -0.06805561   -0.00039410   -0.02678826
     atom   47 type  2   force =     0.06778292    0.00004592   -0.02687766
     atom   48 type  3   force =    -0.00006639    0.00050921   -0.00026843
     atom   49 type  2   force =    -0.00112197    0.00031924    0.00090079
     atom   50 type  4   force =     0.00047449    0.00052582    0.00007290
     atom   51 type  4   force =     0.00072786    0.00086305   -0.00003445
     atom   52 type  4   force =    -0.00042829    0.00060058   -0.00022348
     atom   53 type  4   force =    -0.00015381   -0.00023919    0.00012379
     atom   54 type  2   force =    -0.00889473   -0.00989657   -0.00026911
     atom   55 type  4   force =     0.00810354    0.00899490    0.00074656
     atom   56 type  4   force =    -0.00002504   -0.00054794    0.00024966

     Total force =     0.368621     Total SCF correction =     0.000587
  @ DRIVER MODE: Message from server: STATUS
  @ DRIVER MODE: Message from server: GETFORCE
  @ DRIVER MODE: Returning v,forces,stress,ensemble

     Writing output data file ./calc.save/
  @ DRIVER MODE: Message from server: EXIT
  @ DRIVE MODE: Exiting

     General routines

     Parallel routines

   This run was terminated on:   6:22: 4  16Sep2021

   JOB DONE.