     Program PWSCF v.6.7GPU starts on 15Sep2021 at 18:52: 4

     R & G space division:  proc/nbgrp/npool/nimage =      10
     Reading input from /storage/home/hcoda1/3/ntian30/research/carbon/CxH_vib/H2O_calc/ads_slab/CH3NHNHH2O_a/out_0010/pw.inp
Warning: card &CELL ignored
Warning: card   CELL_DYNAMICS='IPI', ignored
Warning: card / ignored

     Current dimensions of program PWSCF are:
     Max number of different atomic species (ntypx) = 10
     Max number of k-points (npk) =  40000
     Max angular momentum in pseudopotentials (lmaxx) =  3
     Presently no symmetry can be used with electric field

     Message from routine cell_base_init:
     DEPRECATED: use true lattice parameter, not A to a.u. conversion factor

     IMPORTANT: XC functional enforced from input :
     Exchange-correlation= BEEF-VDW
                           (   1   4  43  14   2   0   0)
     Any further DFT definition will be discarded
     Please, verify this is what you really want

  @ DRIVER MODE: Connecting to
 qe_1139763_2852620.sched-torque.pace.gatech.edue926dr7y_scratch
  using UNIX socket
  @ DRIVER MODE: Message from server: STATUS
  @ DRIVER MODE: Message from server: INIT
  @ DRIVER MODE: Receiving replica           0          -1
  @ DRIVER MODE: Receiving encoded integer          25
  @ DRIVER MODE:  SCF:  T  FORCE:  T  STRESS:  F  VC:  F  ENSEMBLE:  F
  @ DRIVER MODE:  SCF:  T  FORCE:  T  STRESS:  F  VC:  F  ENSEMBLE:  F

     Using Slab Decomposition

     bravais-lattice index     =            0
     lattice parameter (alat)  =       1.8897  a.u.
     unit-cell volume          =    6658.9804 (a.u.)^3
     number of atoms/cell      =           58
     number of atomic types    =            5
     number of electrons       =       405.00
     number of Kohn-Sham states=          212
     kinetic-energy cutoff     =      29.3995  Ry
     charge density cutoff     =     293.9946  Ry
     scf convergence threshold =      7.3E-08
     mixing beta               =       0.0500
     number of iterations used =            8  plain     mixing
     Exchange-correlation= BEEF-VDW
                           (   1   4  43  14   2   0   0)

     celldm(1)=   1.889726  celldm(2)=   0.000000  celldm(3)=   0.000000
     celldm(4)=   0.000000  celldm(5)=   0.000000  celldm(6)=   0.000000

     crystal axes: (cart. coord. in units of alat)
               a(1) = (   6.579727   0.000000   0.000000 )
               a(2) = (  -0.000775   5.961596   0.000000 )
               a(3) = (   0.000000   0.000000  25.155947 )

     reciprocal axes: (cart. coord. in units 2 pi/alat)
               b(1) = (  0.151982  0.000020  0.000000 )
               b(2) = (  0.000000  0.167740  0.000000 )
               b(3) = (  0.000000  0.000000  0.039752 )

     PseudoPot. # 1 for Ti read from file:
     /storage/coda1/p-amedford6/0/shared/rich_project_chbe-medford/medford-share/data/pseudos_module/espresso/nninc/pbe/van/Ti.UPF
     MD5 check sum: 8e4df49b7f0d34bbd5052bf3f5ea0213
     Pseudo is Ultrasoft, Zval = 12.0
     Generated by new atomic code, or converted to UPF format
     Using radial grid of  851 points,  6 beta functions with:
                l(1) =   0
                l(2) =   0
                l(3) =   1
                l(4) =   1
                l(5) =   2
                l(6) =   2
     Q(r) pseudized with  8 coefficients,  rinner =    1.000   1.000   1.000
                                                       1.000   1.000

     PseudoPot. # 2 for O  read from file:
     /storage/coda1/p-amedford6/0/shared/rich_project_chbe-medford/medford-share/data/pseudos_module/espresso/nninc/pbe/van/O.UPF
     MD5 check sum: 78c19812648e8988a0fe644b0f25305e
     Pseudo is Ultrasoft, Zval =  6.0
     Generated by new atomic code, or converted to UPF format
     Using radial grid of  737 points,  4 beta functions with:
                l(1) =   0
                l(2) =   0
                l(3) =   1
                l(4) =   1
     Q(r) pseudized with  8 coefficients,  rinner =    0.800   0.800   0.800

     PseudoPot. # 3 for N  read from file:
     /storage/coda1/p-amedford6/0/shared/rich_project_chbe-medford/medford-share/data/pseudos_module/espresso/nninc/pbe/van/N.UPF
     MD5 check sum: 90d10febe142ad51ac9d5be1deb811c4
     Pseudo is Ultrasoft, Zval =  5.0
     Generated by new atomic code, or converted to UPF format
     Using radial grid of  729 points,  4 beta functions with:
                l(1) =   0
                l(2) =   0
                l(3) =   1
                l(4) =   1
     Q(r) pseudized with  8 coefficients,  rinner =    0.800   0.800   0.800

     PseudoPot. # 4 for C  read from file:
     /storage/coda1/p-amedford6/0/shared/rich_project_chbe-medford/medford-share/data/pseudos_module/espresso/nninc/pbe/van/C.UPF
     MD5 check sum: 1a69bf6b8db32088f5b2163dbdb77a27
     Pseudo is Ultrasoft, Zval =  4.0
     Generated by new atomic code, or converted to UPF format
     Using radial grid of  721 points,  4 beta functions with:
                l(1) =   0
                l(2) =   0
                l(3) =   1
                l(4) =   1
     Q(r) pseudized with  8 coefficients,  rinner =    0.800   0.800   0.800

     PseudoPot. # 5 for H  read from file:
     /storage/coda1/p-amedford6/0/shared/rich_project_chbe-medford/medford-share/data/pseudos_module/espresso/nninc/pbe/van/H.UPF
     MD5 check sum: b5ee9d7bfd3a09ee7748110bda690ff7
     Pseudo is Ultrasoft, Zval =  1.0
     Generated by new atomic code, or converted to UPF format
     Using radial grid of  615 points,  1 beta functions with:
                l(1) =   0
     Q(r) pseudized with  8 coefficients,  rinner =    0.800

     atomic species   valence    mass     pseudopotential
        Ti1           12.00    47.86700     Ti( 1.00)
        O1             6.00    15.99900     O ( 1.00)
        N1             5.00    14.00700     N ( 1.00)
        C1             4.00    12.01100     C ( 1.00)
        H1             1.00     1.00800     H ( 1.00)

     No symmetry found

   Cartesian axes

     site n.     atom                  positions (alat units)
         1           Ti1 tau(   1) = (   0.0004258   2.9801865   6.0000000  )
         2           Ti1 tau(   2) = (   3.2906075   1.4906267   6.0002472  )
         3           O1  tau(   3) = (   0.0006271   0.0005054   7.9858123  )
         4           O1  tau(   4) = (   3.2906025   0.0005020   7.3038282  )
         5           O1  tau(   5) = (   4.5942328   1.4918067   9.2879030  )
         6           O1  tau(   6) = (   1.9868534   1.4903216   9.2879459  )
         7           Ti1 tau(   7) = (   3.2907910   2.8959150   9.1758416  )
         8           Ti1 tau(   8) = (   0.0015273   1.4827037   9.2680791  )
         9           O1  tau(   9) = (   3.2925356   5.9605122  11.3387169  )
        10           O1  tau(  10) = (   0.0116148   5.9584955  10.6183126  )
        11           O1  tau(  11) = (   1.2897729   1.4809555  12.6268520  )
        12           O1  tau(  12) = (   5.2791511   1.4810064  12.6173870  )
        13           Ti1 tau(  13) = (   0.0595640   3.0140846  12.5912772  )
        14           Ti1 tau(  14) = (   3.3761946   1.4800080  12.4968112  )
        15           O1  tau(  15) = (   6.5629824   0.0009262  14.6613707  )
        16           O1  tau(  16) = (   3.3123588   5.9604043  13.9421911  )
        17           O1  tau(  17) = (   4.5376415   1.5680301  16.0260299  )
        18           O1  tau(  18) = (   2.0142527   1.4857506  15.9764776  )
        19           Ti1 tau(  19) = (   3.2467940   3.0138708  15.6952036  )
        20           Ti1 tau(  20) = (   6.5376764   1.5432071  15.7832198  )
        21           O1  tau(  21) = (   3.2904802   0.0005063   4.7018136  )
        22           O1  tau(  22) = (   6.4898080   0.0110182  17.2547379  )
        23           O1  tau(  23) = (   1.3043587   1.4918075   6.0039043  )
        24           O1  tau(  24) = (   5.2767064   1.4903225   6.0039473  )
        25           Ti1 tau(  25) = (   0.0000382   5.9609847   6.0000000  )
        26           Ti1 tau(  26) = (   3.2902200   4.4714249   6.0002472  )
        27           O1  tau(  27) = (   0.0002396   2.9813036   7.9858123  )
        28           O1  tau(  28) = (   3.2902150   2.9813002   7.3038282  )
        29           O1  tau(  29) = (   4.5938453   4.4726049   9.2879030  )
        30           O1  tau(  30) = (   1.9864658   4.4711199   9.2879459  )
        31           Ti1 tau(  31) = (   3.2891106   5.8743827   9.1763621  )
        32           Ti1 tau(  32) = (   0.0006254   4.4649316   9.2693709  )
        33           O1  tau(  33) = (   3.2967638   2.9790471  11.3409087  )
        34           O1  tau(  34) = (   0.0092240   2.9805883  10.6323155  )
        35           O1  tau(  35) = (   1.2869154   4.4778632  12.6304858  )
        36           O1  tau(  36) = (   5.2845859   4.4648683  12.6187650  )
        37           Ti1 tau(  37) = (   0.0627082   0.0241251  12.5486904  )
        38           Ti1 tau(  38) = (   3.3788516   4.4738568  12.4976958  )
        39           O1  tau(  39) = (   6.5772583   2.9562949  14.6416036  )
        40           O1  tau(  40) = (   3.2725681   2.9944745  13.9013672  )
        41           O1  tau(  41) = (   4.5452577   4.4055011  16.0651929  )
        42           O1  tau(  42) = (   2.0228361   4.5129635  16.0417754  )
        43           Ti1 tau(  43) = (   3.2583029   0.0391736  15.7773877  )
        44           Ti1 tau(  44) = (   6.5476622   4.6515957  16.1089089  )
        45           O1  tau(  45) = (   3.2900926   2.9813045   4.7018136  )
        46           O1  tau(  46) = (   1.3039711   4.4726057   6.0039043  )
        47           O1  tau(  47) = (   5.2763189   4.4711207   6.0039473  )
        48           N1  tau(  48) = (   1.2275869   2.8250850  18.3327965  )
        49           N1  tau(  49) = (   0.1007212   2.9368546  17.4424539  )
        50           C1  tau(  50) = (   0.9834745   3.5098297  19.5973225  )
        51           H1  tau(  51) = (   0.0800711   3.1483545  20.1177682  )
        52           H1  tau(  52) = (   1.8428167   3.3484677  20.2521386  )
        53           H1  tau(  53) = (   0.8645268   4.5787652  19.4145101  )
        54           H1  tau(  54) = (   1.4038961   1.8348574  18.5000659  )
        55           H1  tau(  55) = (   5.8167727   2.7947134  17.9807349  )
        56           O1  tau(  56) = (   3.6251350   0.0523402  18.1652986  )
        57           H1  tau(  57) = (   4.6063402   0.0342754  18.1216558  )
        58           H1  tau(  58) = (   3.3562690   5.1322054  18.4688733  )

     number of k points=    10  Fermi-Dirac smearing, width (Ry)=  0.0073
                       cart. coord. in units 2pi/alat
        k(    1) = (   0.0000000   0.0000000   0.0000000), wk =   0.1250000
        k(    2) = (   0.0000000   0.0419351   0.0000000), wk =   0.2500000
        k(    3) = (   0.0000000  -0.0838702   0.0000000), wk =   0.1250000
        k(    4) = (   0.0379955   0.0000049   0.0000000), wk =   0.2500000
        k(    5) = (   0.0379955   0.0419400   0.0000000), wk =   0.2500000
        k(    6) = (   0.0379955  -0.0838652   0.0000000), wk =   0.2500000
        k(    7) = (   0.0379955  -0.0419301   0.0000000), wk =   0.2500000
        k(    8) = (  -0.0759910  -0.0000099   0.0000000), wk =   0.1250000
        k(    9) = (  -0.0759910   0.0419252   0.0000000), wk =   0.2500000
        k(   10) = (  -0.0759910  -0.0838800   0.0000000), wk =   0.1250000

     Initial potential from superposition of free atoms

     starting charge  388.99913, renormalised to  405.00000

     negative rho (up, down):  1.445E-02 0.000E+00

     %%%%%%%%%%%%%%%%%%%%%%%%%%%%%%%%%%%%%%%%%%%%%%%%%%%%%%%%%%%%%%%%%%%%%%%%
     %                                                                      %
     % You are using vdW-DF, which was implemented by the Thonhauser group. %
     % Please cite the following two papers that made this development      %
     % possible and the two reviews that describe the various versions:     %
     %                                                                      %
     %   T. Thonhauser et al., PRL 115, 136402 (2015).                      %
     %   T. Thonhauser et al., PRB 76, 125112 (2007).                       %
     %   K. Berland et al., Rep. Prog. Phys. 78, 066501 (2015).             %
     %   D.C. Langreth et al., J. Phys.: Condens. Matter 21, 084203 (2009). %
     %                                                                      %
     %                                                                      %
     % If you are calculating the stress with vdW-DF, please also cite:     %
     %                                                                      %
     %   R. Sabatini et al., J. Phys.: Condens. Matter 24, 424209 (2012).   %
     %                                                                      %
     %%%%%%%%%%%%%%%%%%%%%%%%%%%%%%%%%%%%%%%%%%%%%%%%%%%%%%%%%%%%%%%%%%%%%%%%

     Adding external electric field

     Computed dipole along edir(3) :
        Dipole              -14.1501 Ry au,        -35.9660 Debye
        Dipole field         -0.0267 Ry au,

        Potential amp.        2.4753 Ry
        Total length         46.3494 bohr

     Starting wfcs are  307 atomic wfcs
  @ DRIVER MODE: Message from server: STATUS
  @ DRIVER MODE: Message from server: POSDATA
  @ DRIVER MODE: Reading and sharing cell
  @ DRIVER MODE: Reading and sharing positions
  @ DRIVER MODE: Received positions

     Self-consistent Calculation

     iteration #  1     ecut=    29.40 Ry     beta= 0.05
     Davidson diagonalization with overlap
     c_bands:  4 eigenvalues not converged
     c_bands:  1 eigenvalues not converged
     c_bands:  1 eigenvalues not converged
     c_bands:  3 eigenvalues not converged
     c_bands:  2 eigenvalues not converged
     ethr =  1.00E-05,  avg # of iterations = 29.4

[...]

     total energy              =   -2232.57107701 Ry
     estimated scf accuracy    <    8442.89068461 Ry

     iteration #  2     ecut=    29.40 Ry     beta= 0.05
     Davidson diagonalization with overlap
     ethr =  1.00E-02,  avg # of iterations = 31.0

[...]

     iteration # 69     ecut=    29.40 Ry     beta= 0.05
     Davidson diagonalization with overlap
     c_bands:  1 eigenvalues not converged
     c_bands:  1 eigenvalues not converged
     ethr =  3.11E-11,  avg # of iterations = 16.4

[...]

     total energy              =   -2976.50551332 Ry
     estimated scf accuracy    <       0.00000048 Ry

     iteration # 70     ecut=    29.40 Ry     beta= 0.05
     Davidson diagonalization with overlap
     ethr =  3.11E-11,  avg # of iterations = 14.8

     negative rho (up, down):  1.503E-02 0.000E+00

     Adding external electric field

     Computed dipole along edir(3) :
        Dipole                0.9825 Ry au,          2.4973 Debye
        Dipole field          0.0019 Ry au,

        Potential amp.       -0.1719 Ry
        Total length         46.3494 bohr

     End of self-consistent calculation

          k = 0.0000 0.0000 0.0000 ( 18029 PWs)   bands (ev):

   -55.5131 -55.4829 -55.4790 -55.4487 -55.4468 -55.3615 -55.3307 -55.3280
   -55.3263 -55.2968 -55.2960 -55.2624 -55.0576 -54.8851 -54.4958 -54.4618
   -32.0272 -31.9969 -31.8847 -31.8626 -31.8288 -31.8056 -31.7870 -31.7863
   -31.7576 -31.7144 -31.7023 -31.6825 -31.6793 -31.6653 -31.6598 -31.6382
   -31.6187 -31.6138 -31.6124 -31.5800 -31.5702 -31.5614 -31.5362 -31.5239
   -31.5210 -31.5183 -31.5158 -31.5102 -31.4954 -31.4877 -31.4831 -31.4741
   -31.4721 -31.4602 -31.4495 -31.4398 -31.4083 -31.3124 -31.2677 -31.1487
   -31.1418 -31.0772 -30.9030 -30.8144 -30.7920 -30.7198 -30.6333 -30.5221
   -18.7221 -16.5482 -16.2231 -15.9859 -15.7629 -15.6704 -15.6281 -15.4311
   -15.3369 -15.2523 -15.1319 -15.0804 -15.0551 -15.0473 -15.0340 -15.0079
   -14.9741 -14.9673 -14.9654 -14.9409 -14.9214 -14.8704 -14.8643 -14.8576
   -14.7639 -14.6991 -14.6650 -14.6519 -14.6422 -14.5769 -14.2029 -12.9979
   -12.8814 -11.6323  -8.8626  -6.4603  -5.1593  -4.2632  -3.6962  -3.5974
    -3.4698  -3.4220  -3.3726  -3.3450  -3.1534  -3.0946  -2.9440  -2.7740
    -2.7005  -2.6619  -2.6287  -2.5917  -2.5576  -2.4359  -2.4109  -2.3355
    -2.3219  -2.3105  -2.2783  -2.2688  -2.2539  -2.2325  -2.1593  -2.1503
    -2.0651  -1.9521  -1.9030  -1.8880  -1.8698  -1.8284  -1.7898  -1.7776
    -1.7645  -1.7458  -1.7329  -1.6949  -1.5790  -1.5293  -1.4481  -1.3691
    -1.2985  -1.2051  -1.1352  -1.1092  -1.0384  -1.0139  -0.9536  -0.9294
    -0.9164  -0.9086  -0.7913  -0.6830  -0.6652  -0.5952  -0.5343  -0.4573
    -0.4130  -0.3872  -0.3184  -0.2858  -0.2747  -0.2609  -0.2345  -0.2201
    -0.1595  -0.0168   0.0603   0.0789   0.1380   0.1787   0.2296   0.2551
     0.2829   0.3316   0.3622   0.4019   0.4521   0.4552   0.4673   0.4915
     0.5056   0.6655   0.7206   0.7531   0.7792   0.8276   0.9409   0.9827
     1.1365   1.2113   1.2784   1.4527   1.5267   1.6073   1.7182   2.0595
     2.0980   2.1438   3.6123   3.7049   3.7456   3.7672   3.8541   3.8566
     4.0676   4.1124   4.1204   4.2611

[...]

          k = 0.0380-0.0419 0.0000 ( 17876 PWs)   bands (ev):

[...]

          k =-0.0760-0.0000 0.0000 ( 17886 PWs)   bands (ev):

[...]

          k =-0.0760-0.0839 0.0000 ( 17948 PWs)   bands (ev):

   -55.4964 -55.4955 -55.4669 -55.4626 -55.4461 -55.3473 -55.3405 -55.3304
   -55.3137 -55.3132 -55.2804 -55.2782 -55.0561 -54.8864 -54.4788 -54.4787
   -31.8406 -31.8239 -31.8125 -31.8117 -31.7915 -31.7905 -31.7501 -31.7429
   -31.7350 -31.7074 -31.6964 -31.6769 -31.6610 -31.6594 -31.6345 -31.6316
   -31.6300 -31.6280 -31.6200 -31.6194 -31.6168 -31.6153 -31.6147 -31.5631
   -31.5546 -31.5482 -31.5406 -31.5290 -31.5157 -31.5146 -31.5104 -31.5059
   -31.4959 -31.4933 -31.4875 -31.4856 -31.4168 -31.3153 -31.2629 -31.2124
   -31.1512 -31.1034 -30.8047 -30.8046 -30.7158 -30.7157 -30.6766 -30.6765
   -18.7207 -16.5243 -15.6599 -15.5891 -15.4733 -15.4443 -15.3844 -15.3340
   -15.3165 -15.2477 -15.2115 -15.1988 -15.1468 -15.1441 -15.0959 -15.0725
   -15.0460 -15.0420 -15.0268 -14.9843 -14.9740 -14.9587 -14.9546 -14.9512
   -14.8734 -14.8381 -14.8340 -14.8286 -14.7600 -14.6270 -14.3511 -12.9832
   -12.9831 -11.6393  -8.8715  -6.4560  -5.1627  -4.2579  -3.6374  -3.0822
    -2.9452  -2.7869  -2.7223  -2.6416  -2.6407  -2.5982  -2.4709  -2.4485
    -2.4097  -2.3825  -2.3514  -2.3418  -2.3326  -2.3271  -2.3164  -2.3024
    -2.2896  -2.2499  -2.2046  -2.1893  -2.1808  -2.1758  -2.1608  -2.1470
    -2.1324  -2.1298  -2.0932  -2.0648  -2.0371  -1.9997  -1.9476  -1.7472
    -1.7195  -1.6985  -1.6726  -1.6597  -1.6478  -1.6144  -1.5760  -1.5658
    -1.4930  -1.4046  -1.3161  -1.2393  -1.2062  -1.1935  -1.1241  -1.0395
    -0.9972  -0.9581  -0.9206  -0.8609  -0.8017  -0.7630  -0.7261  -0.6450
    -0.6267  -0.6166  -0.5548  -0.5390  -0.4790  -0.4708  -0.3921  -0.3480
    -0.3148  -0.2674  -0.2399  -0.2341  -0.2156  -0.1809  -0.1733  -0.1174
    -0.0020   0.0071   0.0276   0.1308   0.2187   0.4585   0.5164   0.5473
     0.6278   0.6908   0.7525   0.7744   0.7953   0.7990   0.8344   0.8962
     1.0095   1.0186   1.0577   1.1457   1.1816   1.8899   1.8908   1.9636
     1.9638   2.0611   3.9251   3.9511   3.9769   4.0127   4.1131   4.1304
     4.1527   4.1547   4.2683   4.2891

     the Fermi energy is     3.6178 ev

!    total energy              =   -2976.50553874 Ry
     estimated scf accuracy    <       0.00000006 Ry
     smearing contrib. (-TS)   =      -0.02130874 Ry
     internal energy E=F+TS    =   -2976.48423000 Ry

     The total energy is F=E-TS. E is the sum of the following terms:
     one-electron contribution =  -23892.21486486 Ry
     hartree contribution      =   12042.61383172 Ry
     xc contribution           =    -495.75236485 Ry
     ewald contribution        =    9368.86734627 Ry
     electric field correction =       0.00182171 Ry

     convergence has been achieved in  70 iterations

     Forces acting on atoms (cartesian axes, Ry/au):

     atom    1 type  1   force =     0.00015477   -0.00027887    0.09582007
     atom    2 type  1   force =    -0.00022580   -0.00062711   -0.17572835
     atom    3 type  2   force =     0.00006020   -0.00014488   -0.02383657
     atom    4 type  2   force =     0.00006520   -0.00154123    0.05353377
     atom    5 type  2   force =    -0.01130059   -0.00076488    0.00355993
     atom    6 type  2   force =     0.01299905    0.00005380    0.00268390
     atom    7 type  1   force =    -0.00096471    0.00064971   -0.00791661
     atom    8 type  1   force =     0.00043249    0.00624712    0.02299913
     atom    9 type  2   force =    -0.00005467   -0.00030827   -0.00097075
     atom   10 type  2   force =    -0.00136876    0.00127852   -0.01514095
     atom   11 type  2   force =    -0.00032281    0.00026922   -0.00024294
     atom   12 type  2   force =    -0.00020986    0.00023979   -0.00034169
     atom   13 type  1   force =     0.00075037   -0.00046737    0.00019834
     atom   14 type  1   force =    -0.00019101    0.00042067    0.00154569
     atom   15 type  2   force =     0.00002308    0.00069841    0.00011512
     atom   16 type  2   force =     0.00026120    0.00006992    0.00005625
     atom   17 type  2   force =     0.00077117   -0.00022769    0.00037528
     atom   18 type  2   force =    -0.00003106   -0.00041701    0.00049250
     atom   19 type  1   force =    -0.00124203    0.00037496    0.00074017
     atom   20 type  1   force =     0.00077218   -0.00006816   -0.00009936
     atom   21 type  2   force =     0.00008627   -0.00008792    0.10323856
     atom   22 type  2   force =    -0.00072571    0.00085429   -0.00082662
     atom   23 type  2   force =    -0.07142811   -0.00018947   -0.02770089
     atom   24 type  2   force =     0.07139667    0.00027534   -0.02770249
     atom   25 type  1   force =     0.00002280   -0.00030865    0.09553923
     atom   26 type  1   force =    -0.00017750   -0.00031342   -0.17601290
     atom   27 type  2   force =     0.00009684   -0.00011879   -0.02293661
     atom   28 type  2   force =     0.00011337   -0.00127184    0.05318072
     atom   29 type  2   force =    -0.01154732    0.00015021    0.00362289
     atom   30 type  2   force =     0.01319534    0.00046147    0.00271403
     atom   31 type  1   force =    -0.00100989    0.00373295   -0.01103080
     atom   32 type  1   force =     0.00050878   -0.00739197    0.02339420
     atom   33 type  2   force =    -0.00023873    0.00031903   -0.00034118
     atom   34 type  2   force =    -0.00033259    0.00025274   -0.02183189
     atom   35 type  2   force =     0.00009285    0.00029144   -0.00036918
     atom   36 type  2   force =    -0.00036762    0.00029104   -0.00029609
     atom   37 type  1   force =     0.00040506    0.00058649   -0.00020625
     atom   38 type  1   force =    -0.00023127   -0.00042636    0.00138589
     atom   39 type  2   force =    -0.00008610   -0.00049609    0.00060569
     atom   40 type  2   force =     0.00032320    0.00008195   -0.00090277
     atom   41 type  2   force =     0.00105753    0.00051415    0.00000949
     atom   42 type  2   force =    -0.00054455    0.00036432   -0.00009771
     atom   43 type  1   force =    -0.00095344   -0.00123023    0.00000493
     atom   44 type  1   force =     0.00067646    0.00085521   -0.00003679
     atom   45 type  2   force =     0.00008691   -0.00010142    0.10324116
     atom   46 type  2   force =    -0.07143466   -0.00013355   -0.02768623
     atom   47 type  2   force =     0.07143444    0.00030005   -0.02771558
     atom   48 type  3   force =    -0.00064232    0.00168309   -0.00032386
     atom   49 type  3   force =    -0.00112039   -0.00492884    0.00131768
     atom   50 type  4   force =     0.00042242    0.00010503    0.00031158
     atom   51 type  5   force =     0.00009034    0.00071714    0.00006759
     atom   52 type  5   force =    -0.00046542   -0.00023186    0.00019962
     atom   53 type  5   force =     0.00039516   -0.00046840    0.00032264
     atom   54 type  5   force =    -0.00096744   -0.00000754   -0.00077710
     atom   55 type  5   force =     0.00150018    0.00074523   -0.00075578
     atom   56 type  2   force =    -0.00075244   -0.00006862   -0.00008782
     atom   57 type  5   force =     0.00075897   -0.00008617    0.00001134
     atom   58 type  5   force =    -0.00001651   -0.00017672    0.00062836

     Total force =     0.366800     Total SCF correction =     0.000529
  @ DRIVER MODE: Message from server: STATUS
  @ DRIVER MODE: Message from server: GETFORCE
  @ DRIVER MODE: Returning v,forces,stress,ensemble

     Writing output data file ./calc.save/
  @ DRIVER MODE: Message from server: EXIT
  @ DRIVE MODE: Exiting

     General routines

     Parallel routines

   This run was terminated on:  19:13:18  15Sep2021

   JOB DONE.