     Program PWSCF v.6.7GPU starts on 11Sep2021 at  3:42:26

     R & G space division:  proc/nbgrp/npool/nimage =      10
     Reading input from /storage/home/hcoda1/3/ntian30/research/carbon/CxH_vib/CH2_calc/ads_slab/CH2NHNH2_a/out_0027/pw.inp
Warning: card &CELL ignored
Warning: card   CELL_DYNAMICS='IPI', ignored
Warning: card / ignored

     Current dimensions of program PWSCF are:
     Max number of different atomic species (ntypx) = 10
     Max number of k-points (npk) =  40000
     Max angular momentum in pseudopotentials (lmaxx) =  3
     Presently no symmetry can be used with electric field

     Message from routine cell_base_init:
     DEPRECATED: use true lattice parameter, not A to a.u. conversion factor

     IMPORTANT: XC functional enforced from input :
     Exchange-correlation= BEEF-VDW
                           (   1   4  43  14   2   0   0)
     Any further DFT definition will be discarded
     Please, verify this is what you really want

  @ DRIVER MODE: Connecting to
 qe_1139763_2792044.sched-torque.pace.gatech.eduoj0_q0gw_scratch
  using UNIX socket
  @ DRIVER MODE: Message from server: STATUS
  @ DRIVER MODE: Message from server: INIT
  @ DRIVER MODE: Receiving replica           0          -1
  @ DRIVER MODE: Receiving encoded integer          25
  @ DRIVER MODE:  SCF:  T  FORCE:  T  STRESS:  F  VC:  F  ENSEMBLE:  F
  @ DRIVER MODE:  SCF:  T  FORCE:  T  STRESS:  F  VC:  F  ENSEMBLE:  F

     Using Slab Decomposition

     bravais-lattice index     =            0
     lattice parameter (alat)  =       1.8897  a.u.
     unit-cell volume          =    6658.9804 (a.u.)^3
     number of atoms/cell      =           55
     number of atomic types    =            5
     number of electrons       =       397.00
     number of Kohn-Sham states=          208
     kinetic-energy cutoff     =      29.3995  Ry
     charge density cutoff     =     293.9946  Ry
     scf convergence threshold =      7.3E-08
     mixing beta               =       0.0500
     number of iterations used =            8  plain     mixing
     Exchange-correlation= BEEF-VDW
                           (   1   4  43  14   2   0   0)

     celldm(1)=   1.889726  celldm(2)=   0.000000  celldm(3)=   0.000000
     celldm(4)=   0.000000  celldm(5)=   0.000000  celldm(6)=   0.000000

     crystal axes: (cart. coord. in units of alat)
               a(1) = (   6.579727   0.000000   0.000000 )
               a(2) = (  -0.000775   5.961596   0.000000 )
               a(3) = (   0.000000   0.000000  25.155947 )

     reciprocal axes: (cart. coord. in units 2 pi/alat)
               b(1) = (  0.151982  0.000020  0.000000 )
               b(2) = (  0.000000  0.167740  0.000000 )
               b(3) = (  0.000000  0.000000  0.039752 )

     PseudoPot. # 1 for Ti read from file:
     /storage/coda1/p-amedford6/0/shared/rich_project_chbe-medford/medford-share/data/pseudos_module/espresso/nninc/pbe/van/Ti.UPF
     MD5 check sum: 8e4df49b7f0d34bbd5052bf3f5ea0213
     Pseudo is Ultrasoft, Zval = 12.0
     Generated by new atomic code, or converted to UPF format
     Using radial grid of  851 points,  6 beta functions with:
                l(1) =   0
                l(2) =   0
                l(3) =   1
                l(4) =   1
                l(5) =   2
                l(6) =   2
     Q(r) pseudized with  8 coefficients,  rinner =    1.000   1.000   1.000
                                                       1.000   1.000

     PseudoPot. # 2 for O  read from file:
     /storage/coda1/p-amedford6/0/shared/rich_project_chbe-medford/medford-share/data/pseudos_module/espresso/nninc/pbe/van/O.UPF
     MD5 check sum: 78c19812648e8988a0fe644b0f25305e
     Pseudo is Ultrasoft, Zval =  6.0
     Generated by new atomic code, or converted to UPF format
     Using radial grid of  737 points,  4 beta functions with:
                l(1) =   0
                l(2) =   0
                l(3) =   1
                l(4) =   1
     Q(r) pseudized with  8 coefficients,  rinner =    0.800   0.800   0.800

     PseudoPot. # 3 for N  read from file:
     /storage/coda1/p-amedford6/0/shared/rich_project_chbe-medford/medford-share/data/pseudos_module/espresso/nninc/pbe/van/N.UPF
     MD5 check sum: 90d10febe142ad51ac9d5be1deb811c4
     Pseudo is Ultrasoft, Zval =  5.0
     Generated by new atomic code, or converted to UPF format
     Using radial grid of  729 points,  4 beta functions with:
                l(1) =   0
                l(2) =   0
                l(3) =   1
                l(4) =   1
     Q(r) pseudized with  8 coefficients,  rinner =    0.800   0.800   0.800

     PseudoPot. # 4 for C  read from file:
     /storage/coda1/p-amedford6/0/shared/rich_project_chbe-medford/medford-share/data/pseudos_module/espresso/nninc/pbe/van/C.UPF
     MD5 check sum: 1a69bf6b8db32088f5b2163dbdb77a27
     Pseudo is Ultrasoft, Zval =  4.0
     Generated by new atomic code, or converted to UPF format
     Using radial grid of  721 points,  4 beta functions with:
                l(1) =   0
                l(2) =   0
                l(3) =   1
                l(4) =   1
     Q(r) pseudized with  8 coefficients,  rinner =    0.800   0.800   0.800

     PseudoPot. # 5 for H  read from file:
     /storage/coda1/p-amedford6/0/shared/rich_project_chbe-medford/medford-share/data/pseudos_module/espresso/nninc/pbe/van/H.UPF
     MD5 check sum: b5ee9d7bfd3a09ee7748110bda690ff7
     Pseudo is Ultrasoft, Zval =  1.0
     Generated by new atomic code, or converted to UPF format
     Using radial grid of  615 points,  1 beta functions with:
                l(1) =   0
     Q(r) pseudized with  8 coefficients,  rinner =    0.800

     atomic species   valence    mass     pseudopotential
        Ti1           12.00    47.86700     Ti( 1.00)
        O1             6.00    15.99900     O ( 1.00)
        N1             5.00    14.00700     N ( 1.00)
        C1             4.00    12.01100     C ( 1.00)
        H1             1.00     1.00800     H ( 1.00)

     No symmetry found

   Cartesian axes

     site n.     atom                  positions (alat units)
         1           Ti1 tau(   1) = (   0.0004258   2.9801865   6.0000000  )
         2           Ti1 tau(   2) = (   3.2906075   1.4906267   6.0002472  )
         3           O1  tau(   3) = (   0.0006271   0.0005054   7.9858123  )
         4           O1  tau(   4) = (   3.2906025   0.0005020   7.3038282  )
         5           O1  tau(   5) = (   4.5942328   1.4918067   9.2879030  )
         6           O1  tau(   6) = (   1.9868534   1.4903216   9.2879459  )
         7           Ti1 tau(   7) = (   3.2907910   2.8959150   9.1758416  )
         8           Ti1 tau(   8) = (   0.0015273   1.4827037   9.2680791  )
         9           O1  tau(   9) = (   3.2904964   5.9585769  11.3857690  )
        10           O1  tau(  10) = (   0.0116148   5.9584955  10.6183126  )
        11           O1  tau(  11) = (   1.2878431   1.4867815  12.6991744  )
        12           O1  tau(  12) = (   5.2968392   1.4897239  12.6840540  )
        13           Ti1 tau(  13) = (   0.0031652   2.9724310  12.5021289  )
        14           Ti1 tau(  14) = (   3.2974598   1.4750309  12.5411678  )
        15           O1  tau(  15) = (   6.5490940   5.8844369  14.7025010  )
        16           O1  tau(  16) = (   3.3056738   5.9474069  14.0077327  )
        17           O1  tau(  17) = (   4.5358307   1.5199601  16.1809847  )
        18           O1  tau(  18) = (   2.0145668   1.5037208  16.1256758  )
        19           Ti1 tau(  19) = (   3.2722398   2.9952086  15.7861162  )
        20           Ti1 tau(  20) = (   6.5630583   1.3046800  15.8709962  )
        21           O1  tau(  21) = (   3.2904802   0.0005063   4.7018136  )
        22           O1  tau(  22) = (   0.0019326   0.1554656  17.2922311  )
        23           O1  tau(  23) = (   1.3043587   1.4918075   6.0039043  )
        24           O1  tau(  24) = (   5.2767064   1.4903225   6.0039473  )
        25           Ti1 tau(  25) = (   0.0000382   5.9609847   6.0000000  )
        26           Ti1 tau(  26) = (   3.2902200   4.4714249   6.0002472  )
        27           O1  tau(  27) = (   0.0002396   2.9813036   7.9858123  )
        28           O1  tau(  28) = (   3.2902150   2.9813002   7.3038282  )
        29           O1  tau(  29) = (   4.5938453   4.4726049   9.2879030  )
        30           O1  tau(  30) = (   1.9864658   4.4711199   9.2879459  )
        31           Ti1 tau(  31) = (   3.2891106   5.8743827   9.1763621  )
        32           Ti1 tau(  32) = (   0.0006254   4.4649316   9.2693709  )
        33           O1  tau(  33) = (   3.2902589   2.9648534  11.3782866  )
        34           O1  tau(  34) = (   0.0092240   2.9805883  10.6323155  )
        35           O1  tau(  35) = (   1.2907939   4.4579819  12.6664495  )
        36           O1  tau(  36) = (   5.2949113   4.4550998  12.6520156  )
        37           Ti1 tau(  37) = (   0.0082621   5.9437129  12.5015890  )
        38           Ti1 tau(  38) = (   3.2989848   4.4491302  12.5337562  )
        39           O1  tau(  39) = (   6.5545586   3.0159292  14.9830317  )
        40           O1  tau(  40) = (   3.2960925   2.9977268  13.9872472  )
        41           O1  tau(  41) = (   4.5245867   4.4695491  16.2648171  )
        42           O1  tau(  42) = (   2.0004542   4.4779941  16.2115700  )
        43           Ti1 tau(  43) = (   3.2998562   0.0139781  15.8031611  )
        44           Ti1 tau(  44) = (   0.0298651   4.5190837  16.0363964  )
        45           O1  tau(  45) = (   3.2900926   2.9813045   4.7018136  )
        46           O1  tau(  46) = (   1.3039711   4.4726057   6.0039043  )
        47           O1  tau(  47) = (   5.2763189   4.4711207   6.0039473  )
        48           N1  tau(  48) = (   0.7490466   2.5008218  18.8353846  )
        49           N1  tau(  49) = (   6.4369825   3.4131575  18.1751453  )
        50           C1  tau(  50) = (   1.9829018   2.9174465  19.1941100  )
        51           H1  tau(  51) = (   2.1359794   3.9544348  19.4490303  )
        52           H1  tau(  52) = (   2.6935556   2.1421737  19.4548401  )
        53           H1  tau(  53) = (   0.6355624   1.5475814  18.4636284  )
        54           H1  tau(  54) = (   6.4936903   4.3158724  18.6511896  )
        55           H1  tau(  55) = (   5.4890587   3.0624770  18.3097170  )

     number of k points=    10  Fermi-Dirac smearing, width (Ry)=  0.0073
                       cart. coord. in units 2pi/alat
        k(    1) = (   0.0000000   0.0000000   0.0000000), wk =   0.1250000
        k(    2) = (   0.0000000   0.0419351   0.0000000), wk =   0.2500000
        k(    3) = (   0.0000000  -0.0838702   0.0000000), wk =   0.1250000
        k(    4) = (   0.0379955   0.0000049   0.0000000), wk =   0.2500000
        k(    5) = (   0.0379955   0.0419400   0.0000000), wk =   0.2500000
        k(    6) = (   0.0379955  -0.0838652   0.0000000), wk =   0.2500000
        k(    7) = (   0.0379955  -0.0419301   0.0000000), wk =   0.2500000
        k(    8) = (  -0.0759910  -0.0000099   0.0000000), wk =   0.1250000
        k(    9) = (  -0.0759910   0.0419252   0.0000000), wk =   0.2500000
        k(   10) = (  -0.0759910  -0.0838800   0.0000000), wk =   0.1250000

     Initial potential from superposition of free atoms

     starting charge  380.99914, renormalised to  397.00000

     negative rho (up, down):  1.606E-02 0.000E+00

     %%%%%%%%%%%%%%%%%%%%%%%%%%%%%%%%%%%%%%%%%%%%%%%%%%%%%%%%%%%%%%%%%%%%%%%%
     %                                                                      %
     % You are using vdW-DF, which was implemented by the Thonhauser group. %
     % Please cite the following two papers that made this development      %
     % possible and the two reviews that describe the various versions:     %
     %                                                                      %
     %   T. Thonhauser et al., PRL 115, 136402 (2015).                      %
     %   T. Thonhauser et al., PRB 76, 125112 (2007).                       %
     %   K. Berland et al., Rep. Prog. Phys. 78, 066501 (2015).             %
     %   D.C. Langreth et al., J. Phys.: Condens. Matter 21, 084203 (2009). %
     %                                                                      %
     %                                                                      %
     % If you are calculating the stress with vdW-DF, please also cite:     %
     %                                                                      %
     %   R. Sabatini et al., J. Phys.: Condens. Matter 24, 424209 (2012).   %
     %                                                                      %
     %%%%%%%%%%%%%%%%%%%%%%%%%%%%%%%%%%%%%%%%%%%%%%%%%%%%%%%%%%%%%%%%%%%%%%%%

     Adding external electric field

     Computed dipole along edir(3) :
        Dipole              -10.6770 Ry au,        -27.1381 Debye
        Dipole field         -0.0201 Ry au,

        Potential amp.        1.8678 Ry
        Total length         46.3494 bohr

     Starting wfcs are  301 atomic wfcs
  @ DRIVER MODE: Message from server: STATUS
  @ DRIVER MODE: Message from server: POSDATA
  @ DRIVER MODE: Reading and sharing cell
  @ DRIVER MODE: Reading and sharing positions
  @ DRIVER MODE: Received positions

     Self-consistent Calculation

     iteration #  1     ecut=    29.40 Ry     beta= 0.05
     Davidson diagonalization with overlap
     c_bands:  2 eigenvalues not converged
     c_bands:  3 eigenvalues not converged
     c_bands:  1 eigenvalues not converged
     c_bands:  4 eigenvalues not converged
     c_bands:  4 eigenvalues not converged
     c_bands:  4 eigenvalues not converged
     c_bands:  1 eigenvalues not converged
     c_bands:  2 eigenvalues not converged
     c_bands:  2 eigenvalues not converged
     ethr =  1.00E-05,  avg # of iterations = 20.0

[...]

     total energy              =   -2465.32263617 Ry
     estimated scf accuracy    <    5331.47624785 Ry

     iteration #  2     ecut=    29.40 Ry     beta= 0.05
     Davidson diagonalization with overlap
     ethr =  1.00E-02,  avg # of iterations = 22.8

[...]

     iteration # 76     ecut=    29.40 Ry     beta= 0.05
     Davidson diagonalization with overlap
     ethr =  7.37E-11,  avg # of iterations = 10.9

[...]

     total energy              =   -2941.51052492 Ry
     estimated scf accuracy    <       0.00000009 Ry

     iteration # 77     ecut=    29.40 Ry     beta= 0.05
     Davidson diagonalization with overlap
     c_bands:  1 eigenvalues not converged
     ethr =  2.25E-11,  avg # of iterations = 12.5

     negative rho (up, down):  1.514E-02 0.000E+00

     Adding external electric field

     Computed dipole along edir(3) :
        Dipole                1.2039 Ry au,          3.0601 Debye
        Dipole field          0.0023 Ry au,

        Potential amp.       -0.2106 Ry
        Total length         46.3494 bohr

     End of self-consistent calculation

          k = 0.0000 0.0000 0.0000 ( 18029 PWs)   bands (ev):

   -55.3822 -55.3453 -55.3367 -55.3026 -55.2639 -55.2578 -55.2293 -55.2109
   -55.1866 -55.1841 -55.1765 -55.1671 -55.1334 -55.0317 -54.3696 -54.3356
   -31.9450 -31.8300 -31.7771 -31.7513 -31.6999 -31.6895 -31.6838 -31.6737
   -31.6254 -31.6168 -31.5944 -31.5814 -31.5719 -31.5478 -31.5414 -31.5343
   -31.5219 -31.5060 -31.5044 -31.4894 -31.4884 -31.4514 -31.4514 -31.4412
   -31.4411 -31.4132 -31.3943 -31.3939 -31.3932 -31.3887 -31.3725 -31.3660
   -31.3649 -31.3587 -31.3586 -31.3562 -31.3241 -31.3000 -31.2950 -31.2786
   -31.2467 -31.2018 -30.7792 -30.6845 -30.6625 -30.5955 -30.5087 -30.3979
   -18.8984 -16.2144 -15.9609 -15.8138 -15.7062 -15.5887 -15.4800 -15.4252
   -15.3190 -15.2476 -15.1336 -15.0843 -15.0678 -15.0359 -15.0269 -15.0147
   -14.9351 -14.9286 -14.9109 -14.8879 -14.8821 -14.8402 -14.8285 -14.7877
   -14.7626 -14.7567 -14.6353 -14.5493 -14.4746 -14.3240 -14.3126 -12.8724
   -12.7548  -9.8512  -7.4573  -6.2598  -4.9803  -4.0203  -3.5906  -3.5468
    -3.4080  -3.2999  -3.2790  -3.2414  -3.1426  -2.9618  -2.8252  -2.7920
    -2.6756  -2.5950  -2.5817  -2.5511  -2.4262  -2.3891  -2.3504  -2.2856
    -2.2559  -2.1935  -2.1748  -2.1634  -2.1443  -2.1201  -2.0955  -1.9944
    -1.9558  -1.8600  -1.8203  -1.7867  -1.7456  -1.7285  -1.7083  -1.6775
    -1.6674  -1.6131  -1.5995  -1.5854  -1.5365  -1.4188  -1.2977  -1.2642
    -1.1756  -1.0278  -0.9907  -0.9703  -0.9138  -0.8781  -0.8556  -0.8253
    -0.7646  -0.7256  -0.6673  -0.6090  -0.5409  -0.4963  -0.4493  -0.4132
    -0.3778  -0.2931  -0.2116  -0.1675  -0.1544  -0.1371  -0.0378  -0.0017
     0.0529   0.1296   0.1315   0.1437   0.1864   0.2687   0.3460   0.3636
     0.3868   0.4919   0.4966   0.5395   0.5420   0.5622   0.5964   0.6308
     0.6811   0.7082   0.7954   0.8921   1.1181   1.2195   1.2225   1.5458
     1.5568   1.6530   1.8360   2.2297   2.2781   3.7095   3.7801   3.8016
     3.8574   3.8604   3.9301   3.9468   4.1926   4.2181   4.2185   4.2376

[...]

          k = 0.0380-0.0419 0.0000 ( 17876 PWs)   bands (ev):

[...]

          k =-0.0760-0.0000 0.0000 ( 17886 PWs)   bands (ev):

[...]

          k =-0.0760-0.0839 0.0000 ( 17948 PWs)   bands (ev):

   -55.3681 -55.3591 -55.3198 -55.3194 -55.2535 -55.2487 -55.2444 -55.1951
   -55.1918 -55.1897 -55.1829 -55.1509 -55.1498 -55.0339 -54.3527 -54.3524
   -31.7541 -31.7451 -31.6860 -31.6618 -31.6452 -31.6450 -31.6267 -31.6107
   -31.6106 -31.5938 -31.5859 -31.5776 -31.5622 -31.5304 -31.5281 -31.5237
   -31.5232 -31.5220 -31.5106 -31.5064 -31.4772 -31.4650 -31.4610 -31.4510
   -31.4453 -31.4419 -31.4395 -31.4391 -31.4363 -31.4275 -31.4248 -31.4078
   -31.4066 -31.4043 -31.3848 -31.3830 -31.3830 -31.3730 -31.3315 -31.3302
   -31.2959 -31.2484 -30.6752 -30.6750 -30.5918 -30.5916 -30.5522 -30.5521
   -18.8922 -15.7659 -15.5971 -15.5781 -15.4339 -15.3976 -15.3547 -15.3437
   -15.2497 -15.2147 -15.1885 -15.1575 -15.1364 -15.1009 -15.0874 -15.0706
   -15.0134 -14.9910 -14.9854 -14.9655 -14.9063 -14.9020 -14.8943 -14.8915
   -14.8367 -14.8335 -14.8252 -14.7429 -14.7400 -14.6293 -14.2468 -12.8563
   -12.8562  -9.8209  -7.4178  -6.2560  -5.0775  -3.9642  -3.6152  -2.8545
    -2.8481  -2.8348  -2.6499  -2.5669  -2.5443  -2.5388  -2.4488  -2.4115
    -2.3663  -2.3638  -2.3106  -2.3042  -2.2769  -2.2363  -2.2249  -2.2049
    -2.1862  -2.1773  -2.1417  -2.1184  -2.1085  -2.0785  -2.0476  -2.0315
    -2.0239  -2.0023  -1.9715  -1.9521  -1.9399  -1.8866  -1.7749  -1.7596
    -1.6643  -1.5975  -1.5932  -1.5199  -1.4958  -1.4535  -1.4458  -1.4211
    -1.3760  -1.1971  -1.1655  -1.1345  -1.1267  -1.0412  -0.9888  -0.9172
    -0.9118  -0.8859  -0.8510  -0.7574  -0.7208  -0.7016  -0.6264  -0.6027
    -0.5361  -0.4943  -0.4287  -0.3980  -0.3439  -0.3420  -0.3071  -0.2934
    -0.2727  -0.2043  -0.1580  -0.1237  -0.1114  -0.0795   0.1177   0.1270
     0.1426   0.2513   0.2962   0.4434   0.4583   0.5211   0.6270   0.6531
     0.7232   0.7481   0.9045   0.9164   0.9312   0.9848   0.9929   1.0627
     1.0721   2.0091   2.0096   2.0980   2.0982   3.6782   3.8964   3.9677
     3.9829   4.0156   4.1405   4.2091   4.2272   4.2954   4.2981   4.3280

     the Fermi energy is     3.7755 ev

!    total energy              =   -2941.51054337 Ry
     estimated scf accuracy    <       0.00000003 Ry
     smearing contrib. (-TS)   =      -0.04440811 Ry
     internal energy E=F+TS    =   -2941.46613526 Ry

     The total energy is F=E-TS. E is the sum of the following terms:
     one-electron contribution =  -23633.67470923 Ry
     hartree contribution      =   11909.12617725 Ry
     xc contribution           =    -486.88136807 Ry
     ewald contribution        =    9269.96102946 Ry
     electric field correction =       0.00273534 Ry

     convergence has been achieved in  77 iterations

     Forces acting on atoms (cartesian axes, Ry/au):

     atom    1 type  1   force =     0.00013298   -0.00019088    0.09302428
     atom    2 type  1   force =    -0.00008567   -0.00045436   -0.17842221
     atom    3 type  2   force =     0.00004560   -0.00036072   -0.02006212
     atom    4 type  2   force =    -0.00000907   -0.00201559    0.05931790
     atom    5 type  2   force =    -0.01030792   -0.00098542    0.00818107
     atom    6 type  2   force =     0.01173871   -0.00038509    0.00732235
     atom    7 type  1   force =    -0.00038052    0.00239528   -0.01418264
     atom    8 type  1   force =     0.00023234   -0.00124538   -0.00619899
     atom    9 type  2   force =    -0.00023258    0.00021667    0.00013700
     atom   10 type  2   force =    -0.00162624    0.00149218    0.00163305
     atom   11 type  2   force =    -0.00006734   -0.00016354    0.00009296
     atom   12 type  2   force =    -0.00015972   -0.00016422   -0.00001510
     atom   13 type  1   force =     0.00007105   -0.00028403    0.00005692
     atom   14 type  1   force =     0.00017962    0.00019745    0.00029157
     atom   15 type  2   force =    -0.00006327    0.00023189   -0.00028564
     atom   16 type  2   force =     0.00017324   -0.00021796    0.00013157
     atom   17 type  2   force =    -0.00001065   -0.00001344    0.00043992
     atom   18 type  2   force =    -0.00025276   -0.00005017   -0.00014868
     atom   19 type  1   force =    -0.00008669   -0.00010399    0.00020762
     atom   20 type  1   force =    -0.00014681   -0.00002346    0.00008210
     atom   21 type  2   force =     0.00005935   -0.00008306    0.10399955
     atom   22 type  2   force =     0.00010151   -0.00014673   -0.00027234
     atom   23 type  2   force =    -0.07032870   -0.00017731   -0.02687407
     atom   24 type  2   force =     0.07021538    0.00026995   -0.02689959
     atom   25 type  1   force =    -0.00001409   -0.00014401    0.09259286
     atom   26 type  1   force =    -0.00006261   -0.00039260   -0.17857629
     atom   27 type  2   force =     0.00009463   -0.00031006   -0.01914538
     atom   28 type  2   force =     0.00003929   -0.00178724    0.05865788
     atom   29 type  2   force =    -0.01080716   -0.00126022    0.00872715
     atom   30 type  2   force =     0.01215999   -0.00085962    0.00782964
     atom   31 type  1   force =    -0.00028862    0.00613715   -0.01442138
     atom   32 type  1   force =     0.00028857    0.00071135   -0.00651746
     atom   33 type  2   force =    -0.00022702   -0.00024945   -0.00000711
     atom   34 type  2   force =    -0.00093556   -0.00223581   -0.00016081
     atom   35 type  2   force =    -0.00041776    0.00023661    0.00014570
     atom   36 type  2   force =     0.00012673    0.00019765   -0.00027736
     atom   37 type  1   force =     0.00017491   -0.00000753    0.00005760
     atom   38 type  1   force =     0.00032503    0.00019056    0.00010137
     atom   39 type  2   force =    -0.00026118    0.00009766   -0.00023692
     atom   40 type  2   force =    -0.00009279   -0.00015476   -0.00007518
     atom   41 type  2   force =    -0.00005212    0.00032242    0.00001395
     atom   42 type  2   force =    -0.00022663    0.00010617    0.00005553
     atom   43 type  1   force =     0.00044228   -0.00000567    0.00017568
     atom   44 type  1   force =     0.00006632   -0.00011831   -0.00018354
     atom   45 type  2   force =     0.00004500   -0.00008895    0.10399152
     atom   46 type  2   force =    -0.07030263   -0.00009918   -0.02683004
     atom   47 type  2   force =     0.07017879    0.00031671   -0.02686612
     atom   48 type  3   force =     0.00065393    0.00016379    0.00000321
     atom   49 type  3   force =     0.00048011   -0.00008709   -0.00041730
     atom   50 type  4   force =     0.00458043   -0.00757180    0.00054881
     atom   51 type  5   force =     0.00101729   -0.00129401    0.00041887
     atom   52 type  5   force =    -0.00505048    0.00816387   -0.00166644
     atom   53 type  5   force =    -0.00041266    0.00146003    0.00020850
     atom   54 type  5   force =    -0.00012491    0.00114650    0.00034961
     atom   55 type  5   force =    -0.00058891   -0.00032223   -0.00005304

     Total force =     0.366678     Total SCF correction =     0.000384
  @ DRIVER MODE: Message from server: STATUS
  @ DRIVER MODE: Message from server: GETFORCE
  @ DRIVER MODE: Returning v,forces,stress,ensemble

     Writing output data file ./calc.save/
  @ DRIVER MODE: Message from server: EXIT
  @ DRIVE MODE: Exiting

     General routines

     Parallel routines

   This run was terminated on:   4: 3:38  11Sep2021

   JOB DONE.