     Program PWSCF v.6.7GPU starts on 23Aug2021 at 23:49:24

     R & G space division:  proc/nbgrp/npool/nimage =       6
     Reading input from /storage/home/hcoda1/3/ntian30/research/carbon/CH2_vib/ads_slab/CH2NNHHH_a/out_0021/pw.inp
Warning: card &CELL ignored
Warning: card   CELL_DYNAMICS='IPI', ignored
Warning: card / ignored

     Current dimensions of program PWSCF are:
     Max number of different atomic species (ntypx) = 10
     Max number of k-points (npk) =  40000
     Max angular momentum in pseudopotentials (lmaxx) =  3
     Presently no symmetry can be used with electric field

     Message from routine cell_base_init:
     DEPRECATED: use true lattice parameter, not A to a.u. conversion factor

     IMPORTANT: XC functional enforced from input :
     Exchange-correlation= BEEF-VDW
                           (   1   4  43  14   2   0   0)
     Any further DFT definition will be discarded
     Please, verify this is what you really want

  @ DRIVER MODE: Connecting to
 qe_1139763_2632806.sched-torque.pace.gatech.edufqe150dv_scratch
  using UNIX socket
  @ DRIVER MODE: Message from server: STATUS
  @ DRIVER MODE: Message from server: INIT
  @ DRIVER MODE: Receiving replica           0          -1
  @ DRIVER MODE: Receiving encoded integer          25
  @ DRIVER MODE:  SCF:  T  FORCE:  T  STRESS:  F  VC:  F  ENSEMBLE:  F
  @ DRIVER MODE:  SCF:  T  FORCE:  T  STRESS:  F  VC:  F  ENSEMBLE:  F

     Using Slab Decomposition

     bravais-lattice index     =            0
     lattice parameter (alat)  =       1.8897  a.u.
     unit-cell volume          =    6658.9804 (a.u.)^3
     number of atoms/cell      =           55
     number of atomic types    =            5
     number of electrons       =       397.00
     number of Kohn-Sham states=          208
     kinetic-energy cutoff     =      29.3995  Ry
     charge density cutoff     =     293.9946  Ry
     scf convergence threshold =      7.3E-08
     mixing beta               =       0.0500
     number of iterations used =            8  plain     mixing
     Exchange-correlation= BEEF-VDW
                           (   1   4  43  14   2   0   0)

     celldm(1)=   1.889726  celldm(2)=   0.000000  celldm(3)=   0.000000
     celldm(4)=   0.000000  celldm(5)=   0.000000  celldm(6)=   0.000000

     crystal axes: (cart. coord. in units of alat)
               a(1) = (   6.579727   0.000000   0.000000 )
               a(2) = (  -0.000775   5.961596   0.000000 )
               a(3) = (   0.000000   0.000000  25.155947 )

     reciprocal axes: (cart. coord. in units 2 pi/alat)
               b(1) = (  0.151982  0.000020  0.000000 )
               b(2) = (  0.000000  0.167740  0.000000 )
               b(3) = (  0.000000  0.000000  0.039752 )

     PseudoPot. # 1 for Ti read from file:
     /storage/coda1/p-amedford6/0/shared/rich_project_chbe-medford/medford-share/data/pseudos_module/espresso/nninc/pbe/van/Ti.UPF
     MD5 check sum: 8e4df49b7f0d34bbd5052bf3f5ea0213
     Pseudo is Ultrasoft, Zval = 12.0
     Generated by new atomic code, or converted to UPF format
     Using radial grid of  851 points,  6 beta functions with:
                l(1) =   0
                l(2) =   0
                l(3) =   1
                l(4) =   1
                l(5) =   2
                l(6) =   2
     Q(r) pseudized with  8 coefficients,  rinner =    1.000   1.000   1.000
                                                       1.000   1.000

     PseudoPot. # 2 for O  read from file:
     /storage/coda1/p-amedford6/0/shared/rich_project_chbe-medford/medford-share/data/pseudos_module/espresso/nninc/pbe/van/O.UPF
     MD5 check sum: 78c19812648e8988a0fe644b0f25305e
     Pseudo is Ultrasoft, Zval =  6.0
     Generated by new atomic code, or converted to UPF format
     Using radial grid of  737 points,  4 beta functions with:
                l(1) =   0
                l(2) =   0
                l(3) =   1
                l(4) =   1
     Q(r) pseudized with  8 coefficients,  rinner =    0.800   0.800   0.800

     PseudoPot. # 3 for N  read from file:
     /storage/coda1/p-amedford6/0/shared/rich_project_chbe-medford/medford-share/data/pseudos_module/espresso/nninc/pbe/van/N.UPF
     MD5 check sum: 90d10febe142ad51ac9d5be1deb811c4
     Pseudo is Ultrasoft, Zval =  5.0
     Generated by new atomic code, or converted to UPF format
     Using radial grid of  729 points,  4 beta functions with:
                l(1) =   0
                l(2) =   0
                l(3) =   1
                l(4) =   1
     Q(r) pseudized with  8 coefficients,  rinner =    0.800   0.800   0.800

     PseudoPot. # 4 for C  read from file:
     /storage/coda1/p-amedford6/0/shared/rich_project_chbe-medford/medford-share/data/pseudos_module/espresso/nninc/pbe/van/C.UPF
     MD5 check sum: 1a69bf6b8db32088f5b2163dbdb77a27
     Pseudo is Ultrasoft, Zval =  4.0
     Generated by new atomic code, or converted to UPF format
     Using radial grid of  721 points,  4 beta functions with:
                l(1) =   0
                l(2) =   0
                l(3) =   1
                l(4) =   1
     Q(r) pseudized with  8 coefficients,  rinner =    0.800   0.800   0.800

     PseudoPot. # 5 for H  read from file:
     /storage/coda1/p-amedford6/0/shared/rich_project_chbe-medford/medford-share/data/pseudos_module/espresso/nninc/pbe/van/H.UPF
     MD5 check sum: b5ee9d7bfd3a09ee7748110bda690ff7
     Pseudo is Ultrasoft, Zval =  1.0
     Generated by new atomic code, or converted to UPF format
     Using radial grid of  615 points,  1 beta functions with:
                l(1) =   0
     Q(r) pseudized with  8 coefficients,  rinner =    0.800

     atomic species   valence    mass     pseudopotential
        Ti1           12.00    47.86700     Ti( 1.00)
        O1             6.00    15.99900     O ( 1.00)
        N1             5.00    14.00700     N ( 1.00)
        C1             4.00    12.01100     C ( 1.00)
        H1             1.00     1.00800     H ( 1.00)

     No symmetry found

   Cartesian axes

     site n.     atom                  positions (alat units)
         1           Ti1 tau(   1) = (   0.0004258   2.9801865   6.0000000  )
         2           Ti1 tau(   2) = (   3.2906075   1.4906267   6.0002472  )
         3           O1  tau(   3) = (   0.0006271   0.0005054   7.9858123  )
         4           O1  tau(   4) = (   3.2906025   0.0005020   7.3038282  )
         5           O1  tau(   5) = (   4.5942328   1.4918067   9.2879030  )
         6           O1  tau(   6) = (   1.9868534   1.4903216   9.2879459  )
         7           Ti1 tau(   7) = (   3.2907910   2.8959150   9.1758416  )
         8           Ti1 tau(   8) = (   0.0015273   1.4827037   9.2680791  )
         9           O1  tau(   9) = (   3.2797308   5.9473376  11.3602069  )
        10           O1  tau(  10) = (   0.0116148   5.9584955  10.6183126  )
        11           O1  tau(  11) = (   1.2902197   1.4970218  12.6485984  )
        12           O1  tau(  12) = (   5.2825647   1.4998509  12.6204812  )
        13           Ti1 tau(  13) = (   6.5707130   2.9731531  12.5352273  )
        14           Ti1 tau(  14) = (   3.2824754   1.4851695  12.4964603  )
        15           O1  tau(  15) = (   6.5335774   0.0914421  14.6722524  )
        16           O1  tau(  16) = (   3.3157438   0.0180770  13.9903400  )
        17           O1  tau(  17) = (   4.5084513   1.5196572  16.2619966  )
        18           O1  tau(  18) = (   2.0062152   1.4815140  16.1839734  )
        19           Ti1 tau(  19) = (   3.2259906   2.9465836  15.7211513  )
        20           Ti1 tau(  20) = (   6.5090593   1.4075841  16.1508600  )
        21           O1  tau(  21) = (   3.2904802   0.0005063   4.7018136  )
        22           O1  tau(  22) = (   6.5630310   5.8123487  17.2302531  )
        23           O1  tau(  23) = (   1.3043587   1.4918075   6.0039043  )
        24           O1  tau(  24) = (   5.2767064   1.4903225   6.0039473  )
        25           Ti1 tau(  25) = (   0.0000382   5.9609847   6.0000000  )
        26           Ti1 tau(  26) = (   3.2902200   4.4714249   6.0002472  )
        27           O1  tau(  27) = (   0.0002396   2.9813036   7.9858123  )
        28           O1  tau(  28) = (   3.2902150   2.9813002   7.3038282  )
        29           O1  tau(  29) = (   4.5938453   4.4726049   9.2879030  )
        30           O1  tau(  30) = (   1.9864658   4.4711199   9.2879459  )
        31           Ti1 tau(  31) = (   3.2891106   5.8743827   9.1763621  )
        32           Ti1 tau(  32) = (   0.0006254   4.4649316   9.2693709  )
        33           O1  tau(  33) = (   3.2783824   2.9878764  11.3535400  )
        34           O1  tau(  34) = (   0.0092240   2.9805883  10.6323155  )
        35           O1  tau(  35) = (   1.2857266   4.4729298  12.7006550  )
        36           O1  tau(  36) = (   5.2845514   4.4687958  12.6640455  )
        37           Ti1 tau(  37) = (   6.5734551   0.0101047  12.5124135  )
        38           Ti1 tau(  38) = (   3.2852174   4.4611384  12.5175569  )
        39           O1  tau(  39) = (   6.5279837   2.9480221  14.9030702  )
        40           O1  tau(  40) = (   3.2956390   2.9588503  13.9390168  )
        41           O1  tau(  41) = (   4.4992944   4.4159585  16.2207858  )
        42           O1  tau(  42) = (   2.0104883   4.4624356  16.0673450  )
        43           Ti1 tau(  43) = (   3.2790961   0.0058003  15.7788240  )
        44           Ti1 tau(  44) = (   0.0606790   4.6093333  15.7554573  )
        45           O1  tau(  45) = (   3.2900926   2.9813045   4.7018136  )
        46           O1  tau(  46) = (   1.3039711   4.4726057   6.0039043  )
        47           O1  tau(  47) = (   5.2763189   4.4711207   6.0039473  )
        48           N1  tau(  48) = (   0.0403274   2.7191540  18.0026804  )
        49           C1  tau(  49) = (   0.9398849   2.4944932  18.9664025  )
        50           H1  tau(  50) = (   0.9073005   3.0183022  19.9142263  )
        51           H1  tau(  51) = (   1.7098349   1.7604235  18.7615287  )
        52           N1  tau(  52) = (   5.5765855   3.6054979  18.4816711  )
        53           H1  tau(  53) = (   5.9881759   4.5320851  18.7147717  )
        54           H1  tau(  54) = (   4.9344470   3.8465857  17.6610935  )
        55           H1  tau(  55) = (   5.0674124   3.1947177  19.2767304  )

     number of k points=    10  Fermi-Dirac smearing, width (Ry)=  0.0073
                       cart. coord. in units 2pi/alat
        k(    1) = (   0.0000000   0.0000000   0.0000000), wk =   0.1250000
        k(    2) = (   0.0000000   0.0419351   0.0000000), wk =   0.2500000
        k(    3) = (   0.0000000  -0.0838702   0.0000000), wk =   0.1250000
        k(    4) = (   0.0379955   0.0000049   0.0000000), wk =   0.2500000
        k(    5) = (   0.0379955   0.0419400   0.0000000), wk =   0.2500000
        k(    6) = (   0.0379955  -0.0838652   0.0000000), wk =   0.2500000
        k(    7) = (   0.0379955  -0.0419301   0.0000000), wk =   0.2500000
        k(    8) = (  -0.0759910  -0.0000099   0.0000000), wk =   0.1250000
        k(    9) = (  -0.0759910   0.0419252   0.0000000), wk =   0.2500000
        k(   10) = (  -0.0759910  -0.0838800   0.0000000), wk =   0.1250000

     Initial potential from superposition of free atoms

     starting charge  380.99914, renormalised to  397.00000

     negative rho (up, down):  1.588E-02 0.000E+00

     %%%%%%%%%%%%%%%%%%%%%%%%%%%%%%%%%%%%%%%%%%%%%%%%%%%%%%%%%%%%%%%%%%%%%%%%
     %                                                                      %
     % You are using vdW-DF, which was implemented by the Thonhauser group. %
     % Please cite the following two papers that made this development      %
     % possible and the two reviews that describe the various versions:     %
     %                                                                      %
     %   T. Thonhauser et al., PRL 115, 136402 (2015).                      %
     %   T. Thonhauser et al., PRB 76, 125112 (2007).                       %
     %   K. Berland et al., Rep. Prog. Phys. 78, 066501 (2015).             %
     %   D.C. Langreth et al., J. Phys.: Condens. Matter 21, 084203 (2009). %
     %                                                                      %
     %                                                                      %
     % If you are calculating the stress with vdW-DF, please also cite:     %
     %                                                                      %
     %   R. Sabatini et al., J. Phys.: Condens. Matter 24, 424209 (2012).   %
     %                                                                      %
     %%%%%%%%%%%%%%%%%%%%%%%%%%%%%%%%%%%%%%%%%%%%%%%%%%%%%%%%%%%%%%%%%%%%%%%%

     Adding external electric field

     Computed dipole along edir(3) :
        Dipole              -10.3122 Ry au,        -26.2111 Debye
        Dipole field         -0.0195 Ry au,

        Potential amp.        1.8040 Ry
        Total length         46.3494 bohr

     Starting wfcs are  301 atomic wfcs
  @ DRIVER MODE: Message from server: STATUS
  @ DRIVER MODE: Message from server: POSDATA
  @ DRIVER MODE: Reading and sharing cell
  @ DRIVER MODE: Reading and sharing positions
  @ DRIVER MODE: Received positions

     Self-consistent Calculation

     iteration #  1     ecut=    29.40 Ry     beta= 0.05
     Davidson diagonalization with overlap
     c_bands:  3 eigenvalues not converged
     c_bands:  2 eigenvalues not converged
     c_bands:  3 eigenvalues not converged
     c_bands:  2 eigenvalues not converged
     c_bands:  3 eigenvalues not converged
     c_bands:  2 eigenvalues not converged
     c_bands:  3 eigenvalues not converged
     c_bands:  2 eigenvalues not converged
     c_bands:  2 eigenvalues not converged
     c_bands:  3 eigenvalues not converged
     ethr =  1.00E-05,  avg # of iterations = 20.0

[...]

     total energy              =   -2480.08118427 Ry
     estimated scf accuracy    <    5159.14542333 Ry

     iteration #  2     ecut=    29.40 Ry     beta= 0.05
     Davidson diagonalization with overlap
     ethr =  1.00E-02,  avg # of iterations = 22.6

[...]

     iteration # 86     ecut=    29.40 Ry     beta= 0.05
     Davidson diagonalization with overlap
     c_bands:  1 eigenvalues not converged
     ethr =  5.87E-11,  avg # of iterations = 15.1

[...]

     total energy              =   -2941.49083745 Ry
     estimated scf accuracy    <       0.00000009 Ry

     iteration # 89     ecut=    29.40 Ry     beta= 0.05
     Davidson diagonalization with overlap
     ethr =  2.17E-11,  avg # of iterations = 12.9

     negative rho (up, down):  1.344E-02 0.000E+00

     Adding external electric field

     Computed dipole along edir(3) :
        Dipole                1.3625 Ry au,          3.4632 Debye
        Dipole field          0.0026 Ry au,

        Potential amp.       -0.2384 Ry
        Total length         46.3494 bohr

     End of self-consistent calculation

          k = 0.0000 0.0000 0.0000 ( 18029 PWs)   bands (ev):

   -55.2842 -55.2451 -55.2450 -55.2109 -55.1595 -55.1576 -55.1210 -55.0943
   -55.0771 -55.0759 -55.0596 -55.0426 -54.9569 -54.7912 -54.2633 -54.2293
   -31.8564 -31.7358 -31.6460 -31.6109 -31.5842 -31.5816 -31.5790 -31.5347
   -31.5320 -31.4920 -31.4901 -31.4896 -31.4576 -31.4545 -31.4406 -31.4191
   -31.4037 -31.3988 -31.3945 -31.3932 -31.3573 -31.3520 -31.3384 -31.3250
   -31.3020 -31.2970 -31.2905 -31.2866 -31.2741 -31.2710 -31.2611 -31.2511
   -31.2444 -31.2394 -31.2094 -31.2049 -31.1979 -31.1857 -31.1484 -31.1058
   -31.0620 -30.9327 -30.6722 -30.5794 -30.5573 -30.4886 -30.4019 -30.2910
   -19.2258 -16.1258 -15.8636 -15.7356 -15.5441 -15.4780 -15.3824 -15.2447
   -15.1932 -15.1318 -15.0828 -15.0423 -15.0294 -14.9638 -14.9066 -14.8183
   -14.8166 -14.7990 -14.7895 -14.7776 -14.7744 -14.7121 -14.7094 -14.6822
   -14.6676 -14.6574 -14.5166 -14.4327 -14.3712 -14.2756 -14.0255 -12.7662
   -12.6489  -9.1347  -7.7980  -7.0580  -6.0002  -3.8022  -3.4635  -3.2907
    -3.2438  -3.2037  -3.1789  -3.0104  -2.9285  -2.6613  -2.5934  -2.5536
    -2.5061  -2.4948  -2.4693  -2.2972  -2.2664  -2.2271  -2.1903  -2.1665
    -2.1268  -2.0991  -2.0830  -2.0538  -2.0407  -2.0386  -1.8559  -1.7855
    -1.7623  -1.7010  -1.6854  -1.6689  -1.6113  -1.5824  -1.5694  -1.5670
    -1.5439  -1.5270  -1.5040  -1.4615  -1.3751  -1.2829  -1.2384  -1.2163
    -1.1036  -1.0389  -0.9156  -0.8730  -0.8589  -0.8317  -0.7600  -0.6931
    -0.6659  -0.6301  -0.4899  -0.4851  -0.4006  -0.3905  -0.3178  -0.3011
    -0.2614  -0.2155  -0.1040  -0.0707  -0.0492   0.0027   0.0661   0.0881
     0.1697   0.2241   0.2807   0.2946   0.3742   0.4141   0.4519   0.4735
     0.5606   0.6022   0.6617   0.6681   0.7052   0.7085   0.7338   0.8203
     0.8335   0.8530   0.8940   1.0634   1.2640   1.3158   1.3363   1.6690
     1.6884   1.7591   1.9444   2.3338   2.3814   3.8171   3.8826   3.9532
     3.9675   3.9778   4.0495   4.0948   4.2845   4.3136   4.3166   4.3379

[...]

          k = 0.0380-0.0419 0.0000 ( 17876 PWs)   bands (ev):

[...]

          k =-0.0760-0.0000 0.0000 ( 17886 PWs)   bands (ev):

[...]

          k =-0.0760-0.0839 0.0000 ( 17948 PWs)   bands (ev):

   -55.2721 -55.2570 -55.2280 -55.2279 -55.1558 -55.1457 -55.1329 -55.0807
   -55.0780 -55.0752 -55.0598 -55.0592 -54.9554 -54.7927 -54.2463 -54.2462
   -31.6659 -31.6528 -31.5788 -31.5509 -31.5509 -31.5473 -31.5201 -31.5200
   -31.4927 -31.4843 -31.4797 -31.4759 -31.4213 -31.4126 -31.4126 -31.4091
   -31.4071 -31.4028 -31.3962 -31.3812 -31.3689 -31.3583 -31.3540 -31.3474
   -31.3473 -31.3452 -31.3438 -31.3281 -31.3115 -31.3085 -31.2921 -31.2895
   -31.2846 -31.2828 -31.2828 -31.2520 -31.2401 -31.2389 -31.1658 -31.0927
   -31.0629 -31.0103 -30.5699 -30.5699 -30.4848 -30.4846 -30.4453 -30.4453
   -19.2221 -15.5909 -15.5144 -15.4586 -15.3685 -15.2906 -15.2708 -15.2608
   -15.2274 -15.1606 -15.1372 -15.0721 -15.0371 -14.9917 -14.9889 -14.9736
   -14.8889 -14.8698 -14.8546 -14.8504 -14.7895 -14.7881 -14.7611 -14.7387
   -14.7321 -14.7283 -14.6286 -14.6276 -14.4629 -14.4312 -14.1968 -12.7505
   -12.7505  -9.1218  -7.8079  -7.0422  -6.0105  -3.8251  -2.8522  -2.7656
    -2.6760  -2.5197  -2.4824  -2.4724  -2.4175  -2.3265  -2.3003  -2.2873
    -2.2669  -2.2597  -2.1867  -2.1815  -2.1376  -2.1161  -2.1051  -2.0993
    -2.0655  -2.0521  -2.0383  -2.0019  -1.9934  -1.9773  -1.9428  -1.9233
    -1.8988  -1.8709  -1.8569  -1.8276  -1.7042  -1.6753  -1.6309  -1.5680
    -1.5437  -1.4771  -1.4718  -1.3677  -1.3575  -1.3464  -1.3054  -1.2915
    -1.2709  -1.1085  -1.0641  -1.0287  -1.0172  -1.0112  -0.8552  -0.8388
    -0.7706  -0.7549  -0.7401  -0.6637  -0.6223  -0.6057  -0.5261  -0.4863
    -0.4565  -0.4355  -0.2934  -0.2804  -0.2549  -0.2409  -0.2342  -0.1416
    -0.1212  -0.0852  -0.0511  -0.0131   0.0033   0.0626   0.2162   0.2423
     0.2792   0.4235   0.4387   0.5242   0.5716   0.6986   0.7633   0.7655
     0.8466   0.9168   1.0186   1.0310   1.0507   1.1364   1.1826   1.1875
     1.1887   2.1171   2.1179   2.2014   2.2017   3.6938   3.9565   4.0790
     4.0853   4.1276   4.2504   4.3339   4.3574   4.3953   4.3973   4.4714

     the Fermi energy is     3.8721 ev

!    total energy              =   -2941.49084084 Ry
     estimated scf accuracy    <       0.00000005 Ry
     smearing contrib. (-TS)   =      -0.04232822 Ry
     internal energy E=F+TS    =   -2941.44851262 Ry

     The total energy is F=E-TS. E is the sum of the following terms:
     one-electron contribution =  -23921.93403200 Ry
     hartree contribution      =   12054.14006043 Ry
     xc contribution           =    -486.85472441 Ry
     ewald contribution        =    9413.19667990 Ry
     electric field correction =       0.00350346 Ry

     convergence has been achieved in  89 iterations

     Forces acting on atoms (cartesian axes, Ry/au):

     atom    1 type  1   force =     0.00016269   -0.00016662    0.09402476
     atom    2 type  1   force =    -0.00005113   -0.00043601   -0.17755278
     atom    3 type  2   force =     0.00006463   -0.00004651   -0.02099469
     atom    4 type  2   force =     0.00001777   -0.00180449    0.05732837
     atom    5 type  2   force =    -0.01086291   -0.00090846    0.00782857
     atom    6 type  2   force =     0.01207553   -0.00034028    0.00622353
     atom    7 type  1   force =    -0.00065195    0.00289335   -0.01528473
     atom    8 type  1   force =     0.00059467    0.00233379    0.00237869
     atom    9 type  2   force =    -0.00010425    0.00013563    0.00091253
     atom   10 type  2   force =    -0.00165494   -0.00049778   -0.00379634
     atom   11 type  2   force =    -0.00005152   -0.00023340    0.00020220
     atom   12 type  2   force =    -0.00018752   -0.00039399    0.00027051
     atom   13 type  1   force =     0.00042162    0.00108163    0.00061948
     atom   14 type  1   force =     0.00020598   -0.00062094    0.00037986
     atom   15 type  2   force =    -0.00018324    0.00038725    0.00048993
     atom   16 type  2   force =    -0.00016272   -0.00024252   -0.00119441
     atom   17 type  2   force =     0.00011821   -0.00027341    0.00014390
     atom   18 type  2   force =    -0.00080768   -0.00037046    0.00002838
     atom   19 type  1   force =    -0.00056838    0.00108378   -0.00039282
     atom   20 type  1   force =    -0.00037973    0.00129291   -0.00115465
     atom   21 type  2   force =     0.00010931   -0.00004112    0.10377217
     atom   22 type  2   force =     0.00009265    0.00020325    0.00055799
     atom   23 type  2   force =    -0.07063175   -0.00018391   -0.02705399
     atom   24 type  2   force =     0.07057490    0.00029003   -0.02709211
     atom   25 type  1   force =     0.00014992   -0.00024257    0.09335110
     atom   26 type  1   force =    -0.00001004   -0.00036655   -0.17776935
     atom   27 type  2   force =     0.00010947   -0.00039855   -0.02000611
     atom   28 type  2   force =     0.00003487   -0.00146626    0.05681269
     atom   29 type  2   force =    -0.01076221   -0.00065928    0.00674341
     atom   30 type  2   force =     0.01188024   -0.00016739    0.00509990
     atom   31 type  1   force =    -0.00062815    0.00410081   -0.01559500
     atom   32 type  1   force =     0.00067369   -0.00278621    0.00215503
     atom   33 type  2   force =     0.00015606   -0.00022343   -0.00059254
     atom   34 type  2   force =    -0.00109255    0.00272534   -0.00202293
     atom   35 type  2   force =     0.00008739    0.00019649    0.00008766
     atom   36 type  2   force =    -0.00032529    0.00033680   -0.00007978
     atom   37 type  1   force =     0.00046405   -0.00007596    0.00031334
     atom   38 type  1   force =     0.00009426    0.00089712    0.00016507
     atom   39 type  2   force =    -0.00003898   -0.00097694    0.00038494
     atom   40 type  2   force =    -0.00023362   -0.00043621    0.00061024
     atom   41 type  2   force =    -0.00028654   -0.00006079   -0.00019751
     atom   42 type  2   force =     0.00013837    0.00002335    0.00022500
     atom   43 type  1   force =     0.00000570   -0.00146215    0.00089910
     atom   44 type  1   force =    -0.00007008   -0.00088006   -0.00135803
     atom   45 type  2   force =     0.00009584   -0.00008083    0.10374866
     atom   46 type  2   force =    -0.07064522   -0.00008982   -0.02706278
     atom   47 type  2   force =     0.07059850    0.00029233   -0.02710017
     atom   48 type  3   force =    -0.00060175   -0.00055525    0.00002883
     atom   49 type  4   force =     0.00609797   -0.00683114   -0.00059806
     atom   50 type  5   force =     0.00106137   -0.00006828   -0.00100645
     atom   51 type  5   force =    -0.00634959    0.00691987    0.00171439
     atom   52 type  3   force =    -0.00014244    0.00065211    0.00038035
     atom   53 type  5   force =     0.00030948   -0.00151205   -0.00068165
     atom   54 type  5   force =     0.00046466   -0.00020379    0.00102966
     atom   55 type  5   force =     0.00062440    0.00025755   -0.00032338

     Total force =     0.365935     Total SCF correction =     0.000450
  @ DRIVER MODE: Message from server: STATUS
  @ DRIVER MODE: Message from server: GETFORCE
  @ DRIVER MODE: Returning v,forces,stress,ensemble

     Writing output data file ./calc.save/
  @ DRIVER MODE: Message from server: EXIT
  @ DRIVE MODE: Exiting

     General routines

     Parallel routines

   This run was terminated on:   0:24: 7  24Aug2021

   JOB DONE.