     Program PWSCF v.6.7GPU starts on 24Sep2021 at 10: 9:12

     R & G space division:  proc/nbgrp/npool/nimage =       8
     Reading input from /storage/home/hcoda1/3/ntian30/research/carbon/CxH_vib/H2O_calc/ads_slab/CH2NNHHHO_a/out_0053/pw.inp
Warning: card &CELL ignored
Warning: card   CELL_DYNAMICS='IPI', ignored
Warning: card / ignored

     Current dimensions of program PWSCF are:
     Max number of different atomic species (ntypx) = 10
     Max number of k-points (npk) =  40000
     Max angular momentum in pseudopotentials (lmaxx) =  3
     Presently no symmetry can be used with electric field

     Message from routine cell_base_init:
     DEPRECATED: use true lattice parameter, not A to a.u. conversion factor

     IMPORTANT: XC functional enforced from input :
     Exchange-correlation= BEEF-VDW
                           (   1   4  43  14   2   0   0)
     Any further DFT definition will be discarded
     Please, verify this is what you really want

  @ DRIVER MODE: Connecting to
 qe_1139763_2947314.sched-torque.pace.gatech.eduj__281q1_scratch
  using UNIX socket
  @ DRIVER MODE: Message from server: STATUS
  @ DRIVER MODE: Message from server: INIT
  @ DRIVER MODE: Receiving replica           0          -1
  @ DRIVER MODE: Receiving encoded integer          25
  @ DRIVER MODE:  SCF:  T  FORCE:  T  STRESS:  F  VC:  F  ENSEMBLE:  F
  @ DRIVER MODE:  SCF:  T  FORCE:  T  STRESS:  F  VC:  F  ENSEMBLE:  F

     Using Slab Decomposition

     bravais-lattice index     =            0
     lattice parameter (alat)  =       1.8897  a.u.
     unit-cell volume          =    6658.9804 (a.u.)^3
     number of atoms/cell      =           56
     number of atomic types    =            5
     number of electrons       =       403.00
     number of Kohn-Sham states=          211
     kinetic-energy cutoff     =      29.3995  Ry
     charge density cutoff     =     293.9946  Ry
     scf convergence threshold =      7.3E-08
     mixing beta               =       0.0500
     number of iterations used =            8  plain     mixing
     Exchange-correlation= BEEF-VDW
                           (   1   4  43  14   2   0   0)

     celldm(1)=   1.889726  celldm(2)=   0.000000  celldm(3)=   0.000000
     celldm(4)=   0.000000  celldm(5)=   0.000000  celldm(6)=   0.000000

     crystal axes: (cart. coord. in units of alat)
               a(1) = (   6.579727   0.000000   0.000000 )
               a(2) = (  -0.000775   5.961596   0.000000 )
               a(3) = (   0.000000   0.000000  25.155947 )

     reciprocal axes: (cart. coord. in units 2 pi/alat)
               b(1) = (  0.151982  0.000020  0.000000 )
               b(2) = (  0.000000  0.167740  0.000000 )
               b(3) = (  0.000000  0.000000  0.039752 )

     PseudoPot. # 1 for Ti read from file:
     /storage/coda1/p-amedford6/0/shared/rich_project_chbe-medford/medford-share/data/pseudos_module/espresso/nninc/pbe/van/Ti.UPF
     MD5 check sum: 8e4df49b7f0d34bbd5052bf3f5ea0213
     Pseudo is Ultrasoft, Zval = 12.0
     Generated by new atomic code, or converted to UPF format
     Using radial grid of  851 points,  6 beta functions with:
                l(1) =   0
                l(2) =   0
                l(3) =   1
                l(4) =   1
                l(5) =   2
                l(6) =   2
     Q(r) pseudized with  8 coefficients,  rinner =    1.000   1.000   1.000
                                                       1.000   1.000

     PseudoPot. # 2 for O  read from file:
     /storage/coda1/p-amedford6/0/shared/rich_project_chbe-medford/medford-share/data/pseudos_module/espresso/nninc/pbe/van/O.UPF
     MD5 check sum: 78c19812648e8988a0fe644b0f25305e
     Pseudo is Ultrasoft, Zval =  6.0
     Generated by new atomic code, or converted to UPF format
     Using radial grid of  737 points,  4 beta functions with:
                l(1) =   0
                l(2) =   0
                l(3) =   1
                l(4) =   1
     Q(r) pseudized with  8 coefficients,  rinner =    0.800   0.800   0.800

     PseudoPot. # 3 for N  read from file:
     /storage/coda1/p-amedford6/0/shared/rich_project_chbe-medford/medford-share/data/pseudos_module/espresso/nninc/pbe/van/N.UPF
     MD5 check sum: 90d10febe142ad51ac9d5be1deb811c4
     Pseudo is Ultrasoft, Zval =  5.0
     Generated by new atomic code, or converted to UPF format
     Using radial grid of  729 points,  4 beta functions with:
                l(1) =   0
                l(2) =   0
                l(3) =   1
                l(4) =   1
     Q(r) pseudized with  8 coefficients,  rinner =    0.800   0.800   0.800

     PseudoPot. # 4 for C  read from file:
     /storage/coda1/p-amedford6/0/shared/rich_project_chbe-medford/medford-share/data/pseudos_module/espresso/nninc/pbe/van/C.UPF
     MD5 check sum: 1a69bf6b8db32088f5b2163dbdb77a27
     Pseudo is Ultrasoft, Zval =  4.0
     Generated by new atomic code, or converted to UPF format
     Using radial grid of  721 points,  4 beta functions with:
                l(1) =   0
                l(2) =   0
                l(3) =   1
                l(4) =   1
     Q(r) pseudized with  8 coefficients,  rinner =    0.800   0.800   0.800

     PseudoPot. # 5 for H  read from file:
     /storage/coda1/p-amedford6/0/shared/rich_project_chbe-medford/medford-share/data/pseudos_module/espresso/nninc/pbe/van/H.UPF
     MD5 check sum: b5ee9d7bfd3a09ee7748110bda690ff7
     Pseudo is Ultrasoft, Zval =  1.0
     Generated by new atomic code, or converted to UPF format
     Using radial grid of  615 points,  1 beta functions with:
                l(1) =   0
     Q(r) pseudized with  8 coefficients,  rinner =    0.800

     atomic species   valence    mass     pseudopotential
        Ti1           12.00    47.86700     Ti( 1.00)
        O1             6.00    15.99900     O ( 1.00)
        N1             5.00    14.00700     N ( 1.00)
        C1             4.00    12.01100     C ( 1.00)
        H1             1.00     1.00800     H ( 1.00)

     No symmetry found

   Cartesian axes

     site n.     atom                  positions (alat units)
         1           Ti1 tau(   1) = (   0.0004258   2.9801865   6.0000000  )
         2           Ti1 tau(   2) = (   3.2906075   1.4906267   6.0002472  )
         3           O1  tau(   3) = (   0.0006271   0.0005054   7.9858123  )
         4           O1  tau(   4) = (   3.2906025   0.0005020   7.3038282  )
         5           O1  tau(   5) = (   4.5942328   1.4918067   9.2879030  )
         6           O1  tau(   6) = (   1.9868534   1.4903216   9.2879459  )
         7           Ti1 tau(   7) = (   3.2907910   2.8959150   9.1758416  )
         8           Ti1 tau(   8) = (   0.0015273   1.4827037   9.2680791  )
         9           O1  tau(   9) = (   3.2834828   5.9254549  11.3560997  )
        10           O1  tau(  10) = (   0.0116148   5.9584955  10.6183126  )
        11           O1  tau(  11) = (   1.2632982   1.4794151  12.6467768  )
        12           O1  tau(  12) = (   5.2979234   1.4912170  12.6376735  )
        13           Ti1 tau(  13) = (   6.5593102   2.9584919  12.5255918  )
        14           Ti1 tau(  14) = (   3.2941082   1.2876829  12.7086691  )
        15           O1  tau(  15) = (   6.5459232   0.0848410  14.6672212  )
        16           O1  tau(  16) = (   3.2899079   0.0686032  13.9983899  )
        17           O1  tau(  17) = (   4.5347701   1.5447734  16.1667714  )
        18           O1  tau(  18) = (   1.9898569   1.5359154  16.1924900  )
        19           Ti1 tau(  19) = (   3.2532585   2.9792413  15.6887139  )
        20           Ti1 tau(  20) = (   6.5162390   1.4193964  16.0443711  )
        21           O1  tau(  21) = (   3.2904802   0.0005063   4.7018136  )
        22           O1  tau(  22) = (   6.5314393   5.8470953  17.1670503  )
        23           O1  tau(  23) = (   1.3043587   1.4918075   6.0039043  )
        24           O1  tau(  24) = (   5.2767064   1.4903225   6.0039473  )
        25           Ti1 tau(  25) = (   0.0000382   5.9609847   6.0000000  )
        26           Ti1 tau(  26) = (   3.2902200   4.4714249   6.0002472  )
        27           O1  tau(  27) = (   0.0002396   2.9813036   7.9858123  )
        28           O1  tau(  28) = (   3.2902150   2.9813002   7.3038282  )
        29           O1  tau(  29) = (   4.5938453   4.4726049   9.2879030  )
        30           O1  tau(  30) = (   1.9864658   4.4711199   9.2879459  )
        31           Ti1 tau(  31) = (   3.2891106   5.8743827   9.1763621  )
        32           Ti1 tau(  32) = (   0.0006254   4.4649316   9.2693709  )
        33           O1  tau(  33) = (   3.2801501   3.0037454  11.3162440  )
        34           O1  tau(  34) = (   0.0092240   2.9805883  10.6323155  )
        35           O1  tau(  35) = (   1.2628463   4.4620516  12.6871769  )
        36           O1  tau(  36) = (   5.2965349   4.4479299  12.6783795  )
        37           Ti1 tau(  37) = (   0.0245004   5.9521619  12.5031165  )
        38           Ti1 tau(  38) = (   3.2934334   4.3725749  12.4478892  )
        39           O1  tau(  39) = (   0.0012172   2.9324930  14.9038371  )
        40           O1  tau(  40) = (   3.2612729   2.9642313  13.9201381  )
        41           O1  tau(  41) = (   4.5459169   4.3864222  16.0774642  )
        42           O1  tau(  42) = (   2.0085495   4.4473877  16.1057765  )
        43           Ti1 tau(  43) = (   3.2275989   5.9528725  16.3079466  )
        44           Ti1 tau(  44) = (   6.5418721   4.6299905  15.7990834  )
        45           O1  tau(  45) = (   3.2900926   2.9813045   4.7018136  )
        46           O1  tau(  46) = (   1.3039711   4.4726057   6.0039043  )
        47           O1  tau(  47) = (   5.2763189   4.4711207   6.0039473  )
        48           N1  tau(  48) = (   6.5153795   2.7269917  18.1720481  )
        49           C1  tau(  49) = (   0.9714328   2.6352729  18.9176740  )
        50           H1  tau(  50) = (   0.9613011   2.9697384  19.9541300  )
        51           H1  tau(  51) = (   1.8619620   2.1844435  18.5121220  )
        52           N1  tau(  52) = (   5.3313596   3.1722530  18.7397816  )
        53           H1  tau(  53) = (   5.4931776   3.7097374  19.5894643  )
        54           H1  tau(  54) = (   4.8256156   3.7472006  18.0707398  )
        55           O1  tau(  55) = (   3.3867674   5.8992794  18.1610867  )
        56           H1  tau(  56) = (   4.0349165   0.5560778  18.5274839  )

     number of k points=    10  Fermi-Dirac smearing, width (Ry)=  0.0073
                       cart. coord. in units 2pi/alat
        k(    1) = (   0.0000000   0.0000000   0.0000000), wk =   0.1250000
        k(    2) = (   0.0000000   0.0419351   0.0000000), wk =   0.2500000
        k(    3) = (   0.0000000  -0.0838702   0.0000000), wk =   0.1250000
        k(    4) = (   0.0379955   0.0000049   0.0000000), wk =   0.2500000
        k(    5) = (   0.0379955   0.0419400   0.0000000), wk =   0.2500000
        k(    6) = (   0.0379955  -0.0838652   0.0000000), wk =   0.2500000
        k(    7) = (   0.0379955  -0.0419301   0.0000000), wk =   0.2500000
        k(    8) = (  -0.0759910  -0.0000099   0.0000000), wk =   0.1250000
        k(    9) = (  -0.0759910   0.0419252   0.0000000), wk =   0.2500000
        k(   10) = (  -0.0759910  -0.0838800   0.0000000), wk =   0.1250000

     Initial potential from superposition of free atoms

     starting charge  386.99914, renormalised to  403.00000

     negative rho (up, down):  1.547E-02 0.000E+00

     %%%%%%%%%%%%%%%%%%%%%%%%%%%%%%%%%%%%%%%%%%%%%%%%%%%%%%%%%%%%%%%%%%%%%%%%
     %                                                                      %
     % You are using vdW-DF, which was implemented by the Thonhauser group. %
     % Please cite the following two papers that made this development      %
     % possible and the two reviews that describe the various versions:     %
     %                                                                      %
     %   T. Thonhauser et al., PRL 115, 136402 (2015).                      %
     %   T. Thonhauser et al., PRB 76, 125112 (2007).                       %
     %   K. Berland et al., Rep. Prog. Phys. 78, 066501 (2015).             %
     %   D.C. Langreth et al., J. Phys.: Condens. Matter 21, 084203 (2009). %
     %                                                                      %
     %                                                                      %
     % If you are calculating the stress with vdW-DF, please also cite:     %
     %                                                                      %
     %   R. Sabatini et al., J. Phys.: Condens. Matter 24, 424209 (2012).   %
     %                                                                      %
     %%%%%%%%%%%%%%%%%%%%%%%%%%%%%%%%%%%%%%%%%%%%%%%%%%%%%%%%%%%%%%%%%%%%%%%%

     Adding external electric field

     Computed dipole along edir(3) :
        Dipole              -13.0221 Ry au,        -33.0988 Debye
        Dipole field         -0.0246 Ry au,

        Potential amp.        2.2780 Ry
        Total length         46.3494 bohr

     Starting wfcs are  305 atomic wfcs
  @ DRIVER MODE: Message from server: STATUS
  @ DRIVER MODE: Message from server: POSDATA
  @ DRIVER MODE: Reading and sharing cell
  @ DRIVER MODE: Reading and sharing positions
  @ DRIVER MODE: Received positions

     Self-consistent Calculation

     iteration #  1     ecut=    29.40 Ry     beta= 0.05
     Davidson diagonalization with overlap
     c_bands:  4 eigenvalues not converged
     c_bands:  5 eigenvalues not converged
     c_bands:  3 eigenvalues not converged
     c_bands:  1 eigenvalues not converged
     c_bands:  1 eigenvalues not converged
     c_bands:  5 eigenvalues not converged
     c_bands:  2 eigenvalues not converged
     c_bands:  3 eigenvalues not converged
     ethr =  1.00E-05,  avg # of iterations = 28.8

[...]

     total energy              =   -2311.59931423 Ry
     estimated scf accuracy    <    7504.00997649 Ry

     iteration #  2     ecut=    29.40 Ry     beta= 0.05
     Davidson diagonalization with overlap
     ethr =  1.00E-02,  avg # of iterations = 25.6

[...]

     iteration # 51     ecut=    29.40 Ry     beta= 0.05
     Davidson diagonalization with overlap
     c_bands:  1 eigenvalues not converged
     ethr =  4.63E-09,  avg # of iterations = 14.7

[...]

     total energy              =   -2974.00152938 Ry
     estimated scf accuracy    <       0.00000011 Ry

     iteration # 65     ecut=    29.40 Ry     beta= 0.05
     Davidson diagonalization with overlap
     ethr =  2.73E-11,  avg # of iterations =  9.3

     negative rho (up, down):  1.592E-02 0.000E+00

     Adding external electric field

     Computed dipole along edir(3) :
        Dipole                1.0845 Ry au,          2.7564 Debye
        Dipole field          0.0020 Ry au,

        Potential amp.       -0.1897 Ry
        Total length         46.3494 bohr

     End of self-consistent calculation

          k = 0.0000 0.0000 0.0000 ( 18029 PWs)   bands (ev):

   -55.5977 -55.5328 -55.4987 -55.3816 -55.3756 -55.3592 -55.3453 -55.3329
   -55.3254 -55.2975 -55.2500 -55.1497 -55.1340 -55.0573 -54.5009 -54.4669
   -32.0171 -31.9351 -31.8994 -31.8669 -31.8622 -31.8269 -31.8237 -31.8095
   -31.7824 -31.7785 -31.7596 -31.6852 -31.6586 -31.6508 -31.6391 -31.6354
   -31.6236 -31.6136 -31.5902 -31.5900 -31.5834 -31.5558 -31.5452 -31.5400
   -31.5224 -31.5178 -31.5135 -31.4988 -31.4897 -31.4869 -31.4787 -31.4697
   -31.4695 -31.4463 -31.4237 -31.4052 -31.3464 -31.3386 -31.3056 -31.2955
   -31.2760 -31.2636 -30.9065 -30.8211 -30.7986 -30.7242 -30.6378 -30.5259
   -18.3808 -16.4659 -16.1698 -16.0028 -15.7900 -15.7096 -15.6712 -15.4779
   -15.3855 -15.3242 -15.0952 -15.0720 -15.0667 -15.0416 -15.0319 -15.0157
   -14.9987 -14.9593 -14.9504 -14.9420 -14.9184 -14.9037 -14.8717 -14.8197
   -14.7774 -14.7607 -14.6660 -14.5975 -14.5508 -14.3159 -14.2177 -13.4985
   -12.9990 -12.8827  -8.5588  -6.2652  -5.8483  -4.0464  -3.8505  -3.5312
    -3.4357  -3.4144  -3.3542  -3.2905  -3.0491  -2.9776  -2.8869  -2.8372
    -2.7634  -2.6485  -2.5997  -2.5291  -2.4579  -2.4485  -2.4014  -2.3721
    -2.3106  -2.2974  -2.2615  -2.2547  -2.1841  -2.1642  -2.0635  -2.0511
    -2.0365  -1.9020  -1.8889  -1.8461  -1.8383  -1.8382  -1.7994  -1.7807
    -1.7651  -1.7485  -1.6432  -1.6047  -1.5840  -1.5124  -1.4797  -1.1638
    -1.1316  -1.0867  -1.0693  -1.0179  -0.9661  -0.9429  -0.9205  -0.8571
    -0.8180  -0.7690  -0.7357  -0.7025  -0.6211  -0.5850  -0.5431  -0.4607
    -0.3855  -0.3117  -0.3057  -0.2613  -0.2332  -0.2080  -0.1086  -0.0833
    -0.0699   0.0290   0.0487   0.1249   0.1652   0.2085   0.2474   0.2945
     0.3600   0.3774   0.4027   0.4388   0.4464   0.5014   0.5220   0.5807
     0.6336   0.6486   0.7468   0.8042   0.8186   0.8379   0.9485   1.0236
     1.1435   1.1516   1.2523   1.4780   1.5261   1.5699   1.7193   2.0923
     2.1373   3.5539   3.7028   3.7193   3.7635   3.8104   3.8947   4.0407
     4.1035   4.2426   4.2526

[...]

          k = 0.0380-0.0419 0.0000 ( 17876 PWs)   bands (ev):

[...]

          k =-0.0760-0.0000 0.0000 ( 17886 PWs)   bands (ev):

[...]

          k =-0.0760-0.0839 0.0000 ( 17948 PWs)   bands (ev):

   -55.5969 -55.5159 -55.5154 -55.3743 -55.3683 -55.3584 -55.3424 -55.3419
   -55.3336 -55.2905 -55.2570 -55.1467 -55.1352 -55.0602 -54.4842 -54.4834
   -31.8806 -31.8325 -31.8323 -31.8300 -31.8182 -31.8093 -31.8089 -31.8021
   -31.7346 -31.6873 -31.6785 -31.6682 -31.6632 -31.6358 -31.6357 -31.6339
   -31.6318 -31.6174 -31.6149 -31.5999 -31.5877 -31.5783 -31.5687 -31.5580
   -31.5491 -31.5454 -31.5362 -31.5359 -31.5203 -31.5150 -31.5122 -31.5086
   -31.5081 -31.4801 -31.4761 -31.4175 -31.3986 -31.3750 -31.3489 -31.3423
   -31.3121 -31.2676 -30.8116 -30.8110 -30.7199 -30.7188 -30.6814 -30.6807
   -18.3779 -16.4516 -15.7503 -15.6250 -15.4997 -15.4954 -15.3746 -15.2972
   -15.2798 -15.2509 -15.2391 -15.2054 -15.1875 -15.1515 -15.1202 -15.0889
   -15.0489 -15.0280 -15.0146 -14.9754 -14.9646 -14.9475 -14.9379 -14.9150
   -14.8734 -14.8382 -14.8273 -14.6834 -14.6287 -14.5818 -14.4423 -13.5074
   -12.9847 -12.9844  -8.5353  -6.2315  -5.8677  -3.9976  -3.9268  -2.9855
    -2.9212  -2.8197  -2.7159  -2.6207  -2.5667  -2.5313  -2.4938  -2.4492
    -2.4268  -2.3769  -2.3359  -2.3158  -2.3072  -2.2746  -2.2658  -2.2509
    -2.2306  -2.2157  -2.2006  -2.1904  -2.1622  -2.1449  -2.1441  -2.1103
    -2.0990  -2.0714  -2.0634  -2.0107  -1.9133  -1.8844  -1.7915  -1.6911
    -1.6832  -1.6704  -1.6465  -1.6086  -1.5975  -1.5719  -1.5353  -1.4755
    -1.4666  -1.3034  -1.2498  -1.2194  -1.1456  -1.0899  -1.0591  -1.0317
    -0.9884  -0.9636  -0.8903  -0.8611  -0.7641  -0.7102  -0.6838  -0.6237
    -0.5478  -0.4833  -0.4746  -0.4686  -0.4416  -0.4186  -0.3934  -0.3635
    -0.3381  -0.2676  -0.2300  -0.2112  -0.2032  -0.1464  -0.1005   0.0020
     0.1288   0.2376   0.2542   0.2847   0.3236   0.4735   0.5176   0.5797
     0.6272   0.6584   0.6888   0.7821   0.7934   0.8764   0.9025   0.9415
     0.9847   1.0092   1.0415   1.0709   1.0798   1.8895   1.8968   1.9576
     1.9579   3.7721   4.0502   4.0753   4.0833   4.1016   4.1213   4.1364
     4.1561   4.2265   4.2318

     the Fermi energy is     3.5895 ev

!    total energy              =   -2974.00156828 Ry
     estimated scf accuracy    <       0.00000005 Ry
     smearing contrib. (-TS)   =      -0.01962450 Ry
     internal energy E=F+TS    =   -2973.98194378 Ry

     The total energy is F=E-TS. E is the sum of the following terms:
     one-electron contribution =  -23472.51780342 Ry
     hartree contribution      =   11831.65365246 Ry
     xc contribution           =    -494.06884509 Ry
     ewald contribution        =    9160.94883288 Ry
     electric field correction =       0.00221939 Ry

     convergence has been achieved in  65 iterations

     Forces acting on atoms (cartesian axes, Ry/au):

     atom    1 type  1   force =     0.00012615   -0.00018710    0.09456002
     atom    2 type  1   force =    -0.00003416    0.00034586   -0.17511696
     atom    3 type  2   force =    -0.00002501   -0.00002871   -0.02135947
     atom    4 type  2   force =     0.00001562   -0.00189506    0.05323331
     atom    5 type  2   force =    -0.00694622   -0.00239538    0.00356544
     atom    6 type  2   force =     0.00805605   -0.00193110    0.00204413
     atom    7 type  1   force =    -0.00070101   -0.00277379    0.01004818
     atom    8 type  1   force =     0.00060883    0.00275877    0.00502111
     atom    9 type  2   force =     0.00003276   -0.00046813    0.00022263
     atom   10 type  2   force =    -0.00253863   -0.00140652   -0.01079590
     atom   11 type  2   force =     0.00128793   -0.00017480    0.00055762
     atom   12 type  2   force =    -0.00081889   -0.00022350    0.00066644
     atom   13 type  1   force =    -0.00094792   -0.00096428    0.00047241
     atom   14 type  1   force =     0.00031846    0.00030983    0.00011444
     atom   15 type  2   force =     0.00011363    0.00027416   -0.00039305
     atom   16 type  2   force =    -0.00045572    0.00020930    0.00001518
     atom   17 type  2   force =    -0.00022848    0.00020237    0.00027256
     atom   18 type  2   force =     0.00100156   -0.00017244   -0.00032823
     atom   19 type  1   force =     0.00114046    0.00068862    0.00003628
     atom   20 type  1   force =    -0.00062334    0.00008099    0.00001709
     atom   21 type  2   force =     0.00006384    0.00009676    0.10310816
     atom   22 type  2   force =     0.00055073    0.00075093    0.00046145
     atom   23 type  2   force =    -0.07212775   -0.00013871   -0.02736076
     atom   24 type  2   force =     0.07201351    0.00029391   -0.02736157
     atom   25 type  1   force =     0.00002089   -0.00013990    0.09405675
     atom   26 type  1   force =    -0.00015687   -0.00109033   -0.17521638
     atom   27 type  2   force =     0.00012268   -0.00024795   -0.02014402
     atom   28 type  2   force =    -0.00000281   -0.00026915    0.04930874
     atom   29 type  2   force =    -0.00563940    0.00192221    0.00158441
     atom   30 type  2   force =     0.00666614    0.00249385   -0.00001406
     atom   31 type  1   force =    -0.00072239    0.00678076   -0.00107658
     atom   32 type  1   force =     0.00050350   -0.00385254    0.00433068
     atom   33 type  2   force =     0.00016202   -0.00011333   -0.00082291
     atom   34 type  2   force =    -0.00187374    0.00169996   -0.01048230
     atom   35 type  2   force =     0.00117561    0.00028855   -0.00016426
     atom   36 type  2   force =    -0.00056548    0.00042877   -0.00025300
     atom   37 type  1   force =    -0.00064975    0.00045779   -0.00024731
     atom   38 type  1   force =     0.00055695    0.00015611    0.00013277
     atom   39 type  2   force =     0.00032257   -0.00040402    0.00040736
     atom   40 type  2   force =     0.00020769    0.00013752   -0.00031880
     atom   41 type  2   force =     0.00004559   -0.00011502   -0.00106770
     atom   42 type  2   force =     0.00041458   -0.00028915    0.00039798
     atom   43 type  1   force =    -0.00022742   -0.00105064   -0.00006763
     atom   44 type  1   force =    -0.00049015   -0.00015305    0.00014855
     atom   45 type  2   force =     0.00007514   -0.00006799    0.10288960
     atom   46 type  2   force =    -0.07216956   -0.00002664   -0.02736092
     atom   47 type  2   force =     0.07208841    0.00040949   -0.02739688
     atom   48 type  3   force =     0.00039283    0.00000453   -0.00023795
     atom   49 type  4   force =     0.00025413   -0.00040041   -0.00012647
     atom   50 type  5   force =    -0.00010831   -0.00036373   -0.00011346
     atom   51 type  5   force =    -0.00026128    0.00012596    0.00008131
     atom   52 type  3   force =    -0.00048752   -0.00039013    0.00015252
     atom   53 type  5   force =     0.00004322   -0.00009253    0.00021773
     atom   54 type  5   force =    -0.00007298    0.00026351   -0.00056007
     atom   55 type  2   force =    -0.00498022   -0.00362487   -0.00317675
     atom   56 type  5   force =     0.00547349    0.00427040    0.00343852

     Total force =     0.362100     Total SCF correction =     0.000673
  @ DRIVER MODE: Message from server: STATUS
  @ DRIVER MODE: Message from server: GETFORCE
  @ DRIVER MODE: Returning v,forces,stress,ensemble

     Writing output data file ./calc.save/
  @ DRIVER MODE: Message from server: EXIT
  @ DRIVE MODE: Exiting

     General routines

     Parallel routines

   This run was terminated on:  10:35:23  24Sep2021

   JOB DONE.