     Program PWSCF v.6.7GPU starts on  9Sep2021 at  9:42:40

     R & G space division:  proc/nbgrp/npool/nimage =      10
     Reading input from /storage/home/hcoda1/3/ntian30/research/carbon/CxH_vib/CH3_calc/ads_slab/CH3OH_e/out_0036/pw.inp
Warning: card &CELL ignored
Warning: card   CELL_DYNAMICS='IPI', ignored
Warning: card / ignored

     Current dimensions of program PWSCF are:
     Max number of different atomic species (ntypx) = 10
     Max number of k-points (npk) =  40000
     Max angular momentum in pseudopotentials (lmaxx) =  3
     Presently no symmetry can be used with electric field

     Message from routine cell_base_init:
     DEPRECATED: use true lattice parameter, not A to a.u. conversion factor

     IMPORTANT: XC functional enforced from input :
     Exchange-correlation= BEEF-VDW
                           (   1   4  43  14   2   0   0)
     Any further DFT definition will be discarded
     Please, verify this is what you really want

  @ DRIVER MODE: Connecting to
 qe_1139763_2767404.sched-torque.pace.gatech.edutqp95z52_scratch
  using UNIX socket
  @ DRIVER MODE: Message from server: STATUS
  @ DRIVER MODE: Message from server: INIT
  @ DRIVER MODE: Receiving replica           0          -1
  @ DRIVER MODE: Receiving encoded integer          25
  @ DRIVER MODE:  SCF:  T  FORCE:  T  STRESS:  F  VC:  F  ENSEMBLE:  F
  @ DRIVER MODE:  SCF:  T  FORCE:  T  STRESS:  F  VC:  F  ENSEMBLE:  F

     Using Slab Decomposition

     bravais-lattice index     =            0
     lattice parameter (alat)  =       1.8897  a.u.
     unit-cell volume          =    6658.9804 (a.u.)^3
     number of atoms/cell      =           53
     number of atomic types    =            4
     number of electrons       =       392.00
     number of Kohn-Sham states=          206
     kinetic-energy cutoff     =      29.3995  Ry
     charge density cutoff     =     293.9946  Ry
     scf convergence threshold =      7.3E-08
     mixing beta               =       0.0500
     number of iterations used =            8  plain     mixing
     Exchange-correlation= BEEF-VDW
                           (   1   4  43  14   2   0   0)

     celldm(1)=   1.889726  celldm(2)=   0.000000  celldm(3)=   0.000000
     celldm(4)=   0.000000  celldm(5)=   0.000000  celldm(6)=   0.000000

     crystal axes: (cart. coord. in units of alat)
               a(1) = (   6.579727   0.000000   0.000000 )
               a(2) = (  -0.000775   5.961596   0.000000 )
               a(3) = (   0.000000   0.000000  25.155947 )

     reciprocal axes: (cart. coord. in units 2 pi/alat)
               b(1) = (  0.151982  0.000020  0.000000 )
               b(2) = (  0.000000  0.167740  0.000000 )
               b(3) = (  0.000000  0.000000  0.039752 )

     PseudoPot. # 1 for Ti read from file:
     /storage/coda1/p-amedford6/0/shared/rich_project_chbe-medford/medford-share/data/pseudos_module/espresso/nninc/pbe/van/Ti.UPF
     MD5 check sum: 8e4df49b7f0d34bbd5052bf3f5ea0213
     Pseudo is Ultrasoft, Zval = 12.0
     Generated by new atomic code, or converted to UPF format
     Using radial grid of  851 points,  6 beta functions with:
                l(1) =   0
                l(2) =   0
                l(3) =   1
                l(4) =   1
                l(5) =   2
                l(6) =   2
     Q(r) pseudized with  8 coefficients,  rinner =    1.000   1.000   1.000
                                                       1.000   1.000

     PseudoPot. # 2 for O  read from file:
     /storage/coda1/p-amedford6/0/shared/rich_project_chbe-medford/medford-share/data/pseudos_module/espresso/nninc/pbe/van/O.UPF
     MD5 check sum: 78c19812648e8988a0fe644b0f25305e
     Pseudo is Ultrasoft, Zval =  6.0
     Generated by new atomic code, or converted to UPF format
     Using radial grid of  737 points,  4 beta functions with:
                l(1) =   0
                l(2) =   0
                l(3) =   1
                l(4) =   1
     Q(r) pseudized with  8 coefficients,  rinner =    0.800   0.800   0.800

     PseudoPot. # 3 for C  read from file:
     /storage/coda1/p-amedford6/0/shared/rich_project_chbe-medford/medford-share/data/pseudos_module/espresso/nninc/pbe/van/C.UPF
     MD5 check sum: 1a69bf6b8db32088f5b2163dbdb77a27
     Pseudo is Ultrasoft, Zval =  4.0
     Generated by new atomic code, or converted to UPF format
     Using radial grid of  721 points,  4 beta functions with:
                l(1) =   0
                l(2) =   0
                l(3) =   1
                l(4) =   1
     Q(r) pseudized with  8 coefficients,  rinner =    0.800   0.800   0.800

     PseudoPot. # 4 for H  read from file:
     /storage/coda1/p-amedford6/0/shared/rich_project_chbe-medford/medford-share/data/pseudos_module/espresso/nninc/pbe/van/H.UPF
     MD5 check sum: b5ee9d7bfd3a09ee7748110bda690ff7
     Pseudo is Ultrasoft, Zval =  1.0
     Generated by new atomic code, or converted to UPF format
     Using radial grid of  615 points,  1 beta functions with:
                l(1) =   0
     Q(r) pseudized with  8 coefficients,  rinner =    0.800

     atomic species   valence    mass     pseudopotential
        Ti1           12.00    47.86700     Ti( 1.00)
        O1             6.00    15.99900     O ( 1.00)
        C1             4.00    12.01100     C ( 1.00)
        H1             1.00     1.00800     H ( 1.00)

     No symmetry found

   Cartesian axes

     site n.     atom                  positions (alat units)
         1           Ti1 tau(   1) = (   0.0004258   2.9801865   6.0000000  )
         2           Ti1 tau(   2) = (   3.2906075   1.4906267   6.0002472  )
         3           O1  tau(   3) = (   0.0006271   0.0005054   7.9858123  )
         4           O1  tau(   4) = (   3.2906025   0.0005020   7.3038282  )
         5           O1  tau(   5) = (   4.5942328   1.4918067   9.2879030  )
         6           O1  tau(   6) = (   1.9868534   1.4903216   9.2879459  )
         7           Ti1 tau(   7) = (   3.3184627   3.0104606   9.1553648  )
         8           Ti1 tau(   8) = (   0.0346466   1.5145919   9.2725854  )
         9           O1  tau(   9) = (   3.3323670   0.0074739  11.3628161  )
        10           O1  tau(  10) = (   0.0072146   0.0022432  10.6032180  )
        11           O1  tau(  11) = (   1.3334854   1.5010653  12.6312402  )
        12           O1  tau(  12) = (   5.3322653   1.4967215  12.6661074  )
        13           Ti1 tau(  13) = (   0.0399007   3.0049294  12.5399032  )
        14           Ti1 tau(  14) = (   3.3257882   1.5006484  12.5017209  )
        15           O1  tau(  15) = (   0.0958175   0.0109015  14.6781201  )
        16           O1  tau(  16) = (   3.3209445   0.0065530  13.9947117  )
        17           O1  tau(  17) = (   4.6470289   1.5235192  16.1521327  )
        18           O1  tau(  18) = (   2.1274687   1.5288575  16.1863263  )
        19           Ti1 tau(  19) = (   3.3866828   2.9872137  15.7186651  )
        20           Ti1 tau(  20) = (   0.0851359   1.3433488  15.9962781  )
        21           O1  tau(  21) = (   3.2904802   0.0005063   4.7018136  )
        22           O1  tau(  22) = (   0.0861787   0.0156205  17.2101336  )
        23           O1  tau(  23) = (   1.3043587   1.4918075   6.0039043  )
        24           O1  tau(  24) = (   5.2767064   1.4903225   6.0039473  )
        25           Ti1 tau(  25) = (   0.0000382   5.9609847   6.0000000  )
        26           Ti1 tau(  26) = (   3.2902200   4.4714249   6.0002472  )
        27           O1  tau(  27) = (   0.0002396   2.9813036   7.9858123  )
        28           O1  tau(  28) = (   3.2902150   2.9813002   7.3038282  )
        29           O1  tau(  29) = (   4.5938453   4.4726049   9.2879030  )
        30           O1  tau(  30) = (   1.9864658   4.4711199   9.2879459  )
        31           Ti1 tau(  31) = (   3.3160408   0.0312979   9.1533790  )
        32           Ti1 tau(  32) = (   0.0342031   4.4824714   9.2635914  )
        33           O1  tau(  33) = (   3.3296961   2.9874083  11.3532073  )
        34           O1  tau(  34) = (   0.0071558   2.9827229  10.6249429  )
        35           O1  tau(  35) = (   1.3339759   4.4780823  12.6303471  )
        36           O1  tau(  36) = (   5.3316377   4.4803543  12.6653953  )
        37           Ti1 tau(  37) = (   0.0318003   0.0267859  12.4824326  )
        38           Ti1 tau(  38) = (   3.3243002   4.4792164  12.4996646  )
        39           O1  tau(  39) = (   0.1017966   3.0039049  14.8467192  )
        40           O1  tau(  40) = (   3.3365867   2.9884115  13.9371009  )
        41           O1  tau(  41) = (   4.6519449   4.4651455  16.1366910  )
        42           O1  tau(  42) = (   2.1329502   4.4467914  16.2189938  )
        43           Ti1 tau(  43) = (   3.3530478   0.0116223  15.7847896  )
        44           Ti1 tau(  44) = (   0.0420906   4.5503417  15.8661587  )
        45           O1  tau(  45) = (   3.2900926   2.9813045   4.7018136  )
        46           O1  tau(  46) = (   1.3039711   4.4726057   6.0039043  )
        47           O1  tau(  47) = (   5.2763189   4.4711207   6.0039473  )
        48           C1  tau(  48) = (   6.0571888   3.1179766  18.9039971  )
        49           O1  tau(  49) = (   0.2335693   3.0433622  17.6694830  )
        50           H1  tau(  50) = (   5.0284728   2.8969007  18.6408099  )
        51           H1  tau(  51) = (   1.1757692   3.2348548  17.8288520  )
        52           H1  tau(  52) = (   6.4315421   2.3664480  19.5988381  )
        53           H1  tau(  53) = (   6.1352977   4.1238860  19.3231673  )

     number of k points=    10  Fermi-Dirac smearing, width (Ry)=  0.0073
                       cart. coord. in units 2pi/alat
        k(    1) = (   0.0000000   0.0000000   0.0000000), wk =   0.1250000
        k(    2) = (   0.0000000   0.0419351   0.0000000), wk =   0.2500000
        k(    3) = (   0.0000000  -0.0838702   0.0000000), wk =   0.1250000
        k(    4) = (   0.0379955   0.0000049   0.0000000), wk =   0.2500000
        k(    5) = (   0.0379955   0.0419400   0.0000000), wk =   0.2500000
        k(    6) = (   0.0379955  -0.0838652   0.0000000), wk =   0.2500000
        k(    7) = (   0.0379955  -0.0419301   0.0000000), wk =   0.2500000
        k(    8) = (  -0.0759910  -0.0000099   0.0000000), wk =   0.1250000
        k(    9) = (  -0.0759910   0.0419252   0.0000000), wk =   0.2500000
        k(   10) = (  -0.0759910  -0.0838800   0.0000000), wk =   0.1250000

     Initial potential from superposition of free atoms

     starting charge  375.99917, renormalised to  392.00000

     negative rho (up, down):  1.693E-02 0.000E+00

     %%%%%%%%%%%%%%%%%%%%%%%%%%%%%%%%%%%%%%%%%%%%%%%%%%%%%%%%%%%%%%%%%%%%%%%%
     %                                                                      %
     % You are using vdW-DF, which was implemented by the Thonhauser group. %
     % Please cite the following two papers that made this development      %
     % possible and the two reviews that describe the various versions:     %
     %                                                                      %
     %   T. Thonhauser et al., PRL 115, 136402 (2015).                      %
     %   T. Thonhauser et al., PRB 76, 125112 (2007).                       %
     %   K. Berland et al., Rep. Prog. Phys. 78, 066501 (2015).             %
     %   D.C. Langreth et al., J. Phys.: Condens. Matter 21, 084203 (2009). %
     %                                                                      %
     %                                                                      %
     % If you are calculating the stress with vdW-DF, please also cite:     %
     %                                                                      %
     %   R. Sabatini et al., J. Phys.: Condens. Matter 24, 424209 (2012).   %
     %                                                                      %
     %%%%%%%%%%%%%%%%%%%%%%%%%%%%%%%%%%%%%%%%%%%%%%%%%%%%%%%%%%%%%%%%%%%%%%%%

     Adding external electric field

     Computed dipole along edir(3) :
        Dipole               -7.1864 Ry au,        -18.2660 Debye
        Dipole field         -0.0136 Ry au,

        Potential amp.        1.2572 Ry
        Total length         46.3494 bohr

     Starting wfcs are  296 atomic wfcs
  @ DRIVER MODE: Message from server: STATUS
  @ DRIVER MODE: Message from server: POSDATA
  @ DRIVER MODE: Reading and sharing cell
  @ DRIVER MODE: Reading and sharing positions
  @ DRIVER MODE: Received positions

     Self-consistent Calculation

     iteration #  1     ecut=    29.40 Ry     beta= 0.05
     Davidson diagonalization with overlap
     c_bands:  1 eigenvalues not converged
     c_bands:  1 eigenvalues not converged
     c_bands:  2 eigenvalues not converged
     c_bands:  1 eigenvalues not converged
     c_bands:  1 eigenvalues not converged
     c_bands:  1 eigenvalues not converged
     ethr =  1.00E-05,  avg # of iterations = 19.1

[...]

     total energy              =   -2696.73483281 Ry
     estimated scf accuracy    <    2609.06692023 Ry

[...]

     iteration #  3     ecut=    29.40 Ry     beta= 0.05
     Davidson diagonalization with overlap
     ethr =  1.00E-02,  avg # of iterations = 15.0

[...]

     iteration # 65     ecut=    29.40 Ry     beta= 0.05
     Davidson diagonalization with overlap
     c_bands:  1 eigenvalues not converged
     ethr =  7.14E-10,  avg # of iterations = 12.3

[...]

     total energy              =   -2932.64531023 Ry
     estimated scf accuracy    <       0.00000011 Ry

     iteration # 72     ecut=    29.40 Ry     beta= 0.05
     Davidson diagonalization with overlap
     ethr =  2.86E-11,  avg # of iterations = 10.6

     negative rho (up, down):  1.737E-02 0.000E+00

     Adding external electric field

     Computed dipole along edir(3) :
        Dipole                1.3733 Ry au,          3.4906 Debye
        Dipole field          0.0026 Ry au,

        Potential amp.       -0.2402 Ry
        Total length         46.3494 bohr

     End of self-consistent calculation

          k = 0.0000 0.0000 0.0000 ( 18029 PWs)   bands (ev):

   -55.4007 -55.3683 -55.3645 -55.3339 -55.2954 -55.2891 -55.2872 -55.2434
   -55.2272 -55.2268 -55.1928 -55.1850 -55.1811 -55.1509 -54.4587 -54.4247
   -31.9763 -31.9082 -31.8633 -31.7741 -31.7281 -31.7046 -31.6973 -31.6961
   -31.6573 -31.6567 -31.6120 -31.6112 -31.6078 -31.6012 -31.5787 -31.5571
   -31.5528 -31.5353 -31.5304 -31.5224 -31.5206 -31.5092 -31.4855 -31.4847
   -31.4841 -31.4649 -31.4595 -31.4561 -31.4258 -31.4195 -31.4108 -31.3910
   -31.3892 -31.3888 -31.3691 -31.3634 -31.3545 -31.3440 -31.3290 -31.3216
   -31.3109 -31.2966 -30.8707 -30.7684 -30.7468 -30.6872 -30.6009 -30.4897
   -20.2597 -16.2481 -15.9813 -15.8464 -15.7421 -15.6198 -15.4918 -15.4798
   -15.3474 -15.2203 -15.1539 -15.1323 -15.0956 -15.0795 -15.0467 -15.0417
   -15.0266 -14.9553 -14.9291 -14.9102 -14.8842 -14.8802 -14.8426 -14.8317
   -14.7909 -14.7842 -14.6383 -14.5590 -14.4980 -14.2593 -12.9591 -12.8396
   -11.2379  -7.0052  -5.2185  -5.0430  -3.5831  -3.4117  -3.3608  -3.3323
    -3.3264  -3.1995  -3.0928  -3.0355  -2.8289  -2.7017  -2.6674  -2.6613
    -2.6241  -2.5853  -2.4700  -2.3810  -2.3549  -2.3417  -2.2951  -2.2883
    -2.2716  -2.2182  -2.1965  -2.1767  -2.1709  -2.0106  -1.9464  -1.8967
    -1.8849  -1.8387  -1.8006  -1.7408  -1.7374  -1.7221  -1.6847  -1.6806
    -1.6595  -1.6274  -1.6126  -1.4403  -1.3929  -1.3640  -1.2699  -1.1764
    -1.0888  -0.9906  -0.9740  -0.9597  -0.9149  -0.8473  -0.8391  -0.8054
    -0.7672  -0.6473  -0.5802  -0.5330  -0.4797  -0.4025  -0.4019  -0.3428
    -0.2050  -0.1906  -0.1824  -0.1669  -0.0635   0.0160   0.0287   0.0882
     0.1377   0.1605   0.2331   0.2528   0.3180   0.3412   0.4064   0.4236
     0.5107   0.5318   0.5459   0.5657   0.5835   0.6752   0.7015   0.7484
     0.7555   0.9104   1.0387   1.1621   1.1760   1.4567   1.5477   1.5676
     1.7268   2.1536   2.2084   3.6972   3.7616   3.8101   3.8188   3.8298
     3.9077   4.1864   4.1928   4.1985   4.2138   4.2229

[...]

          k = 0.0380-0.0419 0.0000 ( 17876 PWs)   bands (ev):

[...]

          k =-0.0760-0.0000 0.0000 ( 17886 PWs)   bands (ev):

[...]

          k =-0.0760-0.0839 0.0000 ( 17948 PWs)   bands (ev):

   -55.3835 -55.3814 -55.3529 -55.3491 -55.2893 -55.2854 -55.2814 -55.2510
   -55.2318 -55.2119 -55.2077 -55.1838 -55.1702 -55.1658 -54.4417 -54.4416
   -31.8262 -31.7794 -31.7778 -31.7041 -31.6800 -31.6764 -31.6641 -31.6461
   -31.6389 -31.6192 -31.6059 -31.6019 -31.5966 -31.5787 -31.5505 -31.5409
   -31.5316 -31.5284 -31.5282 -31.5254 -31.5241 -31.5207 -31.5127 -31.4856
   -31.4790 -31.4758 -31.4732 -31.4726 -31.4711 -31.4695 -31.4654 -31.4511
   -31.4423 -31.4370 -31.4233 -31.4122 -31.4107 -31.3923 -31.3878 -31.3711
   -31.3579 -31.3537 -30.7594 -30.7593 -30.6835 -30.6833 -30.6441 -30.6441
   -20.2562 -15.7764 -15.6852 -15.6104 -15.4212 -15.4100 -15.4011 -15.3945
   -15.2821 -15.2532 -15.2216 -15.1807 -15.1647 -15.1608 -15.1443 -15.1364
   -14.9994 -14.9956 -14.9905 -14.9890 -14.9182 -14.9133 -14.8988 -14.8841
   -14.8459 -14.8413 -14.8256 -14.8197 -14.7193 -14.5768 -12.9409 -12.9402
   -11.2396  -7.0056  -5.2084  -5.0326  -3.1151  -2.9631  -2.8820  -2.8713
    -2.6355  -2.6287  -2.5888  -2.5283  -2.4769  -2.4252  -2.3998  -2.3967
    -2.3191  -2.3151  -2.3082  -2.3028  -2.2704  -2.2671  -2.2237  -2.1997
    -2.1763  -2.1216  -2.1043  -2.0941  -2.0708  -2.0662  -2.0573  -2.0322
    -2.0274  -2.0088  -1.9411  -1.8613  -1.7898  -1.7730  -1.7380  -1.6251
    -1.6148  -1.5777  -1.5380  -1.4947  -1.4742  -1.4496  -1.4029  -1.3509
    -1.2485  -1.1955  -1.1878  -1.1477  -1.0800  -1.0342  -1.0008  -0.9518
    -0.9029  -0.8706  -0.8294  -0.7624  -0.7123  -0.6223  -0.6164  -0.5727
    -0.4324  -0.4270  -0.4016  -0.3909  -0.3881  -0.3023  -0.2885  -0.2431
    -0.1971  -0.1430  -0.1184  -0.1101   0.0860   0.0955   0.1802   0.2727
     0.2826   0.4378   0.4534   0.5201   0.5918   0.6353   0.6758   0.7390
     0.8384   0.8705   0.8936   0.9874   1.0291   1.0347   1.0614   1.9195
     1.9207   2.0227   2.0256   3.8387   3.9112   3.9437   4.0151   4.0759
     4.2061   4.2188   4.2492   4.2551   4.3306   4.3427

     the Fermi energy is     3.7521 ev

!    total energy              =   -2932.64532268 Ry
     estimated scf accuracy    <       0.00000006 Ry
     smearing contrib. (-TS)   =      -0.03689837 Ry
     internal energy E=F+TS    =   -2932.60842431 Ry

     The total energy is F=E-TS. E is the sum of the following terms:
     one-electron contribution =  -24388.91270680 Ry
     hartree contribution      =   12284.23090998 Ry
     xc contribution           =    -483.01496332 Ry
     ewald contribution        =    9655.08477682 Ry
     electric field correction =       0.00355901 Ry

     convergence has been achieved in  72 iterations

     Forces acting on atoms (cartesian axes, Ry/au):

     atom    1 type  1   force =    -0.00034030   -0.00014509    0.09276291
     atom    2 type  1   force =    -0.00024150    0.00065956   -0.18344678
     atom    3 type  2   force =     0.00047508    0.00086297   -0.02413691
     atom    4 type  2   force =     0.00075527    0.00051925    0.04952115
     atom    5 type  2   force =    -0.01310067    0.00029795    0.00325198
     atom    6 type  2   force =     0.01563531   -0.00028130    0.00544317
     atom    7 type  1   force =     0.00018860    0.00090261   -0.00000371
     atom    8 type  1   force =    -0.00021849   -0.00027397   -0.00039291
     atom    9 type  2   force =    -0.00005886    0.00023370   -0.00023681
     atom   10 type  2   force =     0.00013845    0.00048866    0.00163309
     atom   11 type  2   force =    -0.00000490   -0.00046049    0.00003575
     atom   12 type  2   force =    -0.00055711    0.00041064   -0.00027104
     atom   13 type  1   force =     0.00101396   -0.00065073    0.00009438
     atom   14 type  1   force =    -0.00081059    0.00093529    0.00067746
     atom   15 type  2   force =    -0.00065160   -0.00021673   -0.00024436
     atom   16 type  2   force =     0.00065052   -0.00023903   -0.00044370
     atom   17 type  2   force =    -0.00062673    0.00005498    0.00093865
     atom   18 type  2   force =    -0.00046519   -0.00019430    0.00017896
     atom   19 type  1   force =    -0.00010366   -0.00085110    0.00006168
     atom   20 type  1   force =    -0.00044363    0.00004043   -0.00015213
     atom   21 type  2   force =    -0.00005201    0.00001448    0.10499101
     atom   22 type  2   force =    -0.00018360   -0.00130081    0.00095196
     atom   23 type  2   force =    -0.06794603   -0.00003833   -0.02679602
     atom   24 type  2   force =     0.06772089    0.00040093   -0.02688469
     atom   25 type  1   force =    -0.00037644    0.00013566    0.09634624
     atom   26 type  1   force =    -0.00022403   -0.00047626   -0.18357409
     atom   27 type  2   force =     0.00041925    0.00058904   -0.02278134
     atom   28 type  2   force =     0.00079418    0.00033330    0.04922414
     atom   29 type  2   force =    -0.01324312    0.00067934    0.00321837
     atom   30 type  2   force =     0.01571203    0.00023671    0.00536762
     atom   31 type  1   force =     0.00029642   -0.00138068   -0.00016483
     atom   32 type  1   force =    -0.00005935   -0.00014403    0.00029835
     atom   33 type  2   force =     0.00033662   -0.00009894    0.00077699
     atom   34 type  2   force =     0.00036479    0.00036230    0.00037483
     atom   35 type  2   force =    -0.00036096    0.00004728    0.00013440
     atom   36 type  2   force =    -0.00025738    0.00028178    0.00001835
     atom   37 type  1   force =     0.00137190   -0.00001289   -0.00052127
     atom   38 type  1   force =    -0.00076962   -0.00078304    0.00094012
     atom   39 type  2   force =    -0.00064814    0.00019427   -0.00055878
     atom   40 type  2   force =    -0.00062789    0.00037131   -0.00014844
     atom   41 type  2   force =    -0.00064938   -0.00007755    0.00070516
     atom   42 type  2   force =    -0.00078695   -0.00026833    0.00022652
     atom   43 type  1   force =    -0.00037421    0.00097210    0.00036598
     atom   44 type  1   force =     0.00028860    0.00026256    0.00065513
     atom   45 type  2   force =    -0.00005280    0.00003027    0.10495576
     atom   46 type  2   force =    -0.06790185   -0.00057768   -0.02680879
     atom   47 type  2   force =     0.06767736   -0.00010467   -0.02688544
     atom   48 type  3   force =     0.00041540    0.00195146    0.00244855
     atom   49 type  2   force =    -0.00100558    0.00031536    0.00076648
     atom   50 type  4   force =     0.00002289    0.00008658    0.00100411
     atom   51 type  4   force =    -0.00013934   -0.00027883    0.00040006
     atom   52 type  4   force =    -0.00061974   -0.00034047   -0.00057782
     atom   53 type  4   force =    -0.00037589   -0.00347550   -0.00373945

     Total force =     0.368133     Total SCF correction =     0.000494
  @ DRIVER MODE: Message from server: STATUS
  @ DRIVER MODE: Message from server: GETFORCE
  @ DRIVER MODE: Returning v,forces,stress,ensemble

     Writing output data file ./calc.save/
  @ DRIVER MODE: Message from server: EXIT
  @ DRIVE MODE: Exiting

     General routines

     Parallel routines

   This run was terminated on:  10: 1:57   9Sep2021

   JOB DONE.