     Program PWSCF v.6.7GPU starts on 21Jul2021 at 12:58:18

     R & G space division:  proc/nbgrp/npool/nimage =      16
     Reading input from /storage/home/hcoda1/3/ntian30/research/carbon/15Jul_vib/ads_slab/CH3NHH_a/out_0039/pw.inp
Warning: card &CELL ignored
Warning: card   CELL_DYNAMICS='IPI', ignored
Warning: card / ignored

     Current dimensions of program PWSCF are:
     Max number of different atomic species (ntypx) = 10
     Max number of k-points (npk) =  40000
     Max angular momentum in pseudopotentials (lmaxx) =  3
     Presently no symmetry can be used with electric field

     Message from routine cell_base_init:
     DEPRECATED: use true lattice parameter, not A to a.u. conversion factor

     IMPORTANT: XC functional enforced from input :
     Exchange-correlation= BEEF-VDW
                           (   1   4  43  14   2   0   0)
     Any further DFT definition will be discarded
     Please, verify this is what you really want

  @ DRIVER MODE: Connecting to
 qe_1139763_2382402.sched-torque.pace.gatech.edusc44ey6s_scratch
  using UNIX socket
  @ DRIVER MODE: Message from server: STATUS
  @ DRIVER MODE: Message from server: INIT
  @ DRIVER MODE: Receiving replica           0          -1
  @ DRIVER MODE: Receiving encoded integer          25
  @ DRIVER MODE:  SCF:  T  FORCE:  T  STRESS:  F  VC:  F  ENSEMBLE:  F
  @ DRIVER MODE:  SCF:  T  FORCE:  T  STRESS:  F  VC:  F  ENSEMBLE:  F

     Using Slab Decomposition

     bravais-lattice index     =            0
     lattice parameter (alat)  =       1.8897  a.u.
     unit-cell volume          =    6658.9804 (a.u.)^3
     number of atoms/cell      =           54
     number of atomic types    =            5
     number of electrons       =       392.00
     number of Kohn-Sham states=          206
     kinetic-energy cutoff     =      29.3995  Ry
     charge density cutoff     =     293.9946  Ry
     scf convergence threshold =      7.3E-08
     mixing beta               =       0.0500
     number of iterations used =            8  plain     mixing
     Exchange-correlation= BEEF-VDW
                           (   1   4  43  14   2   0   0)

     celldm(1)=   1.889726  celldm(2)=   0.000000  celldm(3)=   0.000000
     celldm(4)=   0.000000  celldm(5)=   0.000000  celldm(6)=   0.000000

     crystal axes: (cart. coord. in units of alat)
               a(1) = (   6.579727   0.000000   0.000000 )
               a(2) = (  -0.000775   5.961596   0.000000 )
               a(3) = (   0.000000   0.000000  25.155947 )

     reciprocal axes: (cart. coord. in units 2 pi/alat)
               b(1) = (  0.151982  0.000020  0.000000 )
               b(2) = (  0.000000  0.167740  0.000000 )
               b(3) = (  0.000000  0.000000  0.039752 )

     PseudoPot. # 1 for Ti read from file:
     /storage/coda1/p-amedford6/0/shared/rich_project_chbe-medford/medford-share/data/pseudos_module/espresso/nninc/pbe/van/Ti.UPF
     MD5 check sum: 8e4df49b7f0d34bbd5052bf3f5ea0213
     Pseudo is Ultrasoft, Zval = 12.0
     Generated by new atomic code, or converted to UPF format
     Using radial grid of  851 points,  6 beta functions with:
                l(1) =   0
                l(2) =   0
                l(3) =   1
                l(4) =   1
                l(5) =   2
                l(6) =   2
     Q(r) pseudized with  8 coefficients,  rinner =    1.000   1.000   1.000
                                                       1.000   1.000

     PseudoPot. # 2 for O  read from file:
     /storage/coda1/p-amedford6/0/shared/rich_project_chbe-medford/medford-share/data/pseudos_module/espresso/nninc/pbe/van/O.UPF
     MD5 check sum: 78c19812648e8988a0fe644b0f25305e
     Pseudo is Ultrasoft, Zval =  6.0
     Generated by new atomic code, or converted to UPF format
     Using radial grid of  737 points,  4 beta functions with:
                l(1) =   0
                l(2) =   0
                l(3) =   1
                l(4) =   1
     Q(r) pseudized with  8 coefficients,  rinner =    0.800   0.800   0.800

     PseudoPot. # 3 for N  read from file:
     /storage/coda1/p-amedford6/0/shared/rich_project_chbe-medford/medford-share/data/pseudos_module/espresso/nninc/pbe/van/N.UPF
     MD5 check sum: 90d10febe142ad51ac9d5be1deb811c4
     Pseudo is Ultrasoft, Zval =  5.0
     Generated by new atomic code, or converted to UPF format
     Using radial grid of  729 points,  4 beta functions with:
                l(1) =   0
                l(2) =   0
                l(3) =   1
                l(4) =   1
     Q(r) pseudized with  8 coefficients,  rinner =    0.800   0.800   0.800

     PseudoPot. # 4 for C  read from file:
     /storage/coda1/p-amedford6/0/shared/rich_project_chbe-medford/medford-share/data/pseudos_module/espresso/nninc/pbe/van/C.UPF
     MD5 check sum: 1a69bf6b8db32088f5b2163dbdb77a27
     Pseudo is Ultrasoft, Zval =  4.0
     Generated by new atomic code, or converted to UPF format
     Using radial grid of  721 points,  4 beta functions with:
                l(1) =   0
                l(2) =   0
                l(3) =   1
                l(4) =   1
     Q(r) pseudized with  8 coefficients,  rinner =    0.800   0.800   0.800

     PseudoPot. # 5 for H  read from file:
     /storage/coda1/p-amedford6/0/shared/rich_project_chbe-medford/medford-share/data/pseudos_module/espresso/nninc/pbe/van/H.UPF
     MD5 check sum: b5ee9d7bfd3a09ee7748110bda690ff7
     Pseudo is Ultrasoft, Zval =  1.0
     Generated by new atomic code, or converted to UPF format
     Using radial grid of  615 points,  1 beta functions with:
                l(1) =   0
     Q(r) pseudized with  8 coefficients,  rinner =    0.800

     atomic species   valence    mass     pseudopotential
        Ti1           12.00    47.86700     Ti( 1.00)
        O1             6.00    15.99900     O ( 1.00)
        N1             5.00    14.00700     N ( 1.00)
        C1             4.00    12.01100     C ( 1.00)
        H1             1.00     1.00800     H ( 1.00)

     Starting magnetic structure
     atomic species   magnetization
        Ti1          0.000
        O1           0.000
        N1           0.000
        C1           0.025
        H1           0.000

     No symmetry found

   Cartesian axes

     site n.     atom                  positions (alat units)
         1           Ti1 tau(   1) = (   0.0004258   2.9801865   6.0000000  )
         2           Ti1 tau(   2) = (   3.2906075   1.4906267   6.0002472  )
         3           O1  tau(   3) = (   0.0006271   0.0005054   7.9858123  )
         4           O1  tau(   4) = (   3.2906025   0.0005020   7.3038282  )
         5           O1  tau(   5) = (   4.5942328   1.4918067   9.2879030  )
         6           O1  tau(   6) = (   1.9868534   1.4903216   9.2879459  )
         7           Ti1 tau(   7) = (   3.2907910   2.8959150   9.1758416  )
         8           Ti1 tau(   8) = (   0.0015273   1.4827037   9.2680791  )
         9           O1  tau(   9) = (   3.2893523   5.9576907  11.3759447  )
        10           O1  tau(  10) = (   0.0116148   5.9584955  10.6183126  )
        11           O1  tau(  11) = (   1.2892553   1.4862333  12.6941169  )
        12           O1  tau(  12) = (   5.2958346   1.4833122  12.6807028  )
        13           Ti1 tau(  13) = (   0.0095698   2.9692159  12.5083673  )
        14           Ti1 tau(  14) = (   3.3108451   1.4743585  12.5306019  )
        15           O1  tau(  15) = (   6.5736105   5.8801748  14.6991865  )
        16           O1  tau(  16) = (   3.2979610   5.9450902  14.0010558  )
        17           O1  tau(  17) = (   4.5273680   1.5185660  16.1654609  )
        18           O1  tau(  18) = (   2.0122787   1.5163527  16.1384539  )
        19           Ti1 tau(  19) = (   3.2802752   2.9921964  15.7561315  )
        20           Ti1 tau(  20) = (   0.0093588   1.3049760  15.8672178  )
        21           O1  tau(  21) = (   3.2904802   0.0005063   4.7018136  )
        22           O1  tau(  22) = (   6.5538635   0.1342075  17.2452287  )
        23           O1  tau(  23) = (   1.3043587   1.4918075   6.0039043  )
        24           O1  tau(  24) = (   5.2767064   1.4903225   6.0039473  )
        25           Ti1 tau(  25) = (   0.0000382   5.9609847   6.0000000  )
        26           Ti1 tau(  26) = (   3.2902200   4.4714249   6.0002472  )
        27           O1  tau(  27) = (   0.0002396   2.9813036   7.9858123  )
        28           O1  tau(  28) = (   3.2902150   2.9813002   7.3038282  )
        29           O1  tau(  29) = (   4.5938453   4.4726049   9.2879030  )
        30           O1  tau(  30) = (   1.9864658   4.4711199   9.2879459  )
        31           Ti1 tau(  31) = (   3.2891106   5.8743827   9.1763621  )
        32           Ti1 tau(  32) = (   0.0006254   4.4649316   9.2693709  )
        33           O1  tau(  33) = (   3.2933707   2.9638296  11.3700534  )
        34           O1  tau(  34) = (   0.0092240   2.9805883  10.6323155  )
        35           O1  tau(  35) = (   1.2923283   4.4540072  12.6594629  )
        36           O1  tau(  36) = (   5.2938616   4.4568750  12.6477176  )
        37           Ti1 tau(  37) = (   0.0202681   5.9396231  12.5027719  )
        38           Ti1 tau(  38) = (   3.3116628   4.4527548  12.5215617  )
        39           O1  tau(  39) = (   6.5466975   3.0260875  14.9671898  )
        40           O1  tau(  40) = (   3.2966604   2.9917109  13.9679302  )
        41           O1  tau(  41) = (   4.5116687   4.4737236  16.2360857  )
        42           O1  tau(  42) = (   2.0028912   4.4646324  16.2202640  )
        43           Ti1 tau(  43) = (   3.2937213   0.0113368  15.7972781  )
        44           Ti1 tau(  44) = (   0.0208052   4.5175143  16.0574476  )
        45           O1  tau(  45) = (   3.2900926   2.9813045   4.7018136  )
        46           O1  tau(  46) = (   1.3039711   4.4726057   6.0039043  )
        47           O1  tau(  47) = (   5.2763189   4.4711207   6.0039473  )
        48           N1  tau(  48) = (   6.3337458   3.3624127  18.1270434  )
        49           C1  tau(  49) = (   0.8795605   3.2639204  19.0799812  )
        50           H1  tau(  50) = (   1.4196110   4.2071110  19.0760701  )
        51           H1  tau(  51) = (   0.5395241   3.0459488  20.0957609  )
        52           H1  tau(  52) = (   1.5475163   2.4696122  18.7548312  )
        53           H1  tau(  53) = (   5.6940081   4.0973896  18.4182617  )
        54           H1  tau(  54) = (   5.7906660   2.4898151  18.1411682  )

     number of k points=    10  Fermi-Dirac smearing, width (Ry)=  0.0073
                       cart. coord. in units 2pi/alat
        k(    1) = (   0.0000000   0.0000000   0.0000000), wk =   0.0625000
        k(    2) = (   0.0000000   0.0419351   0.0000000), wk =   0.1250000
        k(    3) = (   0.0000000  -0.0838702   0.0000000), wk =   0.0625000
        k(    4) = (   0.0379955   0.0000049   0.0000000), wk =   0.1250000
        k(    5) = (   0.0379955   0.0419400   0.0000000), wk =   0.1250000
        k(    6) = (   0.0379955  -0.0838652   0.0000000), wk =   0.1250000
        k(    7) = (   0.0379955  -0.0419301   0.0000000), wk =   0.1250000
[...]
        k(   10) = (  -0.0759910  -0.0838800   0.0000000), wk =   0.0625000

     Initial potential from superposition of free atoms

     starting charge  375.99915, renormalised to  392.00000

     negative rho (up, down):  8.110E-03 8.116E-03

     %%%%%%%%%%%%%%%%%%%%%%%%%%%%%%%%%%%%%%%%%%%%%%%%%%%%%%%%%%%%%%%%%%%%%%%%
     %                                                                      %
     % You are using vdW-DF, which was implemented by the Thonhauser group. %
     % Please cite the following two papers that made this development      %
     % possible and the two reviews that describe the various versions:     %
     %                                                                      %
     %   T. Thonhauser et al., PRL 115, 136402 (2015).                      %
     %   T. Thonhauser et al., PRB 76, 125112 (2007).                       %
     %   K. Berland et al., Rep. Prog. Phys. 78, 066501 (2015).             %
     %   D.C. Langreth et al., J. Phys.: Condens. Matter 21, 084203 (2009). %
     %                                                                      %
     %                                                                      %
     % If you are calculating the stress with vdW-DF, please also cite:     %
     %                                                                      %
     %   R. Sabatini et al., J. Phys.: Condens. Matter 24, 424209 (2012).   %
     %                                                                      %
     %%%%%%%%%%%%%%%%%%%%%%%%%%%%%%%%%%%%%%%%%%%%%%%%%%%%%%%%%%%%%%%%%%%%%%%%

     Adding external electric field

     Computed dipole along edir(3) :
        Dipole               -7.5471 Ry au,        -19.1827 Debye
        Dipole field         -0.0142 Ry au,

        Potential amp.        1.3202 Ry
        Total length         46.3494 bohr

[...]

     Starting wfcs are  297 atomic wfcs
  @ DRIVER MODE: Message from server: STATUS
  @ DRIVER MODE: Message from server: POSDATA
  @ DRIVER MODE: Reading and sharing cell
  @ DRIVER MODE: Reading and sharing positions
  @ DRIVER MODE: Received positions

     Self-consistent Calculation

     iteration #  1     ecut=    29.40 Ry     beta= 0.05
     Davidson diagonalization with overlap
     c_bands:  1 eigenvalues not converged
     c_bands:  2 eigenvalues not converged
     c_bands:  1 eigenvalues not converged
     c_bands:  1 eigenvalues not converged
     c_bands:  1 eigenvalues not converged
     c_bands:  1 eigenvalues not converged
     c_bands:  1 eigenvalues not converged
     c_bands:  2 eigenvalues not converged
     c_bands:  1 eigenvalues not converged
     c_bands:  1 eigenvalues not converged
     c_bands:  1 eigenvalues not converged
     c_bands:  1 eigenvalues not converged
     ethr =  1.00E-05,  avg # of iterations = 19.6

[...]

     total energy              =   -2679.39412713 Ry
     estimated scf accuracy    <    2680.81677970 Ry

     total magnetization       =     0.00 Bohr mag/cell
     absolute magnetization    =     0.01 Bohr mag/cell

[...]

     iteration #  3     ecut=    29.40 Ry     beta= 0.05
     Davidson diagonalization with overlap
     ethr =  1.00E-02,  avg # of iterations = 14.2

[...]

     iteration # 71     ecut=    29.40 Ry     beta= 0.05
     Davidson diagonalization with overlap
     ethr =  1.60E-10,  avg # of iterations =  4.5

[...]

     total energy              =   -2921.63316521 Ry
     estimated scf accuracy    <       0.00000015 Ry

[...]

     iteration # 74     ecut=    29.40 Ry     beta= 0.05
     Davidson diagonalization with overlap
     c_bands:  2 eigenvalues not converged
     c_bands:  2 eigenvalues not converged
     ethr =  3.80E-11,  avg # of iterations = 14.7

     negative rho (up, down):  8.574E-03 8.574E-03

[...]

     Adding external electric field

     Computed dipole along edir(3) :
        Dipole                1.2968 Ry au,          3.2961 Debye
        Dipole field          0.0024 Ry au,

        Potential amp.       -0.2269 Ry
        Total length         46.3494 bohr

     Magnetic moment per site  (integrated on atomic sphere of radius R)
     atom   1 (R=0.738)  charge=  8.0426  magn= -0.0007
     atom   2 (R=0.738)  charge=  8.0244  magn= -0.0000
     atom   3 (R=0.738)  charge=  5.0120  magn=  0.0000
     atom   4 (R=0.738)  charge=  5.0490  magn= -0.0000
     atom   5 (R=0.738)  charge=  5.0182  magn= -0.0000
     atom   6 (R=0.738)  charge=  5.0186  magn= -0.0000
     atom   7 (R=0.738)  charge=  8.0245  magn= -0.0001
     atom   8 (R=0.738)  charge=  8.0256  magn= -0.0001
     atom   9 (R=0.738)  charge=  5.0259  magn=  0.0001
     atom  10 (R=0.738)  charge=  5.0261  magn= -0.0000
     atom  11 (R=0.738)  charge=  5.0131  magn=  0.0000
     atom  12 (R=0.738)  charge=  5.0142  magn=  0.0000
     atom  13 (R=0.738)  charge=  8.0323  magn= -0.0001
     atom  14 (R=0.738)  charge=  8.0300  magn= -0.0006
     atom  15 (R=0.738)  charge=  5.0262  magn= -0.0001
     atom  16 (R=0.738)  charge=  5.0222  magn=  0.0003
     atom  17 (R=0.738)  charge=  4.9995  magn=  0.0002
     atom  18 (R=0.738)  charge=  5.0035  magn=  0.0002
     atom  19 (R=0.738)  charge=  8.0637  magn= -0.0029
     atom  20 (R=0.738)  charge=  8.0765  magn= -0.0004
     atom  21 (R=0.738)  charge=  4.8971  magn=  0.0000
     atom  22 (R=0.738)  charge=  4.9759  magn=  0.0000
     atom  23 (R=0.738)  charge=  5.0093  magn=  0.0001
     atom  24 (R=0.738)  charge=  5.0095  magn=  0.0001
     atom  25 (R=0.738)  charge=  8.0427  magn= -0.0007
     atom  26 (R=0.738)  charge=  8.0244  magn= -0.0000
     atom  27 (R=0.738)  charge=  5.0118  magn=  0.0000
     atom  28 (R=0.738)  charge=  5.0493  magn= -0.0000
     atom  29 (R=0.738)  charge=  5.0191  magn= -0.0000
     atom  30 (R=0.738)  charge=  5.0193  magn= -0.0000
     atom  31 (R=0.738)  charge=  8.0246  magn= -0.0000
     atom  32 (R=0.738)  charge=  8.0257  magn= -0.0000
     atom  33 (R=0.738)  charge=  5.0254  magn=  0.0001
     atom  34 (R=0.738)  charge=  5.0228  magn= -0.0000
     atom  35 (R=0.738)  charge=  5.0162  magn=  0.0000
     atom  36 (R=0.738)  charge=  5.0179  magn=  0.0000
     atom  37 (R=0.738)  charge=  8.0280  magn= -0.0001
     atom  38 (R=0.738)  charge=  8.0303  magn= -0.0007
     atom  39 (R=0.738)  charge=  5.0062  magn= -0.0000
     atom  40 (R=0.738)  charge=  5.0343  magn=  0.0002
     atom  41 (R=0.738)  charge=  4.9975  magn=  0.0002
     atom  42 (R=0.738)  charge=  5.0021  magn=  0.0002
     atom  43 (R=0.738)  charge=  8.0613  magn= -0.0033
     atom  44 (R=0.738)  charge=  8.0414  magn= -0.0004
     atom  45 (R=0.738)  charge=  4.8972  magn= -0.0000
     atom  46 (R=0.738)  charge=  5.0093  magn=  0.0001
     atom  47 (R=0.738)  charge=  5.0095  magn=  0.0001
     atom  48 (R=0.420)  charge=  1.3368  magn= -0.0000
     atom  49 (R=0.448)  charge=  0.8445  magn=  0.0000
     atom  50 (R=0.420)  charge=  0.4443  magn= -0.0000
     atom  51 (R=0.420)  charge=  0.4453  magn= -0.0000
     atom  52 (R=0.420)  charge=  0.4441  magn= -0.0000
     atom  53 (R=0.420)  charge=  0.4503  magn=  0.0000
     atom  54 (R=0.420)  charge=  0.4438  magn=  0.0000

     End of self-consistent calculation

 ------ SPIN UP ------------

          k = 0.0000 0.0000 0.0000 ( 18029 PWs)   bands (ev):

   -55.4334 -55.3969 -55.3836 -55.3574 -55.3495 -55.3141 -55.3124 -55.2779
   -55.2535 -55.2354 -55.2190 -55.2153 -55.1817 -55.1166 -54.4141 -54.3801
   -32.0023 -31.8891 -31.8764 -31.8008 -31.7485 -31.7430 -31.7395 -31.7211
   -31.6737 -31.6723 -31.6440 -31.6417 -31.6283 -31.6191 -31.6031 -31.5989
   -31.5890 -31.5767 -31.5713 -31.5500 -31.5358 -31.5327 -31.5052 -31.4977
   -31.4898 -31.4864 -31.4842 -31.4560 -31.4430 -31.4404 -31.4342 -31.4153
   -31.4141 -31.4098 -31.4031 -31.4002 -31.3671 -31.3561 -31.3435 -31.3266
   -31.3227 -31.3001 -30.8233 -30.7290 -30.7070 -30.6397 -30.5529 -30.4420
   -16.2908 -16.1470 -15.9744 -15.8272 -15.7502 -15.6327 -15.5177 -15.5011
   -15.3648 -15.2828 -15.1638 -15.1387 -15.1194 -15.0965 -15.0853 -15.0690
   -14.9781 -14.9725 -14.9584 -14.9273 -14.9248 -14.8799 -14.8721 -14.8307
   -14.8105 -14.8079 -14.6843 -14.5928 -14.5201 -14.2820 -12.9164 -12.7990
   -10.2150  -6.2679  -4.8240  -3.9580  -3.6084  -3.4542  -3.3642  -3.3364
    -3.3251  -3.1903  -3.0444  -2.8943  -2.8466  -2.8361  -2.7211  -2.6478
    -2.6380  -2.6183  -2.4633  -2.4320  -2.3888  -2.3418  -2.2980  -2.2433
    -2.2244  -2.2181  -2.2032  -2.1807  -2.1707  -2.0539  -2.0010  -1.9174
    -1.8601  -1.8374  -1.7871  -1.7657  -1.7435  -1.7232  -1.7137  -1.6693
    -1.6582  -1.6282  -1.5725  -1.4621  -1.3626  -1.3097  -1.1919  -1.0708
    -1.0307  -1.0179  -0.9779  -0.9352  -0.9196  -0.8546  -0.8105  -0.7802
    -0.7157  -0.6636  -0.6013  -0.5530  -0.4824  -0.4677  -0.4205  -0.3669
    -0.2534  -0.2159  -0.2010  -0.1751  -0.0820  -0.0459  -0.0011   0.0819
     0.0921   0.1078   0.2080   0.2213   0.2914   0.3376   0.3550   0.4476
     0.4857   0.4954   0.5009   0.5249   0.5514   0.6027   0.6406   0.6687
     0.7391   0.8644   1.0800   1.1543   1.1791   1.5053   1.5144   1.6089
     1.7923   2.1850   2.2333   3.6641   3.7352   3.8108   3.8158   3.8367
     3.9018   4.1391   4.1616   4.1692   4.1755   4.1972

[...]

          k =-0.0760-0.0000 0.0000 ( 17886 PWs)   bands (ev):

[...]

 ------ SPIN DOWN ----------

[...]

          k = 0.0380-0.0419 0.0000 ( 17876 PWs)   bands (ev):

[...]

          k =-0.0760-0.0839 0.0000 ( 17948 PWs)   bands (ev):

   -55.4194 -55.4130 -55.3678 -55.3677 -55.3559 -55.3163 -55.2968 -55.2934
   -55.2442 -55.2380 -55.2341 -55.1988 -55.1982 -55.1185 -54.3972 -54.3969
   -31.8095 -31.8068 -31.8047 -31.7210 -31.6957 -31.6919 -31.6918 -31.6591
   -31.6590 -31.6435 -31.6361 -31.6341 -31.6290 -31.6001 -31.5936 -31.5733
   -31.5708 -31.5666 -31.5652 -31.5642 -31.5602 -31.5562 -31.5181 -31.5169
   -31.5100 -31.5086 -31.5063 -31.4898 -31.4875 -31.4873 -31.4855 -31.4711
   -31.4673 -31.4510 -31.4471 -31.4336 -31.4314 -31.4287 -31.3814 -31.3794
   -31.3773 -31.3287 -30.7198 -30.7195 -30.6359 -30.6357 -30.5963 -30.5962
   -16.1073 -15.7794 -15.6876 -15.6401 -15.4668 -15.4376 -15.4211 -15.4059
   -15.2734 -15.2556 -15.2315 -15.2035 -15.1813 -15.1466 -15.1372 -15.1343
   -15.0550 -15.0409 -15.0339 -15.0181 -14.9520 -14.9422 -14.9399 -14.9325
   -14.8821 -14.8786 -14.8157 -14.7860 -14.7830 -14.5730 -12.9005 -12.9005
   -10.2183  -6.2385  -4.8210  -3.9200  -2.9580  -2.9297  -2.8941  -2.8905
    -2.6822  -2.6410  -2.6056  -2.5800  -2.4902  -2.4504  -2.4357  -2.4272
    -2.3558  -2.3391  -2.3209  -2.2761  -2.2700  -2.2563  -2.2343  -2.2042
    -2.1824  -2.1628  -2.1534  -2.1348  -2.0885  -2.0773  -2.0519  -2.0375
    -2.0346  -2.0159  -1.9881  -1.9422  -1.8153  -1.8071  -1.7400  -1.6405
    -1.6357  -1.5591  -1.5459  -1.5104  -1.4854  -1.4660  -1.4235  -1.2505
    -1.2069  -1.1801  -1.1706  -1.1130  -1.0496  -1.0257  -0.9555  -0.9399
    -0.9213  -0.8172  -0.7729  -0.7581  -0.6683  -0.6559  -0.5777  -0.5117
    -0.4680  -0.4421  -0.3948  -0.3897  -0.3875  -0.3399  -0.3324  -0.2513
    -0.2042  -0.1678  -0.1537  -0.1240   0.0732   0.0839   0.1101   0.2504
     0.2796   0.4028   0.4366   0.4886   0.5639   0.5966   0.6780   0.7135
     0.8425   0.8722   0.8740   0.9462   0.9576   1.0196   1.0291   1.9654
     1.9660   2.0531   2.0534   3.8183   3.8966   3.9252   3.9672   4.0790
     4.1539   4.1792   4.2000   4.2493   4.2519   4.3159

     the Fermi energy is     3.7279 ev

!    total energy              =   -2921.63317555 Ry
     estimated scf accuracy    <       0.00000004 Ry
     smearing contrib. (-TS)   =      -0.03709349 Ry
     internal energy E=F+TS    =   -2921.59608206 Ry

     The total energy is F=E-TS. E is the sum of the following terms:
     one-electron contribution =  -24028.50963430 Ry
     hartree contribution      =   12103.33246328 Ry
     xc contribution           =    -481.74323145 Ry
     ewald contribution        =    9485.32114692 Ry
     electric field correction =       0.00317349 Ry

     total magnetization       =    -0.01 Bohr mag/cell
     absolute magnetization    =     0.02 Bohr mag/cell

     convergence has been achieved in  74 iterations

     Forces acting on atoms (cartesian axes, Ry/au):

     atom    1 type  1   force =     0.00003072   -0.00021489    0.09330022
     atom    2 type  1   force =    -0.00019001   -0.00036446   -0.17832304
     atom    3 type  2   force =     0.00002844   -0.00039929   -0.02020848
     atom    4 type  2   force =    -0.00002702   -0.00195027    0.05878958
     atom    5 type  2   force =    -0.01020773   -0.00111705    0.00777427
     atom    6 type  2   force =     0.01168135   -0.00039750    0.00693953
     atom    7 type  1   force =    -0.00049061    0.00210567   -0.01457452
     atom    8 type  1   force =     0.00024685   -0.00049444   -0.00480342
     atom    9 type  2   force =     0.00015244    0.00011848   -0.00005548
     atom   10 type  2   force =    -0.00113740    0.00137566    0.00052372
     atom   11 type  2   force =    -0.00011519    0.00015316    0.00005159
     atom   12 type  2   force =    -0.00002238    0.00036008    0.00022770
     atom   13 type  1   force =    -0.00004885   -0.00018551   -0.00018691
     atom   14 type  1   force =    -0.00015139    0.00011811    0.00027862
     atom   15 type  2   force =    -0.00020479   -0.00027131    0.00009413
     atom   16 type  2   force =    -0.00022297    0.00019949    0.00018342
     atom   17 type  2   force =     0.00012380   -0.00015942    0.00006703
     atom   18 type  2   force =    -0.00004076   -0.00021113    0.00017954
     atom   19 type  1   force =    -0.00028246    0.00034978    0.00047148
     atom   20 type  1   force =     0.00001101    0.00004657   -0.00045407
     atom   21 type  2   force =     0.00002778   -0.00006249    0.10394103
     atom   22 type  2   force =     0.00022770    0.00034804    0.00017568
     atom   23 type  2   force =    -0.07040909   -0.00015617   -0.02693624
     atom   24 type  2   force =     0.07024893    0.00028562   -0.02698305
     atom   25 type  1   force =    -0.00001419   -0.00014736    0.09282241
     atom   26 type  1   force =    -0.00021083   -0.00048613   -0.17833953
     atom   27 type  2   force =     0.00008699   -0.00026835   -0.01927720
     atom   28 type  2   force =     0.00004327   -0.00171609    0.05812904
     atom   29 type  2   force =    -0.01073013   -0.00111262    0.00833483
     atom   30 type  2   force =     0.01207750   -0.00083657    0.00745700
     atom   31 type  1   force =    -0.00039997    0.00595398   -0.01544599
     atom   32 type  1   force =     0.00022372   -0.00004257   -0.00517739
     atom   33 type  2   force =    -0.00007854    0.00001146    0.00008597
     atom   34 type  2   force =    -0.00101476   -0.00248525   -0.00002079
     atom   35 type  2   force =    -0.00007233    0.00024049   -0.00007036
     atom   36 type  2   force =    -0.00011143    0.00009669   -0.00000684
     atom   37 type  1   force =    -0.00002637    0.00006241   -0.00022483
     atom   38 type  1   force =    -0.00007881    0.00000359    0.00010249
     atom   39 type  2   force =     0.00022015   -0.00005145    0.00014958
     atom   40 type  2   force =    -0.00030227    0.00023988   -0.00004185
     atom   41 type  2   force =     0.00016160    0.00049037    0.00005538
     atom   42 type  2   force =    -0.00005618    0.00014173    0.00033524
     atom   43 type  1   force =    -0.00031757    0.00024850    0.00009027
     atom   44 type  1   force =    -0.00005200   -0.00040701    0.00007905
     atom   45 type  2   force =     0.00001936   -0.00007264    0.10391413
     atom   46 type  2   force =    -0.07038577   -0.00009863   -0.02688589
     atom   47 type  2   force =     0.07023244    0.00032749   -0.02693600
     atom   48 type  3   force =    -0.00531089   -0.01241553   -0.00053931
     atom   49 type  4   force =    -0.00020166   -0.00011850   -0.00009409
     atom   50 type  5   force =     0.00074507    0.00103947   -0.00005198
     atom   51 type  5   force =     0.00024953    0.00026441   -0.00051872
     atom   52 type  5   force =     0.00017660   -0.00038814    0.00003124
     atom   53 type  5   force =    -0.00056354   -0.00013472    0.00170305
     atom   54 type  5   force =     0.00646260    0.01218439   -0.00013124

     Total force =     0.366747     Total SCF correction =     0.000359
  @ DRIVER MODE: Message from server: STATUS
  @ DRIVER MODE: Message from server: GETFORCE
  @ DRIVER MODE: Returning v,forces,stress,ensemble

     Writing output data file ./calc.save/
  @ DRIVER MODE: Message from server: EXIT
  @ DRIVE MODE: Exiting

     General routines

     Parallel routines

   This run was terminated on:  13:30:30  21Jul2021

   JOB DONE.