     Program PWSCF v.6.7GPU starts on 24Aug2021 at  6:37:18

     R & G space division:  proc/nbgrp/npool/nimage =       6
     Reading input from /storage/home/hcoda1/3/ntian30/research/carbon/CH2_vib/ads_slab/CH2NNHH_a/out_0022/pw.inp
Warning: card &CELL ignored
Warning: card   CELL_DYNAMICS='IPI', ignored
Warning: card / ignored

     Current dimensions of program PWSCF are:
     Max number of different atomic species (ntypx) = 10
     Max number of k-points (npk) =  40000
     Max angular momentum in pseudopotentials (lmaxx) =  3
     Presently no symmetry can be used with electric field

     Message from routine cell_base_init:
     DEPRECATED: use true lattice parameter, not A to a.u. conversion factor

     IMPORTANT: XC functional enforced from input :
     Exchange-correlation= BEEF-VDW
                           (   1   4  43  14   2   0   0)
     Any further DFT definition will be discarded
     Please, verify this is what you really want

  @ DRIVER MODE: Connecting to
 qe_1139763_2632807.sched-torque.pace.gatech.edu_7haazlo_scratch
  using UNIX socket
  @ DRIVER MODE: Message from server: STATUS
  @ DRIVER MODE: Message from server: INIT
  @ DRIVER MODE: Receiving replica           0          -1
  @ DRIVER MODE: Receiving encoded integer          25
  @ DRIVER MODE:  SCF:  T  FORCE:  T  STRESS:  F  VC:  F  ENSEMBLE:  F
  @ DRIVER MODE:  SCF:  T  FORCE:  T  STRESS:  F  VC:  F  ENSEMBLE:  F

     Using Slab Decomposition

     bravais-lattice index     =            0
     lattice parameter (alat)  =       1.8897  a.u.
     unit-cell volume          =    6658.9804 (a.u.)^3
     number of atoms/cell      =           54
     number of atomic types    =            5
     number of electrons       =       396.00
     number of Kohn-Sham states=          208
     kinetic-energy cutoff     =      29.3995  Ry
     charge density cutoff     =     293.9946  Ry
     scf convergence threshold =      7.3E-08
     mixing beta               =       0.0500
     number of iterations used =            8  plain     mixing
     Exchange-correlation= BEEF-VDW
                           (   1   4  43  14   2   0   0)

     celldm(1)=   1.889726  celldm(2)=   0.000000  celldm(3)=   0.000000
     celldm(4)=   0.000000  celldm(5)=   0.000000  celldm(6)=   0.000000

     crystal axes: (cart. coord. in units of alat)
               a(1) = (   6.579727   0.000000   0.000000 )
               a(2) = (  -0.000775   5.961596   0.000000 )
               a(3) = (   0.000000   0.000000  25.155947 )

     reciprocal axes: (cart. coord. in units 2 pi/alat)
               b(1) = (  0.151982  0.000020  0.000000 )
               b(2) = (  0.000000  0.167740  0.000000 )
               b(3) = (  0.000000  0.000000  0.039752 )

     PseudoPot. # 1 for Ti read from file:
     /storage/coda1/p-amedford6/0/shared/rich_project_chbe-medford/medford-share/data/pseudos_module/espresso/nninc/pbe/van/Ti.UPF
     MD5 check sum: 8e4df49b7f0d34bbd5052bf3f5ea0213
     Pseudo is Ultrasoft, Zval = 12.0
     Generated by new atomic code, or converted to UPF format
     Using radial grid of  851 points,  6 beta functions with:
                l(1) =   0
                l(2) =   0
                l(3) =   1
                l(4) =   1
                l(5) =   2
                l(6) =   2
     Q(r) pseudized with  8 coefficients,  rinner =    1.000   1.000   1.000
                                                       1.000   1.000

     PseudoPot. # 2 for O  read from file:
     /storage/coda1/p-amedford6/0/shared/rich_project_chbe-medford/medford-share/data/pseudos_module/espresso/nninc/pbe/van/O.UPF
     MD5 check sum: 78c19812648e8988a0fe644b0f25305e
     Pseudo is Ultrasoft, Zval =  6.0
     Generated by new atomic code, or converted to UPF format
     Using radial grid of  737 points,  4 beta functions with:
                l(1) =   0
                l(2) =   0
                l(3) =   1
                l(4) =   1
     Q(r) pseudized with  8 coefficients,  rinner =    0.800   0.800   0.800

     PseudoPot. # 3 for N  read from file:
     /storage/coda1/p-amedford6/0/shared/rich_project_chbe-medford/medford-share/data/pseudos_module/espresso/nninc/pbe/van/N.UPF
     MD5 check sum: 90d10febe142ad51ac9d5be1deb811c4
     Pseudo is Ultrasoft, Zval =  5.0
     Generated by new atomic code, or converted to UPF format
     Using radial grid of  729 points,  4 beta functions with:
                l(1) =   0
                l(2) =   0
                l(3) =   1
                l(4) =   1
     Q(r) pseudized with  8 coefficients,  rinner =    0.800   0.800   0.800

     PseudoPot. # 4 for C  read from file:
     /storage/coda1/p-amedford6/0/shared/rich_project_chbe-medford/medford-share/data/pseudos_module/espresso/nninc/pbe/van/C.UPF
     MD5 check sum: 1a69bf6b8db32088f5b2163dbdb77a27
     Pseudo is Ultrasoft, Zval =  4.0
     Generated by new atomic code, or converted to UPF format
     Using radial grid of  721 points,  4 beta functions with:
                l(1) =   0
                l(2) =   0
                l(3) =   1
                l(4) =   1
     Q(r) pseudized with  8 coefficients,  rinner =    0.800   0.800   0.800

     PseudoPot. # 5 for H  read from file:
     /storage/coda1/p-amedford6/0/shared/rich_project_chbe-medford/medford-share/data/pseudos_module/espresso/nninc/pbe/van/H.UPF
     MD5 check sum: b5ee9d7bfd3a09ee7748110bda690ff7
     Pseudo is Ultrasoft, Zval =  1.0
     Generated by new atomic code, or converted to UPF format
     Using radial grid of  615 points,  1 beta functions with:
                l(1) =   0
     Q(r) pseudized with  8 coefficients,  rinner =    0.800

     atomic species   valence    mass     pseudopotential
        Ti1           12.00    47.86700     Ti( 1.00)
        O1             6.00    15.99900     O ( 1.00)
        N1             5.00    14.00700     N ( 1.00)
        C1             4.00    12.01100     C ( 1.00)
        H1             1.00     1.00800     H ( 1.00)

     No symmetry found

   Cartesian axes

     site n.     atom                  positions (alat units)
         1           Ti1 tau(   1) = (   0.0004258   2.9801865   6.0000000  )
         2           Ti1 tau(   2) = (   3.2906075   1.4906267   6.0002472  )
         3           O1  tau(   3) = (   0.0006271   0.0005054   7.9858123  )
         4           O1  tau(   4) = (   3.2906025   0.0005020   7.3038282  )
         5           O1  tau(   5) = (   4.5942328   1.4918067   9.2879030  )
         6           O1  tau(   6) = (   1.9868534   1.4903216   9.2879459  )
         7           Ti1 tau(   7) = (   3.2907910   2.8959150   9.1758416  )
         8           Ti1 tau(   8) = (   0.0015273   1.4827037   9.2680791  )
         9           O1  tau(   9) = (   3.2741875   5.9357071  11.3735532  )
        10           O1  tau(  10) = (   0.0116148   5.9584955  10.6183126  )
        11           O1  tau(  11) = (   1.2759687   1.4857368  12.6615302  )
        12           O1  tau(  12) = (   5.2764777   1.4850508  12.6403612  )
        13           Ti1 tau(  13) = (   6.5724762   2.9646551  12.5117882  )
        14           Ti1 tau(  14) = (   3.2886223   1.4652571  12.5194246  )
        15           O1  tau(  15) = (   6.5416971   0.0664024  14.6986244  )
        16           O1  tau(  16) = (   3.2828258   5.9593040  13.9967703  )
        17           O1  tau(  17) = (   4.5136565   1.4796660  16.2299008  )
        18           O1  tau(  18) = (   2.0038615   1.4742267  16.2123189  )
        19           Ti1 tau(  19) = (   3.2480181   2.9445974  15.7466143  )
        20           Ti1 tau(  20) = (   6.5118905   1.3801257  16.1190456  )
        21           O1  tau(  21) = (   3.2904802   0.0005063   4.7018136  )
        22           O1  tau(  22) = (   6.5538845   5.8109167  17.2256470  )
        23           O1  tau(  23) = (   1.3043587   1.4918075   6.0039043  )
        24           O1  tau(  24) = (   5.2767064   1.4903225   6.0039473  )
        25           Ti1 tau(  25) = (   0.0000382   5.9609847   6.0000000  )
        26           Ti1 tau(  26) = (   3.2902200   4.4714249   6.0002472  )
        27           O1  tau(  27) = (   0.0002396   2.9813036   7.9858123  )
        28           O1  tau(  28) = (   3.2902150   2.9813002   7.3038282  )
        29           O1  tau(  29) = (   4.5938453   4.4726049   9.2879030  )
        30           O1  tau(  30) = (   1.9864658   4.4711199   9.2879459  )
        31           Ti1 tau(  31) = (   3.2891106   5.8743827   9.1763621  )
        32           Ti1 tau(  32) = (   0.0006254   4.4649316   9.2693709  )
        33           O1  tau(  33) = (   3.2754078   2.9701464  11.3677572  )
        34           O1  tau(  34) = (   0.0092240   2.9805883  10.6323155  )
        35           O1  tau(  35) = (   1.2711598   4.4556272  12.7031535  )
        36           O1  tau(  36) = (   5.2783420   4.4558858  12.6781970  )
        37           Ti1 tau(  37) = (   0.0002938   5.9583472  12.5066983  )
        38           Ti1 tau(  38) = (   3.2916940   4.4447674  12.5292973  )
        39           O1  tau(  39) = (   6.5347695   2.9176514  14.9891124  )
        40           O1  tau(  40) = (   3.2818703   2.9467213  13.9608579  )
        41           O1  tau(  41) = (   4.5039121   4.4250859  16.1805084  )
        42           O1  tau(  42) = (   2.0002864   4.4376668  16.1101511  )
        43           Ti1 tau(  43) = (   3.2613398   5.9375382  15.7939200  )
        44           Ti1 tau(  44) = (   0.0097882   4.6113729  15.8292928  )
        45           O1  tau(  45) = (   3.2900926   2.9813045   4.7018136  )
        46           O1  tau(  46) = (   1.3039711   4.4726057   6.0039043  )
        47           O1  tau(  47) = (   5.2763189   4.4711207   6.0039473  )
        48           N1  tau(  48) = (   6.5527080   2.6566917  18.2311642  )
        49           C1  tau(  49) = (   0.9950107   2.5313988  18.9921798  )
        50           H1  tau(  50) = (   0.9966315   2.9146593  20.0110098  )
        51           H1  tau(  51) = (   1.8622571   2.0264067  18.6108951  )
        52           N1  tau(  52) = (   5.4094651   3.2293427  18.7544413  )
        53           H1  tau(  53) = (   5.6216840   3.8708726  19.5154782  )
        54           H1  tau(  54) = (   4.9168071   3.7283298  18.0160565  )

     number of k points=    10  Fermi-Dirac smearing, width (Ry)=  0.0073
                       cart. coord. in units 2pi/alat
        k(    1) = (   0.0000000   0.0000000   0.0000000), wk =   0.1250000
        k(    2) = (   0.0000000   0.0419351   0.0000000), wk =   0.2500000
        k(    3) = (   0.0000000  -0.0838702   0.0000000), wk =   0.1250000
        k(    4) = (   0.0379955   0.0000049   0.0000000), wk =   0.2500000
        k(    5) = (   0.0379955   0.0419400   0.0000000), wk =   0.2500000
        k(    6) = (   0.0379955  -0.0838652   0.0000000), wk =   0.2500000
        k(    7) = (   0.0379955  -0.0419301   0.0000000), wk =   0.2500000
        k(    8) = (  -0.0759910  -0.0000099   0.0000000), wk =   0.1250000
        k(    9) = (  -0.0759910   0.0419252   0.0000000), wk =   0.2500000
        k(   10) = (  -0.0759910  -0.0838800   0.0000000), wk =   0.1250000

     Initial potential from superposition of free atoms

     starting charge  379.99915, renormalised to  396.00000

     negative rho (up, down):  1.580E-02 0.000E+00

     %%%%%%%%%%%%%%%%%%%%%%%%%%%%%%%%%%%%%%%%%%%%%%%%%%%%%%%%%%%%%%%%%%%%%%%%
     %                                                                      %
     % You are using vdW-DF, which was implemented by the Thonhauser group. %
     % Please cite the following two papers that made this development      %
     % possible and the two reviews that describe the various versions:     %
     %                                                                      %
     %   T. Thonhauser et al., PRL 115, 136402 (2015).                      %
     %   T. Thonhauser et al., PRB 76, 125112 (2007).                       %
     %   K. Berland et al., Rep. Prog. Phys. 78, 066501 (2015).             %
     %   D.C. Langreth et al., J. Phys.: Condens. Matter 21, 084203 (2009). %
     %                                                                      %
     %                                                                      %
     % If you are calculating the stress with vdW-DF, please also cite:     %
     %                                                                      %
     %   R. Sabatini et al., J. Phys.: Condens. Matter 24, 424209 (2012).   %
     %                                                                      %
     %%%%%%%%%%%%%%%%%%%%%%%%%%%%%%%%%%%%%%%%%%%%%%%%%%%%%%%%%%%%%%%%%%%%%%%%

     Adding external electric field

     Computed dipole along edir(3) :
        Dipole               -9.9798 Ry au,        -25.3661 Debye
        Dipole field         -0.0188 Ry au,

        Potential amp.        1.7458 Ry
        Total length         46.3494 bohr

     Starting wfcs are  300 atomic wfcs
  @ DRIVER MODE: Message from server: STATUS
  @ DRIVER MODE: Message from server: POSDATA
  @ DRIVER MODE: Reading and sharing cell
  @ DRIVER MODE: Reading and sharing positions
  @ DRIVER MODE: Received positions

     Self-consistent Calculation

     iteration #  1     ecut=    29.40 Ry     beta= 0.05
     Davidson diagonalization with overlap
     c_bands:  1 eigenvalues not converged
     c_bands:  2 eigenvalues not converged
     c_bands:  2 eigenvalues not converged
     c_bands:  1 eigenvalues not converged
     c_bands:  3 eigenvalues not converged
     c_bands:  2 eigenvalues not converged
     c_bands:  3 eigenvalues not converged
     c_bands:  2 eigenvalues not converged
     c_bands:  1 eigenvalues not converged
     c_bands:  1 eigenvalues not converged
     ethr =  1.00E-05,  avg # of iterations = 20.0

[...]

     total energy              =   -2515.78469248 Ry
     estimated scf accuracy    <    4741.10201778 Ry

     iteration #  2     ecut=    29.40 Ry     beta= 0.05
     Davidson diagonalization with overlap
     ethr =  1.00E-02,  avg # of iterations = 24.0

[...]

     iteration # 75     ecut=    29.40 Ry     beta= 0.05
     Davidson diagonalization with overlap
     c_bands:  1 eigenvalues not converged
     c_bands:  2 eigenvalues not converged
     c_bands:  1 eigenvalues not converged
     c_bands:  1 eigenvalues not converged
     ethr =  3.20E-11,  avg # of iterations = 18.0

[...]

     total energy              =   -2940.36665739 Ry
     estimated scf accuracy    <       0.00000030 Ry

     iteration # 76     ecut=    29.40 Ry     beta= 0.05
     Davidson diagonalization with overlap
     ethr =  3.20E-11,  avg # of iterations = 13.9

     negative rho (up, down):  1.644E-02 0.000E+00

     Adding external electric field

     Computed dipole along edir(3) :
        Dipole                1.2663 Ry au,          3.2186 Debye
        Dipole field          0.0024 Ry au,

        Potential amp.       -0.2215 Ry
        Total length         46.3494 bohr

     End of self-consistent calculation

          k = 0.0000 0.0000 0.0000 ( 18029 PWs)   bands (ev):

   -55.4183 -55.3816 -55.3703 -55.3362 -55.2974 -55.2936 -55.2879 -55.2628
   -55.2362 -55.2199 -55.2018 -55.2015 -55.1680 -55.0513 -54.3980 -54.3639
   -31.9874 -31.8628 -31.8198 -31.7855 -31.7317 -31.7259 -31.7209 -31.7071
   -31.6593 -31.6517 -31.6285 -31.6274 -31.6152 -31.5885 -31.5734 -31.5682
   -31.5558 -31.5550 -31.5338 -31.5283 -31.5227 -31.5125 -31.4842 -31.4748
   -31.4669 -31.4642 -31.4386 -31.4283 -31.4274 -31.4214 -31.4190 -31.4002
   -31.3993 -31.3941 -31.3867 -31.3843 -31.3502 -31.3369 -31.3299 -31.3129
   -31.2728 -31.2156 -30.8073 -30.7133 -30.6912 -30.6237 -30.5369 -30.4260
   -18.5927 -16.2500 -15.9812 -15.8387 -15.7144 -15.6154 -15.4908 -15.4688
   -15.3413 -15.2564 -15.1429 -15.0985 -15.0871 -15.0839 -15.0509 -15.0239
   -14.9597 -14.9552 -14.9375 -14.9111 -14.9005 -14.8574 -14.8542 -14.8127
   -14.7922 -14.7899 -14.6638 -14.5750 -14.5046 -14.1812 -13.6745 -12.9007
   -12.7833  -8.7594  -6.4895  -6.0575  -4.0028  -3.5909  -3.4349  -3.3786
    -3.3369  -3.3101  -3.2058  -3.1637  -3.0237  -2.8267  -2.7781  -2.6881
    -2.6258  -2.6173  -2.5982  -2.4174  -2.4098  -2.3533  -2.3029  -2.2611
    -2.2393  -2.2246  -2.2055  -2.1803  -2.1697  -2.1595  -1.9863  -1.9706
    -1.8995  -1.8258  -1.8159  -1.7656  -1.7448  -1.7142  -1.7060  -1.6980
    -1.6527  -1.6330  -1.6031  -1.5551  -1.4295  -1.3383  -1.3078  -1.2263
    -1.1014  -1.0536  -1.0015  -0.9983  -0.9055  -0.9013  -0.8810  -0.7957
    -0.7623  -0.7126  -0.6404  -0.5719  -0.5152  -0.4567  -0.4093  -0.3991
    -0.3442  -0.2271  -0.2016  -0.1828  -0.1607  -0.0401  -0.0215   0.0187
     0.0931   0.1233   0.1242   0.2410   0.2671   0.3248   0.3295   0.4058
     0.4667   0.5112   0.5203   0.5392   0.5683   0.5714   0.6462   0.6591
     0.6893   0.7596   0.8287   0.9176   1.1475   1.1835   1.1965   1.5296
     1.5314   1.6247   1.8085   2.2005   2.2486   3.6809   3.7509   3.8253
     3.8318   3.8501   3.9184   4.1550   4.1731   4.1811   4.1866   4.2297

[...]

          k = 0.0380-0.0419 0.0000 ( 17876 PWs)   bands (ev):

[...]

          k =-0.0760-0.0000 0.0000 ( 17886 PWs)   bands (ev):

[...]

          k =-0.0760-0.0839 0.0000 ( 17948 PWs)   bands (ev):

   -55.4035 -55.3962 -55.3533 -55.3531 -55.2884 -55.2876 -55.2818 -55.2783
   -55.2240 -55.2206 -55.2169 -55.1851 -55.1847 -55.0526 -54.3810 -54.3808
   -31.7936 -31.7882 -31.7470 -31.6942 -31.6807 -31.6779 -31.6778 -31.6447
   -31.6446 -31.6284 -31.6193 -31.6146 -31.6101 -31.5633 -31.5559 -31.5538
   -31.5515 -31.5496 -31.5442 -31.5388 -31.5237 -31.5110 -31.4942 -31.4938
   -31.4896 -31.4754 -31.4739 -31.4729 -31.4727 -31.4706 -31.4538 -31.4497
   -31.4438 -31.4337 -31.4303 -31.4154 -31.4144 -31.4109 -31.3658 -31.3654
   -31.2939 -31.2764 -30.7040 -30.7038 -30.6198 -30.6197 -30.5804 -30.5802
   -18.5902 -15.7121 -15.6791 -15.6218 -15.4415 -15.4138 -15.4070 -15.3879
   -15.2578 -15.2411 -15.2102 -15.1809 -15.1498 -15.1245 -15.1204 -15.1023
   -15.0326 -15.0217 -15.0136 -14.9960 -14.9307 -14.9267 -14.9179 -14.9131
   -14.8662 -14.8635 -14.7682 -14.7666 -14.6662 -14.5500 -13.6804 -12.8848
   -12.8847  -8.7409  -6.4629  -6.0723  -4.0131  -3.2663  -2.9453  -2.8786
    -2.8502  -2.6533  -2.6296  -2.5869  -2.5316  -2.4515  -2.4255  -2.4187
    -2.4100  -2.3387  -2.3274  -2.2777  -2.2685  -2.2495  -2.2342  -2.2237
    -2.1941  -2.1682  -2.1443  -2.1354  -2.1241  -2.0701  -2.0597  -2.0421
    -2.0118  -1.9923  -1.9826  -1.9661  -1.8666  -1.7825  -1.7528  -1.7258
    -1.6218  -1.6175  -1.5377  -1.5216  -1.4905  -1.4491  -1.4362  -1.4159
    -1.2335  -1.2060  -1.1726  -1.1600  -1.1515  -1.0121  -0.9985  -0.9422
    -0.9015  -0.8953  -0.7866  -0.7623  -0.7375  -0.6612  -0.6254  -0.5915
    -0.5407  -0.4348  -0.4174  -0.4067  -0.3733  -0.3692  -0.3132  -0.3012
    -0.2260  -0.1838  -0.1510  -0.1371  -0.0943   0.0941   0.1173   0.1321
     0.2754   0.3309   0.4246   0.5245   0.5346   0.5903   0.6292   0.6954
     0.7566   0.8189   0.8704   0.8914   0.8925   0.9711   0.9887   1.0423
     1.0442   1.9816   1.9822   2.0684   2.0689   3.8234   3.9321   3.9433
     3.9838   4.0657   4.1243   4.1972   4.2255   4.2644   4.2668   4.3326

     the Fermi energy is     3.7428 ev

!    total energy              =   -2940.36667099 Ry
     estimated scf accuracy    <       0.00000006 Ry
     smearing contrib. (-TS)   =      -0.03728405 Ry
     internal energy E=F+TS    =   -2940.32938694 Ry

     The total energy is F=E-TS. E is the sum of the following terms:
     one-electron contribution =  -23759.05436608 Ry
     hartree contribution      =   11970.86328421 Ry
     xc contribution           =    -486.11996132 Ry
     ewald contribution        =    9333.97863016 Ry
     electric field correction =       0.00302609 Ry

     convergence has been achieved in  76 iterations

     Forces acting on atoms (cartesian axes, Ry/au):

     atom    1 type  1   force =     0.00006245   -0.00013662    0.09329353
     atom    2 type  1   force =    -0.00005230   -0.00026142   -0.17804352
     atom    3 type  2   force =     0.00002071   -0.00015523   -0.02023127
     atom    4 type  2   force =     0.00000990   -0.00195463    0.05851401
     atom    5 type  2   force =    -0.01065521   -0.00127817    0.00870370
     atom    6 type  2   force =     0.01175169   -0.00062354    0.00682353
     atom    7 type  1   force =    -0.00091555    0.00299119   -0.01444531
     atom    8 type  1   force =     0.00063520   -0.00051020   -0.00372444
     atom    9 type  2   force =     0.00014363    0.00010124    0.00009611
     atom   10 type  2   force =    -0.00209550   -0.00121528    0.00063443
     atom   11 type  2   force =     0.00007652    0.00022351   -0.00012574
     atom   12 type  2   force =     0.00057522    0.00029372   -0.00007234
     atom   13 type  1   force =    -0.00014293    0.00029223    0.00009282
     atom   14 type  1   force =     0.00013307    0.00046616   -0.00040161
     atom   15 type  2   force =     0.00001769    0.00042807   -0.00008227
     atom   16 type  2   force =     0.00041851    0.00016614   -0.00033047
     atom   17 type  2   force =     0.00025802   -0.00035835   -0.00038174
     atom   18 type  2   force =     0.00019606   -0.00049948    0.00011567
     atom   19 type  1   force =    -0.00091034   -0.00010814    0.00018371
     atom   20 type  1   force =     0.00024498   -0.00005227   -0.00017080
     atom   21 type  2   force =     0.00009653    0.00000535    0.10390540
     atom   22 type  2   force =    -0.00021462    0.00008723    0.00014153
     atom   23 type  2   force =    -0.07039787   -0.00011304   -0.02688801
     atom   24 type  2   force =     0.07033035    0.00034411   -0.02692581
     atom   25 type  1   force =     0.00008489   -0.00022325    0.09283959
     atom   26 type  1   force =    -0.00005299   -0.00033792   -0.17804714
     atom   27 type  2   force =     0.00011094   -0.00036633   -0.01929680
     atom   28 type  2   force =     0.00004162   -0.00165835    0.05793680
     atom   29 type  2   force =    -0.01064254   -0.00128026    0.00803334
     atom   30 type  2   force =     0.01164512   -0.00088633    0.00609362
     atom   31 type  1   force =    -0.00089755    0.00488942   -0.01543180
     atom   32 type  1   force =     0.00083391    0.00020636   -0.00393341
     atom   33 type  2   force =     0.00010485    0.00046837    0.00022394
     atom   34 type  2   force =    -0.00177339    0.00109174    0.00068643
     atom   35 type  2   force =     0.00031569    0.00006110    0.00007473
     atom   36 type  2   force =     0.00026359   -0.00025134    0.00018329
     atom   37 type  1   force =    -0.00035814    0.00001998   -0.00009966
     atom   38 type  1   force =    -0.00023583    0.00049683   -0.00016609
     atom   39 type  2   force =     0.00048830   -0.00072217   -0.00008289
     atom   40 type  2   force =    -0.00015589    0.00007461   -0.00003054
     atom   41 type  2   force =     0.00008358   -0.00009388   -0.00016143
     atom   42 type  2   force =     0.00018679    0.00009739   -0.00000677
     atom   43 type  1   force =    -0.00025143   -0.00009331    0.00017058
     atom   44 type  1   force =     0.00011663    0.00009317   -0.00014971
     atom   45 type  2   force =     0.00010759   -0.00003604    0.10386483
     atom   46 type  2   force =    -0.07040851   -0.00006408   -0.02688650
     atom   47 type  2   force =     0.07036134    0.00036198   -0.02689366
     atom   48 type  3   force =    -0.00082927    0.00050926   -0.00072821
     atom   49 type  4   force =    -0.00340736    0.00337238    0.00233913
     atom   50 type  5   force =     0.00030945   -0.00018234    0.00050262
     atom   51 type  5   force =     0.00445470   -0.00375821   -0.00267654
     atom   52 type  3   force =     0.00039457    0.00052295    0.00028053
     atom   53 type  5   force =    -0.00024246   -0.00035141    0.00096353
     atom   54 type  5   force =    -0.00023442   -0.00009289   -0.00028294

     Total force =     0.365940     Total SCF correction =     0.000863
  @ DRIVER MODE: Message from server: STATUS
  @ DRIVER MODE: Message from server: GETFORCE
  @ DRIVER MODE: Returning v,forces,stress,ensemble

     Writing output data file ./calc.save/
  @ DRIVER MODE: Message from server: EXIT
  @ DRIVE MODE: Exiting

     General routines

     Parallel routines

   This run was terminated on:   7: 9:49  24Aug2021

   JOB DONE.