     Program PWSCF v.6.7GPU starts on 19Oct2021 at  8:47:35

     R & G space division:  proc/nbgrp/npool/nimage =       8
     Reading input from /storage/home/hcoda1/3/ntian30/research/carbon/CxH_vib/Thiel_calc/ads_slab/NH2NH3H_perslab/out_0044/pw.inp
Warning: card &CELL ignored
Warning: card   CELL_DYNAMICS='IPI', ignored
Warning: card / ignored

     Current dimensions of program PWSCF are:
     Max number of different atomic species (ntypx) = 10
     Max number of k-points (npk) =  40000
     Max angular momentum in pseudopotentials (lmaxx) =  3
     Presently no symmetry can be used with electric field

     Message from routine cell_base_init:
     DEPRECATED: use true lattice parameter, not A to a.u. conversion factor

     IMPORTANT: XC functional enforced from input :
     Exchange-correlation= BEEF-VDW
                           (   1   4  43  14   2   0   0)
     Any further DFT definition will be discarded
     Please, verify this is what you really want

  @ DRIVER MODE: Connecting to
 qe_1139763_3255138.sched-torque.pace.gatech.eduoynhkqw2_scratch
  using UNIX socket
  @ DRIVER MODE: Message from server: STATUS
  @ DRIVER MODE: Message from server: INIT
  @ DRIVER MODE: Receiving replica           0          -1
  @ DRIVER MODE: Receiving encoded integer          25
  @ DRIVER MODE:  SCF:  T  FORCE:  T  STRESS:  F  VC:  F  ENSEMBLE:  F
  @ DRIVER MODE:  SCF:  T  FORCE:  T  STRESS:  F  VC:  F  ENSEMBLE:  F

     Using Slab Decomposition

     bravais-lattice index     =            0
     lattice parameter (alat)  =       1.8897  a.u.
     unit-cell volume          =    9988.4706 (a.u.)^3
     number of atoms/cell      =           61
     number of atomic types    =            4
     number of electrons       =       442.00
     number of Kohn-Sham states=          231
     kinetic-energy cutoff     =      29.3995  Ry
     charge density cutoff     =     293.9946  Ry
     scf convergence threshold =      7.3E-08
     mixing beta               =       0.0500
     number of iterations used =            8  plain     mixing
     Exchange-correlation= BEEF-VDW
                           (   1   4  43  14   2   0   0)

     celldm(1)=   1.889726  celldm(2)=   0.000000  celldm(3)=   0.000000
     celldm(4)=   0.000000  celldm(5)=   0.000000  celldm(6)=   0.000000

     crystal axes: (cart. coord. in units of alat)
               a(1) = (   6.579727   0.000000   0.000000 )
               a(2) = (  -0.001163   8.942395   0.000000 )
               a(3) = (   0.000000   0.000000  25.155947 )

     reciprocal axes: (cart. coord. in units 2 pi/alat)
               b(1) = (  0.151982  0.000020  0.000000 )
               b(2) = (  0.000000  0.111827  0.000000 )
               b(3) = (  0.000000  0.000000  0.039752 )

     PseudoPot. # 1 for O  read from file:
     /storage/coda1/p-amedford6/0/shared/rich_project_chbe-medford/medford-share/data/pseudos_module/espresso/nninc/pbe/van/O.UPF
     MD5 check sum: 78c19812648e8988a0fe644b0f25305e
     Pseudo is Ultrasoft, Zval =  6.0
     Generated by new atomic code, or converted to UPF format
     Using radial grid of  737 points,  4 beta functions with:
                l(1) =   0
                l(2) =   0
                l(3) =   1
                l(4) =   1
     Q(r) pseudized with  8 coefficients,  rinner =    0.800   0.800   0.800

     PseudoPot. # 2 for Ti read from file:
     /storage/coda1/p-amedford6/0/shared/rich_project_chbe-medford/medford-share/data/pseudos_module/espresso/nninc/pbe/van/Ti.UPF
     MD5 check sum: 8e4df49b7f0d34bbd5052bf3f5ea0213
     Pseudo is Ultrasoft, Zval = 12.0
     Generated by new atomic code, or converted to UPF format
     Using radial grid of  851 points,  6 beta functions with:
                l(1) =   0
                l(2) =   0
                l(3) =   1
                l(4) =   1
                l(5) =   2
                l(6) =   2
     Q(r) pseudized with  8 coefficients,  rinner =    1.000   1.000   1.000
                                                       1.000   1.000

     PseudoPot. # 3 for N  read from file:
     /storage/coda1/p-amedford6/0/shared/rich_project_chbe-medford/medford-share/data/pseudos_module/espresso/nninc/pbe/van/N.UPF
     MD5 check sum: 90d10febe142ad51ac9d5be1deb811c4
     Pseudo is Ultrasoft, Zval =  5.0
     Generated by new atomic code, or converted to UPF format
     Using radial grid of  729 points,  4 beta functions with:
                l(1) =   0
                l(2) =   0
                l(3) =   1
                l(4) =   1
     Q(r) pseudized with  8 coefficients,  rinner =    0.800   0.800   0.800

     PseudoPot. # 4 for H  read from file:
     /storage/coda1/p-amedford6/0/shared/rich_project_chbe-medford/medford-share/data/pseudos_module/espresso/nninc/pbe/van/H.UPF
     MD5 check sum: b5ee9d7bfd3a09ee7748110bda690ff7
     Pseudo is Ultrasoft, Zval =  1.0
     Generated by new atomic code, or converted to UPF format
     Using radial grid of  615 points,  1 beta functions with:
                l(1) =   0
     Q(r) pseudized with  8 coefficients,  rinner =    0.800

     atomic species   valence    mass     pseudopotential
        O1             6.00    15.99900     O ( 1.00)
        Ti1           12.00    47.86700     Ti( 1.00)
        N1             5.00    14.00700     N ( 1.00)
        H1             1.00     1.00800     H ( 1.00)

     No symmetry found

   Cartesian axes

     site n.     atom                  positions (alat units)
         1           O1  tau(   1) = (   0.0007354   0.0005023  10.5931620  )
         2           O1  tau(   2) = (   3.2893251   8.9324977  13.8850595  )
         3           O1  tau(   3) = (   0.0000810   0.0519898  17.3357851  )
         4           O1  tau(   4) = (   0.0006271   0.0005054   7.9858123  )
         5           O1  tau(   5) = (   3.2891750   8.9291278  11.1853435  )
         6           O1  tau(   6) = (   0.0004222   0.0485762  14.6167438  )
         7           O1  tau(   7) = (   1.9868534   1.4903216   9.2879459  )
         8           O1  tau(   8) = (   5.2393499   1.5905449  12.5682489  )
         9           O1  tau(   9) = (   1.9991366   1.5492019  16.1124644  )
        10           Ti1 tau(  10) = (   0.0007404   1.4906270   9.2895810  )
        11           Ti1 tau(  11) = (   3.2902999   1.3249318  12.4520864  )
        12           Ti1 tau(  12) = (   0.0005939   1.3452645  15.7597600  )
        13           O1  tau(  13) = (   4.5942328   1.4918067   9.2879030  )
        14           O1  tau(  14) = (   1.3411764   1.5910169  12.5684512  )
        15           O1  tau(  15) = (   4.5798538   1.5480364  16.1129854  )
        16           Ti1 tau(  16) = (   3.2902859   2.9801868   9.2893338  )
        17           Ti1 tau(  17) = (   0.0006295   2.8174385  12.4372122  )
        18           Ti1 tau(  18) = (   3.2897038   2.9127836  15.6935398  )
        19           O1  tau(  19) = (   0.0003479   2.9813005  10.5931620  )
        20           O1  tau(  20) = (   3.2904107   2.9319293  13.8952334  )
        21           O1  tau(  21) = (   0.0002396   2.9813036   7.9858123  )
        22           O1  tau(  22) = (   3.2903884   2.9732875  11.2024877  )
        23           O1  tau(  23) = (   6.5791771   2.9400465  14.7470945  )
        24           O1  tau(  24) = (   1.9864658   4.4711199   9.2879459  )
        25           O1  tau(  25) = (   5.2507180   4.5586503  12.6053682  )
        26           O1  tau(  26) = (   1.9989508   4.4013585  16.0758979  )
        27           Ti1 tau(  27) = (   0.0003529   4.4714252   9.2895810  )
        28           Ti1 tau(  28) = (   3.2908498   4.3294621  12.5515864  )
        29           Ti1 tau(  29) = (   0.0012874   4.5361023  15.7587160  )
        30           O1  tau(  30) = (   4.5938453   4.4726049   9.2879030  )
        31           O1  tau(  31) = (   1.3295807   4.5581274  12.6051842  )
        32           O1  tau(  32) = (   4.5807093   4.4011557  16.0767203  )
        33           Ti1 tau(  33) = (   3.2898983   5.9609850   9.2893338  )
        34           Ti1 tau(  34) = (   0.0011720   5.8030845  12.4395124  )
        35           Ti1 tau(  35) = (   3.2913837   5.8399099  16.1904745  )
        36           O1  tau(  36) = (  -0.0000397   5.9620987  10.5931620  )
        37           O1  tau(  37) = (   3.2897076   5.9457256  13.9643012  )
        38           O1  tau(  38) = (   0.0001823   5.8979554  17.1998916  )
        39           O1  tau(  39) = (  -0.0001480   5.9621018   7.9858123  )
        40           O1  tau(  40) = (   3.2897623   5.9362706  11.2341171  )
        41           O1  tau(  41) = (   0.0004469   5.9800359  14.6665197  )
        42           O1  tau(  42) = (   1.9860782   7.4519181   9.2879459  )
        43           O1  tau(  43) = (   5.2507221   7.5245448  12.5933772  )
        44           O1  tau(  44) = (   1.9799843   7.5745874  16.0532815  )
        45           Ti1 tau(  45) = (  -0.0000347   7.4522234   9.2895810  )
        46           Ti1 tau(  46) = (   3.2894177   7.1911746  12.6495270  )
        47           Ti1 tau(  47) = (   0.0007314   7.2822180  16.1322395  )
        48           O1  tau(  48) = (   4.5934577   7.4534031   9.2879030  )
        49           O1  tau(  49) = (   1.3275845   7.5244469  12.5935105  )
        50           O1  tau(  50) = (   4.5990354   7.5728923  16.0522427  )
        51           Ti1 tau(  51) = (   3.2895107   8.9417832   9.2893338  )
        52           Ti1 tau(  52) = (  -0.0007012   8.7603021  12.4499776  )
        53           Ti1 tau(  53) = (   3.2901857   8.8509785  15.6953962  )
        54           N1  tau(  54) = (   3.2899770   5.9827455  18.1265562  )
        55           H1  tau(  55) = (   3.2886311   5.2071789  18.7771882  )
        56           H1  tau(  56) = (   3.2869209   6.8541504  18.6418389  )
        57           H1  tau(  57) = (   6.5771076   8.8877891  18.2917622  )
        58           N1  tau(  58) = (   6.5788838   3.2021548  17.9140464  )
        59           H1  tau(  59) = (   6.5785461   2.2502248  18.2648563  )
        60           H1  tau(  60) = (   5.7591345   3.6762813  18.2792932  )
        61           H1  tau(  61) = (   0.8278175   3.6764091  18.2810048  )

     number of k points=    10  Fermi-Dirac smearing, width (Ry)=  0.0073
                       cart. coord. in units 2pi/alat
        k(    1) = (   0.0000000   0.0000000   0.0000000), wk =   0.1250000
        k(    2) = (   0.0000000   0.0279567   0.0000000), wk =   0.2500000
        k(    3) = (   0.0000000  -0.0559134   0.0000000), wk =   0.1250000
        k(    4) = (   0.0379955   0.0000049   0.0000000), wk =   0.2500000
        k(    5) = (   0.0379955   0.0279617   0.0000000), wk =   0.2500000
        k(    6) = (   0.0379955  -0.0559085   0.0000000), wk =   0.2500000
        k(    7) = (   0.0379955  -0.0279518   0.0000000), wk =   0.2500000
        k(    8) = (  -0.0759910  -0.0000099   0.0000000), wk =   0.1250000
        k(    9) = (  -0.0759910   0.0279468   0.0000000), wk =   0.2500000
        k(   10) = (  -0.0759910  -0.0559233   0.0000000), wk =   0.1250000

     Initial potential from superposition of free atoms

     starting charge  423.99908, renormalised to  442.00000

     negative rho (up, down):  3.661E-02 0.000E+00

     %%%%%%%%%%%%%%%%%%%%%%%%%%%%%%%%%%%%%%%%%%%%%%%%%%%%%%%%%%%%%%%%%%%%%%%%
     %                                                                      %
     % You are using vdW-DF, which was implemented by the Thonhauser group. %
     % Please cite the following two papers that made this development      %
     % possible and the two reviews that describe the various versions:     %
     %                                                                      %
     %   T. Thonhauser et al., PRL 115, 136402 (2015).                      %
     %   T. Thonhauser et al., PRB 76, 125112 (2007).                       %
     %   K. Berland et al., Rep. Prog. Phys. 78, 066501 (2015).             %
     %   D.C. Langreth et al., J. Phys.: Condens. Matter 21, 084203 (2009). %
     %                                                                      %
     %                                                                      %
     % If you are calculating the stress with vdW-DF, please also cite:     %
     %                                                                      %
     %   R. Sabatini et al., J. Phys.: Condens. Matter 24, 424209 (2012).   %
     %                                                                      %
     %%%%%%%%%%%%%%%%%%%%%%%%%%%%%%%%%%%%%%%%%%%%%%%%%%%%%%%%%%%%%%%%%%%%%%%%

     Adding external electric field

     Computed dipole along edir(3) :
        Dipole               -6.2843 Ry au,        -15.9732 Debye
        Dipole field         -0.0079 Ry au,

        Potential amp.        0.7329 Ry
        Total length         46.3494 bohr

     Starting wfcs are  334 atomic wfcs
  @ DRIVER MODE: Message from server: STATUS
  @ DRIVER MODE: Message from server: POSDATA
  @ DRIVER MODE: Reading and sharing cell
  @ DRIVER MODE: Reading and sharing positions
  @ DRIVER MODE: Received positions

     Self-consistent Calculation

     iteration #  1     ecut=    29.40 Ry     beta= 0.05
     Davidson diagonalization with overlap
     c_bands:  2 eigenvalues not converged
     c_bands:  4 eigenvalues not converged
     c_bands:  3 eigenvalues not converged
     c_bands:  4 eigenvalues not converged
     c_bands:  5 eigenvalues not converged
     c_bands:  4 eigenvalues not converged
     c_bands:  2 eigenvalues not converged
     c_bands:  2 eigenvalues not converged
     ethr =  1.00E-05,  avg # of iterations = 21.5

[...]

     total energy              =   -3276.10321413 Ry
     estimated scf accuracy    <     260.33800865 Ry

     iteration #  2     ecut=    29.40 Ry     beta= 0.05
     Davidson diagonalization with overlap
     ethr =  1.00E-02,  avg # of iterations = 15.1

[...]

     iteration # 45     ecut=    29.40 Ry     beta= 0.05
     Davidson diagonalization with overlap
     c_bands:  1 eigenvalues not converged
     c_bands:  1 eigenvalues not converged
     c_bands:  1 eigenvalues not converged
     ethr =  4.73E-11,  avg # of iterations = 17.3

[...]

     total energy              =   -3295.82431250 Ry
     estimated scf accuracy    <       0.00000009 Ry

     iteration # 49     ecut=    29.40 Ry     beta= 0.05
     Davidson diagonalization with overlap
     ethr =  1.99E-11,  avg # of iterations = 14.1

     negative rho (up, down):  3.545E-02 0.000E+00

     Adding external electric field

     Computed dipole along edir(3) :
        Dipole                1.9321 Ry au,          4.9108 Debye
        Dipole field          0.0024 Ry au,

        Potential amp.       -0.2253 Ry
        Total length         46.3494 bohr

     End of self-consistent calculation

          k = 0.0000 0.0000 0.0000 ( 26871 PWs)   bands (ev):

   -57.4688 -57.4333 -57.4206 -57.3814 -57.3725 -57.3645 -57.3539 -57.3426
   -57.3219 -57.2831 -57.2768 -57.2403 -57.2189 -57.2023 -57.1828 -56.5426
   -56.5183 -56.5122 -33.9394 -33.8527 -33.8524 -33.8295 -33.8100 -33.7924
   -33.7746 -33.7707 -33.7670 -33.7537 -33.7286 -33.7076 -33.7025 -33.6878
   -33.6860 -33.6814 -33.6608 -33.6520 -33.6302 -33.6250 -33.5935 -33.5788
   -33.5610 -33.5568 -33.5494 -33.5482 -33.5444 -33.5370 -33.5255 -33.5223
   -33.5156 -33.5013 -33.4926 -33.4916 -33.4848 -33.4835 -33.4744 -33.4726
   -33.4648 -33.4539 -33.4421 -33.4252 -33.4094 -33.4031 -33.3883 -32.8612
   -32.8531 -32.8520 -32.8354 -32.8300 -32.7705 -32.7093 -32.7020 -32.5704
   -19.3430 -18.2729 -17.9714 -17.7751 -17.7261 -17.6925 -17.5561 -17.5442
   -17.4959 -17.4423 -17.4055 -17.3608 -17.2876 -17.2476 -17.2463 -17.2217
   -17.1677 -17.1439 -17.1358 -17.1257 -17.1238 -17.0992 -17.0495 -17.0459
   -16.9893 -16.9479 -16.9162 -16.9058 -16.8973 -16.8650 -16.8560 -16.8040
   -16.6055 -15.0261 -15.0086 -14.9497 -14.9463  -7.8441  -7.6106  -7.3896
    -6.4620  -5.5816  -5.4297  -5.3986  -5.2349  -4.9633  -4.9117  -4.8684
    -4.8221  -4.7846  -4.7461  -4.7233  -4.6941  -4.6627  -4.6106  -4.5802
    -4.5638  -4.5302  -4.5104  -4.4793  -4.4494  -4.4441  -4.4147  -4.3259
    -4.3163  -4.2928  -4.2751  -4.2390  -4.2213  -4.2186  -4.1694  -4.1580
    -4.0686  -3.9828  -3.8964  -3.8443  -3.8179  -3.7945  -3.7471  -3.7097
    -3.6807  -3.6362  -3.6161  -3.5472  -3.5194  -3.5091  -3.4327  -3.3981
    -3.3027  -3.2646  -3.2531  -3.2321  -3.1898  -3.1782  -3.0920  -3.0829
    -2.9736  -2.9548  -2.8631  -2.7914  -2.7419  -2.7137  -2.6761  -2.6144
    -2.5949  -2.5489  -2.5210  -2.4609  -2.4469  -2.3207  -2.2533  -2.2498
    -2.2297  -2.1913  -2.1618  -2.1478  -2.1254  -2.1224  -2.0439  -2.0351
    -1.9853  -1.9102  -1.8844  -1.8477  -1.8350  -1.7996  -1.7574  -1.6926
    -1.6872  -1.6516  -1.5638  -1.5028  -1.5018  -1.3558  -1.3498  -1.3161
    -1.2677  -1.2141  -1.1836  -0.7812  -0.6055  -0.4363  -0.3100  -0.2492
    -0.2479   0.0268   0.0318   0.1643   1.6133   1.7644   1.8248   1.9587
     1.9773   2.0363   2.1179   2.1401   2.2071   2.2344   2.2431

[...]

          k = 0.0380-0.0280 0.0000 ( 26873 PWs)   bands (ev):

[...]

          k =-0.0760-0.0000 0.0000 ( 26902 PWs)   bands (ev):

[...]

          k =-0.0760-0.0559 0.0000 ( 26868 PWs)   bands (ev):

   -57.4672 -57.4379 -57.4176 -57.3789 -57.3683 -57.3664 -57.3623 -57.3392
   -57.3215 -57.2828 -57.2772 -57.2366 -57.2256 -57.1994 -57.1827 -56.5373
   -56.5292 -56.5065 -33.9843 -33.9354 -33.8638 -33.8194 -33.8035 -33.7914
   -33.7842 -33.7764 -33.7661 -33.7446 -33.7157 -33.6972 -33.6596 -33.6578
   -33.6377 -33.6248 -33.6099 -33.5966 -33.5953 -33.5906 -33.5862 -33.5769
   -33.5729 -33.5661 -33.5640 -33.5513 -33.5429 -33.5282 -33.5227 -33.5205
   -33.5165 -33.5158 -33.5118 -33.5090 -33.5068 -33.4954 -33.4891 -33.4849
   -33.4823 -33.4751 -33.4477 -33.4417 -33.4361 -33.4243 -33.4002 -32.9486
   -32.8538 -32.8457 -32.8241 -32.7533 -32.7447 -32.6842 -32.6711 -32.6635
   -19.3364 -17.9703 -17.8316 -17.8199 -17.6423 -17.6007 -17.5943 -17.5308
   -17.4851 -17.4351 -17.4305 -17.4034 -17.3550 -17.3302 -17.3008 -17.2755
   -17.2597 -17.2245 -17.1833 -17.1824 -17.1486 -17.1150 -17.0888 -17.0466
   -17.0400 -16.9855 -16.9219 -16.8844 -16.8598 -16.8574 -16.8199 -16.7958
   -16.6386 -15.0267 -15.0065 -15.0022 -14.8864  -7.8523  -7.6289  -7.3785
    -6.4531  -5.2160  -5.1784  -5.1329  -5.0398  -5.0017  -4.9703  -4.8341
    -4.7740  -4.7323  -4.6869  -4.6445  -4.6369  -4.6226  -4.5670  -4.5496
    -4.5340  -4.4879  -4.4470  -4.4267  -4.4040  -4.4025  -4.3989  -4.3957
    -4.2638  -4.2507  -4.1992  -4.1789  -4.1566  -4.1337  -4.1304  -4.0769
    -4.0349  -3.9940  -3.9817  -3.9559  -3.8937  -3.8362  -3.7549  -3.6584
    -3.6472  -3.5905  -3.5805  -3.4875  -3.4825  -3.3882  -3.3260  -3.2805
    -3.2527  -3.2278  -3.1512  -3.1461  -3.1372  -3.0868  -3.0526  -3.0241
    -2.9762  -2.9658  -2.9211  -2.8180  -2.7829  -2.7245  -2.6980  -2.6931
    -2.6368  -2.6325  -2.5958  -2.5940  -2.5874  -2.5425  -2.4877  -2.4532
    -2.4369  -2.4052  -2.3165  -2.2923  -2.2393  -2.2315  -2.1660  -2.1489
    -2.1371  -2.0734  -2.0218  -1.9905  -1.9824  -1.9087  -1.8051  -1.7469
    -1.7250  -1.7036  -1.5979  -1.5491  -1.4932  -1.4508  -1.2685  -1.2563
    -1.1838  -1.1441  -1.0914  -1.0426  -0.8556  -0.4571  -0.4057  -0.1877
    -0.1723  -0.1349   0.0315   0.0372   1.7059   1.7176   1.8150   1.8563
     1.9181   1.9290   1.9733   1.9905   2.0002   2.0464   2.0523

     the Fermi energy is     1.6448 ev

!    total energy              =   -3295.82443228 Ry
     estimated scf accuracy    <       0.00000005 Ry
     smearing contrib. (-TS)   =      -0.03670444 Ry
     internal energy E=F+TS    =   -3295.78772784 Ry

     The total energy is F=E-TS. E is the sum of the following terms:
     one-electron contribution =  -34289.81985874 Ry
     hartree contribution      =   17213.89584635 Ry
     xc contribution           =    -543.76678122 Ry
     ewald contribution        =   14323.89836951 Ry
     electric field correction =       0.00469626 Ry

     convergence has been achieved in  49 iterations

     Forces acting on atoms (cartesian axes, Ry/au):

     atom    1 type  1   force =     0.00001399    0.00239792    0.05212340
     atom    2 type  1   force =    -0.00004379   -0.00060477   -0.00560395
     atom    3 type  1   force =     0.00003548   -0.00291437   -0.00289094
     atom    4 type  1   force =     0.00005436   -0.00037463    0.10760907
     atom    5 type  1   force =    -0.00002150    0.00173581    0.00530097
     atom    6 type  1   force =     0.00000940   -0.00049440    0.00054720
     atom    7 type  1   force =     0.06435905    0.00077654   -0.03001435
     atom    8 type  1   force =     0.00531004   -0.02658177    0.00244646
     atom    9 type  1   force =     0.00845657   -0.01287870   -0.00074844
     atom   10 type  2   force =    -0.00005946   -0.00537903   -0.18726836
     atom   11 type  2   force =     0.00012327    0.02015443   -0.00479691
     atom   12 type  2   force =    -0.00012163    0.01850057   -0.00051621
     atom   13 type  1   force =    -0.06446343    0.00030010   -0.02997222
     atom   14 type  1   force =    -0.00512762   -0.02679018    0.00247381
     atom   15 type  1   force =    -0.00841356   -0.01279287   -0.00074365
     atom   16 type  2   force =     0.00009074   -0.00107080    0.07212631
     atom   17 type  2   force =    -0.00026439    0.03302717    0.00616295
     atom   18 type  2   force =     0.00005140    0.00456459   -0.00763890
     atom   19 type  1   force =     0.00001505    0.00395305    0.05309792
     atom   20 type  1   force =    -0.00004134   -0.00054678   -0.00171484
     atom   21 type  1   force =     0.00005402    0.00130584    0.10846272
     atom   22 type  1   force =    -0.00002635   -0.00119164    0.00631160
     atom   23 type  1   force =     0.00003283   -0.00517612    0.00190830
     atom   24 type  1   force =     0.06587898    0.00139376   -0.02848166
     atom   25 type  1   force =     0.00546291   -0.02924542    0.00262930
     atom   26 type  1   force =     0.00978169   -0.00194284   -0.00020203
     atom   27 type  2   force =    -0.00006953   -0.00075709   -0.19123730
     atom   28 type  2   force =     0.00014925    0.02480253   -0.00469827
     atom   29 type  2   force =    -0.00011901   -0.00423749    0.00940172
     atom   30 type  1   force =    -0.06598341    0.00095473   -0.02845279
     atom   31 type  1   force =    -0.00531387   -0.02936665    0.00266718
     atom   32 type  1   force =    -0.00966993   -0.00195231   -0.00018925
     atom   33 type  2   force =     0.00013479    0.00069184    0.08052257
     atom   34 type  2   force =    -0.00029005    0.03538497    0.00621533
     atom   35 type  2   force =     0.00006823    0.01550966    0.00195660
     atom   36 type  1   force =     0.00006584    0.00026777    0.05320858
     atom   37 type  1   force =    -0.00003374    0.00177440   -0.00893024
     atom   38 type  1   force =     0.00000299    0.00145009   -0.00022088
     atom   39 type  1   force =     0.00005402   -0.00117581    0.10818568
     atom   40 type  1   force =    -0.00003407   -0.00138231    0.00604275
     atom   41 type  1   force =     0.00001885    0.00390163    0.00142619
     atom   42 type  1   force =     0.06613557   -0.00349407   -0.02907878
     atom   43 type  1   force =     0.00366487   -0.02409753    0.00085869
     atom   44 type  1   force =     0.01424127   -0.01861888    0.00310544
     atom   45 type  2   force =    -0.00009476    0.00310862   -0.18716338
     atom   46 type  2   force =     0.00013580    0.01623343    0.00222682
     atom   47 type  2   force =    -0.00007429    0.01855943   -0.00288571
     atom   48 type  1   force =    -0.06623524   -0.00393015   -0.02903599
     atom   49 type  1   force =    -0.00341525   -0.02428901    0.00087309
     atom   50 type  1   force =    -0.01423794   -0.01856541    0.00310651
     atom   51 type  2   force =     0.00012879   -0.00296023    0.07343453
     atom   52 type  2   force =    -0.00027676    0.03102122    0.00787265
     atom   53 type  2   force =     0.00001248    0.02027515    0.00048941
     atom   54 type  3   force =    -0.00001673   -0.00080154   -0.00281362
     atom   55 type  4   force =     0.00003312   -0.00037823    0.00068306
     atom   56 type  4   force =    -0.00004246    0.00034694   -0.00028173
     atom   57 type  4   force =    -0.00005709   -0.00018539   -0.00005295
     atom   58 type  3   force =     0.01036382    0.00502207    0.00359700
     atom   59 type  4   force =    -0.00007468    0.00012847    0.00048485
     atom   60 type  4   force =     0.00096715    0.00121950    0.00132086
     atom   61 type  4   force =    -0.01128475   -0.00458580   -0.00324619

     Total force =     0.459702     Total SCF correction =     0.000642
  @ DRIVER MODE: Message from server: STATUS
  @ DRIVER MODE: Message from server: GETFORCE
  @ DRIVER MODE: Returning v,forces,stress,ensemble

     Writing output data file ./calc.save/
  @ DRIVER MODE: Message from server: EXIT
  @ DRIVE MODE: Exiting

     General routines

     Parallel routines

   This run was terminated on:   9:15:25  19Oct2021

   JOB DONE.