     Program PWSCF v.6.7GPU starts on  9Sep2021 at  2:48: 0

     R & G space division:  proc/nbgrp/npool/nimage =      10
     Reading input from /storage/home/hcoda1/3/ntian30/research/carbon/CxH_vib/C_calc/ads_slab/CN2_a/out_0009/pw.inp
Warning: card &CELL ignored
Warning: card   CELL_DYNAMICS='IPI', ignored
Warning: card / ignored

     Current dimensions of program PWSCF are:
     Max number of different atomic species (ntypx) = 10
     Max number of k-points (npk) =  40000
     Max angular momentum in pseudopotentials (lmaxx) =  3
     Presently no symmetry can be used with electric field

     Message from routine cell_base_init:
     DEPRECATED: use true lattice parameter, not A to a.u. conversion factor

     IMPORTANT: XC functional enforced from input :
     Exchange-correlation= BEEF-VDW
                           (   1   4  43  14   2   0   0)
     Any further DFT definition will be discarded
     Please, verify this is what you really want

  @ DRIVER MODE: Connecting to
 qe_1139763_2767375.sched-torque.pace.gatech.edumw_rziet_scratch
  using UNIX socket
  @ DRIVER MODE: Message from server: STATUS
  @ DRIVER MODE: Message from server: INIT
  @ DRIVER MODE: Receiving replica           0          -1
  @ DRIVER MODE: Receiving encoded integer          25
  @ DRIVER MODE:  SCF:  T  FORCE:  T  STRESS:  F  VC:  F  ENSEMBLE:  F
  @ DRIVER MODE:  SCF:  T  FORCE:  T  STRESS:  F  VC:  F  ENSEMBLE:  F

     Using Slab Decomposition

     bravais-lattice index     =            0
     lattice parameter (alat)  =       1.8897  a.u.
     unit-cell volume          =    6658.9804 (a.u.)^3
     number of atoms/cell      =           50
     number of atomic types    =            4
     number of electrons       =       392.00
     number of Kohn-Sham states=          206
     kinetic-energy cutoff     =      29.3995  Ry
     charge density cutoff     =     293.9946  Ry
     scf convergence threshold =      7.3E-08
     mixing beta               =       0.0500
     number of iterations used =            8  plain     mixing
     Exchange-correlation= BEEF-VDW
                           (   1   4  43  14   2   0   0)

     celldm(1)=   1.889726  celldm(2)=   0.000000  celldm(3)=   0.000000
     celldm(4)=   0.000000  celldm(5)=   0.000000  celldm(6)=   0.000000

     crystal axes: (cart. coord. in units of alat)
               a(1) = (   6.579727   0.000000   0.000000 )
               a(2) = (  -0.000775   5.961596   0.000000 )
               a(3) = (   0.000000   0.000000  25.155947 )

     reciprocal axes: (cart. coord. in units 2 pi/alat)
               b(1) = (  0.151982  0.000020  0.000000 )
               b(2) = (  0.000000  0.167740  0.000000 )
               b(3) = (  0.000000  0.000000  0.039752 )

     PseudoPot. # 1 for Ti read from file:
     /storage/coda1/p-amedford6/0/shared/rich_project_chbe-medford/medford-share/data/pseudos_module/espresso/nninc/pbe/van/Ti.UPF
     MD5 check sum: 8e4df49b7f0d34bbd5052bf3f5ea0213
     Pseudo is Ultrasoft, Zval = 12.0
     Generated by new atomic code, or converted to UPF format
     Using radial grid of  851 points,  6 beta functions with:
                l(1) =   0
                l(2) =   0
                l(3) =   1
                l(4) =   1
                l(5) =   2
                l(6) =   2
     Q(r) pseudized with  8 coefficients,  rinner =    1.000   1.000   1.000
                                                       1.000   1.000

     PseudoPot. # 2 for O  read from file:
     /storage/coda1/p-amedford6/0/shared/rich_project_chbe-medford/medford-share/data/pseudos_module/espresso/nninc/pbe/van/O.UPF
     MD5 check sum: 78c19812648e8988a0fe644b0f25305e
     Pseudo is Ultrasoft, Zval =  6.0
     Generated by new atomic code, or converted to UPF format
     Using radial grid of  737 points,  4 beta functions with:
                l(1) =   0
                l(2) =   0
                l(3) =   1
                l(4) =   1
     Q(r) pseudized with  8 coefficients,  rinner =    0.800   0.800   0.800

     PseudoPot. # 3 for N  read from file:
     /storage/coda1/p-amedford6/0/shared/rich_project_chbe-medford/medford-share/data/pseudos_module/espresso/nninc/pbe/van/N.UPF
     MD5 check sum: 90d10febe142ad51ac9d5be1deb811c4
     Pseudo is Ultrasoft, Zval =  5.0
     Generated by new atomic code, or converted to UPF format
     Using radial grid of  729 points,  4 beta functions with:
                l(1) =   0
                l(2) =   0
                l(3) =   1
                l(4) =   1
     Q(r) pseudized with  8 coefficients,  rinner =    0.800   0.800   0.800

     PseudoPot. # 4 for C  read from file:
     /storage/coda1/p-amedford6/0/shared/rich_project_chbe-medford/medford-share/data/pseudos_module/espresso/nninc/pbe/van/C.UPF
     MD5 check sum: 1a69bf6b8db32088f5b2163dbdb77a27
     Pseudo is Ultrasoft, Zval =  4.0
     Generated by new atomic code, or converted to UPF format
     Using radial grid of  721 points,  4 beta functions with:
                l(1) =   0
                l(2) =   0
                l(3) =   1
                l(4) =   1
     Q(r) pseudized with  8 coefficients,  rinner =    0.800   0.800   0.800

     atomic species   valence    mass     pseudopotential
        Ti1           12.00    47.86700     Ti( 1.00)
        O1             6.00    15.99900     O ( 1.00)
        N1             5.00    14.00700     N ( 1.00)
        C1             4.00    12.01100     C ( 1.00)

     No symmetry found

   Cartesian axes

     site n.     atom                  positions (alat units)
         1           Ti1 tau(   1) = (   0.0004258   2.9801865   6.0000000  )
         2           Ti1 tau(   2) = (   3.2906075   1.4906267   6.0002472  )
         3           O1  tau(   3) = (   0.0006271   0.0005054   7.9858123  )
         4           O1  tau(   4) = (   3.2906025   0.0005020   7.3038282  )
         5           O1  tau(   5) = (   4.5942328   1.4918067   9.2879030  )
         6           O1  tau(   6) = (   1.9868534   1.4903216   9.2879459  )
         7           Ti1 tau(   7) = (   3.2907910   2.8959150   9.1758416  )
         8           Ti1 tau(   8) = (   0.0015273   1.4827037   9.2680791  )
         9           O1  tau(   9) = (   3.2889285   5.9572048  11.3040972  )
        10           O1  tau(  10) = (   0.0116148   5.9584955  10.6183126  )
        11           O1  tau(  11) = (   1.3189323   1.4942761  12.6130295  )
        12           O1  tau(  12) = (   5.2997964   1.4884099  12.6250597  )
        13           Ti1 tau(  13) = (   6.4939836   2.9824287  12.7561987  )
        14           Ti1 tau(  14) = (   3.1682086   1.4887373  12.4699270  )
        15           O1  tau(  15) = (   0.0224291   5.9581829  14.5926458  )
        16           O1  tau(  16) = (   3.2893302   5.9536121  13.8847677  )
        17           O1  tau(  17) = (   4.5439212   1.4834749  16.0328965  )
        18           O1  tau(  18) = (   2.0755535   1.4836234  16.0228809  )
        19           Ti1 tau(  19) = (   3.3005686   2.9659170  15.6894391  )
        20           Ti1 tau(  20) = (   6.5401575   1.4426905  16.0647633  )
        21           O1  tau(  21) = (   3.2904802   0.0005063   4.7018136  )
        22           O1  tau(  22) = (   0.0258419   5.9532685  17.1653534  )
        23           O1  tau(  23) = (   1.3043587   1.4918075   6.0039043  )
        24           O1  tau(  24) = (   5.2767064   1.4903225   6.0039473  )
        25           Ti1 tau(  25) = (   0.0000382   5.9609847   6.0000000  )
        26           Ti1 tau(  26) = (   3.2902200   4.4714249   6.0002472  )
        27           O1  tau(  27) = (   0.0002396   2.9813036   7.9858123  )
        28           O1  tau(  28) = (   3.2902150   2.9813002   7.3038282  )
        29           O1  tau(  29) = (   4.5938453   4.4726049   9.2879030  )
        30           O1  tau(  30) = (   1.9864658   4.4711199   9.2879459  )
        31           Ti1 tau(  31) = (   3.2891106   5.8743827   9.1763621  )
        32           Ti1 tau(  32) = (   0.0006254   4.4649316   9.2693709  )
        33           O1  tau(  33) = (   3.2925136   2.9767646  11.3039470  )
        34           O1  tau(  34) = (   0.0092240   2.9805883  10.6323155  )
        35           O1  tau(  35) = (   1.3189435   4.4587261  12.6131553  )
        36           O1  tau(  36) = (   5.2992261   4.4686972  12.6254714  )
        37           Ti1 tau(  37) = (   6.4933837   0.0018553  12.7120694  )
        38           Ti1 tau(  38) = (   3.1687038   4.4682667  12.4696446  )
        39           O1  tau(  39) = (   6.5575253   2.9777116  14.6451287  )
        40           O1  tau(  40) = (   3.3026008   2.9720648  13.8804781  )
        41           O1  tau(  41) = (   4.5428380   4.4591099  16.0310608  )
        42           O1  tau(  42) = (   2.0745367   4.4570417  16.0198975  )
        43           Ti1 tau(  43) = (   3.2480854   5.9464808  15.6958456  )
        44           Ti1 tau(  44) = (   6.5385164   4.5051388  16.0519081  )
        45           O1  tau(  45) = (   3.2900926   2.9813045   4.7018136  )
        46           O1  tau(  46) = (   1.3039711   4.4726057   6.0039043  )
        47           O1  tau(  47) = (   5.2763189   4.4711207   6.0039473  )
        48           N1  tau(  48) = (   0.6627575   2.9932433  18.4779999  )
        49           C1  tau(  49) = (   1.2395031   3.0050465  19.5213309  )
        50           N1  tau(  50) = (   0.0963922   2.9773862  17.3183823  )

     number of k points=    10  Fermi-Dirac smearing, width (Ry)=  0.0073
                       cart. coord. in units 2pi/alat
        k(    1) = (   0.0000000   0.0000000   0.0000000), wk =   0.1250000
        k(    2) = (   0.0000000   0.0419351   0.0000000), wk =   0.2500000
        k(    3) = (   0.0000000  -0.0838702   0.0000000), wk =   0.1250000
        k(    4) = (   0.0379955   0.0000049   0.0000000), wk =   0.2500000
        k(    5) = (   0.0379955   0.0419400   0.0000000), wk =   0.2500000
        k(    6) = (   0.0379955  -0.0838652   0.0000000), wk =   0.2500000
        k(    7) = (   0.0379955  -0.0419301   0.0000000), wk =   0.2500000
        k(    8) = (  -0.0759910  -0.0000099   0.0000000), wk =   0.1250000
        k(    9) = (  -0.0759910   0.0419252   0.0000000), wk =   0.2500000
        k(   10) = (  -0.0759910  -0.0838800   0.0000000), wk =   0.1250000

     Initial potential from superposition of free atoms

     starting charge  375.99919, renormalised to  392.00000

     negative rho (up, down):  1.742E-02 0.000E+00

     %%%%%%%%%%%%%%%%%%%%%%%%%%%%%%%%%%%%%%%%%%%%%%%%%%%%%%%%%%%%%%%%%%%%%%%%
     %                                                                      %
     % You are using vdW-DF, which was implemented by the Thonhauser group. %
     % Please cite the following two papers that made this development      %
     % possible and the two reviews that describe the various versions:     %
     %                                                                      %
     %   T. Thonhauser et al., PRL 115, 136402 (2015).                      %
     %   T. Thonhauser et al., PRB 76, 125112 (2007).                       %
     %   K. Berland et al., Rep. Prog. Phys. 78, 066501 (2015).             %
     %   D.C. Langreth et al., J. Phys.: Condens. Matter 21, 084203 (2009). %
     %                                                                      %
     %                                                                      %
     % If you are calculating the stress with vdW-DF, please also cite:     %
     %                                                                      %
     %   R. Sabatini et al., J. Phys.: Condens. Matter 24, 424209 (2012).   %
     %                                                                      %
     %%%%%%%%%%%%%%%%%%%%%%%%%%%%%%%%%%%%%%%%%%%%%%%%%%%%%%%%%%%%%%%%%%%%%%%%

     Adding external electric field

     Computed dipole along edir(3) :
        Dipole               -6.0010 Ry au,        -15.2530 Debye
        Dipole field         -0.0113 Ry au,

        Potential amp.        1.0498 Ry
        Total length         46.3494 bohr

     Starting wfcs are  296 atomic wfcs
  @ DRIVER MODE: Message from server: STATUS
  @ DRIVER MODE: Message from server: POSDATA
  @ DRIVER MODE: Reading and sharing cell
  @ DRIVER MODE: Reading and sharing positions
  @ DRIVER MODE: Received positions

     Self-consistent Calculation

     iteration #  1     ecut=    29.40 Ry     beta= 0.05
     Davidson diagonalization with overlap
     c_bands:  3 eigenvalues not converged
     c_bands:  1 eigenvalues not converged
     c_bands:  3 eigenvalues not converged
     c_bands:  1 eigenvalues not converged
     c_bands:  1 eigenvalues not converged
     c_bands:  3 eigenvalues not converged
     ethr =  1.00E-05,  avg # of iterations = 19.5

[...]

     total energy              =   -2797.80885241 Ry
     estimated scf accuracy    <    1529.04739244 Ry

[...]

     iteration #  4     ecut=    29.40 Ry     beta= 0.05
     Davidson diagonalization with overlap
     ethr =  1.00E-02,  avg # of iterations = 11.2

[...]

     iteration # 39     ecut=    29.40 Ry     beta= 0.05
     Davidson diagonalization with overlap
     c_bands:  1 eigenvalues not converged
     c_bands:  2 eigenvalues not converged
     c_bands:  1 eigenvalues not converged
     c_bands:  2 eigenvalues not converged
     ethr =  4.45E-07,  avg # of iterations = 17.0

[...]

     total energy              =   -2935.33682605 Ry
     estimated scf accuracy    <       0.00000008 Ry

     iteration # 62     ecut=    29.40 Ry     beta= 0.05
     Davidson diagonalization with overlap
     ethr =  1.98E-11,  avg # of iterations =  4.8

     negative rho (up, down):  1.700E-02 0.000E+00

     Adding external electric field

     Computed dipole along edir(3) :
        Dipole               -0.7931 Ry au,         -2.0158 Debye
        Dipole field         -0.0015 Ry au,

        Potential amp.        0.1387 Ry
        Total length         46.3494 bohr

     End of self-consistent calculation

          k = 0.0000 0.0000 0.0000 ( 18029 PWs)   bands (ev):

   -57.3077 -57.2739 -56.6506 -56.6165 -56.6127 -56.5791 -56.5567 -56.5213
   -56.3492 -56.3143 -56.2750 -56.2349 -56.0594 -56.0255 -55.8252 -55.7861
   -33.7476 -33.5926 -33.5644 -33.4748 -33.3827 -33.3724 -33.1157 -33.0976
   -33.0959 -32.9194 -32.8774 -32.8643 -32.8210 -32.8179 -32.8160 -32.8154
   -32.7871 -32.7789 -32.7766 -32.7713 -32.7627 -32.7497 -32.7369 -32.7203
   -32.7198 -32.6894 -32.6867 -32.6661 -32.5853 -32.5209 -32.4896 -32.4567
   -32.4526 -32.4486 -32.4231 -32.4174 -32.3923 -32.3912 -32.3685 -32.3644
   -32.2744 -32.1897 -32.0788 -32.0524 -32.0486 -32.0375 -31.9946 -31.8919
   -17.9210 -17.5494 -17.2536 -17.0222 -16.7797 -16.7168 -16.6665 -16.6421
   -16.5955 -16.5331 -16.5170 -16.4510 -16.3469 -16.3092 -16.2251 -16.1275
   -16.1191 -16.0825 -16.0163 -15.9161 -15.9115 -15.9092 -15.8487 -15.8412
   -15.7075 -15.6553 -15.5280 -15.5198 -15.4168 -15.1907 -14.5590 -14.4470
   -12.8913  -5.8780  -5.0876  -4.7481  -4.5463  -4.4506  -4.3298  -4.2838
    -4.2355  -4.0184  -3.9446  -3.9434  -3.8823  -3.8237  -3.6750  -3.6736
    -3.6240  -3.6028  -3.5690  -3.5185  -3.5063  -3.4736  -3.4729  -3.2923
    -3.2371  -3.2251  -3.2203  -3.2071  -3.1034  -3.0439  -3.0349  -3.0227
    -3.0080  -2.9786  -2.8524  -2.8106  -2.7679  -2.7518  -2.7441  -2.5958
    -2.5932  -2.5923  -2.4833  -2.4738  -2.3925  -2.3076  -2.1927  -2.1326
    -2.0876  -2.0529  -2.0290  -1.8812  -1.8488  -1.7964  -1.7344  -1.6926
    -1.6271  -1.6062  -1.5761  -1.5552  -1.5004  -1.4117  -1.3570  -1.3127
    -1.2550  -1.2404  -1.1074  -1.0963  -1.0818  -1.0670  -1.0088  -0.9491
    -0.9185  -0.8757  -0.8708  -0.8495  -0.7477  -0.6408  -0.6260  -0.5751
    -0.4632  -0.4518  -0.3869  -0.3453  -0.2555  -0.2178  -0.1447  -0.0903
    -0.0383  -0.0376   0.0053   0.1192   0.1713   0.1908   0.5182   0.5588
     0.6554   0.8647   1.2626   1.7045   1.9433   2.0797   2.3879   2.4319
     2.5411   2.8658   2.8743   2.9282   2.9864   3.0046

[...]

          k = 0.0380-0.0419 0.0000 ( 17876 PWs)   bands (ev):

[...]

          k =-0.0760-0.0000 0.0000 ( 17886 PWs)   bands (ev):

[...]

          k =-0.0760-0.0839 0.0000 ( 17948 PWs)   bands (ev):

   -57.2908 -57.2906 -56.6360 -56.6306 -56.5967 -56.5952 -56.5397 -56.5381
   -56.3324 -56.3310 -56.2651 -56.2448 -56.0424 -56.0423 -55.8144 -55.7968
   -33.5783 -33.5780 -33.5639 -33.5638 -33.4271 -33.4269 -32.9399 -32.9344
   -32.9289 -32.9267 -32.9070 -32.9059 -32.8346 -32.8324 -32.8254 -32.8193
   -32.8177 -32.8149 -32.8084 -32.8075 -32.7863 -32.7848 -32.7461 -32.7440
   -32.6766 -32.6750 -32.6174 -32.6159 -32.5937 -32.5758 -32.5391 -32.5293
   -32.4981 -32.4844 -32.4376 -32.4263 -32.3815 -32.3814 -32.2714 -32.2712
   -32.2589 -32.2322 -32.2322 -32.1127 -32.0323 -32.0132 -32.0058 -31.9839
   -17.9108 -16.9107 -16.9067 -16.8549 -16.8543 -16.6889 -16.6851 -16.6184
   -16.6140 -16.5007 -16.4911 -16.2882 -16.2771 -16.2711 -16.2702 -16.1767
   -16.1580 -16.1548 -16.1468 -16.0467 -16.0417 -15.9962 -15.9950 -15.9795
   -15.9347 -15.6785 -15.6087 -15.5461 -15.4361 -15.4026 -14.5501 -14.5500
   -12.8957  -5.7981  -4.0451  -4.0396  -3.9940  -3.9852  -3.9058  -3.9009
    -3.7620  -3.7584  -3.7186  -3.7140  -3.6077  -3.5797  -3.5735  -3.5711
    -3.4898  -3.4562  -3.4505  -3.4210  -3.4077  -3.3937  -3.3452  -3.3390
    -3.3043  -3.2992  -3.2221  -3.2191  -3.1727  -3.1687  -3.1277  -3.1005
    -3.0526  -2.9713  -2.9426  -2.9402  -2.9246  -2.8753  -2.8440  -2.6578
    -2.6510  -2.6264  -2.5339  -2.5288  -2.4574  -2.3590  -2.3489  -2.2981
    -2.2252  -2.2115  -2.0602  -2.0547  -2.0355  -2.0249  -1.9966  -1.9114
    -1.8710  -1.8164  -1.7242  -1.6896  -1.6507  -1.6224  -1.5995  -1.5888
    -1.5700  -1.5581  -1.4220  -1.4175  -1.3635  -1.3371  -1.2943  -1.2686
    -1.1561  -1.1233  -1.0231  -0.9140  -0.9030  -0.8778  -0.8667  -0.7520
    -0.6555  -0.6466  -0.4436  -0.3735  -0.2827  -0.2435  -0.2253  -0.0904
    -0.0757  -0.0368  -0.0249   0.1780   0.2350   0.3563   0.3609   0.3723
     0.3727   0.8773   1.2502   1.6483   2.4930   2.4936   2.5496   2.5498
     2.8518   2.8552   2.9246   2.9404   2.9868   2.9873

     the Fermi energy is     1.8560 ev

!    total energy              =   -2935.33686010 Ry
     estimated scf accuracy    <       0.00000002 Ry
     smearing contrib. (-TS)   =      -0.00931256 Ry
     internal energy E=F+TS    =   -2935.32754754 Ry

     The total energy is F=E-TS. E is the sum of the following terms:
     one-electron contribution =  -24516.09689428 Ry
     hartree contribution      =   12336.07930976 Ry
     xc contribution           =    -482.59127150 Ry
     ewald contribution        =    9727.28012153 Ry
     electric field correction =       0.00118695 Ry

     convergence has been achieved in  62 iterations

     Forces acting on atoms (cartesian axes, Ry/au):

     atom    1 type  1   force =     0.00005751   -0.00040672    0.11611673
     atom    2 type  1   force =    -0.00008058   -0.00058534   -0.16485198
     atom    3 type  2   force =     0.00017741   -0.00006455   -0.05566798
     atom    4 type  2   force =    -0.00004066   -0.00057808    0.03447711
     atom    5 type  2   force =    -0.01584426    0.00099344   -0.00640259
     atom    6 type  2   force =     0.01752619    0.00173117   -0.00685144
     atom    7 type  1   force =     0.00078104   -0.00314019    0.01353077
     atom    8 type  1   force =    -0.00039318    0.00375399    0.09567360
     atom    9 type  2   force =    -0.00004664    0.00004674    0.00004993
     atom   10 type  2   force =    -0.00228008    0.00158446   -0.05972382
     atom   11 type  2   force =    -0.00018576   -0.00014154    0.00007235
     atom   12 type  2   force =     0.00008334   -0.00053185    0.00002200
     atom   13 type  1   force =    -0.00024734   -0.00012901    0.00060793
     atom   14 type  1   force =     0.00008190   -0.00046351    0.00007822
     atom   15 type  2   force =    -0.00030038   -0.00014043   -0.00029641
     atom   16 type  2   force =     0.00016031    0.00015683   -0.00043427
     atom   17 type  2   force =     0.00040049    0.00012604    0.00004704
     atom   18 type  2   force =    -0.00020730   -0.00002513   -0.00038676
     atom   19 type  1   force =    -0.00033381    0.00009448    0.00060631
     atom   20 type  1   force =     0.00030296    0.00048074   -0.00048690
     atom   21 type  2   force =     0.00005531    0.00001267    0.10061652
     atom   22 type  2   force =    -0.00004513    0.00018128   -0.00061147
     atom   23 type  2   force =    -0.07669972   -0.00002827   -0.03125071
     atom   24 type  2   force =     0.07656047    0.00039085   -0.03126290
     atom   25 type  1   force =     0.00008062   -0.00041738    0.11590792
     atom   26 type  1   force =    -0.00009263   -0.00034040   -0.16483429
     atom   27 type  2   force =     0.00034072   -0.00030898   -0.05457537
     atom   28 type  2   force =    -0.00002080   -0.00040300    0.03444114
     atom   29 type  2   force =    -0.01626673    0.00135292   -0.00649507
     atom   30 type  2   force =     0.01784237    0.00154431   -0.00698440
     atom   31 type  1   force =     0.00068247   -0.00039599    0.01278718
     atom   32 type  1   force =    -0.00028203   -0.00632010    0.09629533
     atom   33 type  2   force =    -0.00018505   -0.00011823   -0.00063151
     atom   34 type  2   force =    -0.00267923    0.00109252   -0.06841453
     atom   35 type  2   force =    -0.00013528    0.00032834    0.00021120
     atom   36 type  2   force =    -0.00000252    0.00035461    0.00008211
     atom   37 type  1   force =    -0.00008977   -0.00020958   -0.00005914
     atom   38 type  1   force =    -0.00014697   -0.00017639    0.00026756
     atom   39 type  2   force =    -0.00009412   -0.00022377   -0.00004569
     atom   40 type  2   force =    -0.00008086    0.00009463   -0.00023685
     atom   41 type  2   force =     0.00036943    0.00027060    0.00009547
     atom   42 type  2   force =    -0.00015458    0.00039519   -0.00034151
     atom   43 type  1   force =    -0.00005893    0.00046055    0.00086499
     atom   44 type  1   force =     0.00022359   -0.00045181    0.00018124
     atom   45 type  2   force =     0.00005682   -0.00000040    0.10060601
     atom   46 type  2   force =    -0.07670763    0.00000487   -0.03122629
     atom   47 type  2   force =     0.07655027    0.00044271   -0.03125381
     atom   48 type  3   force =     0.00040491   -0.00089605   -0.00009109
     atom   49 type  4   force =     0.00080762    0.00024063   -0.00006886
     atom   50 type  3   force =     0.00015623    0.00036212   -0.00015303

     Total force =     0.407180     Total SCF correction =     0.000507
  @ DRIVER MODE: Message from server: STATUS
  @ DRIVER MODE: Message from server: GETFORCE
  @ DRIVER MODE: Returning v,forces,stress,ensemble

     Writing output data file ./calc.save/
  @ DRIVER MODE: Message from server: EXIT
  @ DRIVE MODE: Exiting

     General routines

     Parallel routines

   This run was terminated on:   3:17:43   9Sep2021

   JOB DONE.