     Program PWSCF v.6.7GPU starts on 23Aug2021 at 15:29:24

     R & G space division:  proc/nbgrp/npool/nimage =       6
     Reading input from /storage/home/hcoda1/3/ntian30/research/carbon/CH_vib/ads_slab/CHN_a/out_0006/pw.inp
Warning: card &CELL ignored
Warning: card   CELL_DYNAMICS='IPI', ignored
Warning: card / ignored

     Current dimensions of program PWSCF are:
     Max number of different atomic species (ntypx) = 10
     Max number of k-points (npk) =  40000
     Max angular momentum in pseudopotentials (lmaxx) =  3
     Presently no symmetry can be used with electric field

     Message from routine cell_base_init:
     DEPRECATED: use true lattice parameter, not A to a.u. conversion factor

     IMPORTANT: XC functional enforced from input :
     Exchange-correlation= BEEF-VDW
                           (   1   4  43  14   2   0   0)
     Any further DFT definition will be discarded
     Please, verify this is what you really want

  @ DRIVER MODE: Connecting to
 qe_1139763_2632801.sched-torque.pace.gatech.edu5frwjcki_scratch
  using UNIX socket
  @ DRIVER MODE: Message from server: STATUS
  @ DRIVER MODE: Message from server: INIT
  @ DRIVER MODE: Receiving replica           0          -1
  @ DRIVER MODE: Receiving encoded integer          25
  @ DRIVER MODE:  SCF:  T  FORCE:  T  STRESS:  F  VC:  F  ENSEMBLE:  F
  @ DRIVER MODE:  SCF:  T  FORCE:  T  STRESS:  F  VC:  F  ENSEMBLE:  F

     Using Slab Decomposition

     bravais-lattice index     =            0
     lattice parameter (alat)  =       1.8897  a.u.
     unit-cell volume          =    6658.9804 (a.u.)^3
     number of atoms/cell      =           50
     number of atomic types    =            5
     number of electrons       =       388.00
     number of Kohn-Sham states=          204
     kinetic-energy cutoff     =      29.3995  Ry
     charge density cutoff     =     293.9946  Ry
     scf convergence threshold =      7.3E-08
     mixing beta               =       0.0500
     number of iterations used =            8  plain     mixing
     Exchange-correlation= BEEF-VDW
                           (   1   4  43  14   2   0   0)

     celldm(1)=   1.889726  celldm(2)=   0.000000  celldm(3)=   0.000000
     celldm(4)=   0.000000  celldm(5)=   0.000000  celldm(6)=   0.000000

     crystal axes: (cart. coord. in units of alat)
               a(1) = (   6.579727   0.000000   0.000000 )
               a(2) = (  -0.000775   5.961596   0.000000 )
               a(3) = (   0.000000   0.000000  25.155947 )

     reciprocal axes: (cart. coord. in units 2 pi/alat)
               b(1) = (  0.151982  0.000020  0.000000 )
               b(2) = (  0.000000  0.167740  0.000000 )
               b(3) = (  0.000000  0.000000  0.039752 )

     PseudoPot. # 1 for Ti read from file:
     /storage/coda1/p-amedford6/0/shared/rich_project_chbe-medford/medford-share/data/pseudos_module/espresso/nninc/pbe/van/Ti.UPF
     MD5 check sum: 8e4df49b7f0d34bbd5052bf3f5ea0213
     Pseudo is Ultrasoft, Zval = 12.0
     Generated by new atomic code, or converted to UPF format
     Using radial grid of  851 points,  6 beta functions with:
                l(1) =   0
                l(2) =   0
                l(3) =   1
                l(4) =   1
                l(5) =   2
                l(6) =   2
     Q(r) pseudized with  8 coefficients,  rinner =    1.000   1.000   1.000
                                                       1.000   1.000

     PseudoPot. # 2 for O  read from file:
     /storage/coda1/p-amedford6/0/shared/rich_project_chbe-medford/medford-share/data/pseudos_module/espresso/nninc/pbe/van/O.UPF
     MD5 check sum: 78c19812648e8988a0fe644b0f25305e
     Pseudo is Ultrasoft, Zval =  6.0
     Generated by new atomic code, or converted to UPF format
     Using radial grid of  737 points,  4 beta functions with:
                l(1) =   0
                l(2) =   0
                l(3) =   1
                l(4) =   1
     Q(r) pseudized with  8 coefficients,  rinner =    0.800   0.800   0.800

     PseudoPot. # 3 for N  read from file:
     /storage/coda1/p-amedford6/0/shared/rich_project_chbe-medford/medford-share/data/pseudos_module/espresso/nninc/pbe/van/N.UPF
     MD5 check sum: 90d10febe142ad51ac9d5be1deb811c4
     Pseudo is Ultrasoft, Zval =  5.0
     Generated by new atomic code, or converted to UPF format
     Using radial grid of  729 points,  4 beta functions with:
                l(1) =   0
                l(2) =   0
                l(3) =   1
                l(4) =   1
     Q(r) pseudized with  8 coefficients,  rinner =    0.800   0.800   0.800

     PseudoPot. # 4 for C  read from file:
     /storage/coda1/p-amedford6/0/shared/rich_project_chbe-medford/medford-share/data/pseudos_module/espresso/nninc/pbe/van/C.UPF
     MD5 check sum: 1a69bf6b8db32088f5b2163dbdb77a27
     Pseudo is Ultrasoft, Zval =  4.0
     Generated by new atomic code, or converted to UPF format
     Using radial grid of  721 points,  4 beta functions with:
                l(1) =   0
                l(2) =   0
                l(3) =   1
                l(4) =   1
     Q(r) pseudized with  8 coefficients,  rinner =    0.800   0.800   0.800

     PseudoPot. # 5 for H  read from file:
     /storage/coda1/p-amedford6/0/shared/rich_project_chbe-medford/medford-share/data/pseudos_module/espresso/nninc/pbe/van/H.UPF
     MD5 check sum: b5ee9d7bfd3a09ee7748110bda690ff7
     Pseudo is Ultrasoft, Zval =  1.0
     Generated by new atomic code, or converted to UPF format
     Using radial grid of  615 points,  1 beta functions with:
                l(1) =   0
     Q(r) pseudized with  8 coefficients,  rinner =    0.800

     atomic species   valence    mass     pseudopotential
        Ti1           12.00    47.86700     Ti( 1.00)
        O1             6.00    15.99900     O ( 1.00)
        N1             5.00    14.00700     N ( 1.00)
        C1             4.00    12.01100     C ( 1.00)
        H1             1.00     1.00800     H ( 1.00)

     No symmetry found

   Cartesian axes

     site n.     atom                  positions (alat units)
         1           Ti1 tau(   1) = (   0.0004258   2.9801865   6.0000000  )
         2           Ti1 tau(   2) = (   3.2906075   1.4906267   6.0002472  )
         3           O1  tau(   3) = (   0.0006271   0.0005054   7.9858123  )
         4           O1  tau(   4) = (   3.2906025   0.0005020   7.3038282  )
         5           O1  tau(   5) = (   4.5942328   1.4918067   9.2879030  )
         6           O1  tau(   6) = (   1.9868534   1.4903216   9.2879459  )
         7           Ti1 tau(   7) = (   3.2907910   2.8959150   9.1758416  )
         8           Ti1 tau(   8) = (   0.0015273   1.4827037   9.2680791  )
         9           O1  tau(   9) = (   3.3014052   0.0114069  11.3737528  )
        10           O1  tau(  10) = (   0.0116148   5.9584955  10.6183126  )
        11           O1  tau(  11) = (   1.3012034   1.4994444  12.6801950  )
        12           O1  tau(  12) = (   5.3042999   1.4981222  12.6788946  )
        13           Ti1 tau(  13) = (   0.0222102   2.9879630  12.5217794  )
        14           Ti1 tau(  14) = (   3.3166014   1.4969944  12.5290657  )
        15           O1  tau(  15) = (   0.0131148   5.9114811  14.6787674  )
        16           O1  tau(  16) = (   3.3052116   5.9585997  13.9918696  )
        17           O1  tau(  17) = (   4.5573354   1.5165695  16.1403462  )
        18           O1  tau(  18) = (   2.0429717   1.5180214  16.1331141  )
        19           Ti1 tau(  19) = (   3.3061463   3.0045039  15.7576854  )
        20           Ti1 tau(  20) = (   0.0190008   1.3629876  15.8180984  )
        21           O1  tau(  21) = (   3.2904802   0.0005063   4.7018136  )
        22           O1  tau(  22) = (   0.0120025   0.1123878  17.2186474  )
        23           O1  tau(  23) = (   1.3043587   1.4918075   6.0039043  )
        24           O1  tau(  24) = (   5.2767064   1.4903225   6.0039473  )
        25           Ti1 tau(  25) = (   0.0000382   5.9609847   6.0000000  )
        26           Ti1 tau(  26) = (   3.2902200   4.4714249   6.0002472  )
        27           O1  tau(  27) = (   0.0002396   2.9813036   7.9858123  )
        28           O1  tau(  28) = (   3.2902150   2.9813002   7.3038282  )
        29           O1  tau(  29) = (   4.5938453   4.4726049   9.2879030  )
        30           O1  tau(  30) = (   1.9864658   4.4711199   9.2879459  )
        31           Ti1 tau(  31) = (   3.2891106   5.8743827   9.1763621  )
        32           Ti1 tau(  32) = (   0.0006254   4.4649316   9.2693709  )
        33           O1  tau(  33) = (   3.3015003   2.9799855  11.3692792  )
        34           O1  tau(  34) = (   0.0092240   2.9805883  10.6323155  )
        35           O1  tau(  35) = (   1.3024855   4.4701597  12.6493271  )
        36           O1  tau(  36) = (   5.3029933   4.4710749  12.6473438  )
        37           Ti1 tau(  37) = (   0.0213219   5.9581237  12.5009821  )
        38           Ti1 tau(  38) = (   3.3165689   4.4756321  12.5216884  )
        39           O1  tau(  39) = (   0.0062450   3.0260372  14.9395602  )
        40           O1  tau(  40) = (   3.3068494   3.0035608  13.9656762  )
        41           O1  tau(  41) = (   4.5532872   4.4785133  16.2063021  )
        42           O1  tau(  42) = (   2.0453360   4.4758230  16.1992630  )
        43           Ti1 tau(  43) = (   3.3068391   0.0190840  15.7907057  )
        44           Ti1 tau(  44) = (   0.0173475   4.5946531  16.0781683  )
        45           O1  tau(  45) = (   3.2900926   2.9813045   4.7018136  )
        46           O1  tau(  46) = (   1.3039711   4.4726057   6.0039043  )
        47           O1  tau(  47) = (   5.2763189   4.4711207   6.0039473  )
        48           N1  tau(  48) = (   0.0050225   3.2246995  17.9753954  )
        49           C1  tau(  49) = (   6.5749124   2.4458835  18.8135322  )
        50           H1  tau(  50) = (   6.5624368   1.6931146  19.5645906  )

     number of k points=    10  Fermi-Dirac smearing, width (Ry)=  0.0073
                       cart. coord. in units 2pi/alat
        k(    1) = (   0.0000000   0.0000000   0.0000000), wk =   0.1250000
        k(    2) = (   0.0000000   0.0419351   0.0000000), wk =   0.2500000
        k(    3) = (   0.0000000  -0.0838702   0.0000000), wk =   0.1250000
        k(    4) = (   0.0379955   0.0000049   0.0000000), wk =   0.2500000
        k(    5) = (   0.0379955   0.0419400   0.0000000), wk =   0.2500000
        k(    6) = (   0.0379955  -0.0838652   0.0000000), wk =   0.2500000
        k(    7) = (   0.0379955  -0.0419301   0.0000000), wk =   0.2500000
        k(    8) = (  -0.0759910  -0.0000099   0.0000000), wk =   0.1250000
        k(    9) = (  -0.0759910   0.0419252   0.0000000), wk =   0.2500000
        k(   10) = (  -0.0759910  -0.0838800   0.0000000), wk =   0.1250000

     Initial potential from superposition of free atoms

     starting charge  371.99919, renormalised to  388.00000

     negative rho (up, down):  1.810E-02 0.000E+00

     %%%%%%%%%%%%%%%%%%%%%%%%%%%%%%%%%%%%%%%%%%%%%%%%%%%%%%%%%%%%%%%%%%%%%%%%
     %                                                                      %
     % You are using vdW-DF, which was implemented by the Thonhauser group. %
     % Please cite the following two papers that made this development      %
     % possible and the two reviews that describe the various versions:     %
     %                                                                      %
     %   T. Thonhauser et al., PRL 115, 136402 (2015).                      %
     %   T. Thonhauser et al., PRB 76, 125112 (2007).                       %
     %   K. Berland et al., Rep. Prog. Phys. 78, 066501 (2015).             %
     %   D.C. Langreth et al., J. Phys.: Condens. Matter 21, 084203 (2009). %
     %                                                                      %
     %                                                                      %
     % If you are calculating the stress with vdW-DF, please also cite:     %
     %                                                                      %
     %   R. Sabatini et al., J. Phys.: Condens. Matter 24, 424209 (2012).   %
     %                                                                      %
     %%%%%%%%%%%%%%%%%%%%%%%%%%%%%%%%%%%%%%%%%%%%%%%%%%%%%%%%%%%%%%%%%%%%%%%%

     Adding external electric field

     Computed dipole along edir(3) :
        Dipole               -4.8625 Ry au,        -12.3594 Debye
        Dipole field         -0.0092 Ry au,

        Potential amp.        0.8506 Ry
        Total length         46.3494 bohr

     Starting wfcs are  293 atomic wfcs
  @ DRIVER MODE: Message from server: STATUS
  @ DRIVER MODE: Message from server: POSDATA
  @ DRIVER MODE: Reading and sharing cell
  @ DRIVER MODE: Reading and sharing positions
  @ DRIVER MODE: Received positions

     Self-consistent Calculation

     iteration #  1     ecut=    29.40 Ry     beta= 0.05
     Davidson diagonalization with overlap
     c_bands:  5 eigenvalues not converged
     c_bands:  5 eigenvalues not converged
     c_bands:  4 eigenvalues not converged
     c_bands:  5 eigenvalues not converged
     c_bands:  3 eigenvalues not converged
     c_bands:  5 eigenvalues not converged
     c_bands:  4 eigenvalues not converged
     c_bands:  3 eigenvalues not converged
     c_bands:  1 eigenvalues not converged
     ethr =  1.00E-05,  avg # of iterations = 20.0

[...]

     total energy              =   -2846.09011046 Ry
     estimated scf accuracy    <     790.33464939 Ry

     iteration #  2     ecut=    29.40 Ry     beta= 0.05
     Davidson diagonalization with overlap
     ethr =  1.00E-02,  avg # of iterations = 15.5

[...]

     iteration # 66     ecut=    29.40 Ry     beta= 0.05
     Davidson diagonalization with overlap
     c_bands:  1 eigenvalues not converged
     ethr =  2.32E-11,  avg # of iterations = 14.2

[...]

     total energy              =   -2916.61457118 Ry
     estimated scf accuracy    <       0.00000008 Ry

     iteration # 68     ecut=    29.40 Ry     beta= 0.05
     Davidson diagonalization with overlap
     ethr =  2.10E-11,  avg # of iterations =  8.9

     negative rho (up, down):  1.833E-02 0.000E+00

     Adding external electric field

     Computed dipole along edir(3) :
        Dipole                1.5237 Ry au,          3.8729 Debye
        Dipole field          0.0029 Ry au,

        Potential amp.       -0.2665 Ry
        Total length         46.3494 bohr

     End of self-consistent calculation

          k = 0.0000 0.0000 0.0000 ( 18029 PWs)   bands (ev):

   -55.4387 -55.4027 -55.3953 -55.3611 -55.3181 -55.3142 -55.2783 -55.2578
   -55.2576 -55.2361 -55.2247 -55.2232 -55.1911 -55.1375 -54.4215 -54.3874
   -32.0053 -31.8871 -31.8488 -31.8029 -31.7486 -31.7469 -31.7422 -31.7293
   -31.6845 -31.6709 -31.6477 -31.6400 -31.6350 -31.6090 -31.5925 -31.5816
   -31.5756 -31.5633 -31.5557 -31.5475 -31.5320 -31.5223 -31.5086 -31.4935
   -31.4879 -31.4756 -31.4598 -31.4524 -31.4451 -31.4431 -31.4412 -31.4228
   -31.4175 -31.4087 -31.4073 -31.4059 -31.3714 -31.3569 -31.3530 -31.3432
   -31.3353 -31.2601 -30.8307 -30.7368 -30.7147 -30.6471 -30.5604 -30.4494
   -17.4982 -16.2573 -15.9887 -15.8385 -15.7329 -15.6341 -15.5017 -15.4822
   -15.3564 -15.2654 -15.1440 -15.0925 -15.0729 -15.0572 -15.0474 -15.0328
   -14.9803 -14.9757 -14.9457 -14.9331 -14.9109 -14.8730 -14.8677 -14.8341
   -14.8150 -14.7491 -14.6710 -14.5938 -14.5275 -14.2325 -12.9241 -12.8067
    -9.0545  -4.6716  -3.5994  -3.5408  -3.4515  -3.3522  -3.3334  -3.2991
    -3.2688  -3.1833  -3.0202  -2.8425  -2.7838  -2.7063  -2.6405  -2.6285
    -2.5997  -2.4415  -2.4035  -2.3557  -2.2999  -2.2752  -2.2456  -2.2226
    -2.1913  -2.1717  -2.1690  -2.1615  -2.0026  -1.9390  -1.8997  -1.8491
    -1.8312  -1.7796  -1.7568  -1.7243  -1.7207  -1.7161  -1.6638  -1.6514
    -1.6129  -1.5183  -1.4588  -1.3247  -1.2829  -1.1440  -1.0758  -1.0135
    -1.0019  -0.9220  -0.8883  -0.8807  -0.8196  -0.7948  -0.7761  -0.6525
    -0.5542  -0.5072  -0.4502  -0.4182  -0.3742  -0.3375  -0.2500  -0.2188
    -0.2025  -0.1934  -0.0513  -0.0222   0.0567   0.0846   0.1176   0.1187
     0.2220   0.2386   0.3142   0.3596   0.3898   0.4526   0.5034   0.5060
     0.5260   0.5524   0.5593   0.6541   0.6725   0.6824   0.7569   0.9010
     1.1286   1.1756   1.1847   1.5079   1.5197   1.6012   1.7855   2.1770
     2.2251   3.6591   3.7308   3.8009   3.8098   3.8456   3.8960   4.1287
     4.1400   4.1602   4.1665   4.2000

[...]

          k = 0.0380-0.0419 0.0000 ( 17876 PWs)   bands (ev):

[...]

          k =-0.0760-0.0000 0.0000 ( 17886 PWs)   bands (ev):

[...]

          k =-0.0760-0.0839 0.0000 ( 17948 PWs)   bands (ev):

   -55.4222 -55.4189 -55.3782 -55.3781 -55.3142 -55.3015 -55.2909 -55.2552
   -55.2415 -55.2398 -55.2388 -55.2082 -55.2079 -55.1400 -54.4045 -54.4042
   -31.8103 -31.8077 -31.7727 -31.7145 -31.7023 -31.7022 -31.6906 -31.6698
   -31.6698 -31.6469 -31.6376 -31.6345 -31.6253 -31.5831 -31.5746 -31.5711
   -31.5700 -31.5653 -31.5639 -31.5576 -31.5283 -31.5278 -31.5162 -31.5147
   -31.5093 -31.4978 -31.4978 -31.4970 -31.4837 -31.4817 -31.4742 -31.4716
   -31.4550 -31.4520 -31.4448 -31.4382 -31.4360 -31.4288 -31.3886 -31.3883
   -31.3490 -31.3480 -30.7275 -30.7272 -30.6433 -30.6431 -30.6038 -30.6037
   -17.4932 -15.7767 -15.6610 -15.6283 -15.4461 -15.4358 -15.3999 -15.3883
   -15.2452 -15.2035 -15.1949 -15.1858 -15.1369 -15.1357 -15.1326 -15.1109
   -15.0360 -15.0299 -15.0252 -15.0089 -14.9519 -14.9406 -14.9376 -14.9208
   -14.8892 -14.8852 -14.7911 -14.7879 -14.6869 -14.5889 -12.9083 -12.9082
    -9.0520  -4.6597  -3.4605  -3.3115  -2.9309  -2.8982  -2.8901  -2.6565
    -2.6297  -2.5972  -2.5553  -2.4832  -2.4338  -2.4134  -2.4095  -2.3411
    -2.2942  -2.2871  -2.2768  -2.2592  -2.2546  -2.2314  -2.1985  -2.1638
    -2.1540  -2.1282  -2.1140  -2.0916  -2.0726  -2.0380  -2.0237  -1.9999
    -1.9966  -1.8999  -1.8687  -1.7859  -1.7488  -1.7158  -1.6411  -1.6355
    -1.5339  -1.5301  -1.4767  -1.4653  -1.4279  -1.3233  -1.2367  -1.1851
    -1.1781  -1.1691  -1.0701  -1.0005  -0.9751  -0.9383  -0.9133  -0.8365
    -0.7757  -0.7543  -0.7145  -0.6296  -0.6257  -0.5623  -0.4590  -0.4180
    -0.4012  -0.3947  -0.3773  -0.3221  -0.3107  -0.2491  -0.2048  -0.1698
    -0.1589  -0.1154   0.0963   0.0971   0.1444   0.2584   0.2942   0.4458
     0.5231   0.5402   0.6169   0.6522   0.6788   0.7445   0.8522   0.8719
     0.8811   0.9555   0.9947   1.0196   1.0292   1.9583   1.9588   2.0450
     2.0451   3.7809   3.8962   3.9258   3.9759   4.0249   4.0752   4.1790
     4.2001   4.2423   4.2439   4.3180

     the Fermi energy is     3.7187 ev

!    total energy              =   -2916.61459234 Ry
     estimated scf accuracy    <       0.00000003 Ry
     smearing contrib. (-TS)   =      -0.03746477 Ry
     internal energy E=F+TS    =   -2916.57712757 Ry

     The total energy is F=E-TS. E is the sum of the following terms:
     one-electron contribution =  -24442.34763757 Ry
     hartree contribution      =   12308.69455268 Ry
     xc contribution           =    -478.38631526 Ry
     ewald contribution        =    9695.45789126 Ry
     electric field correction =       0.00438132 Ry

     convergence has been achieved in  68 iterations

     Forces acting on atoms (cartesian axes, Ry/au):

     atom    1 type  1   force =     0.00000163   -0.00029224    0.09343437
     atom    2 type  1   force =    -0.00017918   -0.00047909   -0.17792026
     atom    3 type  2   force =     0.00002270   -0.00033958   -0.02064334
     atom    4 type  2   force =    -0.00003611   -0.00186860    0.05837972
     atom    5 type  2   force =    -0.01035606   -0.00073131    0.00709672
     atom    6 type  2   force =     0.01202252   -0.00013296    0.00686638
     atom    7 type  1   force =    -0.00011207    0.00192731   -0.01368295
     atom    8 type  1   force =    -0.00009863    0.00177224   -0.00208282
     atom    9 type  2   force =    -0.00004703   -0.00044670   -0.00034903
     atom   10 type  2   force =    -0.00120157    0.00258774   -0.00295618
     atom   11 type  2   force =    -0.00069123   -0.00014065    0.00017488
     atom   12 type  2   force =     0.00053414   -0.00009823   -0.00001949
     atom   13 type  1   force =    -0.00007202   -0.00002488   -0.00013625
     atom   14 type  1   force =    -0.00002204   -0.00004541    0.00019385
     atom   15 type  2   force =    -0.00010479   -0.00004044    0.00044781
     atom   16 type  2   force =    -0.00002975   -0.00011141   -0.00008498
     atom   17 type  2   force =     0.00091102    0.00011538    0.00006959
     atom   18 type  2   force =    -0.00045253    0.00009476    0.00044048
     atom   19 type  1   force =    -0.00026933    0.00031457   -0.00003697
     atom   20 type  1   force =    -0.00014148    0.00010188   -0.00000740
     atom   21 type  2   force =    -0.00002242   -0.00012262    0.10390911
     atom   22 type  2   force =    -0.00007120    0.00029993    0.00037115
     atom   23 type  2   force =    -0.07052372   -0.00021831   -0.02695410
     atom   24 type  2   force =     0.07030778    0.00021928   -0.02700188
     atom   25 type  1   force =     0.00000603   -0.00033890    0.09300311
     atom   26 type  1   force =    -0.00019653   -0.00053094   -0.17812577
     atom   27 type  2   force =     0.00005996   -0.00024227   -0.01964282
     atom   28 type  2   force =     0.00001276   -0.00164046    0.05785403
     atom   29 type  2   force =    -0.01086805   -0.00057432    0.00759055
     atom   30 type  2   force =     0.01239202   -0.00022719    0.00733312
     atom   31 type  1   force =    -0.00004226    0.00593511   -0.01476878
     atom   32 type  1   force =    -0.00011658   -0.00213217   -0.00204887
     atom   33 type  2   force =     0.00002235   -0.00006498   -0.00031773
     atom   34 type  2   force =    -0.00064465   -0.00101212   -0.00058768
     atom   35 type  2   force =    -0.00014021   -0.00006791    0.00016557
     atom   36 type  2   force =    -0.00004943   -0.00000641    0.00024025
     atom   37 type  1   force =     0.00022281   -0.00078267   -0.00015170
     atom   38 type  1   force =    -0.00005783   -0.00008499    0.00014839
     atom   39 type  2   force =     0.00011752   -0.00033089    0.00063494
     atom   40 type  2   force =    -0.00021965   -0.00011691   -0.00032926
     atom   41 type  2   force =     0.00072717   -0.00020555   -0.00024361
     atom   42 type  2   force =    -0.00030006    0.00002446    0.00016430
     atom   43 type  1   force =    -0.00015652   -0.00008991   -0.00002587
     atom   44 type  1   force =     0.00008867    0.00042990    0.00020333
     atom   45 type  2   force =    -0.00002302   -0.00014819    0.10386491
     atom   46 type  2   force =    -0.07050192   -0.00017123   -0.02694067
     atom   47 type  2   force =     0.07029692    0.00025783   -0.02699525
     atom   48 type  3   force =     0.00056149    0.02381020   -0.02587903
     atom   49 type  4   force =    -0.00061766   -0.02307940    0.02593431
     atom   50 type  5   force =     0.00005803   -0.00095074   -0.00058819

     Total force =     0.369222     Total SCF correction =     0.000254
  @ DRIVER MODE: Message from server: STATUS
  @ DRIVER MODE: Message from server: GETFORCE
  @ DRIVER MODE: Returning v,forces,stress,ensemble

     Writing output data file ./calc.save/
  @ DRIVER MODE: Message from server: EXIT
  @ DRIVE MODE: Exiting

     General routines

     Parallel routines

   This run was terminated on:  15:58:59  23Aug2021

   JOB DONE.