     Program PWSCF v.6.7GPU starts on 23Sep2021 at 13: 1:27

     R & G space division:  proc/nbgrp/npool/nimage =       8
     Reading input from /storage/home/hcoda1/3/ntian30/research/carbon/CxH_vib/H2O_calc/ads_slab/CH3ON2HO_a/out_0005/pw.inp
Warning: card &CELL ignored
Warning: card   CELL_DYNAMICS='IPI', ignored
Warning: card / ignored

     Current dimensions of program PWSCF are:
     Max number of different atomic species (ntypx) = 10
     Max number of k-points (npk) =  40000
     Max angular momentum in pseudopotentials (lmaxx) =  3
     Presently no symmetry can be used with electric field

     Message from routine cell_base_init:
     DEPRECATED: use true lattice parameter, not A to a.u. conversion factor

     IMPORTANT: XC functional enforced from input :
     Exchange-correlation= BEEF-VDW
                           (   1   4  43  14   2   0   0)
     Any further DFT definition will be discarded
     Please, verify this is what you really want

  @ DRIVER MODE: Connecting to
 qe_1139763_2947306.sched-torque.pace.gatech.eduv513xtnz_scratch
  using UNIX socket
  @ DRIVER MODE: Message from server: STATUS
  @ DRIVER MODE: Message from server: INIT
  @ DRIVER MODE: Receiving replica           0          -1
  @ DRIVER MODE: Receiving encoded integer          25
  @ DRIVER MODE:  SCF:  T  FORCE:  T  STRESS:  F  VC:  F  ENSEMBLE:  F
  @ DRIVER MODE:  SCF:  T  FORCE:  T  STRESS:  F  VC:  F  ENSEMBLE:  F

     Using Slab Decomposition

     bravais-lattice index     =            0
     lattice parameter (alat)  =       1.8897  a.u.
     unit-cell volume          =    6658.9804 (a.u.)^3
     number of atoms/cell      =           56
     number of atomic types    =            5
     number of electrons       =       408.00
     number of Kohn-Sham states=          214
     kinetic-energy cutoff     =      29.3995  Ry
     charge density cutoff     =     293.9946  Ry
     scf convergence threshold =      7.3E-08
     mixing beta               =       0.0500
     number of iterations used =            8  plain     mixing
     Exchange-correlation= BEEF-VDW
                           (   1   4  43  14   2   0   0)

     celldm(1)=   1.889726  celldm(2)=   0.000000  celldm(3)=   0.000000
     celldm(4)=   0.000000  celldm(5)=   0.000000  celldm(6)=   0.000000

     crystal axes: (cart. coord. in units of alat)
               a(1) = (   6.579727   0.000000   0.000000 )
               a(2) = (  -0.000775   5.961596   0.000000 )
               a(3) = (   0.000000   0.000000  25.155947 )

     reciprocal axes: (cart. coord. in units 2 pi/alat)
               b(1) = (  0.151982  0.000020  0.000000 )
               b(2) = (  0.000000  0.167740  0.000000 )
               b(3) = (  0.000000  0.000000  0.039752 )

     PseudoPot. # 1 for Ti read from file:
     /storage/coda1/p-amedford6/0/shared/rich_project_chbe-medford/medford-share/data/pseudos_module/espresso/nninc/pbe/van/Ti.UPF
     MD5 check sum: 8e4df49b7f0d34bbd5052bf3f5ea0213
     Pseudo is Ultrasoft, Zval = 12.0
     Generated by new atomic code, or converted to UPF format
     Using radial grid of  851 points,  6 beta functions with:
                l(1) =   0
                l(2) =   0
                l(3) =   1
                l(4) =   1
                l(5) =   2
                l(6) =   2
     Q(r) pseudized with  8 coefficients,  rinner =    1.000   1.000   1.000
                                                       1.000   1.000

     PseudoPot. # 2 for O  read from file:
     /storage/coda1/p-amedford6/0/shared/rich_project_chbe-medford/medford-share/data/pseudos_module/espresso/nninc/pbe/van/O.UPF
     MD5 check sum: 78c19812648e8988a0fe644b0f25305e
     Pseudo is Ultrasoft, Zval =  6.0
     Generated by new atomic code, or converted to UPF format
     Using radial grid of  737 points,  4 beta functions with:
                l(1) =   0
                l(2) =   0
                l(3) =   1
                l(4) =   1
     Q(r) pseudized with  8 coefficients,  rinner =    0.800   0.800   0.800

     PseudoPot. # 3 for C  read from file:
     /storage/coda1/p-amedford6/0/shared/rich_project_chbe-medford/medford-share/data/pseudos_module/espresso/nninc/pbe/van/C.UPF
     MD5 check sum: 1a69bf6b8db32088f5b2163dbdb77a27
     Pseudo is Ultrasoft, Zval =  4.0
     Generated by new atomic code, or converted to UPF format
     Using radial grid of  721 points,  4 beta functions with:
                l(1) =   0
                l(2) =   0
                l(3) =   1
                l(4) =   1
     Q(r) pseudized with  8 coefficients,  rinner =    0.800   0.800   0.800

     PseudoPot. # 4 for H  read from file:
     /storage/coda1/p-amedford6/0/shared/rich_project_chbe-medford/medford-share/data/pseudos_module/espresso/nninc/pbe/van/H.UPF
     MD5 check sum: b5ee9d7bfd3a09ee7748110bda690ff7
     Pseudo is Ultrasoft, Zval =  1.0
     Generated by new atomic code, or converted to UPF format
     Using radial grid of  615 points,  1 beta functions with:
                l(1) =   0
     Q(r) pseudized with  8 coefficients,  rinner =    0.800

     PseudoPot. # 5 for N  read from file:
     /storage/coda1/p-amedford6/0/shared/rich_project_chbe-medford/medford-share/data/pseudos_module/espresso/nninc/pbe/van/N.UPF
     MD5 check sum: 90d10febe142ad51ac9d5be1deb811c4
     Pseudo is Ultrasoft, Zval =  5.0
     Generated by new atomic code, or converted to UPF format
     Using radial grid of  729 points,  4 beta functions with:
                l(1) =   0
                l(2) =   0
                l(3) =   1
                l(4) =   1
     Q(r) pseudized with  8 coefficients,  rinner =    0.800   0.800   0.800

     atomic species   valence    mass     pseudopotential
        Ti1           12.00    47.86700     Ti( 1.00)
        O1             6.00    15.99900     O ( 1.00)
        C1             4.00    12.01100     C ( 1.00)
        H1             1.00     1.00800     H ( 1.00)
        N1             5.00    14.00700     N ( 1.00)

     No symmetry found

   Cartesian axes

     site n.     atom                  positions (alat units)
         1           Ti1 tau(   1) = (   0.0004258   2.9801865   6.0000000  )
         2           Ti1 tau(   2) = (   3.2906075   1.4906267   6.0002472  )
         3           O1  tau(   3) = (   0.0006271   0.0005054   7.9858123  )
         4           O1  tau(   4) = (   3.2906025   0.0005020   7.3038282  )
         5           O1  tau(   5) = (   4.5942328   1.4918067   9.2879030  )
         6           O1  tau(   6) = (   1.9868534   1.4903216   9.2879459  )
         7           Ti1 tau(   7) = (   3.3138730   3.1023225   9.2183157  )
         8           Ti1 tau(   8) = (   0.0392070   1.5780841   9.3433077  )
         9           O1  tau(   9) = (   3.2868017   0.0212601  11.3135411  )
        10           O1  tau(  10) = (   0.0022550   0.0140515  10.5858881  )
        11           O1  tau(  11) = (   1.2767464   1.5002397  12.6205121  )
        12           O1  tau(  12) = (   5.2993684   1.4943797  12.6172415  )
        13           Ti1 tau(  13) = (   0.0200588   3.0780815  12.7918821  )
        14           Ti1 tau(  14) = (   3.2574684   1.5637424  12.4212484  )
        15           O1  tau(  15) = (   6.5768379   0.0158506  14.6682411  )
        16           O1  tau(  16) = (   3.2886937   5.9311801  13.9109749  )
        17           O1  tau(  17) = (   4.5620935   1.5260772  16.0398494  )
        18           O1  tau(  18) = (   2.0292830   1.5431627  16.0187044  )
        19           Ti1 tau(  19) = (   3.3027642   2.9567202  15.6520962  )
        20           Ti1 tau(  20) = (   0.0552782   1.4362356  15.9688716  )
        21           O1  tau(  21) = (   3.2904802   0.0005063   4.7018136  )
        22           O1  tau(  22) = (   0.0488089   0.0211857  17.1900833  )
        23           O1  tau(  23) = (   1.3043587   1.4918075   6.0039043  )
        24           O1  tau(  24) = (   5.2767064   1.4903225   6.0039473  )
        25           Ti1 tau(  25) = (   0.0000382   5.9609847   6.0000000  )
        26           Ti1 tau(  26) = (   3.2902200   4.4714249   6.0002472  )
        27           O1  tau(  27) = (   0.0002396   2.9813036   7.9858123  )
        28           O1  tau(  28) = (   3.2902150   2.9813002   7.3038282  )
        29           O1  tau(  29) = (   4.5938453   4.4726049   9.2879030  )
        30           O1  tau(  30) = (   1.9864658   4.4711199   9.2879459  )
        31           Ti1 tau(  31) = (   3.3219941   0.1169887   9.1790125  )
        32           Ti1 tau(  32) = (   0.0373256   4.5280481   9.3594506  )
        33           O1  tau(  33) = (   3.2887547   2.9594671  11.2851190  )
        34           O1  tau(  34) = (   0.0046902   2.9985155  10.5475055  )
        35           O1  tau(  35) = (   1.2817606   4.4707209  12.6310527  )
        36           O1  tau(  36) = (   5.3098963   4.4869072  12.6241852  )
        37           Ti1 tau(  37) = (   6.5328698   0.0937101  12.6083326  )
        38           Ti1 tau(  38) = (   3.2790761   4.6595539  12.6693962  )
        39           O1  tau(  39) = (   0.0062896   2.9920245  14.6683812  )
        40           O1  tau(  40) = (   3.3079832   2.9813091  13.8732900  )
        41           O1  tau(  41) = (   4.5514670   4.4448635  16.0695425  )
        42           O1  tau(  42) = (   2.0242163   4.4286948  16.0089506  )
        43           Ti1 tau(  43) = (   3.3772342   5.9382356  16.2476532  )
        44           Ti1 tau(  44) = (   0.0845355   4.5653432  16.0322982  )
        45           O1  tau(  45) = (   3.2900926   2.9813045   4.7018136  )
        46           O1  tau(  46) = (   1.3039711   4.4726057   6.0039043  )
        47           O1  tau(  47) = (   5.2763189   4.4711207   6.0039473  )
        48           C1  tau(  48) = (   6.0101766   2.9784267  18.5988694  )
        49           O1  tau(  49) = (   6.5649008   2.9952511  17.2928482  )
        50           H1  tau(  50) = (   4.9185495   2.9407445  18.5675634  )
        51           H1  tau(  51) = (   6.3703738   2.0936667  19.1370987  )
        52           H1  tau(  52) = (   6.3118891   3.8824302  19.1399426  )
        53           N1  tau(  53) = (   6.0262039   3.1690275  22.5535725  )
        54           N1  tau(  54) = (   5.1417247   3.1052473  21.8962875  )
        55           O1  tau(  55) = (   3.2068502   5.9581871  18.0710493  )
        56           H1  tau(  56) = (   2.3500504   0.2277792  18.4614507  )

     number of k points=    10  Fermi-Dirac smearing, width (Ry)=  0.0073
                       cart. coord. in units 2pi/alat
        k(    1) = (   0.0000000   0.0000000   0.0000000), wk =   0.1250000
        k(    2) = (   0.0000000   0.0419351   0.0000000), wk =   0.2500000
        k(    3) = (   0.0000000  -0.0838702   0.0000000), wk =   0.1250000
        k(    4) = (   0.0379955   0.0000049   0.0000000), wk =   0.2500000
        k(    5) = (   0.0379955   0.0419400   0.0000000), wk =   0.2500000
        k(    6) = (   0.0379955  -0.0838652   0.0000000), wk =   0.2500000
        k(    7) = (   0.0379955  -0.0419301   0.0000000), wk =   0.2500000
        k(    8) = (  -0.0759910  -0.0000099   0.0000000), wk =   0.1250000
        k(    9) = (  -0.0759910   0.0419252   0.0000000), wk =   0.2500000
        k(   10) = (  -0.0759910  -0.0838800   0.0000000), wk =   0.1250000

     Initial potential from superposition of free atoms

     starting charge  391.99915, renormalised to  408.00000

     negative rho (up, down):  9.975E-03 0.000E+00

     %%%%%%%%%%%%%%%%%%%%%%%%%%%%%%%%%%%%%%%%%%%%%%%%%%%%%%%%%%%%%%%%%%%%%%%%
     %                                                                      %
     % You are using vdW-DF, which was implemented by the Thonhauser group. %
     % Please cite the following two papers that made this development      %
     % possible and the two reviews that describe the various versions:     %
     %                                                                      %
     %   T. Thonhauser et al., PRL 115, 136402 (2015).                      %
     %   T. Thonhauser et al., PRB 76, 125112 (2007).                       %
     %   K. Berland et al., Rep. Prog. Phys. 78, 066501 (2015).             %
     %   D.C. Langreth et al., J. Phys.: Condens. Matter 21, 084203 (2009). %
     %                                                                      %
     %                                                                      %
     % If you are calculating the stress with vdW-DF, please also cite:     %
     %                                                                      %
     %   R. Sabatini et al., J. Phys.: Condens. Matter 24, 424209 (2012).   %
     %                                                                      %
     %%%%%%%%%%%%%%%%%%%%%%%%%%%%%%%%%%%%%%%%%%%%%%%%%%%%%%%%%%%%%%%%%%%%%%%%

     Adding external electric field

     Computed dipole along edir(3) :
        Dipole              -16.8121 Ry au,        -42.7321 Debye
        Dipole field         -0.0317 Ry au,

        Potential amp.        2.9410 Ry
        Total length         46.3494 bohr

     Starting wfcs are  308 atomic wfcs
  @ DRIVER MODE: Message from server: STATUS
  @ DRIVER MODE: Message from server: POSDATA
  @ DRIVER MODE: Reading and sharing cell
  @ DRIVER MODE: Reading and sharing positions
  @ DRIVER MODE: Received positions

     Self-consistent Calculation

     iteration #  1     ecut=    29.40 Ry     beta= 0.05
     Davidson diagonalization with overlap
     c_bands:  4 eigenvalues not converged
     c_bands:  1 eigenvalues not converged
     c_bands:  1 eigenvalues not converged
     c_bands:  2 eigenvalues not converged
     c_bands:  2 eigenvalues not converged
     c_bands:  1 eigenvalues not converged
     c_bands:  5 eigenvalues not converged
     ethr =  1.00E-05,  avg # of iterations = 28.8

[...]

     total energy              =   -2248.48506100 Ry
     estimated scf accuracy    <    8688.62928793 Ry

     iteration #  2     ecut=    29.40 Ry     beta= 0.05
     Davidson diagonalization with overlap
     ethr =  1.00E-02,  avg # of iterations = 30.2

[...]

     iteration # 45     ecut=    29.40 Ry     beta= 0.05
     Davidson diagonalization with overlap
     c_bands:  1 eigenvalues not converged
     c_bands:  1 eigenvalues not converged
     ethr =  3.54E-08,  avg # of iterations = 13.4

[...]

     total energy              =   -3005.28899683 Ry
     estimated scf accuracy    <       0.00000008 Ry

     iteration # 62     ecut=    29.40 Ry     beta= 0.05
     Davidson diagonalization with overlap
     ethr =  1.97E-11,  avg # of iterations =  5.0

     negative rho (up, down):  1.140E-02 0.000E+00

     Adding external electric field

     Computed dipole along edir(3) :
        Dipole                0.5380 Ry au,          1.3675 Debye
        Dipole field          0.0010 Ry au,

        Potential amp.       -0.0941 Ry
        Total length         46.3494 bohr

     End of self-consistent calculation

          k = 0.0000 0.0000 0.0000 ( 18029 PWs)   bands (ev):

   -56.1371 -56.0896 -55.5799 -55.5609 -55.5449 -55.5221 -55.4895 -55.4648
   -55.4307 -55.4044 -55.3702 -55.3286 -55.3275 -55.1916 -54.7501 -54.7162
   -32.5501 -32.4014 -32.3510 -32.3166 -32.2219 -32.1765 -32.0837 -32.0265
   -32.0185 -31.9112 -31.8677 -31.8503 -31.8445 -31.8239 -31.8211 -31.7828
   -31.7797 -31.7657 -31.7460 -31.7394 -31.7357 -31.6948 -31.6855 -31.6695
   -31.6663 -31.6489 -31.6458 -31.6371 -31.6284 -31.6188 -31.6122 -31.5948
   -31.5797 -31.5744 -31.5682 -31.5333 -31.5247 -31.5215 -31.4911 -31.4462
   -31.4082 -31.3967 -31.1446 -31.0902 -31.0659 -30.9614 -30.8765 -30.7657
   -20.8414 -17.4162 -16.3459 -16.2936 -16.1531 -15.9167 -15.7726 -15.6947
   -15.4649 -15.4544 -15.3399 -15.3326 -15.2982 -15.1668 -15.1501 -15.1420
   -15.0904 -15.0761 -15.0529 -15.0509 -15.0470 -15.0388 -14.9813 -14.9621
   -14.9225 -14.8635 -14.7873 -14.7672 -14.7182 -14.7069 -14.6654 -14.4399
   -13.2516 -13.1430  -9.0528  -6.0019  -4.1381  -3.9913  -3.9655  -3.9326
    -3.8207  -3.7572  -3.5965  -3.4970  -3.4732  -3.3948  -3.3000  -3.1938
    -2.9793  -2.8274  -2.7649  -2.7259  -2.7017  -2.6838  -2.6425  -2.5813
    -2.5263  -2.4838  -2.4502  -2.4170  -2.3556  -2.3425  -2.3281  -2.2975
    -2.2778  -2.2566  -2.2233  -2.2127  -2.0782  -2.0413  -2.0115  -2.0001
    -1.9469  -1.9279  -1.9090  -1.8994  -1.8545  -1.7575  -1.6603  -1.6454
    -1.6019  -1.4133  -1.3405  -1.2914  -1.2154  -1.1507  -1.0715  -1.0518
    -1.0416  -0.9878  -0.9502  -0.8483  -0.8147  -0.7744  -0.7077  -0.7008
    -0.6635  -0.5964  -0.5727  -0.5168  -0.4889  -0.4560  -0.3147  -0.2795
    -0.2622  -0.2014  -0.2007  -0.1083  -0.0468   0.0044   0.0224   0.0778
     0.1191   0.1411   0.1907   0.2217   0.2364   0.3190   0.3682   0.3750
     0.4107   0.4488   0.4680   0.5016   0.5877   0.6364   0.6620   0.6882
     0.8318   0.8479   0.9003   1.0069   1.0173   1.1975   1.2674   1.3030
     1.4895   1.5278   1.8190   1.8648   3.1631   3.3263   3.6055   3.7178
     3.7619   3.8018   3.8774   3.9038   4.0592   4.0972

[...]

          k = 0.0380-0.0419 0.0000 ( 17876 PWs)   bands (ev):

[...]

          k =-0.0760-0.0000 0.0000 ( 17886 PWs)   bands (ev):

[...]

          k =-0.0760-0.0839 0.0000 ( 17948 PWs)   bands (ev):

   -56.1302 -56.0965 -55.5779 -55.5560 -55.5438 -55.5161 -55.4940 -55.4706
   -55.4325 -55.4057 -55.3617 -55.3367 -55.3259 -55.1935 -54.7333 -54.7329
   -32.3968 -32.3813 -32.3550 -32.3526 -32.2821 -32.2535 -31.9722 -31.8917
   -31.8625 -31.8445 -31.8226 -31.8118 -31.7998 -31.7945 -31.7834 -31.7700
   -31.7642 -31.7546 -31.7545 -31.7461 -31.7368 -31.7281 -31.7149 -31.7144
   -31.7113 -31.6949 -31.6894 -31.6646 -31.6561 -31.6549 -31.6377 -31.6309
   -31.6084 -31.6012 -31.5856 -31.5738 -31.5710 -31.5437 -31.5288 -31.5107
   -31.4467 -31.4002 -31.0790 -31.0788 -30.9602 -30.9585 -30.9187 -30.9178
   -20.8412 -17.3809 -16.3185 -15.7008 -15.6112 -15.6017 -15.5943 -15.5614
   -15.5257 -15.4609 -15.4466 -15.3783 -15.3066 -15.2755 -15.2346 -15.2098
   -15.1938 -15.1573 -15.1525 -15.0907 -15.0470 -15.0383 -15.0233 -15.0096
   -14.9653 -14.9570 -14.9482 -14.9320 -14.9224 -14.8621 -14.7624 -14.5846
   -13.2473 -13.2461  -9.0529  -6.0034  -4.0537  -3.9905  -3.9659  -3.8866
    -3.6963  -3.4691  -2.9337  -2.8526  -2.7746  -2.7726  -2.6880  -2.6836
    -2.6358  -2.6129  -2.5764  -2.5611  -2.5383  -2.4739  -2.4490  -2.4345
    -2.4310  -2.4222  -2.4063  -2.3876  -2.3448  -2.3355  -2.3222  -2.3130
    -2.2940  -2.2897  -2.2772  -2.2554  -2.2157  -2.1536  -2.0948  -1.9557
    -1.9475  -1.9212  -1.9024  -1.8781  -1.8529  -1.8023  -1.7206  -1.7005
    -1.6819  -1.6053  -1.5470  -1.3420  -1.3201  -1.3034  -1.2336  -1.1651
    -1.0984  -1.0814  -1.0468  -1.0134  -0.9892  -0.9503  -0.8912  -0.8579
    -0.8151  -0.8021  -0.7647  -0.7254  -0.6595  -0.6160  -0.6076  -0.5751
    -0.5251  -0.5013  -0.4108  -0.4028  -0.3792  -0.3616  -0.3239  -0.2366
    -0.1841  -0.1373  -0.0487  -0.0055   0.0304   0.1646   0.2309   0.2656
     0.3394   0.3821   0.4861   0.5084   0.5891   0.6092   0.6382   0.6635
     0.7304   0.7995   0.8512   0.9005   0.9408   0.9555   1.0066   1.0575
     1.6608   1.6634   1.6709   1.6772   3.7059   3.7322   3.7400   3.7733
     3.9769   4.0069   4.0803   4.0969   4.1172   4.1712

     the Fermi energy is     2.5712 ev

!    total energy              =   -3005.28903330 Ry
     estimated scf accuracy    <       0.00000003 Ry
     smearing contrib. (-TS)   =      -0.00015430 Ry
     internal energy E=F+TS    =   -3005.28887900 Ry

     The total energy is F=E-TS. E is the sum of the following terms:
     one-electron contribution =  -22583.73957370 Ry
     hartree contribution      =   11388.10015930 Ry
     xc contribution           =    -500.24291364 Ry
     ewald contribution        =    8690.59290280 Ry
     electric field correction =       0.00054624 Ry

     convergence has been achieved in  62 iterations

     Forces acting on atoms (cartesian axes, Ry/au):

     atom    1 type  1   force =     0.00012039    0.00010190    0.13277485
     atom    2 type  1   force =    -0.00011929    0.00820450   -0.15822433
     atom    3 type  2   force =     0.00030018   -0.00362262   -0.05306398
     atom    4 type  2   force =     0.00059102    0.00105049    0.04010257
     atom    5 type  2   force =    -0.00787583   -0.00195639   -0.00033395
     atom    6 type  2   force =     0.00847377   -0.00490817   -0.00003902
     atom    7 type  1   force =    -0.00017159   -0.00031461   -0.00006426
     atom    8 type  1   force =    -0.00000702   -0.00026104    0.00020234
     atom    9 type  2   force =     0.00013432    0.00010318    0.00002377
     atom   10 type  2   force =    -0.00003192    0.00020200    0.00009178
     atom   11 type  2   force =    -0.00004277    0.00012937    0.00000686
     atom   12 type  2   force =     0.00037022   -0.00011106   -0.00003896
     atom   13 type  1   force =    -0.00018805    0.00003041    0.00015496
     atom   14 type  1   force =     0.00011611    0.00057064    0.00009293
     atom   15 type  2   force =    -0.00010081    0.00012068    0.00003216
     atom   16 type  2   force =     0.00001919    0.00004652   -0.00046016
     atom   17 type  2   force =     0.00028195   -0.00036726    0.00018683
     atom   18 type  2   force =    -0.00020843   -0.00047948    0.00012800
     atom   19 type  1   force =    -0.00035741    0.00033035    0.00005110
     atom   20 type  1   force =     0.00050006   -0.00052569   -0.00054462
     atom   21 type  2   force =    -0.00006521    0.00009256    0.09917299
     atom   22 type  2   force =    -0.00021217    0.00013281   -0.00023010
     atom   23 type  2   force =    -0.08059097    0.00058219   -0.03417478
     atom   24 type  2   force =     0.08036485    0.00110502   -0.03421431
     atom   25 type  1   force =    -0.00021211   -0.00018755    0.14168162
     atom   26 type  1   force =    -0.00019154   -0.00685788   -0.15773973
     atom   27 type  2   force =     0.00044001    0.00018002   -0.05210899
     atom   28 type  2   force =     0.00044032    0.00035921    0.04187959
     atom   29 type  2   force =    -0.00941235    0.00598248    0.00165764
     atom   30 type  2   force =     0.00932363    0.00235458    0.00176627
     atom   31 type  1   force =    -0.00003701    0.00010530    0.00012788
     atom   32 type  1   force =     0.00002135   -0.00012725   -0.00011830
     atom   33 type  2   force =    -0.00006518   -0.00032210    0.00027768
     atom   34 type  2   force =    -0.00009830   -0.00005638    0.00002236
     atom   35 type  2   force =     0.00061802    0.00026264   -0.00005764
     atom   36 type  2   force =    -0.00018577    0.00015275    0.00006526
     atom   37 type  1   force =    -0.00039657    0.00047003   -0.00066713
     atom   38 type  1   force =     0.00024145   -0.00033647   -0.00011360
     atom   39 type  2   force =    -0.00001718   -0.00000345    0.00031303
     atom   40 type  2   force =     0.00012448   -0.00008508   -0.00033279
     atom   41 type  2   force =     0.00088387    0.00005222    0.00015877
     atom   42 type  2   force =    -0.00053166    0.00027879    0.00002650
     atom   43 type  1   force =    -0.00059048   -0.00033671    0.00042739
     atom   44 type  1   force =     0.00009841    0.00023950   -0.00089651
     atom   45 type  2   force =    -0.00007842    0.00018334    0.09873792
     atom   46 type  2   force =    -0.08055323   -0.00156480   -0.03413019
     atom   47 type  2   force =     0.08036129   -0.00103108   -0.03421259
     atom   48 type  3   force =     0.00210719    0.00002268    0.01665161
     atom   49 type  2   force =     0.00166808   -0.00029869   -0.00595264
     atom   50 type  4   force =    -0.00128827    0.00013376   -0.00205874
     atom   51 type  4   force =    -0.00173991    0.00333060   -0.00335520
     atom   52 type  4   force =    -0.00120954   -0.00322797   -0.00381615
     atom   53 type  5   force =     0.00096986    0.00010677    0.00072251
     atom   54 type  5   force =    -0.00126861   -0.00000032   -0.00087465
     atom   55 type  2   force =    -0.00111056    0.00082264   -0.00010187
     atom   56 type  4   force =     0.00038812   -0.00085788    0.00038801

     Total force =     0.384165     Total SCF correction =     0.000321
  @ DRIVER MODE: Message from server: STATUS
  @ DRIVER MODE: Message from server: GETFORCE
  @ DRIVER MODE: Returning v,forces,stress,ensemble

     Writing output data file ./calc.save/
  @ DRIVER MODE: Message from server: EXIT
  @ DRIVE MODE: Exiting

     General routines

     Parallel routines

   This run was terminated on:  13:23:31  23Sep2021

   JOB DONE.