     Program PWSCF v.6.7GPU starts on 22Sep2021 at 18:45:13

     R & G space division:  proc/nbgrp/npool/nimage =      10
     Reading input from /storage/home/hcoda1/3/ntian30/research/carbon/CxH_vib/H2O_calc/ads_slab/CH2HO_a/out_0009/pw.inp
Warning: card &CELL ignored
Warning: card   CELL_DYNAMICS='IPI', ignored
Warning: card / ignored

     Current dimensions of program PWSCF are:
     Max number of different atomic species (ntypx) = 10
     Max number of k-points (npk) =  40000
     Max angular momentum in pseudopotentials (lmaxx) =  3
     Presently no symmetry can be used with electric field

     Message from routine cell_base_init:
     DEPRECATED: use true lattice parameter, not A to a.u. conversion factor

     IMPORTANT: XC functional enforced from input :
     Exchange-correlation= BEEF-VDW
                           (   1   4  43  14   2   0   0)
     Any further DFT definition will be discarded
     Please, verify this is what you really want

  @ DRIVER MODE: Connecting to
 qe_1139763_2937324.sched-torque.pace.gatech.edug60y5x75_scratch
  using UNIX socket
  @ DRIVER MODE: Message from server: STATUS
  @ DRIVER MODE: Message from server: INIT
  @ DRIVER MODE: Receiving replica           0          -1
  @ DRIVER MODE: Receiving encoded integer          25
  @ DRIVER MODE:  SCF:  T  FORCE:  T  STRESS:  F  VC:  F  ENSEMBLE:  F
  @ DRIVER MODE:  SCF:  T  FORCE:  T  STRESS:  F  VC:  F  ENSEMBLE:  F

     Using Slab Decomposition

     bravais-lattice index     =            0
     lattice parameter (alat)  =       1.8897  a.u.
     unit-cell volume          =    6658.9804 (a.u.)^3
     number of atoms/cell      =           52
     number of atomic types    =            4
     number of electrons       =       391.00
     number of Kohn-Sham states=          205
     kinetic-energy cutoff     =      29.3995  Ry
     charge density cutoff     =     293.9946  Ry
     scf convergence threshold =      7.3E-08
     mixing beta               =       0.0500
     number of iterations used =            8  plain     mixing
     Exchange-correlation= BEEF-VDW
                           (   1   4  43  14   2   0   0)

     celldm(1)=   1.889726  celldm(2)=   0.000000  celldm(3)=   0.000000
     celldm(4)=   0.000000  celldm(5)=   0.000000  celldm(6)=   0.000000

     crystal axes: (cart. coord. in units of alat)
               a(1) = (   6.579727   0.000000   0.000000 )
               a(2) = (  -0.000775   5.961596   0.000000 )
               a(3) = (   0.000000   0.000000  25.155947 )

     reciprocal axes: (cart. coord. in units 2 pi/alat)
               b(1) = (  0.151982  0.000020  0.000000 )
               b(2) = (  0.000000  0.167740  0.000000 )
               b(3) = (  0.000000  0.000000  0.039752 )

     PseudoPot. # 1 for Ti read from file:
     /storage/coda1/p-amedford6/0/shared/rich_project_chbe-medford/medford-share/data/pseudos_module/espresso/nninc/pbe/van/Ti.UPF
     MD5 check sum: 8e4df49b7f0d34bbd5052bf3f5ea0213
     Pseudo is Ultrasoft, Zval = 12.0
     Generated by new atomic code, or converted to UPF format
     Using radial grid of  851 points,  6 beta functions with:
                l(1) =   0
                l(2) =   0
                l(3) =   1
                l(4) =   1
                l(5) =   2
                l(6) =   2
     Q(r) pseudized with  8 coefficients,  rinner =    1.000   1.000   1.000
                                                       1.000   1.000

     PseudoPot. # 2 for O  read from file:
     /storage/coda1/p-amedford6/0/shared/rich_project_chbe-medford/medford-share/data/pseudos_module/espresso/nninc/pbe/van/O.UPF
     MD5 check sum: 78c19812648e8988a0fe644b0f25305e
     Pseudo is Ultrasoft, Zval =  6.0
     Generated by new atomic code, or converted to UPF format
     Using radial grid of  737 points,  4 beta functions with:
                l(1) =   0
                l(2) =   0
                l(3) =   1
                l(4) =   1
     Q(r) pseudized with  8 coefficients,  rinner =    0.800   0.800   0.800

     PseudoPot. # 3 for C  read from file:
     /storage/coda1/p-amedford6/0/shared/rich_project_chbe-medford/medford-share/data/pseudos_module/espresso/nninc/pbe/van/C.UPF
     MD5 check sum: 1a69bf6b8db32088f5b2163dbdb77a27
     Pseudo is Ultrasoft, Zval =  4.0
     Generated by new atomic code, or converted to UPF format
     Using radial grid of  721 points,  4 beta functions with:
                l(1) =   0
                l(2) =   0
                l(3) =   1
                l(4) =   1
     Q(r) pseudized with  8 coefficients,  rinner =    0.800   0.800   0.800

     PseudoPot. # 4 for H  read from file:
     /storage/coda1/p-amedford6/0/shared/rich_project_chbe-medford/medford-share/data/pseudos_module/espresso/nninc/pbe/van/H.UPF
     MD5 check sum: b5ee9d7bfd3a09ee7748110bda690ff7
     Pseudo is Ultrasoft, Zval =  1.0
     Generated by new atomic code, or converted to UPF format
     Using radial grid of  615 points,  1 beta functions with:
                l(1) =   0
     Q(r) pseudized with  8 coefficients,  rinner =    0.800

     atomic species   valence    mass     pseudopotential
        Ti1           12.00    47.86700     Ti( 1.00)
        O1             6.00    15.99900     O ( 1.00)
        C1             4.00    12.01100     C ( 1.00)
        H1             1.00     1.00800     H ( 1.00)

     No symmetry found

   Cartesian axes

     site n.     atom                  positions (alat units)
         1           Ti1 tau(   1) = (   0.0004258   2.9801865   6.0000000  )
         2           Ti1 tau(   2) = (   3.2906075   1.4906267   6.0002472  )
         3           O1  tau(   3) = (   0.0006271   0.0005054   7.9858123  )
         4           O1  tau(   4) = (   3.2906025   0.0005020   7.3038282  )
         5           O1  tau(   5) = (   4.5942328   1.4918067   9.2879030  )
         6           O1  tau(   6) = (   1.9868534   1.4903216   9.2879459  )
         7           Ti1 tau(   7) = (   3.2576197   2.8654215   9.2214558  )
         8           Ti1 tau(   8) = (   6.5344909   1.4429808   9.3601258  )
         9           O1  tau(   9) = (   3.2692782   5.9266415  11.3199434  )
        10           O1  tau(  10) = (   6.5685443   5.9434748  10.5851361  )
        11           O1  tau(  11) = (   1.2543606   1.4786140  12.6270584  )
        12           O1  tau(  12) = (   5.2804994   1.4734118  12.6291387  )
        13           Ti1 tau(  13) = (   6.5561640   2.8465321  12.8092297  )
        14           Ti1 tau(  14) = (   3.2590950   1.2910582  12.6820668  )
        15           O1  tau(  15) = (   6.5637791   5.9505241  14.6246090  )
        16           O1  tau(  16) = (   3.2632455   0.0300109  13.9168947  )
        17           O1  tau(  17) = (   4.5093043   1.5331652  16.1230905  )
        18           O1  tau(  18) = (   1.9844652   1.5452522  16.1286669  )
        19           Ti1 tau(  19) = (   3.2766647   3.0056044  15.6806532  )
        20           Ti1 tau(  20) = (   0.0376264   1.5104518  16.1289793  )
        21           O1  tau(  21) = (   3.2904802   0.0005063   4.7018136  )
        22           O1  tau(  22) = (   6.5370995   5.9187843  17.1758003  )
        23           O1  tau(  23) = (   1.3043587   1.4918075   6.0039043  )
        24           O1  tau(  24) = (   5.2767064   1.4903225   6.0039473  )
        25           Ti1 tau(  25) = (   0.0000382   5.9609847   6.0000000  )
        26           Ti1 tau(  26) = (   3.2902200   4.4714249   6.0002472  )
        27           O1  tau(  27) = (   0.0002396   2.9813036   7.9858123  )
        28           O1  tau(  28) = (   3.2902150   2.9813002   7.3038282  )
        29           O1  tau(  29) = (   4.5938453   4.4726049   9.2879030  )
        30           O1  tau(  30) = (   1.9864658   4.4711199   9.2879459  )
        31           Ti1 tau(  31) = (   3.2565375   5.8496818   9.1814359  )
        32           Ti1 tau(  32) = (   6.5349656   4.3900073   9.3400910  )
        33           O1  tau(  33) = (   3.2728704   3.0037829  11.2907943  )
        34           O1  tau(  34) = (   6.5689136   2.9626257  10.5472476  )
        35           O1  tau(  35) = (   1.2549189   4.4436098  12.6280720  )
        36           O1  tau(  36) = (   5.2752285   4.4450423  12.6314263  )
        37           Ti1 tau(  37) = (   6.5445616   5.8332433  12.5976854  )
        38           Ti1 tau(  38) = (   3.2543598   4.3897341  12.4334224  )
        39           O1  tau(  39) = (   6.5579435   2.9355163  14.7117218  )
        40           O1  tau(  40) = (   3.2602875   2.9656724  13.9017019  )
        41           O1  tau(  41) = (   4.5395605   4.4315404  16.0360363  )
        42           O1  tau(  42) = (   2.0063696   4.4444213  16.0824092  )
        43           Ti1 tau(  43) = (   3.2990179   0.0081159  16.3450624  )
        44           Ti1 tau(  44) = (   6.5722952   4.6241161  15.8901152  )
        45           O1  tau(  45) = (   3.2900926   2.9813045   4.7018136  )
        46           O1  tau(  46) = (   1.3039711   4.4726057   6.0039043  )
        47           O1  tau(  47) = (   5.2763189   4.4711207   6.0039473  )
        48           C1  tau(  48) = (   6.5366691   2.9215611  17.7332970  )
        49           H1  tau(  49) = (   0.8393079   3.1063452  18.3454380  )
        50           H1  tau(  50) = (   5.6239513   3.1093896  18.3013171  )
        51           O1  tau(  51) = (   3.3457726   5.9061862  18.1608053  )
        52           H1  tau(  52) = (   4.0847859   0.3069366  18.6733355  )

     number of k points=    10  Fermi-Dirac smearing, width (Ry)=  0.0073
                       cart. coord. in units 2pi/alat
        k(    1) = (   0.0000000   0.0000000   0.0000000), wk =   0.1250000
        k(    2) = (   0.0000000   0.0419351   0.0000000), wk =   0.2500000
        k(    3) = (   0.0000000  -0.0838702   0.0000000), wk =   0.1250000
        k(    4) = (   0.0379955   0.0000049   0.0000000), wk =   0.2500000
        k(    5) = (   0.0379955   0.0419400   0.0000000), wk =   0.2500000
        k(    6) = (   0.0379955  -0.0838652   0.0000000), wk =   0.2500000
        k(    7) = (   0.0379955  -0.0419301   0.0000000), wk =   0.2500000
        k(    8) = (  -0.0759910  -0.0000099   0.0000000), wk =   0.1250000
        k(    9) = (  -0.0759910   0.0419252   0.0000000), wk =   0.2500000
        k(   10) = (  -0.0759910  -0.0838800   0.0000000), wk =   0.1250000

     Initial potential from superposition of free atoms

     starting charge  374.99918, renormalised to  391.00000

     negative rho (up, down):  1.929E-02 0.000E+00

     %%%%%%%%%%%%%%%%%%%%%%%%%%%%%%%%%%%%%%%%%%%%%%%%%%%%%%%%%%%%%%%%%%%%%%%%
     %                                                                      %
     % You are using vdW-DF, which was implemented by the Thonhauser group. %
     % Please cite the following two papers that made this development      %
     % possible and the two reviews that describe the various versions:     %
     %                                                                      %
     %   T. Thonhauser et al., PRL 115, 136402 (2015).                      %
     %   T. Thonhauser et al., PRB 76, 125112 (2007).                       %
     %   K. Berland et al., Rep. Prog. Phys. 78, 066501 (2015).             %
     %   D.C. Langreth et al., J. Phys.: Condens. Matter 21, 084203 (2009). %
     %                                                                      %
     %                                                                      %
     % If you are calculating the stress with vdW-DF, please also cite:     %
     %                                                                      %
     %   R. Sabatini et al., J. Phys.: Condens. Matter 24, 424209 (2012).   %
     %                                                                      %
     %%%%%%%%%%%%%%%%%%%%%%%%%%%%%%%%%%%%%%%%%%%%%%%%%%%%%%%%%%%%%%%%%%%%%%%%

     Adding external electric field

     Computed dipole along edir(3) :
        Dipole               -4.4316 Ry au,        -11.2641 Debye
        Dipole field         -0.0084 Ry au,

        Potential amp.        0.7752 Ry
        Total length         46.3494 bohr

     Starting wfcs are  295 atomic wfcs
  @ DRIVER MODE: Message from server: STATUS
  @ DRIVER MODE: Message from server: POSDATA
  @ DRIVER MODE: Reading and sharing cell
  @ DRIVER MODE: Reading and sharing positions
  @ DRIVER MODE: Received positions

     Self-consistent Calculation

     iteration #  1     ecut=    29.40 Ry     beta= 0.05
     Davidson diagonalization with overlap
     c_bands:  4 eigenvalues not converged
     c_bands:  2 eigenvalues not converged
     c_bands:  2 eigenvalues not converged
     c_bands:  2 eigenvalues not converged
     c_bands:  3 eigenvalues not converged
     c_bands:  1 eigenvalues not converged
     c_bands:  3 eigenvalues not converged
     c_bands:  1 eigenvalues not converged
     c_bands:  3 eigenvalues not converged
     ethr =  1.00E-05,  avg # of iterations = 19.9

[...]

     total energy              =   -2883.52049465 Ry
     estimated scf accuracy    <     546.28598055 Ry

     iteration #  2     ecut=    29.40 Ry     beta= 0.05
     Davidson diagonalization with overlap
     ethr =  1.00E-02,  avg # of iterations = 14.3

[...]

     iteration # 33     ecut=    29.40 Ry     beta= 0.05
     Davidson diagonalization with overlap
     c_bands:  2 eigenvalues not converged
     ethr =  2.75E-07,  avg # of iterations =  7.0

[...]

     total energy              =   -2931.27749444 Ry
     estimated scf accuracy    <       0.00000014 Ry

     iteration # 61     ecut=    29.40 Ry     beta= 0.05
     Davidson diagonalization with overlap
     ethr =  2.75E-11,  avg # of iterations =  5.3

     negative rho (up, down):  1.858E-02 0.000E+00

     Adding external electric field

     Computed dipole along edir(3) :
        Dipole                0.4333 Ry au,          1.1014 Debye
        Dipole field          0.0008 Ry au,

        Potential amp.       -0.0758 Ry
        Total length         46.3494 bohr

     End of self-consistent calculation

          k = 0.0000 0.0000 0.0000 ( 18029 PWs)   bands (ev):

   -56.6092 -56.5592 -56.1476 -56.0378 -55.9956 -55.9387 -55.9121 -55.8968
   -55.8541 -55.8126 -55.7830 -55.7261 -55.6790 -55.6099 -55.2188 -55.1849
   -33.0210 -32.8742 -32.8200 -32.7881 -32.6924 -32.6471 -32.4986 -32.4859
   -32.4662 -32.4030 -32.3723 -32.3506 -32.3075 -32.2850 -32.2664 -32.2426
   -32.2387 -32.2236 -32.2097 -32.1440 -32.1413 -32.1280 -32.1253 -32.1118
   -32.0993 -32.0941 -32.0894 -32.0863 -32.0607 -32.0404 -32.0169 -31.9995
   -31.9938 -31.9842 -31.9830 -31.9735 -31.9266 -31.8706 -31.8441 -31.8387
   -31.8218 -31.7890 -31.6133 -31.5592 -31.5348 -31.4300 -31.3450 -31.2343
   -16.9543 -16.7671 -16.6235 -16.4000 -16.2557 -16.1515 -15.9355 -15.9251
   -15.8033 -15.7859 -15.7613 -15.6300 -15.6167 -15.6003 -15.5605 -15.5388
   -15.5312 -15.5293 -15.5178 -15.4915 -15.4593 -15.4384 -15.3984 -15.3168
   -15.2416 -15.2342 -15.1989 -15.1434 -15.0800 -14.8604 -13.7215 -13.6131
    -8.9166  -4.6508  -4.2916  -4.0788  -3.9705  -3.8928  -3.7864  -3.6330
    -3.4339  -3.2953  -3.2470  -3.2089  -3.1609  -3.1472  -3.1241  -3.0817
    -3.0328  -2.9809  -2.9516  -2.8897  -2.8652  -2.8259  -2.7890  -2.7639
    -2.7487  -2.7311  -2.7241  -2.5906  -2.5244  -2.5145  -2.4673  -2.4654
    -2.4072  -2.3902  -2.3665  -2.3174  -2.2831  -2.1879  -2.1295  -2.0967
    -2.0511  -1.8293  -1.8110  -1.7452  -1.6708  -1.6181  -1.5598  -1.5171
    -1.4636  -1.4349  -1.3745  -1.3345  -1.2863  -1.2621  -1.2229  -1.1555
    -1.1354  -1.1012  -1.0394  -0.9632  -0.9176  -0.8489  -0.7827  -0.7451
    -0.6908  -0.6819  -0.6522  -0.5608  -0.4776  -0.4573  -0.4241  -0.3827
    -0.3660  -0.2947  -0.2811  -0.2386  -0.2223  -0.1458  -0.1308  -0.1014
    -0.0688  -0.0464  -0.0246   0.0417   0.1637   0.2317   0.2748   0.3127
     0.3290   0.4145   0.4342   0.5221   0.6774   0.7977   0.8368   1.0071
     1.0597   1.3485   1.3944   1.9246   2.6922   2.8566   3.1423   3.2451
     3.2811   3.3575   3.4020   3.4335   3.6649

[...]

          k = 0.0380-0.0419 0.0000 ( 17876 PWs)   bands (ev):

[...]

          k =-0.0760-0.0000 0.0000 ( 17886 PWs)   bands (ev):

[...]

          k =-0.0760-0.0839 0.0000 ( 17948 PWs)   bands (ev):

   -56.6027 -56.5656 -56.1469 -56.0354 -55.9896 -55.9445 -55.9143 -55.8974
   -55.8453 -55.8213 -55.7814 -55.7199 -55.6851 -55.6115 -55.2021 -55.2015
   -32.8701 -32.8535 -32.8239 -32.8217 -32.7546 -32.7229 -32.4238 -32.3802
   -32.3675 -32.3512 -32.3343 -32.2911 -32.2683 -32.2612 -32.2504 -32.2306
   -32.2151 -32.2026 -32.1919 -32.1829 -32.1635 -32.1627 -32.1403 -32.1366
   -32.1354 -32.1242 -32.1094 -32.1055 -32.0725 -32.0680 -32.0548 -32.0421
   -32.0031 -31.9953 -31.9875 -31.9873 -31.9542 -31.9303 -31.9107 -31.8723
   -31.8250 -31.8125 -31.5480 -31.5477 -31.4289 -31.4271 -31.3872 -31.3863
   -16.9423 -16.1454 -16.0839 -16.0743 -16.0611 -16.0313 -15.9898 -15.9182
   -15.9162 -15.8188 -15.7917 -15.7479 -15.7099 -15.6978 -15.6519 -15.6388
   -15.6265 -15.5635 -15.5214 -15.5025 -15.4869 -15.4744 -15.4535 -15.4287
   -15.4172 -15.3970 -15.3295 -15.2480 -15.2173 -15.0025 -13.7175 -13.7163
    -8.9244  -4.6420  -3.3827  -3.3280  -3.2492  -3.2318  -3.2226  -3.1503
    -3.0941  -3.0890  -3.0312  -3.0179  -2.9745  -2.9450  -2.9153  -2.9092
    -2.9022  -2.8925  -2.8789  -2.8551  -2.8011  -2.7983  -2.7805  -2.7713
    -2.7550  -2.7391  -2.7065  -2.6658  -2.6352  -2.6108  -2.5321  -2.4258
    -2.4201  -2.3868  -2.3552  -2.3226  -2.2808  -2.2597  -2.1830  -2.1757
    -2.1596  -2.1104  -2.0117  -1.7793  -1.7709  -1.7175  -1.6834  -1.6746
    -1.6122  -1.5427  -1.5359  -1.4513  -1.4481  -1.4347  -1.3343  -1.3166
    -1.2837  -1.2648  -1.2391  -1.2099  -1.1070  -1.0859  -1.0776  -1.0461
    -1.0007  -0.9799  -0.8881  -0.8697  -0.8517  -0.8236  -0.7416  -0.6894
    -0.6502  -0.6319  -0.4941  -0.4469  -0.4355  -0.2830  -0.2308  -0.1969
    -0.1749  -0.0882   0.0158   0.0558   0.1130   0.1602   0.2193   0.3259
     0.3387   0.3612   0.4261   0.4649   0.4725   0.4878   0.5649   1.1918
     1.1925   1.2007   1.2076   2.0832   3.2335   3.2589   3.2710   3.3044
     3.5176   3.5409   3.5515   3.6100   3.6507

     the Fermi energy is     2.0042 ev

!    total energy              =   -2931.27753021 Ry
     estimated scf accuracy    <       0.00000004 Ry
     smearing contrib. (-TS)   =      -0.01004789 Ry
     internal energy E=F+TS    =   -2931.26748232 Ry

     The total energy is F=E-TS. E is the sum of the following terms:
     one-electron contribution =  -24332.07972705 Ry
     hartree contribution      =   12249.83346768 Ry
     xc contribution           =    -481.70124981 Ry
     ewald contribution        =    9632.67967251 Ry
     electric field correction =       0.00035436 Ry

     convergence has been achieved in  61 iterations

     Forces acting on atoms (cartesian axes, Ry/au):

     atom    1 type  1   force =     0.00036218   -0.00077753    0.13235236
     atom    2 type  1   force =     0.00014191    0.00690573   -0.15729384
     atom    3 type  2   force =    -0.00018558    0.00281946   -0.05348778
     atom    4 type  2   force =    -0.00073006   -0.00116695    0.04120062
     atom    5 type  2   force =    -0.01140714   -0.00238650    0.00284393
     atom    6 type  2   force =     0.00918448   -0.00644006    0.00177355
     atom    7 type  1   force =     0.00043833    0.00029589   -0.00038510
     atom    8 type  1   force =     0.00019751   -0.00002366    0.00094448
     atom    9 type  2   force =    -0.00002418    0.00043848    0.00038675
     atom   10 type  2   force =     0.00025456    0.00023085   -0.00010412
     atom   11 type  2   force =     0.00051661    0.00033537    0.00026368
     atom   12 type  2   force =    -0.00015759    0.00027105   -0.00025037
     atom   13 type  1   force =    -0.00026284   -0.00047126   -0.00091315
     atom   14 type  1   force =     0.00020513    0.00049406   -0.00024595
     atom   15 type  2   force =     0.00006682   -0.00012176    0.00146623
     atom   16 type  2   force =     0.00048131   -0.00018796    0.00008368
     atom   17 type  2   force =     0.00028307   -0.00026451   -0.00036218
     atom   18 type  2   force =    -0.00106712   -0.00029140   -0.00021084
     atom   19 type  1   force =     0.00114813   -0.00000845   -0.00022802
     atom   20 type  1   force =    -0.00032069    0.00029383   -0.00041739
     atom   21 type  2   force =     0.00020947    0.00008780    0.09899995
     atom   22 type  2   force =     0.00008964    0.00096958   -0.00103768
     atom   23 type  2   force =    -0.08049751    0.00137402   -0.03418055
     atom   24 type  2   force =     0.08057286    0.00190331   -0.03418778
     atom   25 type  1   force =     0.00030415   -0.00010644    0.14243435
     atom   26 type  1   force =     0.00016464   -0.00836727   -0.15756906
     atom   27 type  2   force =    -0.00039167   -0.00117082   -0.05198853
     atom   28 type  2   force =    -0.00064082   -0.00038175    0.04299929
     atom   29 type  2   force =    -0.01011491    0.00503549    0.00017250
     atom   30 type  2   force =     0.00778652    0.00127951   -0.00110954
     atom   31 type  1   force =     0.00010176    0.00000900   -0.00026047
     atom   32 type  1   force =     0.00009450   -0.00043487    0.00097297
     atom   33 type  2   force =     0.00003484   -0.00035000   -0.00008367
     atom   34 type  2   force =     0.00024568    0.00012578   -0.00023610
     atom   35 type  2   force =    -0.00049683    0.00034811    0.00019459
     atom   36 type  2   force =     0.00129855    0.00030627   -0.00024639
     atom   37 type  1   force =     0.00001047   -0.00019064   -0.00042841
     atom   38 type  1   force =     0.00029734   -0.00008103   -0.00017698
     atom   39 type  2   force =     0.00001656    0.00008754    0.00010566
     atom   40 type  2   force =     0.00039823    0.00010686   -0.00036645
     atom   41 type  2   force =    -0.00106291    0.00010576   -0.00009930
     atom   42 type  2   force =     0.00030929    0.00029145   -0.00019778
     atom   43 type  1   force =     0.00114465    0.00042143    0.00028853
     atom   44 type  1   force =    -0.00042328    0.00018825   -0.00006550
     atom   45 type  2   force =     0.00020041   -0.00000222    0.09856868
     atom   46 type  2   force =    -0.08048408   -0.00109847   -0.03416245
     atom   47 type  2   force =     0.08057519   -0.00056139   -0.03424547
     atom   48 type  3   force =    -0.00165984   -0.00062509   -0.00145743
     atom   49 type  4   force =     0.00131386    0.00052596    0.00135932
     atom   50 type  4   force =     0.00038410    0.00042034   -0.00010609
     atom   51 type  2   force =    -0.00001307    0.00056747   -0.00133379
     atom   52 type  4   force =     0.00110737   -0.00072863    0.00002702

     Total force =     0.383737     Total SCF correction =     0.000482
  @ DRIVER MODE: Message from server: STATUS
  @ DRIVER MODE: Message from server: GETFORCE
  @ DRIVER MODE: Returning v,forces,stress,ensemble

     Writing output data file ./calc.save/
  @ DRIVER MODE: Message from server: EXIT
  @ DRIVE MODE: Exiting

     General routines

     Parallel routines

   This run was terminated on:  18:59:13  22Sep2021

   JOB DONE.