     Program PWSCF v.6.7GPU starts on  9Sep2021 at  3:29:20

     R & G space division:  proc/nbgrp/npool/nimage =      10
     Reading input from /storage/home/hcoda1/3/ntian30/research/carbon/CxH_vib/CH2_calc/ads_slab/CH2NH_a/out_0019/pw.inp
Warning: card &CELL ignored
Warning: card   CELL_DYNAMICS='IPI', ignored
Warning: card / ignored

     Current dimensions of program PWSCF are:
     Max number of different atomic species (ntypx) = 10
     Max number of k-points (npk) =  40000
     Max angular momentum in pseudopotentials (lmaxx) =  3
     Presently no symmetry can be used with electric field

     Message from routine cell_base_init:
     DEPRECATED: use true lattice parameter, not A to a.u. conversion factor

     IMPORTANT: XC functional enforced from input :
     Exchange-correlation= BEEF-VDW
                           (   1   4  43  14   2   0   0)
     Any further DFT definition will be discarded
     Please, verify this is what you really want

  @ DRIVER MODE: Connecting to
 qe_1139763_2767389.sched-torque.pace.gatech.edur0ykf7sq_scratch
  using UNIX socket
  @ DRIVER MODE: Message from server: STATUS
  @ DRIVER MODE: Message from server: INIT
  @ DRIVER MODE: Receiving replica           0          -1
  @ DRIVER MODE: Receiving encoded integer          25
  @ DRIVER MODE:  SCF:  T  FORCE:  T  STRESS:  F  VC:  F  ENSEMBLE:  F
  @ DRIVER MODE:  SCF:  T  FORCE:  T  STRESS:  F  VC:  F  ENSEMBLE:  F

     Using Slab Decomposition

     bravais-lattice index     =            0
     lattice parameter (alat)  =       1.8897  a.u.
     unit-cell volume          =    6658.9804 (a.u.)^3
     number of atoms/cell      =           52
     number of atomic types    =            5
     number of electrons       =       390.00
     number of Kohn-Sham states=          205
     kinetic-energy cutoff     =      29.3995  Ry
     charge density cutoff     =     293.9946  Ry
     scf convergence threshold =      7.3E-08
     mixing beta               =       0.0500
     number of iterations used =            8  plain     mixing
     Exchange-correlation= BEEF-VDW
                           (   1   4  43  14   2   0   0)

     celldm(1)=   1.889726  celldm(2)=   0.000000  celldm(3)=   0.000000
     celldm(4)=   0.000000  celldm(5)=   0.000000  celldm(6)=   0.000000

     crystal axes: (cart. coord. in units of alat)
               a(1) = (   6.579727   0.000000   0.000000 )
               a(2) = (  -0.000775   5.961596   0.000000 )
               a(3) = (   0.000000   0.000000  25.155947 )

     reciprocal axes: (cart. coord. in units 2 pi/alat)
               b(1) = (  0.151982  0.000020  0.000000 )
               b(2) = (  0.000000  0.167740  0.000000 )
               b(3) = (  0.000000  0.000000  0.039752 )

     PseudoPot. # 1 for Ti read from file:
     /storage/coda1/p-amedford6/0/shared/rich_project_chbe-medford/medford-share/data/pseudos_module/espresso/nninc/pbe/van/Ti.UPF
     MD5 check sum: 8e4df49b7f0d34bbd5052bf3f5ea0213
     Pseudo is Ultrasoft, Zval = 12.0
     Generated by new atomic code, or converted to UPF format
     Using radial grid of  851 points,  6 beta functions with:
                l(1) =   0
                l(2) =   0
                l(3) =   1
                l(4) =   1
                l(5) =   2
                l(6) =   2
     Q(r) pseudized with  8 coefficients,  rinner =    1.000   1.000   1.000
                                                       1.000   1.000

     PseudoPot. # 2 for O  read from file:
     /storage/coda1/p-amedford6/0/shared/rich_project_chbe-medford/medford-share/data/pseudos_module/espresso/nninc/pbe/van/O.UPF
     MD5 check sum: 78c19812648e8988a0fe644b0f25305e
     Pseudo is Ultrasoft, Zval =  6.0
     Generated by new atomic code, or converted to UPF format
     Using radial grid of  737 points,  4 beta functions with:
                l(1) =   0
                l(2) =   0
                l(3) =   1
                l(4) =   1
     Q(r) pseudized with  8 coefficients,  rinner =    0.800   0.800   0.800

     PseudoPot. # 3 for N  read from file:
     /storage/coda1/p-amedford6/0/shared/rich_project_chbe-medford/medford-share/data/pseudos_module/espresso/nninc/pbe/van/N.UPF
     MD5 check sum: 90d10febe142ad51ac9d5be1deb811c4
     Pseudo is Ultrasoft, Zval =  5.0
     Generated by new atomic code, or converted to UPF format
     Using radial grid of  729 points,  4 beta functions with:
                l(1) =   0
                l(2) =   0
                l(3) =   1
                l(4) =   1
     Q(r) pseudized with  8 coefficients,  rinner =    0.800   0.800   0.800

     PseudoPot. # 4 for C  read from file:
     /storage/coda1/p-amedford6/0/shared/rich_project_chbe-medford/medford-share/data/pseudos_module/espresso/nninc/pbe/van/C.UPF
     MD5 check sum: 1a69bf6b8db32088f5b2163dbdb77a27
     Pseudo is Ultrasoft, Zval =  4.0
     Generated by new atomic code, or converted to UPF format
     Using radial grid of  721 points,  4 beta functions with:
                l(1) =   0
                l(2) =   0
                l(3) =   1
                l(4) =   1
     Q(r) pseudized with  8 coefficients,  rinner =    0.800   0.800   0.800

     PseudoPot. # 5 for H  read from file:
     /storage/coda1/p-amedford6/0/shared/rich_project_chbe-medford/medford-share/data/pseudos_module/espresso/nninc/pbe/van/H.UPF
     MD5 check sum: b5ee9d7bfd3a09ee7748110bda690ff7
     Pseudo is Ultrasoft, Zval =  1.0
     Generated by new atomic code, or converted to UPF format
     Using radial grid of  615 points,  1 beta functions with:
                l(1) =   0
     Q(r) pseudized with  8 coefficients,  rinner =    0.800

     atomic species   valence    mass     pseudopotential
        Ti1           12.00    47.86700     Ti( 1.00)
        O1             6.00    15.99900     O ( 1.00)
        N1             5.00    14.00700     N ( 1.00)
        C1             4.00    12.01100     C ( 1.00)
        H1             1.00     1.00800     H ( 1.00)

     No symmetry found

   Cartesian axes

     site n.     atom                  positions (alat units)
         1           Ti1 tau(   1) = (   0.0004258   2.9801865   6.0000000  )
         2           Ti1 tau(   2) = (   3.2906075   1.4906267   6.0002472  )
         3           O1  tau(   3) = (   0.0006271   0.0005054   7.9858123  )
         4           O1  tau(   4) = (   3.2906025   0.0005020   7.3038282  )
         5           O1  tau(   5) = (   4.5942328   1.4918067   9.2879030  )
         6           O1  tau(   6) = (   1.9868534   1.4903216   9.2879459  )
         7           Ti1 tau(   7) = (   3.2907910   2.8959150   9.1758416  )
         8           Ti1 tau(   8) = (   0.0015273   1.4827037   9.2680791  )
         9           O1  tau(   9) = (   3.2859541   5.9290403  11.3715426  )
        10           O1  tau(  10) = (   0.0116148   5.9584955  10.6183126  )
        11           O1  tau(  11) = (   1.2917987   1.4688796  12.6526629  )
        12           O1  tau(  12) = (   5.2888266   1.4686376  12.6403033  )
        13           Ti1 tau(  13) = (   0.0074927   2.9495069  12.5376589  )
        14           Ti1 tau(  14) = (   3.2957121   1.4606513  12.5174744  )
        15           O1  tau(  15) = (   6.5702453   0.0264740  14.6787910  )
        16           O1  tau(  16) = (   3.3001739   5.9406727  13.9930656  )
        17           O1  tau(  17) = (   4.5367710   1.4643441  16.2106543  )
        18           O1  tau(  18) = (   2.0349547   1.4576396  16.1973481  )
        19           Ti1 tau(  19) = (   3.2821410   2.9383233  15.7467721  )
        20           Ti1 tau(  20) = (   6.5624771   1.3975196  16.0657228  )
        21           O1  tau(  21) = (   3.2904802   0.0005063   4.7018136  )
        22           O1  tau(  22) = (   0.0049924   5.8117904  17.2112648  )
        23           O1  tau(  23) = (   1.3043587   1.4918075   6.0039043  )
        24           O1  tau(  24) = (   5.2767064   1.4903225   6.0039473  )
        25           Ti1 tau(  25) = (   0.0000382   5.9609847   6.0000000  )
        26           Ti1 tau(  26) = (   3.2902200   4.4714249   6.0002472  )
        27           O1  tau(  27) = (   0.0002396   2.9813036   7.9858123  )
        28           O1  tau(  28) = (   3.2902150   2.9813002   7.3038282  )
        29           O1  tau(  29) = (   4.5938453   4.4726049   9.2879030  )
        30           O1  tau(  30) = (   1.9864658   4.4711199   9.2879459  )
        31           Ti1 tau(  31) = (   3.2891106   5.8743827   9.1763621  )
        32           Ti1 tau(  32) = (   0.0006254   4.4649316   9.2693709  )
        33           O1  tau(  33) = (   3.2878059   2.9597088  11.3652031  )
        34           O1  tau(  34) = (   0.0092240   2.9805883  10.6323155  )
        35           O1  tau(  35) = (   1.2887225   4.4431869  12.6829221  )
        36           O1  tau(  36) = (   5.2901277   4.4428847  12.6690855  )
        37           Ti1 tau(  37) = (   0.0035388   5.9380168  12.5099366  )
        38           Ti1 tau(  38) = (   3.2962120   4.4389810  12.5267566  )
        39           O1  tau(  39) = (   6.5655450   2.9014274  14.9049457  )
        40           O1  tau(  40) = (   3.2937888   2.9365130  13.9572806  )
        41           O1  tau(  41) = (   4.5374039   4.4072578  16.1608974  )
        42           O1  tau(  42) = (   2.0345115   4.4188705  16.1151926  )
        43           Ti1 tau(  43) = (   3.2925710   5.9161036  15.7896908  )
        44           Ti1 tau(  44) = (   0.0121651   4.6006060  15.8502786  )
        45           O1  tau(  45) = (   3.2900926   2.9813045   4.7018136  )
        46           O1  tau(  46) = (   1.3039711   4.4726057   6.0039043  )
        47           O1  tau(  47) = (   5.2763189   4.4711207   6.0039473  )
        48           N1  tau(  48) = (   6.5581919   2.6818180  17.9522317  )
        49           C1  tau(  49) = (   0.8403426   2.5546117  18.8965076  )
        50           H1  tau(  50) = (   0.6793733   2.9585088  19.8916666  )
        51           H1  tau(  51) = (   1.7484391   2.0155774  18.6961775  )
        52           H1  tau(  52) = (   5.7198555   3.1867788  18.2393814  )

     number of k points=    10  Fermi-Dirac smearing, width (Ry)=  0.0073
                       cart. coord. in units 2pi/alat
        k(    1) = (   0.0000000   0.0000000   0.0000000), wk =   0.1250000
        k(    2) = (   0.0000000   0.0419351   0.0000000), wk =   0.2500000
        k(    3) = (   0.0000000  -0.0838702   0.0000000), wk =   0.1250000
        k(    4) = (   0.0379955   0.0000049   0.0000000), wk =   0.2500000
        k(    5) = (   0.0379955   0.0419400   0.0000000), wk =   0.2500000
        k(    6) = (   0.0379955  -0.0838652   0.0000000), wk =   0.2500000
        k(    7) = (   0.0379955  -0.0419301   0.0000000), wk =   0.2500000
        k(    8) = (  -0.0759910  -0.0000099   0.0000000), wk =   0.1250000
        k(    9) = (  -0.0759910   0.0419252   0.0000000), wk =   0.2500000
        k(   10) = (  -0.0759910  -0.0838800   0.0000000), wk =   0.1250000

     Initial potential from superposition of free atoms

     starting charge  373.99917, renormalised to  390.00000

     negative rho (up, down):  1.699E-02 0.000E+00

     %%%%%%%%%%%%%%%%%%%%%%%%%%%%%%%%%%%%%%%%%%%%%%%%%%%%%%%%%%%%%%%%%%%%%%%%
     %                                                                      %
     % You are using vdW-DF, which was implemented by the Thonhauser group. %
     % Please cite the following two papers that made this development      %
     % possible and the two reviews that describe the various versions:     %
     %                                                                      %
     %   T. Thonhauser et al., PRL 115, 136402 (2015).                      %
     %   T. Thonhauser et al., PRB 76, 125112 (2007).                       %
     %   K. Berland et al., Rep. Prog. Phys. 78, 066501 (2015).             %
     %   D.C. Langreth et al., J. Phys.: Condens. Matter 21, 084203 (2009). %
     %                                                                      %
     %                                                                      %
     % If you are calculating the stress with vdW-DF, please also cite:     %
     %                                                                      %
     %   R. Sabatini et al., J. Phys.: Condens. Matter 24, 424209 (2012).   %
     %                                                                      %
     %%%%%%%%%%%%%%%%%%%%%%%%%%%%%%%%%%%%%%%%%%%%%%%%%%%%%%%%%%%%%%%%%%%%%%%%

     Adding external electric field

     Computed dipole along edir(3) :
        Dipole               -6.0480 Ry au,        -15.3725 Debye
        Dipole field         -0.0114 Ry au,

        Potential amp.        1.0580 Ry
        Total length         46.3494 bohr

     Starting wfcs are  295 atomic wfcs
  @ DRIVER MODE: Message from server: STATUS
  @ DRIVER MODE: Message from server: POSDATA
  @ DRIVER MODE: Reading and sharing cell
  @ DRIVER MODE: Reading and sharing positions
  @ DRIVER MODE: Received positions

     Self-consistent Calculation

     iteration #  1     ecut=    29.40 Ry     beta= 0.05
     Davidson diagonalization with overlap
     c_bands:  1 eigenvalues not converged
     c_bands:  1 eigenvalues not converged
     ethr =  1.00E-05,  avg # of iterations = 16.8

[...]

     total energy              =   -2758.77266371 Ry
     estimated scf accuracy    <    1760.33413038 Ry

     iteration #  2     ecut=    29.40 Ry     beta= 0.05
     Davidson diagonalization with overlap
     ethr =  1.00E-02,  avg # of iterations = 18.3

[...]

     iteration # 63     ecut=    29.40 Ry     beta= 0.05
     Davidson diagonalization with overlap
     c_bands:  1 eigenvalues not converged
     c_bands:  1 eigenvalues not converged
     ethr =  5.31E-10,  avg # of iterations = 16.4

[...]

     total energy              =   -2919.11579028 Ry
     estimated scf accuracy    <       0.00000010 Ry

     iteration # 71     ecut=    29.40 Ry     beta= 0.05
     Davidson diagonalization with overlap
     ethr =  2.61E-11,  avg # of iterations = 12.6

     negative rho (up, down):  1.722E-02 0.000E+00

     Adding external electric field

     Computed dipole along edir(3) :
        Dipole                1.2621 Ry au,          3.2080 Debye
        Dipole field          0.0024 Ry au,

        Potential amp.       -0.2208 Ry
        Total length         46.3494 bohr

     End of self-consistent calculation

          k = 0.0000 0.0000 0.0000 ( 18029 PWs)   bands (ev):

   -55.5459 -55.5092 -55.5076 -55.4735 -55.4381 -55.4210 -55.3835 -55.3610
   -55.3608 -55.3360 -55.3263 -55.3125 -55.3025 -55.1302 -54.5282 -54.4942
   -32.1125 -31.9985 -31.9085 -31.8672 -31.8607 -31.8500 -31.8406 -31.8357
   -31.7972 -31.7856 -31.7540 -31.7524 -31.7520 -31.7168 -31.6992 -31.6812
   -31.6760 -31.6678 -31.6619 -31.6579 -31.6200 -31.6164 -31.6011 -31.5910
   -31.5646 -31.5628 -31.5612 -31.5526 -31.5480 -31.5424 -31.5322 -31.5238
   -31.5141 -31.5132 -31.5097 -31.4822 -31.4751 -31.4687 -31.4644 -31.4457
   -31.3538 -31.2714 -30.9373 -30.8440 -30.8218 -30.7537 -30.6669 -30.5560
   -16.5484 -16.3416 -16.0754 -15.8988 -15.7950 -15.7347 -15.5984 -15.5223
   -15.4447 -15.3422 -15.2517 -15.1851 -15.1690 -15.1485 -15.1436 -15.0827
   -15.0792 -15.0548 -15.0376 -15.0361 -14.9817 -14.9743 -14.9425 -14.9304
   -14.9195 -14.8468 -14.7630 -14.6943 -14.6340 -14.2069 -13.0309 -12.9136
    -9.3287  -6.2694  -4.7097  -3.7003  -3.5470  -3.4530  -3.4416  -3.4204
    -3.2715  -3.1335  -2.9274  -2.8474  -2.8005  -2.7512  -2.7232  -2.7056
    -2.6203  -2.5205  -2.4452  -2.4007  -2.3758  -2.3627  -2.3518  -2.3245
    -2.3129  -2.2792  -2.2401  -2.1983  -2.0941  -2.0062  -1.9652  -1.9302
    -1.8736  -1.8622  -1.8357  -1.8295  -1.8229  -1.8013  -1.7628  -1.7529
    -1.7055  -1.5666  -1.5533  -1.4355  -1.3996  -1.2858  -1.1864  -1.1800
    -1.0932  -1.0903  -1.0216  -0.9674  -0.9370  -0.9288  -0.8782  -0.8300
    -0.7405  -0.6473  -0.5857  -0.5438  -0.5090  -0.4799  -0.4126  -0.3216
    -0.3163  -0.3058  -0.2033  -0.1244  -0.1021  -0.0492  -0.0170   0.0262
     0.0424   0.1527   0.1955   0.2370   0.2551   0.3341   0.3558   0.4113
     0.4165   0.4517   0.4607   0.5267   0.5740   0.5935   0.6433   0.6623
     0.8205   1.0732   1.0804   1.1278   1.4033   1.4335   1.4943   1.6793
     2.0697   2.1175   3.5538   3.6263   3.6913   3.7041   3.7457   3.7907
     3.9577   4.0385   4.0550   4.0592   4.0908

[...]

          k = 0.0380-0.0419 0.0000 ( 17876 PWs)   bands (ev):

[...]

          k =-0.0760-0.0000 0.0000 ( 17886 PWs)   bands (ev):

[...]

          k =-0.0760-0.0839 0.0000 ( 17948 PWs)   bands (ev):

   -55.5312 -55.5237 -55.4906 -55.4904 -55.4341 -55.4098 -55.3947 -55.3649
   -55.3447 -55.3419 -55.3196 -55.3192 -55.3108 -55.1319 -54.5111 -54.5111
   -31.9189 -31.9139 -31.8298 -31.8137 -31.8135 -31.8051 -31.7828 -31.7824
   -31.7587 -31.7523 -31.7452 -31.7433 -31.7382 -31.7001 -31.6783 -31.6748
   -31.6708 -31.6665 -31.6628 -31.6577 -31.6533 -31.6342 -31.6201 -31.6193
   -31.6100 -31.6099 -31.6068 -31.5899 -31.5775 -31.5744 -31.5640 -31.5580
   -31.5551 -31.5540 -31.5446 -31.5439 -31.5112 -31.4990 -31.4986 -31.4864
   -31.3586 -31.3528 -30.8345 -30.8345 -30.7499 -30.7497 -30.7103 -30.7103
   -16.5253 -15.7801 -15.7462 -15.7307 -15.5269 -15.5186 -15.5108 -15.4929
   -15.3325 -15.3189 -15.2922 -15.2761 -15.2443 -15.2408 -15.2107 -15.1779
   -15.1248 -15.1204 -15.1121 -15.1097 -15.0500 -15.0457 -15.0255 -14.9968
   -14.9948 -14.9887 -14.8939 -14.8919 -14.7197 -14.5269 -13.0151 -13.0151
    -9.3330  -6.2652  -4.6924  -3.0551  -2.9938  -2.9335  -2.7364  -2.7330
    -2.7021  -2.6202  -2.5504  -2.5399  -2.5122  -2.4839  -2.4814  -2.4329
    -2.3886  -2.3789  -2.3676  -2.3603  -2.3420  -2.3280  -2.2989  -2.2623
    -2.2534  -2.2228  -2.2097  -2.1842  -2.1824  -2.1460  -2.1223  -2.1079
    -2.0962  -2.0346  -1.9330  -1.8810  -1.7949  -1.7679  -1.7395  -1.7334
    -1.6525  -1.6247  -1.5977  -1.5568  -1.5449  -1.5106  -1.3073  -1.2775
    -1.2682  -1.2544  -1.2309  -1.0806  -1.0715  -1.0212  -0.9898  -0.9425
    -0.8849  -0.8490  -0.8344  -0.7528  -0.7214  -0.6774  -0.6386  -0.5153
    -0.5110  -0.5039  -0.5023  -0.4843  -0.3978  -0.3859  -0.3428  -0.3095
    -0.2684  -0.2542  -0.1891  -0.0072   0.0097   0.0757   0.1827   0.2771
     0.3713   0.4505   0.4706   0.5216   0.5644   0.5846   0.6637   0.7569
     0.7688   0.8369   0.8829   0.9242   0.9284   0.9335   1.8522   1.8528
     1.9374   1.9376   3.6771   3.8019   3.8224   3.8602   3.8785   4.0277
     4.0734   4.1113   4.1334   4.1355   4.2179

     the Fermi energy is     3.6092 ev

!    total energy              =   -2919.11581346 Ry
     estimated scf accuracy    <       0.00000005 Ry
     smearing contrib. (-TS)   =      -0.03731639 Ry
     internal energy E=F+TS    =   -2919.07849707 Ry

     The total energy is F=E-TS. E is the sum of the following terms:
     one-electron contribution =  -24307.33140071 Ry
     hartree contribution      =   12241.07023156 Ry
     xc contribution           =    -480.02141823 Ry
     ewald contribution        =    9627.20108426 Ry
     electric field correction =       0.00300604 Ry

     convergence has been achieved in  71 iterations

     Forces acting on atoms (cartesian axes, Ry/au):

     atom    1 type  1   force =     0.00004450   -0.00015957    0.09377747
     atom    2 type  1   force =    -0.00018157   -0.00018723   -0.17779540
     atom    3 type  2   force =     0.00002530   -0.00022655   -0.02113631
     atom    4 type  2   force =    -0.00001545   -0.00198864    0.05774462
     atom    5 type  2   force =    -0.01107281   -0.00164867    0.00750176
     atom    6 type  2   force =     0.01243773   -0.00098288    0.00638347
     atom    7 type  1   force =    -0.00048170    0.00246450   -0.01334777
     atom    8 type  1   force =     0.00030296    0.00291170    0.00275712
     atom    9 type  2   force =     0.00007547   -0.00008437    0.00013519
     atom   10 type  2   force =    -0.00176339   -0.00228174   -0.00366193
     atom   11 type  2   force =     0.00015284    0.00059618   -0.00027978
     atom   12 type  2   force =     0.00045763    0.00053401   -0.00009757
     atom   13 type  1   force =    -0.00072017   -0.00095186   -0.00030978
     atom   14 type  1   force =     0.00082554    0.00027588   -0.00051317
     atom   15 type  2   force =     0.00026108    0.00017614   -0.00005475
     atom   16 type  2   force =    -0.00008342    0.00034124   -0.00062867
     atom   17 type  2   force =     0.00001826    0.00010156    0.00027463
     atom   18 type  2   force =     0.00053545    0.00001966    0.00024449
     atom   19 type  1   force =     0.00026755   -0.00095994    0.00041954
     atom   20 type  1   force =    -0.00013792    0.00060009    0.00047989
     atom   21 type  2   force =     0.00004535   -0.00002539    0.10381587
     atom   22 type  2   force =     0.00004205   -0.00065550    0.00005573
     atom   23 type  2   force =    -0.07057438   -0.00015035   -0.02706510
     atom   24 type  2   force =     0.07045371    0.00031288   -0.02711162
     atom   25 type  1   force =     0.00008127   -0.00018252    0.09357850
     atom   26 type  1   force =    -0.00009320   -0.00027047   -0.17783642
     atom   27 type  2   force =     0.00008314   -0.00044806   -0.02015595
     atom   28 type  2   force =     0.00002742   -0.00168971    0.05723290
     atom   29 type  2   force =    -0.01116194   -0.00114850    0.00696145
     atom   30 type  2   force =     0.01241589   -0.00080665    0.00582610
     atom   31 type  1   force =    -0.00039200    0.00468284   -0.01442848
     atom   32 type  1   force =     0.00037152   -0.00359236    0.00246694
     atom   33 type  2   force =    -0.00000322    0.00057864    0.00039757
     atom   34 type  2   force =    -0.00117674   -0.00058076   -0.00104793
     atom   35 type  2   force =     0.00038379    0.00025646    0.00021055
     atom   36 type  2   force =     0.00015093    0.00032823    0.00017860
     atom   37 type  1   force =    -0.00053380    0.00131233    0.00009841
     atom   38 type  1   force =     0.00087079    0.00007602   -0.00086937
     atom   39 type  2   force =     0.00013214    0.00046161    0.00029412
     atom   40 type  2   force =     0.00017767    0.00020265   -0.00053931
     atom   41 type  2   force =     0.00020824    0.00010026   -0.00072556
     atom   42 type  2   force =    -0.00008200    0.00005056   -0.00073576
     atom   43 type  1   force =     0.00002536    0.00105523    0.00015755
     atom   44 type  1   force =    -0.00017168    0.00027932   -0.00062270
     atom   45 type  2   force =     0.00004622   -0.00003737    0.10378381
     atom   46 type  2   force =    -0.07060380   -0.00006150   -0.02706089
     atom   47 type  2   force =     0.07047890    0.00035416   -0.02709039
     atom   48 type  3   force =    -0.00170424   -0.00018306   -0.00129874
     atom   49 type  4   force =    -0.01036835    0.00489331    0.00164692
     atom   50 type  5   force =    -0.00015863    0.00135100    0.00024277
     atom   51 type  5   force =     0.00984247   -0.00520077   -0.00118388
     atom   52 type  5   force =     0.00023927    0.00018798   -0.00106872

     Total force =     0.366245     Total SCF correction =     0.000584
  @ DRIVER MODE: Message from server: STATUS
  @ DRIVER MODE: Message from server: GETFORCE
  @ DRIVER MODE: Returning v,forces,stress,ensemble

     Writing output data file ./calc.save/
  @ DRIVER MODE: Message from server: EXIT
  @ DRIVE MODE: Exiting

     General routines

     Parallel routines

   This run was terminated on:   3:47:10   9Sep2021

   JOB DONE.