     Program PWSCF v.6.7GPU starts on  9Sep2021 at 12:54:20

     R & G space division:  proc/nbgrp/npool/nimage =      10
     Reading input from /storage/home/hcoda1/3/ntian30/research/carbon/CxH_vib/CH3_calc/ads_slab/CH3NNHHH_a/out_0045/pw.inp
Warning: card &CELL ignored
Warning: card   CELL_DYNAMICS='IPI', ignored
Warning: card / ignored

     Current dimensions of program PWSCF are:
     Max number of different atomic species (ntypx) = 10
     Max number of k-points (npk) =  40000
     Max angular momentum in pseudopotentials (lmaxx) =  3
     Presently no symmetry can be used with electric field

     Message from routine cell_base_init:
     DEPRECATED: use true lattice parameter, not A to a.u. conversion factor

     IMPORTANT: XC functional enforced from input :
     Exchange-correlation= BEEF-VDW
                           (   1   4  43  14   2   0   0)
     Any further DFT definition will be discarded
     Please, verify this is what you really want

  @ DRIVER MODE: Connecting to
 qe_1139763_2767399.sched-torque.pace.gatech.edu8r60jl1l_scratch
  using UNIX socket
  @ DRIVER MODE: Message from server: STATUS
  @ DRIVER MODE: Message from server: INIT
  @ DRIVER MODE: Receiving replica           0          -1
  @ DRIVER MODE: Receiving encoded integer          25
  @ DRIVER MODE:  SCF:  T  FORCE:  T  STRESS:  F  VC:  F  ENSEMBLE:  F
  @ DRIVER MODE:  SCF:  T  FORCE:  T  STRESS:  F  VC:  F  ENSEMBLE:  F

     Using Slab Decomposition

     bravais-lattice index     =            0
     lattice parameter (alat)  =       1.8897  a.u.
     unit-cell volume          =    6658.9804 (a.u.)^3
     number of atoms/cell      =           56
     number of atomic types    =            5
     number of electrons       =       398.00
     number of Kohn-Sham states=          209
     kinetic-energy cutoff     =      29.3995  Ry
     charge density cutoff     =     293.9946  Ry
     scf convergence threshold =      7.3E-08
     mixing beta               =       0.0500
     number of iterations used =            8  plain     mixing
     Exchange-correlation= BEEF-VDW
                           (   1   4  43  14   2   0   0)

     celldm(1)=   1.889726  celldm(2)=   0.000000  celldm(3)=   0.000000
     celldm(4)=   0.000000  celldm(5)=   0.000000  celldm(6)=   0.000000

     crystal axes: (cart. coord. in units of alat)
               a(1) = (   6.579727   0.000000   0.000000 )
               a(2) = (  -0.000775   5.961596   0.000000 )
               a(3) = (   0.000000   0.000000  25.155947 )

     reciprocal axes: (cart. coord. in units 2 pi/alat)
               b(1) = (  0.151982  0.000020  0.000000 )
               b(2) = (  0.000000  0.167740  0.000000 )
               b(3) = (  0.000000  0.000000  0.039752 )

     PseudoPot. # 1 for Ti read from file:
     /storage/coda1/p-amedford6/0/shared/rich_project_chbe-medford/medford-share/data/pseudos_module/espresso/nninc/pbe/van/Ti.UPF
     MD5 check sum: 8e4df49b7f0d34bbd5052bf3f5ea0213
     Pseudo is Ultrasoft, Zval = 12.0
     Generated by new atomic code, or converted to UPF format
     Using radial grid of  851 points,  6 beta functions with:
                l(1) =   0
                l(2) =   0
                l(3) =   1
                l(4) =   1
                l(5) =   2
                l(6) =   2
     Q(r) pseudized with  8 coefficients,  rinner =    1.000   1.000   1.000
                                                       1.000   1.000

     PseudoPot. # 2 for O  read from file:
     /storage/coda1/p-amedford6/0/shared/rich_project_chbe-medford/medford-share/data/pseudos_module/espresso/nninc/pbe/van/O.UPF
     MD5 check sum: 78c19812648e8988a0fe644b0f25305e
     Pseudo is Ultrasoft, Zval =  6.0
     Generated by new atomic code, or converted to UPF format
     Using radial grid of  737 points,  4 beta functions with:
                l(1) =   0
                l(2) =   0
                l(3) =   1
                l(4) =   1
     Q(r) pseudized with  8 coefficients,  rinner =    0.800   0.800   0.800

     PseudoPot. # 3 for N  read from file:
     /storage/coda1/p-amedford6/0/shared/rich_project_chbe-medford/medford-share/data/pseudos_module/espresso/nninc/pbe/van/N.UPF
     MD5 check sum: 90d10febe142ad51ac9d5be1deb811c4
     Pseudo is Ultrasoft, Zval =  5.0
     Generated by new atomic code, or converted to UPF format
     Using radial grid of  729 points,  4 beta functions with:
                l(1) =   0
                l(2) =   0
                l(3) =   1
                l(4) =   1
     Q(r) pseudized with  8 coefficients,  rinner =    0.800   0.800   0.800

     PseudoPot. # 4 for C  read from file:
     /storage/coda1/p-amedford6/0/shared/rich_project_chbe-medford/medford-share/data/pseudos_module/espresso/nninc/pbe/van/C.UPF
     MD5 check sum: 1a69bf6b8db32088f5b2163dbdb77a27
     Pseudo is Ultrasoft, Zval =  4.0
     Generated by new atomic code, or converted to UPF format
     Using radial grid of  721 points,  4 beta functions with:
                l(1) =   0
                l(2) =   0
                l(3) =   1
                l(4) =   1
     Q(r) pseudized with  8 coefficients,  rinner =    0.800   0.800   0.800

     PseudoPot. # 5 for H  read from file:
     /storage/coda1/p-amedford6/0/shared/rich_project_chbe-medford/medford-share/data/pseudos_module/espresso/nninc/pbe/van/H.UPF
     MD5 check sum: b5ee9d7bfd3a09ee7748110bda690ff7
     Pseudo is Ultrasoft, Zval =  1.0
     Generated by new atomic code, or converted to UPF format
     Using radial grid of  615 points,  1 beta functions with:
                l(1) =   0
     Q(r) pseudized with  8 coefficients,  rinner =    0.800

     atomic species   valence    mass     pseudopotential
        Ti1           12.00    47.86700     Ti( 1.00)
        O1             6.00    15.99900     O ( 1.00)
        N1             5.00    14.00700     N ( 1.00)
        C1             4.00    12.01100     C ( 1.00)
        H1             1.00     1.00800     H ( 1.00)

     No symmetry found

   Cartesian axes

     site n.     atom                  positions (alat units)
         1           Ti1 tau(   1) = (   0.0004258   2.9801865   6.0000000  )
         2           Ti1 tau(   2) = (   3.2906075   1.4906267   6.0002472  )
         3           O1  tau(   3) = (   0.0006271   0.0005054   7.9858123  )
         4           O1  tau(   4) = (   3.2906025   0.0005020   7.3038282  )
         5           O1  tau(   5) = (   4.5942328   1.4918067   9.2879030  )
         6           O1  tau(   6) = (   1.9868534   1.4903216   9.2879459  )
         7           Ti1 tau(   7) = (   3.2907910   2.8959150   9.1758416  )
         8           Ti1 tau(   8) = (   0.0015273   1.4827037   9.2680791  )
         9           O1  tau(   9) = (   3.3120675   0.0079458  11.3762204  )
        10           O1  tau(  10) = (   0.0116148   5.9584955  10.6183126  )
        11           O1  tau(  11) = (   1.3148726   1.5133626  12.6447579  )
        12           O1  tau(  12) = (   5.3140862   1.5122126  12.6508301  )
        13           Ti1 tau(  13) = (   0.0289753   2.9995974  12.5105963  )
        14           Ti1 tau(  14) = (   3.3300932   1.5144954  12.5190352  )
        15           O1  tau(  15) = (   0.0303621   0.0967028  14.6836000  )
        16           O1  tau(  16) = (   3.3188409   0.0235386  14.0025835  )
        17           O1  tau(  17) = (   4.5661268   1.5053193  16.2317874  )
        18           O1  tau(  18) = (   2.0488868   1.5039614  16.2002260  )
        19           Ti1 tau(  19) = (   3.3211226   2.9745325  15.7560014  )
        20           Ti1 tau(  20) = (   0.0641794   1.4487855  16.0607878  )
        21           O1  tau(  21) = (   3.2904802   0.0005063   4.7018136  )
        22           O1  tau(  22) = (   0.0207051   5.8381987  17.2232637  )
        23           O1  tau(  23) = (   1.3043587   1.4918075   6.0039043  )
        24           O1  tau(  24) = (   5.2767064   1.4903225   6.0039473  )
        25           Ti1 tau(  25) = (   0.0000382   5.9609847   6.0000000  )
        26           Ti1 tau(  26) = (   3.2902200   4.4714249   6.0002472  )
        27           O1  tau(  27) = (   0.0002396   2.9813036   7.9858123  )
        28           O1  tau(  28) = (   3.2902150   2.9813002   7.3038282  )
        29           O1  tau(  29) = (   4.5938453   4.4726049   9.2879030  )
        30           O1  tau(  30) = (   1.9864658   4.4711199   9.2879459  )
        31           Ti1 tau(  31) = (   3.2891106   5.8743827   9.1763621  )
        32           Ti1 tau(  32) = (   0.0006254   4.4649316   9.2693709  )
        33           O1  tau(  33) = (   3.3137607   3.0039157  11.3695003  )
        34           O1  tau(  34) = (   0.0092240   2.9805883  10.6323155  )
        35           O1  tau(  35) = (   1.3103219   4.4840529  12.6837359  )
        36           O1  tau(  36) = (   5.3166572   4.4842854  12.6901167  )
        37           Ti1 tau(  37) = (   0.0376818   0.0300362  12.4998423  )
        38           Ti1 tau(  38) = (   3.3279277   4.4933691  12.5326681  )
        39           O1  tau(  39) = (   0.0236785   2.9473731  14.9547601  )
        40           O1  tau(  40) = (   3.3158584   2.9778716  13.9675922  )
        41           O1  tau(  41) = (   4.5769684   4.4551829  16.1482216  )
        42           O1  tau(  42) = (   2.0574928   4.4544973  16.1629196  )
        43           Ti1 tau(  43) = (   3.3270828   0.0048838  15.7999907  )
        44           Ti1 tau(  44) = (   0.0216784   4.6657176  15.8371636  )
        45           O1  tau(  45) = (   3.2900926   2.9813045   4.7018136  )
        46           O1  tau(  46) = (   1.3039711   4.4726057   6.0039043  )
        47           O1  tau(  47) = (   5.2763189   4.4711207   6.0039473  )
        48           N1  tau(  48) = (   1.0300599   3.1028741  18.8625222  )
        49           N1  tau(  49) = (   6.4529598   2.6395754  18.1308714  )
        50           C1  tau(  50) = (   0.6566364   3.8075245  20.0867497  )
        51           H1  tau(  51) = (   6.5334193   4.6337433  19.9095685  )
        52           H1  tau(  52) = (   0.2127083   3.1054723  20.7945791  )
        53           H1  tau(  53) = (   1.5644534   4.2160081  20.5287796  )
        54           H1  tau(  54) = (   5.6912064   3.3271340  18.1715891  )
        55           H1  tau(  55) = (   6.1153184   1.7891689  18.5966666  )
        56           H1  tau(  56) = (   1.4989484   3.7555826  18.2384742  )

     number of k points=    10  Fermi-Dirac smearing, width (Ry)=  0.0073
                       cart. coord. in units 2pi/alat
        k(    1) = (   0.0000000   0.0000000   0.0000000), wk =   0.1250000
        k(    2) = (   0.0000000   0.0419351   0.0000000), wk =   0.2500000
        k(    3) = (   0.0000000  -0.0838702   0.0000000), wk =   0.1250000
        k(    4) = (   0.0379955   0.0000049   0.0000000), wk =   0.2500000
        k(    5) = (   0.0379955   0.0419400   0.0000000), wk =   0.2500000
        k(    6) = (   0.0379955  -0.0838652   0.0000000), wk =   0.2500000
        k(    7) = (   0.0379955  -0.0419301   0.0000000), wk =   0.2500000
        k(    8) = (  -0.0759910  -0.0000099   0.0000000), wk =   0.1250000
        k(    9) = (  -0.0759910   0.0419252   0.0000000), wk =   0.2500000
        k(   10) = (  -0.0759910  -0.0838800   0.0000000), wk =   0.1250000

     Initial potential from superposition of free atoms

     starting charge  381.99914, renormalised to  398.00000

     negative rho (up, down):  1.340E-02 0.000E+00

     %%%%%%%%%%%%%%%%%%%%%%%%%%%%%%%%%%%%%%%%%%%%%%%%%%%%%%%%%%%%%%%%%%%%%%%%
     %                                                                      %
     % You are using vdW-DF, which was implemented by the Thonhauser group. %
     % Please cite the following two papers that made this development      %
     % possible and the two reviews that describe the various versions:     %
     %                                                                      %
     %   T. Thonhauser et al., PRL 115, 136402 (2015).                      %
     %   T. Thonhauser et al., PRB 76, 125112 (2007).                       %
     %   K. Berland et al., Rep. Prog. Phys. 78, 066501 (2015).             %
     %   D.C. Langreth et al., J. Phys.: Condens. Matter 21, 084203 (2009). %
     %                                                                      %
     %                                                                      %
     % If you are calculating the stress with vdW-DF, please also cite:     %
     %                                                                      %
     %   R. Sabatini et al., J. Phys.: Condens. Matter 24, 424209 (2012).   %
     %                                                                      %
     %%%%%%%%%%%%%%%%%%%%%%%%%%%%%%%%%%%%%%%%%%%%%%%%%%%%%%%%%%%%%%%%%%%%%%%%

     Adding external electric field

     Computed dipole along edir(3) :
        Dipole              -11.7464 Ry au,        -29.8564 Debye
        Dipole field         -0.0222 Ry au,

        Potential amp.        2.0549 Ry
        Total length         46.3494 bohr

     Starting wfcs are  302 atomic wfcs
  @ DRIVER MODE: Message from server: STATUS
  @ DRIVER MODE: Message from server: POSDATA
  @ DRIVER MODE: Reading and sharing cell
  @ DRIVER MODE: Reading and sharing positions
  @ DRIVER MODE: Received positions

     Self-consistent Calculation

     iteration #  1     ecut=    29.40 Ry     beta= 0.05
     Davidson diagonalization with overlap
     c_bands:  1 eigenvalues not converged
     c_bands:  1 eigenvalues not converged
     c_bands:  1 eigenvalues not converged
     c_bands:  3 eigenvalues not converged
     c_bands:  3 eigenvalues not converged
     c_bands:  3 eigenvalues not converged
     c_bands:  3 eigenvalues not converged
     c_bands:  2 eigenvalues not converged
     ethr =  1.00E-05,  avg # of iterations = 21.6

[...]

     total energy              =   -2428.10748856 Ry
     estimated scf accuracy    <    5789.74732613 Ry

     iteration #  2     ecut=    29.40 Ry     beta= 0.05
     Davidson diagonalization with overlap
     ethr =  1.00E-02,  avg # of iterations = 22.5

[...]

     iteration # 61     ecut=    29.40 Ry     beta= 0.05
     Davidson diagonalization with overlap
     c_bands:  1 eigenvalues not converged
     c_bands:  1 eigenvalues not converged
     ethr =  9.91E-11,  avg # of iterations = 12.7

[...]

     total energy              =   -2942.85967784 Ry
     estimated scf accuracy    <       0.00000011 Ry

     iteration # 65     ecut=    29.40 Ry     beta= 0.05
     Davidson diagonalization with overlap
     ethr =  2.76E-11,  avg # of iterations =  1.1

     negative rho (up, down):  1.464E-02 0.000E+00

     Adding external electric field

     Computed dipole along edir(3) :
        Dipole                1.2214 Ry au,          3.1046 Debye
        Dipole field          0.0023 Ry au,

        Potential amp.       -0.2137 Ry
        Total length         46.3494 bohr

     End of self-consistent calculation

          k = 0.0000 0.0000 0.0000 ( 18029 PWs)   bands (ev):

   -55.3493 -55.3124 -55.3018 -55.2706 -55.2676 -55.2331 -55.2260 -55.1906
   -55.1692 -55.1457 -55.1347 -55.1332 -55.0996 -55.0276 -54.3309 -54.2969
   -31.9178 -31.8023 -31.7944 -31.7145 -31.6649 -31.6586 -31.6522 -31.6389
   -31.5908 -31.5900 -31.5587 -31.5534 -31.5466 -31.5308 -31.5192 -31.5117
   -31.5045 -31.4893 -31.4867 -31.4666 -31.4543 -31.4460 -31.4192 -31.4157
   -31.4040 -31.4019 -31.4001 -31.3718 -31.3589 -31.3564 -31.3515 -31.3321
   -31.3289 -31.3206 -31.3194 -31.3171 -31.2829 -31.2692 -31.2615 -31.2445
   -31.2339 -31.2095 -30.7404 -30.6460 -30.6240 -30.5567 -30.4699 -30.3591
   -17.7822 -16.1854 -15.9178 -15.7778 -15.6680 -15.5492 -15.4305 -15.4110
   -15.2789 -15.1962 -15.0761 -15.0533 -15.0266 -15.0075 -14.9952 -14.9802
   -14.8946 -14.8887 -14.8712 -14.8441 -14.8377 -14.7950 -14.7874 -14.7477
   -14.7261 -14.7252 -14.5964 -14.5087 -14.4372 -14.2019 -13.1545 -12.8339
   -12.7165  -9.7230  -6.3606  -5.3760  -4.8824  -3.5357  -3.4924  -3.3692
    -3.2790  -3.2640  -3.2424  -3.1060  -2.9526  -2.7826  -2.7691  -2.7527
    -2.6392  -2.5615  -2.5553  -2.5305  -2.3789  -2.3574  -2.3065  -2.2408
    -2.2134  -2.1651  -2.1545  -2.1331  -2.1139  -2.0938  -2.0856  -1.9722
    -1.9209  -1.8282  -1.7723  -1.7449  -1.7092  -1.6815  -1.6658  -1.6391
    -1.6313  -1.5884  -1.5612  -1.5395  -1.4880  -1.3765  -1.2673  -1.2364
    -1.1397  -0.9876  -0.9489  -0.9412  -0.9295  -0.8533  -0.8364  -0.7864
    -0.7350  -0.7279  -0.6967  -0.5860  -0.5276  -0.4625  -0.3960  -0.3845
    -0.3375  -0.2757  -0.1635  -0.1391  -0.1167  -0.0919   0.0023   0.0417
     0.0866   0.1615   0.1807   0.1944   0.3011   0.3088   0.3890   0.4011
     0.4463   0.5332   0.5674   0.5897   0.5936   0.6071   0.6369   0.7041
     0.7285   0.7548   0.8299   0.9538   1.0271   1.1854   1.2486   1.2624
     1.5922   1.5963   1.6914   1.8753   2.2676   2.3158   3.7480   3.8176
     3.8924   3.8992   3.9110   3.9848   4.2221   4.2382   4.2506   4.2568
     4.2916

[...]

          k = 0.0380-0.0419 0.0000 ( 17876 PWs)   bands (ev):

[...]

          k =-0.0760-0.0000 0.0000 ( 17886 PWs)   bands (ev):

[...]

          k =-0.0760-0.0839 0.0000 ( 17948 PWs)   bands (ev):

   -55.3351 -55.3263 -55.2849 -55.2844 -55.2691 -55.2298 -55.2124 -55.2041
   -55.1536 -55.1497 -55.1490 -55.1166 -55.1163 -55.0289 -54.3139 -54.3138
   -31.7250 -31.7223 -31.7184 -31.6347 -31.6097 -31.6092 -31.6062 -31.5761
   -31.5759 -31.5576 -31.5503 -31.5478 -31.5418 -31.5123 -31.5050 -31.4867
   -31.4866 -31.4823 -31.4793 -31.4740 -31.4710 -31.4702 -31.4333 -31.4280
   -31.4259 -31.4212 -31.4170 -31.4057 -31.4045 -31.4041 -31.3969 -31.3872
   -31.3828 -31.3668 -31.3632 -31.3476 -31.3469 -31.3374 -31.2975 -31.2973
   -31.2874 -31.2386 -30.6367 -30.6366 -30.5529 -30.5528 -30.5133 -30.5133
   -17.7774 -15.7090 -15.5968 -15.5506 -15.3775 -15.3553 -15.3326 -15.3178
   -15.1899 -15.1714 -15.1435 -15.1172 -15.0920 -15.0645 -15.0533 -15.0483
   -14.9659 -14.9540 -14.9465 -14.9304 -14.8624 -14.8595 -14.8552 -14.8493
   -14.7989 -14.7963 -14.7155 -14.7022 -14.7007 -14.5045 -13.1556 -12.8180
   -12.8179  -9.7195  -6.3481  -5.3756  -4.8884  -3.4622  -2.8653  -2.8301
    -2.8064  -2.7817  -2.5931  -2.5548  -2.5179  -2.5056  -2.4065  -2.3643
    -2.3466  -2.3393  -2.2689  -2.2654  -2.2347  -2.2046  -2.1836  -2.1665
    -2.1526  -2.1307  -2.1059  -2.0766  -2.0705  -2.0551  -2.0014  -1.9988
    -1.9831  -1.9611  -1.9433  -1.9224  -1.9061  -1.8493  -1.7271  -1.7169
    -1.6624  -1.5562  -1.5517  -1.4715  -1.4661  -1.4219  -1.3945  -1.3827
    -1.3548  -1.1753  -1.1216  -1.0952  -1.0877  -1.0734  -0.9675  -0.9334
    -0.8754  -0.8595  -0.8335  -0.7354  -0.6848  -0.6806  -0.5971  -0.5675
    -0.5272  -0.4855  -0.3855  -0.3559  -0.3354  -0.3073  -0.3039  -0.2503
    -0.2449  -0.1682  -0.1204  -0.0843  -0.0698  -0.0388   0.1607   0.1703
     0.1886   0.3355   0.3577   0.4985   0.5424   0.5842   0.6451   0.6969
     0.7627   0.8034   0.9298   0.9579   0.9586   1.0292   1.0498   1.0569
     1.1073   1.1092   2.0479   2.0486   2.1357   2.1360   3.8910   3.9956
     4.0104   4.0559   4.1657   4.2387   4.2628   4.2897   4.3325   4.3354
     4.3994

     the Fermi energy is     3.8108 ev

!    total energy              =   -2942.85971165 Ry
     estimated scf accuracy    <       0.00000007 Ry
     smearing contrib. (-TS)   =      -0.03700673 Ry
     internal energy E=F+TS    =   -2942.82270492 Ry

     The total energy is F=E-TS. E is the sum of the following terms:
     one-electron contribution =  -23389.36782392 Ry
     hartree contribution      =   11787.21297044 Ry
     xc contribution           =    -487.74949777 Ry
     ewald contribution        =    9147.07883094 Ry
     electric field correction =       0.00281539 Ry

     convergence has been achieved in  65 iterations

     Forces acting on atoms (cartesian axes, Ry/au):

     atom    1 type  1   force =     0.00000569   -0.00026158    0.09312914
     atom    2 type  1   force =    -0.00014621   -0.00043376   -0.17825702
     atom    3 type  2   force =     0.00007542   -0.00009066   -0.02024561
     atom    4 type  2   force =     0.00001669   -0.00186586    0.05881725
     atom    5 type  2   force =    -0.01022823   -0.00054771    0.00773990
     atom    6 type  2   force =     0.01227619    0.00007398    0.00820071
     atom    7 type  1   force =     0.00039235    0.00328666   -0.01425805
     atom    8 type  1   force =    -0.00045413    0.00045453   -0.00455713
     atom    9 type  2   force =    -0.00002532   -0.00061788   -0.00036175
     atom   10 type  2   force =    -0.00059710    0.00091058   -0.00140755
     atom   11 type  2   force =    -0.00038310   -0.00011996    0.00022713
     atom   12 type  2   force =     0.00007371   -0.00006809    0.00003600
     atom   13 type  1   force =     0.00004612   -0.00032962    0.00017192
     atom   14 type  1   force =    -0.00035926    0.00013179    0.00040828
     atom   15 type  2   force =    -0.00015889    0.00078465    0.00024954
     atom   16 type  2   force =    -0.00008785   -0.00018922    0.00030710
     atom   17 type  2   force =    -0.00045664    0.00003443    0.00038797
     atom   18 type  2   force =     0.00014434   -0.00021728   -0.00010061
     atom   19 type  1   force =     0.00033149    0.00026744    0.00093953
     atom   20 type  1   force =    -0.00060933   -0.00048791    0.00023011
     atom   21 type  2   force =     0.00000242   -0.00010104    0.10392651
     atom   22 type  2   force =    -0.00020670    0.00000935   -0.00051600
     atom   23 type  2   force =    -0.07035972   -0.00022581   -0.02687145
     atom   24 type  2   force =     0.07025993    0.00020595   -0.02695609
     atom   25 type  1   force =     0.00001599   -0.00027255    0.09278203
     atom   26 type  1   force =    -0.00011324   -0.00044718   -0.17828654
     atom   27 type  2   force =     0.00013989   -0.00032808   -0.01927360
     atom   28 type  2   force =     0.00008147   -0.00155353    0.05821377
     atom   29 type  2   force =    -0.01023158   -0.00032703    0.00695984
     atom   30 type  2   force =     0.01218472   -0.00008394    0.00749555
     atom   31 type  1   force =     0.00040089    0.00496422   -0.01539436
     atom   32 type  1   force =    -0.00037968   -0.00033370   -0.00466716
     atom   33 type  2   force =    -0.00022124   -0.00047717    0.00017330
     atom   34 type  2   force =    -0.00014029    0.00364284   -0.00059755
     atom   35 type  2   force =     0.00002890   -0.00056326    0.00031559
     atom   36 type  2   force =    -0.00018927   -0.00053131   -0.00003541
     atom   37 type  1   force =    -0.00026085   -0.00049806    0.00048627
     atom   38 type  1   force =    -0.00018946   -0.00089965    0.00043291
     atom   39 type  2   force =    -0.00047959   -0.00052160    0.00052300
     atom   40 type  2   force =     0.00001626   -0.00048468   -0.00042537
     atom   41 type  2   force =    -0.00078203   -0.00011343   -0.00012089
     atom   42 type  2   force =     0.00030479   -0.00024187   -0.00032891
     atom   43 type  1   force =     0.00004221   -0.00031125   -0.00004372
     atom   44 type  1   force =    -0.00006548   -0.00078647    0.00067118
     atom   45 type  2   force =     0.00001107   -0.00014622    0.10389557
     atom   46 type  2   force =    -0.07040427   -0.00018339   -0.02688811
     atom   47 type  2   force =     0.07026589    0.00025718   -0.02695549
     atom   48 type  3   force =     0.00036172    0.00146305   -0.00033673
     atom   49 type  3   force =    -0.00279290   -0.00921075    0.00458659
     atom   50 type  4   force =    -0.00181091   -0.00004099   -0.00000137
     atom   51 type  5   force =    -0.00055000    0.00005395    0.00010119
     atom   52 type  5   force =     0.00027204   -0.00012099    0.00031342
     atom   53 type  5   force =     0.00103635    0.00025290    0.00091858
     atom   54 type  5   force =    -0.00029235   -0.00133483    0.00013891
     atom   55 type  5   force =     0.00409683    0.00947690   -0.00571257
     atom   56 type  5   force =     0.00009226   -0.00090207   -0.00017974

     Total force =     0.366476     Total SCF correction =     0.000755
  @ DRIVER MODE: Message from server: STATUS
  @ DRIVER MODE: Message from server: GETFORCE
  @ DRIVER MODE: Returning v,forces,stress,ensemble

     Writing output data file ./calc.save/
  @ DRIVER MODE: Message from server: EXIT
  @ DRIVE MODE: Exiting

     General routines

     Parallel routines

   This run was terminated on:  13:12:17   9Sep2021

   JOB DONE.