     Program PWSCF v.6.7GPU starts on  9Sep2021 at  0:25:43

     R & G space division:  proc/nbgrp/npool/nimage =      10
     Reading input from /storage/home/hcoda1/3/ntian30/research/carbon/CxH_vib/CH3_calc/ads_slab/CH3N_a/out_0010/pw.inp
Warning: card &CELL ignored
Warning: card   CELL_DYNAMICS='IPI', ignored
Warning: card / ignored

     Current dimensions of program PWSCF are:
     Max number of different atomic species (ntypx) = 10
     Max number of k-points (npk) =  40000
     Max angular momentum in pseudopotentials (lmaxx) =  3
     Presently no symmetry can be used with electric field

     Message from routine cell_base_init:
     DEPRECATED: use true lattice parameter, not A to a.u. conversion factor

     IMPORTANT: XC functional enforced from input :
     Exchange-correlation= BEEF-VDW
                           (   1   4  43  14   2   0   0)
     Any further DFT definition will be discarded
     Please, verify this is what you really want

  @ DRIVER MODE: Connecting to
 qe_1139763_2767403.sched-torque.pace.gatech.edu0hfh85uy_scratch
  using UNIX socket
  @ DRIVER MODE: Message from server: STATUS
  @ DRIVER MODE: Message from server: INIT
  @ DRIVER MODE: Receiving replica           0          -1
  @ DRIVER MODE: Receiving encoded integer          25
  @ DRIVER MODE:  SCF:  T  FORCE:  T  STRESS:  F  VC:  F  ENSEMBLE:  F
  @ DRIVER MODE:  SCF:  T  FORCE:  T  STRESS:  F  VC:  F  ENSEMBLE:  F

     Using Slab Decomposition

     bravais-lattice index     =            0
     lattice parameter (alat)  =       1.8897  a.u.
     unit-cell volume          =    6658.9804 (a.u.)^3
     number of atoms/cell      =           52
     number of atomic types    =            5
     number of electrons       =       390.00
     number of Kohn-Sham states=          205
     kinetic-energy cutoff     =      29.3995  Ry
     charge density cutoff     =     293.9946  Ry
     scf convergence threshold =      7.3E-08
     mixing beta               =       0.0500
     number of iterations used =            8  plain     mixing
     Exchange-correlation= BEEF-VDW
                           (   1   4  43  14   2   0   0)

     celldm(1)=   1.889726  celldm(2)=   0.000000  celldm(3)=   0.000000
     celldm(4)=   0.000000  celldm(5)=   0.000000  celldm(6)=   0.000000

     crystal axes: (cart. coord. in units of alat)
               a(1) = (   6.579727   0.000000   0.000000 )
               a(2) = (  -0.000775   5.961596   0.000000 )
               a(3) = (   0.000000   0.000000  25.155947 )

     reciprocal axes: (cart. coord. in units 2 pi/alat)
               b(1) = (  0.151982  0.000020  0.000000 )
               b(2) = (  0.000000  0.167740  0.000000 )
               b(3) = (  0.000000  0.000000  0.039752 )

     PseudoPot. # 1 for Ti read from file:
     /storage/coda1/p-amedford6/0/shared/rich_project_chbe-medford/medford-share/data/pseudos_module/espresso/nninc/pbe/van/Ti.UPF
     MD5 check sum: 8e4df49b7f0d34bbd5052bf3f5ea0213
     Pseudo is Ultrasoft, Zval = 12.0
     Generated by new atomic code, or converted to UPF format
     Using radial grid of  851 points,  6 beta functions with:
                l(1) =   0
                l(2) =   0
                l(3) =   1
                l(4) =   1
                l(5) =   2
                l(6) =   2
     Q(r) pseudized with  8 coefficients,  rinner =    1.000   1.000   1.000
                                                       1.000   1.000

     PseudoPot. # 2 for O  read from file:
     /storage/coda1/p-amedford6/0/shared/rich_project_chbe-medford/medford-share/data/pseudos_module/espresso/nninc/pbe/van/O.UPF
     MD5 check sum: 78c19812648e8988a0fe644b0f25305e
     Pseudo is Ultrasoft, Zval =  6.0
     Generated by new atomic code, or converted to UPF format
     Using radial grid of  737 points,  4 beta functions with:
                l(1) =   0
                l(2) =   0
                l(3) =   1
                l(4) =   1
     Q(r) pseudized with  8 coefficients,  rinner =    0.800   0.800   0.800

     PseudoPot. # 3 for N  read from file:
     /storage/coda1/p-amedford6/0/shared/rich_project_chbe-medford/medford-share/data/pseudos_module/espresso/nninc/pbe/van/N.UPF
     MD5 check sum: 90d10febe142ad51ac9d5be1deb811c4
     Pseudo is Ultrasoft, Zval =  5.0
     Generated by new atomic code, or converted to UPF format
     Using radial grid of  729 points,  4 beta functions with:
                l(1) =   0
                l(2) =   0
                l(3) =   1
                l(4) =   1
     Q(r) pseudized with  8 coefficients,  rinner =    0.800   0.800   0.800

     PseudoPot. # 4 for C  read from file:
     /storage/coda1/p-amedford6/0/shared/rich_project_chbe-medford/medford-share/data/pseudos_module/espresso/nninc/pbe/van/C.UPF
     MD5 check sum: 1a69bf6b8db32088f5b2163dbdb77a27
     Pseudo is Ultrasoft, Zval =  4.0
     Generated by new atomic code, or converted to UPF format
     Using radial grid of  721 points,  4 beta functions with:
                l(1) =   0
                l(2) =   0
                l(3) =   1
                l(4) =   1
     Q(r) pseudized with  8 coefficients,  rinner =    0.800   0.800   0.800

     PseudoPot. # 5 for H  read from file:
     /storage/coda1/p-amedford6/0/shared/rich_project_chbe-medford/medford-share/data/pseudos_module/espresso/nninc/pbe/van/H.UPF
     MD5 check sum: b5ee9d7bfd3a09ee7748110bda690ff7
     Pseudo is Ultrasoft, Zval =  1.0
     Generated by new atomic code, or converted to UPF format
     Using radial grid of  615 points,  1 beta functions with:
                l(1) =   0
     Q(r) pseudized with  8 coefficients,  rinner =    0.800

     atomic species   valence    mass     pseudopotential
        Ti1           12.00    47.86700     Ti( 1.00)
        O1             6.00    15.99900     O ( 1.00)
        N1             5.00    14.00700     N ( 1.00)
        C1             4.00    12.01100     C ( 1.00)
        H1             1.00     1.00800     H ( 1.00)

     No symmetry found

   Cartesian axes

     site n.     atom                  positions (alat units)
         1           Ti1 tau(   1) = (   0.0004258   2.9801865   6.0000000  )
         2           Ti1 tau(   2) = (   3.2906075   1.4906267   6.0002472  )
         3           O1  tau(   3) = (   0.0006271   0.0005054   7.9858123  )
         4           O1  tau(   4) = (   3.2906025   0.0005020   7.3038282  )
         5           O1  tau(   5) = (   4.5942328   1.4918067   9.2879030  )
         6           O1  tau(   6) = (   1.9868534   1.4903216   9.2879459  )
         7           Ti1 tau(   7) = (   3.2907910   2.8959150   9.1758416  )
         8           Ti1 tau(   8) = (   0.0015273   1.4827037   9.2680791  )
         9           O1  tau(   9) = (   3.3018735   5.9614316  11.2970789  )
        10           O1  tau(  10) = (   0.0116148   5.9584955  10.6183126  )
        11           O1  tau(  11) = (   1.3353665   1.4968727  12.6140821  )
        12           O1  tau(  12) = (   5.3123320   1.5002621  12.6324210  )
        13           Ti1 tau(  13) = (   6.4913169   2.9877414  12.7576577  )
        14           Ti1 tau(  14) = (   3.1819880   1.4874128  12.4666476  )
        15           O1  tau(  15) = (   0.0325390   5.9514364  14.5942808  )
        16           O1  tau(  16) = (   3.3157460   0.0104736  13.8786857  )
        17           O1  tau(  17) = (   4.5538541   1.5308062  16.0536203  )
        18           O1  tau(  18) = (   2.1012647   1.5271178  16.0466835  )
        19           Ti1 tau(  19) = (   3.3239613   3.0121693  15.6870930  )
        20           Ti1 tau(  20) = (   0.0188375   1.6096557  16.0875739  )
        21           O1  tau(  21) = (   3.2904802   0.0005063   4.7018136  )
        22           O1  tau(  22) = (   0.0443345   0.0604659  17.2041813  )
        23           O1  tau(  23) = (   1.3043587   1.4918075   6.0039043  )
        24           O1  tau(  24) = (   5.2767064   1.4903225   6.0039473  )
        25           Ti1 tau(  25) = (   0.0000382   5.9609847   6.0000000  )
        26           Ti1 tau(  26) = (   3.2902200   4.4714249   6.0002472  )
        27           O1  tau(  27) = (   0.0002396   2.9813036   7.9858123  )
        28           O1  tau(  28) = (   3.2902150   2.9813002   7.3038282  )
        29           O1  tau(  29) = (   4.5938453   4.4726049   9.2879030  )
        30           O1  tau(  30) = (   1.9864658   4.4711199   9.2879459  )
        31           Ti1 tau(  31) = (   3.2891106   5.8743827   9.1763621  )
        32           Ti1 tau(  32) = (   0.0006254   4.4649316   9.2693709  )
        33           O1  tau(  33) = (   3.3028429   2.9834257  11.2952420  )
        34           O1  tau(  34) = (   0.0092240   2.9805883  10.6323155  )
        35           O1  tau(  35) = (   1.3370139   4.4664586  12.6123119  )
        36           O1  tau(  36) = (   5.3107101   4.4655690  12.6333123  )
        37           Ti1 tau(  37) = (   6.5188704   0.0058144  12.7695920  )
        38           Ti1 tau(  38) = (   3.1805296   4.4670443  12.4671176  )
        39           O1  tau(  39) = (   0.0099197   2.9765079  14.6559069  )
        40           O1  tau(  40) = (   3.3143426   2.9928857  13.8797190  )
        41           O1  tau(  41) = (   4.5573730   4.5089470  16.0521860  )
        42           O1  tau(  42) = (   2.1018054   4.5121927  16.0508938  )
        43           Ti1 tau(  43) = (   3.3145791   0.0316975  15.6896801  )
        44           Ti1 tau(  44) = (   0.0207397   4.5876961  16.1385408  )
        45           O1  tau(  45) = (   3.2900926   2.9813045   4.7018136  )
        46           O1  tau(  46) = (   1.3039711   4.4726057   6.0039043  )
        47           O1  tau(  47) = (   5.2763189   4.4711207   6.0039473  )
        48           N1  tau(  48) = (   0.0936308   3.0233000  17.3257847  )
        49           C1  tau(  49) = (   0.4281149   3.0237428  18.7308649  )
        50           H1  tau(  50) = (   0.7292188   4.0033843  19.0862330  )
        51           H1  tau(  51) = (   6.1445545   2.6862439  19.3232575  )
        52           H1  tau(  52) = (   1.2401080   2.3040860  18.9332505  )

     number of k points=    10  Fermi-Dirac smearing, width (Ry)=  0.0073
                       cart. coord. in units 2pi/alat
        k(    1) = (   0.0000000   0.0000000   0.0000000), wk =   0.1250000
        k(    2) = (   0.0000000   0.0419351   0.0000000), wk =   0.2500000
        k(    3) = (   0.0000000  -0.0838702   0.0000000), wk =   0.1250000
        k(    4) = (   0.0379955   0.0000049   0.0000000), wk =   0.2500000
        k(    5) = (   0.0379955   0.0419400   0.0000000), wk =   0.2500000
        k(    6) = (   0.0379955  -0.0838652   0.0000000), wk =   0.2500000
        k(    7) = (   0.0379955  -0.0419301   0.0000000), wk =   0.2500000
        k(    8) = (  -0.0759910  -0.0000099   0.0000000), wk =   0.1250000
        k(    9) = (  -0.0759910   0.0419252   0.0000000), wk =   0.2500000
        k(   10) = (  -0.0759910  -0.0838800   0.0000000), wk =   0.1250000

     Initial potential from superposition of free atoms

     starting charge  373.99917, renormalised to  390.00000

     negative rho (up, down):  1.730E-02 0.000E+00

     %%%%%%%%%%%%%%%%%%%%%%%%%%%%%%%%%%%%%%%%%%%%%%%%%%%%%%%%%%%%%%%%%%%%%%%%
     %                                                                      %
     % You are using vdW-DF, which was implemented by the Thonhauser group. %
     % Please cite the following two papers that made this development      %
     % possible and the two reviews that describe the various versions:     %
     %                                                                      %
     %   T. Thonhauser et al., PRL 115, 136402 (2015).                      %
     %   T. Thonhauser et al., PRB 76, 125112 (2007).                       %
     %   K. Berland et al., Rep. Prog. Phys. 78, 066501 (2015).             %
     %   D.C. Langreth et al., J. Phys.: Condens. Matter 21, 084203 (2009). %
     %                                                                      %
     %                                                                      %
     % If you are calculating the stress with vdW-DF, please also cite:     %
     %                                                                      %
     %   R. Sabatini et al., J. Phys.: Condens. Matter 24, 424209 (2012).   %
     %                                                                      %
     %%%%%%%%%%%%%%%%%%%%%%%%%%%%%%%%%%%%%%%%%%%%%%%%%%%%%%%%%%%%%%%%%%%%%%%%

     Adding external electric field

     Computed dipole along edir(3) :
        Dipole               -4.6272 Ry au,        -11.7612 Debye
        Dipole field         -0.0087 Ry au,

        Potential amp.        0.8095 Ry
        Total length         46.3494 bohr

     Starting wfcs are  295 atomic wfcs
  @ DRIVER MODE: Message from server: STATUS
  @ DRIVER MODE: Message from server: POSDATA
  @ DRIVER MODE: Reading and sharing cell
  @ DRIVER MODE: Reading and sharing positions
  @ DRIVER MODE: Received positions

     Self-consistent Calculation

     iteration #  1     ecut=    29.40 Ry     beta= 0.05
     Davidson diagonalization with overlap
     c_bands:  4 eigenvalues not converged
     c_bands:  2 eigenvalues not converged
     c_bands:  3 eigenvalues not converged
     c_bands:  4 eigenvalues not converged
     c_bands:  2 eigenvalues not converged
     c_bands:  4 eigenvalues not converged
     c_bands:  3 eigenvalues not converged
     c_bands:  2 eigenvalues not converged
     c_bands:  2 eigenvalues not converged
     ethr =  1.00E-05,  avg # of iterations = 19.9

[...]

     total energy              =   -2877.77865090 Ry
     estimated scf accuracy    <     477.56003874 Ry

     iteration #  2     ecut=    29.40 Ry     beta= 0.05
     Davidson diagonalization with overlap
     ethr =  1.00E-02,  avg # of iterations = 13.5

[...]

     iteration # 23     ecut=    29.40 Ry     beta= 0.05
     Davidson diagonalization with overlap
     c_bands:  1 eigenvalues not converged
     c_bands:  1 eigenvalues not converged
     c_bands:  1 eigenvalues not converged
     c_bands:  2 eigenvalues not converged
     ethr =  3.56E-06,  avg # of iterations = 18.6

[...]

     total energy              =   -2919.13166836 Ry
     estimated scf accuracy    <       0.00000016 Ry

     iteration # 60     ecut=    29.40 Ry     beta= 0.05
     Davidson diagonalization with overlap
     ethr =  4.13E-11,  avg # of iterations =  6.0

     negative rho (up, down):  1.786E-02 0.000E+00

     Adding external electric field

     Computed dipole along edir(3) :
        Dipole                0.2611 Ry au,          0.6635 Debye
        Dipole field          0.0005 Ry au,

        Potential amp.       -0.0457 Ry
        Total length         46.3494 bohr

     End of self-consistent calculation

          k = 0.0000 0.0000 0.0000 ( 18029 PWs)   bands (ev):

   -56.8852 -56.8516 -56.0082 -55.9965 -55.9733 -55.9636 -55.8621 -55.8234
   -55.6461 -55.6108 -55.5497 -55.5480 -55.5158 -55.4390 -54.9675 -54.9224
   -33.3132 -33.1600 -33.1319 -33.0612 -32.9701 -32.9392 -32.4792 -32.4728
   -32.4027 -32.2924 -32.2460 -32.2219 -32.2036 -32.1822 -32.1487 -32.1444
   -32.1411 -32.1373 -32.1117 -32.1105 -32.0977 -32.0691 -32.0428 -32.0291
   -32.0160 -31.9963 -31.9896 -31.9662 -31.9421 -31.8883 -31.8775 -31.8641
   -31.7895 -31.7849 -31.7608 -31.7231 -31.7127 -31.6773 -31.6682 -31.6434
   -31.6246 -31.5664 -31.4982 -31.2189 -31.1923 -31.1729 -31.1434 -31.0276
   -17.0496 -16.6152 -16.3849 -16.2479 -16.1814 -16.1260 -16.0826 -15.9601
   -15.8860 -15.8808 -15.8398 -15.8091 -15.7380 -15.5993 -15.5008 -15.4441
   -15.4006 -15.2816 -15.2220 -15.1894 -15.1838 -15.1451 -15.1301 -14.9325
   -14.9062 -14.8174 -14.7989 -14.6712 -14.4401 -14.0484 -13.9384 -13.0855
    -7.8157  -4.6151  -4.1115  -3.8707  -3.7875  -3.6796  -3.6661  -3.5874
    -3.4662  -3.4200  -3.3733  -3.2571  -3.2545  -3.1369  -3.1075  -3.0610
    -3.0592  -3.0260  -2.9501  -2.9393  -2.8942  -2.8920  -2.8850  -2.7289
    -2.6314  -2.5662  -2.5376  -2.5250  -2.4937  -2.4233  -2.3931  -2.3826
    -2.3788  -2.2748  -2.1277  -2.1266  -2.0958  -2.0538  -2.0502  -2.0097
    -2.0008  -1.8761  -1.7847  -1.6764  -1.6656  -1.6293  -1.5662  -1.5591
    -1.4661  -1.3879  -1.3178  -1.2992  -1.1895  -1.1474  -1.1237  -1.0346
    -0.9722  -0.9346  -0.9124  -0.8954  -0.7911  -0.7748  -0.7688  -0.6753
    -0.6630  -0.6193  -0.5261  -0.5030  -0.4969  -0.4153  -0.4085  -0.3047
    -0.2749  -0.2311  -0.1979  -0.0936  -0.0726   0.0250   0.0628   0.0803
     0.2027   0.2200   0.2803   0.3524   0.4185   0.4354   0.4718   0.5016
     0.5182   0.5952   0.7080   0.7160   0.8184   0.8516   1.0243   1.0633
     1.3389   1.3530   2.0491   2.3893   2.5489   2.8473   3.0358   3.1489
     3.3640   3.3796   3.3849   3.5555   3.6079

[...]

          k = 0.0380-0.0419 0.0000 ( 17876 PWs)   bands (ev):

[...]

          k =-0.0760-0.0000 0.0000 ( 17886 PWs)   bands (ev):

[...]

          k =-0.0760-0.0839 0.0000 ( 17948 PWs)   bands (ev):

   -56.8685 -56.8682 -55.9930 -55.9872 -55.9808 -55.9802 -55.8505 -55.8347
   -55.6313 -55.6255 -55.5452 -55.5328 -55.5327 -55.4418 -54.9590 -54.9308
   -33.1459 -33.1456 -33.1301 -33.1299 -33.0142 -33.0140 -32.3090 -32.3067
   -32.2973 -32.2907 -32.2380 -32.2346 -32.1963 -32.1918 -32.1906 -32.1871
   -32.1825 -32.1797 -32.1775 -32.1759 -32.1009 -32.0884 -32.0497 -32.0375
   -31.9817 -31.9733 -31.9136 -31.9078 -31.8771 -31.8771 -31.8732 -31.8300
   -31.8284 -31.7982 -31.7615 -31.7583 -31.7582 -31.7193 -31.7192 -31.7188
   -31.6845 -31.6452 -31.3625 -31.2862 -31.1888 -31.1620 -31.1523 -31.1107
   -16.3983 -16.3963 -16.3635 -16.3632 -16.0945 -16.0910 -16.0455 -16.0421
   -15.8708 -15.8637 -15.6583 -15.6495 -15.6426 -15.6398 -15.5121 -15.5063
   -15.4436 -15.4295 -15.3420 -15.3397 -15.2762 -15.2700 -15.2321 -15.2124
   -14.9018 -14.8841 -14.7717 -14.7467 -14.5838 -14.0419 -14.0418 -13.1020
    -7.8065  -3.4969  -3.4962  -3.4328  -3.4318  -3.3081  -3.3023  -3.2280
    -3.2273  -3.1268  -3.1234  -3.1175  -2.9902  -2.9834  -2.9808  -2.9703
    -2.9362  -2.8283  -2.8264  -2.8153  -2.7993  -2.7426  -2.7403  -2.7290
    -2.6524  -2.6375  -2.6036  -2.5653  -2.4568  -2.4431  -2.4304  -2.3986
    -2.3430  -2.3279  -2.3152  -2.2735  -2.2473  -2.1624  -2.1076  -2.0557
    -1.9380  -1.9347  -1.9268  -1.9115  -1.7596  -1.7181  -1.6905  -1.6824
    -1.6751  -1.6318  -1.5323  -1.5256  -1.3916  -1.3910  -1.3118  -1.2327
    -1.2144  -1.1845  -1.0548  -1.0138  -0.9777  -0.9696  -0.9424  -0.9231
    -0.8994  -0.8625  -0.7208  -0.7083  -0.6705  -0.6356  -0.6308  -0.5738
    -0.5177  -0.4368  -0.3599  -0.3588  -0.3088  -0.2334  -0.1724  -0.0915
    -0.0771  -0.0724   0.2073   0.2874   0.3787   0.4554   0.5234   0.5775
     0.6114   0.6768   0.7155   0.8498   0.8544   0.8725   0.8729   0.9342
     0.9356   1.3293   1.9387   2.9622   2.9625   3.0294   3.0298   3.3533
     3.3592   3.4673   3.4767   3.5871   3.5892

     the Fermi energy is     2.2287 ev

!    total energy              =   -2919.13170548 Ry
     estimated scf accuracy    <       0.00000005 Ry
     smearing contrib. (-TS)   =      -0.00483198 Ry
     internal energy E=F+TS    =   -2919.12687350 Ry

     The total energy is F=E-TS. E is the sum of the following terms:
     one-electron contribution =  -24569.39174329 Ry
     hartree contribution      =   12368.92494033 Ry
     xc contribution           =    -479.89946017 Ry
     ewald contribution        =    9761.23926103 Ry
     electric field correction =       0.00012861 Ry

     convergence has been achieved in  60 iterations

     Forces acting on atoms (cartesian axes, Ry/au):

     atom    1 type  1   force =     0.00005848   -0.00050409    0.12425258
     atom    2 type  1   force =    -0.00008609   -0.00055057   -0.16066342
     atom    3 type  2   force =     0.00022141   -0.00023926   -0.06804469
     atom    4 type  2   force =    -0.00000259   -0.00032241    0.02760630
     atom    5 type  2   force =    -0.01621925    0.00174829   -0.00934824
     atom    6 type  2   force =     0.01827264    0.00228561   -0.00890092
     atom    7 type  1   force =     0.00112204   -0.00381913    0.02197839
     atom    8 type  1   force =    -0.00061807   -0.00325245    0.11117359
     atom    9 type  2   force =    -0.00011079    0.00138857   -0.00030808
     atom   10 type  2   force =    -0.00191067    0.00178830   -0.07342708
     atom   11 type  2   force =     0.00080422    0.00005491    0.00006617
     atom   12 type  2   force =    -0.00062856    0.00019159    0.00016541
     atom   13 type  1   force =     0.00005699    0.00022146   -0.00046809
     atom   14 type  1   force =    -0.00101947   -0.00024468   -0.00052265
     atom   15 type  2   force =    -0.00000435   -0.00020654    0.00019758
     atom   16 type  2   force =    -0.00006163    0.00106598    0.00079380
     atom   17 type  2   force =     0.00011395    0.00013003   -0.00048916
     atom   18 type  2   force =     0.00000975    0.00020854   -0.00008495
     atom   19 type  1   force =     0.00014378    0.00001106   -0.00074988
     atom   20 type  1   force =     0.00028801   -0.00077371    0.00026562
     atom   21 type  2   force =     0.00003985   -0.00006626    0.09978316
     atom   22 type  2   force =     0.00016707   -0.00051272   -0.00001005
     atom   23 type  2   force =    -0.07918296   -0.00005424   -0.03242942
     atom   24 type  2   force =     0.07904872    0.00038122   -0.03245415
     atom   25 type  1   force =     0.00004141   -0.00050216    0.12369675
     atom   26 type  1   force =    -0.00009872   -0.00050559   -0.16067286
     atom   27 type  2   force =     0.00032521   -0.00048067   -0.06709912
     atom   28 type  2   force =     0.00002704   -0.00014590    0.02729832
     atom   29 type  2   force =    -0.01661961    0.00135070   -0.00955146
     atom   30 type  2   force =     0.01856090    0.00165710   -0.00911884
     atom   31 type  1   force =     0.00109867   -0.00129349    0.02153745
     atom   32 type  1   force =    -0.00052158    0.00069369    0.11182312
     atom   33 type  2   force =    -0.00034459   -0.00115186    0.00019562
     atom   34 type  2   force =    -0.00156859    0.00135565   -0.07237081
     atom   35 type  2   force =    -0.00179827   -0.00019136    0.00028165
     atom   36 type  2   force =     0.00071743   -0.00040867   -0.00003044
     atom   37 type  1   force =     0.00071271   -0.00033100    0.00059109
     atom   38 type  1   force =    -0.00016896    0.00052147    0.00015573
     atom   39 type  2   force =     0.00018644   -0.00032372   -0.00036127
     atom   40 type  2   force =     0.00010567   -0.00017223    0.00037832
     atom   41 type  2   force =     0.00001964    0.00044762   -0.00013422
     atom   42 type  2   force =     0.00026229    0.00054278   -0.00003197
     atom   43 type  1   force =     0.00038070    0.00018218   -0.00040545
     atom   44 type  1   force =    -0.00019813    0.00030013   -0.00031185
     atom   45 type  2   force =     0.00002357   -0.00007015    0.09979241
     atom   46 type  2   force =    -0.07919104   -0.00000520   -0.03242966
     atom   47 type  2   force =     0.07905924    0.00042445   -0.03245277
     atom   48 type  3   force =     0.00003158    0.00078928   -0.00027045
     atom   49 type  4   force =    -0.00102165   -0.02019037    0.00019263
     atom   50 type  5   force =     0.00164226    0.00988478    0.00264984
     atom   51 type  5   force =     0.00240425    0.00265421   -0.00112990
     atom   52 type  5   force =    -0.00457033    0.00603886   -0.00060366

     Total force =     0.425246     Total SCF correction =     0.000690
  @ DRIVER MODE: Message from server: STATUS
  @ DRIVER MODE: Message from server: GETFORCE
  @ DRIVER MODE: Returning v,forces,stress,ensemble

     Writing output data file ./calc.save/
  @ DRIVER MODE: Message from server: EXIT
  @ DRIVE MODE: Exiting

     General routines

     Parallel routines

   This run was terminated on:   0:40:25   9Sep2021

   JOB DONE.