     Program PWSCF v.6.7GPU starts on 16Sep2021 at  6:46: 6

     R & G space division:  proc/nbgrp/npool/nimage =      10
     Reading input from /storage/home/hcoda1/3/ntian30/research/carbon/CxH_vib/H2O_calc/ads_slab/CHNHHH2O_a/out_0047/pw.inp
Warning: card &CELL ignored
Warning: card   CELL_DYNAMICS='IPI', ignored
Warning: card / ignored

     Current dimensions of program PWSCF are:
     Max number of different atomic species (ntypx) = 10
     Max number of k-points (npk) =  40000
     Max angular momentum in pseudopotentials (lmaxx) =  3
     Presently no symmetry can be used with electric field

     Message from routine cell_base_init:
     DEPRECATED: use true lattice parameter, not A to a.u. conversion factor

     IMPORTANT: XC functional enforced from input :
     Exchange-correlation= BEEF-VDW
                           (   1   4  43  14   2   0   0)
     Any further DFT definition will be discarded
     Please, verify this is what you really want

  @ DRIVER MODE: Connecting to
 qe_1139763_2852629.sched-torque.pace.gatech.edumytxhtqo_scratch
  using UNIX socket
  @ DRIVER MODE: Message from server: STATUS
  @ DRIVER MODE: Message from server: INIT
  @ DRIVER MODE: Receiving replica           0          -1
  @ DRIVER MODE: Receiving encoded integer          25
  @ DRIVER MODE:  SCF:  T  FORCE:  T  STRESS:  F  VC:  F  ENSEMBLE:  F
  @ DRIVER MODE:  SCF:  T  FORCE:  T  STRESS:  F  VC:  F  ENSEMBLE:  F

     Using Slab Decomposition

     bravais-lattice index     =            0
     lattice parameter (alat)  =       1.8897  a.u.
     unit-cell volume          =    6658.9804 (a.u.)^3
     number of atoms/cell      =           55
     number of atomic types    =            5
     number of electrons       =       398.00
     number of Kohn-Sham states=          209
     kinetic-energy cutoff     =      29.3995  Ry
     charge density cutoff     =     293.9946  Ry
     scf convergence threshold =      7.3E-08
     mixing beta               =       0.0500
     number of iterations used =            8  plain     mixing
     Exchange-correlation= BEEF-VDW
                           (   1   4  43  14   2   0   0)

     celldm(1)=   1.889726  celldm(2)=   0.000000  celldm(3)=   0.000000
     celldm(4)=   0.000000  celldm(5)=   0.000000  celldm(6)=   0.000000

     crystal axes: (cart. coord. in units of alat)
               a(1) = (   6.579727   0.000000   0.000000 )
               a(2) = (  -0.000775   5.961596   0.000000 )
               a(3) = (   0.000000   0.000000  25.155947 )

     reciprocal axes: (cart. coord. in units 2 pi/alat)
               b(1) = (  0.151982  0.000020  0.000000 )
               b(2) = (  0.000000  0.167740  0.000000 )
               b(3) = (  0.000000  0.000000  0.039752 )

     PseudoPot. # 1 for Ti read from file:
     /storage/coda1/p-amedford6/0/shared/rich_project_chbe-medford/medford-share/data/pseudos_module/espresso/nninc/pbe/van/Ti.UPF
     MD5 check sum: 8e4df49b7f0d34bbd5052bf3f5ea0213
     Pseudo is Ultrasoft, Zval = 12.0
     Generated by new atomic code, or converted to UPF format
     Using radial grid of  851 points,  6 beta functions with:
                l(1) =   0
                l(2) =   0
                l(3) =   1
                l(4) =   1
                l(5) =   2
                l(6) =   2
     Q(r) pseudized with  8 coefficients,  rinner =    1.000   1.000   1.000
                                                       1.000   1.000

     PseudoPot. # 2 for O  read from file:
     /storage/coda1/p-amedford6/0/shared/rich_project_chbe-medford/medford-share/data/pseudos_module/espresso/nninc/pbe/van/O.UPF
     MD5 check sum: 78c19812648e8988a0fe644b0f25305e
     Pseudo is Ultrasoft, Zval =  6.0
     Generated by new atomic code, or converted to UPF format
     Using radial grid of  737 points,  4 beta functions with:
                l(1) =   0
                l(2) =   0
                l(3) =   1
                l(4) =   1
     Q(r) pseudized with  8 coefficients,  rinner =    0.800   0.800   0.800

     PseudoPot. # 3 for N  read from file:
     /storage/coda1/p-amedford6/0/shared/rich_project_chbe-medford/medford-share/data/pseudos_module/espresso/nninc/pbe/van/N.UPF
     MD5 check sum: 90d10febe142ad51ac9d5be1deb811c4
     Pseudo is Ultrasoft, Zval =  5.0
     Generated by new atomic code, or converted to UPF format
     Using radial grid of  729 points,  4 beta functions with:
                l(1) =   0
                l(2) =   0
                l(3) =   1
                l(4) =   1
     Q(r) pseudized with  8 coefficients,  rinner =    0.800   0.800   0.800

     PseudoPot. # 4 for C  read from file:
     /storage/coda1/p-amedford6/0/shared/rich_project_chbe-medford/medford-share/data/pseudos_module/espresso/nninc/pbe/van/C.UPF
     MD5 check sum: 1a69bf6b8db32088f5b2163dbdb77a27
     Pseudo is Ultrasoft, Zval =  4.0
     Generated by new atomic code, or converted to UPF format
     Using radial grid of  721 points,  4 beta functions with:
                l(1) =   0
                l(2) =   0
                l(3) =   1
                l(4) =   1
     Q(r) pseudized with  8 coefficients,  rinner =    0.800   0.800   0.800

     PseudoPot. # 5 for H  read from file:
     /storage/coda1/p-amedford6/0/shared/rich_project_chbe-medford/medford-share/data/pseudos_module/espresso/nninc/pbe/van/H.UPF
     MD5 check sum: b5ee9d7bfd3a09ee7748110bda690ff7
     Pseudo is Ultrasoft, Zval =  1.0
     Generated by new atomic code, or converted to UPF format
     Using radial grid of  615 points,  1 beta functions with:
                l(1) =   0
     Q(r) pseudized with  8 coefficients,  rinner =    0.800

     atomic species   valence    mass     pseudopotential
        Ti1           12.00    47.86700     Ti( 1.00)
        O1             6.00    15.99900     O ( 1.00)
        N1             5.00    14.00700     N ( 1.00)
        C1             4.00    12.01100     C ( 1.00)
        H1             1.00     1.00800     H ( 1.00)

     No symmetry found

   Cartesian axes

     site n.     atom                  positions (alat units)
         1           Ti1 tau(   1) = (   0.0004258   2.9801865   6.0000000  )
         2           Ti1 tau(   2) = (   3.2906075   1.4906267   6.0002472  )
         3           O1  tau(   3) = (   0.0006271   0.0005054   7.9858123  )
         4           O1  tau(   4) = (   3.2906025   0.0005020   7.3038282  )
         5           O1  tau(   5) = (   4.5942328   1.4918067   9.2879030  )
         6           O1  tau(   6) = (   1.9868534   1.4903216   9.2879459  )
         7           Ti1 tau(   7) = (   3.2907910   2.8959150   9.1758416  )
         8           Ti1 tau(   8) = (   0.0015273   1.4827037   9.2680791  )
         9           O1  tau(   9) = (   3.2943807   5.9438157  11.3430345  )
        10           O1  tau(  10) = (   0.0116148   5.9584955  10.6183126  )
        11           O1  tau(  11) = (   1.2953376   1.4759649  12.6292060  )
        12           O1  tau(  12) = (   5.2846356   1.4785235  12.6176154  )
        13           Ti1 tau(  13) = (   0.0556596   2.9564334  12.6140783  )
        14           Ti1 tau(  14) = (   3.3658323   1.4657407  12.4949608  )
        15           O1  tau(  15) = (   6.5664030   0.0209144  14.6477191  )
        16           O1  tau(  16) = (   3.3113265   5.9542485  13.9698242  )
        17           O1  tau(  17) = (   4.5454210   1.5146250  16.1225105  )
        18           O1  tau(  18) = (   2.0305911   1.5113983  16.0894517  )
        19           Ti1 tau(  19) = (   3.2587399   2.9544808  15.6767922  )
        20           Ti1 tau(  20) = (   6.5654577   1.5458692  15.9193722  )
        21           O1  tau(  21) = (   3.2904802   0.0005063   4.7018136  )
        22           O1  tau(  22) = (   0.0418464   5.8849155  17.2380659  )
        23           O1  tau(  23) = (   1.3043587   1.4918075   6.0039043  )
        24           O1  tau(  24) = (   5.2767064   1.4903225   6.0039473  )
        25           Ti1 tau(  25) = (   0.0000382   5.9609847   6.0000000  )
        26           Ti1 tau(  26) = (   3.2902200   4.4714249   6.0002472  )
        27           O1  tau(  27) = (   0.0002396   2.9813036   7.9858123  )
        28           O1  tau(  28) = (   3.2902150   2.9813002   7.3038282  )
        29           O1  tau(  29) = (   4.5938453   4.4726049   9.2879030  )
        30           O1  tau(  30) = (   1.9864658   4.4711199   9.2879459  )
        31           Ti1 tau(  31) = (   3.2891106   5.8743827   9.1763621  )
        32           Ti1 tau(  32) = (   0.0006254   4.4649316   9.2693709  )
        33           O1  tau(  33) = (   3.2978316   2.9705197  11.3397625  )
        34           O1  tau(  34) = (   0.0092240   2.9805883  10.6323155  )
        35           O1  tau(  35) = (   1.2936985   4.4655287  12.6460247  )
        36           O1  tau(  36) = (   5.2856521   4.4646452  12.6308247  )
        37           Ti1 tau(  37) = (   0.0515089   5.9379728  12.5308627  )
        38           Ti1 tau(  38) = (   3.3654372   4.4547101  12.4935900  )
        39           O1  tau(  39) = (   6.5748852   2.9443291  14.6951209  )
        40           O1  tau(  40) = (   3.2957406   2.9584624  13.8938737  )
        41           O1  tau(  41) = (   4.5486474   4.4154460  16.0876977  )
        42           O1  tau(  42) = (   2.0388008   4.4257786  16.0448984  )
        43           Ti1 tau(  43) = (   3.3137362   5.9209902  15.7922403  )
        44           Ti1 tau(  44) = (   0.0032603   4.6697478  15.9558853  )
        45           O1  tau(  45) = (   3.2900926   2.9813045   4.7018136  )
        46           O1  tau(  46) = (   1.3039711   4.4726057   6.0039043  )
        47           O1  tau(  47) = (   5.2763189   4.4711207   6.0039473  )
        48           N1  tau(  48) = (   5.6270067   3.1633449  18.6203826  )
        49           C1  tau(  49) = (   0.0237924   2.7940403  17.7774691  )
        50           H1  tau(  50) = (   0.9584034   2.6460975  18.3247808  )
        51           H1  tau(  51) = (   4.7713523   3.5531088  18.2436842  )
        52           H1  tau(  52) = (   5.8168525   3.4166350  19.5804594  )
        53           O1  tau(  53) = (   3.2115967   5.9081562  18.2546127  )
        54           H1  tau(  54) = (   3.8106726   0.6855978  18.4519937  )
        55           H1  tau(  55) = (   2.3006756   0.2828797  18.3168221  )

     number of k points=    10  Fermi-Dirac smearing, width (Ry)=  0.0073
                       cart. coord. in units 2pi/alat
        k(    1) = (   0.0000000   0.0000000   0.0000000), wk =   0.1250000
        k(    2) = (   0.0000000   0.0419351   0.0000000), wk =   0.2500000
        k(    3) = (   0.0000000  -0.0838702   0.0000000), wk =   0.1250000
        k(    4) = (   0.0379955   0.0000049   0.0000000), wk =   0.2500000
        k(    5) = (   0.0379955   0.0419400   0.0000000), wk =   0.2500000
        k(    6) = (   0.0379955  -0.0838652   0.0000000), wk =   0.2500000
        k(    7) = (   0.0379955  -0.0419301   0.0000000), wk =   0.2500000
        k(    8) = (  -0.0759910  -0.0000099   0.0000000), wk =   0.1250000
        k(    9) = (  -0.0759910   0.0419252   0.0000000), wk =   0.2500000
        k(   10) = (  -0.0759910  -0.0838800   0.0000000), wk =   0.1250000

     Initial potential from superposition of free atoms

     starting charge  381.99915, renormalised to  398.00000

     negative rho (up, down):  1.708E-02 0.000E+00

     %%%%%%%%%%%%%%%%%%%%%%%%%%%%%%%%%%%%%%%%%%%%%%%%%%%%%%%%%%%%%%%%%%%%%%%%
     %                                                                      %
     % You are using vdW-DF, which was implemented by the Thonhauser group. %
     % Please cite the following two papers that made this development      %
     % possible and the two reviews that describe the various versions:     %
     %                                                                      %
     %   T. Thonhauser et al., PRL 115, 136402 (2015).                      %
     %   T. Thonhauser et al., PRB 76, 125112 (2007).                       %
     %   K. Berland et al., Rep. Prog. Phys. 78, 066501 (2015).             %
     %   D.C. Langreth et al., J. Phys.: Condens. Matter 21, 084203 (2009). %
     %                                                                      %
     %                                                                      %
     % If you are calculating the stress with vdW-DF, please also cite:     %
     %                                                                      %
     %   R. Sabatini et al., J. Phys.: Condens. Matter 24, 424209 (2012).   %
     %                                                                      %
     %%%%%%%%%%%%%%%%%%%%%%%%%%%%%%%%%%%%%%%%%%%%%%%%%%%%%%%%%%%%%%%%%%%%%%%%

     Adding external electric field

     Computed dipole along edir(3) :
        Dipole              -10.1344 Ry au,        -25.7591 Debye
        Dipole field         -0.0191 Ry au,

        Potential amp.        1.7729 Ry
        Total length         46.3494 bohr

     Starting wfcs are  301 atomic wfcs
  @ DRIVER MODE: Message from server: STATUS
  @ DRIVER MODE: Message from server: POSDATA
  @ DRIVER MODE: Reading and sharing cell
  @ DRIVER MODE: Reading and sharing positions
  @ DRIVER MODE: Received positions

     Self-consistent Calculation

     iteration #  1     ecut=    29.40 Ry     beta= 0.05
     Davidson diagonalization with overlap
     c_bands:  2 eigenvalues not converged
     c_bands:  1 eigenvalues not converged
     c_bands:  1 eigenvalues not converged
     c_bands:  3 eigenvalues not converged
     c_bands:  1 eigenvalues not converged
     c_bands:  3 eigenvalues not converged
     c_bands:  3 eigenvalues not converged
     c_bands:  3 eigenvalues not converged
     c_bands:  1 eigenvalues not converged
     ethr =  1.00E-05,  avg # of iterations = 19.8

[...]

     total energy              =   -2497.70894165 Ry
     estimated scf accuracy    <    5094.07782570 Ry

     iteration #  2     ecut=    29.40 Ry     beta= 0.05
     Davidson diagonalization with overlap
     ethr =  1.00E-02,  avg # of iterations = 25.4

[...]

     iteration # 53     ecut=    29.40 Ry     beta= 0.05
     Davidson diagonalization with overlap
     c_bands:  1 eigenvalues not converged
     ethr =  3.01E-09,  avg # of iterations = 12.6

[...]

     total energy              =   -2953.88251361 Ry
     estimated scf accuracy    <       0.00000013 Ry

     iteration # 64     ecut=    29.40 Ry     beta= 0.05
     Davidson diagonalization with overlap
     ethr =  3.26E-11,  avg # of iterations =  5.9

     negative rho (up, down):  1.667E-02 0.000E+00

     Adding external electric field

     Computed dipole along edir(3) :
        Dipole                1.2930 Ry au,          3.2865 Debye
        Dipole field          0.0024 Ry au,

        Potential amp.       -0.2262 Ry
        Total length         46.3494 bohr

     End of self-consistent calculation

          k = 0.0000 0.0000 0.0000 ( 18029 PWs)   bands (ev):

   -55.4442 -55.4378 -55.4183 -55.4102 -55.4017 -55.3006 -55.2587 -55.2522
   -55.2370 -55.2349 -55.2176 -55.2015 -54.8610 -54.7690 -54.4305 -54.3965
   -31.9938 -31.9281 -31.8195 -31.7956 -31.7550 -31.7510 -31.7356 -31.7255
   -31.6870 -31.6855 -31.6556 -31.6395 -31.6287 -31.6179 -31.5972 -31.5845
   -31.5752 -31.5499 -31.5459 -31.5106 -31.5021 -31.4992 -31.4651 -31.4536
   -31.4472 -31.4449 -31.4367 -31.4359 -31.4359 -31.4100 -31.4097 -31.4042
   -31.3875 -31.3834 -31.3591 -31.3519 -31.3445 -31.1930 -31.0786 -31.0267
   -30.9671 -30.9309 -30.8380 -30.7487 -30.7263 -30.6548 -30.5682 -30.4571
   -19.0618 -16.4592 -16.2019 -15.9406 -15.7572 -15.6277 -15.6003 -15.4264
   -15.2914 -15.1894 -15.1271 -15.0709 -15.0509 -15.0026 -15.0006 -14.9879
   -14.9850 -14.9540 -14.9058 -14.8850 -14.8651 -14.8239 -14.8147 -14.7979
   -14.7489 -14.7106 -14.6153 -14.5833 -14.5572 -14.5169 -14.0335 -12.9332
   -12.8166  -9.0197  -6.8783  -6.6916  -4.2599  -3.5724  -3.4105  -3.3560
    -3.3446  -3.3218  -3.2266  -3.0933  -2.9533  -2.7227  -2.6605  -2.6244
    -2.5923  -2.5550  -2.4387  -2.3876  -2.3761  -2.3106  -2.2631  -2.2551
    -2.2422  -2.2209  -2.2055  -2.1448  -2.1317  -2.0304  -1.9892  -1.9197
    -1.8590  -1.8269  -1.7765  -1.7613  -1.7181  -1.7147  -1.6996  -1.6808
    -1.6670  -1.6515  -1.5929  -1.5317  -1.4539  -1.2688  -1.2366  -1.1201
    -1.0909  -1.0597  -1.0163  -0.9322  -0.9053  -0.8831  -0.8435  -0.7527
    -0.7271  -0.6802  -0.5914  -0.5016  -0.4549  -0.4302  -0.3505  -0.3156
    -0.2872  -0.2205  -0.2132  -0.2015  -0.1256  -0.0706   0.0361   0.0727
     0.1069   0.1225   0.1369   0.2218   0.2605   0.3176   0.3617   0.4147
     0.4509   0.4656   0.5017   0.5229   0.5375   0.5647   0.5767   0.7592
     0.8006   0.8297   0.8600   0.9454   1.0469   1.1130   1.1973   1.2665
     1.5141   1.5915   1.6443   1.7820   2.1637   2.2100   3.6268   3.7553
     3.7736   3.7918   3.8231   3.8855   3.9488   4.1379   4.1604   4.1815
     4.2099

[...]

          k = 0.0380-0.0419 0.0000 ( 17876 PWs)   bands (ev):

[...]

          k =-0.0760-0.0000 0.0000 ( 17886 PWs)   bands (ev):

[...]

          k =-0.0760-0.0839 0.0000 ( 17948 PWs)   bands (ev):

   -55.4277 -55.4266 -55.4214 -55.4183 -55.4162 -55.2917 -55.2675 -55.2385
   -55.2370 -55.2320 -55.2200 -55.2170 -54.8578 -54.7721 -54.4135 -54.4134
   -31.8033 -31.7927 -31.7437 -31.7430 -31.7282 -31.7215 -31.7204 -31.7040
   -31.6889 -31.6479 -31.6404 -31.6352 -31.6251 -31.6070 -31.5711 -31.5608
   -31.5563 -31.5562 -31.5538 -31.5478 -31.5473 -31.5466 -31.5434 -31.5043
   -31.4833 -31.4776 -31.4664 -31.4527 -31.4474 -31.4434 -31.4416 -31.4412
   -31.4345 -31.4312 -31.4121 -31.4068 -31.2539 -31.1948 -31.0719 -31.0447
   -31.0279 -30.9672 -30.7391 -30.7389 -30.6508 -30.6506 -30.6116 -30.6115
   -19.0608 -16.4489 -15.6917 -15.5624 -15.4338 -15.3761 -15.3706 -15.3121
   -15.3084 -15.1950 -15.1850 -15.1567 -15.1316 -15.1150 -15.0868 -15.0677
   -15.0055 -14.9848 -14.9813 -14.9512 -14.9220 -14.9091 -14.9046 -14.8896
   -14.8857 -14.8316 -14.7756 -14.7724 -14.6615 -14.5588 -14.1902 -12.9185
   -12.9182  -9.0293  -6.8630  -6.7100  -4.2273  -3.2257  -2.9758  -2.7949
    -2.6892  -2.6330  -2.5696  -2.5510  -2.3847  -2.3697  -2.3599  -2.3229
    -2.3067  -2.2852  -2.2748  -2.2700  -2.2439  -2.2320  -2.2138  -2.1819
    -2.1486  -2.1309  -2.1227  -2.1165  -2.1003  -2.0815  -2.0585  -2.0375
    -2.0332  -2.0063  -1.9661  -1.9423  -1.8831  -1.7489  -1.7106  -1.6700
    -1.6000  -1.5934  -1.5398  -1.5236  -1.4966  -1.4690  -1.4053  -1.3827
    -1.2344  -1.1698  -1.1535  -1.1376  -1.1233  -1.0015  -0.9609  -0.8920
    -0.8657  -0.7959  -0.7662  -0.7539  -0.7076  -0.6053  -0.5929  -0.5412
    -0.5298  -0.4324  -0.4098  -0.3987  -0.3640  -0.3196  -0.2513  -0.2100
    -0.1954  -0.1860  -0.1524  -0.1455  -0.1051   0.0150   0.0750   0.1365
     0.2076   0.3106   0.4222   0.4346   0.5836   0.6100   0.6241   0.7298
     0.8160   0.8466   0.8667   0.8940   0.8970   1.0208   1.0692   1.0789
     1.0805   1.2312   1.9537   1.9550   2.0295   2.0299   3.7349   3.9346
     3.9560   3.9980   4.0445   4.1761   4.1850   4.2193   4.2207   4.3044
     4.3365

     the Fermi energy is     3.6862 ev

!    total energy              =   -2953.88255817 Ry
     estimated scf accuracy    <       0.00000005 Ry
     smearing contrib. (-TS)   =      -0.03291370 Ry
     internal energy E=F+TS    =   -2953.84964447 Ry

     The total energy is F=E-TS. E is the sum of the following terms:
     one-electron contribution =  -24258.93755742 Ry
     hartree contribution      =   12223.00306658 Ry
     xc contribution           =    -488.84441584 Ry
     ewald contribution        =    9570.92610713 Ry
     electric field correction =       0.00315508 Ry

     convergence has been achieved in  64 iterations

     Forces acting on atoms (cartesian axes, Ry/au):

     atom    1 type  1   force =     0.00020867   -0.00020585    0.09613846
     atom    2 type  1   force =    -0.00011124   -0.00027791   -0.17607209
     atom    3 type  2   force =     0.00002708    0.00002086   -0.02488275
     atom    4 type  2   force =     0.00003352   -0.00160046    0.05415957
     atom    5 type  2   force =    -0.01178008   -0.00148731    0.00428031
     atom    6 type  2   force =     0.01354857   -0.00070954    0.00348555
     atom    7 type  1   force =    -0.00084104    0.00088237   -0.01026556
     atom    8 type  1   force =     0.00024863    0.01223273    0.02352164
     atom    9 type  2   force =    -0.00035510   -0.00008396   -0.00024748
     atom   10 type  2   force =    -0.00088247   -0.00044848   -0.01483739
     atom   11 type  2   force =     0.00041921    0.00008571    0.00018526
     atom   12 type  2   force =    -0.00039588   -0.00007227    0.00003485
     atom   13 type  1   force =    -0.00066735   -0.00007061   -0.00159732
     atom   14 type  1   force =     0.00058424    0.00018321    0.00032307
     atom   15 type  2   force =     0.00058588    0.00043328    0.00009707
     atom   16 type  2   force =    -0.00028440    0.00006231    0.00036173
     atom   17 type  2   force =    -0.00015083   -0.00023528   -0.00045462
     atom   18 type  2   force =     0.00008309   -0.00021650    0.00006878
     atom   19 type  1   force =     0.00091541    0.00011964    0.00056061
     atom   20 type  1   force =    -0.00050949   -0.00059528    0.00007676
     atom   21 type  2   force =     0.00006271    0.00004346    0.10333485
     atom   22 type  2   force =     0.00046742    0.00083869   -0.00025171
     atom   23 type  2   force =    -0.07130026   -0.00007571   -0.02764287
     atom   24 type  2   force =     0.07126016    0.00036374   -0.02767859
     atom   25 type  1   force =    -0.00006412   -0.00014195    0.09565050
     atom   26 type  1   force =    -0.00020157   -0.00031362   -0.17601466
     atom   27 type  2   force =     0.00012453   -0.00040348   -0.02389393
     atom   28 type  2   force =     0.00009756   -0.00126703    0.05362281
     atom   29 type  2   force =    -0.01201323    0.00044767    0.00381123
     atom   30 type  2   force =     0.01366025    0.00069288    0.00309219
     atom   31 type  1   force =    -0.00061245    0.00370189   -0.01330018
     atom   32 type  1   force =     0.00020327   -0.01325046    0.02338338
     atom   33 type  2   force =    -0.00007559   -0.00005452   -0.00030045
     atom   34 type  2   force =    -0.00008660    0.00021686   -0.01831012
     atom   35 type  2   force =     0.00034134   -0.00049160    0.00025546
     atom   36 type  2   force =    -0.00030741   -0.00016703    0.00011841
     atom   37 type  1   force =    -0.00084748   -0.00023404   -0.00010743
     atom   38 type  1   force =     0.00047510    0.00009483    0.00065735
     atom   39 type  2   force =    -0.00000065    0.00081513   -0.00000057
     atom   40 type  2   force =    -0.00023484   -0.00018397   -0.00060659
     atom   41 type  2   force =     0.00036593    0.00039932   -0.00000336
     atom   42 type  2   force =    -0.00081869    0.00023520    0.00010964
     atom   43 type  1   force =     0.00106150    0.00004978   -0.00026659
     atom   44 type  1   force =    -0.00044254   -0.00098766    0.00042893
     atom   45 type  2   force =     0.00005977    0.00003740    0.10329312
     atom   46 type  2   force =    -0.07128366   -0.00002396   -0.02761074
     atom   47 type  2   force =     0.07123473    0.00039972   -0.02763272
     atom   48 type  3   force =    -0.00020482    0.00103442   -0.00042218
     atom   49 type  4   force =    -0.00013474    0.00088570   -0.00045049
     atom   50 type  5   force =     0.00062834   -0.00002299    0.00097403
     atom   51 type  5   force =     0.00054130    0.00038054    0.00008675
     atom   52 type  5   force =    -0.00009503    0.00010996    0.00028902
     atom   53 type  2   force =    -0.00020181   -0.00193595   -0.00116052
     atom   54 type  5   force =    -0.00113585    0.00091802    0.00043683
     atom   55 type  5   force =    -0.00119901   -0.00012791    0.00117275

     Total force =     0.367586     Total SCF correction =     0.000477
  @ DRIVER MODE: Message from server: STATUS
  @ DRIVER MODE: Message from server: GETFORCE
  @ DRIVER MODE: Returning v,forces,stress,ensemble

     Writing output data file ./calc.save/
  @ DRIVER MODE: Message from server: EXIT
  @ DRIVE MODE: Exiting

     General routines

     Parallel routines

   This run was terminated on:   7: 3:59  16Sep2021

   JOB DONE.