     Program PWSCF v.6.7GPU starts on 15Jul2021 at 17:15:20

     R & G space division:  proc/nbgrp/npool/nimage =      16
     Reading input from /storage/home/hcoda1/3/ntian30/research/carbon/15Jul_vib/ads_slab/CH3N_a/out_0002/pw.inp
Warning: card &CELL ignored
Warning: card   CELL_DYNAMICS='IPI', ignored
Warning: card / ignored

     Current dimensions of program PWSCF are:
     Max number of different atomic species (ntypx) = 10
     Max number of k-points (npk) =  40000
     Max angular momentum in pseudopotentials (lmaxx) =  3
     Presently no symmetry can be used with electric field

     Message from routine cell_base_init:
     DEPRECATED: use true lattice parameter, not A to a.u. conversion factor

     IMPORTANT: XC functional enforced from input :
     Exchange-correlation= BEEF-VDW
                           (   1   4  43  14   2   0   0)
     Any further DFT definition will be discarded
     Please, verify this is what you really want

  @ DRIVER MODE: Connecting to
 qe_1139763_2351643.sched-torque.pace.gatech.edup0py8rqb_scratch
  using UNIX socket
  @ DRIVER MODE: Message from server: STATUS
  @ DRIVER MODE: Message from server: INIT
  @ DRIVER MODE: Receiving replica           0          -1
  @ DRIVER MODE: Receiving encoded integer          25
  @ DRIVER MODE:  SCF:  T  FORCE:  T  STRESS:  F  VC:  F  ENSEMBLE:  F
  @ DRIVER MODE:  SCF:  T  FORCE:  T  STRESS:  F  VC:  F  ENSEMBLE:  F

     Using Slab Decomposition

     bravais-lattice index     =            0
     lattice parameter (alat)  =       1.8897  a.u.
     unit-cell volume          =    6658.9804 (a.u.)^3
     number of atoms/cell      =           52
     number of atomic types    =            5
     number of electrons       =       390.00
     number of Kohn-Sham states=          205
     kinetic-energy cutoff     =      29.3995  Ry
     charge density cutoff     =     293.9946  Ry
     scf convergence threshold =      7.3E-08
     mixing beta               =       0.0500
     number of iterations used =            8  plain     mixing
     Exchange-correlation= BEEF-VDW
                           (   1   4  43  14   2   0   0)

     celldm(1)=   1.889726  celldm(2)=   0.000000  celldm(3)=   0.000000
     celldm(4)=   0.000000  celldm(5)=   0.000000  celldm(6)=   0.000000

     crystal axes: (cart. coord. in units of alat)
               a(1) = (   6.579727   0.000000   0.000000 )
               a(2) = (  -0.000775   5.961596   0.000000 )
               a(3) = (   0.000000   0.000000  25.155947 )

     reciprocal axes: (cart. coord. in units 2 pi/alat)
               b(1) = (  0.151982  0.000020  0.000000 )
               b(2) = (  0.000000  0.167740  0.000000 )
               b(3) = (  0.000000  0.000000  0.039752 )

     PseudoPot. # 1 for Ti read from file:
     /storage/coda1/p-amedford6/0/shared/rich_project_chbe-medford/medford-share/data/pseudos_module/espresso/nninc/pbe/van/Ti.UPF
     MD5 check sum: 8e4df49b7f0d34bbd5052bf3f5ea0213
     Pseudo is Ultrasoft, Zval = 12.0
     Generated by new atomic code, or converted to UPF format
     Using radial grid of  851 points,  6 beta functions with:
                l(1) =   0
                l(2) =   0
                l(3) =   1
                l(4) =   1
                l(5) =   2
                l(6) =   2
     Q(r) pseudized with  8 coefficients,  rinner =    1.000   1.000   1.000
                                                       1.000   1.000

     PseudoPot. # 2 for O  read from file:
     /storage/coda1/p-amedford6/0/shared/rich_project_chbe-medford/medford-share/data/pseudos_module/espresso/nninc/pbe/van/O.UPF
     MD5 check sum: 78c19812648e8988a0fe644b0f25305e
     Pseudo is Ultrasoft, Zval =  6.0
     Generated by new atomic code, or converted to UPF format
     Using radial grid of  737 points,  4 beta functions with:
                l(1) =   0
                l(2) =   0
                l(3) =   1
                l(4) =   1
     Q(r) pseudized with  8 coefficients,  rinner =    0.800   0.800   0.800

     PseudoPot. # 3 for N  read from file:
     /storage/coda1/p-amedford6/0/shared/rich_project_chbe-medford/medford-share/data/pseudos_module/espresso/nninc/pbe/van/N.UPF
     MD5 check sum: 90d10febe142ad51ac9d5be1deb811c4
     Pseudo is Ultrasoft, Zval =  5.0
     Generated by new atomic code, or converted to UPF format
     Using radial grid of  729 points,  4 beta functions with:
                l(1) =   0
                l(2) =   0
                l(3) =   1
                l(4) =   1
     Q(r) pseudized with  8 coefficients,  rinner =    0.800   0.800   0.800

     PseudoPot. # 4 for C  read from file:
     /storage/coda1/p-amedford6/0/shared/rich_project_chbe-medford/medford-share/data/pseudos_module/espresso/nninc/pbe/van/C.UPF
     MD5 check sum: 1a69bf6b8db32088f5b2163dbdb77a27
     Pseudo is Ultrasoft, Zval =  4.0
     Generated by new atomic code, or converted to UPF format
     Using radial grid of  721 points,  4 beta functions with:
                l(1) =   0
                l(2) =   0
                l(3) =   1
                l(4) =   1
     Q(r) pseudized with  8 coefficients,  rinner =    0.800   0.800   0.800

     PseudoPot. # 5 for H  read from file:
     /storage/coda1/p-amedford6/0/shared/rich_project_chbe-medford/medford-share/data/pseudos_module/espresso/nninc/pbe/van/H.UPF
     MD5 check sum: b5ee9d7bfd3a09ee7748110bda690ff7
     Pseudo is Ultrasoft, Zval =  1.0
     Generated by new atomic code, or converted to UPF format
     Using radial grid of  615 points,  1 beta functions with:
                l(1) =   0
     Q(r) pseudized with  8 coefficients,  rinner =    0.800

     atomic species   valence    mass     pseudopotential
        Ti1           12.00    47.86700     Ti( 1.00)
        O1             6.00    15.99900     O ( 1.00)
        N1             5.00    14.00700     N ( 1.00)
        C1             4.00    12.01100     C ( 1.00)
        H1             1.00     1.00800     H ( 1.00)

     Starting magnetic structure
     atomic species   magnetization
        Ti1          0.000
        O1           0.000
        N1           0.000
        C1           0.025
        H1           0.000

     No symmetry found

   Cartesian axes

     site n.     atom                  positions (alat units)
         1           Ti1 tau(   1) = (   0.0004258   2.9801865   6.0000000  )
         2           Ti1 tau(   2) = (   3.2906075   1.4906267   6.0002472  )
         3           O1  tau(   3) = (   0.0006271   0.0005054   7.9858123  )
         4           O1  tau(   4) = (   3.2906025   0.0005020   7.3038282  )
         5           O1  tau(   5) = (   4.5942328   1.4918067   9.2879030  )
         6           O1  tau(   6) = (   1.9868534   1.4903216   9.2879459  )
         7           Ti1 tau(   7) = (   3.2907910   2.8959150   9.1758416  )
         8           Ti1 tau(   8) = (   0.0015273   1.4827037   9.2680791  )
         9           O1  tau(   9) = (   3.2848820   0.0184509  11.2968037  )
        10           O1  tau(  10) = (   0.0116148   5.9584955  10.6183126  )
        11           O1  tau(  11) = (   1.3164307   1.5202202  12.6152053  )
        12           O1  tau(  12) = (   5.2938533   1.5248534  12.6363518  )
        13           Ti1 tau(  13) = (   6.4693392   3.0155455  12.7604093  )
        14           Ti1 tau(  14) = (   3.1621140   1.5165027  12.4659144  )
        15           O1  tau(  15) = (   0.0250032   0.0426882  14.5925537  )
        16           O1  tau(  16) = (   3.2896737   0.0171256  13.8799622  )
        17           O1  tau(  17) = (   4.5365032   1.4993634  16.0438468  )
        18           O1  tau(  18) = (   2.0814567   1.5015292  16.0591106  )
        19           Ti1 tau(  19) = (   3.3082904   2.9956922  15.6854367  )
        20           Ti1 tau(  20) = (   0.0032501   1.4479889  16.1249605  )
        21           O1  tau(  21) = (   3.2904802   0.0005063   4.7018136  )
        22           O1  tau(  22) = (   0.0161699   0.0004382  17.1970091  )
        23           O1  tau(  23) = (   1.3043587   1.4918075   6.0039043  )
        24           O1  tau(  24) = (   5.2767064   1.4903225   6.0039473  )
        25           Ti1 tau(  25) = (   0.0000382   5.9609847   6.0000000  )
        26           Ti1 tau(  26) = (   3.2902200   4.4714249   6.0002472  )
        27           O1  tau(  27) = (   0.0002396   2.9813036   7.9858123  )
        28           O1  tau(  28) = (   3.2902150   2.9813002   7.3038282  )
        29           O1  tau(  29) = (   4.5938453   4.4726049   9.2879030  )
        30           O1  tau(  30) = (   1.9864658   4.4711199   9.2879459  )
        31           Ti1 tau(  31) = (   3.2891106   5.8743827   9.1763621  )
        32           Ti1 tau(  32) = (   0.0006254   4.4649316   9.2693709  )
        33           O1  tau(  33) = (   3.2855107   2.9994495  11.2959752  )
        34           O1  tau(  34) = (   0.0092240   2.9805883  10.6323155  )
        35           O1  tau(  35) = (   1.3179678   4.4860142  12.6155112  )
        36           O1  tau(  36) = (   5.2920789   4.4901865  12.6316709  )
        37           Ti1 tau(  37) = (   6.5050993   0.0355131  12.7707974  )
        38           Ti1 tau(  38) = (   3.1594757   4.4963870  12.4672366  )
        39           O1  tau(  39) = (   6.5726527   3.0227966  14.6583025  )
        40           O1  tau(  40) = (   3.2932321   2.9979836  13.8792693  )
        41           O1  tau(  41) = (   4.5322310   4.4839795  16.0418810  )
        42           O1  tau(  42) = (   2.0800586   4.4799519  16.0553745  )
        43           Ti1 tau(  43) = (   3.2910362   0.0127607  15.6894215  )
        44           Ti1 tau(  44) = (   0.0049462   4.4269923  16.0943486  )
        45           O1  tau(  45) = (   3.2900926   2.9813045   4.7018136  )
        46           O1  tau(  46) = (   1.3039711   4.4726057   6.0039043  )
        47           O1  tau(  47) = (   5.2763189   4.4711207   6.0039473  )
        48           N1  tau(  48) = (   0.0696666   2.9942962  17.3216073  )
        49           C1  tau(  49) = (   0.3918855   2.9774893  18.7266025  )
        50           H1  tau(  50) = (   0.0017595   3.8652167  19.2343835  )
        51           H1  tau(  51) = (   0.0043965   2.0815098  19.2200810  )
        52           H1  tau(  52) = (   1.4843755   2.9788857  18.8581259  )

     number of k points=    10  Fermi-Dirac smearing, width (Ry)=  0.0073
                       cart. coord. in units 2pi/alat
        k(    1) = (   0.0000000   0.0000000   0.0000000), wk =   0.0625000
        k(    2) = (   0.0000000   0.0419351   0.0000000), wk =   0.1250000
        k(    3) = (   0.0000000  -0.0838702   0.0000000), wk =   0.0625000
        k(    4) = (   0.0379955   0.0000049   0.0000000), wk =   0.1250000
        k(    5) = (   0.0379955   0.0419400   0.0000000), wk =   0.1250000
        k(    6) = (   0.0379955  -0.0838652   0.0000000), wk =   0.1250000
        k(    7) = (   0.0379955  -0.0419301   0.0000000), wk =   0.1250000
        k(    8) = (  -0.0759910  -0.0000099   0.0000000), wk =   0.0625000
        k(    9) = (  -0.0759910   0.0419252   0.0000000), wk =   0.1250000
        k(   10) = (  -0.0759910  -0.0838800   0.0000000), wk =   0.0625000

     Initial potential from superposition of free atoms

     starting charge  373.99917, renormalised to  390.00000

     negative rho (up, down):  8.648E-03 8.655E-03

     %%%%%%%%%%%%%%%%%%%%%%%%%%%%%%%%%%%%%%%%%%%%%%%%%%%%%%%%%%%%%%%%%%%%%%%%
     %                                                                      %
     % You are using vdW-DF, which was implemented by the Thonhauser group. %
     % Please cite the following two papers that made this development      %
     % possible and the two reviews that describe the various versions:     %
     %                                                                      %
     %   T. Thonhauser et al., PRL 115, 136402 (2015).                      %
     %   T. Thonhauser et al., PRB 76, 125112 (2007).                       %
     %   K. Berland et al., Rep. Prog. Phys. 78, 066501 (2015).             %
     %   D.C. Langreth et al., J. Phys.: Condens. Matter 21, 084203 (2009). %
     %                                                                      %
     %                                                                      %
     % If you are calculating the stress with vdW-DF, please also cite:     %
     %                                                                      %
     %   R. Sabatini et al., J. Phys.: Condens. Matter 24, 424209 (2012).   %
     %                                                                      %
     %%%%%%%%%%%%%%%%%%%%%%%%%%%%%%%%%%%%%%%%%%%%%%%%%%%%%%%%%%%%%%%%%%%%%%%%

     Adding external electric field

     Computed dipole along edir(3) :
        Dipole               -4.6263 Ry au,        -11.7589 Debye
        Dipole field         -0.0087 Ry au,

        Potential amp.        0.8093 Ry
        Total length         46.3494 bohr

[...]

     Starting wfcs are  295 atomic wfcs
  @ DRIVER MODE: Message from server: STATUS
  @ DRIVER MODE: Message from server: POSDATA
  @ DRIVER MODE: Reading and sharing cell
  @ DRIVER MODE: Reading and sharing positions
  @ DRIVER MODE: Received positions

     Self-consistent Calculation

     iteration #  1     ecut=    29.40 Ry     beta= 0.05
     Davidson diagonalization with overlap
     c_bands:  3 eigenvalues not converged
     c_bands:  3 eigenvalues not converged
     c_bands:  2 eigenvalues not converged
     c_bands:  4 eigenvalues not converged
     c_bands:  4 eigenvalues not converged
     c_bands:  2 eigenvalues not converged
     c_bands:  2 eigenvalues not converged
     c_bands:  2 eigenvalues not converged
     c_bands:  4 eigenvalues not converged
     c_bands:  3 eigenvalues not converged
     c_bands:  2 eigenvalues not converged
     c_bands:  4 eigenvalues not converged
     c_bands:  4 eigenvalues not converged
     c_bands:  2 eigenvalues not converged
     c_bands:  3 eigenvalues not converged
     c_bands:  3 eigenvalues not converged
     ethr =  1.00E-05,  avg # of iterations = 19.7

[...]

     total energy              =   -2877.32670006 Ry
     estimated scf accuracy    <     482.17025826 Ry

     total magnetization       =     0.13 Bohr mag/cell
     absolute magnetization    =     0.16 Bohr mag/cell

     iteration #  2     ecut=    29.40 Ry     beta= 0.05
     Davidson diagonalization with overlap
     ethr =  1.00E-02,  avg # of iterations = 13.7

[...]

     iteration # 34     ecut=    29.40 Ry     beta= 0.05
     Davidson diagonalization with overlap
     c_bands:  2 eigenvalues not converged
     c_bands:  2 eigenvalues not converged
     ethr =  1.98E-07,  avg # of iterations = 11.2

[...]

     total energy              =   -2919.13331206 Ry
     estimated scf accuracy    <       0.00000010 Ry

[...]

     iteration # 54     ecut=    29.40 Ry     beta= 0.05
     Davidson diagonalization with overlap
     ethr =  2.57E-11,  avg # of iterations =  5.0

     negative rho (up, down):  8.888E-03 8.888E-03

[...]

     Adding external electric field

     Computed dipole along edir(3) :
        Dipole                0.2529 Ry au,          0.6428 Debye
        Dipole field          0.0005 Ry au,

        Potential amp.       -0.0442 Ry
        Total length         46.3494 bohr

     Magnetic moment per site  (integrated on atomic sphere of radius R)
     atom   1 (R=0.743)  charge=  8.0712  magn= -0.0001
     atom   2 (R=0.743)  charge=  8.0672  magn= -0.0001
     atom   3 (R=0.743)  charge=  5.0508  magn= -0.0000
     atom   4 (R=0.743)  charge=  5.0897  magn=  0.0000
     atom   5 (R=0.743)  charge=  5.0527  magn= -0.0000
     atom   6 (R=0.743)  charge=  5.0540  magn= -0.0000
     atom   7 (R=0.743)  charge=  8.0606  magn= -0.0000
     atom   8 (R=0.743)  charge=  8.0479  magn=  0.0000
     atom   9 (R=0.743)  charge=  5.0677  magn=  0.0000
     atom  10 (R=0.743)  charge=  4.9974  magn= -0.0000
     atom  11 (R=0.743)  charge=  5.0556  magn=  0.0000
     atom  12 (R=0.743)  charge=  5.0584  magn=  0.0000
     atom  13 (R=0.743)  charge=  8.0594  magn= -0.0000
     atom  14 (R=0.743)  charge=  8.0663  magn= -0.0000
     atom  15 (R=0.743)  charge=  5.0445  magn= -0.0000
     atom  16 (R=0.743)  charge=  5.0715  magn= -0.0000
     atom  17 (R=0.743)  charge=  5.0433  magn= -0.0000
     atom  18 (R=0.743)  charge=  5.0419  magn= -0.0000
     atom  19 (R=0.743)  charge=  8.0874  magn=  0.0000
     atom  20 (R=0.743)  charge=  8.0865  magn=  0.0000
     atom  21 (R=0.743)  charge=  4.9345  magn=  0.0002
     atom  22 (R=0.743)  charge=  5.0263  magn= -0.0000
     atom  23 (R=0.743)  charge=  5.0426  magn=  0.0000
     atom  24 (R=0.743)  charge=  5.0426  magn=  0.0000
     atom  25 (R=0.743)  charge=  8.0712  magn= -0.0001
     atom  26 (R=0.743)  charge=  8.0673  magn= -0.0001
     atom  27 (R=0.743)  charge=  5.0507  magn=  0.0000
     atom  28 (R=0.743)  charge=  5.0899  magn=  0.0000
     atom  29 (R=0.743)  charge=  5.0534  magn= -0.0000
     atom  30 (R=0.743)  charge=  5.0547  magn= -0.0000
     atom  31 (R=0.743)  charge=  8.0608  magn= -0.0000
     atom  32 (R=0.743)  charge=  8.0482  magn=  0.0000
     atom  33 (R=0.743)  charge=  5.0679  magn=  0.0000
     atom  34 (R=0.743)  charge=  4.9964  magn= -0.0000
     atom  35 (R=0.743)  charge=  5.0558  magn=  0.0000
     atom  36 (R=0.743)  charge=  5.0580  magn=  0.0000
     atom  37 (R=0.743)  charge=  8.0669  magn=  0.0000
     atom  38 (R=0.743)  charge=  8.0667  magn= -0.0000
     atom  39 (R=0.743)  charge=  5.0387  magn= -0.0000
     atom  40 (R=0.743)  charge=  5.0730  magn= -0.0000
     atom  41 (R=0.743)  charge=  5.0440  magn= -0.0000
     atom  42 (R=0.743)  charge=  5.0429  magn= -0.0000
     atom  43 (R=0.743)  charge=  8.0879  magn=  0.0000
     atom  44 (R=0.743)  charge=  8.0856  magn=  0.0000
     atom  45 (R=0.743)  charge=  4.9345  magn=  0.0001
     atom  46 (R=0.743)  charge=  5.0425  magn=  0.0000
     atom  47 (R=0.743)  charge=  5.0426  magn=  0.0000
     atom  48 (R=0.595)  charge=  2.7515  magn= -0.0001
     atom  49 (R=0.451)  charge=  0.8553  magn=  0.0000
     atom  50 (R=0.451)  charge=  0.5106  magn= -0.0000
     atom  51 (R=0.451)  charge=  0.5113  magn= -0.0000
     atom  52 (R=0.451)  charge=  0.5057  magn= -0.0000

     End of self-consistent calculation

 ------ SPIN UP ------------

          k = 0.0000 0.0000 0.0000 ( 18029 PWs)   bands (ev):

   -56.8956 -56.8620 -56.0099 -56.0005 -55.9749 -55.9680 -55.8614 -55.8256
   -55.6444 -55.6091 -55.5580 -55.5386 -55.5241 -55.4410 -54.9969 -54.9439
   -33.3231 -33.1696 -33.1415 -33.0717 -32.9807 -32.9491 -32.4832 -32.4740
   -32.4041 -32.2957 -32.2502 -32.2234 -32.2081 -32.1843 -32.1514 -32.1482
   -32.1420 -32.1387 -32.1145 -32.1084 -32.1001 -32.0697 -32.0436 -32.0287
   -32.0151 -31.9975 -31.9893 -31.9658 -31.9500 -31.8964 -31.8759 -31.8723
   -31.7832 -31.7822 -31.7687 -31.7140 -31.7104 -31.6852 -31.6687 -31.6472
   -31.6228 -31.5743 -31.5195 -31.2398 -31.2210 -31.1929 -31.1653 -31.0469
   -17.0579 -16.6195 -16.3889 -16.2570 -16.1865 -16.1351 -16.0879 -15.9635
   -15.8908 -15.8868 -15.8489 -15.8119 -15.7432 -15.6031 -15.5057 -15.4473
   -15.4043 -15.2848 -15.2261 -15.1916 -15.1830 -15.1536 -15.1328 -14.9346
   -14.9122 -14.8153 -14.7997 -14.6751 -14.4501 -14.0568 -13.9468 -13.1091
    -7.8033  -4.6241  -4.1155  -3.8734  -3.7904  -3.6807  -3.6719  -3.5927
    -3.4753  -3.4252  -3.3793  -3.2636  -3.2606  -3.1142  -3.1057  -3.0703
    -3.0648  -3.0275  -2.9959  -2.9501  -2.9079  -2.8949  -2.8881  -2.7380
    -2.6360  -2.5678  -2.5440  -2.5274  -2.4987  -2.4069  -2.4024  -2.3862
    -2.3826  -2.2895  -2.1369  -2.1297  -2.0955  -2.0571  -2.0553  -2.0122
    -2.0021  -1.8466  -1.8007  -1.6851  -1.6721  -1.6376  -1.5703  -1.5664
    -1.4526  -1.3960  -1.3515  -1.3042  -1.1966  -1.1540  -1.1247  -1.0370
    -0.9743  -0.9379  -0.9202  -0.8998  -0.7934  -0.7833  -0.7685  -0.6780
    -0.6732  -0.6211  -0.5313  -0.5097  -0.5069  -0.4163  -0.4086  -0.3110
    -0.2757  -0.2238  -0.1938  -0.1144  -0.0832   0.0216   0.0601   0.0756
     0.2056   0.2200   0.2787   0.3448   0.4026   0.4462   0.4635   0.4967
     0.5066   0.5977   0.7072   0.7093   0.8191   0.8573   1.0162   1.0551
     1.3505   1.3600   2.0286   2.3797   2.5403   2.8384   3.0323   3.1449
     3.3560   3.3702   3.3758   3.5540   3.6028

[...]

          k =-0.0760-0.0000 0.0000 ( 17886 PWs)   bands (ev):

[...]

 ------ SPIN DOWN ----------

[...]

          k = 0.0380-0.0419 0.0000 ( 17876 PWs)   bands (ev):

[...]

          k =-0.0760-0.0839 0.0000 ( 17948 PWs)   bands (ev):

   -56.8791 -56.8787 -55.9937 -55.9894 -55.9851 -55.9847 -55.8465 -55.8405
   -55.6293 -55.6239 -55.5414 -55.5412 -55.5354 -55.4441 -54.9900 -54.9504
   -33.1557 -33.1554 -33.1401 -33.1398 -33.0250 -33.0247 -32.3129 -32.3104
   -32.2979 -32.2926 -32.2404 -32.2389 -32.1963 -32.1959 -32.1949 -32.1921
   -32.1834 -32.1809 -32.1798 -32.1779 -32.0982 -32.0931 -32.0470 -32.0432
   -31.9809 -31.9730 -31.9116 -31.9057 -31.8856 -31.8855 -31.8663 -31.8280
   -31.8266 -31.7929 -31.7666 -31.7665 -31.7601 -31.7274 -31.7274 -31.7088
   -31.6857 -31.6493 -31.3850 -31.3040 -31.2177 -31.1862 -31.1712 -31.1306
   -16.4060 -16.4040 -16.3722 -16.3719 -16.1012 -16.0976 -16.0495 -16.0473
   -15.8759 -15.8680 -15.6628 -15.6537 -15.6476 -15.6439 -15.5163 -15.5092
   -15.4465 -15.4337 -15.3456 -15.3391 -15.2776 -15.2712 -15.2352 -15.2139
   -14.8964 -14.8903 -14.7674 -14.7547 -14.6058 -14.0497 -14.0497 -13.1258
    -7.7939  -3.5051  -3.5043  -3.4382  -3.4372  -3.3136  -3.3068  -3.2365
    -3.2358  -3.1308  -3.1270  -3.0791  -3.0026  -2.9893  -2.9860  -2.9762
    -2.9710  -2.8368  -2.8315  -2.8186  -2.8033  -2.7511  -2.7485  -2.7376
    -2.6565  -2.6401  -2.6089  -2.5648  -2.4645  -2.4479  -2.4327  -2.4050
    -2.3491  -2.3343  -2.3208  -2.2754  -2.2574  -2.1563  -2.1070  -2.0631
    -1.9417  -1.9390  -1.9305  -1.9135  -1.7649  -1.7276  -1.6969  -1.6890
    -1.6816  -1.6331  -1.5391  -1.5311  -1.3971  -1.3923  -1.3217  -1.2378
    -1.2187  -1.1909  -1.0582  -1.0109  -0.9781  -0.9719  -0.9528  -0.9239
    -0.8958  -0.8687  -0.7238  -0.7045  -0.6797  -0.6424  -0.6297  -0.5776
    -0.5274  -0.4462  -0.3658  -0.3649  -0.2857  -0.2419  -0.1775  -0.0943
    -0.0824  -0.0763   0.2037   0.2818   0.3733   0.4575   0.5198   0.5842
     0.6076   0.6725   0.7047   0.8444   0.8475   0.8646   0.8648   0.9303
     0.9351   1.3306   1.9227   2.9532   2.9535   3.0208   3.0212   3.3450
     3.3505   3.4599   3.4693   3.5836   3.5856

     the Fermi energy is     2.2150 ev

!    total energy              =   -2919.13338435 Ry
     estimated scf accuracy    <       0.00000004 Ry
     smearing contrib. (-TS)   =      -0.00467974 Ry
     internal energy E=F+TS    =   -2919.12870461 Ry

     The total energy is F=E-TS. E is the sum of the following terms:
     one-electron contribution =  -24579.17415593 Ry
     hartree contribution      =   12373.78576124 Ry
     xc contribution           =    -479.90243170 Ry
     ewald contribution        =    9766.16200109 Ry
     electric field correction =       0.00012069 Ry

     total magnetization       =    -0.00 Bohr mag/cell
     absolute magnetization    =     0.00 Bohr mag/cell

     convergence has been achieved in  54 iterations

     Forces acting on atoms (cartesian axes, Ry/au):

     atom    1 type  1   force =    -0.00001952   -0.00046564    0.12457087
     atom    2 type  1   force =    -0.00012710   -0.00052749   -0.16056551
     atom    3 type  2   force =     0.00016083   -0.00014211   -0.06859024
     atom    4 type  2   force =    -0.00004389   -0.00017811    0.02748822
     atom    5 type  2   force =    -0.01664484    0.00229476   -0.00875256
     atom    6 type  2   force =     0.01810382    0.00296231   -0.00970075
     atom    7 type  1   force =     0.00056048   -0.00363798    0.02210987
     atom    8 type  1   force =    -0.00015337   -0.00291342    0.11202672
     atom    9 type  2   force =     0.00047906   -0.00002679   -0.00020868
     atom   10 type  2   force =    -0.00266388    0.00369167   -0.07355977
     atom   11 type  2   force =     0.00128929   -0.00058348   -0.00040570
     atom   12 type  2   force =    -0.00055566   -0.00105950   -0.00075517
     atom   13 type  1   force =     0.00032785   -0.00065814    0.00051693
     atom   14 type  1   force =    -0.00082660   -0.00055128   -0.00001452
     atom   15 type  2   force =    -0.00016607   -0.00011908    0.00020372
     atom   16 type  2   force =     0.00030491    0.00012194   -0.00050723
     atom   17 type  2   force =     0.00060191    0.00002030    0.00014202
     atom   18 type  2   force =     0.00005541   -0.00061719   -0.00075921
     atom   19 type  1   force =     0.00033470   -0.00035729   -0.00017904
     atom   20 type  1   force =     0.00022542   -0.00015832   -0.00017941
     atom   21 type  2   force =     0.00005557   -0.00006477    0.09973704
     atom   22 type  2   force =    -0.00009336   -0.00033027    0.00058447
     atom   23 type  2   force =    -0.07925267   -0.00009166   -0.03247662
     atom   24 type  2   force =     0.07912668    0.00035815   -0.03250052
     atom   25 type  1   force =     0.00000737   -0.00049993    0.12404851
     atom   26 type  1   force =    -0.00015158   -0.00044564   -0.16063988
     atom   27 type  2   force =     0.00029535   -0.00031538   -0.06760690
     atom   28 type  2   force =    -0.00002329   -0.00001838    0.02725281
     atom   29 type  2   force =    -0.01710618    0.00187415   -0.00886064
     atom   30 type  2   force =     0.01844410    0.00226182   -0.00975440
     atom   31 type  1   force =     0.00058169   -0.00092623    0.02166001
     atom   32 type  1   force =    -0.00011581    0.00053066    0.11247885
     atom   33 type  2   force =     0.00026381   -0.00064072   -0.00039719
     atom   34 type  2   force =    -0.00273574    0.00315780   -0.07272599
     atom   35 type  2   force =    -0.00111363    0.00023167    0.00018978
     atom   36 type  2   force =     0.00085162    0.00009220    0.00030825
     atom   37 type  1   force =    -0.00007616   -0.00003606   -0.00031767
     atom   38 type  1   force =     0.00087988   -0.00026484   -0.00020144
     atom   39 type  2   force =    -0.00014796   -0.00050608    0.00026408
     atom   40 type  2   force =     0.00008127   -0.00012400   -0.00008536
     atom   41 type  2   force =     0.00056206   -0.00068100    0.00022119
     atom   42 type  2   force =     0.00048896    0.00014614   -0.00089075
     atom   43 type  1   force =    -0.00015075    0.00067941    0.00066260
     atom   44 type  1   force =    -0.00010945   -0.00070004   -0.00029224
     atom   45 type  2   force =     0.00004549   -0.00006938    0.09975719
     atom   46 type  2   force =    -0.07926098   -0.00004286   -0.03247162
     atom   47 type  2   force =     0.07913514    0.00039969   -0.03249141
     atom   48 type  3   force =    -0.00312017   -0.00045572   -0.00117948
     atom   49 type  4   force =     0.00196686    0.00019436    0.00145429
     atom   50 type  5   force =     0.00008400    0.00004676   -0.00028159
     atom   51 type  5   force =    -0.00005958   -0.00055047    0.00013509
     atom   52 type  5   force =    -0.00059532   -0.00030454    0.00153894

     Total force =     0.425485     Total SCF correction =     0.000353
  @ DRIVER MODE: Message from server: STATUS
  @ DRIVER MODE: Message from server: GETFORCE
  @ DRIVER MODE: Returning v,forces,stress,ensemble

     Writing output data file ./calc.save/
  @ DRIVER MODE: Message from server: EXIT
  @ DRIVE MODE: Exiting

     General routines

     Parallel routines

   This run was terminated on:  17:37:24  15Jul2021

   JOB DONE.