     Program PWSCF v.6.7GPU starts on 16Sep2021 at  5: 5:37

     R & G space division:  proc/nbgrp/npool/nimage =      10
     Reading input from /storage/home/hcoda1/3/ntian30/research/carbon/CxH_vib/H2O_calc/ads_slab/CH3NHNHH2O_a/out_0040/pw.inp
Warning: card &CELL ignored
Warning: card   CELL_DYNAMICS='IPI', ignored
Warning: card / ignored

     Current dimensions of program PWSCF are:
     Max number of different atomic species (ntypx) = 10
     Max number of k-points (npk) =  40000
     Max angular momentum in pseudopotentials (lmaxx) =  3
     Presently no symmetry can be used with electric field

     Message from routine cell_base_init:
     DEPRECATED: use true lattice parameter, not A to a.u. conversion factor

     IMPORTANT: XC functional enforced from input :
     Exchange-correlation= BEEF-VDW
                           (   1   4  43  14   2   0   0)
     Any further DFT definition will be discarded
     Please, verify this is what you really want

  @ DRIVER MODE: Connecting to
 qe_1139763_2852620.sched-torque.pace.gatech.edu33836y6z_scratch
  using UNIX socket
  @ DRIVER MODE: Message from server: STATUS
  @ DRIVER MODE: Message from server: INIT
  @ DRIVER MODE: Receiving replica           0          -1
  @ DRIVER MODE: Receiving encoded integer          25
  @ DRIVER MODE:  SCF:  T  FORCE:  T  STRESS:  F  VC:  F  ENSEMBLE:  F
  @ DRIVER MODE:  SCF:  T  FORCE:  T  STRESS:  F  VC:  F  ENSEMBLE:  F

     Using Slab Decomposition

     bravais-lattice index     =            0
     lattice parameter (alat)  =       1.8897  a.u.
     unit-cell volume          =    6658.9804 (a.u.)^3
     number of atoms/cell      =           58
     number of atomic types    =            5
     number of electrons       =       405.00
     number of Kohn-Sham states=          212
     kinetic-energy cutoff     =      29.3995  Ry
     charge density cutoff     =     293.9946  Ry
     scf convergence threshold =      7.3E-08
     mixing beta               =       0.0500
     number of iterations used =            8  plain     mixing
     Exchange-correlation= BEEF-VDW
                           (   1   4  43  14   2   0   0)

     celldm(1)=   1.889726  celldm(2)=   0.000000  celldm(3)=   0.000000
     celldm(4)=   0.000000  celldm(5)=   0.000000  celldm(6)=   0.000000

     crystal axes: (cart. coord. in units of alat)
               a(1) = (   6.579727   0.000000   0.000000 )
               a(2) = (  -0.000775   5.961596   0.000000 )
               a(3) = (   0.000000   0.000000  25.155947 )

     reciprocal axes: (cart. coord. in units 2 pi/alat)
               b(1) = (  0.151982  0.000020  0.000000 )
               b(2) = (  0.000000  0.167740  0.000000 )
               b(3) = (  0.000000  0.000000  0.039752 )

     PseudoPot. # 1 for Ti read from file:
     /storage/coda1/p-amedford6/0/shared/rich_project_chbe-medford/medford-share/data/pseudos_module/espresso/nninc/pbe/van/Ti.UPF
     MD5 check sum: 8e4df49b7f0d34bbd5052bf3f5ea0213
     Pseudo is Ultrasoft, Zval = 12.0
     Generated by new atomic code, or converted to UPF format
     Using radial grid of  851 points,  6 beta functions with:
                l(1) =   0
                l(2) =   0
                l(3) =   1
                l(4) =   1
                l(5) =   2
                l(6) =   2
     Q(r) pseudized with  8 coefficients,  rinner =    1.000   1.000   1.000
                                                       1.000   1.000

     PseudoPot. # 2 for O  read from file:
     /storage/coda1/p-amedford6/0/shared/rich_project_chbe-medford/medford-share/data/pseudos_module/espresso/nninc/pbe/van/O.UPF
     MD5 check sum: 78c19812648e8988a0fe644b0f25305e
     Pseudo is Ultrasoft, Zval =  6.0
     Generated by new atomic code, or converted to UPF format
     Using radial grid of  737 points,  4 beta functions with:
                l(1) =   0
                l(2) =   0
                l(3) =   1
                l(4) =   1
     Q(r) pseudized with  8 coefficients,  rinner =    0.800   0.800   0.800

     PseudoPot. # 3 for N  read from file:
     /storage/coda1/p-amedford6/0/shared/rich_project_chbe-medford/medford-share/data/pseudos_module/espresso/nninc/pbe/van/N.UPF
     MD5 check sum: 90d10febe142ad51ac9d5be1deb811c4
     Pseudo is Ultrasoft, Zval =  5.0
     Generated by new atomic code, or converted to UPF format
     Using radial grid of  729 points,  4 beta functions with:
                l(1) =   0
                l(2) =   0
                l(3) =   1
                l(4) =   1
     Q(r) pseudized with  8 coefficients,  rinner =    0.800   0.800   0.800

     PseudoPot. # 4 for C  read from file:
     /storage/coda1/p-amedford6/0/shared/rich_project_chbe-medford/medford-share/data/pseudos_module/espresso/nninc/pbe/van/C.UPF
     MD5 check sum: 1a69bf6b8db32088f5b2163dbdb77a27
     Pseudo is Ultrasoft, Zval =  4.0
     Generated by new atomic code, or converted to UPF format
     Using radial grid of  721 points,  4 beta functions with:
                l(1) =   0
                l(2) =   0
                l(3) =   1
                l(4) =   1
     Q(r) pseudized with  8 coefficients,  rinner =    0.800   0.800   0.800

     PseudoPot. # 5 for H  read from file:
     /storage/coda1/p-amedford6/0/shared/rich_project_chbe-medford/medford-share/data/pseudos_module/espresso/nninc/pbe/van/H.UPF
     MD5 check sum: b5ee9d7bfd3a09ee7748110bda690ff7
     Pseudo is Ultrasoft, Zval =  1.0
     Generated by new atomic code, or converted to UPF format
     Using radial grid of  615 points,  1 beta functions with:
                l(1) =   0
     Q(r) pseudized with  8 coefficients,  rinner =    0.800

     atomic species   valence    mass     pseudopotential
        Ti1           12.00    47.86700     Ti( 1.00)
        O1             6.00    15.99900     O ( 1.00)
        N1             5.00    14.00700     N ( 1.00)
        C1             4.00    12.01100     C ( 1.00)
        H1             1.00     1.00800     H ( 1.00)

     No symmetry found

   Cartesian axes

     site n.     atom                  positions (alat units)
         1           Ti1 tau(   1) = (   0.0004258   2.9801865   6.0000000  )
         2           Ti1 tau(   2) = (   3.2906075   1.4906267   6.0002472  )
         3           O1  tau(   3) = (   0.0006271   0.0005054   7.9858123  )
         4           O1  tau(   4) = (   3.2906025   0.0005020   7.3038282  )
         5           O1  tau(   5) = (   4.5942328   1.4918067   9.2879030  )
         6           O1  tau(   6) = (   1.9868534   1.4903216   9.2879459  )
         7           Ti1 tau(   7) = (   3.2907910   2.8959150   9.1758416  )
         8           Ti1 tau(   8) = (   0.0015273   1.4827037   9.2680791  )
         9           O1  tau(   9) = (   3.2925356   5.9605122  11.3387169  )
        10           O1  tau(  10) = (   0.0116148   5.9584955  10.6183126  )
        11           O1  tau(  11) = (   1.2897729   1.4809555  12.6268520  )
        12           O1  tau(  12) = (   5.2791511   1.4810064  12.6173870  )
        13           Ti1 tau(  13) = (   0.0595640   3.0140846  12.5912772  )
        14           Ti1 tau(  14) = (   3.3761946   1.4800080  12.4968112  )
        15           O1  tau(  15) = (   6.5629824   0.0009262  14.6613707  )
        16           O1  tau(  16) = (   3.3123588   5.9604043  13.9421911  )
        17           O1  tau(  17) = (   4.5376415   1.5680301  16.0260299  )
        18           O1  tau(  18) = (   2.0142527   1.4857506  15.9764776  )
        19           Ti1 tau(  19) = (   3.2467940   3.0138708  15.6952036  )
        20           Ti1 tau(  20) = (   6.5376764   1.5432071  15.7832198  )
        21           O1  tau(  21) = (   3.2904802   0.0005063   4.7018136  )
        22           O1  tau(  22) = (   6.4898080   0.0110182  17.2547379  )
        23           O1  tau(  23) = (   1.3043587   1.4918075   6.0039043  )
        24           O1  tau(  24) = (   5.2767064   1.4903225   6.0039473  )
        25           Ti1 tau(  25) = (   0.0000382   5.9609847   6.0000000  )
        26           Ti1 tau(  26) = (   3.2902200   4.4714249   6.0002472  )
        27           O1  tau(  27) = (   0.0002396   2.9813036   7.9858123  )
        28           O1  tau(  28) = (   3.2902150   2.9813002   7.3038282  )
        29           O1  tau(  29) = (   4.5938453   4.4726049   9.2879030  )
        30           O1  tau(  30) = (   1.9864658   4.4711199   9.2879459  )
        31           Ti1 tau(  31) = (   3.2891106   5.8743827   9.1763621  )
        32           Ti1 tau(  32) = (   0.0006254   4.4649316   9.2693709  )
        33           O1  tau(  33) = (   3.2967638   2.9790471  11.3409087  )
        34           O1  tau(  34) = (   0.0092240   2.9805883  10.6323155  )
        35           O1  tau(  35) = (   1.2869154   4.4778632  12.6304858  )
        36           O1  tau(  36) = (   5.2845859   4.4648683  12.6187650  )
        37           Ti1 tau(  37) = (   0.0627082   0.0241251  12.5486904  )
        38           Ti1 tau(  38) = (   3.3788516   4.4738568  12.4976958  )
        39           O1  tau(  39) = (   6.5772583   2.9562949  14.6416036  )
        40           O1  tau(  40) = (   3.2725681   2.9944745  13.9013672  )
        41           O1  tau(  41) = (   4.5452577   4.4055011  16.0651929  )
        42           O1  tau(  42) = (   2.0228361   4.5129635  16.0417754  )
        43           Ti1 tau(  43) = (   3.2583029   0.0391736  15.7773877  )
        44           Ti1 tau(  44) = (   6.5476622   4.6515957  16.1089089  )
        45           O1  tau(  45) = (   3.2900926   2.9813045   4.7018136  )
        46           O1  tau(  46) = (   1.3039711   4.4726057   6.0039043  )
        47           O1  tau(  47) = (   5.2763189   4.4711207   6.0039473  )
        48           N1  tau(  48) = (   1.2275869   2.8250850  18.3327965  )
        49           N1  tau(  49) = (   0.1007212   2.9268546  17.4424539  )
        50           C1  tau(  50) = (   0.9834745   3.5098297  19.5973225  )
        51           H1  tau(  51) = (   0.0800711   3.1483545  20.1177682  )
        52           H1  tau(  52) = (   1.8428167   3.3484677  20.2521386  )
        53           H1  tau(  53) = (   0.8645268   4.5787652  19.4145101  )
        54           H1  tau(  54) = (   1.4038961   1.8448574  18.5000659  )
        55           H1  tau(  55) = (   5.8167727   2.7947134  17.9807349  )
        56           O1  tau(  56) = (   3.6251350   0.0523402  18.1652986  )
        57           H1  tau(  57) = (   4.6063402   0.0342754  18.1216558  )
        58           H1  tau(  58) = (   3.3562690   5.1322054  18.4688733  )

     number of k points=    10  Fermi-Dirac smearing, width (Ry)=  0.0073
                       cart. coord. in units 2pi/alat
        k(    1) = (   0.0000000   0.0000000   0.0000000), wk =   0.1250000
        k(    2) = (   0.0000000   0.0419351   0.0000000), wk =   0.2500000
        k(    3) = (   0.0000000  -0.0838702   0.0000000), wk =   0.1250000
        k(    4) = (   0.0379955   0.0000049   0.0000000), wk =   0.2500000
        k(    5) = (   0.0379955   0.0419400   0.0000000), wk =   0.2500000
        k(    6) = (   0.0379955  -0.0838652   0.0000000), wk =   0.2500000
        k(    7) = (   0.0379955  -0.0419301   0.0000000), wk =   0.2500000
        k(    8) = (  -0.0759910  -0.0000099   0.0000000), wk =   0.1250000
        k(    9) = (  -0.0759910   0.0419252   0.0000000), wk =   0.2500000
        k(   10) = (  -0.0759910  -0.0838800   0.0000000), wk =   0.1250000

     Initial potential from superposition of free atoms

     starting charge  388.99913, renormalised to  405.00000

     negative rho (up, down):  1.444E-02 0.000E+00

     %%%%%%%%%%%%%%%%%%%%%%%%%%%%%%%%%%%%%%%%%%%%%%%%%%%%%%%%%%%%%%%%%%%%%%%%
     %                                                                      %
     % You are using vdW-DF, which was implemented by the Thonhauser group. %
     % Please cite the following two papers that made this development      %
     % possible and the two reviews that describe the various versions:     %
     %                                                                      %
     %   T. Thonhauser et al., PRL 115, 136402 (2015).                      %
     %   T. Thonhauser et al., PRB 76, 125112 (2007).                       %
     %   K. Berland et al., Rep. Prog. Phys. 78, 066501 (2015).             %
     %   D.C. Langreth et al., J. Phys.: Condens. Matter 21, 084203 (2009). %
     %                                                                      %
     %                                                                      %
     % If you are calculating the stress with vdW-DF, please also cite:     %
     %                                                                      %
     %   R. Sabatini et al., J. Phys.: Condens. Matter 24, 424209 (2012).   %
     %                                                                      %
     %%%%%%%%%%%%%%%%%%%%%%%%%%%%%%%%%%%%%%%%%%%%%%%%%%%%%%%%%%%%%%%%%%%%%%%%

     Adding external electric field

     Computed dipole along edir(3) :
        Dipole              -14.1501 Ry au,        -35.9660 Debye
        Dipole field         -0.0267 Ry au,

        Potential amp.        2.4753 Ry
        Total length         46.3494 bohr

     Starting wfcs are  307 atomic wfcs
  @ DRIVER MODE: Message from server: STATUS
  @ DRIVER MODE: Message from server: POSDATA
  @ DRIVER MODE: Reading and sharing cell
  @ DRIVER MODE: Reading and sharing positions
  @ DRIVER MODE: Received positions

     Self-consistent Calculation

     iteration #  1     ecut=    29.40 Ry     beta= 0.05
     Davidson diagonalization with overlap
     c_bands:  4 eigenvalues not converged
     c_bands:  1 eigenvalues not converged
     c_bands:  1 eigenvalues not converged
     c_bands:  3 eigenvalues not converged
     c_bands:  2 eigenvalues not converged
     ethr =  1.00E-05,  avg # of iterations = 29.4

[...]

     total energy              =   -2232.53992102 Ry
     estimated scf accuracy    <    8442.87928645 Ry

     iteration #  2     ecut=    29.40 Ry     beta= 0.05
     Davidson diagonalization with overlap
     ethr =  1.00E-02,  avg # of iterations = 29.3

[...]

     iteration # 71     ecut=    29.40 Ry     beta= 0.05
     Davidson diagonalization with overlap
     ethr =  4.15E-11,  avg # of iterations =  3.6

[...]

     total energy              =   -2976.50542215 Ry
     estimated scf accuracy    <       0.00000040 Ry

     iteration # 73     ecut=    29.40 Ry     beta= 0.05
     Davidson diagonalization with overlap
     c_bands:  1 eigenvalues not converged
     c_bands:  1 eigenvalues not converged
     ethr =  3.14E-11,  avg # of iterations = 14.7

     negative rho (up, down):  1.504E-02 0.000E+00

     Adding external electric field

     Computed dipole along edir(3) :
        Dipole                0.9863 Ry au,          2.5070 Debye
        Dipole field          0.0019 Ry au,

        Potential amp.       -0.1725 Ry
        Total length         46.3494 bohr

     End of self-consistent calculation

          k = 0.0000 0.0000 0.0000 ( 18029 PWs)   bands (ev):

   -55.5101 -55.4798 -55.4761 -55.4465 -55.4437 -55.3586 -55.3277 -55.3259
   -55.3234 -55.2937 -55.2924 -55.2587 -55.0504 -54.8853 -54.4928 -54.4588
   -32.0241 -31.9939 -31.8826 -31.8598 -31.8257 -31.8026 -31.7843 -31.7827
   -31.7545 -31.7114 -31.6999 -31.6803 -31.6771 -31.6623 -31.6568 -31.6350
   -31.6157 -31.6104 -31.6093 -31.5770 -31.5672 -31.5584 -31.5324 -31.5205
   -31.5179 -31.5160 -31.5130 -31.5072 -31.4919 -31.4840 -31.4809 -31.4712
   -31.4687 -31.4572 -31.4458 -31.4367 -31.4047 -31.3063 -31.2608 -31.1487
   -31.1403 -31.0762 -30.9000 -30.8113 -30.7889 -30.7168 -30.6303 -30.5192
   -18.7231 -16.5748 -16.2206 -15.9832 -15.7614 -15.6675 -15.6253 -15.4284
   -15.3340 -15.2492 -15.1292 -15.0780 -15.0521 -15.0445 -15.0309 -15.0056
   -14.9714 -14.9653 -14.9621 -14.9379 -14.9185 -14.8672 -14.8610 -14.8543
   -14.7609 -14.6970 -14.6621 -14.6488 -14.6393 -14.5736 -14.2010 -12.9948
   -12.8783 -11.6494  -8.8973  -6.4612  -5.1787  -4.2836  -3.7006  -3.5950
    -3.4668  -3.4188  -3.3710  -3.3434  -3.1505  -3.0939  -2.9422  -2.7709
    -2.6975  -2.6591  -2.6258  -2.5919  -2.5554  -2.4333  -2.4085  -2.3362
    -2.3191  -2.3080  -2.2757  -2.2658  -2.2509  -2.2362  -2.1568  -2.1481
    -2.0622  -1.9516  -1.9003  -1.8853  -1.8666  -1.8253  -1.7880  -1.7747
    -1.7613  -1.7430  -1.7298  -1.6922  -1.5764  -1.5260  -1.4473  -1.3671
    -1.2958  -1.2082  -1.1314  -1.1036  -1.0360  -1.0106  -0.9503  -0.9261
    -0.9124  -0.9054  -0.7882  -0.6801  -0.6620  -0.5924  -0.5312  -0.4547
    -0.4113  -0.3854  -0.3167  -0.2827  -0.2721  -0.2584  -0.2323  -0.2179
    -0.1615  -0.0140   0.0632   0.0816   0.1403   0.1811   0.2325   0.2578
     0.2856   0.3331   0.3649   0.4050   0.4546   0.4583   0.4703   0.4945
     0.5086   0.6678   0.7230   0.7558   0.7816   0.8304   0.9430   0.9858
     1.1396   1.2071   1.2719   1.4558   1.5298   1.6104   1.7214   2.0640
     2.1011   2.1469   3.6155   3.7079   3.7489   3.7702   3.8572   3.8597
     4.0705   4.1154   4.1234   4.1908

[...]

          k = 0.0380-0.0419 0.0000 ( 17876 PWs)   bands (ev):

[...]

          k =-0.0760-0.0000 0.0000 ( 17886 PWs)   bands (ev):

[...]

          k =-0.0760-0.0839 0.0000 ( 17948 PWs)   bands (ev):

   -55.4934 -55.4927 -55.4639 -55.4595 -55.4439 -55.3443 -55.3377 -55.3283
   -55.3107 -55.3102 -55.2767 -55.2746 -55.0489 -54.8867 -54.4758 -54.4757
   -31.8376 -31.8209 -31.8094 -31.8088 -31.7883 -31.7876 -31.7479 -31.7405
   -31.7324 -31.7044 -31.6934 -31.6743 -31.6587 -31.6570 -31.6315 -31.6294
   -31.6270 -31.6249 -31.6169 -31.6159 -31.6135 -31.6122 -31.6117 -31.5601
   -31.5518 -31.5454 -31.5374 -31.5268 -31.5125 -31.5114 -31.5069 -31.5025
   -31.4922 -31.4897 -31.4845 -31.4825 -31.4115 -31.3090 -31.2562 -31.2102
   -31.1512 -31.1037 -30.8016 -30.8016 -30.7128 -30.7127 -30.6736 -30.6735
   -18.7217 -16.5523 -15.6573 -15.5862 -15.4702 -15.4411 -15.3816 -15.3315
   -15.3139 -15.2447 -15.2086 -15.1960 -15.1443 -15.1417 -15.0938 -15.0699
   -15.0431 -15.0394 -15.0242 -14.9817 -14.9709 -14.9555 -14.9515 -14.9479
   -14.8707 -14.8349 -14.8308 -14.8260 -14.7568 -14.6231 -14.3499 -12.9801
   -12.9800 -11.6565  -8.9061  -6.4570  -5.1816  -4.2785  -3.6440  -3.0822
    -2.9426  -2.7848  -2.7194  -2.6385  -2.6378  -2.5952  -2.4696  -2.4462
    -2.4088  -2.3806  -2.3500  -2.3389  -2.3308  -2.3282  -2.3141  -2.3000
    -2.2870  -2.2478  -2.2016  -2.1861  -2.1777  -2.1731  -2.1583  -2.1453
    -2.1295  -2.1268  -2.0912  -2.0618  -2.0347  -1.9995  -1.9454  -1.7447
    -1.7172  -1.6960  -1.6696  -1.6564  -1.6447  -1.6115  -1.5730  -1.5627
    -1.4906  -1.4027  -1.3144  -1.2365  -1.2032  -1.1904  -1.1212  -1.0356
    -0.9944  -0.9553  -0.9180  -0.8585  -0.7994  -0.7611  -0.7240  -0.6424
    -0.6247  -0.6140  -0.5525  -0.5361  -0.4760  -0.4677  -0.3897  -0.3484
    -0.3116  -0.2646  -0.2370  -0.2313  -0.2124  -0.1780  -0.1702  -0.1162
     0.0002   0.0088   0.0279   0.1333   0.2218   0.4611   0.5179   0.5504
     0.6306   0.6933   0.7539   0.7757   0.7975   0.8014   0.8374   0.8983
     1.0119   1.0218   1.0604   1.1486   1.1738   1.8930   1.8939   1.9667
     1.9669   2.0671   3.9277   3.9539   3.9798   4.0156   4.1162   4.1334
     4.1558   4.1578   4.2714   4.2974

     the Fermi energy is     3.6208 ev

!    total energy              =   -2976.50544463 Ry
     estimated scf accuracy    <       0.00000003 Ry
     smearing contrib. (-TS)   =      -0.02132697 Ry
     internal energy E=F+TS    =   -2976.48411765 Ry

     The total energy is F=E-TS. E is the sum of the following terms:
     one-electron contribution =  -23892.34957655 Ry
     hartree contribution      =   12042.70066898 Ry
     xc contribution           =    -495.76209760 Ry
     ewald contribution        =    9368.92505160 Ry
     electric field correction =       0.00183593 Ry

     convergence has been achieved in  73 iterations

     Forces acting on atoms (cartesian axes, Ry/au):

     atom    1 type  1   force =     0.00015416   -0.00027850    0.09585642
     atom    2 type  1   force =    -0.00022597   -0.00062915   -0.17571045
     atom    3 type  2   force =     0.00006277   -0.00014743   -0.02381888
     atom    4 type  2   force =     0.00006513   -0.00154264    0.05351151
     atom    5 type  2   force =    -0.01127164   -0.00076282    0.00356169
     atom    6 type  2   force =     0.01297303    0.00005531    0.00268375
     atom    7 type  1   force =    -0.00096600    0.00065297   -0.00792992
     atom    8 type  1   force =     0.00042451    0.00624358    0.02299083
     atom    9 type  2   force =    -0.00005269   -0.00030826   -0.00095401
     atom   10 type  2   force =    -0.00136552    0.00127873   -0.01513900
     atom   11 type  2   force =    -0.00030976    0.00024664   -0.00023723
     atom   12 type  2   force =    -0.00021413    0.00022702   -0.00033747
     atom   13 type  1   force =     0.00074032   -0.00046467    0.00027442
     atom   14 type  1   force =    -0.00018827    0.00042264    0.00150357
     atom   15 type  2   force =     0.00001162   -0.00002436    0.00032228
     atom   16 type  2   force =     0.00026304    0.00005690    0.00011746
     atom   17 type  2   force =     0.00064416   -0.00023404    0.00034728
     atom   18 type  2   force =     0.00015416   -0.00042792    0.00046975
     atom   19 type  1   force =    -0.00123541    0.00023235    0.00057092
     atom   20 type  1   force =     0.00076758   -0.00006676   -0.00002106
     atom   21 type  2   force =     0.00008691   -0.00009099    0.10324513
     atom   22 type  2   force =    -0.00073620   -0.00054984   -0.00069039
     atom   23 type  2   force =    -0.07141360   -0.00018629   -0.02769187
     atom   24 type  2   force =     0.07138296    0.00027363   -0.02769548
     atom   25 type  1   force =     0.00002651   -0.00031051    0.09556601
     atom   26 type  1   force =    -0.00018054   -0.00031192   -0.17598225
     atom   27 type  2   force =     0.00009858   -0.00011896   -0.02292234
     atom   28 type  2   force =     0.00011478   -0.00127397    0.05316173
     atom   29 type  2   force =    -0.01151822    0.00014937    0.00362075
     atom   30 type  2   force =     0.01316999    0.00046210    0.00271088
     atom   31 type  1   force =    -0.00101205    0.00373813   -0.01104465
     atom   32 type  1   force =     0.00050988   -0.00741106    0.02339349
     atom   33 type  2   force =    -0.00023678    0.00031153   -0.00032027
     atom   34 type  2   force =    -0.00033411    0.00024845   -0.02186324
     atom   35 type  2   force =     0.00010576    0.00029987   -0.00037585
     atom   36 type  2   force =    -0.00037148    0.00030289   -0.00029761
     atom   37 type  1   force =     0.00039720    0.00057380   -0.00026351
     atom   38 type  1   force =    -0.00022908   -0.00042151    0.00134467
     atom   39 type  2   force =    -0.00007233   -0.00030887    0.00038315
     atom   40 type  2   force =     0.00032462    0.00008894   -0.00083722
     atom   41 type  2   force =     0.00115872    0.00050432    0.00013152
     atom   42 type  2   force =    -0.00066622    0.00029389    0.00000728
     atom   43 type  1   force =    -0.00096841   -0.00108375   -0.00009922
     atom   44 type  1   force =     0.00077281    0.00056097   -0.00010799
     atom   45 type  2   force =     0.00008829   -0.00010115    0.10324714
     atom   46 type  2   force =    -0.07142620   -0.00013574   -0.02767263
     atom   47 type  2   force =     0.07142647    0.00029689   -0.02770294
     atom   48 type  3   force =    -0.00315729    0.01410732   -0.00193983
     atom   49 type  3   force =    -0.00062636    0.00024875   -0.00065794
     atom   50 type  4   force =    -0.00003576    0.00080079   -0.00017634
     atom   51 type  5   force =     0.00009092    0.00064654    0.00005443
     atom   52 type  5   force =    -0.00046576   -0.00024137    0.00006107
     atom   53 type  5   force =     0.00035952   -0.00041281    0.00046285
     atom   54 type  5   force =     0.00271588   -0.01511810    0.00182949
     atom   55 type  5   force =     0.00022149   -0.00011400    0.00052289
     atom   56 type  2   force =    -0.00077783   -0.00004607   -0.00004465
     atom   57 type  5   force =     0.00077403   -0.00005387   -0.00002004
     atom   58 type  5   force =    -0.00002821   -0.00014696    0.00060195

     Total force =     0.367341     Total SCF correction =     0.000257
  @ DRIVER MODE: Message from server: STATUS
  @ DRIVER MODE: Message from server: GETFORCE
  @ DRIVER MODE: Returning v,forces,stress,ensemble

     Writing output data file ./calc.save/
  @ DRIVER MODE: Message from server: EXIT
  @ DRIVE MODE: Exiting

     General routines

     Parallel routines

   This run was terminated on:   5:27: 9  16Sep2021

   JOB DONE.