     Program PWSCF v.6.7GPU starts on  9Sep2021 at  3:49:43

     R & G space division:  proc/nbgrp/npool/nimage =      10
     Reading input from /storage/home/hcoda1/3/ntian30/research/carbon/CxH_vib/CH_calc/ads_slab/CHOH_a/out_0017/pw.inp
Warning: card &CELL ignored
Warning: card   CELL_DYNAMICS='IPI', ignored
Warning: card / ignored

     Current dimensions of program PWSCF are:
     Max number of different atomic species (ntypx) = 10
     Max number of k-points (npk) =  40000
     Max angular momentum in pseudopotentials (lmaxx) =  3
     Presently no symmetry can be used with electric field

     Message from routine cell_base_init:
     DEPRECATED: use true lattice parameter, not A to a.u. conversion factor

     IMPORTANT: XC functional enforced from input :
     Exchange-correlation= BEEF-VDW
                           (   1   4  43  14   2   0   0)
     Any further DFT definition will be discarded
     Please, verify this is what you really want

  @ DRIVER MODE: Connecting to
 qe_1139763_2767384.sched-torque.pace.gatech.edup9efb66v_scratch
  using UNIX socket
  @ DRIVER MODE: Message from server: STATUS
  @ DRIVER MODE: Message from server: INIT
  @ DRIVER MODE: Receiving replica           0          -1
  @ DRIVER MODE: Receiving encoded integer          25
  @ DRIVER MODE:  SCF:  T  FORCE:  T  STRESS:  F  VC:  F  ENSEMBLE:  F
  @ DRIVER MODE:  SCF:  T  FORCE:  T  STRESS:  F  VC:  F  ENSEMBLE:  F

     Using Slab Decomposition

     bravais-lattice index     =            0
     lattice parameter (alat)  =       1.8897  a.u.
     unit-cell volume          =    6658.9804 (a.u.)^3
     number of atoms/cell      =           51
     number of atomic types    =            4
     number of electrons       =       390.00
     number of Kohn-Sham states=          205
     kinetic-energy cutoff     =      29.3995  Ry
     charge density cutoff     =     293.9946  Ry
     scf convergence threshold =      7.3E-08
     mixing beta               =       0.0500
     number of iterations used =            8  plain     mixing
     Exchange-correlation= BEEF-VDW
                           (   1   4  43  14   2   0   0)

     celldm(1)=   1.889726  celldm(2)=   0.000000  celldm(3)=   0.000000
     celldm(4)=   0.000000  celldm(5)=   0.000000  celldm(6)=   0.000000

     crystal axes: (cart. coord. in units of alat)
               a(1) = (   6.579727   0.000000   0.000000 )
               a(2) = (  -0.000775   5.961596   0.000000 )
               a(3) = (   0.000000   0.000000  25.155947 )

     reciprocal axes: (cart. coord. in units 2 pi/alat)
               b(1) = (  0.151982  0.000020  0.000000 )
               b(2) = (  0.000000  0.167740  0.000000 )
               b(3) = (  0.000000  0.000000  0.039752 )

     PseudoPot. # 1 for Ti read from file:
     /storage/coda1/p-amedford6/0/shared/rich_project_chbe-medford/medford-share/data/pseudos_module/espresso/nninc/pbe/van/Ti.UPF
     MD5 check sum: 8e4df49b7f0d34bbd5052bf3f5ea0213
     Pseudo is Ultrasoft, Zval = 12.0
     Generated by new atomic code, or converted to UPF format
     Using radial grid of  851 points,  6 beta functions with:
                l(1) =   0
                l(2) =   0
                l(3) =   1
                l(4) =   1
                l(5) =   2
                l(6) =   2
     Q(r) pseudized with  8 coefficients,  rinner =    1.000   1.000   1.000
                                                       1.000   1.000

     PseudoPot. # 2 for O  read from file:
     /storage/coda1/p-amedford6/0/shared/rich_project_chbe-medford/medford-share/data/pseudos_module/espresso/nninc/pbe/van/O.UPF
     MD5 check sum: 78c19812648e8988a0fe644b0f25305e
     Pseudo is Ultrasoft, Zval =  6.0
     Generated by new atomic code, or converted to UPF format
     Using radial grid of  737 points,  4 beta functions with:
                l(1) =   0
                l(2) =   0
                l(3) =   1
                l(4) =   1
     Q(r) pseudized with  8 coefficients,  rinner =    0.800   0.800   0.800

     PseudoPot. # 3 for C  read from file:
     /storage/coda1/p-amedford6/0/shared/rich_project_chbe-medford/medford-share/data/pseudos_module/espresso/nninc/pbe/van/C.UPF
     MD5 check sum: 1a69bf6b8db32088f5b2163dbdb77a27
     Pseudo is Ultrasoft, Zval =  4.0
     Generated by new atomic code, or converted to UPF format
     Using radial grid of  721 points,  4 beta functions with:
                l(1) =   0
                l(2) =   0
                l(3) =   1
                l(4) =   1
     Q(r) pseudized with  8 coefficients,  rinner =    0.800   0.800   0.800

     PseudoPot. # 4 for H  read from file:
     /storage/coda1/p-amedford6/0/shared/rich_project_chbe-medford/medford-share/data/pseudos_module/espresso/nninc/pbe/van/H.UPF
     MD5 check sum: b5ee9d7bfd3a09ee7748110bda690ff7
     Pseudo is Ultrasoft, Zval =  1.0
     Generated by new atomic code, or converted to UPF format
     Using radial grid of  615 points,  1 beta functions with:
                l(1) =   0
     Q(r) pseudized with  8 coefficients,  rinner =    0.800

     atomic species   valence    mass     pseudopotential
        Ti1           12.00    47.86700     Ti( 1.00)
        O1             6.00    15.99900     O ( 1.00)
        C1             4.00    12.01100     C ( 1.00)
        H1             1.00     1.00800     H ( 1.00)

     No symmetry found

   Cartesian axes

     site n.     atom                  positions (alat units)
         1           Ti1 tau(   1) = (   0.0004258   2.9801865   6.0000000  )
         2           Ti1 tau(   2) = (   3.2906075   1.4906267   6.0002472  )
         3           O1  tau(   3) = (   0.0006271   0.0005054   7.9858123  )
         4           O1  tau(   4) = (   3.2906025   0.0005020   7.3038282  )
         5           O1  tau(   5) = (   4.5942328   1.4918067   9.2879030  )
         6           O1  tau(   6) = (   1.9868534   1.4903216   9.2879459  )
         7           Ti1 tau(   7) = (   3.3189338   3.0017716   9.1565052  )
         8           Ti1 tau(   8) = (   0.0346667   1.4969860   9.2640968  )
         9           O1  tau(   9) = (   3.3073125   0.0088267  11.3792119  )
        10           O1  tau(  10) = (   0.0062670   0.0029933  10.6068016  )
        11           O1  tau(  11) = (   1.3062705   1.5014067  12.6543524  )
        12           O1  tau(  12) = (   5.3087205   1.4988994  12.6673500  )
        13           Ti1 tau(  13) = (   0.0213988   2.9921491  12.5260324  )
        14           Ti1 tau(  14) = (   3.3097092   1.5009918  12.5223738  )
        15           O1  tau(  15) = (   0.0424616   0.0075488  14.6717754  )
        16           O1  tau(  16) = (   3.3005110   0.0073529  14.0105724  )
        17           O1  tau(  17) = (   4.5952227   1.5195780  16.1612446  )
        18           O1  tau(  18) = (   2.0693493   1.5297702  16.1935428  )
        19           Ti1 tau(  19) = (   3.3356741   2.9939547  15.7500326  )
        20           Ti1 tau(  20) = (   0.0335386   1.3679084  15.9371528  )
        21           O1  tau(  21) = (   3.2904802   0.0005063   4.7018136  )
        22           O1  tau(  22) = (   0.0353059   0.0153350  17.1923242  )
        23           O1  tau(  23) = (   1.3043587   1.4918075   6.0039043  )
        24           O1  tau(  24) = (   5.2767064   1.4903225   6.0039473  )
        25           Ti1 tau(  25) = (   0.0000382   5.9609847   6.0000000  )
        26           Ti1 tau(  26) = (   3.2902200   4.4714249   6.0002472  )
        27           O1  tau(  27) = (   0.0002396   2.9813036   7.9858123  )
        28           O1  tau(  28) = (   3.2902150   2.9813002   7.3038282  )
        29           O1  tau(  29) = (   4.5938453   4.4726049   9.2879030  )
        30           O1  tau(  30) = (   1.9864658   4.4711199   9.2879459  )
        31           Ti1 tau(  31) = (   3.3154861   0.0215470   9.1550440  )
        32           Ti1 tau(  32) = (   0.0344056   4.4691587   9.2644328  )
        33           O1  tau(  33) = (   3.3078462   2.9871797  11.3713074  )
        34           O1  tau(  34) = (   0.0058747   2.9832696  10.6292865  )
        35           O1  tau(  35) = (   1.3058732   4.4754499  12.6504552  )
        36           O1  tau(  36) = (   5.3084772   4.4777640  12.6640448  )
        37           Ti1 tau(  37) = (   0.0171148   0.0128214  12.4806662  )
        38           Ti1 tau(  38) = (   3.3088916   4.4784539  12.5193958  )
        39           O1  tau(  39) = (   0.0434956   2.9958159  14.9132474  )
        40           O1  tau(  40) = (   3.3089563   2.9921379  13.9620076  )
        41           O1  tau(  41) = (   4.5951427   4.4669482  16.1652122  )
        42           O1  tau(  42) = (   2.0688924   4.4538916  16.2081353  )
        43           Ti1 tau(  43) = (   3.3160161   0.0142155  15.8078792  )
        44           Ti1 tau(  44) = (   0.0219142   4.6036306  15.9252304  )
        45           O1  tau(  45) = (   3.2900926   2.9813045   4.7018136  )
        46           O1  tau(  46) = (   1.3039711   4.4726057   6.0039043  )
        47           O1  tau(  47) = (   5.2763189   4.4711207   6.0039473  )
        48           C1  tau(  48) = (   6.0523360   2.9466228  19.1488008  )
        49           O1  tau(  49) = (   0.1918362   3.0047394  18.0201065  )
        50           H1  tau(  50) = (   5.0152694   2.8496317  18.7532286  )
        51           H1  tau(  51) = (   1.1393832   3.0938607  18.2382470  )

     number of k points=    10  Fermi-Dirac smearing, width (Ry)=  0.0073
                       cart. coord. in units 2pi/alat
        k(    1) = (   0.0000000   0.0000000   0.0000000), wk =   0.1250000
        k(    2) = (   0.0000000   0.0419351   0.0000000), wk =   0.2500000
        k(    3) = (   0.0000000  -0.0838702   0.0000000), wk =   0.1250000
        k(    4) = (   0.0379955   0.0000049   0.0000000), wk =   0.2500000
        k(    5) = (   0.0379955   0.0419400   0.0000000), wk =   0.2500000
        k(    6) = (   0.0379955  -0.0838652   0.0000000), wk =   0.2500000
        k(    7) = (   0.0379955  -0.0419301   0.0000000), wk =   0.2500000
        k(    8) = (  -0.0759910  -0.0000099   0.0000000), wk =   0.1250000
        k(    9) = (  -0.0759910   0.0419252   0.0000000), wk =   0.2500000
        k(   10) = (  -0.0759910  -0.0838800   0.0000000), wk =   0.1250000

     Initial potential from superposition of free atoms

     starting charge  373.99919, renormalised to  390.00000

     negative rho (up, down):  1.785E-02 0.000E+00

     %%%%%%%%%%%%%%%%%%%%%%%%%%%%%%%%%%%%%%%%%%%%%%%%%%%%%%%%%%%%%%%%%%%%%%%%
     %                                                                      %
     % You are using vdW-DF, which was implemented by the Thonhauser group. %
     % Please cite the following two papers that made this development      %
     % possible and the two reviews that describe the various versions:     %
     %                                                                      %
     %   T. Thonhauser et al., PRL 115, 136402 (2015).                      %
     %   T. Thonhauser et al., PRB 76, 125112 (2007).                       %
     %   K. Berland et al., Rep. Prog. Phys. 78, 066501 (2015).             %
     %   D.C. Langreth et al., J. Phys.: Condens. Matter 21, 084203 (2009). %
     %                                                                      %
     %                                                                      %
     % If you are calculating the stress with vdW-DF, please also cite:     %
     %                                                                      %
     %   R. Sabatini et al., J. Phys.: Condens. Matter 24, 424209 (2012).   %
     %                                                                      %
     %%%%%%%%%%%%%%%%%%%%%%%%%%%%%%%%%%%%%%%%%%%%%%%%%%%%%%%%%%%%%%%%%%%%%%%%

     Adding external electric field

     Computed dipole along edir(3) :
        Dipole               -6.1546 Ry au,        -15.6434 Debye
        Dipole field         -0.0116 Ry au,

        Potential amp.        1.0766 Ry
        Total length         46.3494 bohr

     Starting wfcs are  294 atomic wfcs
  @ DRIVER MODE: Message from server: STATUS
  @ DRIVER MODE: Message from server: POSDATA
  @ DRIVER MODE: Reading and sharing cell
  @ DRIVER MODE: Reading and sharing positions
  @ DRIVER MODE: Received positions

     Self-consistent Calculation

     iteration #  1     ecut=    29.40 Ry     beta= 0.05
     Davidson diagonalization with overlap
     c_bands:  1 eigenvalues not converged
     c_bands:  1 eigenvalues not converged
     c_bands:  1 eigenvalues not converged
     ethr =  1.00E-05,  avg # of iterations = 16.7

[...]

     total energy              =   -2756.81534671 Ry
     estimated scf accuracy    <    1910.50566566 Ry

     iteration #  2     ecut=    29.40 Ry     beta= 0.05
     Davidson diagonalization with overlap
     ethr =  1.00E-02,  avg # of iterations = 18.7

[...]

     iteration # 55     ecut=    29.40 Ry     beta= 0.05
     Davidson diagonalization with overlap
     c_bands:  1 eigenvalues not converged
     ethr =  3.03E-09,  avg # of iterations = 14.6

[...]

     total energy              =   -2929.94102946 Ry
     estimated scf accuracy    <       0.00000009 Ry

     iteration # 65     ecut=    29.40 Ry     beta= 0.05
     Davidson diagonalization with overlap
     ethr =  2.20E-11,  avg # of iterations = 10.8

     negative rho (up, down):  1.677E-02 0.000E+00

     Adding external electric field

     Computed dipole along edir(3) :
        Dipole                0.3843 Ry au,          0.9768 Debye
        Dipole field          0.0007 Ry au,

        Potential amp.       -0.0672 Ry
        Total length         46.3494 bohr

     End of self-consistent calculation

          k = 0.0000 0.0000 0.0000 ( 18029 PWs)   bands (ev):

   -56.0186 -55.9825 -55.9813 -55.9470 -55.9097 -55.8991 -55.8651 -55.8581
   -55.8552 -55.8208 -55.8076 -55.8062 -55.8003 -55.7664 -55.0786 -55.0445
   -32.5877 -32.5162 -32.4789 -32.3842 -32.3345 -32.3309 -32.3203 -32.3112
   -32.2705 -32.2643 -32.2270 -32.2251 -32.2167 -32.1933 -32.1874 -32.1719
   -32.1545 -32.1536 -32.1457 -32.1359 -32.1319 -32.1257 -32.1118 -32.1078
   -32.0996 -32.0835 -32.0763 -32.0377 -32.0327 -32.0247 -32.0215 -32.0087
   -32.0042 -31.9994 -31.9951 -31.9858 -31.9720 -31.9547 -31.9371 -31.9345
   -31.9129 -31.8845 -31.4909 -31.3878 -31.3663 -31.3072 -31.2209 -31.1097
   -21.6104 -16.8509 -16.5998 -16.4629 -16.3584 -16.2400 -16.1231 -16.0609
   -15.9626 -15.8571 -15.7434 -15.6959 -15.6720 -15.6701 -15.6504 -15.6411
   -15.6335 -15.5745 -15.5471 -15.5249 -15.5106 -15.5087 -15.4632 -15.4428
   -15.4098 -15.3753 -15.2502 -15.1798 -15.1219 -14.7892 -13.5795 -13.4600
   -10.7281  -5.9960  -5.0053  -4.3339  -4.1789  -4.0289  -3.9534  -3.9436
    -3.8971  -3.7797  -3.6045  -3.4494  -3.4418  -3.3147  -3.2715  -3.2254
    -3.1826  -3.0540  -2.9996  -2.9869  -2.9127  -2.9083  -2.8939  -2.8834
    -2.7965  -2.7852  -2.7677  -2.7556  -2.6484  -2.6067  -2.4868  -2.4543
    -2.4071  -2.3672  -2.3590  -2.3452  -2.3399  -2.2957  -2.2839  -2.2601
    -2.2057  -2.1490  -2.0535  -1.9231  -1.9143  -1.7968  -1.7636  -1.5974
    -1.5822  -1.5455  -1.5194  -1.4691  -1.4253  -1.4191  -1.3752  -1.2704
    -1.1915  -1.1396  -1.0627  -1.0273  -0.9596  -0.9193  -0.8443  -0.8119
    -0.8079  -0.7784  -0.6808  -0.6114  -0.5517  -0.5109  -0.4932  -0.4695
    -0.3855  -0.3592  -0.2628  -0.2503  -0.2103  -0.2013  -0.0896  -0.0814
    -0.0740  -0.0572  -0.0491   0.0387   0.1128   0.1266   0.1545   0.3094
     0.5261   0.5378   0.5780   0.8338   0.9221   0.9473   1.1064   1.2696
     1.5334   1.5878   3.0778   3.1455   3.1835   3.2052   3.2284   3.2861
     3.5679   3.5831   3.5899   3.6061   3.6330

[...]

          k = 0.0380-0.0419 0.0000 ( 17876 PWs)   bands (ev):

[...]

          k =-0.0760-0.0000 0.0000 ( 17886 PWs)   bands (ev):

[...]

          k =-0.0760-0.0839 0.0000 ( 17948 PWs)   bands (ev):

   -56.0016 -55.9993 -55.9655 -55.9627 -55.9067 -55.8899 -55.8674 -55.8584
   -55.8398 -55.8359 -55.8142 -55.8090 -55.7839 -55.7828 -55.0615 -55.0614
   -32.4411 -32.3924 -32.3895 -32.3074 -32.2951 -32.2924 -32.2739 -32.2584
   -32.2532 -32.2287 -32.2197 -32.2167 -32.2093 -32.1674 -32.1569 -32.1561
   -32.1543 -32.1505 -32.1455 -32.1431 -32.1380 -32.1309 -32.1112 -32.0999
   -32.0996 -32.0979 -32.0934 -32.0900 -32.0859 -32.0840 -32.0822 -32.0586
   -32.0381 -32.0380 -32.0363 -32.0200 -32.0111 -32.0100 -32.0004 -31.9782
   -31.9694 -31.9684 -31.3789 -31.3789 -31.3036 -31.3035 -31.2641 -31.2640
   -21.6096 -16.4712 -16.2557 -16.1932 -16.0386 -16.0338 -16.0036 -15.9758
   -15.8464 -15.8239 -15.8101 -15.7898 -15.7657 -15.7486 -15.7413 -15.7260
   -15.6204 -15.6133 -15.6025 -15.5965 -15.5372 -15.5337 -15.5236 -15.5106
   -15.4778 -15.4752 -15.4481 -15.4447 -15.2978 -15.1604 -13.5612 -13.5607
   -10.7314  -5.9988  -4.9818  -4.2835  -3.5322  -3.5306  -3.4520  -3.2579
    -3.2200  -3.1860  -3.1741  -3.0985  -3.0230  -3.0155  -3.0084  -2.9263
    -2.9198  -2.9169  -2.9146  -2.8527  -2.8459  -2.8089  -2.8043  -2.7544
    -2.7238  -2.7188  -2.7099  -2.6863  -2.6834  -2.6679  -2.6497  -2.6296
    -2.6172  -2.5341  -2.4892  -2.3890  -2.3577  -2.3266  -2.2500  -2.2411
    -2.1573  -2.1277  -2.1073  -2.0694  -2.0246  -2.0078  -1.8486  -1.8155
    -1.8107  -1.7480  -1.6785  -1.6539  -1.6225  -1.5671  -1.5038  -1.4951
    -1.4059  -1.3500  -1.3468  -1.2221  -1.2117  -1.1597  -1.0533  -1.0215
    -1.0129  -1.0090  -1.0004  -0.9373  -0.9265  -0.8618  -0.8118  -0.7640
    -0.7463  -0.7339  -0.5386  -0.4970  -0.4426  -0.3421  -0.3020  -0.1105
    -0.0964  -0.0817   0.0016   0.0391   0.0545   0.1275   0.2476   0.2521
     0.3038   0.3602   0.4027   0.4098   0.4269   1.2781   1.2982   1.2991
     1.4032   1.4052   3.2373   3.2953   3.3227   3.4004   3.4763   3.4990
     3.5866   3.6048   3.6326   3.6376   3.7145

     the Fermi energy is     3.1371 ev

!    total energy              =   -2929.94105458 Ry
     estimated scf accuracy    <       0.00000006 Ry
     smearing contrib. (-TS)   =      -0.03724247 Ry
     internal energy E=F+TS    =   -2929.90381211 Ry

     The total energy is F=E-TS. E is the sum of the following terms:
     one-electron contribution =  -24335.09333240 Ry
     hartree contribution      =   12250.14799567 Ry
     xc contribution           =    -481.17832797 Ry
     ewald contribution        =    9636.21957390 Ry
     electric field correction =       0.00027869 Ry

     convergence has been achieved in  65 iterations

     Forces acting on atoms (cartesian axes, Ry/au):

     atom    1 type  1   force =    -0.00041389   -0.00001963    0.09184738
     atom    2 type  1   force =    -0.00029059    0.00032604   -0.18370406
     atom    3 type  2   force =     0.00041269    0.00008313   -0.02347193
     atom    4 type  2   force =     0.00072409    0.00037796    0.05121146
     atom    5 type  2   force =    -0.01351918    0.00018795    0.00469034
     atom    6 type  2   force =     0.01516139   -0.00002723    0.00541746
     atom    7 type  1   force =    -0.00054746    0.00015098   -0.00019772
     atom    8 type  1   force =     0.00026463    0.00021770    0.00006166
     atom    9 type  2   force =     0.00003888   -0.00004053   -0.00014500
     atom   10 type  2   force =    -0.00021315    0.00004813    0.00037749
     atom   11 type  2   force =     0.00003090   -0.00014506   -0.00014112
     atom   12 type  2   force =     0.00012167   -0.00001261   -0.00008836
     atom   13 type  1   force =    -0.00023788    0.00083645   -0.00048368
     atom   14 type  1   force =     0.00016010    0.00000245    0.00011654
     atom   15 type  2   force =     0.00000399    0.00033537    0.00040578
     atom   16 type  2   force =    -0.00000145    0.00008996    0.00055646
     atom   17 type  2   force =    -0.00025465   -0.00026727    0.00012159
     atom   18 type  2   force =    -0.00031430   -0.00037140    0.00032254
     atom   19 type  1   force =    -0.00010801    0.00012512    0.00021514
     atom   20 type  1   force =    -0.00036382    0.00027915    0.00014287
     atom   21 type  2   force =    -0.00007777    0.00001587    0.10502274
     atom   22 type  2   force =    -0.00005724   -0.00036555   -0.00007620
     atom   23 type  2   force =    -0.06789937   -0.00014846   -0.02654927
     atom   24 type  2   force =     0.06761572    0.00029763   -0.02662890
     atom   25 type  1   force =    -0.00035120   -0.00000101    0.09419046
     atom   26 type  1   force =    -0.00029501   -0.00042301   -0.18372350
     atom   27 type  2   force =     0.00036238    0.00013962   -0.02226637
     atom   28 type  2   force =     0.00077728    0.00030585    0.05092187
     atom   29 type  2   force =    -0.01350821    0.00044818    0.00481425
     atom   30 type  2   force =     0.01517084    0.00023713    0.00552236
     atom   31 type  1   force =    -0.00060838   -0.00030716   -0.00028400
     atom   32 type  1   force =     0.00027432   -0.00010390    0.00003646
     atom   33 type  2   force =     0.00000941    0.00002749   -0.00003534
     atom   34 type  2   force =    -0.00007515   -0.00005368    0.00009719
     atom   35 type  2   force =     0.00007386    0.00008299    0.00010078
     atom   36 type  2   force =     0.00007281   -0.00005603    0.00013306
     atom   37 type  1   force =    -0.00025305   -0.00076678   -0.00024113
     atom   38 type  1   force =     0.00021256    0.00007898    0.00066362
     atom   39 type  2   force =    -0.00006511   -0.00064992    0.00053102
     atom   40 type  2   force =    -0.00037546   -0.00017627   -0.00015400
     atom   41 type  2   force =    -0.00014656    0.00011401   -0.00013587
     atom   42 type  2   force =    -0.00034715    0.00003705    0.00016222
     atom   43 type  1   force =     0.00012000   -0.00020044   -0.00037485
     atom   44 type  1   force =    -0.00043102   -0.00010500    0.00000509
     atom   45 type  2   force =    -0.00004637    0.00002463    0.10500771
     atom   46 type  2   force =    -0.06790477   -0.00050452   -0.02656758
     atom   47 type  2   force =     0.06762689   -0.00006038   -0.02664408
     atom   48 type  3   force =    -0.00446709   -0.00046621   -0.00291583
     atom   49 type  2   force =     0.00063347    0.00008214   -0.00062532
     atom   50 type  4   force =     0.00219466    0.00025770    0.00241330
     atom   51 type  4   force =     0.00111077    0.00006241    0.00034529

     Total force =     0.367840     Total SCF correction =     0.000513
  @ DRIVER MODE: Message from server: STATUS
  @ DRIVER MODE: Message from server: GETFORCE
  @ DRIVER MODE: Returning v,forces,stress,ensemble

     Writing output data file ./calc.save/
  @ DRIVER MODE: Message from server: EXIT
  @ DRIVE MODE: Exiting

     General routines

     Parallel routines

   This run was terminated on:   4:12:38   9Sep2021

   JOB DONE.