     Program PWSCF v.6.7GPU starts on 15Sep2021 at 18:59:33

     R & G space division:  proc/nbgrp/npool/nimage =      10
     Reading input from /storage/home/hcoda1/3/ntian30/research/carbon/CxH_vib/H2O_calc/ads_slab/CH2N2H2O_b/out_0011/pw.inp
Warning: card &CELL ignored
Warning: card   CELL_DYNAMICS='IPI', ignored
Warning: card / ignored

     Current dimensions of program PWSCF are:
     Max number of different atomic species (ntypx) = 10
     Max number of k-points (npk) =  40000
     Max angular momentum in pseudopotentials (lmaxx) =  3
     Presently no symmetry can be used with electric field

     Message from routine cell_base_init:
     DEPRECATED: use true lattice parameter, not A to a.u. conversion factor

     IMPORTANT: XC functional enforced from input :
     Exchange-correlation= BEEF-VDW
                           (   1   4  43  14   2   0   0)
     Any further DFT definition will be discarded
     Please, verify this is what you really want

  @ DRIVER MODE: Connecting to
 qe_1139763_2852605.sched-torque.pace.gatech.edu1op9pvpx_scratch
  using UNIX socket
  @ DRIVER MODE: Message from server: STATUS
  @ DRIVER MODE: Message from server: INIT
  @ DRIVER MODE: Receiving replica           0          -1
  @ DRIVER MODE: Receiving encoded integer          25
  @ DRIVER MODE:  SCF:  T  FORCE:  T  STRESS:  F  VC:  F  ENSEMBLE:  F
  @ DRIVER MODE:  SCF:  T  FORCE:  T  STRESS:  F  VC:  F  ENSEMBLE:  F

     Using Slab Decomposition

     bravais-lattice index     =            0
     lattice parameter (alat)  =       1.8897  a.u.
     unit-cell volume          =    6658.9804 (a.u.)^3
     number of atoms/cell      =           55
     number of atomic types    =            5
     number of electrons       =       402.00
     number of Kohn-Sham states=          211
     kinetic-energy cutoff     =      29.3995  Ry
     charge density cutoff     =     293.9946  Ry
     scf convergence threshold =      7.3E-08
     mixing beta               =       0.0500
     number of iterations used =            8  plain     mixing
     Exchange-correlation= BEEF-VDW
                           (   1   4  43  14   2   0   0)

     celldm(1)=   1.889726  celldm(2)=   0.000000  celldm(3)=   0.000000
     celldm(4)=   0.000000  celldm(5)=   0.000000  celldm(6)=   0.000000

     crystal axes: (cart. coord. in units of alat)
               a(1) = (   6.579727   0.000000   0.000000 )
               a(2) = (  -0.000775   5.961596   0.000000 )
               a(3) = (   0.000000   0.000000  25.155947 )

     reciprocal axes: (cart. coord. in units 2 pi/alat)
               b(1) = (  0.151982  0.000020  0.000000 )
               b(2) = (  0.000000  0.167740  0.000000 )
               b(3) = (  0.000000  0.000000  0.039752 )

     PseudoPot. # 1 for Ti read from file:
     /storage/coda1/p-amedford6/0/shared/rich_project_chbe-medford/medford-share/data/pseudos_module/espresso/nninc/pbe/van/Ti.UPF
     MD5 check sum: 8e4df49b7f0d34bbd5052bf3f5ea0213
     Pseudo is Ultrasoft, Zval = 12.0
     Generated by new atomic code, or converted to UPF format
     Using radial grid of  851 points,  6 beta functions with:
                l(1) =   0
                l(2) =   0
                l(3) =   1
                l(4) =   1
                l(5) =   2
                l(6) =   2
     Q(r) pseudized with  8 coefficients,  rinner =    1.000   1.000   1.000
                                                       1.000   1.000

     PseudoPot. # 2 for O  read from file:
     /storage/coda1/p-amedford6/0/shared/rich_project_chbe-medford/medford-share/data/pseudos_module/espresso/nninc/pbe/van/O.UPF
     MD5 check sum: 78c19812648e8988a0fe644b0f25305e
     Pseudo is Ultrasoft, Zval =  6.0
     Generated by new atomic code, or converted to UPF format
     Using radial grid of  737 points,  4 beta functions with:
                l(1) =   0
                l(2) =   0
                l(3) =   1
                l(4) =   1
     Q(r) pseudized with  8 coefficients,  rinner =    0.800   0.800   0.800

     PseudoPot. # 3 for N  read from file:
     /storage/coda1/p-amedford6/0/shared/rich_project_chbe-medford/medford-share/data/pseudos_module/espresso/nninc/pbe/van/N.UPF
     MD5 check sum: 90d10febe142ad51ac9d5be1deb811c4
     Pseudo is Ultrasoft, Zval =  5.0
     Generated by new atomic code, or converted to UPF format
     Using radial grid of  729 points,  4 beta functions with:
                l(1) =   0
                l(2) =   0
                l(3) =   1
                l(4) =   1
     Q(r) pseudized with  8 coefficients,  rinner =    0.800   0.800   0.800

     PseudoPot. # 4 for C  read from file:
     /storage/coda1/p-amedford6/0/shared/rich_project_chbe-medford/medford-share/data/pseudos_module/espresso/nninc/pbe/van/C.UPF
     MD5 check sum: 1a69bf6b8db32088f5b2163dbdb77a27
     Pseudo is Ultrasoft, Zval =  4.0
     Generated by new atomic code, or converted to UPF format
     Using radial grid of  721 points,  4 beta functions with:
                l(1) =   0
                l(2) =   0
                l(3) =   1
                l(4) =   1
     Q(r) pseudized with  8 coefficients,  rinner =    0.800   0.800   0.800

     PseudoPot. # 5 for H  read from file:
     /storage/coda1/p-amedford6/0/shared/rich_project_chbe-medford/medford-share/data/pseudos_module/espresso/nninc/pbe/van/H.UPF
     MD5 check sum: b5ee9d7bfd3a09ee7748110bda690ff7
     Pseudo is Ultrasoft, Zval =  1.0
     Generated by new atomic code, or converted to UPF format
     Using radial grid of  615 points,  1 beta functions with:
                l(1) =   0
     Q(r) pseudized with  8 coefficients,  rinner =    0.800

     atomic species   valence    mass     pseudopotential
        Ti1           12.00    47.86700     Ti( 1.00)
        O1             6.00    15.99900     O ( 1.00)
        N1             5.00    14.00700     N ( 1.00)
        C1             4.00    12.01100     C ( 1.00)
        H1             1.00     1.00800     H ( 1.00)

     No symmetry found

   Cartesian axes

     site n.     atom                  positions (alat units)
         1           Ti1 tau(   1) = (   0.0004258   2.9801865   6.0000000  )
         2           Ti1 tau(   2) = (   3.2906075   1.4906267   6.0002472  )
         3           O1  tau(   3) = (   0.0006271   0.0005054   7.9858123  )
         4           O1  tau(   4) = (   3.2906025   0.0005020   7.3038282  )
         5           O1  tau(   5) = (   4.5942328   1.4918067   9.2879030  )
         6           O1  tau(   6) = (   1.9868534   1.4903216   9.2879459  )
         7           Ti1 tau(   7) = (   3.2907910   2.8959150   9.1758416  )
         8           Ti1 tau(   8) = (   0.0015273   1.4827037   9.2680791  )
         9           O1  tau(   9) = (   3.2934429   5.9466490  11.3040654  )
        10           O1  tau(  10) = (   0.0116148   5.9584955  10.6183126  )
        11           O1  tau(  11) = (   1.2867109   1.4782735  12.6190062  )
        12           O1  tau(  12) = (   5.2776945   1.4764076  12.5976694  )
        13           Ti1 tau(  13) = (   0.0846880   2.9559742  12.7004455  )
        14           Ti1 tau(  14) = (   3.4192946   1.4610250  12.4797112  )
        15           O1  tau(  15) = (   0.0040618   5.9510889  14.6015872  )
        16           O1  tau(  16) = (   3.2972055   5.9566395  13.8969661  )
        17           O1  tau(  17) = (   4.5327346   1.5242580  16.0225792  )
        18           O1  tau(  18) = (   2.0474321   1.5095568  15.9818283  )
        19           Ti1 tau(  19) = (   3.2830006   2.9631064  15.6531525  )
        20           Ti1 tau(  20) = (   6.5418150   1.5417905  15.9635021  )
        21           O1  tau(  21) = (   3.2904802   0.0005063   4.7018136  )
        22           O1  tau(  22) = (   0.0063621   0.0138944  17.1794403  )
        23           O1  tau(  23) = (   1.3043587   1.4918075   6.0039043  )
        24           O1  tau(  24) = (   5.2767064   1.4903225   6.0039473  )
        25           Ti1 tau(  25) = (   0.0000382   5.9609847   6.0000000  )
        26           Ti1 tau(  26) = (   3.2902200   4.4714249   6.0002472  )
        27           O1  tau(  27) = (   0.0002396   2.9813036   7.9858123  )
        28           O1  tau(  28) = (   3.2902150   2.9813002   7.3038282  )
        29           O1  tau(  29) = (   4.5938453   4.4726049   9.2879030  )
        30           O1  tau(  30) = (   1.9864658   4.4711199   9.2879459  )
        31           Ti1 tau(  31) = (   3.2891106   5.8743827   9.1763621  )
        32           Ti1 tau(  32) = (   0.0006254   4.4649316   9.2693709  )
        33           O1  tau(  33) = (   3.2987291   2.9703105  11.3060640  )
        34           O1  tau(  34) = (   0.0092240   2.9805883  10.6323155  )
        35           O1  tau(  35) = (   1.2872851   4.4534926  12.6272766  )
        36           O1  tau(  36) = (   5.2800973   4.4624318  12.6062822  )
        37           Ti1 tau(  37) = (   0.1009857   5.9355968  12.6779778  )
        38           Ti1 tau(  38) = (   3.4194502   4.4581092  12.4739500  )
        39           O1  tau(  39) = (   6.5579784   2.9468049  14.6267102  )
        40           O1  tau(  40) = (   3.2950467   2.9662764  13.8528306  )
        41           O1  tau(  41) = (   4.5369278   4.4531499  15.9976687  )
        42           O1  tau(  42) = (   2.0426393   4.4597293  15.9709435  )
        43           Ti1 tau(  43) = (   3.2485613   5.9322867  15.7552632  )
        44           Ti1 tau(  44) = (   6.5504849   4.5932964  16.0494500  )
        45           O1  tau(  45) = (   3.2900926   2.9813045   4.7018136  )
        46           O1  tau(  46) = (   1.3039711   4.4726057   6.0039043  )
        47           O1  tau(  47) = (   5.2763189   4.4711207   6.0039473  )
        48           N1  tau(  48) = (   0.6156314   2.9572148  18.5116157  )
        49           N1  tau(  49) = (   0.0870375   2.9660652  17.3103775  )
        50           C1  tau(  50) = (   6.5561155   3.1780822  19.6039678  )
        51           H1  tau(  51) = (   5.4868456   3.3930584  19.6151425  )
        52           H1  tau(  52) = (   0.5344647   3.1546629  20.5288580  )
        53           O1  tau(  53) = (   3.2552377   5.9566958  18.1335742  )
        54           H1  tau(  54) = (   4.0211122   0.5273114  18.4085372  )
        55           H1  tau(  55) = (   2.4596908   0.4732500  18.4230009  )

     number of k points=    10  Fermi-Dirac smearing, width (Ry)=  0.0073
                       cart. coord. in units 2pi/alat
        k(    1) = (   0.0000000   0.0000000   0.0000000), wk =   0.1250000
        k(    2) = (   0.0000000   0.0419351   0.0000000), wk =   0.2500000
        k(    3) = (   0.0000000  -0.0838702   0.0000000), wk =   0.1250000
        k(    4) = (   0.0379955   0.0000049   0.0000000), wk =   0.2500000
        k(    5) = (   0.0379955   0.0419400   0.0000000), wk =   0.2500000
        k(    6) = (   0.0379955  -0.0838652   0.0000000), wk =   0.2500000
        k(    7) = (   0.0379955  -0.0419301   0.0000000), wk =   0.2500000
        k(    8) = (  -0.0759910  -0.0000099   0.0000000), wk =   0.1250000
        k(    9) = (  -0.0759910   0.0419252   0.0000000), wk =   0.2500000
        k(   10) = (  -0.0759910  -0.0838800   0.0000000), wk =   0.1250000

     Initial potential from superposition of free atoms

     starting charge  385.99915, renormalised to  402.00000

     negative rho (up, down):  1.463E-02 0.000E+00

     %%%%%%%%%%%%%%%%%%%%%%%%%%%%%%%%%%%%%%%%%%%%%%%%%%%%%%%%%%%%%%%%%%%%%%%%
     %                                                                      %
     % You are using vdW-DF, which was implemented by the Thonhauser group. %
     % Please cite the following two papers that made this development      %
     % possible and the two reviews that describe the various versions:     %
     %                                                                      %
     %   T. Thonhauser et al., PRL 115, 136402 (2015).                      %
     %   T. Thonhauser et al., PRB 76, 125112 (2007).                       %
     %   K. Berland et al., Rep. Prog. Phys. 78, 066501 (2015).             %
     %   D.C. Langreth et al., J. Phys.: Condens. Matter 21, 084203 (2009). %
     %                                                                      %
     %                                                                      %
     % If you are calculating the stress with vdW-DF, please also cite:     %
     %                                                                      %
     %   R. Sabatini et al., J. Phys.: Condens. Matter 24, 424209 (2012).   %
     %                                                                      %
     %%%%%%%%%%%%%%%%%%%%%%%%%%%%%%%%%%%%%%%%%%%%%%%%%%%%%%%%%%%%%%%%%%%%%%%%

     Adding external electric field

     Computed dipole along edir(3) :
        Dipole              -11.9569 Ry au,        -30.3914 Debye
        Dipole field         -0.0226 Ry au,

        Potential amp.        2.0917 Ry
        Total length         46.3494 bohr

     Starting wfcs are  304 atomic wfcs
  @ DRIVER MODE: Message from server: STATUS
  @ DRIVER MODE: Message from server: POSDATA
  @ DRIVER MODE: Reading and sharing cell
  @ DRIVER MODE: Reading and sharing positions
  @ DRIVER MODE: Received positions

     Self-consistent Calculation

     iteration #  1     ecut=    29.40 Ry     beta= 0.05
     Davidson diagonalization with overlap
     c_bands:  3 eigenvalues not converged
     c_bands:  1 eigenvalues not converged
     c_bands:  5 eigenvalues not converged
     c_bands:  3 eigenvalues not converged
     c_bands:  3 eigenvalues not converged
     c_bands:  2 eigenvalues not converged
     c_bands:  4 eigenvalues not converged
     c_bands:  4 eigenvalues not converged
     c_bands:  3 eigenvalues not converged
     ethr =  1.00E-05,  avg # of iterations = 21.6

[...]

     total energy              =   -2415.33728705 Ry
     estimated scf accuracy    <    6283.82172768 Ry

     iteration #  2     ecut=    29.40 Ry     beta= 0.05
     Davidson diagonalization with overlap
     ethr =  1.00E-02,  avg # of iterations = 22.7

[...]

     iteration # 42     ecut=    29.40 Ry     beta= 0.05
     Davidson diagonalization with overlap
     c_bands:  1 eigenvalues not converged
     ethr =  1.97E-07,  avg # of iterations =  7.7

[...]

     total energy              =   -2972.73804835 Ry
     estimated scf accuracy    <       0.00000013 Ry

     iteration # 64     ecut=    29.40 Ry     beta= 0.05
     Davidson diagonalization with overlap
     ethr =  3.29E-11,  avg # of iterations =  6.0

     negative rho (up, down):  1.529E-02 0.000E+00

     Adding external electric field

     Computed dipole along edir(3) :
        Dipole                0.6715 Ry au,          1.7067 Debye
        Dipole field          0.0013 Ry au,

        Potential amp.       -0.1175 Ry
        Total length         46.3494 bohr

     End of self-consistent calculation

          k = 0.0000 0.0000 0.0000 ( 18029 PWs)   bands (ev):

   -56.1292 -56.0954 -55.6604 -55.6265 -55.5675 -55.5338 -55.5332 -55.4983
   -55.4068 -55.3628 -55.3223 -55.2495 -54.9428 -54.9088 -54.8429 -54.8037
   -32.5805 -32.4202 -32.3926 -32.2896 -32.2043 -32.1967 -32.1277 -32.0667
   -32.0538 -31.9033 -31.8764 -31.8693 -31.8361 -31.8281 -31.8247 -31.7908
   -31.7772 -31.7677 -31.7631 -31.7625 -31.7569 -31.7207 -31.7132 -31.7040
   -31.6789 -31.6623 -31.6546 -31.6365 -31.6182 -31.5911 -31.5328 -31.5307
   -31.5008 -31.4745 -31.4419 -31.4091 -31.3751 -31.3426 -31.2720 -31.2486
   -31.1602 -31.0908 -31.0750 -31.0562 -31.0402 -31.0172 -30.9637 -30.9303
   -18.6733 -17.3688 -16.4457 -16.2185 -15.9861 -15.7468 -15.6849 -15.5851
   -15.5744 -15.5540 -15.4537 -15.4243 -15.3763 -15.2647 -15.1978 -15.1671
   -15.1018 -15.0996 -15.0663 -14.9689 -14.9531 -14.9417 -14.9271 -14.8491
   -14.8222 -14.7892 -14.6860 -14.6241 -14.5461 -14.5278 -14.2209 -13.4428
   -13.3296 -11.6426  -6.5581  -6.4365  -4.4032  -3.9485  -3.9081  -3.7213
    -3.5547  -3.4535  -3.3281  -3.3018  -3.1833  -3.0684  -2.9445  -2.8874
    -2.8544  -2.8132  -2.7769  -2.7584  -2.6400  -2.6027  -2.5572  -2.5334
    -2.5005  -2.4223  -2.4189  -2.3676  -2.3072  -2.2738  -2.1747  -2.1404
    -2.0980  -2.0757  -2.0593  -2.0104  -1.9816  -1.9625  -1.9429  -1.9295
    -1.8851  -1.7910  -1.7474  -1.6526  -1.5920  -1.5050  -1.4487  -1.4483
    -1.3667  -1.2764  -1.1667  -1.1492  -1.0738  -1.0328  -0.9971  -0.9646
    -0.8839  -0.8755  -0.8055  -0.7627  -0.7023  -0.6431  -0.6123  -0.5982
    -0.5712  -0.4701  -0.4193  -0.3364  -0.2829  -0.2304  -0.2030  -0.1205
    -0.0875  -0.0556  -0.0279   0.0298   0.0672   0.0886   0.1087   0.1322
     0.1697   0.1956   0.3128   0.3633   0.3778   0.4144   0.4422   0.5504
     0.6099   0.6800   0.7402   0.7840   0.8815   0.9008   0.9451   1.0645
     1.0796   1.0862   1.1499   1.2979   1.6240   1.6375   1.6784   1.7643
     2.9414   3.1002   3.2176   3.4434   3.5372   3.5768   3.8524   3.9641
     3.9849   4.0199   4.0293

[...]

          k = 0.0380-0.0419 0.0000 ( 17876 PWs)   bands (ev):

[...]

          k =-0.0760-0.0000 0.0000 ( 17886 PWs)   bands (ev):

[...]

          k =-0.0760-0.0839 0.0000 ( 17948 PWs)   bands (ev):

   -56.1123 -56.1122 -55.6456 -55.6411 -55.5534 -55.5473 -55.5175 -55.5144
   -55.4048 -55.3529 -55.3321 -55.2513 -54.9259 -54.9256 -54.8328 -54.8137
   -32.4059 -32.4055 -32.3964 -32.3963 -32.2414 -32.2412 -31.9523 -31.9470
   -31.8970 -31.8936 -31.8862 -31.8635 -31.8360 -31.8311 -31.8121 -31.8108
   -31.7901 -31.7876 -31.7682 -31.7624 -31.7521 -31.7478 -31.7440 -31.7381
   -31.6980 -31.6642 -31.6551 -31.6520 -31.6212 -31.6113 -31.5794 -31.5655
   -31.5533 -31.5217 -31.5070 -31.4502 -31.2616 -31.2613 -31.2550 -31.1567
   -31.1564 -31.1412 -31.1178 -31.1176 -31.0495 -31.0365 -31.0284 -31.0109
   -18.6723 -17.3626 -15.8214 -15.8161 -15.7453 -15.7435 -15.6678 -15.6074
   -15.5142 -15.5105 -15.4608 -15.3701 -15.2915 -15.2740 -15.2037 -15.1982
   -15.1955 -15.1866 -15.1214 -15.1105 -15.0639 -15.0416 -15.0191 -15.0126
   -14.9820 -14.9605 -14.7490 -14.6922 -14.6303 -14.5557 -14.3948 -13.4323
   -13.4322 -11.6480  -6.5464  -6.4378  -4.3572  -3.8977  -3.1237  -3.0128
    -2.9403  -2.9294  -2.8994  -2.8082  -2.7464  -2.7285  -2.7080  -2.6898
    -2.6157  -2.6071  -2.5555  -2.5499  -2.5120  -2.4977  -2.4420  -2.4291
    -2.4209  -2.4143  -2.3660  -2.3282  -2.3232  -2.3124  -2.2842  -2.2139
    -2.1527  -2.1138  -2.0812  -2.0795  -2.0751  -2.0044  -1.9783  -1.9444
    -1.9043  -1.8991  -1.8610  -1.8106  -1.6768  -1.6657  -1.5311  -1.4726
    -1.4525  -1.3620  -1.3214  -1.2887  -1.2099  -1.1690  -1.1377  -1.0254
    -1.0028  -0.9756  -0.9553  -0.9332  -0.9241  -0.8758  -0.7670  -0.7444
    -0.7117  -0.7041  -0.6247  -0.5958  -0.5490  -0.5302  -0.5126  -0.4696
    -0.4479  -0.3649  -0.3423  -0.2866  -0.2360  -0.1934  -0.1450  -0.0891
     0.0070   0.0615   0.1154   0.1956   0.2055   0.2203   0.4154   0.4209
     0.5293   0.6120   0.7402   0.7655   0.7800   0.8860   0.9259   0.9499
     0.9786   1.1376   1.1784   1.4639   1.4656   1.4946   1.4949   1.7129
     2.8796   3.6346   3.6347   3.6717   3.6730   3.9128   3.9140   3.9653
     3.9730   4.0307   4.0552

     the Fermi energy is     3.0408 ev

!    total energy              =   -2972.73808632 Ry
     estimated scf accuracy    <       0.00000007 Ry
     smearing contrib. (-TS)   =      -0.01251918 Ry
     internal energy E=F+TS    =   -2972.72556714 Ry

     The total energy is F=E-TS. E is the sum of the following terms:
     one-electron contribution =  -24073.87922120 Ry
     hartree contribution      =   12130.59155709 Ry
     xc contribution           =    -493.17114406 Ry
     ewald contribution        =    9463.73239015 Ry
     electric field correction =       0.00085088 Ry

     convergence has been achieved in  64 iterations

     Forces acting on atoms (cartesian axes, Ry/au):

     atom    1 type  1   force =     0.00012960   -0.00029972    0.10907195
     atom    2 type  1   force =    -0.00011768   -0.00041983   -0.16759331
     atom    3 type  2   force =    -0.00015462   -0.00001242   -0.04423153
     atom    4 type  2   force =     0.00004868   -0.00074148    0.03907867
     atom    5 type  2   force =    -0.01327590    0.00017579   -0.00467790
     atom    6 type  2   force =     0.01487260    0.00104641   -0.00549990
     atom    7 type  1   force =    -0.00093419   -0.00253688    0.01218836
     atom    8 type  1   force =     0.00125639    0.00154391    0.07797154
     atom    9 type  2   force =    -0.00006715   -0.00015410   -0.00059724
     atom   10 type  2   force =    -0.00117258    0.00039144   -0.05179295
     atom   11 type  2   force =    -0.00005518    0.00036074   -0.00006926
     atom   12 type  2   force =    -0.00005885    0.00024208   -0.00010388
     atom   13 type  1   force =     0.00045257    0.00000543    0.00103809
     atom   14 type  1   force =    -0.00023107   -0.00009093    0.00060214
     atom   15 type  2   force =    -0.00017032   -0.00033444   -0.00087116
     atom   16 type  2   force =     0.00015867    0.00002217   -0.00048179
     atom   17 type  2   force =    -0.00104204    0.00022533   -0.00023624
     atom   18 type  2   force =     0.00074432    0.00008743   -0.00032746
     atom   19 type  1   force =     0.00029744   -0.00018042    0.00048122
     atom   20 type  1   force =    -0.00011189   -0.00035247   -0.00111446
     atom   21 type  2   force =     0.00007888    0.00005527    0.10120876
     atom   22 type  2   force =    -0.00017749    0.00003315    0.00010990
     atom   23 type  2   force =    -0.07516538   -0.00002586   -0.03021338
     atom   24 type  2   force =     0.07513730    0.00042918   -0.03020900
     atom   25 type  1   force =     0.00021267   -0.00029511    0.10870236
     atom   26 type  1   force =    -0.00009834   -0.00044383   -0.16760273
     atom   27 type  2   force =    -0.00002134   -0.00025772   -0.04323144
     atom   28 type  2   force =     0.00011487   -0.00046272    0.03843839
     atom   29 type  2   force =    -0.01359641    0.00095554   -0.00490894
     atom   30 type  2   force =     0.01512858    0.00121664   -0.00578211
     atom   31 type  1   force =    -0.00126142    0.00049077    0.00787541
     atom   32 type  1   force =     0.00133932   -0.00408896    0.07841875
     atom   33 type  2   force =    -0.00006924    0.00011692   -0.00062686
     atom   34 type  2   force =    -0.00139531    0.00034890   -0.05785166
     atom   35 type  2   force =     0.00001422   -0.00049769   -0.00020853
     atom   36 type  2   force =    -0.00041614   -0.00022640   -0.00030816
     atom   37 type  1   force =    -0.00005580   -0.00002434    0.00081531
     atom   38 type  1   force =    -0.00017747    0.00022273    0.00032626
     atom   39 type  2   force =     0.00000820    0.00003108   -0.00191534
     atom   40 type  2   force =     0.00000075    0.00028981   -0.00018132
     atom   41 type  2   force =    -0.00030569    0.00001894   -0.00002125
     atom   42 type  2   force =     0.00005205    0.00024584   -0.00024572
     atom   43 type  1   force =     0.00022533    0.00078606    0.00036074
     atom   44 type  1   force =    -0.00005816    0.00039343   -0.00014621
     atom   45 type  2   force =     0.00007058    0.00003644    0.10117509
     atom   46 type  2   force =    -0.07515347    0.00004081   -0.03017257
     atom   47 type  2   force =     0.07512984    0.00047517   -0.03018428
     atom   48 type  3   force =    -0.00202213   -0.00017791   -0.00857981
     atom   49 type  3   force =     0.00327423    0.00110681    0.01644368
     atom   50 type  4   force =    -0.00109824   -0.00008798   -0.00443120
     atom   51 type  5   force =    -0.00001491    0.00067165    0.00010471
     atom   52 type  5   force =     0.00000922   -0.00027639    0.00008391
     atom   53 type  2   force =     0.00044558    0.00053597    0.00047128
     atom   54 type  5   force =    -0.00084042   -0.00088294   -0.00025319
     atom   55 type  5   force =     0.00011689    0.00026870   -0.00029571

     Total force =     0.391489     Total SCF correction =     0.000547
  @ DRIVER MODE: Message from server: STATUS
  @ DRIVER MODE: Message from server: GETFORCE
  @ DRIVER MODE: Returning v,forces,stress,ensemble

     Writing output data file ./calc.save/
  @ DRIVER MODE: Message from server: EXIT
  @ DRIVE MODE: Exiting

     General routines

     Parallel routines

   This run was terminated on:  19:16:34  15Sep2021

   JOB DONE.