     Program PWSCF v.6.7GPU starts on 16Sep2021 at  2:28: 5

     R & G space division:  proc/nbgrp/npool/nimage =      10
     Reading input from /storage/home/hcoda1/3/ntian30/research/carbon/CxH_vib/H2O_calc/ads_slab/CHOHH2O_a/out_0032/pw.inp
Warning: card &CELL ignored
Warning: card   CELL_DYNAMICS='IPI', ignored
Warning: card / ignored

     Current dimensions of program PWSCF are:
     Max number of different atomic species (ntypx) = 10
     Max number of k-points (npk) =  40000
     Max angular momentum in pseudopotentials (lmaxx) =  3
     Presently no symmetry can be used with electric field

     Message from routine cell_base_init:
     DEPRECATED: use true lattice parameter, not A to a.u. conversion factor

     IMPORTANT: XC functional enforced from input :
     Exchange-correlation= BEEF-VDW
                           (   1   4  43  14   2   0   0)
     Any further DFT definition will be discarded
     Please, verify this is what you really want

  @ DRIVER MODE: Connecting to
 qe_1139763_2852632.sched-torque.pace.gatech.edu1r4o6bls_scratch
  using UNIX socket
  @ DRIVER MODE: Message from server: STATUS
  @ DRIVER MODE: Message from server: INIT
  @ DRIVER MODE: Receiving replica           0          -1
  @ DRIVER MODE: Receiving encoded integer          25
  @ DRIVER MODE:  SCF:  T  FORCE:  T  STRESS:  F  VC:  F  ENSEMBLE:  F
  @ DRIVER MODE:  SCF:  T  FORCE:  T  STRESS:  F  VC:  F  ENSEMBLE:  F

     Using Slab Decomposition

     bravais-lattice index     =            0
     lattice parameter (alat)  =       1.8897  a.u.
     unit-cell volume          =    6658.9804 (a.u.)^3
     number of atoms/cell      =           54
     number of atomic types    =            4
     number of electrons       =       398.00
     number of Kohn-Sham states=          209
     kinetic-energy cutoff     =      29.3995  Ry
     charge density cutoff     =     293.9946  Ry
     scf convergence threshold =      7.3E-08
     mixing beta               =       0.0500
     number of iterations used =            8  plain     mixing
     Exchange-correlation= BEEF-VDW
                           (   1   4  43  14   2   0   0)

     celldm(1)=   1.889726  celldm(2)=   0.000000  celldm(3)=   0.000000
     celldm(4)=   0.000000  celldm(5)=   0.000000  celldm(6)=   0.000000

     crystal axes: (cart. coord. in units of alat)
               a(1) = (   6.579727   0.000000   0.000000 )
               a(2) = (  -0.000775   5.961596   0.000000 )
               a(3) = (   0.000000   0.000000  25.155947 )

     reciprocal axes: (cart. coord. in units 2 pi/alat)
               b(1) = (  0.151982  0.000020  0.000000 )
               b(2) = (  0.000000  0.167740  0.000000 )
               b(3) = (  0.000000  0.000000  0.039752 )

     PseudoPot. # 1 for Ti read from file:
     /storage/coda1/p-amedford6/0/shared/rich_project_chbe-medford/medford-share/data/pseudos_module/espresso/nninc/pbe/van/Ti.UPF
     MD5 check sum: 8e4df49b7f0d34bbd5052bf3f5ea0213
     Pseudo is Ultrasoft, Zval = 12.0
     Generated by new atomic code, or converted to UPF format
     Using radial grid of  851 points,  6 beta functions with:
                l(1) =   0
                l(2) =   0
                l(3) =   1
                l(4) =   1
                l(5) =   2
                l(6) =   2
     Q(r) pseudized with  8 coefficients,  rinner =    1.000   1.000   1.000
                                                       1.000   1.000

     PseudoPot. # 2 for O  read from file:
     /storage/coda1/p-amedford6/0/shared/rich_project_chbe-medford/medford-share/data/pseudos_module/espresso/nninc/pbe/van/O.UPF
     MD5 check sum: 78c19812648e8988a0fe644b0f25305e
     Pseudo is Ultrasoft, Zval =  6.0
     Generated by new atomic code, or converted to UPF format
     Using radial grid of  737 points,  4 beta functions with:
                l(1) =   0
                l(2) =   0
                l(3) =   1
                l(4) =   1
     Q(r) pseudized with  8 coefficients,  rinner =    0.800   0.800   0.800

     PseudoPot. # 3 for C  read from file:
     /storage/coda1/p-amedford6/0/shared/rich_project_chbe-medford/medford-share/data/pseudos_module/espresso/nninc/pbe/van/C.UPF
     MD5 check sum: 1a69bf6b8db32088f5b2163dbdb77a27
     Pseudo is Ultrasoft, Zval =  4.0
     Generated by new atomic code, or converted to UPF format
     Using radial grid of  721 points,  4 beta functions with:
                l(1) =   0
                l(2) =   0
                l(3) =   1
                l(4) =   1
     Q(r) pseudized with  8 coefficients,  rinner =    0.800   0.800   0.800

     PseudoPot. # 4 for H  read from file:
     /storage/coda1/p-amedford6/0/shared/rich_project_chbe-medford/medford-share/data/pseudos_module/espresso/nninc/pbe/van/H.UPF
     MD5 check sum: b5ee9d7bfd3a09ee7748110bda690ff7
     Pseudo is Ultrasoft, Zval =  1.0
     Generated by new atomic code, or converted to UPF format
     Using radial grid of  615 points,  1 beta functions with:
                l(1) =   0
     Q(r) pseudized with  8 coefficients,  rinner =    0.800

     atomic species   valence    mass     pseudopotential
        Ti1           12.00    47.86700     Ti( 1.00)
        O1             6.00    15.99900     O ( 1.00)
        C1             4.00    12.01100     C ( 1.00)
        H1             1.00     1.00800     H ( 1.00)

     No symmetry found

   Cartesian axes

     site n.     atom                  positions (alat units)
         1           Ti1 tau(   1) = (   0.0004258   2.9801865   6.0000000  )
         2           Ti1 tau(   2) = (   3.2906075   1.4906267   6.0002472  )
         3           O1  tau(   3) = (   0.0006271   0.0005054   7.9858123  )
         4           O1  tau(   4) = (   3.2906025   0.0005020   7.3038282  )
         5           O1  tau(   5) = (   4.5942328   1.4918067   9.2879030  )
         6           O1  tau(   6) = (   1.9868534   1.4903216   9.2879459  )
         7           Ti1 tau(   7) = (   3.3203992   3.0065636   9.1614972  )
         8           Ti1 tau(   8) = (   0.0364112   1.5055733   9.2692997  )
         9           O1  tau(   9) = (   3.3037507   0.0048223  11.3846665  )
        10           O1  tau(  10) = (   0.0023770   0.0017864  10.5989407  )
        11           O1  tau(  11) = (   1.2986710   1.4943985  12.6419360  )
        12           O1  tau(  12) = (   5.3019195   1.4930987  12.6558330  )
        13           Ti1 tau(  13) = (   0.0201679   2.9954199  12.5459836  )
        14           Ti1 tau(  14) = (   3.3085843   1.4996073  12.5278567  )
        15           O1  tau(  15) = (   0.0306707   0.0063333  14.6434371  )
        16           O1  tau(  16) = (   3.2901280   5.9588824  14.0411263  )
        17           O1  tau(  17) = (   4.5937705   1.5245028  16.1210063  )
        18           O1  tau(  18) = (   2.0412355   1.5396885  16.1535958  )
        19           Ti1 tau(  19) = (   3.3250740   2.9785215  15.7238461  )
        20           Ti1 tau(  20) = (   0.0142243   1.3716099  15.9029131  )
        21           O1  tau(  21) = (   3.2904802   0.0005063   4.7018136  )
        22           O1  tau(  22) = (   0.0234726   5.9563001  17.1693433  )
        23           O1  tau(  23) = (   1.3043587   1.4918075   6.0039043  )
        24           O1  tau(  24) = (   5.2767064   1.4903225   6.0039473  )
        25           Ti1 tau(  25) = (   0.0000382   5.9609847   6.0000000  )
        26           Ti1 tau(  26) = (   3.2902200   4.4714249   6.0002472  )
        27           O1  tau(  27) = (   0.0002396   2.9813036   7.9858123  )
        28           O1  tau(  28) = (   3.2902150   2.9813002   7.3038282  )
        29           O1  tau(  29) = (   4.5938453   4.4726049   9.2879030  )
        30           O1  tau(  30) = (   1.9864658   4.4711199   9.2879459  )
        31           Ti1 tau(  31) = (   3.3166040   0.0254347   9.1556988  )
        32           Ti1 tau(  32) = (   0.0362352   4.4699824   9.2670842  )
        33           O1  tau(  33) = (   3.3035804   2.9865095  11.3763011  )
        34           O1  tau(  34) = (   0.0042610   2.9829788  10.6236548  )
        35           O1  tau(  35) = (   1.2977823   4.4749822  12.6434080  )
        36           O1  tau(  36) = (   5.3021498   4.4756442  12.6578133  )
        37           Ti1 tau(  37) = (   0.0128731   0.0155586  12.4748574  )
        38           Ti1 tau(  38) = (   3.3087006   4.4877506  12.5360639  )
        39           O1  tau(  39) = (   0.0289868   2.9802581  14.8446641  )
        40           O1  tau(  40) = (   3.2975897   2.9808645  13.9396156  )
        41           O1  tau(  41) = (   4.5936103   4.4348319  16.1149158  )
        42           O1  tau(  42) = (   2.0365336   4.4144103  16.1518429  )
        43           Ti1 tau(  43) = (   3.2980932   5.9591119  15.8729608  )
        44           Ti1 tau(  44) = (   0.0070259   4.5936845  15.8821292  )
        45           O1  tau(  45) = (   3.2900926   2.9813045   4.7018136  )
        46           O1  tau(  46) = (   1.3039711   4.4726057   6.0039043  )
        47           O1  tau(  47) = (   5.2763189   4.4711207   6.0039473  )
        48           C1  tau(  48) = (   6.0563806   2.9601134  19.0478501  )
        49           O1  tau(  49) = (   0.1703025   2.9720528  17.8813388  )
        50           H1  tau(  50) = (   5.0099104   2.8626262  18.6876999  )
        51           H1  tau(  51) = (   1.1251272   3.0566160  18.0647747  )
        52           O1  tau(  52) = (   3.2803433   5.9178330  18.2983259  )
        53           H1  tau(  53) = (   4.0649949   5.9397654  18.8787675  )
        54           H1  tau(  54) = (   2.4787048   0.0262026  18.8357284  )

     number of k points=    10  Fermi-Dirac smearing, width (Ry)=  0.0073
                       cart. coord. in units 2pi/alat
        k(    1) = (   0.0000000   0.0000000   0.0000000), wk =   0.1250000
        k(    2) = (   0.0000000   0.0419351   0.0000000), wk =   0.2500000
        k(    3) = (   0.0000000  -0.0838702   0.0000000), wk =   0.1250000
        k(    4) = (   0.0379955   0.0000049   0.0000000), wk =   0.2500000
        k(    5) = (   0.0379955   0.0419400   0.0000000), wk =   0.2500000
        k(    6) = (   0.0379955  -0.0838652   0.0000000), wk =   0.2500000
        k(    7) = (   0.0379955  -0.0419301   0.0000000), wk =   0.2500000
        k(    8) = (  -0.0759910  -0.0000099   0.0000000), wk =   0.1250000
        k(    9) = (  -0.0759910   0.0419252   0.0000000), wk =   0.2500000
        k(   10) = (  -0.0759910  -0.0838800   0.0000000), wk =   0.1250000

     Initial potential from superposition of free atoms

     starting charge  381.99917, renormalised to  398.00000

     negative rho (up, down):  1.670E-02 0.000E+00

     %%%%%%%%%%%%%%%%%%%%%%%%%%%%%%%%%%%%%%%%%%%%%%%%%%%%%%%%%%%%%%%%%%%%%%%%
     %                                                                      %
     % You are using vdW-DF, which was implemented by the Thonhauser group. %
     % Please cite the following two papers that made this development      %
     % possible and the two reviews that describe the various versions:     %
     %                                                                      %
     %   T. Thonhauser et al., PRL 115, 136402 (2015).                      %
     %   T. Thonhauser et al., PRB 76, 125112 (2007).                       %
     %   K. Berland et al., Rep. Prog. Phys. 78, 066501 (2015).             %
     %   D.C. Langreth et al., J. Phys.: Condens. Matter 21, 084203 (2009). %
     %                                                                      %
     %                                                                      %
     % If you are calculating the stress with vdW-DF, please also cite:     %
     %                                                                      %
     %   R. Sabatini et al., J. Phys.: Condens. Matter 24, 424209 (2012).   %
     %                                                                      %
     %%%%%%%%%%%%%%%%%%%%%%%%%%%%%%%%%%%%%%%%%%%%%%%%%%%%%%%%%%%%%%%%%%%%%%%%

     Adding external electric field

     Computed dipole along edir(3) :
        Dipole              -10.5131 Ry au,        -26.7216 Debye
        Dipole field         -0.0198 Ry au,

        Potential amp.        1.8391 Ry
        Total length         46.3494 bohr

     Starting wfcs are  300 atomic wfcs
  @ DRIVER MODE: Message from server: STATUS
  @ DRIVER MODE: Message from server: POSDATA
  @ DRIVER MODE: Reading and sharing cell
  @ DRIVER MODE: Reading and sharing positions
  @ DRIVER MODE: Received positions

     Self-consistent Calculation

     iteration #  1     ecut=    29.40 Ry     beta= 0.05
     Davidson diagonalization with overlap
     c_bands:  2 eigenvalues not converged
     c_bands:  3 eigenvalues not converged
     c_bands:  1 eigenvalues not converged
     c_bands:  4 eigenvalues not converged
     c_bands:  4 eigenvalues not converged
     c_bands:  4 eigenvalues not converged
     c_bands:  1 eigenvalues not converged
     c_bands:  3 eigenvalues not converged
     c_bands:  4 eigenvalues not converged
     ethr =  1.00E-05,  avg # of iterations = 19.9

[...]

     total energy              =   -2479.44820696 Ry
     estimated scf accuracy    <    5441.08461517 Ry

     iteration #  2     ecut=    29.40 Ry     beta= 0.05
     Davidson diagonalization with overlap
     ethr =  1.00E-02,  avg # of iterations = 25.5

[...]

     iteration # 74     ecut=    29.40 Ry     beta= 0.05
     Davidson diagonalization with overlap
     c_bands:  1 eigenvalues not converged
     ethr =  1.77E-10,  avg # of iterations = 14.5

[...]

     total energy              =   -2964.77936738 Ry
     estimated scf accuracy    <       0.00000015 Ry

     iteration # 76     ecut=    29.40 Ry     beta= 0.05
     Davidson diagonalization with overlap
     ethr =  3.59E-11,  avg # of iterations =  8.7

     negative rho (up, down):  1.518E-02 0.000E+00

     Adding external electric field

     Computed dipole along edir(3) :
        Dipole                0.7102 Ry au,          1.8053 Debye
        Dipole field          0.0013 Ry au,

        Potential amp.       -0.1242 Ry
        Total length         46.3494 bohr

     End of self-consistent calculation

          k = 0.0000 0.0000 0.0000 ( 18029 PWs)   bands (ev):

   -55.7053 -55.6923 -55.6690 -55.6667 -55.6579 -55.6067 -55.5555 -55.5539
   -55.5415 -55.5211 -55.5083 -55.4869 -55.4860 -55.4744 -54.7730 -54.7389
   -32.2658 -32.1864 -32.1831 -32.0880 -32.0508 -32.0311 -32.0199 -32.0096
   -31.9813 -31.9457 -31.9360 -31.9210 -31.8966 -31.8895 -31.8824 -31.8632
   -31.8460 -31.8453 -31.8420 -31.8346 -31.8186 -31.8074 -31.8074 -31.7977
   -31.7959 -31.7804 -31.7775 -31.7494 -31.7373 -31.7236 -31.7123 -31.7113
   -31.7064 -31.7021 -31.6959 -31.6879 -31.6556 -31.6542 -31.6492 -31.6455
   -31.6191 -31.5629 -31.1847 -31.0832 -31.0616 -31.0009 -30.9146 -30.8036
   -21.1368 -19.2076 -16.5240 -16.2819 -16.1392 -16.0358 -15.9312 -15.7987
   -15.7119 -15.5884 -15.5252 -15.3983 -15.3589 -15.3531 -15.3469 -15.3184
   -15.2968 -15.2743 -15.2503 -15.2095 -15.2051 -15.2014 -15.1724 -15.1604
   -15.1027 -15.0900 -15.0456 -14.9280 -14.8766 -14.8155 -14.4975 -13.2739
   -13.1547 -10.3409  -7.1930  -5.7012  -4.7259  -4.0158  -3.9285  -3.8076
    -3.7178  -3.6493  -3.6116  -3.5401  -3.4639  -3.2613  -3.1309  -3.1230
    -2.9903  -2.9535  -2.9090  -2.8074  -2.7419  -2.6797  -2.6695  -2.5934
    -2.5896  -2.5815  -2.5682  -2.4755  -2.4692  -2.4207  -2.3796  -2.3006
    -2.2649  -2.1476  -2.1167  -2.1080  -2.0643  -2.0486  -2.0419  -2.0293
    -1.9796  -1.9538  -1.9357  -1.9345  -1.7928  -1.7509  -1.6043  -1.4800
    -1.4470  -1.4324  -1.2940  -1.2669  -1.2505  -1.1929  -1.1724  -1.1625
    -1.1236  -1.0426  -0.9595  -0.9344  -0.8632  -0.8202  -0.7161  -0.6219
    -0.5773  -0.5276  -0.5061  -0.4968  -0.4775  -0.4121  -0.3648  -0.2781
    -0.2242  -0.1609  -0.1340  -0.1275  -0.0730  -0.0428   0.0374   0.0840
     0.1184   0.1327   0.2183   0.2326   0.2454   0.2767   0.2791   0.3921
     0.4459   0.5033   0.5095   0.6580   0.8249   0.8502   0.9297   1.1441
     1.2525   1.2549   1.4158   1.4739   1.8375   1.8918   3.3822   3.4524
     3.4869   3.5011   3.5104   3.5881   3.8184   3.8702   3.9017   3.9205
     3.9301

[...]

          k = 0.0380-0.0419 0.0000 ( 17876 PWs)   bands (ev):

[...]

          k =-0.0760-0.0000 0.0000 ( 17886 PWs)   bands (ev):

[...]

          k =-0.0760-0.0839 0.0000 ( 17948 PWs)   bands (ev):

   -55.6897 -55.6844 -55.6772 -55.6729 -55.6650 -55.6004 -55.5602 -55.5400
   -55.5361 -55.5347 -55.4928 -55.4924 -55.4903 -55.4884 -54.7559 -54.7559
   -32.1080 -32.0761 -32.0650 -32.0034 -31.9993 -31.9799 -31.9712 -31.9623
   -31.9600 -31.9355 -31.9343 -31.9096 -31.9003 -31.8719 -31.8583 -31.8566
   -31.8552 -31.8468 -31.8418 -31.8379 -31.8301 -31.8226 -31.8053 -31.8026
   -31.7995 -31.7975 -31.7974 -31.7964 -31.7931 -31.7850 -31.7827 -31.7533
   -31.7385 -31.7382 -31.7228 -31.7138 -31.7119 -31.7065 -31.6812 -31.6764
   -31.6752 -31.6521 -31.0742 -31.0741 -30.9975 -30.9972 -30.9578 -30.9577
   -21.1355 -19.2070 -16.1549 -15.9598 -15.8094 -15.7250 -15.7183 -15.6593
   -15.5790 -15.5378 -15.4919 -15.4801 -15.4700 -15.4354 -15.4261 -15.4146
   -15.3523 -15.3023 -15.2988 -15.2834 -15.2340 -15.2266 -15.2162 -15.2106
   -15.2018 -15.1588 -15.1545 -15.1399 -15.1291 -14.9854 -14.8293 -13.2562
   -13.2554 -10.3442  -7.1905  -5.7043  -4.7047  -3.9452  -3.8461  -3.2351
    -3.2325  -2.9698  -2.9486  -2.8899  -2.8785  -2.8144  -2.7832  -2.7073
    -2.7010  -2.6556  -2.6154  -2.6071  -2.5941  -2.5699  -2.5366  -2.5227
    -2.4812  -2.4714  -2.4456  -2.4409  -2.4221  -2.4061  -2.3812  -2.3753
    -2.3430  -2.3228  -2.3147  -2.3108  -2.2340  -2.1722  -2.0491  -2.0268
    -1.9866  -1.9373  -1.9217  -1.8512  -1.8155  -1.8007  -1.7430  -1.7085
    -1.6813  -1.5088  -1.4969  -1.4765  -1.3854  -1.3528  -1.3370  -1.3105
    -1.2518  -1.2269  -1.2226  -1.1451  -1.0338  -1.0096  -0.9123  -0.8668
    -0.8656  -0.7771  -0.7437  -0.7053  -0.7033  -0.6660  -0.6096  -0.5879
    -0.5308  -0.5240  -0.4770  -0.4570  -0.4335  -0.4025  -0.2296  -0.1745
    -0.1190  -0.0218   0.0068   0.2347   0.2654   0.2727   0.3382   0.3687
     0.4750   0.4965   0.5593   0.5742   0.6754   0.7069   0.7238   0.7286
     0.7750   1.4807   1.6043   1.6069   1.7058   1.7095   3.5316   3.5460
     3.6474   3.6994   3.7367   3.8404   3.8891   3.9213   3.9290   3.9439
     4.0194

     the Fermi energy is     3.4303 ev

!    total energy              =   -2964.77938108 Ry
     estimated scf accuracy    <       0.00000006 Ry
     smearing contrib. (-TS)   =      -0.03744923 Ry
     internal energy E=F+TS    =   -2964.74193185 Ry

     The total energy is F=E-TS. E is the sum of the following terms:
     one-electron contribution =  -24112.30208708 Ry
     hartree contribution      =   12146.36250425 Ry
     xc contribution           =    -490.01315582 Ry
     ewald contribution        =    9491.20985485 Ry
     electric field correction =       0.00095195 Ry

     convergence has been achieved in  76 iterations

     Forces acting on atoms (cartesian axes, Ry/au):

     atom    1 type  1   force =    -0.00035766   -0.00001922    0.09252959
     atom    2 type  1   force =    -0.00033380    0.00121303   -0.18262625
     atom    3 type  2   force =     0.00043633    0.00023529   -0.02457394
     atom    4 type  2   force =     0.00073073    0.00044853    0.05162662
     atom    5 type  2   force =    -0.01465960   -0.00006965    0.00466158
     atom    6 type  2   force =     0.01553197   -0.00055745    0.00541755
     atom    7 type  1   force =    -0.00050706   -0.00016334    0.00009447
     atom    8 type  1   force =     0.00021840    0.00003734    0.00021326
     atom    9 type  2   force =    -0.00018370   -0.00017435   -0.00029043
     atom   10 type  2   force =     0.00005978   -0.00003896    0.00032670
     atom   11 type  2   force =    -0.00030917    0.00020694    0.00003504
     atom   12 type  2   force =     0.00037723    0.00008433   -0.00021027
     atom   13 type  1   force =    -0.00020471   -0.00025358    0.00023178
     atom   14 type  1   force =     0.00013250   -0.00021933   -0.00048194
     atom   15 type  2   force =    -0.00032239    0.00033198   -0.00012618
     atom   16 type  2   force =     0.00008153    0.00001424   -0.00031964
     atom   17 type  2   force =    -0.00008714   -0.00013795    0.00015934
     atom   18 type  2   force =     0.00012792   -0.00007702   -0.00030656
     atom   19 type  1   force =    -0.00098378    0.00006356   -0.00029080
     atom   20 type  1   force =     0.00039012    0.00012912   -0.00002972
     atom   21 type  2   force =    -0.00009603    0.00005760    0.10490196
     atom   22 type  2   force =    -0.00037896   -0.00001499    0.00048003
     atom   23 type  2   force =    -0.06834703    0.00001715   -0.02692105
     atom   24 type  2   force =     0.06804513    0.00045243   -0.02699855
     atom   25 type  1   force =    -0.00030833   -0.00001744    0.09721071
     atom   26 type  1   force =    -0.00030638   -0.00119637   -0.18266972
     atom   27 type  2   force =     0.00034940    0.00023255   -0.02297779
     atom   28 type  2   force =     0.00081723    0.00042616    0.05202574
     atom   29 type  2   force =    -0.01464181    0.00064339    0.00459530
     atom   30 type  2   force =     0.01566253    0.00038817    0.00532371
     atom   31 type  1   force =    -0.00045713   -0.00000347    0.00013120
     atom   32 type  1   force =     0.00021540    0.00007818    0.00019031
     atom   33 type  2   force =    -0.00007325    0.00012861    0.00018995
     atom   34 type  2   force =     0.00001342    0.00001110    0.00016876
     atom   35 type  2   force =    -0.00015073   -0.00030247    0.00012464
     atom   36 type  2   force =     0.00021734   -0.00020508   -0.00010427
     atom   37 type  1   force =    -0.00029506    0.00016629   -0.00046134
     atom   38 type  1   force =     0.00012632    0.00037778   -0.00037111
     atom   39 type  2   force =    -0.00036062   -0.00028053   -0.00019699
     atom   40 type  2   force =     0.00018321   -0.00008400   -0.00005037
     atom   41 type  2   force =    -0.00032525   -0.00011136   -0.00020603
     atom   42 type  2   force =     0.00034821   -0.00016675   -0.00065554
     atom   43 type  1   force =    -0.00094011   -0.00025914    0.00022758
     atom   44 type  1   force =     0.00038057   -0.00069210    0.00002392
     atom   45 type  2   force =    -0.00007379    0.00005380    0.10479652
     atom   46 type  2   force =    -0.06833351   -0.00059433   -0.02691427
     atom   47 type  2   force =     0.06803046   -0.00012793   -0.02698914
     atom   48 type  3   force =    -0.00009363   -0.00009030   -0.00023929
     atom   49 type  2   force =    -0.00009804   -0.00000532   -0.00007631
     atom   50 type  4   force =     0.00016594    0.00018711   -0.00015957
     atom   51 type  4   force =     0.00019156   -0.00008385   -0.00013160
     atom   52 type  2   force =     0.01263502   -0.00094330    0.00791281
     atom   53 type  4   force =    -0.01362464    0.00033973   -0.00867279
     atom   54 type  4   force =     0.00138511    0.00056520    0.00045236

     Total force =     0.369115     Total SCF correction =     0.000641
  @ DRIVER MODE: Message from server: STATUS
  @ DRIVER MODE: Message from server: GETFORCE
  @ DRIVER MODE: Returning v,forces,stress,ensemble

     Writing output data file ./calc.save/
  @ DRIVER MODE: Message from server: EXIT
  @ DRIVE MODE: Exiting

     General routines

     Parallel routines

   This run was terminated on:   2:48:56  16Sep2021

   JOB DONE.