     Program PWSCF v.6.7GPU starts on 18Oct2021 at 21:31:35

     R & G space division:  proc/nbgrp/npool/nimage =       8
     Reading input from /storage/home/hcoda1/3/ntian30/research/carbon/CxH_vib/Thiel_calc/ads_slab/NH2NH2_perslab/out_0023/pw.inp
Warning: card &CELL ignored
Warning: card   CELL_DYNAMICS='IPI', ignored
Warning: card / ignored

     Current dimensions of program PWSCF are:
     Max number of different atomic species (ntypx) = 10
     Max number of k-points (npk) =  40000
     Max angular momentum in pseudopotentials (lmaxx) =  3
     Presently no symmetry can be used with electric field

     Message from routine cell_base_init:
     DEPRECATED: use true lattice parameter, not A to a.u. conversion factor

     IMPORTANT: XC functional enforced from input :
     Exchange-correlation= BEEF-VDW
                           (   1   4  43  14   2   0   0)
     Any further DFT definition will be discarded
     Please, verify this is what you really want

  @ DRIVER MODE: Connecting to
 qe_1139763_3255136.sched-torque.pace.gatech.edutk4a8big_scratch
  using UNIX socket
  @ DRIVER MODE: Message from server: STATUS
  @ DRIVER MODE: Message from server: INIT
  @ DRIVER MODE: Receiving replica           0          -1
  @ DRIVER MODE: Receiving encoded integer          25
  @ DRIVER MODE:  SCF:  T  FORCE:  T  STRESS:  F  VC:  F  ENSEMBLE:  F
  @ DRIVER MODE:  SCF:  T  FORCE:  T  STRESS:  F  VC:  F  ENSEMBLE:  F

     Using Slab Decomposition

     bravais-lattice index     =            0
     lattice parameter (alat)  =       1.8897  a.u.
     unit-cell volume          =    9988.4706 (a.u.)^3
     number of atoms/cell      =           59
     number of atomic types    =            4
     number of electrons       =       440.00
     number of Kohn-Sham states=          230
     kinetic-energy cutoff     =      29.3995  Ry
     charge density cutoff     =     293.9946  Ry
     scf convergence threshold =      7.3E-08
     mixing beta               =       0.0500
     number of iterations used =            8  plain     mixing
     Exchange-correlation= BEEF-VDW
                           (   1   4  43  14   2   0   0)

     celldm(1)=   1.889726  celldm(2)=   0.000000  celldm(3)=   0.000000
     celldm(4)=   0.000000  celldm(5)=   0.000000  celldm(6)=   0.000000

     crystal axes: (cart. coord. in units of alat)
               a(1) = (   6.579727   0.000000   0.000000 )
               a(2) = (  -0.001163   8.942395   0.000000 )
               a(3) = (   0.000000   0.000000  25.155947 )

     reciprocal axes: (cart. coord. in units 2 pi/alat)
               b(1) = (  0.151982  0.000020  0.000000 )
               b(2) = (  0.000000  0.111827  0.000000 )
               b(3) = (  0.000000  0.000000  0.039752 )

     PseudoPot. # 1 for O  read from file:
     /storage/coda1/p-amedford6/0/shared/rich_project_chbe-medford/medford-share/data/pseudos_module/espresso/nninc/pbe/van/O.UPF
     MD5 check sum: 78c19812648e8988a0fe644b0f25305e
     Pseudo is Ultrasoft, Zval =  6.0
     Generated by new atomic code, or converted to UPF format
     Using radial grid of  737 points,  4 beta functions with:
                l(1) =   0
                l(2) =   0
                l(3) =   1
                l(4) =   1
     Q(r) pseudized with  8 coefficients,  rinner =    0.800   0.800   0.800

     PseudoPot. # 2 for Ti read from file:
     /storage/coda1/p-amedford6/0/shared/rich_project_chbe-medford/medford-share/data/pseudos_module/espresso/nninc/pbe/van/Ti.UPF
     MD5 check sum: 8e4df49b7f0d34bbd5052bf3f5ea0213
     Pseudo is Ultrasoft, Zval = 12.0
     Generated by new atomic code, or converted to UPF format
     Using radial grid of  851 points,  6 beta functions with:
                l(1) =   0
                l(2) =   0
                l(3) =   1
                l(4) =   1
                l(5) =   2
                l(6) =   2
     Q(r) pseudized with  8 coefficients,  rinner =    1.000   1.000   1.000
                                                       1.000   1.000

     PseudoPot. # 3 for N  read from file:
     /storage/coda1/p-amedford6/0/shared/rich_project_chbe-medford/medford-share/data/pseudos_module/espresso/nninc/pbe/van/N.UPF
     MD5 check sum: 90d10febe142ad51ac9d5be1deb811c4
     Pseudo is Ultrasoft, Zval =  5.0
     Generated by new atomic code, or converted to UPF format
     Using radial grid of  729 points,  4 beta functions with:
                l(1) =   0
                l(2) =   0
                l(3) =   1
                l(4) =   1
     Q(r) pseudized with  8 coefficients,  rinner =    0.800   0.800   0.800

     PseudoPot. # 4 for H  read from file:
     /storage/coda1/p-amedford6/0/shared/rich_project_chbe-medford/medford-share/data/pseudos_module/espresso/nninc/pbe/van/H.UPF
     MD5 check sum: b5ee9d7bfd3a09ee7748110bda690ff7
     Pseudo is Ultrasoft, Zval =  1.0
     Generated by new atomic code, or converted to UPF format
     Using radial grid of  615 points,  1 beta functions with:
                l(1) =   0
     Q(r) pseudized with  8 coefficients,  rinner =    0.800

     atomic species   valence    mass     pseudopotential
        O1             6.00    15.99900     O ( 1.00)
        Ti1           12.00    47.86700     Ti( 1.00)
        N1             5.00    14.00700     N ( 1.00)
        H1             1.00     1.00800     H ( 1.00)

     No symmetry found

   Cartesian axes

     site n.     atom                  positions (alat units)
         1           O1  tau(   1) = (   0.0007354   0.0005023  10.5931620  )
         2           O1  tau(   2) = (   3.2892726   8.9022636  13.7900476  )
         3           O1  tau(   3) = (  -0.0000012   0.0159539  17.0845323  )
         4           O1  tau(   4) = (   0.0006271   0.0005054   7.9858123  )
         5           O1  tau(   5) = (   3.2903981   0.0001071  11.1466942  )
         6           O1  tau(   6) = (   6.5796972   0.0370899  14.4522764  )
         7           O1  tau(   7) = (   1.9868534   1.4903216   9.2879459  )
         8           O1  tau(   8) = (   5.2071659   1.5879261  12.5336177  )
         9           O1  tau(   9) = (   2.0150580   1.5800225  15.9505780  )
        10           Ti1 tau(  10) = (   0.0007404   1.4906270   9.2895810  )
        11           Ti1 tau(  11) = (   3.2907621   1.2831726  12.4565622  )
        12           Ti1 tau(  12) = (   6.5792216   1.1939559  15.8009323  )
        13           O1  tau(  13) = (   4.5942328   1.4918067   9.2879030  )
        14           O1  tau(  14) = (   1.3733293   1.5875306  12.5337771  )
        15           O1  tau(  15) = (   4.5635363   1.5794237  15.9511286  )
        16           Ti1 tau(  16) = (   3.2902859   2.9801868   9.2893338  )
        17           Ti1 tau(  17) = (   0.0006963   2.7899128  12.4910476  )
        18           Ti1 tau(  18) = (   3.2889055   2.8853182  15.6510148  )
        19           O1  tau(  19) = (   0.0003479   2.9813005  10.5931620  )
        20           O1  tau(  20) = (   3.2901137   2.9323735  13.8075185  )
        21           O1  tau(  21) = (   0.0002396   2.9813036   7.9858123  )
        22           O1  tau(  22) = (   3.2901566   2.9796509  11.1657827  )
        23           O1  tau(  23) = (  -0.0001005   3.0518452  14.6148139  )
        24           O1  tau(  24) = (   1.9864658   4.4711199   9.2879459  )
        25           O1  tau(  25) = (   5.2244327   4.5330399  12.5550231  )
        26           O1  tau(  26) = (   2.0317078   4.4891842  16.0144209  )
        27           Ti1 tau(  27) = (   0.0003529   4.4714252   9.2895810  )
        28           Ti1 tau(  28) = (   3.2908221   4.3047718  12.5439168  )
        29           Ti1 tau(  29) = (   0.0007318   4.2809743  15.9563396  )
        30           O1  tau(  30) = (   4.5938453   4.4726049   9.2879030  )
        31           O1  tau(  31) = (   1.3553747   4.5324408  12.5551093  )
        32           O1  tau(  32) = (   4.5484712   4.4888783  16.0159471  )
        33           Ti1 tau(  33) = (   3.2898983   5.9609850   9.2893338  )
        34           Ti1 tau(  34) = (   0.0004637   5.7541984  12.5654138  )
        35           Ti1 tau(  35) = (   3.2913524   5.8154114  16.2798070  )
        36           O1  tau(  36) = (  -0.0000397   5.9620987  10.5931620  )
        37           O1  tau(  37) = (   3.2897947   5.8994426  13.7907643  )
        38           O1  tau(  38) = (   0.0001798   5.9238570  17.1594641  )
        39           O1  tau(  39) = (  -0.0001480   5.9621018   7.9858123  )
        40           O1  tau(  40) = (   3.2896433   5.9245955  11.1661191  )
        41           O1  tau(  41) = (   0.0000838   5.9808129  14.5563373  )
        42           O1  tau(  42) = (   1.9860782   7.4519181   9.2879459  )
        43           O1  tau(  43) = (   5.2244350   7.5051086  12.5363475  )
        44           O1  tau(  44) = (   2.0177701   7.5673364  15.9764862  )
        45           Ti1 tau(  45) = (  -0.0000347   7.4522234   9.2895810  )
        46           Ti1 tau(  46) = (   3.2896674   7.1828241  12.5854878  )
        47           Ti1 tau(  47) = (   0.0003403   7.2137487  16.0183084  )
        48           O1  tau(  48) = (   4.5934577   7.4534031   9.2879030  )
        49           O1  tau(  49) = (   1.3543201   7.5047529  12.5365769  )
        50           O1  tau(  50) = (   4.5609347   7.5656990  15.9757490  )
        51           Ti1 tau(  51) = (   3.2895107   8.9417832   9.2893338  )
        52           Ti1 tau(  52) = (  -0.0005834   8.7067995  12.4790564  )
        53           Ti1 tau(  53) = (   3.2900135   8.8028796  15.6464995  )
        54           N1  tau(  54) = (   3.2900669   5.9334594  18.1702238  )
        55           H1  tau(  55) = (   3.2900466   5.1481598  18.8081281  )
        56           H1  tau(  56) = (   3.2872703   6.8047138  18.6863891  )
        57           N1  tau(  57) = (   0.0002662   3.1405291  17.5422950  )
        58           H1  tau(  58) = (   0.0007553   2.2326612  18.0099153  )
        59           H1  tau(  59) = (   6.5771877   3.8386968  18.2941669  )

     number of k points=    10  Fermi-Dirac smearing, width (Ry)=  0.0073
                       cart. coord. in units 2pi/alat
        k(    1) = (   0.0000000   0.0000000   0.0000000), wk =   0.1250000
        k(    2) = (   0.0000000   0.0279567   0.0000000), wk =   0.2500000
        k(    3) = (   0.0000000  -0.0559134   0.0000000), wk =   0.1250000
        k(    4) = (   0.0379955   0.0000049   0.0000000), wk =   0.2500000
        k(    5) = (   0.0379955   0.0279617   0.0000000), wk =   0.2500000
        k(    6) = (   0.0379955  -0.0559085   0.0000000), wk =   0.2500000
        k(    7) = (   0.0379955  -0.0279518   0.0000000), wk =   0.2500000
        k(    8) = (  -0.0759910  -0.0000099   0.0000000), wk =   0.1250000
        k(    9) = (  -0.0759910   0.0279468   0.0000000), wk =   0.2500000
        k(   10) = (  -0.0759910  -0.0559233   0.0000000), wk =   0.1250000

     Initial potential from superposition of free atoms

     starting charge  421.99910, renormalised to  440.00000

     negative rho (up, down):  3.742E-02 0.000E+00

     %%%%%%%%%%%%%%%%%%%%%%%%%%%%%%%%%%%%%%%%%%%%%%%%%%%%%%%%%%%%%%%%%%%%%%%%
     %                                                                      %
     % You are using vdW-DF, which was implemented by the Thonhauser group. %
     % Please cite the following two papers that made this development      %
     % possible and the two reviews that describe the various versions:     %
     %                                                                      %
     %   T. Thonhauser et al., PRL 115, 136402 (2015).                      %
     %   T. Thonhauser et al., PRB 76, 125112 (2007).                       %
     %   K. Berland et al., Rep. Prog. Phys. 78, 066501 (2015).             %
     %   D.C. Langreth et al., J. Phys.: Condens. Matter 21, 084203 (2009). %
     %                                                                      %
     %                                                                      %
     % If you are calculating the stress with vdW-DF, please also cite:     %
     %                                                                      %
     %   R. Sabatini et al., J. Phys.: Condens. Matter 24, 424209 (2012).   %
     %                                                                      %
     %%%%%%%%%%%%%%%%%%%%%%%%%%%%%%%%%%%%%%%%%%%%%%%%%%%%%%%%%%%%%%%%%%%%%%%%

     Adding external electric field

     Computed dipole along edir(3) :
        Dipole               -3.9727 Ry au,        -10.0976 Debye
        Dipole field         -0.0050 Ry au,

        Potential amp.        0.4633 Ry
        Total length         46.3494 bohr

     Starting wfcs are  332 atomic wfcs
  @ DRIVER MODE: Message from server: STATUS
  @ DRIVER MODE: Message from server: POSDATA
  @ DRIVER MODE: Reading and sharing cell
  @ DRIVER MODE: Reading and sharing positions
  @ DRIVER MODE: Received positions

     Self-consistent Calculation

     iteration #  1     ecut=    29.40 Ry     beta= 0.05
     Davidson diagonalization with overlap
     c_bands:  1 eigenvalues not converged
     c_bands:  2 eigenvalues not converged
     c_bands:  3 eigenvalues not converged
     c_bands:  4 eigenvalues not converged
     c_bands:  4 eigenvalues not converged
     c_bands:  4 eigenvalues not converged
     c_bands:  3 eigenvalues not converged
     c_bands:  3 eigenvalues not converged
     ethr =  1.00E-05,  avg # of iterations = 19.1

[...]

     total energy              =   -3293.81721453 Ry
     estimated scf accuracy    <      27.92666928 Ry

     iteration #  2     ecut=    29.40 Ry     beta= 0.05
     Davidson diagonalization with overlap
     ethr =  6.35E-03,  avg # of iterations =  1.0

[...]

     iteration # 27     ecut=    29.40 Ry     beta= 0.05
     Davidson diagonalization with overlap
     c_bands:  1 eigenvalues not converged
     ethr =  3.64E-07,  avg # of iterations =  7.8

[...]

     total energy              =   -3293.29540074 Ry
     estimated scf accuracy    <       0.00000008 Ry

     iteration # 52     ecut=    29.40 Ry     beta= 0.05
     Davidson diagonalization with overlap
     ethr =  1.88E-11,  avg # of iterations =  5.0

     negative rho (up, down):  3.609E-02 0.000E+00

     Adding external electric field

     Computed dipole along edir(3) :
        Dipole                0.9594 Ry au,          2.4385 Debye
        Dipole field          0.0012 Ry au,

        Potential amp.       -0.1119 Ry
        Total length         46.3494 bohr

     End of self-consistent calculation

          k = 0.0000 0.0000 0.0000 ( 26871 PWs)   bands (ev):

   -58.4640 -58.4405 -58.4346 -58.3967 -58.3518 -58.0007 -57.9615 -57.9574
   -57.8730 -57.7532 -57.6803 -57.5695 -57.4651 -57.2189 -57.1371 -57.0667
   -57.0266 -57.0137 -34.8646 -34.8292 -34.8020 -34.7856 -34.7823 -34.7759
   -34.7271 -34.6665 -34.6395 -34.5888 -34.5761 -34.5736 -34.5679 -34.5459
   -34.5009 -34.4024 -34.3666 -34.3411 -34.3163 -34.3121 -34.2686 -34.2353
   -34.2240 -34.2181 -34.1839 -34.1815 -34.1478 -34.0505 -34.0393 -33.9809
   -33.9773 -33.9506 -33.8925 -33.8771 -33.8542 -33.8008 -33.7381 -33.7215
   -33.6796 -33.6620 -33.5772 -33.4557 -33.4433 -33.4111 -33.4100 -33.3745
   -33.3686 -33.3642 -33.3495 -33.3389 -33.2706 -33.2061 -33.1850 -33.0650
   -19.0160 -18.5530 -18.4945 -18.3444 -18.2958 -18.2760 -18.2689 -18.1184
   -17.9015 -17.8562 -17.8419 -17.8206 -17.7390 -17.7176 -17.7018 -17.6811
   -17.6648 -17.6439 -17.5558 -17.5512 -17.5287 -17.5055 -17.4842 -17.4297
   -17.3702 -17.3478 -17.2620 -17.1851 -17.1447 -16.9214 -16.6659 -16.5875
   -15.5325 -15.4913 -15.4829 -15.2623 -15.1457  -6.7113  -6.5903  -6.3509
    -6.1565  -5.9442  -5.8096  -5.6908  -5.6375  -5.5560  -5.4900  -5.4526
    -5.4504  -5.3898  -5.3427  -5.2490  -5.2425  -5.1506  -5.1012  -5.0852
    -5.0555  -5.0109  -4.9606  -4.9159  -4.8995  -4.8389  -4.7955  -4.7846
    -4.7362  -4.6741  -4.6703  -4.6527  -4.6485  -4.6127  -4.5893  -4.4588
    -4.4556  -4.4097  -4.3461  -4.2950  -4.2582  -4.2173  -4.1850  -4.1836
    -4.1666  -4.1264  -4.0878  -3.9262  -3.8709  -3.8239  -3.7917  -3.7173
    -3.6473  -3.5891  -3.5555  -3.5129  -3.4216  -3.3536  -3.3453  -3.3374
    -3.2707  -3.2273  -3.1910  -3.1601  -3.1398  -3.0774  -3.0242  -3.0242
    -2.9845  -2.9657  -2.9516  -2.9073  -2.8513  -2.8279  -2.8246  -2.7861
    -2.7796  -2.7372  -2.6403  -2.6102  -2.5498  -2.5116  -2.4564  -2.4088
    -2.4023  -2.3680  -2.3303  -2.2619  -2.1692  -2.1197  -1.9894  -1.9836
    -1.9063  -1.8960  -1.8293  -1.8018  -1.7847  -1.7385  -1.7103  -1.5972
    -1.5209  -1.4035  -1.1883  -0.9841  -0.8550  -0.7591  -0.7446  -0.7006
    -0.5616  -0.5425  -0.4696  -0.4465   0.8119   0.9474   1.1074   1.1252
     1.3249   1.4539   1.4720   1.5146   1.5711   1.7016

[...]

          k = 0.0380-0.0280 0.0000 ( 26873 PWs)   bands (ev):

[...]

          k =-0.0760-0.0000 0.0000 ( 26902 PWs)   bands (ev):

[...]

          k =-0.0760-0.0559 0.0000 ( 26868 PWs)   bands (ev):

   -58.4582 -58.4521 -58.4289 -58.3965 -58.3519 -58.0005 -57.9616 -57.9573
   -57.8729 -57.7534 -57.6802 -57.5695 -57.4650 -57.2190 -57.1370 -57.0654
   -57.0306 -57.0109 -34.8926 -34.8770 -34.8329 -34.8044 -34.7731 -34.6824
   -34.6659 -34.6176 -34.6112 -34.5990 -34.5966 -34.5853 -34.5707 -34.5493
   -34.5480 -34.4307 -34.3744 -34.3530 -34.3393 -34.3190 -34.2503 -34.2182
   -34.2144 -34.1842 -34.1742 -34.1580 -34.1116 -34.0585 -34.0505 -34.0245
   -33.9848 -33.9710 -33.8959 -33.8910 -33.8694 -33.7863 -33.7379 -33.6987
   -33.6722 -33.6526 -33.5648 -33.4758 -33.4460 -33.4460 -33.4127 -33.4110
   -33.3797 -33.3611 -33.3600 -33.2624 -33.2276 -33.1768 -33.1748 -33.1460
   -18.8030 -18.6544 -18.4089 -18.3102 -18.1469 -18.0994 -18.0464 -18.0362
   -18.0305 -17.9350 -17.9174 -17.8740 -17.8676 -17.8165 -17.7920 -17.7813
   -17.7731 -17.7414 -17.6753 -17.6188 -17.5330 -17.4403 -17.4279 -17.4122
   -17.4054 -17.3277 -17.2282 -17.1812 -17.1448 -16.9448 -16.6754 -16.5493
   -15.5443 -15.5311 -15.4216 -15.2573 -15.1465  -6.7036  -6.6048  -6.1149
    -5.9198  -5.8878  -5.8471  -5.5297  -5.4865  -5.3824  -5.3541  -5.3494
    -5.3221  -5.2783  -5.2393  -5.1843  -5.1491  -5.1318  -5.1229  -5.1065
    -5.0785  -5.0303  -5.0064  -4.9633  -4.9580  -4.9426  -4.9146  -4.8901
    -4.8414  -4.8318  -4.7608  -4.7502  -4.7163  -4.5292  -4.4677  -4.4058
    -4.3564  -4.2904  -4.2723  -4.1841  -4.1827  -4.1035  -4.0987  -4.0336
    -3.9721  -3.8866  -3.8063  -3.7970  -3.7743  -3.7467  -3.7135  -3.6812
    -3.6585  -3.6381  -3.5979  -3.5501  -3.5124  -3.4394  -3.4072  -3.4003
    -3.3614  -3.3400  -3.3288  -3.3247  -3.3080  -3.2060  -3.1978  -3.1374
    -3.1039  -3.0974  -3.0271  -3.0224  -2.9709  -2.9451  -2.8752  -2.8406
    -2.8279  -2.7399  -2.7324  -2.7286  -2.6478  -2.6376  -2.5373  -2.5041
    -2.4193  -2.2944  -2.1746  -2.1726  -2.1636  -2.0422  -2.0396  -2.0288
    -1.9843  -1.9206  -1.8977  -1.7134  -1.7107  -1.6654  -1.5958  -1.5736
    -1.5492  -1.5344  -1.4177  -1.3964  -0.9918  -0.7370  -0.6772  -0.6717
    -0.6413  -0.6096  -0.5759  -0.5672   0.8636   1.0240   1.1021   1.1677
     1.1932   1.2369   1.2688   1.4429   1.5057   1.5123

     the Fermi energy is     0.2226 ev

!    total energy              =   -3293.29548856 Ry
     estimated scf accuracy    <       0.00000007 Ry
     smearing contrib. (-TS)   =      -0.00051797 Ry
     internal energy E=F+TS    =   -3293.29497059 Ry

     The total energy is F=E-TS. E is the sum of the following terms:
     one-electron contribution =  -34588.97986352 Ry
     hartree contribution      =   17356.39332168 Ry
     xc contribution           =    -542.07199632 Ry
     ewald contribution        =   14481.36240961 Ry
     electric field correction =       0.00115796 Ry

     convergence has been achieved in  52 iterations

     Forces acting on atoms (cartesian axes, Ry/au):

     atom    1 type  1   force =    -0.00000703    0.00891461    0.04218844
     atom    2 type  1   force =     0.00002257   -0.00249830   -0.00293095
     atom    3 type  1   force =    -0.00003301   -0.00636835   -0.00096191
     atom    4 type  1   force =     0.00004708    0.00395200    0.10169882
     atom    5 type  1   force =     0.00002034   -0.00058251    0.00719309
     atom    6 type  1   force =    -0.00002433    0.00085647    0.00282393
     atom    7 type  1   force =     0.07636454    0.00119405   -0.03508759
     atom    8 type  1   force =     0.00750146   -0.02414278    0.00122240
     atom    9 type  1   force =     0.00799933   -0.02080234    0.00180693
     atom   10 type  2   force =    -0.00004183   -0.00384070   -0.16970812
     atom   11 type  2   force =    -0.00011413    0.02225266   -0.00327788
     atom   12 type  2   force =    -0.00000384    0.02047604   -0.00588047
     atom   13 type  1   force =    -0.07645899    0.00074107   -0.03503860
     atom   14 type  1   force =    -0.00758233   -0.02401810    0.00121589
     atom   15 type  1   force =    -0.00794560   -0.02088558    0.00181585
     atom   16 type  2   force =     0.00009749    0.00207711    0.07524494
     atom   17 type  2   force =     0.00021378    0.02913129    0.00199066
     atom   18 type  2   force =    -0.00009418    0.02421965   -0.00008140
     atom   19 type  1   force =     0.00000448    0.00222735    0.05606617
     atom   20 type  1   force =     0.00000287   -0.00076989   -0.00265727
     atom   21 type  1   force =     0.00004739   -0.00273892    0.10232915
     atom   22 type  1   force =     0.00000905   -0.00166217    0.00634594
     atom   23 type  1   force =    -0.00001732   -0.00400335    0.00135391
     atom   24 type  1   force =     0.07836140   -0.00055813   -0.03676778
     atom   25 type  1   force =     0.00974901   -0.02948986   -0.00098706
     atom   26 type  1   force =     0.01138056   -0.02668276   -0.00656574
     atom   27 type  2   force =    -0.00005562    0.01458162   -0.15611650
     atom   28 type  2   force =    -0.00013622    0.02624957   -0.00050788
     atom   29 type  2   force =     0.00004150    0.02489110    0.00020957
     atom   30 type  1   force =    -0.07845755   -0.00098662   -0.03671705
     atom   31 type  1   force =    -0.00981232   -0.02934487   -0.00098892
     atom   32 type  1   force =    -0.01125301   -0.02674554   -0.00661973
     atom   33 type  2   force =     0.00010230   -0.00383991    0.07805794
     atom   34 type  2   force =     0.00019610    0.03434614    0.00337040
     atom   35 type  2   force =    -0.00011424    0.03136630    0.00648902
     atom   36 type  1   force =     0.00001898    0.00149137    0.05142985
     atom   37 type  1   force =     0.00002300   -0.00165241   -0.00237932
     atom   38 type  1   force =    -0.00002152   -0.00318930    0.00010696
     atom   39 type  1   force =     0.00004843    0.00037225    0.09994872
     atom   40 type  1   force =     0.00001669   -0.00068511    0.00654142
     atom   41 type  1   force =    -0.00002657   -0.00066160    0.00411309
     atom   42 type  1   force =     0.07943942    0.00172338   -0.03465766
     atom   43 type  1   force =     0.00604611   -0.02323957    0.00043223
     atom   44 type  1   force =     0.00714661   -0.02149408    0.00392106
     atom   45 type  2   force =    -0.00005375   -0.01583935   -0.15540250
     atom   46 type  2   force =    -0.00010901    0.01693220    0.00081470
     atom   47 type  2   force =     0.00002976    0.02038379   -0.00105367
     atom   48 type  1   force =    -0.07953288    0.00128300   -0.03460534
     atom   49 type  1   force =    -0.00616140   -0.02312547    0.00042320
     atom   50 type  1   force =    -0.00700873   -0.02152233    0.00391651
     atom   51 type  2   force =     0.00008811   -0.00446983    0.06173885
     atom   52 type  2   force =     0.00020007    0.02906176    0.00059712
     atom   53 type  2   force =    -0.00014716    0.02939445    0.00001275
     atom   54 type  3   force =     0.00001242    0.00162578   -0.00102638
     atom   55 type  4   force =     0.00002809   -0.00040786    0.00023679
     atom   56 type  4   force =    -0.00005460   -0.00009816   -0.00009743
     atom   57 type  3   force =    -0.00003336   -0.00245595    0.01834030
     atom   58 type  4   force =     0.00005934    0.00676924   -0.00517378
     atom   59 type  4   force =    -0.00001775   -0.00771256   -0.00870569

     Total force =     0.439773     Total SCF correction =     0.000668
  @ DRIVER MODE: Message from server: STATUS
  @ DRIVER MODE: Message from server: GETFORCE
  @ DRIVER MODE: Returning v,forces,stress,ensemble

     Writing output data file ./calc.save/
  @ DRIVER MODE: Message from server: EXIT
  @ DRIVE MODE: Exiting

     General routines

     Parallel routines

   This run was terminated on:  21:59:27  18Oct2021

   JOB DONE.