     Program PWSCF v.6.7GPU starts on 26Sep2021 at 18:59:59

     R & G space division:  proc/nbgrp/npool/nimage =       8
     Reading input from /storage/home/hcoda1/3/ntian30/research/carbon/CxH_vib/CH_calc/ads_slab/CHONNHH_a/out_0006/pw.inp
Warning: card &CELL ignored
Warning: card   CELL_DYNAMICS='IPI', ignored
Warning: card / ignored

     Current dimensions of program PWSCF are:
     Max number of different atomic species (ntypx) = 10
     Max number of k-points (npk) =  40000
     Max angular momentum in pseudopotentials (lmaxx) =  3
     Presently no symmetry can be used with electric field

     Message from routine cell_base_init:
     DEPRECATED: use true lattice parameter, not A to a.u. conversion factor

     IMPORTANT: XC functional enforced from input :
     Exchange-correlation= BEEF-VDW
                           (   1   4  43  14   2   0   0)
     Any further DFT definition will be discarded
     Please, verify this is what you really want

  @ DRIVER MODE: Connecting to
 qe_1139763_2985878.sched-torque.pace.gatech.edukof3y_gm_scratch
  using UNIX socket
  @ DRIVER MODE: Message from server: STATUS
  @ DRIVER MODE: Message from server: INIT
  @ DRIVER MODE: Receiving replica           0          -1
  @ DRIVER MODE: Receiving encoded integer          25
  @ DRIVER MODE:  SCF:  T  FORCE:  T  STRESS:  F  VC:  F  ENSEMBLE:  F
  @ DRIVER MODE:  SCF:  T  FORCE:  T  STRESS:  F  VC:  F  ENSEMBLE:  F

     Using Slab Decomposition

     bravais-lattice index     =            0
     lattice parameter (alat)  =       1.8897  a.u.
     unit-cell volume          =    6658.9804 (a.u.)^3
     number of atoms/cell      =           54
     number of atomic types    =            5
     number of electrons       =       401.00
     number of Kohn-Sham states=          210
     kinetic-energy cutoff     =      29.3995  Ry
     charge density cutoff     =     293.9946  Ry
     scf convergence threshold =      7.3E-08
     mixing beta               =       0.0500
     number of iterations used =            8  plain     mixing
     Exchange-correlation= BEEF-VDW
                           (   1   4  43  14   2   0   0)

     celldm(1)=   1.889726  celldm(2)=   0.000000  celldm(3)=   0.000000
     celldm(4)=   0.000000  celldm(5)=   0.000000  celldm(6)=   0.000000

     crystal axes: (cart. coord. in units of alat)
               a(1) = (   6.579727   0.000000   0.000000 )
               a(2) = (  -0.000775   5.961596   0.000000 )
               a(3) = (   0.000000   0.000000  25.155947 )

     reciprocal axes: (cart. coord. in units 2 pi/alat)
               b(1) = (  0.151982  0.000020  0.000000 )
               b(2) = (  0.000000  0.167740  0.000000 )
               b(3) = (  0.000000  0.000000  0.039752 )

     PseudoPot. # 1 for O  read from file:
     /storage/coda1/p-amedford6/0/shared/rich_project_chbe-medford/medford-share/data/pseudos_module/espresso/nninc/pbe/van/O.UPF
     MD5 check sum: 78c19812648e8988a0fe644b0f25305e
     Pseudo is Ultrasoft, Zval =  6.0
     Generated by new atomic code, or converted to UPF format
     Using radial grid of  737 points,  4 beta functions with:
                l(1) =   0
                l(2) =   0
                l(3) =   1
                l(4) =   1
     Q(r) pseudized with  8 coefficients,  rinner =    0.800   0.800   0.800

     PseudoPot. # 2 for Ti read from file:
     /storage/coda1/p-amedford6/0/shared/rich_project_chbe-medford/medford-share/data/pseudos_module/espresso/nninc/pbe/van/Ti.UPF
     MD5 check sum: 8e4df49b7f0d34bbd5052bf3f5ea0213
     Pseudo is Ultrasoft, Zval = 12.0
     Generated by new atomic code, or converted to UPF format
     Using radial grid of  851 points,  6 beta functions with:
                l(1) =   0
                l(2) =   0
                l(3) =   1
                l(4) =   1
                l(5) =   2
                l(6) =   2
     Q(r) pseudized with  8 coefficients,  rinner =    1.000   1.000   1.000
                                                       1.000   1.000

     PseudoPot. # 3 for N  read from file:
     /storage/coda1/p-amedford6/0/shared/rich_project_chbe-medford/medford-share/data/pseudos_module/espresso/nninc/pbe/van/N.UPF
     MD5 check sum: 90d10febe142ad51ac9d5be1deb811c4
     Pseudo is Ultrasoft, Zval =  5.0
     Generated by new atomic code, or converted to UPF format
     Using radial grid of  729 points,  4 beta functions with:
                l(1) =   0
                l(2) =   0
                l(3) =   1
                l(4) =   1
     Q(r) pseudized with  8 coefficients,  rinner =    0.800   0.800   0.800

     PseudoPot. # 4 for H  read from file:
     /storage/coda1/p-amedford6/0/shared/rich_project_chbe-medford/medford-share/data/pseudos_module/espresso/nninc/pbe/van/H.UPF
     MD5 check sum: b5ee9d7bfd3a09ee7748110bda690ff7
     Pseudo is Ultrasoft, Zval =  1.0
     Generated by new atomic code, or converted to UPF format
     Using radial grid of  615 points,  1 beta functions with:
                l(1) =   0
     Q(r) pseudized with  8 coefficients,  rinner =    0.800

     PseudoPot. # 5 for C  read from file:
     /storage/coda1/p-amedford6/0/shared/rich_project_chbe-medford/medford-share/data/pseudos_module/espresso/nninc/pbe/van/C.UPF
     MD5 check sum: 1a69bf6b8db32088f5b2163dbdb77a27
     Pseudo is Ultrasoft, Zval =  4.0
     Generated by new atomic code, or converted to UPF format
     Using radial grid of  721 points,  4 beta functions with:
                l(1) =   0
                l(2) =   0
                l(3) =   1
                l(4) =   1
     Q(r) pseudized with  8 coefficients,  rinner =    0.800   0.800   0.800

     atomic species   valence    mass     pseudopotential
        O1             6.00    15.99900     O ( 1.00)
        Ti1           12.00    47.86700     Ti( 1.00)
        N1             5.00    14.00700     N ( 1.00)
        H1             1.00     1.00800     H ( 1.00)
        C1             4.00    12.01100     C ( 1.00)

     No symmetry found

   Cartesian axes

     site n.     atom                  positions (alat units)
         1           O1  tau(   1) = (   3.2904802   0.0005063   4.7018136  )
         2           O1  tau(   2) = (   3.2900926   2.9813045   4.7018136  )
         3           Ti1 tau(   3) = (   0.0004258   2.9801865   6.0000000  )
         4           Ti1 tau(   4) = (   0.0000382   5.9609847   6.0000000  )
         5           Ti1 tau(   5) = (   3.2906075   1.4906267   6.0002472  )
         6           Ti1 tau(   6) = (   3.2902200   4.4714249   6.0002472  )
         7           O1  tau(   7) = (   1.3043587   1.4918075   6.0039043  )
         8           O1  tau(   8) = (   1.3039711   4.4726057   6.0039043  )
         9           O1  tau(   9) = (   5.2767064   1.4903225   6.0039473  )
        10           O1  tau(  10) = (   5.2763189   4.4711207   6.0039473  )
        11           O1  tau(  11) = (   3.2906025   0.0005020   7.3038282  )
        12           O1  tau(  12) = (   3.2902150   2.9813002   7.3038282  )
        13           O1  tau(  13) = (   0.0006271   0.0005054   7.9858123  )
        14           O1  tau(  14) = (   0.0002396   2.9813036   7.9858123  )
        15           Ti1 tau(  15) = (   3.2907910   2.8959150   9.1758416  )
        16           Ti1 tau(  16) = (   3.2891106   5.8743827   9.1763621  )
        17           Ti1 tau(  17) = (   0.0015273   1.4827037   9.2680791  )
        18           Ti1 tau(  18) = (   0.0006254   4.4649316   9.2693709  )
        19           O1  tau(  19) = (   4.5942328   1.4918067   9.2879030  )
        20           O1  tau(  20) = (   4.5938453   4.4726049   9.2879030  )
        21           O1  tau(  21) = (   1.9868534   1.4903216   9.2879459  )
        22           O1  tau(  22) = (   1.9864658   4.4711199   9.2879459  )
        23           O1  tau(  23) = (   0.0116148   5.9584955  10.6183126  )
        24           O1  tau(  24) = (   0.0092240   2.9805883  10.6323155  )
        25           O1  tau(  25) = (   3.2871924   0.0092975  11.3134720  )
        26           O1  tau(  26) = (   3.2854473   2.9899114  11.3140924  )
        27           Ti1 tau(  27) = (   3.1645864   1.5001695  12.4631195  )
        28           Ti1 tau(  28) = (   3.1630299   4.4806833  12.4603605  )
        29           Ti1 tau(  29) = (   6.4825016   0.0268845  12.6761456  )
        30           O1  tau(  30) = (   5.2927839   4.4803479  12.6175172  )
        31           O1  tau(  31) = (   5.2917030   1.4958386  12.6158568  )
        32           O1  tau(  32) = (   1.3125566   4.4752595  12.6102184  )
        33           O1  tau(  33) = (   1.3147444   1.4884423  12.6074978  )
        34           Ti1 tau(  34) = (   6.4947133   3.0086745  12.6771613  )
        35           O1  tau(  35) = (   3.2927928   3.0034821  13.8909844  )
        36           O1  tau(  36) = (   3.2984538   0.0179784  13.8891953  )
        37           O1  tau(  37) = (   6.5782462   5.9542408  14.6113871  )
        38           O1  tau(  38) = (   0.0063130   2.9565225  14.5996091  )
        39           Ti1 tau(  39) = (   3.2946075   3.0248150  15.6873259  )
        40           Ti1 tau(  40) = (   3.3096140   0.0407809  15.6830396  )
        41           Ti1 tau(  41) = (   0.0052144   1.6347595  16.0230390  )
        42           O1  tau(  42) = (   2.0681981   1.5365669  16.0503333  )
        43           O1  tau(  43) = (   4.5323643   4.5197138  16.0585785  )
        44           O1  tau(  44) = (   2.0637162   4.5219542  16.0519313  )
        45           O1  tau(  45) = (   4.5361195   1.5375365  16.0414673  )
        46           Ti1 tau(  46) = (   0.0121038   4.6470822  16.0779317  )
        47           O1  tau(  47) = (   0.0166110   0.0790660  17.1873875  )
        48           N1  tau(  48) = (   3.1258632   2.7928715  18.8811073  )
        49           H1  tau(  49) = (   5.2135379   2.8994874  18.6379610  )
        50           N1  tau(  50) = (   1.8800116   2.5028027  19.3023652  )
        51           H1  tau(  51) = (   1.1979237   2.7808332  18.5810318  )
        52           C1  tau(  52) = (   4.2825308   2.7641870  19.1985473  )
        53           H1  tau(  53) = (   1.7950530   1.5048916  19.5010168  )
        54           O1  tau(  54) = (   0.0080391   3.0388675  17.2016835  )

     number of k points=    10  Fermi-Dirac smearing, width (Ry)=  0.0073
                       cart. coord. in units 2pi/alat
        k(    1) = (   0.0000000   0.0000000   0.0000000), wk =   0.1250000
        k(    2) = (   0.0000000   0.0419351   0.0000000), wk =   0.2500000
        k(    3) = (   0.0000000  -0.0838702   0.0000000), wk =   0.1250000
        k(    4) = (   0.0379955   0.0000049   0.0000000), wk =   0.2500000
        k(    5) = (   0.0379955   0.0419400   0.0000000), wk =   0.2500000
        k(    6) = (   0.0379955  -0.0838652   0.0000000), wk =   0.2500000
        k(    7) = (   0.0379955  -0.0419301   0.0000000), wk =   0.2500000
        k(    8) = (  -0.0759910  -0.0000099   0.0000000), wk =   0.1250000
        k(    9) = (  -0.0759910   0.0419252   0.0000000), wk =   0.2500000
        k(   10) = (  -0.0759910  -0.0838800   0.0000000), wk =   0.1250000

     Initial potential from superposition of free atoms

     starting charge  384.99916, renormalised to  401.00000

     negative rho (up, down):  1.609E-02 0.000E+00

     %%%%%%%%%%%%%%%%%%%%%%%%%%%%%%%%%%%%%%%%%%%%%%%%%%%%%%%%%%%%%%%%%%%%%%%%
     %                                                                      %
     % You are using vdW-DF, which was implemented by the Thonhauser group. %
     % Please cite the following two papers that made this development      %
     % possible and the two reviews that describe the various versions:     %
     %                                                                      %
     %   T. Thonhauser et al., PRL 115, 136402 (2015).                      %
     %   T. Thonhauser et al., PRB 76, 125112 (2007).                       %
     %   K. Berland et al., Rep. Prog. Phys. 78, 066501 (2015).             %
     %   D.C. Langreth et al., J. Phys.: Condens. Matter 21, 084203 (2009). %
     %                                                                      %
     %                                                                      %
     % If you are calculating the stress with vdW-DF, please also cite:     %
     %                                                                      %
     %   R. Sabatini et al., J. Phys.: Condens. Matter 24, 424209 (2012).   %
     %                                                                      %
     %%%%%%%%%%%%%%%%%%%%%%%%%%%%%%%%%%%%%%%%%%%%%%%%%%%%%%%%%%%%%%%%%%%%%%%%

     Adding external electric field

     Computed dipole along edir(3) :
        Dipole              -11.7474 Ry au,        -29.8588 Debye
        Dipole field         -0.0222 Ry au,

        Potential amp.        2.0550 Ry
        Total length         46.3494 bohr

     Starting wfcs are  303 atomic wfcs
  @ DRIVER MODE: Message from server: STATUS
  @ DRIVER MODE: Message from server: POSDATA
  @ DRIVER MODE: Reading and sharing cell
  @ DRIVER MODE: Reading and sharing positions
  @ DRIVER MODE: Received positions

     Self-consistent Calculation

     iteration #  1     ecut=    29.40 Ry     beta= 0.05
     Davidson diagonalization with overlap
     c_bands:  5 eigenvalues not converged
     c_bands:  1 eigenvalues not converged
     c_bands:  2 eigenvalues not converged
     c_bands:  4 eigenvalues not converged
     c_bands:  3 eigenvalues not converged
     c_bands:  1 eigenvalues not converged
     c_bands:  5 eigenvalues not converged
     ethr =  1.00E-05,  avg # of iterations = 22.9

[...]

     total energy              =   -2428.19331397 Ry
     estimated scf accuracy    <    6113.58747391 Ry

     iteration #  2     ecut=    29.40 Ry     beta= 0.05
     Davidson diagonalization with overlap
     ethr =  1.00E-02,  avg # of iterations = 24.3

[...]

     iteration # 69     ecut=    29.40 Ry     beta= 0.05
     Davidson diagonalization with overlap
     c_bands:  1 eigenvalues not converged
     c_bands:  1 eigenvalues not converged
     ethr =  1.17E-06,  avg # of iterations = 12.2

[...]

     total energy              =   -2971.44236032 Ry
     estimated scf accuracy    <       0.00000011 Ry

     iteration # 99     ecut=    29.40 Ry     beta= 0.05
     Davidson diagonalization with overlap
     ethr =  2.29E-11,  avg # of iterations =  3.3

     negative rho (up, down):  1.471E-02 0.000E+00

     Adding external electric field

     Computed dipole along edir(3) :
        Dipole                0.6528 Ry au,          1.6593 Debye
        Dipole field          0.0012 Ry au,

        Potential amp.       -0.1142 Ry
        Total length         46.3494 bohr

     End of self-consistent calculation

          k = 0.0000 0.0000 0.0000 ( 18029 PWs)   bands (ev):

   -55.9156 -55.8817 -55.7268 -55.6908 -55.6188 -55.6055 -55.5818 -55.5718
   -55.5538 -55.5201 -55.5027 -55.4670 -55.2697 -55.1670 -54.8229 -54.7889
   -32.3821 -32.2768 -32.2097 -32.1852 -32.0807 -32.0712 -32.0683 -32.0478
   -32.0414 -32.0138 -32.0048 -31.9771 -31.9572 -31.9473 -31.9420 -31.9147
   -31.8933 -31.8704 -31.8625 -31.8552 -31.8212 -31.7836 -31.7795 -31.7581
   -31.7570 -31.7448 -31.7395 -31.7345 -31.7292 -31.7074 -31.7053 -31.6877
   -31.6813 -31.6644 -31.6591 -31.6224 -31.6217 -31.5089 -31.5019 -31.4079
   -31.3914 -31.3147 -31.2273 -31.1459 -31.1229 -31.0441 -30.9580 -30.8471
   -19.2512 -16.4694 -16.2748 -16.0275 -15.9272 -15.8113 -15.7364 -15.5958
   -15.4939 -15.4132 -15.4104 -15.3190 -15.2935 -15.2908 -15.2447 -15.2108
   -15.2018 -15.1863 -15.1690 -15.1530 -15.1277 -15.0801 -15.0046 -14.8996
   -14.8831 -14.8440 -14.8050 -14.7774 -14.6895 -14.6293 -14.5074 -14.3914
   -13.3251 -13.2100  -8.6358  -6.7062  -5.7974  -4.0793  -3.8512  -3.7738
    -3.6677  -3.5998  -3.5811  -3.2986  -3.2967  -2.9696  -2.9164  -2.9064
    -2.8839  -2.8469  -2.6649  -2.6353  -2.6295  -2.5732  -2.5589  -2.5544
    -2.5504  -2.5131  -2.4679  -2.4589  -2.3847  -2.3483  -2.3106  -2.2175
    -2.1936  -2.1831  -2.1125  -2.0874  -2.0324  -1.9878  -1.9770  -1.9677
    -1.9316  -1.9040  -1.7786  -1.7237  -1.6761  -1.5761  -1.5122  -1.4493
    -1.4206  -1.2829  -1.1750  -1.1632  -1.1397  -1.0986  -1.0754  -1.0557
    -0.9243  -0.8744  -0.8538  -0.7935  -0.7396  -0.6830  -0.6752  -0.6160
    -0.5913  -0.5759  -0.5489  -0.5271  -0.4697  -0.2915  -0.2133  -0.1276
    -0.1158  -0.0737  -0.0509  -0.0370   0.0189   0.0353   0.0560   0.1167
     0.1361   0.1795   0.2120   0.2252   0.2344   0.2957   0.4001   0.4209
     0.5253   0.5461   0.6064   0.6254   0.7967   0.8578   0.8753   0.9176
     1.0283   1.0874   1.1442   1.1983   1.4013   1.5022   1.7653   1.8086
     3.2823   3.2846   3.3703   3.4968   3.6095   3.6544   3.7047   3.7217
     3.8889   3.9460

[...]

          k = 0.0380-0.0419 0.0000 ( 17876 PWs)   bands (ev):

[...]

          k =-0.0760-0.0000 0.0000 ( 17886 PWs)   bands (ev):

[...]

          k =-0.0760-0.0839 0.0000 ( 17948 PWs)   bands (ev):

   -55.8987 -55.8985 -55.7099 -55.7076 -55.6067 -55.5937 -55.5895 -55.5874
   -55.5375 -55.5364 -55.4893 -55.4804 -55.2665 -55.1701 -54.8058 -54.8057
   -32.1980 -32.1978 -32.1948 -32.1945 -32.0818 -32.0800 -32.0220 -32.0220
   -32.0019 -31.9979 -31.9323 -31.9303 -31.9229 -31.9213 -31.8959 -31.8921
   -31.8877 -31.8787 -31.8744 -31.8720 -31.8157 -31.8080 -31.8073 -31.7970
   -31.7790 -31.7767 -31.7732 -31.7728 -31.7698 -31.7683 -31.7506 -31.7498
   -31.7261 -31.7171 -31.6467 -31.6390 -31.5753 -31.5232 -31.5036 -31.4536
   -31.4108 -31.4016 -31.1358 -31.1357 -31.0405 -31.0404 -31.0011 -31.0011
   -19.2491 -15.9042 -15.8991 -15.7190 -15.7123 -15.6626 -15.6609 -15.5232
   -15.5223 -15.4228 -15.4213 -15.3639 -15.3594 -15.3551 -15.3445 -15.2836
   -15.2580 -15.2563 -15.2542 -15.2068 -15.2059 -15.2014 -15.1963 -15.1050
   -15.0983 -14.9591 -14.8272 -14.7901 -14.6833 -14.6519 -14.6014 -14.5542
   -13.3123 -13.3120  -8.5865  -6.6758  -5.9423  -4.0711  -3.2044  -3.1965
    -2.9097  -2.9078  -2.8613  -2.8555  -2.6524  -2.6514  -2.6324  -2.6238
    -2.5899  -2.5783  -2.5580  -2.5525  -2.5131  -2.4764  -2.4612  -2.4601
    -2.4531  -2.4446  -2.4364  -2.4279  -2.4017  -2.3896  -2.3825  -2.3782
    -2.3587  -2.2790  -2.2713  -2.1745  -2.1564  -1.9265  -1.9259  -1.9047
    -1.9005  -1.8860  -1.8739  -1.8494  -1.8403  -1.6973  -1.6535  -1.4750
    -1.4718  -1.4157  -1.3934  -1.3448  -1.3167  -1.2453  -1.2229  -1.1186
    -1.1076  -1.0379  -1.0291  -0.9747  -0.9310  -0.9227  -0.9124  -0.8140
    -0.8104  -0.7960  -0.7582  -0.6932  -0.6828  -0.6071  -0.6008  -0.5510
    -0.5495  -0.4781  -0.4707  -0.3034  -0.3000  -0.2099  -0.1818  -0.0898
    -0.0737   0.1116   0.2120   0.2267   0.2756   0.2799   0.4558   0.4746
     0.4974   0.5042   0.5190   0.5553   0.6849   0.7047   0.7714   0.7835
     0.8231   0.8268   1.0583   1.0747   1.5705   1.5709   1.6268   1.6271
     3.4096   3.6751   3.6912   3.7833   3.7841   3.8038   3.8043   3.8312
     3.8355   4.0645

     the Fermi energy is     3.2463 ev

!    total energy              =   -2971.44236205 Ry
     estimated scf accuracy    <       0.00000007 Ry
     smearing contrib. (-TS)   =      -0.01970547 Ry
     internal energy E=F+TS    =   -2971.42265658 Ry

     The total energy is F=E-TS. E is the sum of the following terms:
     one-electron contribution =  -23897.99942509 Ry
     hartree contribution      =   12041.23266929 Ry
     xc contribution           =    -492.31219565 Ry
     ewald contribution        =    9377.65549061 Ry
     electric field correction =       0.00080426 Ry

     convergence has been achieved in  99 iterations

     Forces acting on atoms (cartesian axes, Ry/au):

     atom    1 type  1   force =     0.00003248   -0.00007906    0.10236435
     atom    2 type  1   force =     0.00004344   -0.00006775    0.10234555
     atom    3 type  2   force =     0.00001199   -0.00024493    0.10278839
     atom    4 type  2   force =     0.00007743   -0.00019973    0.10222215
     atom    5 type  2   force =    -0.00009715   -0.00058007   -0.17198384
     atom    6 type  2   force =    -0.00008840   -0.00032000   -0.17215388
     atom    7 type  1   force =    -0.07283795   -0.00013910   -0.02894868
     atom    8 type  1   force =    -0.07284577   -0.00007922   -0.02895548
     atom    9 type  1   force =     0.07270983    0.00029985   -0.02903514
     atom   10 type  1   force =     0.07273007    0.00033989   -0.02904705
     atom   11 type  1   force =    -0.00003982   -0.00106416    0.04710982
     atom   12 type  1   force =    -0.00001460   -0.00087725    0.04707507
     atom   13 type  1   force =     0.00020357    0.00004909   -0.03503165
     atom   14 type  1   force =     0.00023474   -0.00007712   -0.03423246
     atom   15 type  2   force =     0.00066306   -0.00143956   -0.00658808
     atom   16 type  2   force =     0.00063576    0.00163289   -0.00671248
     atom   17 type  2   force =     0.00001386   -0.00076084    0.06328397
     atom   18 type  2   force =    -0.00004054   -0.00152684    0.06365441
     atom   19 type  1   force =    -0.01509900    0.00119058   -0.00072038
     atom   20 type  1   force =    -0.01543416    0.00064192   -0.00075595
     atom   21 type  1   force =     0.01662952    0.00173538   -0.00149660
     atom   22 type  1   force =     0.01685314    0.00104303   -0.00151194
     atom   23 type  1   force =    -0.00340274    0.00175253   -0.03930076
     atom   24 type  1   force =    -0.00234725    0.00099418   -0.04578043
     atom   25 type  1   force =     0.00003454   -0.00006672    0.00031753
     atom   26 type  1   force =     0.00030157   -0.00003816    0.00023529
     atom   27 type  2   force =    -0.00001433   -0.00010079   -0.00032628
     atom   28 type  2   force =     0.00023609    0.00000726    0.00002878
     atom   29 type  2   force =     0.00066768   -0.00028558   -0.00012720
     atom   30 type  1   force =    -0.00040414   -0.00010513    0.00041230
     atom   31 type  1   force =    -0.00024917    0.00009210   -0.00007503
     atom   32 type  1   force =     0.00038503   -0.00013744    0.00028512
     atom   33 type  1   force =     0.00032025    0.00007964    0.00021121
     atom   34 type  2   force =    -0.00004354   -0.00016066   -0.00012948
     atom   35 type  1   force =     0.00008844   -0.00025631    0.00028562
     atom   36 type  1   force =    -0.00002502    0.00011948    0.00015611
     atom   37 type  1   force =     0.00013621   -0.00027537    0.00053230
     atom   38 type  1   force =    -0.00016220   -0.00042365    0.00058592
     atom   39 type  2   force =     0.00000316   -0.00033081   -0.00118242
     atom   40 type  2   force =    -0.00028786   -0.00001901   -0.00008823
     atom   41 type  2   force =    -0.00025812    0.00005698   -0.00058102
     atom   42 type  1   force =     0.00000142    0.00014814    0.00021212
     atom   43 type  1   force =    -0.00005958   -0.00012921   -0.00025556
     atom   44 type  1   force =     0.00031028   -0.00051862    0.00051681
     atom   45 type  1   force =    -0.00005370   -0.00003632   -0.00003500
     atom   46 type  2   force =    -0.00014659   -0.00054681   -0.00050421
     atom   47 type  1   force =     0.00015921   -0.00006908    0.00030354
     atom   48 type  3   force =    -0.00448179    0.00124716   -0.00262401
     atom   49 type  4   force =     0.00055441    0.00092955   -0.00049551
     atom   50 type  3   force =     0.00031827   -0.00258027    0.00102300
     atom   51 type  4   force =    -0.00070279    0.00067663   -0.00059535
     atom   52 type  5   force =     0.00510248   -0.00093375    0.00178190
     atom   53 type  4   force =     0.00013666    0.00096488    0.00091963
     atom   54 type  1   force =    -0.00045840    0.00046816    0.00062319

     Total force =     0.381450     Total SCF correction =     0.000882
  @ DRIVER MODE: Message from server: STATUS
  @ DRIVER MODE: Message from server: GETFORCE
  @ DRIVER MODE: Returning v,forces,stress,ensemble

     Writing output data file ./calc.save/
  @ DRIVER MODE: Message from server: EXIT
  @ DRIVE MODE: Exiting

     General routines

     Parallel routines

   This run was terminated on:  19:29:42  26Sep2021

   JOB DONE.