     Program PWSCF v.6.7GPU starts on  9Sep2021 at  3: 8:26

     R & G space division:  proc/nbgrp/npool/nimage =      10
     Reading input from /storage/home/hcoda1/3/ntian30/research/carbon/CxH_vib/CH_calc/ads_slab/CHOH_a/out_0015/pw.inp
Warning: card &CELL ignored
Warning: card   CELL_DYNAMICS='IPI', ignored
Warning: card / ignored

     Current dimensions of program PWSCF are:
     Max number of different atomic species (ntypx) = 10
     Max number of k-points (npk) =  40000
     Max angular momentum in pseudopotentials (lmaxx) =  3
     Presently no symmetry can be used with electric field

     Message from routine cell_base_init:
     DEPRECATED: use true lattice parameter, not A to a.u. conversion factor

     IMPORTANT: XC functional enforced from input :
     Exchange-correlation= BEEF-VDW
                           (   1   4  43  14   2   0   0)
     Any further DFT definition will be discarded
     Please, verify this is what you really want

  @ DRIVER MODE: Connecting to
 qe_1139763_2767384.sched-torque.pace.gatech.edu1c2l8_7f_scratch
  using UNIX socket
  @ DRIVER MODE: Message from server: STATUS
  @ DRIVER MODE: Message from server: INIT
  @ DRIVER MODE: Receiving replica           0          -1
  @ DRIVER MODE: Receiving encoded integer          25
  @ DRIVER MODE:  SCF:  T  FORCE:  T  STRESS:  F  VC:  F  ENSEMBLE:  F
  @ DRIVER MODE:  SCF:  T  FORCE:  T  STRESS:  F  VC:  F  ENSEMBLE:  F

     Using Slab Decomposition

     bravais-lattice index     =            0
     lattice parameter (alat)  =       1.8897  a.u.
     unit-cell volume          =    6658.9804 (a.u.)^3
     number of atoms/cell      =           51
     number of atomic types    =            4
     number of electrons       =       390.00
     number of Kohn-Sham states=          205
     kinetic-energy cutoff     =      29.3995  Ry
     charge density cutoff     =     293.9946  Ry
     scf convergence threshold =      7.3E-08
     mixing beta               =       0.0500
     number of iterations used =            8  plain     mixing
     Exchange-correlation= BEEF-VDW
                           (   1   4  43  14   2   0   0)

     celldm(1)=   1.889726  celldm(2)=   0.000000  celldm(3)=   0.000000
     celldm(4)=   0.000000  celldm(5)=   0.000000  celldm(6)=   0.000000

     crystal axes: (cart. coord. in units of alat)
               a(1) = (   6.579727   0.000000   0.000000 )
               a(2) = (  -0.000775   5.961596   0.000000 )
               a(3) = (   0.000000   0.000000  25.155947 )

     reciprocal axes: (cart. coord. in units 2 pi/alat)
               b(1) = (  0.151982  0.000020  0.000000 )
               b(2) = (  0.000000  0.167740  0.000000 )
               b(3) = (  0.000000  0.000000  0.039752 )

     PseudoPot. # 1 for Ti read from file:
     /storage/coda1/p-amedford6/0/shared/rich_project_chbe-medford/medford-share/data/pseudos_module/espresso/nninc/pbe/van/Ti.UPF
     MD5 check sum: 8e4df49b7f0d34bbd5052bf3f5ea0213
     Pseudo is Ultrasoft, Zval = 12.0
     Generated by new atomic code, or converted to UPF format
     Using radial grid of  851 points,  6 beta functions with:
                l(1) =   0
                l(2) =   0
                l(3) =   1
                l(4) =   1
                l(5) =   2
                l(6) =   2
     Q(r) pseudized with  8 coefficients,  rinner =    1.000   1.000   1.000
                                                       1.000   1.000

     PseudoPot. # 2 for O  read from file:
     /storage/coda1/p-amedford6/0/shared/rich_project_chbe-medford/medford-share/data/pseudos_module/espresso/nninc/pbe/van/O.UPF
     MD5 check sum: 78c19812648e8988a0fe644b0f25305e
     Pseudo is Ultrasoft, Zval =  6.0
     Generated by new atomic code, or converted to UPF format
     Using radial grid of  737 points,  4 beta functions with:
                l(1) =   0
                l(2) =   0
                l(3) =   1
                l(4) =   1
     Q(r) pseudized with  8 coefficients,  rinner =    0.800   0.800   0.800

     PseudoPot. # 3 for C  read from file:
     /storage/coda1/p-amedford6/0/shared/rich_project_chbe-medford/medford-share/data/pseudos_module/espresso/nninc/pbe/van/C.UPF
     MD5 check sum: 1a69bf6b8db32088f5b2163dbdb77a27
     Pseudo is Ultrasoft, Zval =  4.0
     Generated by new atomic code, or converted to UPF format
     Using radial grid of  721 points,  4 beta functions with:
                l(1) =   0
                l(2) =   0
                l(3) =   1
                l(4) =   1
     Q(r) pseudized with  8 coefficients,  rinner =    0.800   0.800   0.800

     PseudoPot. # 4 for H  read from file:
     /storage/coda1/p-amedford6/0/shared/rich_project_chbe-medford/medford-share/data/pseudos_module/espresso/nninc/pbe/van/H.UPF
     MD5 check sum: b5ee9d7bfd3a09ee7748110bda690ff7
     Pseudo is Ultrasoft, Zval =  1.0
     Generated by new atomic code, or converted to UPF format
     Using radial grid of  615 points,  1 beta functions with:
                l(1) =   0
     Q(r) pseudized with  8 coefficients,  rinner =    0.800

     atomic species   valence    mass     pseudopotential
        Ti1           12.00    47.86700     Ti( 1.00)
        O1             6.00    15.99900     O ( 1.00)
        C1             4.00    12.01100     C ( 1.00)
        H1             1.00     1.00800     H ( 1.00)

     No symmetry found

   Cartesian axes

     site n.     atom                  positions (alat units)
         1           Ti1 tau(   1) = (   0.0004258   2.9801865   6.0000000  )
         2           Ti1 tau(   2) = (   3.2906075   1.4906267   6.0002472  )
         3           O1  tau(   3) = (   0.0006271   0.0005054   7.9858123  )
         4           O1  tau(   4) = (   3.2906025   0.0005020   7.3038282  )
         5           O1  tau(   5) = (   4.5942328   1.4918067   9.2879030  )
         6           O1  tau(   6) = (   1.9868534   1.4903216   9.2879459  )
         7           Ti1 tau(   7) = (   3.3189338   3.0017716   9.1565052  )
         8           Ti1 tau(   8) = (   0.0346667   1.4969860   9.2640968  )
         9           O1  tau(   9) = (   3.3073125   0.0088267  11.3792119  )
        10           O1  tau(  10) = (   0.0062670   0.0029933  10.6068016  )
        11           O1  tau(  11) = (   1.3062705   1.5014067  12.6543524  )
        12           O1  tau(  12) = (   5.3087205   1.4988994  12.6673500  )
        13           Ti1 tau(  13) = (   0.0213988   2.9921491  12.5260324  )
        14           Ti1 tau(  14) = (   3.3097092   1.5009918  12.5223738  )
        15           O1  tau(  15) = (   0.0424616   0.0075488  14.6717754  )
        16           O1  tau(  16) = (   3.3005110   0.0073529  14.0105724  )
        17           O1  tau(  17) = (   4.5952227   1.5195780  16.1612446  )
        18           O1  tau(  18) = (   2.0693493   1.5297702  16.1935428  )
        19           Ti1 tau(  19) = (   3.3356741   2.9939547  15.7500326  )
        20           Ti1 tau(  20) = (   0.0335386   1.3679084  15.9371528  )
        21           O1  tau(  21) = (   3.2904802   0.0005063   4.7018136  )
        22           O1  tau(  22) = (   0.0353059   0.0153350  17.1923242  )
        23           O1  tau(  23) = (   1.3043587   1.4918075   6.0039043  )
        24           O1  tau(  24) = (   5.2767064   1.4903225   6.0039473  )
        25           Ti1 tau(  25) = (   0.0000382   5.9609847   6.0000000  )
        26           Ti1 tau(  26) = (   3.2902200   4.4714249   6.0002472  )
        27           O1  tau(  27) = (   0.0002396   2.9813036   7.9858123  )
        28           O1  tau(  28) = (   3.2902150   2.9813002   7.3038282  )
        29           O1  tau(  29) = (   4.5938453   4.4726049   9.2879030  )
        30           O1  tau(  30) = (   1.9864658   4.4711199   9.2879459  )
        31           Ti1 tau(  31) = (   3.3154861   0.0215470   9.1550440  )
        32           Ti1 tau(  32) = (   0.0344056   4.4691587   9.2644328  )
        33           O1  tau(  33) = (   3.3078462   2.9871797  11.3713074  )
        34           O1  tau(  34) = (   0.0058747   2.9832696  10.6292865  )
        35           O1  tau(  35) = (   1.3058732   4.4754499  12.6504552  )
        36           O1  tau(  36) = (   5.3084772   4.4777640  12.6640448  )
        37           Ti1 tau(  37) = (   0.0171148   0.0128214  12.4806662  )
        38           Ti1 tau(  38) = (   3.3088916   4.4784539  12.5193958  )
        39           O1  tau(  39) = (   0.0434956   2.9958159  14.9132474  )
        40           O1  tau(  40) = (   3.3089563   2.9921379  13.9620076  )
        41           O1  tau(  41) = (   4.5951427   4.4669482  16.1652122  )
        42           O1  tau(  42) = (   2.0688924   4.4538916  16.2081353  )
        43           Ti1 tau(  43) = (   3.3160161   0.0142155  15.8078792  )
        44           Ti1 tau(  44) = (   0.0219142   4.6036306  15.9252304  )
        45           O1  tau(  45) = (   3.2900926   2.9813045   4.7018136  )
        46           O1  tau(  46) = (   1.3039711   4.4726057   6.0039043  )
        47           O1  tau(  47) = (   5.2763189   4.4711207   6.0039473  )
        48           C1  tau(  48) = (   6.0523360   2.9466228  19.1488008  )
        49           O1  tau(  49) = (   0.1918362   3.0047394  18.0201065  )
        50           H1  tau(  50) = (   5.0152694   2.8396317  18.7632286  )
        51           H1  tau(  51) = (   1.1393832   3.0938607  18.2382470  )

     number of k points=    10  Fermi-Dirac smearing, width (Ry)=  0.0073
                       cart. coord. in units 2pi/alat
        k(    1) = (   0.0000000   0.0000000   0.0000000), wk =   0.1250000
        k(    2) = (   0.0000000   0.0419351   0.0000000), wk =   0.2500000
        k(    3) = (   0.0000000  -0.0838702   0.0000000), wk =   0.1250000
        k(    4) = (   0.0379955   0.0000049   0.0000000), wk =   0.2500000
        k(    5) = (   0.0379955   0.0419400   0.0000000), wk =   0.2500000
        k(    6) = (   0.0379955  -0.0838652   0.0000000), wk =   0.2500000
        k(    7) = (   0.0379955  -0.0419301   0.0000000), wk =   0.2500000
        k(    8) = (  -0.0759910  -0.0000099   0.0000000), wk =   0.1250000
        k(    9) = (  -0.0759910   0.0419252   0.0000000), wk =   0.2500000
        k(   10) = (  -0.0759910  -0.0838800   0.0000000), wk =   0.1250000

     Initial potential from superposition of free atoms

     starting charge  373.99919, renormalised to  390.00000

     negative rho (up, down):  1.784E-02 0.000E+00

     %%%%%%%%%%%%%%%%%%%%%%%%%%%%%%%%%%%%%%%%%%%%%%%%%%%%%%%%%%%%%%%%%%%%%%%%
     %                                                                      %
     % You are using vdW-DF, which was implemented by the Thonhauser group. %
     % Please cite the following two papers that made this development      %
     % possible and the two reviews that describe the various versions:     %
     %                                                                      %
     %   T. Thonhauser et al., PRL 115, 136402 (2015).                      %
     %   T. Thonhauser et al., PRB 76, 125112 (2007).                       %
     %   K. Berland et al., Rep. Prog. Phys. 78, 066501 (2015).             %
     %   D.C. Langreth et al., J. Phys.: Condens. Matter 21, 084203 (2009). %
     %                                                                      %
     %                                                                      %
     % If you are calculating the stress with vdW-DF, please also cite:     %
     %                                                                      %
     %   R. Sabatini et al., J. Phys.: Condens. Matter 24, 424209 (2012).   %
     %                                                                      %
     %%%%%%%%%%%%%%%%%%%%%%%%%%%%%%%%%%%%%%%%%%%%%%%%%%%%%%%%%%%%%%%%%%%%%%%%

     Adding external electric field

     Computed dipole along edir(3) :
        Dipole               -6.1554 Ry au,        -15.6454 Debye
        Dipole field         -0.0116 Ry au,

        Potential amp.        1.0768 Ry
        Total length         46.3494 bohr

     Starting wfcs are  294 atomic wfcs
  @ DRIVER MODE: Message from server: STATUS
  @ DRIVER MODE: Message from server: POSDATA
  @ DRIVER MODE: Reading and sharing cell
  @ DRIVER MODE: Reading and sharing positions
  @ DRIVER MODE: Received positions

     Self-consistent Calculation

     iteration #  1     ecut=    29.40 Ry     beta= 0.05
     Davidson diagonalization with overlap
     c_bands:  1 eigenvalues not converged
     c_bands:  1 eigenvalues not converged
     c_bands:  1 eigenvalues not converged
     ethr =  1.00E-05,  avg # of iterations = 16.7

[...]

     total energy              =   -2756.81030975 Ry
     estimated scf accuracy    <    1910.53243445 Ry

     iteration #  2     ecut=    29.40 Ry     beta= 0.05
     Davidson diagonalization with overlap
     ethr =  1.00E-02,  avg # of iterations = 18.9

[...]

     iteration # 63     ecut=    29.40 Ry     beta= 0.05
     Davidson diagonalization with overlap
     c_bands:  1 eigenvalues not converged
     ethr =  3.98E-11,  avg # of iterations =  9.3

[...]

     total energy              =   -2929.94103009 Ry
     estimated scf accuracy    <       0.00000010 Ry

     iteration # 65     ecut=    29.40 Ry     beta= 0.05
     Davidson diagonalization with overlap
     ethr =  2.12E-11,  avg # of iterations =  2.3

     negative rho (up, down):  1.676E-02 0.000E+00

     Adding external electric field

     Computed dipole along edir(3) :
        Dipole                0.3847 Ry au,          0.9779 Debye
        Dipole field          0.0007 Ry au,

        Potential amp.       -0.0673 Ry
        Total length         46.3494 bohr

     End of self-consistent calculation

          k = 0.0000 0.0000 0.0000 ( 18029 PWs)   bands (ev):

   -56.0180 -55.9819 -55.9808 -55.9466 -55.9094 -55.8989 -55.8646 -55.8577
   -55.8549 -55.8206 -55.8071 -55.8059 -55.8000 -55.7661 -55.0781 -55.0440
   -32.5871 -32.5156 -32.4784 -32.3838 -32.3340 -32.3307 -32.3200 -32.3109
   -32.2701 -32.2639 -32.2266 -32.2248 -32.2163 -32.1926 -32.1870 -32.1712
   -32.1542 -32.1532 -32.1454 -32.1356 -32.1316 -32.1251 -32.1116 -32.1076
   -32.0992 -32.0833 -32.0760 -32.0373 -32.0324 -32.0243 -32.0210 -32.0083
   -32.0039 -31.9990 -31.9949 -31.9855 -31.9717 -31.9544 -31.9368 -31.9342
   -31.9127 -31.8840 -31.4904 -31.3873 -31.3658 -31.3067 -31.2203 -31.1092
   -21.6086 -16.8504 -16.5993 -16.4624 -16.3579 -16.2396 -16.1226 -16.0604
   -15.9621 -15.8567 -15.7428 -15.6953 -15.6715 -15.6696 -15.6500 -15.6406
   -15.6331 -15.5740 -15.5466 -15.5245 -15.5102 -15.5083 -15.4627 -15.4425
   -15.4093 -15.3748 -15.2498 -15.1794 -15.1215 -14.7885 -13.5789 -13.4594
   -10.7279  -5.9932  -5.0399  -4.3332  -4.1784  -4.0285  -3.9529  -3.9431
    -3.8968  -3.7793  -3.6040  -3.4488  -3.4414  -3.3143  -3.2710  -3.2250
    -3.1821  -3.0535  -2.9991  -2.9865  -2.9122  -2.9078  -2.8935  -2.8829
    -2.7960  -2.7847  -2.7675  -2.7550  -2.6478  -2.6062  -2.4863  -2.4539
    -2.4067  -2.3668  -2.3585  -2.3447  -2.3394  -2.2953  -2.2835  -2.2597
    -2.2052  -2.1485  -2.0531  -1.9227  -1.9138  -1.7962  -1.7631  -1.5970
    -1.5818  -1.5451  -1.5192  -1.4686  -1.4248  -1.4187  -1.3746  -1.2700
    -1.1910  -1.1391  -1.0622  -1.0268  -0.9591  -0.9188  -0.8437  -0.8114
    -0.8074  -0.7780  -0.6803  -0.6110  -0.5512  -0.5105  -0.4928  -0.4690
    -0.3849  -0.3587  -0.2624  -0.2499  -0.2098  -0.2008  -0.0892  -0.0809
    -0.0735  -0.0567  -0.0486   0.0392   0.1133   0.1271   0.1550   0.3098
     0.5267   0.5384   0.5786   0.8344   0.9225   0.9479   1.1070   1.2855
     1.5339   1.5883   3.0782   3.1459   3.1838   3.2056   3.2288   3.2865
     3.5683   3.5836   3.5903   3.6066   3.6334

[...]

          k = 0.0380-0.0419 0.0000 ( 17876 PWs)   bands (ev):

[...]

          k =-0.0760-0.0000 0.0000 ( 17886 PWs)   bands (ev):

[...]

          k =-0.0760-0.0839 0.0000 ( 17948 PWs)   bands (ev):

   -56.0010 -55.9987 -55.9648 -55.9625 -55.9064 -55.8897 -55.8670 -55.8580
   -55.8395 -55.8357 -55.8137 -55.8087 -55.7836 -55.7826 -55.0610 -55.0610
   -32.4405 -32.3917 -32.3889 -32.3070 -32.2943 -32.2923 -32.2734 -32.2578
   -32.2530 -32.2284 -32.2191 -32.2163 -32.2088 -32.1670 -32.1566 -32.1557
   -32.1541 -32.1500 -32.1453 -32.1427 -32.1376 -32.1304 -32.1108 -32.0997
   -32.0993 -32.0977 -32.0933 -32.0898 -32.0856 -32.0835 -32.0819 -32.0582
   -32.0378 -32.0376 -32.0362 -32.0195 -32.0108 -32.0096 -32.0000 -31.9778
   -31.9691 -31.9682 -31.3784 -31.3784 -31.3031 -31.3030 -31.2636 -31.2635
   -21.6078 -16.4706 -16.2552 -16.1927 -16.0382 -16.0334 -16.0031 -15.9753
   -15.8460 -15.8234 -15.8096 -15.7894 -15.7652 -15.7481 -15.7408 -15.7256
   -15.6200 -15.6129 -15.6021 -15.5961 -15.5367 -15.5332 -15.5232 -15.5101
   -15.4774 -15.4747 -15.4476 -15.4442 -15.2974 -15.1596 -13.5606 -13.5601
   -10.7311  -5.9960  -5.0169  -4.2828  -3.5317  -3.5301  -3.4515  -3.2575
    -3.2195  -3.1856  -3.1735  -3.0980  -3.0226  -3.0150  -3.0080  -2.9258
    -2.9193  -2.9165  -2.9142  -2.8523  -2.8455  -2.8084  -2.8038  -2.7539
    -2.7234  -2.7184  -2.7095  -2.6858  -2.6830  -2.6675  -2.6492  -2.6291
    -2.6167  -2.5339  -2.4887  -2.3886  -2.3572  -2.3261  -2.2496  -2.2406
    -2.1568  -2.1273  -2.1069  -2.0689  -2.0241  -2.0073  -1.8481  -1.8149
    -1.8102  -1.7475  -1.6779  -1.6534  -1.6221  -1.5667  -1.5033  -1.4946
    -1.4053  -1.3495  -1.3463  -1.2217  -1.2113  -1.1593  -1.0529  -1.0210
    -1.0124  -1.0085  -0.9999  -0.9369  -0.9261  -0.8613  -0.8113  -0.7636
    -0.7459  -0.7334  -0.5381  -0.4965  -0.4422  -0.3416  -0.3015  -0.1101
    -0.0959  -0.0812   0.0020   0.0396   0.0551   0.1280   0.2481   0.2526
     0.3044   0.3606   0.4031   0.4103   0.4273   1.2940   1.2988   1.2997
     1.4038   1.4057   3.2378   3.2957   3.3231   3.4008   3.4762   3.4995
     3.5869   3.6053   3.6331   3.6380   3.7245

     the Fermi energy is     3.1374 ev

!    total energy              =   -2929.94106249 Ry
     estimated scf accuracy    <       0.00000006 Ry
     smearing contrib. (-TS)   =      -0.03724055 Ry
     internal energy E=F+TS    =   -2929.90382194 Ry

     The total energy is F=E-TS. E is the sum of the following terms:
     one-electron contribution =  -24334.63185420 Ry
     hartree contribution      =   12249.92122644 Ry
     xc contribution           =    -481.17947282 Ry
     ewald contribution        =    9635.98599931 Ry
     electric field correction =       0.00027933 Ry

     convergence has been achieved in  65 iterations

     Forces acting on atoms (cartesian axes, Ry/au):

     atom    1 type  1   force =    -0.00041091   -0.00001698    0.09185576
     atom    2 type  1   force =    -0.00029081    0.00032171   -0.18371616
     atom    3 type  2   force =     0.00041208    0.00009049   -0.02348842
     atom    4 type  2   force =     0.00072516    0.00037884    0.05120184
     atom    5 type  2   force =    -0.01350206    0.00018874    0.00469171
     atom    6 type  2   force =     0.01514422   -0.00002593    0.00541912
     atom    7 type  1   force =    -0.00054387    0.00015701   -0.00021047
     atom    8 type  1   force =     0.00026667    0.00018942    0.00006107
     atom    9 type  2   force =     0.00004090   -0.00004264   -0.00015777
     atom   10 type  2   force =    -0.00021253    0.00006022    0.00040237
     atom   11 type  2   force =     0.00003560   -0.00014967   -0.00013604
     atom   12 type  2   force =     0.00011672   -0.00001933   -0.00008303
     atom   13 type  1   force =    -0.00024345    0.00083342   -0.00046746
     atom   14 type  1   force =     0.00016496   -0.00000273    0.00015205
     atom   15 type  2   force =     0.00000713    0.00030297    0.00038826
     atom   16 type  2   force =    -0.00000172    0.00009127    0.00057457
     atom   17 type  2   force =    -0.00027360   -0.00027228    0.00014212
     atom   18 type  2   force =    -0.00030246   -0.00036180    0.00034912
     atom   19 type  1   force =    -0.00008012    0.00012826    0.00018587
     atom   20 type  1   force =    -0.00036696    0.00035202    0.00019933
     atom   21 type  2   force =    -0.00007863    0.00001572    0.10504694
     atom   22 type  2   force =    -0.00006334   -0.00037582   -0.00010268
     atom   23 type  2   force =    -0.06790005   -0.00015254   -0.02655944
     atom   24 type  2   force =     0.06761567    0.00029228   -0.02663793
     atom   25 type  1   force =    -0.00035560   -0.00000298    0.09420896
     atom   26 type  1   force =    -0.00029565   -0.00041804   -0.18373356
     atom   27 type  2   force =     0.00036226    0.00013189   -0.02225998
     atom   28 type  2   force =     0.00077416    0.00030435    0.05091532
     atom   29 type  2   force =    -0.01349923    0.00044577    0.00481541
     atom   30 type  2   force =     0.01516309    0.00023440    0.00552301
     atom   31 type  1   force =    -0.00060769   -0.00030908   -0.00029460
     atom   32 type  1   force =     0.00027541   -0.00007194    0.00003797
     atom   33 type  2   force =     0.00000477    0.00003278   -0.00005213
     atom   34 type  2   force =    -0.00007476   -0.00006555    0.00010035
     atom   35 type  2   force =     0.00008010    0.00008622    0.00010711
     atom   36 type  2   force =     0.00006596   -0.00004987    0.00013799
     atom   37 type  1   force =    -0.00025630   -0.00076599   -0.00022828
     atom   38 type  1   force =     0.00021577    0.00008338    0.00069407
     atom   39 type  2   force =    -0.00006415   -0.00064632    0.00049326
     atom   40 type  2   force =    -0.00037753   -0.00017600   -0.00013835
     atom   41 type  2   force =    -0.00016390    0.00011166   -0.00011004
     atom   42 type  2   force =    -0.00035007    0.00002746    0.00017800
     atom   43 type  1   force =     0.00012784   -0.00020713   -0.00042868
     atom   44 type  1   force =    -0.00044914   -0.00007025   -0.00004429
     atom   45 type  2   force =    -0.00004559    0.00002441    0.10503203
     atom   46 type  2   force =    -0.06790349   -0.00050102   -0.02657727
     atom   47 type  2   force =     0.06762429   -0.00005410   -0.02665148
     atom   48 type  3   force =    -0.00060992   -0.00064871    0.00004755
     atom   49 type  2   force =    -0.00129189   -0.00082599   -0.00088063
     atom   50 type  4   force =     0.00061764    0.00067255   -0.00051677
     atom   51 type  4   force =     0.00077499    0.00067542    0.00051429

     Total force =     0.367822     Total SCF correction =     0.000577
  @ DRIVER MODE: Message from server: STATUS
  @ DRIVER MODE: Message from server: GETFORCE
  @ DRIVER MODE: Returning v,forces,stress,ensemble

     Writing output data file ./calc.save/
  @ DRIVER MODE: Message from server: EXIT
  @ DRIVE MODE: Exiting

     General routines

     Parallel routines

   This run was terminated on:   3:27:26   9Sep2021

   JOB DONE.