     Program PWSCF v.6.7GPU starts on 19Oct2021 at  6:12:58

     R & G space division:  proc/nbgrp/npool/nimage =       8
     Reading input from /storage/home/hcoda1/3/ntian30/research/carbon/CxH_vib/Thiel_calc/ads_slab/NH2NH3H_perslab/out_0039/pw.inp
Warning: card &CELL ignored
Warning: card   CELL_DYNAMICS='IPI', ignored
Warning: card / ignored

     Current dimensions of program PWSCF are:
     Max number of different atomic species (ntypx) = 10
     Max number of k-points (npk) =  40000
     Max angular momentum in pseudopotentials (lmaxx) =  3
     Presently no symmetry can be used with electric field

     Message from routine cell_base_init:
     DEPRECATED: use true lattice parameter, not A to a.u. conversion factor

     IMPORTANT: XC functional enforced from input :
     Exchange-correlation= BEEF-VDW
                           (   1   4  43  14   2   0   0)
     Any further DFT definition will be discarded
     Please, verify this is what you really want

  @ DRIVER MODE: Connecting to
 qe_1139763_3255138.sched-torque.pace.gatech.edu1i0ct0u6_scratch
  using UNIX socket
  @ DRIVER MODE: Message from server: STATUS
  @ DRIVER MODE: Message from server: INIT
  @ DRIVER MODE: Receiving replica           0          -1
  @ DRIVER MODE: Receiving encoded integer          25
  @ DRIVER MODE:  SCF:  T  FORCE:  T  STRESS:  F  VC:  F  ENSEMBLE:  F
  @ DRIVER MODE:  SCF:  T  FORCE:  T  STRESS:  F  VC:  F  ENSEMBLE:  F

     Using Slab Decomposition

     bravais-lattice index     =            0
     lattice parameter (alat)  =       1.8897  a.u.
     unit-cell volume          =    9988.4706 (a.u.)^3
     number of atoms/cell      =           61
     number of atomic types    =            4
     number of electrons       =       442.00
     number of Kohn-Sham states=          231
     kinetic-energy cutoff     =      29.3995  Ry
     charge density cutoff     =     293.9946  Ry
     scf convergence threshold =      7.3E-08
     mixing beta               =       0.0500
     number of iterations used =            8  plain     mixing
     Exchange-correlation= BEEF-VDW
                           (   1   4  43  14   2   0   0)

     celldm(1)=   1.889726  celldm(2)=   0.000000  celldm(3)=   0.000000
     celldm(4)=   0.000000  celldm(5)=   0.000000  celldm(6)=   0.000000

     crystal axes: (cart. coord. in units of alat)
               a(1) = (   6.579727   0.000000   0.000000 )
               a(2) = (  -0.001163   8.942395   0.000000 )
               a(3) = (   0.000000   0.000000  25.155947 )

     reciprocal axes: (cart. coord. in units 2 pi/alat)
               b(1) = (  0.151982  0.000020  0.000000 )
               b(2) = (  0.000000  0.111827  0.000000 )
               b(3) = (  0.000000  0.000000  0.039752 )

     PseudoPot. # 1 for O  read from file:
     /storage/coda1/p-amedford6/0/shared/rich_project_chbe-medford/medford-share/data/pseudos_module/espresso/nninc/pbe/van/O.UPF
     MD5 check sum: 78c19812648e8988a0fe644b0f25305e
     Pseudo is Ultrasoft, Zval =  6.0
     Generated by new atomic code, or converted to UPF format
     Using radial grid of  737 points,  4 beta functions with:
                l(1) =   0
                l(2) =   0
                l(3) =   1
                l(4) =   1
     Q(r) pseudized with  8 coefficients,  rinner =    0.800   0.800   0.800

     PseudoPot. # 2 for Ti read from file:
     /storage/coda1/p-amedford6/0/shared/rich_project_chbe-medford/medford-share/data/pseudos_module/espresso/nninc/pbe/van/Ti.UPF
     MD5 check sum: 8e4df49b7f0d34bbd5052bf3f5ea0213
     Pseudo is Ultrasoft, Zval = 12.0
     Generated by new atomic code, or converted to UPF format
     Using radial grid of  851 points,  6 beta functions with:
                l(1) =   0
                l(2) =   0
                l(3) =   1
                l(4) =   1
                l(5) =   2
                l(6) =   2
     Q(r) pseudized with  8 coefficients,  rinner =    1.000   1.000   1.000
                                                       1.000   1.000

     PseudoPot. # 3 for N  read from file:
     /storage/coda1/p-amedford6/0/shared/rich_project_chbe-medford/medford-share/data/pseudos_module/espresso/nninc/pbe/van/N.UPF
     MD5 check sum: 90d10febe142ad51ac9d5be1deb811c4
     Pseudo is Ultrasoft, Zval =  5.0
     Generated by new atomic code, or converted to UPF format
     Using radial grid of  729 points,  4 beta functions with:
                l(1) =   0
                l(2) =   0
                l(3) =   1
                l(4) =   1
     Q(r) pseudized with  8 coefficients,  rinner =    0.800   0.800   0.800

     PseudoPot. # 4 for H  read from file:
     /storage/coda1/p-amedford6/0/shared/rich_project_chbe-medford/medford-share/data/pseudos_module/espresso/nninc/pbe/van/H.UPF
     MD5 check sum: b5ee9d7bfd3a09ee7748110bda690ff7
     Pseudo is Ultrasoft, Zval =  1.0
     Generated by new atomic code, or converted to UPF format
     Using radial grid of  615 points,  1 beta functions with:
                l(1) =   0
     Q(r) pseudized with  8 coefficients,  rinner =    0.800

     atomic species   valence    mass     pseudopotential
        O1             6.00    15.99900     O ( 1.00)
        Ti1           12.00    47.86700     Ti( 1.00)
        N1             5.00    14.00700     N ( 1.00)
        H1             1.00     1.00800     H ( 1.00)

     No symmetry found

   Cartesian axes

     site n.     atom                  positions (alat units)
         1           O1  tau(   1) = (   0.0007354   0.0005023  10.5931620  )
         2           O1  tau(   2) = (   3.2893251   8.9324977  13.8850595  )
         3           O1  tau(   3) = (   0.0000810   0.0519898  17.3357851  )
         4           O1  tau(   4) = (   0.0006271   0.0005054   7.9858123  )
         5           O1  tau(   5) = (   3.2891750   8.9291278  11.1853435  )
         6           O1  tau(   6) = (   0.0004222   0.0485762  14.6167438  )
         7           O1  tau(   7) = (   1.9868534   1.4903216   9.2879459  )
         8           O1  tau(   8) = (   5.2393499   1.5905449  12.5682489  )
         9           O1  tau(   9) = (   1.9991366   1.5492019  16.1124644  )
        10           Ti1 tau(  10) = (   0.0007404   1.4906270   9.2895810  )
        11           Ti1 tau(  11) = (   3.2902999   1.3249318  12.4520864  )
        12           Ti1 tau(  12) = (   0.0005939   1.3452645  15.7597600  )
        13           O1  tau(  13) = (   4.5942328   1.4918067   9.2879030  )
        14           O1  tau(  14) = (   1.3411764   1.5910169  12.5684512  )
        15           O1  tau(  15) = (   4.5798538   1.5480364  16.1129854  )
        16           Ti1 tau(  16) = (   3.2902859   2.9801868   9.2893338  )
        17           Ti1 tau(  17) = (   0.0006295   2.8174385  12.4372122  )
        18           Ti1 tau(  18) = (   3.2897038   2.9127836  15.6935398  )
        19           O1  tau(  19) = (   0.0003479   2.9813005  10.5931620  )
        20           O1  tau(  20) = (   3.2904107   2.9319293  13.8952334  )
        21           O1  tau(  21) = (   0.0002396   2.9813036   7.9858123  )
        22           O1  tau(  22) = (   3.2903884   2.9732875  11.2024877  )
        23           O1  tau(  23) = (   6.5791771   2.9400465  14.7470945  )
        24           O1  tau(  24) = (   1.9864658   4.4711199   9.2879459  )
        25           O1  tau(  25) = (   5.2507180   4.5586503  12.6053682  )
        26           O1  tau(  26) = (   1.9989508   4.4013585  16.0758979  )
        27           Ti1 tau(  27) = (   0.0003529   4.4714252   9.2895810  )
        28           Ti1 tau(  28) = (   3.2908498   4.3294621  12.5515864  )
        29           Ti1 tau(  29) = (   0.0012874   4.5361023  15.7587160  )
        30           O1  tau(  30) = (   4.5938453   4.4726049   9.2879030  )
        31           O1  tau(  31) = (   1.3295807   4.5581274  12.6051842  )
        32           O1  tau(  32) = (   4.5807093   4.4011557  16.0767203  )
        33           Ti1 tau(  33) = (   3.2898983   5.9609850   9.2893338  )
        34           Ti1 tau(  34) = (   0.0011720   5.8030845  12.4395124  )
        35           Ti1 tau(  35) = (   3.2913837   5.8399099  16.1904745  )
        36           O1  tau(  36) = (  -0.0000397   5.9620987  10.5931620  )
        37           O1  tau(  37) = (   3.2897076   5.9457256  13.9643012  )
        38           O1  tau(  38) = (   0.0001823   5.8979554  17.1998916  )
        39           O1  tau(  39) = (  -0.0001480   5.9621018   7.9858123  )
        40           O1  tau(  40) = (   3.2897623   5.9362706  11.2341171  )
        41           O1  tau(  41) = (   0.0004469   5.9800359  14.6665197  )
        42           O1  tau(  42) = (   1.9860782   7.4519181   9.2879459  )
        43           O1  tau(  43) = (   5.2507221   7.5245448  12.5933772  )
        44           O1  tau(  44) = (   1.9799843   7.5745874  16.0532815  )
        45           Ti1 tau(  45) = (  -0.0000347   7.4522234   9.2895810  )
        46           Ti1 tau(  46) = (   3.2894177   7.1911746  12.6495270  )
        47           Ti1 tau(  47) = (   0.0007314   7.2822180  16.1322395  )
        48           O1  tau(  48) = (   4.5934577   7.4534031   9.2879030  )
        49           O1  tau(  49) = (   1.3275845   7.5244469  12.5935105  )
        50           O1  tau(  50) = (   4.5990354   7.5728923  16.0522427  )
        51           Ti1 tau(  51) = (   3.2895107   8.9417832   9.2893338  )
        52           Ti1 tau(  52) = (  -0.0007012   8.7603021  12.4499776  )
        53           Ti1 tau(  53) = (   3.2901857   8.8509785  15.6953962  )
        54           N1  tau(  54) = (   3.2899770   5.9827455  18.1265562  )
        55           H1  tau(  55) = (   3.2886311   5.2071789  18.7771882  )
        56           H1  tau(  56) = (   3.2869209   6.8541504  18.6418389  )
        57           H1  tau(  57) = (   6.5771076   8.8877891  18.2917622  )
        58           N1  tau(  58) = (   6.5788838   3.2021548  17.9140464  )
        59           H1  tau(  59) = (   6.5785461   2.2502248  18.2648563  )
        60           H1  tau(  60) = (   5.7591345   3.6662813  18.2792932  )
        61           H1  tau(  61) = (   0.8178175   3.6764091  18.2810048  )

     number of k points=    10  Fermi-Dirac smearing, width (Ry)=  0.0073
                       cart. coord. in units 2pi/alat
        k(    1) = (   0.0000000   0.0000000   0.0000000), wk =   0.1250000
        k(    2) = (   0.0000000   0.0279567   0.0000000), wk =   0.2500000
        k(    3) = (   0.0000000  -0.0559134   0.0000000), wk =   0.1250000
        k(    4) = (   0.0379955   0.0000049   0.0000000), wk =   0.2500000
        k(    5) = (   0.0379955   0.0279617   0.0000000), wk =   0.2500000
        k(    6) = (   0.0379955  -0.0559085   0.0000000), wk =   0.2500000
        k(    7) = (   0.0379955  -0.0279518   0.0000000), wk =   0.2500000
        k(    8) = (  -0.0759910  -0.0000099   0.0000000), wk =   0.1250000
        k(    9) = (  -0.0759910   0.0279468   0.0000000), wk =   0.2500000
        k(   10) = (  -0.0759910  -0.0559233   0.0000000), wk =   0.1250000

     Initial potential from superposition of free atoms

     starting charge  423.99908, renormalised to  442.00000

     negative rho (up, down):  3.661E-02 0.000E+00

     %%%%%%%%%%%%%%%%%%%%%%%%%%%%%%%%%%%%%%%%%%%%%%%%%%%%%%%%%%%%%%%%%%%%%%%%
     %                                                                      %
     % You are using vdW-DF, which was implemented by the Thonhauser group. %
     % Please cite the following two papers that made this development      %
     % possible and the two reviews that describe the various versions:     %
     %                                                                      %
     %   T. Thonhauser et al., PRL 115, 136402 (2015).                      %
     %   T. Thonhauser et al., PRB 76, 125112 (2007).                       %
     %   K. Berland et al., Rep. Prog. Phys. 78, 066501 (2015).             %
     %   D.C. Langreth et al., J. Phys.: Condens. Matter 21, 084203 (2009). %
     %                                                                      %
     %                                                                      %
     % If you are calculating the stress with vdW-DF, please also cite:     %
     %                                                                      %
     %   R. Sabatini et al., J. Phys.: Condens. Matter 24, 424209 (2012).   %
     %                                                                      %
     %%%%%%%%%%%%%%%%%%%%%%%%%%%%%%%%%%%%%%%%%%%%%%%%%%%%%%%%%%%%%%%%%%%%%%%%

     Adding external electric field

     Computed dipole along edir(3) :
        Dipole               -6.2843 Ry au,        -15.9732 Debye
        Dipole field         -0.0079 Ry au,

        Potential amp.        0.7329 Ry
        Total length         46.3494 bohr

     Starting wfcs are  334 atomic wfcs
  @ DRIVER MODE: Message from server: STATUS
  @ DRIVER MODE: Message from server: POSDATA
  @ DRIVER MODE: Reading and sharing cell
  @ DRIVER MODE: Reading and sharing positions
  @ DRIVER MODE: Received positions

     Self-consistent Calculation

     iteration #  1     ecut=    29.40 Ry     beta= 0.05
     Davidson diagonalization with overlap
     c_bands:  2 eigenvalues not converged
     c_bands:  4 eigenvalues not converged
     c_bands:  3 eigenvalues not converged
     c_bands:  4 eigenvalues not converged
     c_bands:  5 eigenvalues not converged
     c_bands:  4 eigenvalues not converged
     c_bands:  2 eigenvalues not converged
     c_bands:  2 eigenvalues not converged
     ethr =  1.00E-05,  avg # of iterations = 21.5

[...]

     total energy              =   -3276.11284778 Ry
     estimated scf accuracy    <     260.18839375 Ry

     iteration #  2     ecut=    29.40 Ry     beta= 0.05
     Davidson diagonalization with overlap
     ethr =  1.00E-02,  avg # of iterations = 15.0

[...]

     iteration # 47     ecut=    29.40 Ry     beta= 0.05
     Davidson diagonalization with overlap
     c_bands:  1 eigenvalues not converged
     ethr =  1.68E-10,  avg # of iterations = 15.8

[...]

     total energy              =   -3295.82437806 Ry
     estimated scf accuracy    <       0.00000011 Ry

     iteration # 51     ecut=    29.40 Ry     beta= 0.05
     Davidson diagonalization with overlap
     ethr =  2.59E-11,  avg # of iterations =  6.3

     negative rho (up, down):  3.545E-02 0.000E+00

     Adding external electric field

     Computed dipole along edir(3) :
        Dipole                1.9339 Ry au,          4.9154 Debye
        Dipole field          0.0024 Ry au,

        Potential amp.       -0.2255 Ry
        Total length         46.3494 bohr

     End of self-consistent calculation

          k = 0.0000 0.0000 0.0000 ( 26871 PWs)   bands (ev):

   -57.4682 -57.4328 -57.4201 -57.3808 -57.3718 -57.3638 -57.3531 -57.3418
   -57.3212 -57.2824 -57.2761 -57.2395 -57.2181 -57.2016 -57.1819 -56.5416
   -56.5173 -56.5113 -33.9388 -33.8522 -33.8518 -33.8290 -33.8092 -33.7917
   -33.7740 -33.7700 -33.7664 -33.7531 -33.7280 -33.7069 -33.7019 -33.6871
   -33.6854 -33.6808 -33.6601 -33.6513 -33.6296 -33.6243 -33.5929 -33.5781
   -33.5604 -33.5562 -33.5487 -33.5476 -33.5439 -33.5364 -33.5247 -33.5215
   -33.5148 -33.5005 -33.4919 -33.4908 -33.4841 -33.4827 -33.4737 -33.4718
   -33.4640 -33.4531 -33.4414 -33.4245 -33.4086 -33.4023 -33.3875 -32.8604
   -32.8521 -32.8511 -32.8345 -32.8290 -32.7696 -32.7084 -32.7010 -32.5695
   -19.3431 -18.2725 -17.9745 -17.7762 -17.7255 -17.6922 -17.5924 -17.5485
   -17.4953 -17.4417 -17.4053 -17.3629 -17.2875 -17.2470 -17.2453 -17.2214
   -17.1671 -17.1432 -17.1351 -17.1250 -17.1232 -17.0986 -17.0491 -17.0454
   -16.9885 -16.9472 -16.9154 -16.9050 -16.8968 -16.8645 -16.8559 -16.8035
   -16.6047 -15.0245 -15.0077 -14.9488 -14.9454  -7.8537  -7.6638  -7.3897
    -6.4604  -5.5810  -5.4294  -5.3978  -5.2342  -4.9629  -4.9111  -4.8680
    -4.8215  -4.7840  -4.7455  -4.7226  -4.6935  -4.6621  -4.6105  -4.5798
    -4.5631  -4.5298  -4.5096  -4.4787  -4.4487  -4.4438  -4.4140  -4.3252
    -4.3161  -4.2922  -4.2744  -4.2391  -4.2207  -4.2180  -4.1689  -4.1575
    -4.0689  -3.9820  -3.8962  -3.8437  -3.8173  -3.7937  -3.7467  -3.7092
    -3.6800  -3.6356  -3.6154  -3.5469  -3.5191  -3.5084  -3.4325  -3.3975
    -3.3024  -3.2638  -3.2525  -3.2315  -3.1893  -3.1775  -3.0950  -3.0826
    -2.9733  -2.9543  -2.8650  -2.7909  -2.7413  -2.7132  -2.6755  -2.6138
    -2.5942  -2.5489  -2.5207  -2.4602  -2.4464  -2.3202  -2.2525  -2.2490
    -2.2291  -2.1906  -2.1611  -2.1471  -2.1247  -2.1218  -2.0434  -2.0345
    -1.9847  -1.9096  -1.8838  -1.8471  -1.8343  -1.7989  -1.7568  -1.6920
    -1.6864  -1.6510  -1.5631  -1.5023  -1.5011  -1.3549  -1.3489  -1.3156
    -1.2671  -1.2134  -1.1829  -0.7805  -0.6046  -0.4348  -0.3091  -0.2484
    -0.2470   0.0277   0.0327   0.1651   1.6140   1.7651   1.8255   1.9594
     1.9779   2.0369   2.1185   2.1409   2.2079   2.2351   2.2462

[...]

          k = 0.0380-0.0280 0.0000 ( 26873 PWs)   bands (ev):

[...]

          k =-0.0760-0.0000 0.0000 ( 26902 PWs)   bands (ev):

[...]

          k =-0.0760-0.0559 0.0000 ( 26868 PWs)   bands (ev):

   -57.4666 -57.4374 -57.4170 -57.3783 -57.3677 -57.3657 -57.3614 -57.3384
   -57.3208 -57.2821 -57.2764 -57.2358 -57.2248 -57.1987 -57.1819 -56.5364
   -56.5283 -56.5055 -33.9837 -33.9348 -33.8632 -33.8187 -33.8029 -33.7906
   -33.7836 -33.7758 -33.7654 -33.7441 -33.7150 -33.6966 -33.6591 -33.6572
   -33.6371 -33.6242 -33.6092 -33.5959 -33.5946 -33.5900 -33.5856 -33.5762
   -33.5722 -33.5654 -33.5633 -33.5506 -33.5423 -33.5276 -33.5220 -33.5199
   -33.5157 -33.5151 -33.5111 -33.5083 -33.5060 -33.4945 -33.4883 -33.4842
   -33.4815 -33.4743 -33.4469 -33.4410 -33.4353 -33.4235 -33.3994 -32.9477
   -32.8530 -32.8448 -32.8231 -32.7524 -32.7437 -32.6833 -32.6702 -32.6625
   -19.3365 -17.9697 -17.8310 -17.8293 -17.6534 -17.6077 -17.5999 -17.5301
   -17.4844 -17.4438 -17.4344 -17.4031 -17.3545 -17.3300 -17.3008 -17.2747
   -17.2589 -17.2240 -17.1826 -17.1817 -17.1480 -17.1149 -17.0881 -17.0459
   -17.0393 -16.9853 -16.9213 -16.8836 -16.8592 -16.8567 -16.8198 -16.7952
   -16.6378 -15.0251 -15.0056 -15.0013 -14.8855  -7.8618  -7.6812  -7.3787
    -6.4521  -5.2154  -5.1778  -5.1323  -5.0391  -5.0015  -4.9697  -4.8337
    -4.7733  -4.7317  -4.6870  -4.6441  -4.6363  -4.6220  -4.5663  -4.5489
    -4.5334  -4.4872  -4.4464  -4.4263  -4.4033  -4.4020  -4.3983  -4.3950
    -4.2632  -4.2515  -4.1987  -4.1783  -4.1559  -4.1330  -4.1306  -4.0763
    -4.0343  -3.9933  -3.9809  -3.9555  -3.8931  -3.8365  -3.7558  -3.6577
    -3.6469  -3.5900  -3.5799  -3.4872  -3.4818  -3.3897  -3.3254  -3.2808
    -3.2520  -3.2270  -3.1506  -3.1455  -3.1365  -3.0862  -3.0525  -3.0239
    -2.9756  -2.9651  -2.9205  -2.8178  -2.7823  -2.7241  -2.6973  -2.6937
    -2.6363  -2.6321  -2.5950  -2.5933  -2.5866  -2.5419  -2.4872  -2.4535
    -2.4362  -2.4046  -2.3157  -2.2917  -2.2386  -2.2309  -2.1653  -2.1490
    -2.1365  -2.0728  -2.0213  -1.9899  -1.9817  -1.9081  -1.8045  -1.7462
    -1.7244  -1.7031  -1.5974  -1.5484  -1.4926  -1.4501  -1.2678  -1.2555
    -1.1831  -1.1435  -1.0905  -1.0418  -0.8548  -0.4562  -0.4042  -0.1868
    -0.1714  -0.1340   0.0324   0.0381   1.7066   1.7182   1.8157   1.8570
     1.9189   1.9297   1.9741   1.9912   2.0009   2.0470   2.0529

     the Fermi energy is     1.6455 ev

!    total energy              =   -3295.82447650 Ry
     estimated scf accuracy    <       0.00000005 Ry
     smearing contrib. (-TS)   =      -0.03670387 Ry
     internal energy E=F+TS    =   -3295.78777264 Ry

     The total energy is F=E-TS. E is the sum of the following terms:
     one-electron contribution =  -34289.93868081 Ry
     hartree contribution      =   17213.96478780 Ry
     xc contribution           =    -543.77734942 Ry
     ewald contribution        =   14323.95876473 Ry
     electric field correction =       0.00470506 Ry

     convergence has been achieved in  51 iterations

     Forces acting on atoms (cartesian axes, Ry/au):

     atom    1 type  1   force =     0.00001383    0.00239778    0.05212214
     atom    2 type  1   force =    -0.00004386   -0.00060699   -0.00560553
     atom    3 type  1   force =     0.00001887   -0.00290391   -0.00288119
     atom    4 type  1   force =     0.00005421   -0.00037243    0.10760991
     atom    5 type  1   force =    -0.00002089    0.00172571    0.00531002
     atom    6 type  1   force =     0.00000738   -0.00048949    0.00055662
     atom    7 type  1   force =     0.06434006    0.00078072   -0.03000972
     atom    8 type  1   force =     0.00530536   -0.02658999    0.00244871
     atom    9 type  1   force =     0.00844185   -0.01289166   -0.00075679
     atom   10 type  2   force =    -0.00006011   -0.00537640   -0.18728142
     atom   11 type  2   force =     0.00012416    0.02015313   -0.00481860
     atom   12 type  2   force =    -0.00007376    0.01845356   -0.00056463
     atom   13 type  1   force =    -0.06444457    0.00030401   -0.02996806
     atom   14 type  1   force =    -0.00512403   -0.02679780    0.00247593
     atom   15 type  1   force =    -0.00836264   -0.01278625   -0.00069575
     atom   16 type  2   force =     0.00009249   -0.00106670    0.07212042
     atom   17 type  2   force =    -0.00026425    0.03303958    0.00614806
     atom   18 type  2   force =     0.00001108    0.00461550   -0.00762128
     atom   19 type  1   force =     0.00001477    0.00395377    0.05310117
     atom   20 type  1   force =    -0.00004048   -0.00055646   -0.00171383
     atom   21 type  1   force =     0.00005401    0.00130694    0.10846239
     atom   22 type  1   force =    -0.00002659   -0.00119372    0.00631221
     atom   23 type  1   force =     0.00003088   -0.00519263    0.00192560
     atom   24 type  1   force =     0.06586664    0.00139728   -0.02847803
     atom   25 type  1   force =     0.00546279   -0.02924868    0.00262785
     atom   26 type  1   force =     0.00971919   -0.00197525   -0.00018071
     atom   27 type  2   force =    -0.00006960   -0.00075613   -0.19124475
     atom   28 type  2   force =     0.00014779    0.02480880   -0.00471283
     atom   29 type  2   force =    -0.00015435   -0.00413330    0.00941357
     atom   30 type  1   force =    -0.06597078    0.00095896   -0.02844909
     atom   31 type  1   force =    -0.00531351   -0.02937094    0.00266629
     atom   32 type  1   force =    -0.00966386   -0.00197566   -0.00020481
     atom   33 type  2   force =     0.00013578    0.00069970    0.08051007
     atom   34 type  2   force =    -0.00029168    0.03538816    0.00620296
     atom   35 type  2   force =     0.00007840    0.01547672    0.00202854
     atom   36 type  1   force =     0.00006565    0.00027006    0.05321087
     atom   37 type  1   force =    -0.00003413    0.00176951   -0.00892748
     atom   38 type  1   force =     0.00002874    0.00140653   -0.00020610
     atom   39 type  1   force =     0.00005427   -0.00117347    0.10818621
     atom   40 type  1   force =    -0.00003391   -0.00137986    0.00604701
     atom   41 type  1   force =     0.00001714    0.00389348    0.00141467
     atom   42 type  1   force =     0.06611928   -0.00349857   -0.02907374
     atom   43 type  1   force =     0.00365520   -0.02410782    0.00085441
     atom   44 type  1   force =     0.01423666   -0.01860852    0.00310908
     atom   45 type  2   force =    -0.00009353    0.00310932   -0.18717231
     atom   46 type  2   force =     0.00013466    0.01623117    0.00221668
     atom   47 type  2   force =    -0.00007667    0.01852143   -0.00286594
     atom   48 type  1   force =    -0.06622011   -0.00393456   -0.02903098
     atom   49 type  1   force =    -0.00340574   -0.02429972    0.00086894
     atom   50 type  1   force =    -0.01423061   -0.01855433    0.00311236
     atom   51 type  2   force =     0.00012876   -0.00296047    0.07342715
     atom   52 type  2   force =    -0.00027711    0.03102759    0.00785392
     atom   53 type  2   force =    -0.00000427    0.02026736    0.00049443
     atom   54 type  3   force =    -0.00003051   -0.00077145   -0.00282911
     atom   55 type  4   force =     0.00003162   -0.00039134    0.00067019
     atom   56 type  4   force =    -0.00003887    0.00035684   -0.00027692
     atom   57 type  4   force =    -0.00004758   -0.00019508   -0.00005814
     atom   58 type  3   force =     0.00480489   -0.00477400   -0.00212991
     atom   59 type  4   force =     0.00118187   -0.00031058   -0.00013354
     atom   60 type  4   force =    -0.00546033    0.00585240    0.00321896
     atom   61 type  4   force =    -0.00049994    0.00107815    0.00116385

     Total force =     0.459495     Total SCF correction =     0.000651
  @ DRIVER MODE: Message from server: STATUS
  @ DRIVER MODE: Message from server: GETFORCE
  @ DRIVER MODE: Returning v,forces,stress,ensemble

     Writing output data file ./calc.save/
  @ DRIVER MODE: Message from server: EXIT
  @ DRIVE MODE: Exiting

     General routines

     Parallel routines

   This run was terminated on:   6:39:47  19Oct2021

   JOB DONE.