     Program PWSCF v.6.7GPU starts on 11Sep2021 at  6:35:45

     R & G space division:  proc/nbgrp/npool/nimage =      10
     Reading input from /storage/home/hcoda1/3/ntian30/research/carbon/CxH_vib/CH2_calc/ads_slab/CH2NHNH2_a/out_0035/pw.inp
Warning: card &CELL ignored
Warning: card   CELL_DYNAMICS='IPI', ignored
Warning: card / ignored

     Current dimensions of program PWSCF are:
     Max number of different atomic species (ntypx) = 10
     Max number of k-points (npk) =  40000
     Max angular momentum in pseudopotentials (lmaxx) =  3
     Presently no symmetry can be used with electric field

     Message from routine cell_base_init:
     DEPRECATED: use true lattice parameter, not A to a.u. conversion factor

     IMPORTANT: XC functional enforced from input :
     Exchange-correlation= BEEF-VDW
                           (   1   4  43  14   2   0   0)
     Any further DFT definition will be discarded
     Please, verify this is what you really want

  @ DRIVER MODE: Connecting to
 qe_1139763_2792044.sched-torque.pace.gatech.edueuxlsva9_scratch
  using UNIX socket
  @ DRIVER MODE: Message from server: STATUS
  @ DRIVER MODE: Message from server: INIT
  @ DRIVER MODE: Receiving replica           0          -1
  @ DRIVER MODE: Receiving encoded integer          25
  @ DRIVER MODE:  SCF:  T  FORCE:  T  STRESS:  F  VC:  F  ENSEMBLE:  F
  @ DRIVER MODE:  SCF:  T  FORCE:  T  STRESS:  F  VC:  F  ENSEMBLE:  F

     Using Slab Decomposition

     bravais-lattice index     =            0
     lattice parameter (alat)  =       1.8897  a.u.
     unit-cell volume          =    6658.9804 (a.u.)^3
     number of atoms/cell      =           55
     number of atomic types    =            5
     number of electrons       =       397.00
     number of Kohn-Sham states=          208
     kinetic-energy cutoff     =      29.3995  Ry
     charge density cutoff     =     293.9946  Ry
     scf convergence threshold =      7.3E-08
     mixing beta               =       0.0500
     number of iterations used =            8  plain     mixing
     Exchange-correlation= BEEF-VDW
                           (   1   4  43  14   2   0   0)

     celldm(1)=   1.889726  celldm(2)=   0.000000  celldm(3)=   0.000000
     celldm(4)=   0.000000  celldm(5)=   0.000000  celldm(6)=   0.000000

     crystal axes: (cart. coord. in units of alat)
               a(1) = (   6.579727   0.000000   0.000000 )
               a(2) = (  -0.000775   5.961596   0.000000 )
               a(3) = (   0.000000   0.000000  25.155947 )

     reciprocal axes: (cart. coord. in units 2 pi/alat)
               b(1) = (  0.151982  0.000020  0.000000 )
               b(2) = (  0.000000  0.167740  0.000000 )
               b(3) = (  0.000000  0.000000  0.039752 )

     PseudoPot. # 1 for Ti read from file:
     /storage/coda1/p-amedford6/0/shared/rich_project_chbe-medford/medford-share/data/pseudos_module/espresso/nninc/pbe/van/Ti.UPF
     MD5 check sum: 8e4df49b7f0d34bbd5052bf3f5ea0213
     Pseudo is Ultrasoft, Zval = 12.0
     Generated by new atomic code, or converted to UPF format
     Using radial grid of  851 points,  6 beta functions with:
                l(1) =   0
                l(2) =   0
                l(3) =   1
                l(4) =   1
                l(5) =   2
                l(6) =   2
     Q(r) pseudized with  8 coefficients,  rinner =    1.000   1.000   1.000
                                                       1.000   1.000

     PseudoPot. # 2 for O  read from file:
     /storage/coda1/p-amedford6/0/shared/rich_project_chbe-medford/medford-share/data/pseudos_module/espresso/nninc/pbe/van/O.UPF
     MD5 check sum: 78c19812648e8988a0fe644b0f25305e
     Pseudo is Ultrasoft, Zval =  6.0
     Generated by new atomic code, or converted to UPF format
     Using radial grid of  737 points,  4 beta functions with:
                l(1) =   0
                l(2) =   0
                l(3) =   1
                l(4) =   1
     Q(r) pseudized with  8 coefficients,  rinner =    0.800   0.800   0.800

     PseudoPot. # 3 for N  read from file:
     /storage/coda1/p-amedford6/0/shared/rich_project_chbe-medford/medford-share/data/pseudos_module/espresso/nninc/pbe/van/N.UPF
     MD5 check sum: 90d10febe142ad51ac9d5be1deb811c4
     Pseudo is Ultrasoft, Zval =  5.0
     Generated by new atomic code, or converted to UPF format
     Using radial grid of  729 points,  4 beta functions with:
                l(1) =   0
                l(2) =   0
                l(3) =   1
                l(4) =   1
     Q(r) pseudized with  8 coefficients,  rinner =    0.800   0.800   0.800

     PseudoPot. # 4 for C  read from file:
     /storage/coda1/p-amedford6/0/shared/rich_project_chbe-medford/medford-share/data/pseudos_module/espresso/nninc/pbe/van/C.UPF
     MD5 check sum: 1a69bf6b8db32088f5b2163dbdb77a27
     Pseudo is Ultrasoft, Zval =  4.0
     Generated by new atomic code, or converted to UPF format
     Using radial grid of  721 points,  4 beta functions with:
                l(1) =   0
                l(2) =   0
                l(3) =   1
                l(4) =   1
     Q(r) pseudized with  8 coefficients,  rinner =    0.800   0.800   0.800

     PseudoPot. # 5 for H  read from file:
     /storage/coda1/p-amedford6/0/shared/rich_project_chbe-medford/medford-share/data/pseudos_module/espresso/nninc/pbe/van/H.UPF
     MD5 check sum: b5ee9d7bfd3a09ee7748110bda690ff7
     Pseudo is Ultrasoft, Zval =  1.0
     Generated by new atomic code, or converted to UPF format
     Using radial grid of  615 points,  1 beta functions with:
                l(1) =   0
     Q(r) pseudized with  8 coefficients,  rinner =    0.800

     atomic species   valence    mass     pseudopotential
        Ti1           12.00    47.86700     Ti( 1.00)
        O1             6.00    15.99900     O ( 1.00)
        N1             5.00    14.00700     N ( 1.00)
        C1             4.00    12.01100     C ( 1.00)
        H1             1.00     1.00800     H ( 1.00)

     No symmetry found

   Cartesian axes

     site n.     atom                  positions (alat units)
         1           Ti1 tau(   1) = (   0.0004258   2.9801865   6.0000000  )
         2           Ti1 tau(   2) = (   3.2906075   1.4906267   6.0002472  )
         3           O1  tau(   3) = (   0.0006271   0.0005054   7.9858123  )
         4           O1  tau(   4) = (   3.2906025   0.0005020   7.3038282  )
         5           O1  tau(   5) = (   4.5942328   1.4918067   9.2879030  )
         6           O1  tau(   6) = (   1.9868534   1.4903216   9.2879459  )
         7           Ti1 tau(   7) = (   3.2907910   2.8959150   9.1758416  )
         8           Ti1 tau(   8) = (   0.0015273   1.4827037   9.2680791  )
         9           O1  tau(   9) = (   3.2904964   5.9585769  11.3857690  )
        10           O1  tau(  10) = (   0.0116148   5.9584955  10.6183126  )
        11           O1  tau(  11) = (   1.2878431   1.4867815  12.6991744  )
        12           O1  tau(  12) = (   5.2968392   1.4897239  12.6840540  )
        13           Ti1 tau(  13) = (   0.0031652   2.9724310  12.5021289  )
        14           Ti1 tau(  14) = (   3.2974598   1.4750309  12.5411678  )
        15           O1  tau(  15) = (   6.5490940   5.8844369  14.7025010  )
        16           O1  tau(  16) = (   3.3056738   5.9474069  14.0077327  )
        17           O1  tau(  17) = (   4.5358307   1.5199601  16.1809847  )
        18           O1  tau(  18) = (   2.0145668   1.5037208  16.1256758  )
        19           Ti1 tau(  19) = (   3.2722398   2.9952086  15.7861162  )
        20           Ti1 tau(  20) = (   6.5630583   1.3046800  15.8709962  )
        21           O1  tau(  21) = (   3.2904802   0.0005063   4.7018136  )
        22           O1  tau(  22) = (   0.0019326   0.1554656  17.2922311  )
        23           O1  tau(  23) = (   1.3043587   1.4918075   6.0039043  )
        24           O1  tau(  24) = (   5.2767064   1.4903225   6.0039473  )
        25           Ti1 tau(  25) = (   0.0000382   5.9609847   6.0000000  )
        26           Ti1 tau(  26) = (   3.2902200   4.4714249   6.0002472  )
        27           O1  tau(  27) = (   0.0002396   2.9813036   7.9858123  )
        28           O1  tau(  28) = (   3.2902150   2.9813002   7.3038282  )
        29           O1  tau(  29) = (   4.5938453   4.4726049   9.2879030  )
        30           O1  tau(  30) = (   1.9864658   4.4711199   9.2879459  )
        31           Ti1 tau(  31) = (   3.2891106   5.8743827   9.1763621  )
        32           Ti1 tau(  32) = (   0.0006254   4.4649316   9.2693709  )
        33           O1  tau(  33) = (   3.2902589   2.9648534  11.3782866  )
        34           O1  tau(  34) = (   0.0092240   2.9805883  10.6323155  )
        35           O1  tau(  35) = (   1.2907939   4.4579819  12.6664495  )
        36           O1  tau(  36) = (   5.2949113   4.4550998  12.6520156  )
        37           Ti1 tau(  37) = (   0.0082621   5.9437129  12.5015890  )
        38           Ti1 tau(  38) = (   3.2989848   4.4491302  12.5337562  )
        39           O1  tau(  39) = (   6.5545586   3.0159292  14.9830317  )
        40           O1  tau(  40) = (   3.2960925   2.9977268  13.9872472  )
        41           O1  tau(  41) = (   4.5245867   4.4695491  16.2648171  )
        42           O1  tau(  42) = (   2.0004542   4.4779941  16.2115700  )
        43           Ti1 tau(  43) = (   3.2998562   0.0139781  15.8031611  )
        44           Ti1 tau(  44) = (   0.0298651   4.5190837  16.0363964  )
        45           O1  tau(  45) = (   3.2900926   2.9813045   4.7018136  )
        46           O1  tau(  46) = (   1.3039711   4.4726057   6.0039043  )
        47           O1  tau(  47) = (   5.2763189   4.4711207   6.0039473  )
        48           N1  tau(  48) = (   0.7490466   2.5008218  18.8353846  )
        49           N1  tau(  49) = (   6.4369825   3.4131575  18.1751453  )
        50           C1  tau(  50) = (   1.9829018   2.9174465  19.1941100  )
        51           H1  tau(  51) = (   2.1359794   3.9544348  19.4490303  )
        52           H1  tau(  52) = (   2.6935556   2.1521737  19.4548401  )
        53           H1  tau(  53) = (   0.6355624   1.5475814  18.4536284  )
        54           H1  tau(  54) = (   6.4936903   4.3158724  18.6511896  )
        55           H1  tau(  55) = (   5.4890587   3.0624770  18.3097170  )

     number of k points=    10  Fermi-Dirac smearing, width (Ry)=  0.0073
                       cart. coord. in units 2pi/alat
        k(    1) = (   0.0000000   0.0000000   0.0000000), wk =   0.1250000
        k(    2) = (   0.0000000   0.0419351   0.0000000), wk =   0.2500000
        k(    3) = (   0.0000000  -0.0838702   0.0000000), wk =   0.1250000
        k(    4) = (   0.0379955   0.0000049   0.0000000), wk =   0.2500000
        k(    5) = (   0.0379955   0.0419400   0.0000000), wk =   0.2500000
        k(    6) = (   0.0379955  -0.0838652   0.0000000), wk =   0.2500000
        k(    7) = (   0.0379955  -0.0419301   0.0000000), wk =   0.2500000
        k(    8) = (  -0.0759910  -0.0000099   0.0000000), wk =   0.1250000
        k(    9) = (  -0.0759910   0.0419252   0.0000000), wk =   0.2500000
        k(   10) = (  -0.0759910  -0.0838800   0.0000000), wk =   0.1250000

     Initial potential from superposition of free atoms

     starting charge  380.99914, renormalised to  397.00000

     negative rho (up, down):  1.606E-02 0.000E+00

     %%%%%%%%%%%%%%%%%%%%%%%%%%%%%%%%%%%%%%%%%%%%%%%%%%%%%%%%%%%%%%%%%%%%%%%%
     %                                                                      %
     % You are using vdW-DF, which was implemented by the Thonhauser group. %
     % Please cite the following two papers that made this development      %
     % possible and the two reviews that describe the various versions:     %
     %                                                                      %
     %   T. Thonhauser et al., PRL 115, 136402 (2015).                      %
     %   T. Thonhauser et al., PRB 76, 125112 (2007).                       %
     %   K. Berland et al., Rep. Prog. Phys. 78, 066501 (2015).             %
     %   D.C. Langreth et al., J. Phys.: Condens. Matter 21, 084203 (2009). %
     %                                                                      %
     %                                                                      %
     % If you are calculating the stress with vdW-DF, please also cite:     %
     %                                                                      %
     %   R. Sabatini et al., J. Phys.: Condens. Matter 24, 424209 (2012).   %
     %                                                                      %
     %%%%%%%%%%%%%%%%%%%%%%%%%%%%%%%%%%%%%%%%%%%%%%%%%%%%%%%%%%%%%%%%%%%%%%%%

     Adding external electric field

     Computed dipole along edir(3) :
        Dipole              -10.6762 Ry au,        -27.1361 Debye
        Dipole field         -0.0201 Ry au,

        Potential amp.        1.8676 Ry
        Total length         46.3494 bohr

     Starting wfcs are  301 atomic wfcs
  @ DRIVER MODE: Message from server: STATUS
  @ DRIVER MODE: Message from server: POSDATA
  @ DRIVER MODE: Reading and sharing cell
  @ DRIVER MODE: Reading and sharing positions
  @ DRIVER MODE: Received positions

     Self-consistent Calculation

     iteration #  1     ecut=    29.40 Ry     beta= 0.05
     Davidson diagonalization with overlap
     c_bands:  2 eigenvalues not converged
     c_bands:  3 eigenvalues not converged
     c_bands:  1 eigenvalues not converged
     c_bands:  4 eigenvalues not converged
     c_bands:  4 eigenvalues not converged
     c_bands:  4 eigenvalues not converged
     c_bands:  1 eigenvalues not converged
     c_bands:  2 eigenvalues not converged
     c_bands:  2 eigenvalues not converged
     ethr =  1.00E-05,  avg # of iterations = 20.0

[...]

     total energy              =   -2465.31553391 Ry
     estimated scf accuracy    <    5331.44545511 Ry

     iteration #  2     ecut=    29.40 Ry     beta= 0.05
     Davidson diagonalization with overlap
     ethr =  1.00E-02,  avg # of iterations = 24.1

[...]

     iteration # 69     ecut=    29.40 Ry     beta= 0.05
     Davidson diagonalization with overlap
     c_bands:  1 eigenvalues not converged
     c_bands:  1 eigenvalues not converged
     ethr =  3.52E-11,  avg # of iterations = 15.9

[...]

     total energy              =   -2941.51056601 Ry
     estimated scf accuracy    <       0.00000010 Ry

     iteration # 70     ecut=    29.40 Ry     beta= 0.05
     Davidson diagonalization with overlap
     ethr =  2.51E-11,  avg # of iterations =  7.1

     negative rho (up, down):  1.516E-02 0.000E+00

     Adding external electric field

     Computed dipole along edir(3) :
        Dipole                1.2020 Ry au,          3.0551 Debye
        Dipole field          0.0023 Ry au,

        Potential amp.       -0.2103 Ry
        Total length         46.3494 bohr

     End of self-consistent calculation

          k = 0.0000 0.0000 0.0000 ( 18029 PWs)   bands (ev):

   -55.3837 -55.3468 -55.3381 -55.3040 -55.2655 -55.2594 -55.2309 -55.2124
   -55.1882 -55.1858 -55.1780 -55.1686 -55.1349 -55.0338 -54.3712 -54.3371
   -31.9465 -31.8314 -31.7791 -31.7528 -31.7015 -31.6911 -31.6854 -31.6751
   -31.6268 -31.6183 -31.5959 -31.5827 -31.5735 -31.5493 -31.5430 -31.5359
   -31.5234 -31.5075 -31.5061 -31.4908 -31.4900 -31.4533 -31.4528 -31.4427
   -31.4427 -31.4147 -31.3959 -31.3953 -31.3951 -31.3902 -31.3743 -31.3674
   -31.3665 -31.3603 -31.3602 -31.3577 -31.3257 -31.3015 -31.2964 -31.2800
   -31.2487 -31.2041 -30.7808 -30.6860 -30.6640 -30.5971 -30.5103 -30.3994
   -18.8920 -16.2161 -15.9626 -15.8156 -15.7080 -15.5903 -15.4817 -15.4268
   -15.3206 -15.2491 -15.1361 -15.0860 -15.0698 -15.0375 -15.0286 -15.0164
   -14.9367 -14.9302 -14.9126 -14.8894 -14.8837 -14.8417 -14.8301 -14.7892
   -14.7642 -14.7582 -14.6370 -14.5509 -14.4762 -14.3181 -14.3143 -12.8738
   -12.7563  -9.8493  -7.4543  -6.2534  -4.9911  -4.0088  -3.5960  -3.5484
    -3.4096  -3.3013  -3.2806  -3.2441  -3.1440  -2.9634  -2.8268  -2.7931
    -2.6772  -2.5966  -2.5834  -2.5527  -2.4279  -2.3907  -2.3522  -2.2873
    -2.2576  -2.1950  -2.1764  -2.1650  -2.1460  -2.1219  -2.0971  -1.9970
    -1.9574  -1.8616  -1.8219  -1.7883  -1.7472  -1.7301  -1.7100  -1.6790
    -1.6688  -1.6147  -1.6012  -1.5870  -1.5382  -1.4203  -1.2993  -1.2658
    -1.1776  -1.0294  -0.9922  -0.9719  -0.9155  -0.8796  -0.8572  -0.8272
    -0.7661  -0.7271  -0.6688  -0.6105  -0.5430  -0.4982  -0.4511  -0.4149
    -0.3793  -0.2948  -0.2131  -0.1691  -0.1560  -0.1387  -0.0395  -0.0033
     0.0511   0.1280   0.1299   0.1421   0.1848   0.2671   0.3443   0.3614
     0.3852   0.4903   0.4949   0.5378   0.5404   0.5605   0.5948   0.6287
     0.6795   0.7067   0.7938   0.8905   1.1156   1.2171   1.2209   1.5443
     1.5553   1.6515   1.8345   2.2282   2.2766   3.7081   3.7785   3.8002
     3.8559   3.8589   3.9288   3.9453   4.1910   4.2165   4.2170   4.2360

[...]

          k = 0.0380-0.0419 0.0000 ( 17876 PWs)   bands (ev):

[...]

          k =-0.0760-0.0000 0.0000 ( 17886 PWs)   bands (ev):

[...]

          k =-0.0760-0.0839 0.0000 ( 17948 PWs)   bands (ev):

   -55.3697 -55.3606 -55.3211 -55.3208 -55.2551 -55.2504 -55.2459 -55.1966
   -55.1934 -55.1912 -55.1847 -55.1522 -55.1514 -55.0360 -54.3542 -54.3540
   -31.7557 -31.7466 -31.6879 -31.6634 -31.6465 -31.6464 -31.6282 -31.6120
   -31.6119 -31.5954 -31.5874 -31.5792 -31.5638 -31.5319 -31.5296 -31.5253
   -31.5247 -31.5236 -31.5121 -31.5079 -31.4787 -31.4665 -31.4625 -31.4527
   -31.4472 -31.4435 -31.4409 -31.4405 -31.4377 -31.4290 -31.4264 -31.4093
   -31.4084 -31.4058 -31.3863 -31.3847 -31.3844 -31.3748 -31.3327 -31.3318
   -31.2982 -31.2505 -30.6767 -30.6765 -30.5933 -30.5931 -30.5537 -30.5536
   -18.8858 -15.7679 -15.5987 -15.5797 -15.4354 -15.3991 -15.3563 -15.3453
   -15.2514 -15.2164 -15.1902 -15.1593 -15.1384 -15.1025 -15.0890 -15.0721
   -15.0150 -14.9927 -14.9870 -14.9672 -14.9079 -14.9035 -14.8959 -14.8930
   -14.8382 -14.8350 -14.8272 -14.7445 -14.7415 -14.6315 -14.2409 -12.8578
   -12.8577  -9.8184  -7.4137  -6.2516  -5.0894  -3.9498  -3.6226  -2.8561
    -2.8499  -2.8364  -2.6514  -2.5685  -2.5458  -2.5405  -2.4505  -2.4130
    -2.3680  -2.3654  -2.3124  -2.3059  -2.2786  -2.2380  -2.2264  -2.2065
    -2.1878  -2.1789  -2.1434  -2.1199  -2.1101  -2.0802  -2.0492  -2.0333
    -2.0254  -2.0038  -1.9732  -1.9536  -1.9415  -1.8882  -1.7765  -1.7612
    -1.6661  -1.5991  -1.5948  -1.5214  -1.4973  -1.4554  -1.4473  -1.4226
    -1.3775  -1.1991  -1.1672  -1.1360  -1.1283  -1.0428  -0.9904  -0.9188
    -0.9137  -0.8875  -0.8533  -0.7590  -0.7225  -0.7032  -0.6279  -0.6043
    -0.5376  -0.4953  -0.4303  -0.3996  -0.3454  -0.3435  -0.3085  -0.2948
    -0.2737  -0.2059  -0.1596  -0.1253  -0.1129  -0.0812   0.1159   0.1253
     0.1408   0.2487   0.2946   0.4417   0.4566   0.5191   0.6252   0.6513
     0.7216   0.7465   0.9025   0.9148   0.9283   0.9832   0.9913   1.0612
     1.0706   2.0076   2.0081   2.0965   2.0967   3.6763   3.8949   3.9661
     3.9813   4.0140   4.1387   4.2075   4.2256   4.2940   4.2967   4.3273

     the Fermi energy is     3.7739 ev

!    total energy              =   -2941.51059279 Ry
     estimated scf accuracy    <       0.00000004 Ry
     smearing contrib. (-TS)   =      -0.04441230 Ry
     internal energy E=F+TS    =   -2941.46618049 Ry

     The total energy is F=E-TS. E is the sum of the following terms:
     one-electron contribution =  -23634.17039423 Ry
     hartree contribution      =   11909.36202434 Ry
     xc contribution           =    -486.88432457 Ry
     ewald contribution        =    9270.22378763 Ry
     electric field correction =       0.00272635 Ry

     convergence has been achieved in  70 iterations

     Forces acting on atoms (cartesian axes, Ry/au):

     atom    1 type  1   force =     0.00013143   -0.00018438    0.09303703
     atom    2 type  1   force =    -0.00008295   -0.00045513   -0.17841505
     atom    3 type  2   force =     0.00004628   -0.00037020   -0.02006053
     atom    4 type  2   force =    -0.00000811   -0.00201625    0.05930674
     atom    5 type  2   force =    -0.01030949   -0.00098598    0.00817578
     atom    6 type  2   force =     0.01174030   -0.00038671    0.00731795
     atom    7 type  1   force =    -0.00038113    0.00239724   -0.01419120
     atom    8 type  1   force =     0.00023540   -0.00123684   -0.00620452
     atom    9 type  2   force =    -0.00023194    0.00021753    0.00013916
     atom   10 type  2   force =    -0.00162626    0.00148494    0.00162307
     atom   11 type  2   force =    -0.00005096   -0.00015851    0.00010072
     atom   12 type  2   force =    -0.00017592   -0.00015715   -0.00000873
     atom   13 type  1   force =     0.00007234   -0.00027502    0.00003937
     atom   14 type  1   force =     0.00018132    0.00020254    0.00028130
     atom   15 type  2   force =    -0.00006081    0.00023930   -0.00026682
     atom   16 type  2   force =     0.00017140   -0.00021512    0.00014717
     atom   17 type  2   force =     0.00001665   -0.00001686    0.00044080
     atom   18 type  2   force =    -0.00030684   -0.00003387   -0.00011017
     atom   19 type  1   force =    -0.00006637   -0.00005295    0.00020592
     atom   20 type  1   force =    -0.00024697    0.00009695   -0.00027993
     atom   21 type  2   force =     0.00006086   -0.00008393    0.10400286
     atom   22 type  2   force =     0.00017248    0.00005634   -0.00013878
     atom   23 type  2   force =    -0.07031941   -0.00017599   -0.02688122
     atom   24 type  2   force =     0.07020616    0.00026941   -0.02690707
     atom   25 type  1   force =    -0.00001476   -0.00014314    0.09260535
     atom   26 type  1   force =    -0.00005934   -0.00039345   -0.17856946
     atom   27 type  2   force =     0.00009501   -0.00030526   -0.01914773
     atom   28 type  2   force =     0.00003932   -0.00178883    0.05865131
     atom   29 type  2   force =    -0.01080594   -0.00126393    0.00872300
     atom   30 type  2   force =     0.01215910   -0.00086358    0.00782419
     atom   31 type  1   force =    -0.00029054    0.00614096   -0.01442751
     atom   32 type  1   force =     0.00028980    0.00069764   -0.00652383
     atom   33 type  2   force =    -0.00022569   -0.00025091    0.00000140
     atom   34 type  2   force =    -0.00093557   -0.00223069   -0.00017092
     atom   35 type  2   force =    -0.00040480    0.00022944    0.00015127
     atom   36 type  2   force =     0.00011457    0.00019057   -0.00027168
     atom   37 type  1   force =     0.00017190   -0.00000444    0.00004377
     atom   38 type  1   force =     0.00032782    0.00019247    0.00009421
     atom   39 type  2   force =    -0.00025335    0.00009783   -0.00020287
     atom   40 type  2   force =    -0.00009477   -0.00015957   -0.00006362
     atom   41 type  2   force =    -0.00003377    0.00032931   -0.00000379
     atom   42 type  2   force =    -0.00024473    0.00010335    0.00003787
     atom   43 type  1   force =     0.00046873   -0.00005058    0.00019930
     atom   44 type  1   force =     0.00007210   -0.00025905   -0.00016089
     atom   45 type  2   force =     0.00004401   -0.00009010    0.10399835
     atom   46 type  2   force =    -0.07030107   -0.00010079   -0.02683882
     atom   47 type  2   force =     0.07017558    0.00031336   -0.02687480
     atom   48 type  3   force =    -0.00008832   -0.00492836   -0.00274374
     atom   49 type  3   force =     0.00063046    0.00089094   -0.00012865
     atom   50 type  4   force =    -0.00082217    0.00022695   -0.00121814
     atom   51 type  5   force =     0.00040974   -0.00098235    0.00019487
     atom   52 type  5   force =     0.00033811    0.00043378    0.00012874
     atom   53 type  5   force =     0.00081524    0.00498890    0.00307017
     atom   54 type  5   force =    -0.00021085    0.00118475    0.00027979
     atom   55 type  5   force =    -0.00053331   -0.00036457   -0.00001097

     Total force =     0.366528     Total SCF correction =     0.000403
  @ DRIVER MODE: Message from server: STATUS
  @ DRIVER MODE: Message from server: GETFORCE
  @ DRIVER MODE: Returning v,forces,stress,ensemble

     Writing output data file ./calc.save/
  @ DRIVER MODE: Message from server: EXIT
  @ DRIVE MODE: Exiting

     General routines

     Parallel routines

   This run was terminated on:   6:54:52  11Sep2021

   JOB DONE.