     Program PWSCF v.6.7GPU starts on 10Sep2021 at  0:51:20

     R & G space division:  proc/nbgrp/npool/nimage =      10
     Reading input from /storage/home/hcoda1/3/ntian30/research/carbon/CxH_vib/CH3_calc/ads_slab/CH3N2OH_l/out_0014/pw.inp
Warning: card &CELL ignored
Warning: card   CELL_DYNAMICS='IPI', ignored
Warning: card / ignored

     Current dimensions of program PWSCF are:
     Max number of different atomic species (ntypx) = 10
     Max number of k-points (npk) =  40000
     Max angular momentum in pseudopotentials (lmaxx) =  3
     Presently no symmetry can be used with electric field

     Message from routine cell_base_init:
     DEPRECATED: use true lattice parameter, not A to a.u. conversion factor

     IMPORTANT: XC functional enforced from input :
     Exchange-correlation= BEEF-VDW
                           (   1   4  43  14   2   0   0)
     Any further DFT definition will be discarded
     Please, verify this is what you really want

  @ DRIVER MODE: Connecting to
 qe_1139763_2779712.sched-torque.pace.gatech.eduf49r4xra_scratch
  using UNIX socket
  @ DRIVER MODE: Message from server: STATUS
  @ DRIVER MODE: Message from server: INIT
  @ DRIVER MODE: Receiving replica           0          -1
  @ DRIVER MODE: Receiving encoded integer          25
  @ DRIVER MODE:  SCF:  T  FORCE:  T  STRESS:  F  VC:  F  ENSEMBLE:  F
  @ DRIVER MODE:  SCF:  T  FORCE:  T  STRESS:  F  VC:  F  ENSEMBLE:  F

     Using Slab Decomposition

     bravais-lattice index     =            0
     lattice parameter (alat)  =       1.8897  a.u.
     unit-cell volume          =    6658.9804 (a.u.)^3
     number of atoms/cell      =           55
     number of atomic types    =            5
     number of electrons       =       402.00
     number of Kohn-Sham states=          211
     kinetic-energy cutoff     =      29.3995  Ry
     charge density cutoff     =     293.9946  Ry
     scf convergence threshold =      7.3E-08
     mixing beta               =       0.0500
     number of iterations used =            8  plain     mixing
     Exchange-correlation= BEEF-VDW
                           (   1   4  43  14   2   0   0)

     celldm(1)=   1.889726  celldm(2)=   0.000000  celldm(3)=   0.000000
     celldm(4)=   0.000000  celldm(5)=   0.000000  celldm(6)=   0.000000

     crystal axes: (cart. coord. in units of alat)
               a(1) = (   6.579727   0.000000   0.000000 )
               a(2) = (  -0.000775   5.961596   0.000000 )
               a(3) = (   0.000000   0.000000  25.155947 )

     reciprocal axes: (cart. coord. in units 2 pi/alat)
               b(1) = (  0.151982  0.000020  0.000000 )
               b(2) = (  0.000000  0.167740  0.000000 )
               b(3) = (  0.000000  0.000000  0.039752 )

     PseudoPot. # 1 for Ti read from file:
     /storage/coda1/p-amedford6/0/shared/rich_project_chbe-medford/medford-share/data/pseudos_module/espresso/nninc/pbe/van/Ti.UPF
     MD5 check sum: 8e4df49b7f0d34bbd5052bf3f5ea0213
     Pseudo is Ultrasoft, Zval = 12.0
     Generated by new atomic code, or converted to UPF format
     Using radial grid of  851 points,  6 beta functions with:
                l(1) =   0
                l(2) =   0
                l(3) =   1
                l(4) =   1
                l(5) =   2
                l(6) =   2
     Q(r) pseudized with  8 coefficients,  rinner =    1.000   1.000   1.000
                                                       1.000   1.000

     PseudoPot. # 2 for O  read from file:
     /storage/coda1/p-amedford6/0/shared/rich_project_chbe-medford/medford-share/data/pseudos_module/espresso/nninc/pbe/van/O.UPF
     MD5 check sum: 78c19812648e8988a0fe644b0f25305e
     Pseudo is Ultrasoft, Zval =  6.0
     Generated by new atomic code, or converted to UPF format
     Using radial grid of  737 points,  4 beta functions with:
                l(1) =   0
                l(2) =   0
                l(3) =   1
                l(4) =   1
     Q(r) pseudized with  8 coefficients,  rinner =    0.800   0.800   0.800

     PseudoPot. # 3 for N  read from file:
     /storage/coda1/p-amedford6/0/shared/rich_project_chbe-medford/medford-share/data/pseudos_module/espresso/nninc/pbe/van/N.UPF
     MD5 check sum: 90d10febe142ad51ac9d5be1deb811c4
     Pseudo is Ultrasoft, Zval =  5.0
     Generated by new atomic code, or converted to UPF format
     Using radial grid of  729 points,  4 beta functions with:
                l(1) =   0
                l(2) =   0
                l(3) =   1
                l(4) =   1
     Q(r) pseudized with  8 coefficients,  rinner =    0.800   0.800   0.800

     PseudoPot. # 4 for C  read from file:
     /storage/coda1/p-amedford6/0/shared/rich_project_chbe-medford/medford-share/data/pseudos_module/espresso/nninc/pbe/van/C.UPF
     MD5 check sum: 1a69bf6b8db32088f5b2163dbdb77a27
     Pseudo is Ultrasoft, Zval =  4.0
     Generated by new atomic code, or converted to UPF format
     Using radial grid of  721 points,  4 beta functions with:
                l(1) =   0
                l(2) =   0
                l(3) =   1
                l(4) =   1
     Q(r) pseudized with  8 coefficients,  rinner =    0.800   0.800   0.800

     PseudoPot. # 5 for H  read from file:
     /storage/coda1/p-amedford6/0/shared/rich_project_chbe-medford/medford-share/data/pseudos_module/espresso/nninc/pbe/van/H.UPF
     MD5 check sum: b5ee9d7bfd3a09ee7748110bda690ff7
     Pseudo is Ultrasoft, Zval =  1.0
     Generated by new atomic code, or converted to UPF format
     Using radial grid of  615 points,  1 beta functions with:
                l(1) =   0
     Q(r) pseudized with  8 coefficients,  rinner =    0.800

     atomic species   valence    mass     pseudopotential
        Ti1           12.00    47.86700     Ti( 1.00)
        O1             6.00    15.99900     O ( 1.00)
        N1             5.00    14.00700     N ( 1.00)
        C1             4.00    12.01100     C ( 1.00)
        H1             1.00     1.00800     H ( 1.00)

     No symmetry found

   Cartesian axes

     site n.     atom                  positions (alat units)
         1           Ti1 tau(   1) = (   0.0004258   2.9801865   6.0000000  )
         2           Ti1 tau(   2) = (   3.2906075   1.4906267   6.0002472  )
         3           O1  tau(   3) = (   0.0006271   0.0005054   7.9858123  )
         4           O1  tau(   4) = (   3.2906025   0.0005020   7.3038282  )
         5           O1  tau(   5) = (   4.5942328   1.4918067   9.2879030  )
         6           O1  tau(   6) = (   1.9868534   1.4903216   9.2879459  )
         7           Ti1 tau(   7) = (   3.2907910   2.8959150   9.1758416  )
         8           Ti1 tau(   8) = (   0.0015273   1.4827037   9.2680791  )
         9           O1  tau(   9) = (   3.3074573   5.9346435  11.2963613  )
        10           O1  tau(  10) = (   0.0116148   5.9584955  10.6183126  )
        11           O1  tau(  11) = (   1.3055178   1.4819292  12.6272398  )
        12           O1  tau(  12) = (   5.3158762   1.4804127  12.6185516  )
        13           Ti1 tau(  13) = (   0.0186029   2.8424156  12.6464711  )
        14           Ti1 tau(  14) = (   3.3167612   1.2924093  12.6669032  )
        15           O1  tau(  15) = (   0.0012442   5.9356390  14.6370070  )
        16           O1  tau(  16) = (   3.3127944   0.0275565  13.9018093  )
        17           O1  tau(  17) = (   4.5765900   1.5157235  16.0894388  )
        18           O1  tau(  18) = (   2.0422450   1.5317946  16.0210879  )
        19           Ti1 tau(  19) = (   3.3088329   2.9810726  15.6636066  )
        20           Ti1 tau(  20) = (   0.0236821   1.4688588  15.8133175  )
        21           O1  tau(  21) = (   3.2904802   0.0005063   4.7018136  )
        22           O1  tau(  22) = (   0.0676014   5.9495730  17.1734943  )
        23           O1  tau(  23) = (   1.3043587   1.4918075   6.0039043  )
        24           O1  tau(  24) = (   5.2767064   1.4903225   6.0039473  )
        25           Ti1 tau(  25) = (   0.0000382   5.9609847   6.0000000  )
        26           Ti1 tau(  26) = (   3.2902200   4.4714249   6.0002472  )
        27           O1  tau(  27) = (   0.0002396   2.9813036   7.9858123  )
        28           O1  tau(  28) = (   3.2902150   2.9813002   7.3038282  )
        29           O1  tau(  29) = (   4.5938453   4.4726049   9.2879030  )
        30           O1  tau(  30) = (   1.9864658   4.4711199   9.2879459  )
        31           Ti1 tau(  31) = (   3.2891106   5.8743827   9.1763621  )
        32           Ti1 tau(  32) = (   0.0006254   4.4649316   9.2693709  )
        33           O1  tau(  33) = (   3.3041982   3.0170362  11.2630756  )
        34           O1  tau(  34) = (   0.0092240   2.9805883  10.6323155  )
        35           O1  tau(  35) = (   1.3098214   4.4601496  12.6289764  )
        36           O1  tau(  36) = (   5.3139316   4.4642116  12.6209765  )
        37           Ti1 tau(  37) = (   0.0286784   5.8202107  12.5681754  )
        38           Ti1 tau(  38) = (   3.3194384   4.3879401  12.4232525  )
        39           O1  tau(  39) = (   6.5763552   2.9401740  14.6754030  )
        40           O1  tau(  40) = (   3.3328261   2.9762691  13.8808942  )
        41           O1  tau(  41) = (   4.5658580   4.4380642  16.1332302  )
        42           O1  tau(  42) = (   2.0359873   4.4031365  16.0422930  )
        43           Ti1 tau(  43) = (   3.3255947   5.9578944  16.3175027  )
        44           Ti1 tau(  44) = (   0.0374668   4.6230282  16.0307208  )
        45           O1  tau(  45) = (   3.2900926   2.9813045   4.7018136  )
        46           O1  tau(  46) = (   1.3039711   4.4726057   6.0039043  )
        47           O1  tau(  47) = (   5.2763189   4.4711207   6.0039473  )
        48           N1  tau(  48) = (   0.1245995   2.6662279  18.6673576  )
        49           N1  tau(  49) = (   0.0476076   2.8693738  17.4835824  )
        50           C1  tau(  50) = (   0.1395945   3.7926219  19.6405614  )
        51           H1  tau(  51) = (   6.3015398   4.7065717  19.2118634  )
        52           H1  tau(  52) = (   6.1525190   3.4626129  20.5140504  )
        53           H1  tau(  53) = (   1.1733748   3.9370966  19.9287387  )
        54           O1  tau(  54) = (   3.0981659   0.0197753  18.1302257  )
        55           H1  tau(  55) = (   2.1972620   0.2293568  18.4309947  )

     number of k points=    10  Fermi-Dirac smearing, width (Ry)=  0.0073
                       cart. coord. in units 2pi/alat
        k(    1) = (   0.0000000   0.0000000   0.0000000), wk =   0.1250000
        k(    2) = (   0.0000000   0.0419351   0.0000000), wk =   0.2500000
        k(    3) = (   0.0000000  -0.0838702   0.0000000), wk =   0.1250000
        k(    4) = (   0.0379955   0.0000049   0.0000000), wk =   0.2500000
        k(    5) = (   0.0379955   0.0419400   0.0000000), wk =   0.2500000
        k(    6) = (   0.0379955  -0.0838652   0.0000000), wk =   0.2500000
        k(    7) = (   0.0379955  -0.0419301   0.0000000), wk =   0.2500000
        k(    8) = (  -0.0759910  -0.0000099   0.0000000), wk =   0.1250000
        k(    9) = (  -0.0759910   0.0419252   0.0000000), wk =   0.2500000
        k(   10) = (  -0.0759910  -0.0838800   0.0000000), wk =   0.1250000

     Initial potential from superposition of free atoms

     starting charge  385.99915, renormalised to  402.00000

     negative rho (up, down):  1.432E-02 0.000E+00

     %%%%%%%%%%%%%%%%%%%%%%%%%%%%%%%%%%%%%%%%%%%%%%%%%%%%%%%%%%%%%%%%%%%%%%%%
     %                                                                      %
     % You are using vdW-DF, which was implemented by the Thonhauser group. %
     % Please cite the following two papers that made this development      %
     % possible and the two reviews that describe the various versions:     %
     %                                                                      %
     %   T. Thonhauser et al., PRL 115, 136402 (2015).                      %
     %   T. Thonhauser et al., PRB 76, 125112 (2007).                       %
     %   K. Berland et al., Rep. Prog. Phys. 78, 066501 (2015).             %
     %   D.C. Langreth et al., J. Phys.: Condens. Matter 21, 084203 (2009). %
     %                                                                      %
     %                                                                      %
     % If you are calculating the stress with vdW-DF, please also cite:     %
     %                                                                      %
     %   R. Sabatini et al., J. Phys.: Condens. Matter 24, 424209 (2012).   %
     %                                                                      %
     %%%%%%%%%%%%%%%%%%%%%%%%%%%%%%%%%%%%%%%%%%%%%%%%%%%%%%%%%%%%%%%%%%%%%%%%

     Adding external electric field

     Computed dipole along edir(3) :
        Dipole              -11.9923 Ry au,        -30.4815 Debye
        Dipole field         -0.0226 Ry au,

        Potential amp.        2.0979 Ry
        Total length         46.3494 bohr

     Starting wfcs are  304 atomic wfcs
  @ DRIVER MODE: Message from server: STATUS
  @ DRIVER MODE: Message from server: POSDATA
  @ DRIVER MODE: Reading and sharing cell
  @ DRIVER MODE: Reading and sharing positions
  @ DRIVER MODE: Received positions

     Self-consistent Calculation

     iteration #  1     ecut=    29.40 Ry     beta= 0.05
     Davidson diagonalization with overlap
     c_bands:  3 eigenvalues not converged
     c_bands:  5 eigenvalues not converged
     c_bands:  5 eigenvalues not converged
     c_bands:  4 eigenvalues not converged
     c_bands:  1 eigenvalues not converged
     c_bands:  4 eigenvalues not converged
     c_bands:  2 eigenvalues not converged
     c_bands:  5 eigenvalues not converged
     c_bands:  4 eigenvalues not converged
     ethr =  1.00E-05,  avg # of iterations = 23.8

[...]

     total energy              =   -2400.49318114 Ry
     estimated scf accuracy    <    6448.58012366 Ry

     iteration #  2     ecut=    29.40 Ry     beta= 0.05
     Davidson diagonalization with overlap
     ethr =  1.00E-02,  avg # of iterations = 22.1

[...]

     iteration # 63     ecut=    29.40 Ry     beta= 0.05
     Davidson diagonalization with overlap
     c_bands:  1 eigenvalues not converged
     ethr =  2.72E-08,  avg # of iterations =  7.1

[...]

     total energy              =   -2972.75599182 Ry
     estimated scf accuracy    <       0.00000009 Ry

     iteration # 86     ecut=    29.40 Ry     beta= 0.05
     Davidson diagonalization with overlap
     ethr =  1.86E-11,  avg # of iterations =  5.0

     negative rho (up, down):  1.507E-02 0.000E+00

     Adding external electric field

     Computed dipole along edir(3) :
        Dipole                0.5629 Ry au,          1.4308 Debye
        Dipole field          0.0011 Ry au,

        Potential amp.       -0.0985 Ry
        Total length         46.3494 bohr

     End of self-consistent calculation

          k = 0.0000 0.0000 0.0000 ( 18029 PWs)   bands (ev):

   -56.2724 -56.2386 -55.8662 -55.8312 -55.6103 -55.5968 -55.5525 -55.4030
   -55.3554 -55.3468 -55.2321 -55.1825 -55.0713 -55.0436 -55.0392 -55.0052
   -32.7227 -32.5650 -32.5382 -32.4306 -32.3469 -32.3456 -32.3381 -32.0920
   -32.0854 -32.0615 -32.0107 -32.0051 -31.9759 -31.9047 -31.8962 -31.8595
   -31.8331 -31.8310 -31.8210 -31.7751 -31.7559 -31.7495 -31.7166 -31.7150
   -31.6865 -31.6738 -31.6155 -31.5628 -31.5583 -31.5446 -31.5425 -31.5127
   -31.4914 -31.4354 -31.4311 -31.4169 -31.3920 -31.3728 -31.3491 -31.3294
   -31.3044 -31.2817 -31.2812 -31.2743 -31.2592 -31.2542 -31.1697 -31.0577
   -18.9030 -16.5647 -16.3792 -16.2255 -15.9920 -15.8436 -15.7589 -15.7026
   -15.7022 -15.5811 -15.5464 -15.4523 -15.3636 -15.2942 -15.2629 -15.2598
   -15.1658 -15.1044 -15.0553 -15.0326 -15.0027 -14.9815 -14.9689 -14.8881
   -14.8799 -14.8555 -14.8111 -14.6921 -14.6280 -14.3291 -14.3102 -13.5364
   -13.4243 -11.5275  -6.9610  -4.4274  -4.1317  -4.0737  -4.0038  -3.8937
    -3.7768  -3.5693  -3.4528  -3.2668  -3.2507  -3.1507  -2.9843  -2.9761
    -2.9226  -2.8522  -2.7738  -2.7048  -2.6608  -2.6494  -2.5564  -2.4983
    -2.4968  -2.4849  -2.4488  -2.4081  -2.3184  -2.2794  -2.2644  -2.2260
    -2.1819  -2.1329  -2.1296  -2.0851  -2.0582  -2.0001  -1.9348  -1.8979
    -1.8608  -1.8171  -1.7446  -1.7015  -1.6406  -1.5944  -1.5844  -1.5757
    -1.5237  -1.3283  -1.2879  -1.2606  -1.2413  -1.0990  -1.0558  -1.0207
    -0.9569  -0.9394  -0.8496  -0.8253  -0.8083  -0.7824  -0.7112  -0.6974
    -0.6629  -0.6344  -0.4473  -0.4123  -0.3402  -0.3315  -0.2636  -0.2316
    -0.1984  -0.1579  -0.1259  -0.0730  -0.0605  -0.0075   0.0389   0.0674
     0.2089   0.2397   0.3229   0.3304   0.3333   0.3558   0.4333   0.4674
     0.5399   0.5926   0.5984   0.6505   0.7381   0.7775   0.8920   0.9611
     0.9857   1.0068   1.0427   1.0951   1.2161   1.5069   1.5327   1.5715
     2.7053   2.9533   3.0838   3.2303   3.3850   3.4884   3.7952   3.8154
     3.8514   3.8965   3.9953

[...]

          k = 0.0380-0.0419 0.0000 ( 17876 PWs)   bands (ev):

[...]

          k =-0.0760-0.0000 0.0000 ( 17886 PWs)   bands (ev):

[...]

          k =-0.0760-0.0839 0.0000 ( 17948 PWs)   bands (ev):

   -56.2555 -56.2554 -55.8536 -55.8436 -55.6047 -55.5960 -55.5579 -55.3956
   -55.3626 -55.3474 -55.2304 -55.1805 -55.0729 -55.0455 -55.0227 -55.0216
   -32.5506 -32.5504 -32.5387 -32.5386 -32.3827 -32.3824 -32.1727 -32.1637
   -32.0472 -32.0390 -32.0370 -32.0327 -31.9133 -31.8762 -31.8627 -31.8317
   -31.8270 -31.8255 -31.8193 -31.7851 -31.7720 -31.7260 -31.7144 -31.6985
   -31.6364 -31.6338 -31.6289 -31.6019 -31.5977 -31.5946 -31.5558 -31.5492
   -31.4833 -31.4370 -31.4209 -31.4182 -31.3917 -31.3624 -31.3616 -31.3440
   -31.3330 -31.2907 -31.2851 -31.2782 -31.2508 -31.2495 -31.2125 -31.2117
   -18.9001 -16.3640 -15.9755 -15.9673 -15.8363 -15.8308 -15.6580 -15.6460
   -15.6017 -15.5531 -15.5224 -15.4878 -15.3603 -15.3350 -15.2649 -15.2400
   -15.2050 -15.1804 -15.1566 -15.1522 -15.1158 -15.0734 -15.0230 -15.0188
   -14.9690 -14.9674 -14.8423 -14.7667 -14.6884 -14.5109 -14.4643 -13.5276
   -13.5271 -11.5255  -6.9755  -4.3745  -4.1064  -4.0461  -3.8492  -3.1396
    -3.0978  -2.9723  -2.9466  -2.8714  -2.8344  -2.7639  -2.7058  -2.6832
    -2.6703  -2.6595  -2.5949  -2.5659  -2.5604  -2.5186  -2.5033  -2.4964
    -2.4620  -2.4177  -2.3852  -2.3631  -2.3586  -2.3517  -2.2726  -2.2014
    -2.1993  -2.1810  -2.1484  -2.1160  -2.0355  -2.0259  -1.9865  -1.9525
    -1.9219  -1.8317  -1.7902  -1.7310  -1.6895  -1.6742  -1.5848  -1.5825
    -1.5143  -1.4672  -1.3546  -1.3315  -1.3126  -1.2702  -1.2329  -1.1962
    -1.1272  -1.1058  -1.0500  -1.0463  -1.0333  -1.0096  -0.8990  -0.8587
    -0.7650  -0.7237  -0.7018  -0.6775  -0.6346  -0.6281  -0.5575  -0.5346
    -0.4958  -0.4707  -0.4051  -0.3994  -0.3651  -0.3003  -0.1934  -0.0351
     0.0598   0.1027   0.1245   0.1432   0.1885   0.2980   0.3038   0.3780
     0.4502   0.4632   0.4810   0.5098   0.6552   0.7335   0.8402   0.8621
     0.9117   0.9598   1.0192   1.0875   1.3768   1.3843   1.3879   1.3884
     2.7186   3.5042   3.5066   3.5349   3.5461   3.7289   3.7342   3.7520
     3.8974   3.9260   3.9978

     the Fermi energy is     2.8894 ev

!    total energy              =   -2972.75599637 Ry
     estimated scf accuracy    <       0.00000002 Ry
     smearing contrib. (-TS)   =      -0.01287859 Ry
     internal energy E=F+TS    =   -2972.74311778 Ry

     The total energy is F=E-TS. E is the sum of the following terms:
     one-electron contribution =  -23636.59288158 Ry
     hartree contribution      =   11911.32114739 Ry
     xc contribution           =    -493.08244744 Ry
     ewald contribution        =    9245.61046586 Ry
     electric field correction =       0.00059800 Ry

     convergence has been achieved in  86 iterations

     Forces acting on atoms (cartesian axes, Ry/au):

     atom    1 type  1   force =    -0.00001232   -0.00036628    0.10681584
     atom    2 type  1   force =    -0.00005524    0.00020290   -0.16492124
     atom    3 type  2   force =     0.00005594    0.00002119   -0.03811806
     atom    4 type  2   force =     0.00006439   -0.00063636    0.03455770
     atom    5 type  2   force =    -0.00367182   -0.00218351   -0.00716476
     atom    6 type  2   force =     0.00569691   -0.00176768   -0.00683964
     atom    7 type  1   force =     0.00025251   -0.00517928    0.03709553
     atom    8 type  1   force =    -0.00001699    0.01089941    0.05882606
     atom    9 type  2   force =    -0.00043659    0.00030396   -0.00079619
     atom   10 type  2   force =    -0.00076406   -0.00040312   -0.04427057
     atom   11 type  2   force =     0.00029751   -0.00020617    0.00031989
     atom   12 type  2   force =    -0.00063881   -0.00054699   -0.00002918
     atom   13 type  1   force =     0.00004568    0.00033625    0.00049719
     atom   14 type  1   force =    -0.00025288   -0.00008062    0.00048715
     atom   15 type  2   force =    -0.00018638   -0.00033446   -0.00114197
     atom   16 type  2   force =     0.00032701    0.00005951    0.00053599
     atom   17 type  2   force =    -0.00002144    0.00037826    0.00012150
     atom   18 type  2   force =     0.00022315    0.00053117   -0.00041826
     atom   19 type  1   force =    -0.00044789   -0.00052376   -0.00046588
     atom   20 type  1   force =     0.00003064   -0.00030463    0.00059953
     atom   21 type  2   force =     0.00004332    0.00021544    0.10037002
     atom   22 type  2   force =    -0.00000885   -0.00077062   -0.00005473
     atom   23 type  2   force =    -0.07695132   -0.00000875   -0.03000726
     atom   24 type  2   force =     0.07681922    0.00041792   -0.03006216
     atom   25 type  1   force =     0.00005762   -0.00041495    0.10687147
     atom   26 type  1   force =    -0.00018158   -0.00138021   -0.16528515
     atom   27 type  2   force =     0.00012675   -0.00063716   -0.03656207
     atom   28 type  2   force =     0.00003771    0.00111054    0.03014190
     atom   29 type  2   force =    -0.00205312    0.00418298   -0.01013611
     atom   30 type  2   force =     0.00412004    0.00463024   -0.00971497
     atom   31 type  1   force =     0.00023420    0.00321965    0.02263834
     atom   32 type  1   force =    -0.00015587   -0.01397214    0.05886826
     atom   33 type  2   force =    -0.00014005   -0.00118497   -0.00026362
     atom   34 type  2   force =    -0.00070508   -0.00007789   -0.05473782
     atom   35 type  2   force =    -0.00106362    0.00020889    0.00021267
     atom   36 type  2   force =     0.00051286   -0.00001549   -0.00021790
     atom   37 type  1   force =    -0.00013073   -0.00078813   -0.00000728
     atom   38 type  1   force =    -0.00057044    0.00002517    0.00002324
     atom   39 type  2   force =    -0.00033086    0.00054386   -0.00004263
     atom   40 type  2   force =    -0.00024420   -0.00047004    0.00021396
     atom   41 type  2   force =    -0.00086745    0.00001802   -0.00006612
     atom   42 type  2   force =    -0.00014071    0.00011730    0.00058627
     atom   43 type  1   force =     0.00079739    0.00101283   -0.00011326
     atom   44 type  1   force =    -0.00011709    0.00172490    0.00074399
     atom   45 type  2   force =     0.00003617   -0.00000172    0.10017126
     atom   46 type  2   force =    -0.07699426    0.00003583   -0.03003652
     atom   47 type  2   force =     0.07688401    0.00046053   -0.03010061
     atom   48 type  3   force =     0.00194975   -0.00112507    0.00084003
     atom   49 type  3   force =    -0.00004337    0.00083657   -0.00042471
     atom   50 type  4   force =    -0.01983605    0.00207138   -0.00013779
     atom   51 type  5   force =     0.00295532   -0.00350733    0.00193942
     atom   52 type  5   force =     0.00394829    0.00147343   -0.00433712
     atom   53 type  5   force =     0.01084605    0.00137314    0.00301143
     atom   54 type  2   force =     0.00106675   -0.00040594   -0.00118594
     atom   55 type  5   force =    -0.00039014    0.00088200    0.00117086

     Total force =     0.380499     Total SCF correction =     0.000620
  @ DRIVER MODE: Message from server: STATUS
  @ DRIVER MODE: Message from server: GETFORCE
  @ DRIVER MODE: Returning v,forces,stress,ensemble

     Writing output data file ./calc.save/
  @ DRIVER MODE: Message from server: EXIT
  @ DRIVE MODE: Exiting

     General routines

     Parallel routines

   This run was terminated on:   1:11:57  10Sep2021

   JOB DONE.