     Program PWSCF v.6.7GPU starts on  8Sep2021 at 22:28:54

     R & G space division:  proc/nbgrp/npool/nimage =      10
     Reading input from /storage/home/hcoda1/3/ntian30/research/carbon/CxH_vib/CH3_calc/ads_slab/CH3OH_e/out_0002/pw.inp
Warning: card &CELL ignored
Warning: card   CELL_DYNAMICS='IPI', ignored
Warning: card / ignored

     Current dimensions of program PWSCF are:
     Max number of different atomic species (ntypx) = 10
     Max number of k-points (npk) =  40000
     Max angular momentum in pseudopotentials (lmaxx) =  3
     Presently no symmetry can be used with electric field

     Message from routine cell_base_init:
     DEPRECATED: use true lattice parameter, not A to a.u. conversion factor

     IMPORTANT: XC functional enforced from input :
     Exchange-correlation= BEEF-VDW
                           (   1   4  43  14   2   0   0)
     Any further DFT definition will be discarded
     Please, verify this is what you really want

  @ DRIVER MODE: Connecting to
 qe_1139763_2767404.sched-torque.pace.gatech.eduo87kkhe9_scratch
  using UNIX socket
  @ DRIVER MODE: Message from server: STATUS
  @ DRIVER MODE: Message from server: INIT
  @ DRIVER MODE: Receiving replica           0          -1
  @ DRIVER MODE: Receiving encoded integer          25
  @ DRIVER MODE:  SCF:  T  FORCE:  T  STRESS:  F  VC:  F  ENSEMBLE:  F
  @ DRIVER MODE:  SCF:  T  FORCE:  T  STRESS:  F  VC:  F  ENSEMBLE:  F

     Using Slab Decomposition

     bravais-lattice index     =            0
     lattice parameter (alat)  =       1.8897  a.u.
     unit-cell volume          =    6658.9804 (a.u.)^3
     number of atoms/cell      =           53
     number of atomic types    =            4
     number of electrons       =       392.00
     number of Kohn-Sham states=          206
     kinetic-energy cutoff     =      29.3995  Ry
     charge density cutoff     =     293.9946  Ry
     scf convergence threshold =      7.3E-08
     mixing beta               =       0.0500
     number of iterations used =            8  plain     mixing
     Exchange-correlation= BEEF-VDW
                           (   1   4  43  14   2   0   0)

     celldm(1)=   1.889726  celldm(2)=   0.000000  celldm(3)=   0.000000
     celldm(4)=   0.000000  celldm(5)=   0.000000  celldm(6)=   0.000000

     crystal axes: (cart. coord. in units of alat)
               a(1) = (   6.579727   0.000000   0.000000 )
               a(2) = (  -0.000775   5.961596   0.000000 )
               a(3) = (   0.000000   0.000000  25.155947 )

     reciprocal axes: (cart. coord. in units 2 pi/alat)
               b(1) = (  0.151982  0.000020  0.000000 )
               b(2) = (  0.000000  0.167740  0.000000 )
               b(3) = (  0.000000  0.000000  0.039752 )

     PseudoPot. # 1 for Ti read from file:
     /storage/coda1/p-amedford6/0/shared/rich_project_chbe-medford/medford-share/data/pseudos_module/espresso/nninc/pbe/van/Ti.UPF
     MD5 check sum: 8e4df49b7f0d34bbd5052bf3f5ea0213
     Pseudo is Ultrasoft, Zval = 12.0
     Generated by new atomic code, or converted to UPF format
     Using radial grid of  851 points,  6 beta functions with:
                l(1) =   0
                l(2) =   0
                l(3) =   1
                l(4) =   1
                l(5) =   2
                l(6) =   2
     Q(r) pseudized with  8 coefficients,  rinner =    1.000   1.000   1.000
                                                       1.000   1.000

     PseudoPot. # 2 for O  read from file:
     /storage/coda1/p-amedford6/0/shared/rich_project_chbe-medford/medford-share/data/pseudos_module/espresso/nninc/pbe/van/O.UPF
     MD5 check sum: 78c19812648e8988a0fe644b0f25305e
     Pseudo is Ultrasoft, Zval =  6.0
     Generated by new atomic code, or converted to UPF format
     Using radial grid of  737 points,  4 beta functions with:
                l(1) =   0
                l(2) =   0
                l(3) =   1
                l(4) =   1
     Q(r) pseudized with  8 coefficients,  rinner =    0.800   0.800   0.800

     PseudoPot. # 3 for C  read from file:
     /storage/coda1/p-amedford6/0/shared/rich_project_chbe-medford/medford-share/data/pseudos_module/espresso/nninc/pbe/van/C.UPF
     MD5 check sum: 1a69bf6b8db32088f5b2163dbdb77a27
     Pseudo is Ultrasoft, Zval =  4.0
     Generated by new atomic code, or converted to UPF format
     Using radial grid of  721 points,  4 beta functions with:
                l(1) =   0
                l(2) =   0
                l(3) =   1
                l(4) =   1
     Q(r) pseudized with  8 coefficients,  rinner =    0.800   0.800   0.800

     PseudoPot. # 4 for H  read from file:
     /storage/coda1/p-amedford6/0/shared/rich_project_chbe-medford/medford-share/data/pseudos_module/espresso/nninc/pbe/van/H.UPF
     MD5 check sum: b5ee9d7bfd3a09ee7748110bda690ff7
     Pseudo is Ultrasoft, Zval =  1.0
     Generated by new atomic code, or converted to UPF format
     Using radial grid of  615 points,  1 beta functions with:
                l(1) =   0
     Q(r) pseudized with  8 coefficients,  rinner =    0.800

     atomic species   valence    mass     pseudopotential
        Ti1           12.00    47.86700     Ti( 1.00)
        O1             6.00    15.99900     O ( 1.00)
        C1             4.00    12.01100     C ( 1.00)
        H1             1.00     1.00800     H ( 1.00)

     No symmetry found

   Cartesian axes

     site n.     atom                  positions (alat units)
         1           Ti1 tau(   1) = (   0.0004258   2.9801865   6.0000000  )
         2           Ti1 tau(   2) = (   3.2906075   1.4906267   6.0002472  )
         3           O1  tau(   3) = (   0.0006271   0.0005054   7.9858123  )
         4           O1  tau(   4) = (   3.2906025   0.0005020   7.3038282  )
         5           O1  tau(   5) = (   4.5942328   1.4918067   9.2879030  )
         6           O1  tau(   6) = (   1.9868534   1.4903216   9.2879459  )
         7           Ti1 tau(   7) = (   3.3184627   3.0104606   9.1553648  )
         8           Ti1 tau(   8) = (   0.0346466   1.5145919   9.2725854  )
         9           O1  tau(   9) = (   3.3323670   0.0074739  11.3628161  )
        10           O1  tau(  10) = (   0.0072146   0.0022432  10.6032180  )
        11           O1  tau(  11) = (   1.3334854   1.5010653  12.6312402  )
        12           O1  tau(  12) = (   5.3322653   1.4967215  12.6661074  )
        13           Ti1 tau(  13) = (   0.0399007   3.0049294  12.5399032  )
        14           Ti1 tau(  14) = (   3.3257882   1.5006484  12.5017209  )
        15           O1  tau(  15) = (   0.0958175   0.0109015  14.6781201  )
        16           O1  tau(  16) = (   3.3209445   0.0065530  13.9947117  )
        17           O1  tau(  17) = (   4.6470289   1.5235192  16.1521327  )
        18           O1  tau(  18) = (   2.1274687   1.5288575  16.1863263  )
        19           Ti1 tau(  19) = (   3.3866828   2.9872137  15.7186651  )
        20           Ti1 tau(  20) = (   0.0851359   1.3433488  15.9962781  )
        21           O1  tau(  21) = (   3.2904802   0.0005063   4.7018136  )
        22           O1  tau(  22) = (   0.0861787   0.0156205  17.2101336  )
        23           O1  tau(  23) = (   1.3043587   1.4918075   6.0039043  )
        24           O1  tau(  24) = (   5.2767064   1.4903225   6.0039473  )
        25           Ti1 tau(  25) = (   0.0000382   5.9609847   6.0000000  )
        26           Ti1 tau(  26) = (   3.2902200   4.4714249   6.0002472  )
        27           O1  tau(  27) = (   0.0002396   2.9813036   7.9858123  )
        28           O1  tau(  28) = (   3.2902150   2.9813002   7.3038282  )
        29           O1  tau(  29) = (   4.5938453   4.4726049   9.2879030  )
        30           O1  tau(  30) = (   1.9864658   4.4711199   9.2879459  )
        31           Ti1 tau(  31) = (   3.3160408   0.0312979   9.1533790  )
        32           Ti1 tau(  32) = (   0.0342031   4.4824714   9.2635914  )
        33           O1  tau(  33) = (   3.3296961   2.9874083  11.3532073  )
        34           O1  tau(  34) = (   0.0071558   2.9827229  10.6249429  )
        35           O1  tau(  35) = (   1.3339759   4.4780823  12.6303471  )
        36           O1  tau(  36) = (   5.3316377   4.4803543  12.6653953  )
        37           Ti1 tau(  37) = (   0.0318003   0.0267859  12.4824326  )
        38           Ti1 tau(  38) = (   3.3243002   4.4792164  12.4996646  )
        39           O1  tau(  39) = (   0.1017966   3.0039049  14.8467192  )
        40           O1  tau(  40) = (   3.3365867   2.9884115  13.9371009  )
        41           O1  tau(  41) = (   4.6519449   4.4651455  16.1366910  )
        42           O1  tau(  42) = (   2.1329502   4.4467914  16.2189938  )
        43           Ti1 tau(  43) = (   3.3530478   0.0116223  15.7847896  )
        44           Ti1 tau(  44) = (   0.0420906   4.5503417  15.8661587  )
        45           O1  tau(  45) = (   3.2900926   2.9813045   4.7018136  )
        46           O1  tau(  46) = (   1.3039711   4.4726057   6.0039043  )
        47           O1  tau(  47) = (   5.2763189   4.4711207   6.0039473  )
        48           C1  tau(  48) = (   6.0671888   3.1179766  18.9039971  )
        49           O1  tau(  49) = (   0.2335693   3.0433622  17.6694830  )
        50           H1  tau(  50) = (   5.0284728   2.8969007  18.6408099  )
        51           H1  tau(  51) = (   1.1757692   3.2348548  17.8288520  )
        52           H1  tau(  52) = (   6.4315421   2.3664480  19.5988381  )
        53           H1  tau(  53) = (   6.1352977   4.1238860  19.3131673  )

     number of k points=    10  Fermi-Dirac smearing, width (Ry)=  0.0073
                       cart. coord. in units 2pi/alat
        k(    1) = (   0.0000000   0.0000000   0.0000000), wk =   0.1250000
        k(    2) = (   0.0000000   0.0419351   0.0000000), wk =   0.2500000
        k(    3) = (   0.0000000  -0.0838702   0.0000000), wk =   0.1250000
        k(    4) = (   0.0379955   0.0000049   0.0000000), wk =   0.2500000
        k(    5) = (   0.0379955   0.0419400   0.0000000), wk =   0.2500000
        k(    6) = (   0.0379955  -0.0838652   0.0000000), wk =   0.2500000
        k(    7) = (   0.0379955  -0.0419301   0.0000000), wk =   0.2500000
        k(    8) = (  -0.0759910  -0.0000099   0.0000000), wk =   0.1250000
        k(    9) = (  -0.0759910   0.0419252   0.0000000), wk =   0.2500000
        k(   10) = (  -0.0759910  -0.0838800   0.0000000), wk =   0.1250000

     Initial potential from superposition of free atoms

     starting charge  375.99917, renormalised to  392.00000

     negative rho (up, down):  1.694E-02 0.000E+00

     %%%%%%%%%%%%%%%%%%%%%%%%%%%%%%%%%%%%%%%%%%%%%%%%%%%%%%%%%%%%%%%%%%%%%%%%
     %                                                                      %
     % You are using vdW-DF, which was implemented by the Thonhauser group. %
     % Please cite the following two papers that made this development      %
     % possible and the two reviews that describe the various versions:     %
     %                                                                      %
     %   T. Thonhauser et al., PRL 115, 136402 (2015).                      %
     %   T. Thonhauser et al., PRB 76, 125112 (2007).                       %
     %   K. Berland et al., Rep. Prog. Phys. 78, 066501 (2015).             %
     %   D.C. Langreth et al., J. Phys.: Condens. Matter 21, 084203 (2009). %
     %                                                                      %
     %                                                                      %
     % If you are calculating the stress with vdW-DF, please also cite:     %
     %                                                                      %
     %   R. Sabatini et al., J. Phys.: Condens. Matter 24, 424209 (2012).   %
     %                                                                      %
     %%%%%%%%%%%%%%%%%%%%%%%%%%%%%%%%%%%%%%%%%%%%%%%%%%%%%%%%%%%%%%%%%%%%%%%%

     Adding external electric field

     Computed dipole along edir(3) :
        Dipole               -7.1856 Ry au,        -18.2640 Debye
        Dipole field         -0.0136 Ry au,

        Potential amp.        1.2570 Ry
        Total length         46.3494 bohr

     Starting wfcs are  296 atomic wfcs
  @ DRIVER MODE: Message from server: STATUS
  @ DRIVER MODE: Message from server: POSDATA
  @ DRIVER MODE: Reading and sharing cell
  @ DRIVER MODE: Reading and sharing positions
  @ DRIVER MODE: Received positions

     Self-consistent Calculation

     iteration #  1     ecut=    29.40 Ry     beta= 0.05
     Davidson diagonalization with overlap
     c_bands:  1 eigenvalues not converged
     c_bands:  1 eigenvalues not converged
     c_bands:  2 eigenvalues not converged
     c_bands:  1 eigenvalues not converged
     c_bands:  1 eigenvalues not converged
     c_bands:  1 eigenvalues not converged
     ethr =  1.00E-05,  avg # of iterations = 19.1

[...]

     total energy              =   -2696.72517339 Ry
     estimated scf accuracy    <    2609.09053731 Ry

[...]

     iteration #  3     ecut=    29.40 Ry     beta= 0.05
     Davidson diagonalization with overlap
     ethr =  1.00E-02,  avg # of iterations = 15.4

[...]

     iteration # 76     ecut=    29.40 Ry     beta= 0.05
     Davidson diagonalization with overlap
     c_bands:  1 eigenvalues not converged
     ethr =  2.54E-11,  avg # of iterations = 16.1

[...]

     total energy              =   -2932.64515911 Ry
     estimated scf accuracy    <       0.00000016 Ry

     iteration # 77     ecut=    29.40 Ry     beta= 0.05
     Davidson diagonalization with overlap
     ethr =  2.54E-11,  avg # of iterations =  6.6

     negative rho (up, down):  1.738E-02 0.000E+00

     Adding external electric field

     Computed dipole along edir(3) :
        Dipole                1.3686 Ry au,          3.4786 Debye
        Dipole field          0.0026 Ry au,

        Potential amp.       -0.2394 Ry
        Total length         46.3494 bohr

     End of self-consistent calculation

          k = 0.0000 0.0000 0.0000 ( 18029 PWs)   bands (ev):

   -55.4034 -55.3708 -55.3671 -55.3364 -55.2981 -55.2916 -55.2900 -55.2459
   -55.2302 -55.2294 -55.1957 -55.1875 -55.1840 -55.1535 -54.4618 -54.4277
   -31.9790 -31.9110 -31.8659 -31.7766 -31.7308 -31.7075 -31.7001 -31.6987
   -31.6601 -31.6594 -31.6147 -31.6139 -31.6104 -31.6038 -31.5814 -31.5598
   -31.5555 -31.5380 -31.5331 -31.5245 -31.5232 -31.5120 -31.4880 -31.4878
   -31.4867 -31.4675 -31.4622 -31.4591 -31.4278 -31.4221 -31.4133 -31.3936
   -31.3917 -31.3914 -31.3720 -31.3661 -31.3573 -31.3466 -31.3318 -31.3242
   -31.3137 -31.2992 -30.8737 -30.7714 -30.7498 -30.6903 -30.6040 -30.4927
   -20.3014 -16.2507 -15.9839 -15.8490 -15.7446 -15.6223 -15.4944 -15.4823
   -15.3500 -15.2229 -15.1565 -15.1343 -15.0980 -15.0822 -15.0494 -15.0444
   -15.0292 -14.9578 -14.9318 -14.9127 -14.8868 -14.8828 -14.8451 -14.8338
   -14.7935 -14.7868 -14.6409 -14.5615 -14.5006 -14.2623 -12.9622 -12.8427
   -11.2268  -7.0227  -5.2165  -5.0907  -3.5846  -3.4136  -3.3541  -3.3334
    -3.3286  -3.1885  -3.0715  -3.0380  -2.8317  -2.7041  -2.6692  -2.6583
    -2.6264  -2.5866  -2.4737  -2.3834  -2.3574  -2.3442  -2.2976  -2.2910
    -2.2742  -2.2209  -2.1992  -2.1794  -2.1740  -2.0138  -1.9498  -1.9013
    -1.8881  -1.8413  -1.8032  -1.7433  -1.7400  -1.7246  -1.6874  -1.6832
    -1.6628  -1.6301  -1.6151  -1.4429  -1.3962  -1.3660  -1.2726  -1.1793
    -1.0929  -0.9924  -0.9765  -0.9623  -0.9175  -0.8499  -0.8415  -0.8080
    -0.7700  -0.6500  -0.5827  -0.5355  -0.4823  -0.4050  -0.4045  -0.3452
    -0.2077  -0.1933  -0.1856  -0.1696  -0.0659   0.0135   0.0263   0.0857
     0.1351   0.1578   0.2304   0.2501   0.3158   0.3386   0.4034   0.4209
     0.5081   0.5292   0.5433   0.5632   0.5807   0.6726   0.6986   0.7458
     0.7529   0.9079   1.0361   1.1592   1.1734   1.4537   1.5450   1.5645
     1.7238   2.1507   2.2055   3.6947   3.7590   3.8074   3.8162   3.8274
     3.9051   4.1837   4.1902   4.1959   4.2111   4.2203

[...]

          k = 0.0380-0.0419 0.0000 ( 17876 PWs)   bands (ev):

[...]

          k =-0.0760-0.0000 0.0000 ( 17886 PWs)   bands (ev):

[...]

          k =-0.0760-0.0839 0.0000 ( 17948 PWs)   bands (ev):

   -55.3861 -55.3842 -55.3554 -55.3516 -55.2919 -55.2883 -55.2840 -55.2535
   -55.2343 -55.2150 -55.2106 -55.1866 -55.1727 -55.1684 -54.4447 -54.4447
   -31.8291 -31.7820 -31.7805 -31.7068 -31.6826 -31.6791 -31.6667 -31.6489
   -31.6417 -31.6218 -31.6087 -31.6044 -31.5994 -31.5814 -31.5533 -31.5435
   -31.5345 -31.5310 -31.5310 -31.5280 -31.5266 -31.5233 -31.5154 -31.4882
   -31.4817 -31.4787 -31.4763 -31.4747 -31.4737 -31.4717 -31.4683 -31.4538
   -31.4448 -31.4396 -31.4259 -31.4152 -31.4134 -31.3949 -31.3904 -31.3739
   -31.3605 -31.3564 -30.7624 -30.7623 -30.6865 -30.6863 -30.6472 -30.6472
   -20.2979 -15.7791 -15.6877 -15.6130 -15.4238 -15.4126 -15.4036 -15.3971
   -15.2843 -15.2557 -15.2240 -15.1831 -15.1673 -15.1634 -15.1466 -15.1389
   -15.0019 -14.9982 -14.9930 -14.9916 -14.9208 -14.9159 -14.9014 -14.8866
   -14.8485 -14.8439 -14.8283 -14.8223 -14.7221 -14.5797 -12.9441 -12.9433
   -11.2285  -7.0231  -5.2068  -5.0801  -3.0603  -2.9653  -2.8846  -2.8739
    -2.6381  -2.6314  -2.5915  -2.5301  -2.4795  -2.4276  -2.4024  -2.3993
    -2.3216  -2.3178  -2.3109  -2.3054  -2.2731  -2.2689  -2.2263  -2.2024
    -2.1790  -2.1241  -2.1069  -2.0966  -2.0734  -2.0688  -2.0599  -2.0348
    -2.0300  -2.0114  -1.9438  -1.8642  -1.7934  -1.7758  -1.7412  -1.6277
    -1.6176  -1.5831  -1.5406  -1.4976  -1.4769  -1.4520  -1.4069  -1.3536
    -1.2511  -1.1982  -1.1905  -1.1506  -1.0831  -1.0367  -1.0034  -0.9544
    -0.9056  -0.8732  -0.8318  -0.7650  -0.7149  -0.6249  -0.6190  -0.5751
    -0.4349  -0.4295  -0.4042  -0.3934  -0.3906  -0.3049  -0.2911  -0.2456
    -0.1997  -0.1456  -0.1210  -0.1127   0.0834   0.0928   0.1776   0.2694
     0.2799   0.4354   0.4511   0.5174   0.5892   0.6326   0.6729   0.7362
     0.8359   0.8679   0.8910   0.9848   1.0265   1.0320   1.0588   1.9164
     1.9176   2.0197   2.0226   3.8362   3.9087   3.9412   4.0126   4.0734
     4.2035   4.2162   4.2464   4.2522   4.3274   4.3398

     the Fermi energy is     3.7496 ev

!    total energy              =   -2932.64516810 Ry
     estimated scf accuracy    <       0.00000006 Ry
     smearing contrib. (-TS)   =      -0.03689916 Ry
     internal energy E=F+TS    =   -2932.60826894 Ry

     The total energy is F=E-TS. E is the sum of the following terms:
     one-electron contribution =  -24389.42406851 Ry
     hartree contribution      =   12284.45447713 Ry
     xc contribution           =    -483.01861579 Ry
     ewald contribution        =    9655.37640354 Ry
     electric field correction =       0.00353469 Ry

     convergence has been achieved in  77 iterations

     Forces acting on atoms (cartesian axes, Ry/au):

     atom    1 type  1   force =    -0.00033713   -0.00014233    0.09280384
     atom    2 type  1   force =    -0.00023848    0.00065529   -0.18342826
     atom    3 type  2   force =     0.00047560    0.00086439   -0.02414946
     atom    4 type  2   force =     0.00075500    0.00051849    0.04952156
     atom    5 type  2   force =    -0.01310772    0.00029031    0.00324312
     atom    6 type  2   force =     0.01564073   -0.00028923    0.00543061
     atom    7 type  1   force =     0.00018406    0.00090657   -0.00000647
     atom    8 type  1   force =    -0.00021992   -0.00027414   -0.00039041
     atom    9 type  2   force =    -0.00005782    0.00022932   -0.00025230
     atom   10 type  2   force =     0.00013833    0.00049162    0.00162207
     atom   11 type  2   force =    -0.00000315   -0.00046317    0.00003124
     atom   12 type  2   force =    -0.00055979    0.00041035   -0.00027539
     atom   13 type  1   force =     0.00101589   -0.00064839    0.00009101
     atom   14 type  1   force =    -0.00081313    0.00093909    0.00068709
     atom   15 type  2   force =    -0.00065342   -0.00025512   -0.00025301
     atom   16 type  2   force =     0.00064854   -0.00024083   -0.00047088
     atom   17 type  2   force =    -0.00061295    0.00002103    0.00086526
     atom   18 type  2   force =    -0.00046628   -0.00021412    0.00016520
     atom   19 type  1   force =    -0.00004132   -0.00085965    0.00015988
     atom   20 type  1   force =    -0.00050879   -0.00007037   -0.00029426
     atom   21 type  2   force =    -0.00005187    0.00001191    0.10499095
     atom   22 type  2   force =    -0.00017819   -0.00134806    0.00101936
     atom   23 type  2   force =    -0.06792120   -0.00003737   -0.02678626
     atom   24 type  2   force =     0.06769680    0.00040270   -0.02687448
     atom   25 type  1   force =    -0.00037897    0.00013424    0.09637654
     atom   26 type  1   force =    -0.00022318   -0.00047026   -0.18355979
     atom   27 type  2   force =     0.00042096    0.00058981   -0.02278663
     atom   28 type  2   force =     0.00079442    0.00033225    0.04921688
     atom   29 type  2   force =    -0.01324979    0.00068328    0.00320727
     atom   30 type  2   force =     0.01571948    0.00023778    0.00535811
     atom   31 type  1   force =     0.00029303   -0.00137395   -0.00018038
     atom   32 type  1   force =    -0.00006508   -0.00014766    0.00030286
     atom   33 type  2   force =     0.00033612   -0.00009696    0.00076402
     atom   34 type  2   force =     0.00036511    0.00036048    0.00036707
     atom   35 type  2   force =    -0.00035497    0.00004790    0.00013238
     atom   36 type  2   force =    -0.00026309    0.00028312    0.00001571
     atom   37 type  1   force =     0.00137631   -0.00001328   -0.00052496
     atom   38 type  1   force =    -0.00076874   -0.00078374    0.00094616
     atom   39 type  2   force =    -0.00063864    0.00017603   -0.00050308
     atom   40 type  2   force =    -0.00063159    0.00037205   -0.00016629
     atom   41 type  2   force =    -0.00062702   -0.00004898    0.00066321
     atom   42 type  2   force =    -0.00079896   -0.00024660    0.00021806
     atom   43 type  1   force =    -0.00036654    0.00098864    0.00040516
     atom   44 type  1   force =     0.00023086    0.00048782    0.00046998
     atom   45 type  2   force =    -0.00005230    0.00003151    0.10497237
     atom   46 type  2   force =    -0.06787523   -0.00057697   -0.02679440
     atom   47 type  2   force =     0.06765154   -0.00010764   -0.02687203
     atom   48 type  3   force =    -0.02027668   -0.00123128   -0.00344750
     atom   49 type  2   force =     0.00344262   -0.00057368   -0.00108570
     atom   50 type  4   force =     0.01035709    0.00176214    0.00390513
     atom   51 type  4   force =     0.00039161   -0.00042094   -0.00094432
     atom   52 type  4   force =     0.00266250   -0.00218161    0.00196638
     atom   53 type  4   force =     0.00174534    0.00088822    0.00012778

     Total force =     0.368857     Total SCF correction =     0.000626
  @ DRIVER MODE: Message from server: STATUS
  @ DRIVER MODE: Message from server: GETFORCE
  @ DRIVER MODE: Returning v,forces,stress,ensemble

     Writing output data file ./calc.save/
  @ DRIVER MODE: Message from server: EXIT
  @ DRIVE MODE: Exiting

     General routines

     Parallel routines

   This run was terminated on:  22:49: 5   8Sep2021

   JOB DONE.