     Program PWSCF v.6.7GPU starts on 27Jul2021 at  3:14:34

     R & G space division:  proc/nbgrp/npool/nimage =      16
     Reading input from /storage/home/hcoda1/3/ntian30/research/carbon/15Jul_vib/ads_slab/CH3NHHH_a/out_0007/pw.inp
Warning: card &CELL ignored
Warning: card   CELL_DYNAMICS='IPI', ignored
Warning: card / ignored

     Current dimensions of program PWSCF are:
     Max number of different atomic species (ntypx) = 10
     Max number of k-points (npk) =  40000
     Max angular momentum in pseudopotentials (lmaxx) =  3
     Presently no symmetry can be used with electric field

     Message from routine cell_base_init:
     DEPRECATED: use true lattice parameter, not A to a.u. conversion factor

     IMPORTANT: XC functional enforced from input :
     Exchange-correlation= BEEF-VDW
                           (   1   4  43  14   2   0   0)
     Any further DFT definition will be discarded
     Please, verify this is what you really want

  @ DRIVER MODE: Connecting to
 qe_1139763_2431568.sched-torque.pace.gatech.edu846onkn__scratch
  using UNIX socket
  @ DRIVER MODE: Message from server: STATUS
  @ DRIVER MODE: Message from server: INIT
  @ DRIVER MODE: Receiving replica           0          -1
  @ DRIVER MODE: Receiving encoded integer          25
  @ DRIVER MODE:  SCF:  T  FORCE:  T  STRESS:  F  VC:  F  ENSEMBLE:  F
  @ DRIVER MODE:  SCF:  T  FORCE:  T  STRESS:  F  VC:  F  ENSEMBLE:  F

     Using Slab Decomposition

     bravais-lattice index     =            0
     lattice parameter (alat)  =       1.8897  a.u.
     unit-cell volume          =    6658.9804 (a.u.)^3
     number of atoms/cell      =           55
     number of atomic types    =            5
     number of electrons       =       393.00
     number of Kohn-Sham states=          206
     kinetic-energy cutoff     =      29.3995  Ry
     charge density cutoff     =     293.9946  Ry
     scf convergence threshold =      7.3E-08
     mixing beta               =       0.0500
     number of iterations used =            8  plain     mixing
     Exchange-correlation= BEEF-VDW
                           (   1   4  43  14   2   0   0)

     celldm(1)=   1.889726  celldm(2)=   0.000000  celldm(3)=   0.000000
     celldm(4)=   0.000000  celldm(5)=   0.000000  celldm(6)=   0.000000

     crystal axes: (cart. coord. in units of alat)
               a(1) = (   6.579727   0.000000   0.000000 )
               a(2) = (  -0.000775   5.961596   0.000000 )
               a(3) = (   0.000000   0.000000  25.155947 )

     reciprocal axes: (cart. coord. in units 2 pi/alat)
               b(1) = (  0.151982  0.000020  0.000000 )
               b(2) = (  0.000000  0.167740  0.000000 )
               b(3) = (  0.000000  0.000000  0.039752 )

     PseudoPot. # 1 for Ti read from file:
     /storage/coda1/p-amedford6/0/shared/rich_project_chbe-medford/medford-share/data/pseudos_module/espresso/nninc/pbe/van/Ti.UPF
     MD5 check sum: 8e4df49b7f0d34bbd5052bf3f5ea0213
     Pseudo is Ultrasoft, Zval = 12.0
     Generated by new atomic code, or converted to UPF format
     Using radial grid of  851 points,  6 beta functions with:
                l(1) =   0
                l(2) =   0
                l(3) =   1
                l(4) =   1
                l(5) =   2
                l(6) =   2
     Q(r) pseudized with  8 coefficients,  rinner =    1.000   1.000   1.000
                                                       1.000   1.000

     PseudoPot. # 2 for O  read from file:
     /storage/coda1/p-amedford6/0/shared/rich_project_chbe-medford/medford-share/data/pseudos_module/espresso/nninc/pbe/van/O.UPF
     MD5 check sum: 78c19812648e8988a0fe644b0f25305e
     Pseudo is Ultrasoft, Zval =  6.0
     Generated by new atomic code, or converted to UPF format
     Using radial grid of  737 points,  4 beta functions with:
                l(1) =   0
                l(2) =   0
                l(3) =   1
                l(4) =   1
     Q(r) pseudized with  8 coefficients,  rinner =    0.800   0.800   0.800

     PseudoPot. # 3 for N  read from file:
     /storage/coda1/p-amedford6/0/shared/rich_project_chbe-medford/medford-share/data/pseudos_module/espresso/nninc/pbe/van/N.UPF
     MD5 check sum: 90d10febe142ad51ac9d5be1deb811c4
     Pseudo is Ultrasoft, Zval =  5.0
     Generated by new atomic code, or converted to UPF format
     Using radial grid of  729 points,  4 beta functions with:
                l(1) =   0
                l(2) =   0
                l(3) =   1
                l(4) =   1
     Q(r) pseudized with  8 coefficients,  rinner =    0.800   0.800   0.800

     PseudoPot. # 4 for C  read from file:
     /storage/coda1/p-amedford6/0/shared/rich_project_chbe-medford/medford-share/data/pseudos_module/espresso/nninc/pbe/van/C.UPF
     MD5 check sum: 1a69bf6b8db32088f5b2163dbdb77a27
     Pseudo is Ultrasoft, Zval =  4.0
     Generated by new atomic code, or converted to UPF format
     Using radial grid of  721 points,  4 beta functions with:
                l(1) =   0
                l(2) =   0
                l(3) =   1
                l(4) =   1
     Q(r) pseudized with  8 coefficients,  rinner =    0.800   0.800   0.800

     PseudoPot. # 5 for H  read from file:
     /storage/coda1/p-amedford6/0/shared/rich_project_chbe-medford/medford-share/data/pseudos_module/espresso/nninc/pbe/van/H.UPF
     MD5 check sum: b5ee9d7bfd3a09ee7748110bda690ff7
     Pseudo is Ultrasoft, Zval =  1.0
     Generated by new atomic code, or converted to UPF format
     Using radial grid of  615 points,  1 beta functions with:
                l(1) =   0
     Q(r) pseudized with  8 coefficients,  rinner =    0.800

     atomic species   valence    mass     pseudopotential
        Ti1           12.00    47.86700     Ti( 1.00)
        O1             6.00    15.99900     O ( 1.00)
        N1             5.00    14.00700     N ( 1.00)
        C1             4.00    12.01100     C ( 1.00)
        H1             1.00     1.00800     H ( 1.00)

     Starting magnetic structure
     atomic species   magnetization
        Ti1          0.000
        O1           0.000
        N1           0.040
        C1           0.025
        H1           0.000

     No symmetry found

   Cartesian axes

     site n.     atom                  positions (alat units)
         1           Ti1 tau(   1) = (   0.0004258   2.9801865   6.0000000  )
         2           Ti1 tau(   2) = (   3.2906075   1.4906267   6.0002472  )
         3           O1  tau(   3) = (   0.0006271   0.0005054   7.9858123  )
         4           O1  tau(   4) = (   3.2906025   0.0005020   7.3038282  )
         5           O1  tau(   5) = (   4.5942328   1.4918067   9.2879030  )
         6           O1  tau(   6) = (   1.9868534   1.4903216   9.2879459  )
         7           Ti1 tau(   7) = (   3.2907910   2.8959150   9.1758416  )
         8           Ti1 tau(   8) = (   0.0015273   1.4827037   9.2680791  )
         9           O1  tau(   9) = (   3.2636084   5.9406443  11.4082010  )
        10           O1  tau(  10) = (   0.0116148   5.9584955  10.6183126  )
        11           O1  tau(  11) = (   1.2642105   1.4849797  12.6947803  )
        12           O1  tau(  12) = (   5.2691575   1.4821021  12.6650678  )
        13           Ti1 tau(  13) = (   6.5574234   2.9640577  12.4921542  )
        14           Ti1 tau(  14) = (   3.2619390   1.4709553  12.5527290  )
        15           O1  tau(  15) = (   6.5247406   5.9594380  14.6832748  )
        16           O1  tau(  16) = (   3.2695906   5.9428997  14.0562986  )
        17           O1  tau(  17) = (   4.5175969   1.4707097  16.2986306  )
        18           O1  tau(  18) = (   1.9406912   1.4777946  16.2473769  )
        19           Ti1 tau(  19) = (   3.2491105   2.9422209  15.8109686  )
        20           Ti1 tau(  20) = (   6.5361480   1.3378720  15.9626387  )
        21           O1  tau(  21) = (   3.2904802   0.0005063   4.7018136  )
        22           O1  tau(  22) = (   6.5280740   5.8897732  17.4332532  )
        23           O1  tau(  23) = (   1.3043587   1.4918075   6.0039043  )
        24           O1  tau(  24) = (   5.2767064   1.4903225   6.0039473  )
        25           Ti1 tau(  25) = (   0.0000382   5.9609847   6.0000000  )
        26           Ti1 tau(  26) = (   3.2902200   4.4714249   6.0002472  )
        27           O1  tau(  27) = (   0.0002396   2.9813036   7.9858123  )
        28           O1  tau(  28) = (   3.2902150   2.9813002   7.3038282  )
        29           O1  tau(  29) = (   4.5938453   4.4726049   9.2879030  )
        30           O1  tau(  30) = (   1.9864658   4.4711199   9.2879459  )
        31           Ti1 tau(  31) = (   3.2891106   5.8743827   9.1763621  )
        32           Ti1 tau(  32) = (   0.0006254   4.4649316   9.2693709  )
        33           O1  tau(  33) = (   3.2649920   2.9642658  11.3997388  )
        34           O1  tau(  34) = (   0.0092240   2.9805883  10.6323155  )
        35           O1  tau(  35) = (   1.2634527   4.4478426  12.7061968  )
        36           O1  tau(  36) = (   5.2693862   4.4495813  12.6755241  )
        37           Ti1 tau(  37) = (   6.5522441   5.9483113  12.5008436  )
        38           Ti1 tau(  38) = (   3.2626494   4.4468850  12.5575576  )
        39           O1  tau(  39) = (   6.4970557   2.9363996  15.0046851  )
        40           O1  tau(  40) = (   3.2722650   2.9529576  14.0194401  )
        41           O1  tau(  41) = (   4.5170401   4.4205294  16.2730734  )
        42           O1  tau(  42) = (   1.9466746   4.4191161  16.2235312  )
        43           Ti1 tau(  43) = (   3.2419262   5.9323414  15.8513663  )
        44           Ti1 tau(  44) = (   6.5549466   4.5556212  15.8889459  )
        45           O1  tau(  45) = (   3.2900926   2.9813045   4.7018136  )
        46           O1  tau(  46) = (   1.3039711   4.4726057   6.0039043  )
        47           O1  tau(  47) = (   5.2763189   4.4711207   6.0039473  )
        48           N1  tau(  48) = (   4.8657738   4.5798987  19.4796958  )
        49           C1  tau(  49) = (   5.7171871   3.4329544  19.8049648  )
        50           H1  tau(  50) = (   6.3241292   3.1721029  18.9298488  )
        51           H1  tau(  51) = (   6.4229137   3.7195585  20.5942015  )
        52           H1  tau(  52) = (   5.1874390   2.5328885  20.1195193  )
        53           H1  tau(  53) = (   5.9066942   5.7389963  18.1772939  )
        54           H1  tau(  54) = (   4.2103208   4.3266459  18.7469397  )
        55           H1  tau(  55) = (   4.3187305   4.8545830  20.2870342  )

     number of k points=    10  Fermi-Dirac smearing, width (Ry)=  0.0073
                       cart. coord. in units 2pi/alat
        k(    1) = (   0.0000000   0.0000000   0.0000000), wk =   0.0625000
        k(    2) = (   0.0000000   0.0419351   0.0000000), wk =   0.1250000
        k(    3) = (   0.0000000  -0.0838702   0.0000000), wk =   0.0625000
        k(    4) = (   0.0379955   0.0000049   0.0000000), wk =   0.1250000
        k(    5) = (   0.0379955   0.0419400   0.0000000), wk =   0.1250000
        k(    6) = (   0.0379955  -0.0838652   0.0000000), wk =   0.1250000
[...]
     %   K. Berland et al., Rep. Prog. Phys. 78, 066501 (2015).             %
     %   D.C. Langreth et al., J. Phys.: Condens. Matter 21, 084203 (2009). %
     %                                                                      %
     %                                                                      %
     % If you are calculating the stress with vdW-DF, please also cite:     %
     %                                                                      %
     %   R. Sabatini et al., J. Phys.: Condens. Matter 24, 424209 (2012).   %
     %                                                                      %
     %%%%%%%%%%%%%%%%%%%%%%%%%%%%%%%%%%%%%%%%%%%%%%%%%%%%%%%%%%%%%%%%%%%%%%%%

     Adding external electric field

     Computed dipole along edir(3) :
        Dipole               -9.4918 Ry au,        -24.1257 Debye
        Dipole field         -0.0179 Ry au,

        Potential amp.        1.6604 Ry
        Total length         46.3494 bohr

[...]

     Starting wfcs are  298 atomic wfcs
  @ DRIVER MODE: Message from server: STATUS
  @ DRIVER MODE: Message from server: POSDATA
  @ DRIVER MODE: Reading and sharing cell
  @ DRIVER MODE: Reading and sharing positions
  @ DRIVER MODE: Received positions

     Self-consistent Calculation

     iteration #  1     ecut=    29.40 Ry     beta= 0.05
     Davidson diagonalization with overlap
     c_bands:  2 eigenvalues not converged
     c_bands:  1 eigenvalues not converged
     c_bands:  2 eigenvalues not converged
     c_bands:  3 eigenvalues not converged
     c_bands:  3 eigenvalues not converged
     c_bands:  1 eigenvalues not converged
     c_bands:  2 eigenvalues not converged
     c_bands:  1 eigenvalues not converged
     c_bands:  2 eigenvalues not converged
     c_bands:  3 eigenvalues not converged
     c_bands:  3 eigenvalues not converged
     c_bands:  1 eigenvalues not converged
     ethr =  1.00E-05,  avg # of iterations = 18.9

[...]

     total energy              =   -2620.52075074 Ry
     estimated scf accuracy    <    3389.57898456 Ry

     total magnetization       =     0.00 Bohr mag/cell
     absolute magnetization    =     0.01 Bohr mag/cell

     iteration #  2     ecut=    29.40 Ry     beta= 0.05
     Davidson diagonalization with overlap
     ethr =  1.00E-02,  avg # of iterations = 22.9

[...]

     iteration #218     ecut=    29.40 Ry     beta= 0.05
     Davidson diagonalization with overlap
     ethr =  2.19E-11,  avg # of iterations =  2.6

[...]

     total energy              =   -2922.77408288 Ry
     estimated scf accuracy    <       0.00000008 Ry

[...]

     iteration #225     ecut=    29.40 Ry     beta= 0.05
     Davidson diagonalization with overlap
     c_bands:  2 eigenvalues not converged
     c_bands:  5 eigenvalues not converged
     c_bands:  2 eigenvalues not converged
     c_bands:  4 eigenvalues not converged
     c_bands:  4 eigenvalues not converged
     c_bands:  5 eigenvalues not converged
     c_bands:  5 eigenvalues not converged
     c_bands:  1 eigenvalues not converged
     c_bands:  1 eigenvalues not converged
     c_bands:  4 eigenvalues not converged
     c_bands:  2 eigenvalues not converged
     c_bands:  5 eigenvalues not converged
     c_bands:  4 eigenvalues not converged
     c_bands:  5 eigenvalues not converged
     c_bands:  5 eigenvalues not converged
     c_bands:  5 eigenvalues not converged
     c_bands:  3 eigenvalues not converged
     c_bands:  1 eigenvalues not converged
     c_bands:  2 eigenvalues not converged
     c_bands:  3 eigenvalues not converged
     ethr =  2.04E-11,  avg # of iterations = 20.0

     negative rho (up, down):  7.244E-03 7.246E-03

[...]

     Adding external electric field

     Computed dipole along edir(3) :
        Dipole                1.4036 Ry au,          3.5676 Debye
        Dipole field          0.0026 Ry au,

        Potential amp.       -0.2455 Ry
        Total length         46.3494 bohr

     Magnetic moment per site  (integrated on atomic sphere of radius R)
     atom   1 (R=0.739)  charge=  8.0547  magn=  0.0093
     atom   2 (R=0.739)  charge=  8.0362  magn=  0.0004
     atom   3 (R=0.405)  charge=  2.0075  magn= -0.0006
     atom   4 (R=0.405)  charge=  2.0190  magn= -0.0000
     atom   5 (R=0.405)  charge=  2.0104  magn= -0.0001
     atom   6 (R=0.405)  charge=  2.0107  magn= -0.0001
     atom   7 (R=0.739)  charge=  8.0371  magn=  0.0008
     atom   8 (R=0.739)  charge=  8.0393  magn=  0.0089
     atom   9 (R=0.405)  charge=  2.0112  magn= -0.0001
     atom  10 (R=0.405)  charge=  2.0118  magn= -0.0003
     atom  11 (R=0.405)  charge=  2.0092  magn= -0.0001
     atom  12 (R=0.405)  charge=  2.0092  magn= -0.0001
     atom  13 (R=0.739)  charge=  8.0500  magn=  0.0024
     atom  14 (R=0.739)  charge=  8.0432  magn=  0.0013
     atom  15 (R=0.405)  charge=  2.0128  magn= -0.0000
     atom  16 (R=0.405)  charge=  2.0108  magn= -0.0000
     atom  17 (R=0.405)  charge=  2.0009  magn=  0.0000
     atom  18 (R=0.405)  charge=  2.0012  magn=  0.0000
     atom  19 (R=0.739)  charge=  8.0824  magn= -0.0007
     atom  20 (R=0.739)  charge=  8.1004  magn= -0.0002
     atom  21 (R=0.405)  charge=  1.9825  magn= -0.0002
     atom  22 (R=0.405)  charge=  2.0201  magn= -0.0000
     atom  23 (R=0.405)  charge=  2.0078  magn= -0.0004
     atom  24 (R=0.405)  charge=  2.0078  magn= -0.0004
     atom  25 (R=0.739)  charge=  8.0548  magn=  0.0093
     atom  26 (R=0.739)  charge=  8.0362  magn=  0.0004
     atom  27 (R=0.405)  charge=  2.0075  magn= -0.0006
     atom  28 (R=0.405)  charge=  2.0191  magn= -0.0000
     atom  29 (R=0.405)  charge=  2.0107  magn= -0.0001
     atom  30 (R=0.405)  charge=  2.0109  magn= -0.0001
     atom  31 (R=0.739)  charge=  8.0372  magn=  0.0008
     atom  32 (R=0.739)  charge=  8.0393  magn=  0.0089
     atom  33 (R=0.405)  charge=  2.0120  magn= -0.0001
     atom  34 (R=0.405)  charge=  2.0122  magn= -0.0003
     atom  35 (R=0.405)  charge=  2.0082  magn= -0.0001
     atom  36 (R=0.405)  charge=  2.0092  magn= -0.0001
     atom  37 (R=0.739)  charge=  8.0419  magn=  0.0025
     atom  38 (R=0.739)  charge=  8.0432  magn=  0.0013
     atom  39 (R=0.405)  charge=  2.0116  magn= -0.0000
     atom  40 (R=0.405)  charge=  2.0126  magn= -0.0000
     atom  41 (R=0.405)  charge=  2.0020  magn=  0.0000
     atom  42 (R=0.405)  charge=  2.0020  magn=  0.0000
     atom  43 (R=0.739)  charge=  8.0813  magn= -0.0005
     atom  44 (R=0.739)  charge=  8.1023  magn= -0.0002
     atom  45 (R=0.405)  charge=  1.9825  magn= -0.0002
     atom  46 (R=0.405)  charge=  2.0078  magn= -0.0004
     atom  47 (R=0.405)  charge=  2.0078  magn= -0.0004
     atom  48 (R=0.418)  charge=  1.3253  magn=  0.0000
     atom  49 (R=0.450)  charge=  0.8497  magn= -0.0000
     atom  50 (R=0.405)  charge=  0.4109  magn= -0.0000
     atom  51 (R=0.405)  charge=  0.4107  magn= -0.0000
     atom  52 (R=0.405)  charge=  0.4153  magn= -0.0000
     atom  53 (R=0.405)  charge=  0.3971  magn= -0.0000
     atom  54 (R=0.405)  charge=  0.4211  magn= -0.0000
     atom  55 (R=0.405)  charge=  0.4256  magn= -0.0000

     End of self-consistent calculation

 ------ SPIN UP ------------

          k = 0.0000 0.0000 0.0000 ( 18029 PWs)   bands (ev):

   -55.3099 -55.2741 -55.2648 -55.2307 -55.1747 -55.1493 -55.1473 -55.1403
   -55.1148 -55.0915 -55.0728 -55.0576 -55.0316 -54.9736 -54.3011 -54.2671
   -31.8762 -31.7543 -31.6892 -31.6623 -31.6369 -31.6162 -31.5988 -31.5542
   -31.5501 -31.5466 -31.5174 -31.5099 -31.5048 -31.4775 -31.4663 -31.4633
   -31.4487 -31.4390 -31.4187 -31.4039 -31.3971 -31.3814 -31.3756 -31.3570
   -31.3532 -31.3232 -31.3177 -31.3069 -31.3029 -31.2919 -31.2917 -31.2858
   -31.2773 -31.2761 -31.2609 -31.2574 -31.2244 -31.2199 -31.2026 -31.2005
   -31.1814 -31.1072 -30.7111 -30.6150 -30.5929 -30.5271 -30.4403 -30.3296
   -16.8259 -16.1475 -15.8911 -15.7704 -15.6624 -15.6300 -15.5202 -15.4414
   -15.3576 -15.2569 -15.1951 -15.0907 -15.0562 -15.0164 -15.0022 -14.9826
   -14.9556 -14.8756 -14.8645 -14.8540 -14.8280 -14.8095 -14.7822 -14.7725
   -14.7661 -14.7269 -14.6890 -14.5772 -14.4867 -14.4008 -12.8034 -12.6857
    -9.9941  -5.8645  -4.7532  -4.4667  -3.5227  -3.4754  -3.3438  -3.2390
    -3.2052  -3.1965  -3.0765  -2.8923  -2.7981  -2.7708  -2.6366  -2.6226
    -2.5332  -2.5290  -2.4897  -2.3894  -2.3518  -2.3247  -2.2417  -2.2144
    -2.1683  -2.1180  -2.1076  -2.1044  -2.0839  -2.0435  -2.0047  -1.8857
    -1.8012  -1.7791  -1.7056  -1.6892  -1.6832  -1.6551  -1.6120  -1.5933
    -1.5436  -1.5266  -1.4858  -1.4171  -1.3560  -1.2735  -1.2367  -1.1996
    -0.9938  -0.9647  -0.9142  -0.9117  -0.8835  -0.8148  -0.7856  -0.7558
    -0.6898  -0.6873  -0.6588  -0.5525  -0.5098  -0.3890  -0.3182  -0.2387
    -0.1166  -0.1038  -0.0800  -0.0303  -0.0064   0.0532   0.1128   0.1497
     0.1892   0.2018   0.2892   0.3177   0.3940   0.4079   0.4437   0.5113
     0.5265   0.5531   0.5669   0.5836   0.6179   0.6337   0.6682   0.7344
     0.7669   0.8680   0.9167   1.2008   1.2860   1.5953   1.6184   1.7218
     1.9031   2.3005   2.3493   3.7775   3.8446   3.8876   3.9243   3.9270
     4.0115   4.1464   4.2878   4.2938   4.3089   4.3150

[...]

          k =-0.0760-0.0000 0.0000 ( 17886 PWs)   bands (ev):

[...]

 ------ SPIN DOWN ----------

[...]

          k = 0.0380-0.0419 0.0000 ( 17876 PWs)   bands (ev):

[...]

          k =-0.0760-0.0839 0.0000 ( 17948 PWs)   bands (ev):

   -55.2910 -55.2880 -55.2324 -55.2315 -55.1537 -55.1528 -55.1439 -55.1327
   -55.1284 -55.0777 -55.0609 -55.0583 -55.0247 -54.9807 -54.2833 -54.2832
   -31.6827 -31.6776 -31.5881 -31.5828 -31.5631 -31.5625 -31.5564 -31.5211
   -31.5203 -31.5077 -31.5034 -31.5011 -31.4888 -31.4623 -31.4574 -31.4541
   -31.4297 -31.4275 -31.4223 -31.4036 -31.3744 -31.3724 -31.3678 -31.3649
   -31.3630 -31.3506 -31.3497 -31.3480 -31.3464 -31.3409 -31.3372 -31.3238
   -31.3210 -31.3039 -31.3008 -31.2941 -31.2655 -31.2443 -31.2396 -31.2376
   -31.2264 -31.1736 -30.6047 -30.6046 -30.5231 -30.5230 -30.4830 -30.4829
   -16.7647 -15.8205 -15.6316 -15.5405 -15.4995 -15.4049 -15.3311 -15.3000
   -15.2900 -15.2768 -15.1508 -15.1226 -15.1134 -15.0852 -15.0533 -15.0289
   -15.0250 -14.9901 -14.9328 -14.9267 -14.9188 -14.9106 -14.8470 -14.8388
   -14.8350 -14.8282 -14.7630 -14.7606 -14.6783 -14.6763 -12.7878 -12.7878
   -10.0039  -5.8648  -4.8776  -4.4507  -3.5354  -2.8230  -2.7961  -2.7431
    -2.6469  -2.6119  -2.5262  -2.4998  -2.4634  -2.4052  -2.3533  -2.3060
    -2.3042  -2.2685  -2.2485  -2.2296  -2.1863  -2.1647  -2.1422  -2.1240
    -2.1093  -2.0556  -2.0525  -2.0433  -2.0194  -1.9850  -1.9674  -1.9539
    -1.9380  -1.9198  -1.8942  -1.8749  -1.7320  -1.7111  -1.6708  -1.5537
    -1.5354  -1.5320  -1.4991  -1.4553  -1.4304  -1.4227  -1.3489  -1.3418
    -1.3093  -1.1523  -1.0799  -1.0781  -1.0551  -1.0312  -0.9358  -0.8844
    -0.8439  -0.7941  -0.7184  -0.6869  -0.6683  -0.5958  -0.5689  -0.4774
    -0.3880  -0.3610  -0.3528  -0.2756  -0.2742  -0.2405  -0.2273  -0.1585
    -0.0979  -0.0467  -0.0427  -0.0383   0.0901   0.1271   0.2071   0.3210
     0.4015   0.4097   0.4601   0.5214   0.5944   0.6488   0.6629   0.7882
     0.7901   0.9764   0.9796   1.0278   1.0429   1.1236   1.1287   2.0756
     2.0763   2.1687   2.1690   3.7612   3.9438   3.9985   4.0736   4.0984
     4.1959   4.2826   4.3168   4.3448   4.3683   4.3746

     the Fermi energy is     3.8543 ev

!    total energy              =   -2922.77408372 Ry
     estimated scf accuracy    <       0.00000006 Ry
     smearing contrib. (-TS)   =      -0.04550286 Ry
     internal energy E=F+TS    =   -2922.72858086 Ry

     The total energy is F=E-TS. E is the sum of the following terms:
     one-electron contribution =  -23201.74123039 Ry
     hartree contribution      =   11691.15874106 Ry
     xc contribution           =    -482.54903364 Ry
     ewald contribution        =    9070.39922434 Ry
     electric field correction =       0.00371776 Ry

     total magnetization       =     0.06 Bohr mag/cell
     absolute magnetization    =     0.09 Bohr mag/cell

     convergence has been achieved in 225 iterations

     Forces acting on atoms (cartesian axes, Ry/au):

     atom    1 type  1   force =     0.00016871   -0.00009091    0.09305555
     atom    2 type  1   force =     0.00001291   -0.00015925   -0.17885715
     atom    3 type  2   force =     0.00002338   -0.00029747   -0.02023366
     atom    4 type  2   force =    -0.00000125   -0.00223782    0.06098816
     atom    5 type  2   force =    -0.01150375   -0.00127962    0.01054535
     atom    6 type  2   force =     0.01241630   -0.00058538    0.00810941
     atom    7 type  1   force =    -0.00122688    0.00343798   -0.01490971
     atom    8 type  1   force =     0.00123315   -0.00358312   -0.00843788
     atom    9 type  2   force =     0.00001070   -0.00005009   -0.00025579
     atom   10 type  2   force =    -0.00281476   -0.00047962    0.00154060
     atom   11 type  2   force =     0.00012838   -0.00023351   -0.00028340
     atom   12 type  2   force =    -0.00000761    0.00008886   -0.00009545
     atom   13 type  1   force =    -0.00019931   -0.00031806   -0.00064036
     atom   14 type  1   force =    -0.00005215   -0.00005198    0.00023507
     atom   15 type  2   force =    -0.00011495   -0.00024120   -0.00014640
     atom   16 type  2   force =     0.00032878    0.00035437   -0.00009716
     atom   17 type  2   force =     0.00077184    0.00026524   -0.00024917
     atom   18 type  2   force =     0.00009772   -0.00028104   -0.00004930
     atom   19 type  1   force =     0.00024380    0.00042065   -0.00048240
     atom   20 type  1   force =     0.00011554    0.00011784    0.00051765
     atom   21 type  2   force =     0.00012791   -0.00002934    0.10426091
     atom   22 type  2   force =    -0.00060505    0.00013464    0.00029780
     atom   23 type  2   force =    -0.06991487   -0.00010987   -0.02678692
     atom   24 type  2   force =     0.06988777    0.00035131   -0.02678500
     atom   25 type  1   force =     0.00018294   -0.00019471    0.09235815
     atom   26 type  1   force =    -0.00006656   -0.00036179   -0.17902583
     atom   27 type  2   force =     0.00004271   -0.00025654   -0.01896767
     atom   28 type  2   force =     0.00006459   -0.00192929    0.06024261
     atom   29 type  2   force =    -0.01169374   -0.00162363    0.01034118
     atom   30 type  2   force =     0.01247836   -0.00120730    0.00787037
     atom   31 type  1   force =    -0.00101805    0.00609548   -0.01577030
     atom   32 type  1   force =     0.00118698    0.00334153   -0.00865161
     atom   33 type  2   force =     0.00002719    0.00019986   -0.00024417
     atom   34 type  2   force =    -0.00240729   -0.00053881    0.00059990
     atom   35 type  2   force =     0.00001024    0.00000305    0.00005927
     atom   36 type  2   force =     0.00002730   -0.00007077    0.00037275
     atom   37 type  1   force =     0.00035108   -0.00004716   -0.00008820
     atom   38 type  1   force =    -0.00036208   -0.00031978    0.00047458
     atom   39 type  2   force =     0.00035982   -0.00014902    0.00060301
     atom   40 type  2   force =     0.00025236   -0.00017550    0.00005239
     atom   41 type  2   force =     0.00005044    0.00037621   -0.00037233
     atom   42 type  2   force =     0.00050651    0.00022684   -0.00018080
     atom   43 type  1   force =     0.00021797   -0.00019454   -0.00042137
     atom   44 type  1   force =     0.00016155   -0.00129495    0.00067437
     atom   45 type  2   force =     0.00012099   -0.00005035    0.10421595
     atom   46 type  2   force =    -0.06992791   -0.00005194   -0.02677596
     atom   47 type  2   force =     0.06991672    0.00034998   -0.02679477
     atom   48 type  3   force =    -0.00301165    0.00176858   -0.00180286
     atom   49 type  4   force =     0.02008521    0.00281351   -0.00086857
     atom   50 type  5   force =    -0.00430298    0.00102941    0.00401566
     atom   51 type  5   force =    -0.00606067   -0.00215981   -0.00397435
     atom   52 type  5   force =    -0.00459852   -0.00421431    0.00163086
     atom   53 type  5   force =     0.00030137    0.00076073   -0.00116566
     atom   54 type  5   force =    -0.00090465    0.00112407   -0.00071817
     atom   55 type  5   force =    -0.00111656    0.00160833    0.00107080

     Total force =     0.368417     Total SCF correction =     0.000173
  @ DRIVER MODE: Message from server: STATUS
  @ DRIVER MODE: Message from server: GETFORCE
  @ DRIVER MODE: Returning v,forces,stress,ensemble

     Writing output data file ./calc.save/
  @ DRIVER MODE: Message from server: EXIT
  @ DRIVE MODE: Exiting

     General routines

     Parallel routines

   This run was terminated on:   4:51:13  27Jul2021

   JOB DONE.