     Program PWSCF v.6.7GPU starts on 27Sep2021 at  4:29:22

     R & G space division:  proc/nbgrp/npool/nimage =       8
     Reading input from /storage/home/hcoda1/3/ntian30/research/carbon/CxH_vib/H2O_calc/ads_slab/CH2NHNHHO_b/out_0041/pw.inp
Warning: card &CELL ignored
Warning: card   CELL_DYNAMICS='IPI', ignored
Warning: card / ignored

     Current dimensions of program PWSCF are:
     Max number of different atomic species (ntypx) = 10
     Max number of k-points (npk) =  40000
     Max angular momentum in pseudopotentials (lmaxx) =  3
     Presently no symmetry can be used with electric field

     Message from routine cell_base_init:
     DEPRECATED: use true lattice parameter, not A to a.u. conversion factor

     IMPORTANT: XC functional enforced from input :
     Exchange-correlation= BEEF-VDW
                           (   1   4  43  14   2   0   0)
     Any further DFT definition will be discarded
     Please, verify this is what you really want

  @ DRIVER MODE: Connecting to
 qe_1139763_2971671.sched-torque.pace.gatech.edupu2tw1hl_scratch
  using UNIX socket
  @ DRIVER MODE: Message from server: STATUS
  @ DRIVER MODE: Message from server: INIT
  @ DRIVER MODE: Receiving replica           0          -1
  @ DRIVER MODE: Receiving encoded integer          25
  @ DRIVER MODE:  SCF:  T  FORCE:  T  STRESS:  F  VC:  F  ENSEMBLE:  F
  @ DRIVER MODE:  SCF:  T  FORCE:  T  STRESS:  F  VC:  F  ENSEMBLE:  F

     Using Slab Decomposition

     bravais-lattice index     =            0
     lattice parameter (alat)  =       1.8897  a.u.
     unit-cell volume          =    6658.9804 (a.u.)^3
     number of atoms/cell      =           56
     number of atomic types    =            5
     number of electrons       =       403.00
     number of Kohn-Sham states=          211
     kinetic-energy cutoff     =      29.3995  Ry
     charge density cutoff     =     293.9946  Ry
     scf convergence threshold =      7.3E-08
     mixing beta               =       0.0500
     number of iterations used =            8  plain     mixing
     Exchange-correlation= BEEF-VDW
                           (   1   4  43  14   2   0   0)

     celldm(1)=   1.889726  celldm(2)=   0.000000  celldm(3)=   0.000000
     celldm(4)=   0.000000  celldm(5)=   0.000000  celldm(6)=   0.000000

     crystal axes: (cart. coord. in units of alat)
               a(1) = (   6.579727   0.000000   0.000000 )
               a(2) = (  -0.000775   5.961596   0.000000 )
               a(3) = (   0.000000   0.000000  25.155947 )

     reciprocal axes: (cart. coord. in units 2 pi/alat)
               b(1) = (  0.151982  0.000020  0.000000 )
               b(2) = (  0.000000  0.167740  0.000000 )
               b(3) = (  0.000000  0.000000  0.039752 )

     PseudoPot. # 1 for Ti read from file:
     /storage/coda1/p-amedford6/0/shared/rich_project_chbe-medford/medford-share/data/pseudos_module/espresso/nninc/pbe/van/Ti.UPF
     MD5 check sum: 8e4df49b7f0d34bbd5052bf3f5ea0213
     Pseudo is Ultrasoft, Zval = 12.0
     Generated by new atomic code, or converted to UPF format
     Using radial grid of  851 points,  6 beta functions with:
                l(1) =   0
                l(2) =   0
                l(3) =   1
                l(4) =   1
                l(5) =   2
                l(6) =   2
     Q(r) pseudized with  8 coefficients,  rinner =    1.000   1.000   1.000
                                                       1.000   1.000

     PseudoPot. # 2 for O  read from file:
     /storage/coda1/p-amedford6/0/shared/rich_project_chbe-medford/medford-share/data/pseudos_module/espresso/nninc/pbe/van/O.UPF
     MD5 check sum: 78c19812648e8988a0fe644b0f25305e
     Pseudo is Ultrasoft, Zval =  6.0
     Generated by new atomic code, or converted to UPF format
     Using radial grid of  737 points,  4 beta functions with:
                l(1) =   0
                l(2) =   0
                l(3) =   1
                l(4) =   1
     Q(r) pseudized with  8 coefficients,  rinner =    0.800   0.800   0.800

     PseudoPot. # 3 for N  read from file:
     /storage/coda1/p-amedford6/0/shared/rich_project_chbe-medford/medford-share/data/pseudos_module/espresso/nninc/pbe/van/N.UPF
     MD5 check sum: 90d10febe142ad51ac9d5be1deb811c4
     Pseudo is Ultrasoft, Zval =  5.0
     Generated by new atomic code, or converted to UPF format
     Using radial grid of  729 points,  4 beta functions with:
                l(1) =   0
                l(2) =   0
                l(3) =   1
                l(4) =   1
     Q(r) pseudized with  8 coefficients,  rinner =    0.800   0.800   0.800

     PseudoPot. # 4 for C  read from file:
     /storage/coda1/p-amedford6/0/shared/rich_project_chbe-medford/medford-share/data/pseudos_module/espresso/nninc/pbe/van/C.UPF
     MD5 check sum: 1a69bf6b8db32088f5b2163dbdb77a27
     Pseudo is Ultrasoft, Zval =  4.0
     Generated by new atomic code, or converted to UPF format
     Using radial grid of  721 points,  4 beta functions with:
                l(1) =   0
                l(2) =   0
                l(3) =   1
                l(4) =   1
     Q(r) pseudized with  8 coefficients,  rinner =    0.800   0.800   0.800

     PseudoPot. # 5 for H  read from file:
     /storage/coda1/p-amedford6/0/shared/rich_project_chbe-medford/medford-share/data/pseudos_module/espresso/nninc/pbe/van/H.UPF
     MD5 check sum: b5ee9d7bfd3a09ee7748110bda690ff7
     Pseudo is Ultrasoft, Zval =  1.0
     Generated by new atomic code, or converted to UPF format
     Using radial grid of  615 points,  1 beta functions with:
                l(1) =   0
     Q(r) pseudized with  8 coefficients,  rinner =    0.800

     atomic species   valence    mass     pseudopotential
        Ti1           12.00    47.86700     Ti( 1.00)
        O1             6.00    15.99900     O ( 1.00)
        N1             5.00    14.00700     N ( 1.00)
        C1             4.00    12.01100     C ( 1.00)
        H1             1.00     1.00800     H ( 1.00)

     No symmetry found

   Cartesian axes

     site n.     atom                  positions (alat units)
         1           Ti1 tau(   1) = (   0.0004258   2.9801865   6.0000000  )
         2           Ti1 tau(   2) = (   3.2906075   1.4906267   6.0002472  )
         3           O1  tau(   3) = (   0.0006271   0.0005054   7.9858123  )
         4           O1  tau(   4) = (   3.2906025   0.0005020   7.3038282  )
         5           O1  tau(   5) = (   4.5942328   1.4918067   9.2879030  )
         6           O1  tau(   6) = (   1.9868534   1.4903216   9.2879459  )
         7           Ti1 tau(   7) = (   3.2907910   2.8959150   9.1758416  )
         8           Ti1 tau(   8) = (   0.0015273   1.4827037   9.2680791  )
         9           O1  tau(   9) = (   3.2987294   5.9443783  11.3578989  )
        10           O1  tau(  10) = (   0.0116148   5.9584955  10.6183126  )
        11           O1  tau(  11) = (   1.2795512   1.4821507  12.6386044  )
        12           O1  tau(  12) = (   5.2980455   1.5005163  12.6536529  )
        13           Ti1 tau(  13) = (   6.5652885   2.9238251  12.5528928  )
        14           Ti1 tau(  14) = (   3.2988635   1.2998061  12.7048432  )
        15           O1  tau(  15) = (   0.0127057   0.0339484  14.6761273  )
        16           O1  tau(  16) = (   3.2875936   0.0940603  14.0290633  )
        17           O1  tau(  17) = (   4.5650748   1.6033894  16.0357995  )
        18           O1  tau(  18) = (   2.0190796   1.5896112  16.2175902  )
        19           Ti1 tau(  19) = (   3.3013862   3.0422678  15.6649453  )
        20           Ti1 tau(  20) = (   6.4815444   1.5191555  15.8288377  )
        21           O1  tau(  21) = (   3.2904802   0.0005063   4.7018136  )
        22           O1  tau(  22) = (   6.5172723   5.9480513  17.2191950  )
        23           O1  tau(  23) = (   1.3043587   1.4918075   6.0039043  )
        24           O1  tau(  24) = (   5.2767064   1.4903225   6.0039473  )
        25           Ti1 tau(  25) = (   0.0000382   5.9609847   6.0000000  )
        26           Ti1 tau(  26) = (   3.2902200   4.4714249   6.0002472  )
        27           O1  tau(  27) = (   0.0002396   2.9813036   7.9858123  )
        28           O1  tau(  28) = (   3.2902150   2.9813002   7.3038282  )
        29           O1  tau(  29) = (   4.5938453   4.4726049   9.2879030  )
        30           O1  tau(  30) = (   1.9864658   4.4711199   9.2879459  )
        31           Ti1 tau(  31) = (   3.2891106   5.8743827   9.1763621  )
        32           Ti1 tau(  32) = (   0.0006254   4.4649316   9.2693709  )
        33           O1  tau(  33) = (   3.2945946   2.9940555  11.3077331  )
        34           O1  tau(  34) = (   0.0092240   2.9805883  10.6323155  )
        35           O1  tau(  35) = (   1.2876619   4.4781899  12.6403949  )
        36           O1  tau(  36) = (   5.3010724   4.4646845  12.6541769  )
        37           Ti1 tau(  37) = (   0.0424196   5.9023569  12.5123361  )
        38           Ti1 tau(  38) = (   3.3119368   4.3729351  12.4217702  )
        39           O1  tau(  39) = (   0.0401333   2.9740317  14.7512036  )
        40           O1  tau(  40) = (   3.2576645   3.0028392  13.8982547  )
        41           O1  tau(  41) = (   4.5666544   4.4234537  16.0705803  )
        42           O1  tau(  42) = (   2.0215446   4.4756893  16.1430302  )
        43           Ti1 tau(  43) = (   3.2259990   0.0392177  16.2341362  )
        44           Ti1 tau(  44) = (   6.5723990   4.6710500  15.9980081  )
        45           O1  tau(  45) = (   3.2900926   2.9813045   4.7018136  )
        46           O1  tau(  46) = (   1.3039711   4.4726057   6.0039043  )
        47           O1  tau(  47) = (   5.2763189   4.4711207   6.0039473  )
        48           N1  tau(  48) = (   0.9334729   2.5913682  18.4753943  )
        49           N1  tau(  49) = (   6.5156687   2.9055835  17.6419879  )
        50           C1  tau(  50) = (   1.0224037   2.6952286  19.7617917  )
        51           H1  tau(  51) = (   1.9166829   2.3177709  20.2270220  )
        52           H1  tau(  52) = (   0.2162702   3.1370440  20.3260263  )
        53           H1  tau(  53) = (   1.6995924   2.1399843  17.9426691  )
        54           H1  tau(  54) = (   5.6785098   3.1284051  18.1683837  )
        55           O1  tau(  55) = (   3.5318048   0.0910060  18.0897867  )
        56           H1  tau(  56) = (   4.4897960   0.0680733  18.2655997  )

     number of k points=    10  Fermi-Dirac smearing, width (Ry)=  0.0073
                       cart. coord. in units 2pi/alat
        k(    1) = (   0.0000000   0.0000000   0.0000000), wk =   0.1250000
        k(    2) = (   0.0000000   0.0419351   0.0000000), wk =   0.2500000
        k(    3) = (   0.0000000  -0.0838702   0.0000000), wk =   0.1250000
        k(    4) = (   0.0379955   0.0000049   0.0000000), wk =   0.2500000
        k(    5) = (   0.0379955   0.0419400   0.0000000), wk =   0.2500000
        k(    6) = (   0.0379955  -0.0838652   0.0000000), wk =   0.2500000
        k(    7) = (   0.0379955  -0.0419301   0.0000000), wk =   0.2500000
        k(    8) = (  -0.0759910  -0.0000099   0.0000000), wk =   0.1250000
        k(    9) = (  -0.0759910   0.0419252   0.0000000), wk =   0.2500000
        k(   10) = (  -0.0759910  -0.0838800   0.0000000), wk =   0.1250000

     Initial potential from superposition of free atoms

     starting charge  386.99914, renormalised to  403.00000

     negative rho (up, down):  1.427E-02 0.000E+00

     %%%%%%%%%%%%%%%%%%%%%%%%%%%%%%%%%%%%%%%%%%%%%%%%%%%%%%%%%%%%%%%%%%%%%%%%
     %                                                                      %
     % You are using vdW-DF, which was implemented by the Thonhauser group. %
     % Please cite the following two papers that made this development      %
     % possible and the two reviews that describe the various versions:     %
     %                                                                      %
     %   T. Thonhauser et al., PRL 115, 136402 (2015).                      %
     %   T. Thonhauser et al., PRB 76, 125112 (2007).                       %
     %   K. Berland et al., Rep. Prog. Phys. 78, 066501 (2015).             %
     %   D.C. Langreth et al., J. Phys.: Condens. Matter 21, 084203 (2009). %
     %                                                                      %
     %                                                                      %
     % If you are calculating the stress with vdW-DF, please also cite:     %
     %                                                                      %
     %   R. Sabatini et al., J. Phys.: Condens. Matter 24, 424209 (2012).   %
     %                                                                      %
     %%%%%%%%%%%%%%%%%%%%%%%%%%%%%%%%%%%%%%%%%%%%%%%%%%%%%%%%%%%%%%%%%%%%%%%%

     Adding external electric field

     Computed dipole along edir(3) :
        Dipole              -12.9675 Ry au,        -32.9601 Debye
        Dipole field         -0.0245 Ry au,

        Potential amp.        2.2685 Ry
        Total length         46.3494 bohr

     Starting wfcs are  305 atomic wfcs
  @ DRIVER MODE: Message from server: STATUS
  @ DRIVER MODE: Message from server: POSDATA
  @ DRIVER MODE: Reading and sharing cell
  @ DRIVER MODE: Reading and sharing positions
  @ DRIVER MODE: Received positions

     Self-consistent Calculation

     iteration #  1     ecut=    29.40 Ry     beta= 0.05
     Davidson diagonalization with overlap
     c_bands:  4 eigenvalues not converged
     c_bands:  4 eigenvalues not converged
     c_bands:  3 eigenvalues not converged
     c_bands:  1 eigenvalues not converged
     c_bands:  3 eigenvalues not converged
     c_bands:  2 eigenvalues not converged
     ethr =  1.00E-05,  avg # of iterations = 25.6

[...]

     total energy              =   -2352.66799534 Ry
     estimated scf accuracy    <    7059.60491877 Ry

     iteration #  2     ecut=    29.40 Ry     beta= 0.05
     Davidson diagonalization with overlap
     ethr =  1.00E-02,  avg # of iterations = 22.2

[...]

     iteration # 65     ecut=    29.40 Ry     beta= 0.05
     Davidson diagonalization with overlap
     c_bands:  2 eigenvalues not converged
     c_bands:  1 eigenvalues not converged
     ethr =  1.34E-10,  avg # of iterations = 14.5

[...]

     total energy              =   -2973.99838259 Ry
     estimated scf accuracy    <       0.00000012 Ry

     iteration # 69     ecut=    29.40 Ry     beta= 0.05
     Davidson diagonalization with overlap
     ethr =  2.99E-11,  avg # of iterations = 10.5

     negative rho (up, down):  1.506E-02 0.000E+00

     Adding external electric field

     Computed dipole along edir(3) :
        Dipole                1.3489 Ry au,          3.4285 Debye
        Dipole field          0.0025 Ry au,

        Potential amp.       -0.2360 Ry
        Total length         46.3494 bohr

     End of self-consistent calculation

          k = 0.0000 0.0000 0.0000 ( 18029 PWs)   bands (ev):

   -55.4235 -55.3275 -55.2934 -55.1487 -55.1451 -55.1339 -55.1132 -55.1110
   -55.0848 -55.0555 -55.0347 -54.9573 -54.9546 -54.9105 -54.2908 -54.2568
   -31.8104 -31.7456 -31.6801 -31.6487 -31.6372 -31.6271 -31.6192 -31.5975
   -31.5725 -31.5719 -31.5680 -31.4830 -31.4799 -31.4325 -31.4193 -31.4049
   -31.3986 -31.3850 -31.3621 -31.3476 -31.3394 -31.3382 -31.3294 -31.3156
   -31.3031 -31.2912 -31.2789 -31.2760 -31.2750 -31.2635 -31.2599 -31.2495
   -31.2338 -31.2302 -31.2266 -31.1906 -31.1790 -31.1509 -31.1388 -31.1284
   -31.1165 -31.1121 -30.6964 -30.6112 -30.5887 -30.5140 -30.4276 -30.3158
   -19.6142 -16.1801 -15.9493 -15.7972 -15.6151 -15.4913 -15.4334 -15.2202
   -15.1525 -15.0814 -15.0010 -14.9369 -14.8582 -14.8444 -14.8189 -14.8037
   -14.7794 -14.7412 -14.7400 -14.7355 -14.6928 -14.6872 -14.6560 -14.6061
   -14.6007 -14.5787 -14.4563 -14.3830 -14.3368 -14.2031 -14.0830 -13.9588
   -12.7896 -12.6734 -10.1775  -7.0193  -6.7155  -4.2763  -4.0224  -3.6422
    -3.3299  -3.2533  -3.2225  -3.1817  -3.0575  -2.8767  -2.7562  -2.6854
    -2.5825  -2.4584  -2.4412  -2.3399  -2.3154  -2.2480  -2.2123  -2.1725
    -2.1522  -2.1285  -2.1054  -2.1020  -1.9899  -1.9857  -1.8603  -1.8429
    -1.7925  -1.7326  -1.6842  -1.6397  -1.6280  -1.6094  -1.5938  -1.5853
    -1.5545  -1.5408  -1.5172  -1.4649  -1.4045  -1.3572  -1.3199  -1.2064
    -1.0177  -0.9197  -0.8679  -0.8261  -0.7934  -0.7442  -0.7177  -0.7098
    -0.6801  -0.6413  -0.5090  -0.5011  -0.4548  -0.3789  -0.3393  -0.3185
    -0.1925  -0.1794  -0.1068  -0.0502  -0.0475  -0.0362   0.0580   0.1154
     0.1441   0.1731   0.2236   0.2804   0.3541   0.3829   0.4164   0.4756
     0.5370   0.5650   0.6246   0.6436   0.6557   0.7374   0.7583   0.7828
     0.8051   0.8765   0.9234   0.9592   0.9995   1.0879   1.1181   1.1671
     1.2046   1.3600   1.4144   1.6839   1.7353   1.7995   1.9292   2.3017
     2.3465   3.7743   3.9100   3.9291   3.9335   4.0308   4.1340   4.2473
     4.2954   4.3303   4.3762

[...]

          k = 0.0380-0.0419 0.0000 ( 17876 PWs)   bands (ev):

[...]

          k =-0.0760-0.0000 0.0000 ( 17886 PWs)   bands (ev):

[...]

          k =-0.0760-0.0839 0.0000 ( 17948 PWs)   bands (ev):

   -55.4227 -55.3107 -55.3100 -55.1345 -55.1337 -55.1308 -55.1292 -55.1239
   -55.0783 -55.0526 -55.0412 -54.9575 -54.9507 -54.9170 -54.2743 -54.2732
   -31.6793 -31.6721 -31.6286 -31.6259 -31.6256 -31.6049 -31.6043 -31.5457
   -31.5055 -31.4595 -31.4519 -31.4514 -31.4449 -31.4441 -31.4306 -31.4297
   -31.4207 -31.3988 -31.3775 -31.3686 -31.3575 -31.3429 -31.3418 -31.3305
   -31.3290 -31.3195 -31.3088 -31.3017 -31.2985 -31.2970 -31.2952 -31.2852
   -31.2734 -31.2633 -31.2575 -31.2495 -31.2204 -31.2095 -31.1827 -31.1595
   -31.1435 -31.1169 -30.6018 -30.6011 -30.5099 -30.5087 -30.4712 -30.4704
   -19.6124 -16.1427 -15.4855 -15.4163 -15.2678 -15.2585 -15.1877 -15.1467
   -15.1403 -15.0887 -15.0823 -15.0145 -14.9893 -14.9810 -14.9416 -14.8898
   -14.8396 -14.8096 -14.8042 -14.7561 -14.7462 -14.7347 -14.6983 -14.6786
   -14.6298 -14.6262 -14.6108 -14.5313 -14.4761 -14.3179 -14.3029 -13.9721
   -12.7756 -12.7750 -10.1807  -7.0149  -6.7129  -4.2667  -4.0108  -3.5953
    -2.6919  -2.6830  -2.6233  -2.4705  -2.4268  -2.3265  -2.3155  -2.2566
    -2.2427  -2.1952  -2.1743  -2.1629  -2.1263  -2.1064  -2.1033  -2.0764
    -2.0568  -2.0465  -2.0206  -1.9847  -1.9824  -1.9522  -1.9437  -1.9268
    -1.9062  -1.8849  -1.8657  -1.8600  -1.8078  -1.7755  -1.6176  -1.5978
    -1.4603  -1.4576  -1.4435  -1.4221  -1.3882  -1.3767  -1.3378  -1.3036
    -1.2336  -1.1911  -1.0960  -1.0609  -0.9538  -0.9256  -0.8542  -0.8073
    -0.7681  -0.7450  -0.7345  -0.7048  -0.6310  -0.5565  -0.5102  -0.4699
    -0.3701  -0.2943  -0.2698  -0.2653  -0.2583  -0.2250  -0.1548  -0.1534
    -0.1123  -0.0961  -0.0140  -0.0035   0.0105   0.0296   0.1637   0.1944
     0.2925   0.3566   0.4066   0.4603   0.4931   0.5436   0.6576   0.7889
     0.8416   0.8671   0.8806   0.9422   0.9908   1.0061   1.0526   1.1249
     1.1959   1.2451   1.2647   1.2882   1.3393   2.0982   2.1070   2.1666
     2.1670   4.0371   4.1379   4.2530   4.2871   4.3029   4.3221   4.3397
     4.3645   4.4082   4.4542

     the Fermi energy is     3.7997 ev

!    total energy              =   -2973.99840103 Ry
     estimated scf accuracy    <       0.00000005 Ry
     smearing contrib. (-TS)   =      -0.02052140 Ry
     internal energy E=F+TS    =   -2973.97787963 Ry

     The total energy is F=E-TS. E is the sum of the following terms:
     one-electron contribution =  -23635.99699209 Ry
     hartree contribution      =   11914.90098111 Ry
     xc contribution           =    -494.12228841 Ry
     ewald contribution        =    9241.23698611 Ry
     electric field correction =       0.00343365 Ry

     convergence has been achieved in  69 iterations

     Forces acting on atoms (cartesian axes, Ry/au):

     atom    1 type  1   force =    -0.00005793   -0.00028710    0.09520312
     atom    2 type  1   force =    -0.00011025    0.00042823   -0.17496118
     atom    3 type  2   force =     0.00000933   -0.00027975   -0.02254066
     atom    4 type  2   force =     0.00005471   -0.00195816    0.05328960
     atom    5 type  2   force =    -0.00766263   -0.00251533    0.00194546
     atom    6 type  2   force =     0.00924868   -0.00208060    0.00146849
     atom    7 type  1   force =    -0.00021723   -0.00467599    0.00730120
     atom    8 type  1   force =     0.00014097    0.00536319    0.01281213
     atom    9 type  2   force =    -0.00010810   -0.00002710    0.00021368
     atom   10 type  2   force =    -0.00275475    0.00061175   -0.01379856
     atom   11 type  2   force =    -0.00014381    0.00022511   -0.00001448
     atom   12 type  2   force =     0.00013361   -0.00003302    0.00024080
     atom   13 type  1   force =     0.00024897    0.00018737    0.00032464
     atom   14 type  1   force =     0.00002446   -0.00000680    0.00017921
     atom   15 type  2   force =     0.00037609   -0.00010932    0.00004846
     atom   16 type  2   force =    -0.00036432   -0.00009219    0.00006373
     atom   17 type  2   force =     0.00028951   -0.00021884    0.00001698
     atom   18 type  2   force =     0.00013432    0.00000781    0.00024395
     atom   19 type  1   force =     0.00016777   -0.00005945   -0.00013684
     atom   20 type  1   force =     0.00027467    0.00008102   -0.00001309
     atom   21 type  2   force =     0.00005736    0.00003646    0.10303470
     atom   22 type  2   force =     0.00004611    0.00011179   -0.00007150
     atom   23 type  2   force =    -0.07219531   -0.00019879   -0.02750205
     atom   24 type  2   force =     0.07209890    0.00021135   -0.02757059
     atom   25 type  1   force =     0.00011103   -0.00024682    0.09494374
     atom   26 type  1   force =    -0.00023063   -0.00136519   -0.17517981
     atom   27 type  2   force =     0.00015874   -0.00013583   -0.02138290
     atom   28 type  2   force =     0.00004800   -0.00025432    0.04863507
     atom   29 type  2   force =    -0.00692708    0.00261885    0.00144078
     atom   30 type  2   force =     0.00850269    0.00313442    0.00086530
     atom   31 type  1   force =    -0.00009588    0.00787756   -0.00303035
     atom   32 type  1   force =     0.00038579   -0.00771600    0.01219469
     atom   33 type  2   force =     0.00008467   -0.00004798   -0.00013834
     atom   34 type  2   force =    -0.00195838    0.00048663   -0.01636638
     atom   35 type  2   force =    -0.00011949    0.00002162   -0.00000660
     atom   36 type  2   force =    -0.00006136    0.00031539   -0.00001207
     atom   37 type  1   force =    -0.00013543    0.00017248    0.00004618
     atom   38 type  1   force =    -0.00009265    0.00006372    0.00015507
     atom   39 type  2   force =    -0.00007349   -0.00029204   -0.00006860
     atom   40 type  2   force =     0.00012371   -0.00000016    0.00019885
     atom   41 type  2   force =     0.00014883   -0.00016679    0.00004606
     atom   42 type  2   force =     0.00028233   -0.00011274   -0.00007137
     atom   43 type  1   force =    -0.00029641    0.00001469   -0.00030585
     atom   44 type  1   force =     0.00041893   -0.00008686   -0.00017462
     atom   45 type  2   force =     0.00008620   -0.00013987    0.10282824
     atom   46 type  2   force =    -0.07218741   -0.00009160   -0.02755114
     atom   47 type  2   force =     0.07211605    0.00036174   -0.02757730
     atom   48 type  3   force =    -0.00144348    0.00059652    0.00043487
     atom   49 type  3   force =     0.00755739   -0.00196967   -0.00632028
     atom   50 type  4   force =    -0.00028579    0.00030248   -0.00000829
     atom   51 type  5   force =     0.00026351    0.00024150    0.00035676
     atom   52 type  5   force =    -0.00053946   -0.00018471    0.00016826
     atom   53 type  5   force =     0.00044043    0.00004327   -0.00024979
     atom   54 type  5   force =    -0.00578690    0.00158948    0.00597051
     atom   55 type  2   force =    -0.00059672   -0.00010827    0.00020874
     atom   56 type  5   force =     0.00041112    0.00035687    0.00017338

     Total force =     0.363456     Total SCF correction =     0.000568
  @ DRIVER MODE: Message from server: STATUS
  @ DRIVER MODE: Message from server: GETFORCE
  @ DRIVER MODE: Returning v,forces,stress,ensemble

     Writing output data file ./calc.save/
  @ DRIVER MODE: Message from server: EXIT
  @ DRIVE MODE: Exiting

     General routines

     Parallel routines

   This run was terminated on:   4:55: 9  27Sep2021

   JOB DONE.