     Program PWSCF v.6.7GPU starts on 11Sep2021 at  0:39: 5

     R & G space division:  proc/nbgrp/npool/nimage =      10
     Reading input from /storage/home/hcoda1/3/ntian30/research/carbon/CxH_vib/CH2_calc/ads_slab/CH2O_c/out_0019/pw.inp
Warning: card &CELL ignored
Warning: card   CELL_DYNAMICS='IPI', ignored
Warning: card / ignored

     Current dimensions of program PWSCF are:
     Max number of different atomic species (ntypx) = 10
     Max number of k-points (npk) =  40000
     Max angular momentum in pseudopotentials (lmaxx) =  3
     Presently no symmetry can be used with electric field

     Message from routine cell_base_init:
     DEPRECATED: use true lattice parameter, not A to a.u. conversion factor

     IMPORTANT: XC functional enforced from input :
     Exchange-correlation= BEEF-VDW
                           (   1   4  43  14   2   0   0)
     Any further DFT definition will be discarded
     Please, verify this is what you really want

  @ DRIVER MODE: Connecting to
 qe_1139763_2792043.sched-torque.pace.gatech.edu6acw4kw7_scratch
  using UNIX socket
  @ DRIVER MODE: Message from server: STATUS
  @ DRIVER MODE: Message from server: INIT
  @ DRIVER MODE: Receiving replica           0          -1
  @ DRIVER MODE: Receiving encoded integer          25
  @ DRIVER MODE:  SCF:  T  FORCE:  T  STRESS:  F  VC:  F  ENSEMBLE:  F
  @ DRIVER MODE:  SCF:  T  FORCE:  T  STRESS:  F  VC:  F  ENSEMBLE:  F

     Using Slab Decomposition

     bravais-lattice index     =            0
     lattice parameter (alat)  =       1.8897  a.u.
     unit-cell volume          =    6658.9804 (a.u.)^3
     number of atoms/cell      =           51
     number of atomic types    =            4
     number of electrons       =       390.00
     number of Kohn-Sham states=          205
     kinetic-energy cutoff     =      29.3995  Ry
     charge density cutoff     =     293.9946  Ry
     scf convergence threshold =      7.3E-08
     mixing beta               =       0.0500
     number of iterations used =            8  plain     mixing
     Exchange-correlation= BEEF-VDW
                           (   1   4  43  14   2   0   0)

     celldm(1)=   1.889726  celldm(2)=   0.000000  celldm(3)=   0.000000
     celldm(4)=   0.000000  celldm(5)=   0.000000  celldm(6)=   0.000000

     crystal axes: (cart. coord. in units of alat)
               a(1) = (   6.579727   0.000000   0.000000 )
               a(2) = (  -0.000775   5.961596   0.000000 )
               a(3) = (   0.000000   0.000000  25.155947 )

     reciprocal axes: (cart. coord. in units 2 pi/alat)
               b(1) = (  0.151982  0.000020  0.000000 )
               b(2) = (  0.000000  0.167740  0.000000 )
               b(3) = (  0.000000  0.000000  0.039752 )

     PseudoPot. # 1 for O  read from file:
     /storage/coda1/p-amedford6/0/shared/rich_project_chbe-medford/medford-share/data/pseudos_module/espresso/nninc/pbe/van/O.UPF
     MD5 check sum: 78c19812648e8988a0fe644b0f25305e
     Pseudo is Ultrasoft, Zval =  6.0
     Generated by new atomic code, or converted to UPF format
     Using radial grid of  737 points,  4 beta functions with:
                l(1) =   0
                l(2) =   0
                l(3) =   1
                l(4) =   1
     Q(r) pseudized with  8 coefficients,  rinner =    0.800   0.800   0.800

     PseudoPot. # 2 for Ti read from file:
     /storage/coda1/p-amedford6/0/shared/rich_project_chbe-medford/medford-share/data/pseudos_module/espresso/nninc/pbe/van/Ti.UPF
     MD5 check sum: 8e4df49b7f0d34bbd5052bf3f5ea0213
     Pseudo is Ultrasoft, Zval = 12.0
     Generated by new atomic code, or converted to UPF format
     Using radial grid of  851 points,  6 beta functions with:
                l(1) =   0
                l(2) =   0
                l(3) =   1
                l(4) =   1
                l(5) =   2
                l(6) =   2
     Q(r) pseudized with  8 coefficients,  rinner =    1.000   1.000   1.000
                                                       1.000   1.000

     PseudoPot. # 3 for C  read from file:
     /storage/coda1/p-amedford6/0/shared/rich_project_chbe-medford/medford-share/data/pseudos_module/espresso/nninc/pbe/van/C.UPF
     MD5 check sum: 1a69bf6b8db32088f5b2163dbdb77a27
     Pseudo is Ultrasoft, Zval =  4.0
     Generated by new atomic code, or converted to UPF format
     Using radial grid of  721 points,  4 beta functions with:
                l(1) =   0
                l(2) =   0
                l(3) =   1
                l(4) =   1
     Q(r) pseudized with  8 coefficients,  rinner =    0.800   0.800   0.800

     PseudoPot. # 4 for H  read from file:
     /storage/coda1/p-amedford6/0/shared/rich_project_chbe-medford/medford-share/data/pseudos_module/espresso/nninc/pbe/van/H.UPF
     MD5 check sum: b5ee9d7bfd3a09ee7748110bda690ff7
     Pseudo is Ultrasoft, Zval =  1.0
     Generated by new atomic code, or converted to UPF format
     Using radial grid of  615 points,  1 beta functions with:
                l(1) =   0
     Q(r) pseudized with  8 coefficients,  rinner =    0.800

     atomic species   valence    mass     pseudopotential
        O1             6.00    15.99900     O ( 1.00)
        Ti1           12.00    47.86700     Ti( 1.00)
        C1             4.00    12.01100     C ( 1.00)
        H1             1.00     1.00800     H ( 1.00)

     No symmetry found

   Cartesian axes

     site n.     atom                  positions (alat units)
         1           O1  tau(   1) = (   3.2904802   0.0005063   4.7018136  )
         2           O1  tau(   2) = (   3.2900926   2.9813045   4.7018136  )
         3           Ti1 tau(   3) = (   0.0004258   2.9801865   6.0000000  )
         4           Ti1 tau(   4) = (   0.0000382   5.9609847   6.0000000  )
         5           Ti1 tau(   5) = (   3.2906075   1.4906267   6.0002472  )
         6           Ti1 tau(   6) = (   3.2902200   4.4714249   6.0002472  )
         7           O1  tau(   7) = (   1.3043587   1.4918075   6.0039043  )
         8           O1  tau(   8) = (   1.3039711   4.4726057   6.0039043  )
         9           O1  tau(   9) = (   5.2767064   1.4903225   6.0039473  )
        10           O1  tau(  10) = (   5.2763189   4.4711207   6.0039473  )
        11           O1  tau(  11) = (   3.2906025   0.0005020   7.3038282  )
        12           O1  tau(  12) = (   3.2902150   2.9813002   7.3038282  )
        13           O1  tau(  13) = (   0.0006271   0.0005054   7.9858123  )
        14           O1  tau(  14) = (   0.0002396   2.9813036   7.9858123  )
        15           Ti1 tau(  15) = (   3.3026304   0.0558743   9.1529855  )
        16           Ti1 tau(  16) = (   3.3164045   3.0327615   9.1572159  )
        17           Ti1 tau(  17) = (   0.0278175   4.5359734   9.2551557  )
        18           Ti1 tau(  18) = (   0.0245227   1.6138560   9.3625275  )
        19           O1  tau(  19) = (   4.5942328   1.4918067   9.2879030  )
        20           O1  tau(  20) = (   4.5938453   4.4726049   9.2879030  )
        21           O1  tau(  21) = (   1.9868534   1.4903216   9.2879459  )
        22           O1  tau(  22) = (   1.9864658   4.4711199   9.2879459  )
        23           O1  tau(  23) = (   0.0082563   0.0105963  10.6032901  )
        24           O1  tau(  24) = (   0.0079484   2.9900140  10.5841352  )
        25           O1  tau(  25) = (   3.3038251   2.9929121  11.3473413  )
        26           O1  tau(  26) = (   3.3033308   0.0102956  11.3494618  )
        27           Ti1 tau(  27) = (   0.0317432   0.0173395  12.5007832  )
        28           Ti1 tau(  28) = (   3.3306627   4.4867663  12.4909107  )
        29           Ti1 tau(  29) = (   3.3307827   1.5098530  12.4883691  )
        30           Ti1 tau(  30) = (   0.0330478   2.9976760  12.7859357  )
        31           O1  tau(  31) = (   1.3012438   4.4818129  12.6408784  )
        32           O1  tau(  32) = (   1.3024292   1.5014896  12.6394904  )
        33           O1  tau(  33) = (   5.3013637   4.4812751  12.6442516  )
        34           O1  tau(  34) = (   5.3009141   1.5012301  12.6421300  )
        35           O1  tau(  35) = (   3.3022887   2.9886358  13.9251823  )
        36           O1  tau(  36) = (   3.3062039   0.0095056  13.9482717  )
        37           O1  tau(  37) = (   0.0260699   0.0177473  14.6866479  )
        38           O1  tau(  38) = (   0.0273203   2.9953000  14.7270975  )
        39           Ti1 tau(  39) = (   3.3120190   2.9903054  15.7171600  )
        40           Ti1 tau(  40) = (   3.3230935   0.0106652  15.7391692  )
        41           Ti1 tau(  41) = (   0.0328368   4.5824378  15.9539421  )
        42           Ti1 tau(  42) = (   0.0326753   1.3890416  16.0019494  )
        43           O1  tau(  43) = (   4.5622593   4.4711273  16.0916796  )
        44           O1  tau(  44) = (   4.5612194   1.5125715  16.1009491  )
        45           O1  tau(  45) = (   2.0595944   1.5153445  16.1103626  )
        46           O1  tau(  46) = (   2.0577381   4.4687033  16.1006481  )
        47           O1  tau(  47) = (   0.0167757   0.0040543  17.2075325  )
        48           O1  tau(  48) = (   6.5679879   3.0050237  17.4360139  )
        49           C1  tau(  49) = (   6.3840651   3.0748419  18.6981053  )
        50           H1  tau(  50) = (   6.3009919   4.0539401  19.1613311  )
        51           H1  tau(  51) = (   6.2954763   2.1576074  19.2739789  )

     number of k points=    10  Fermi-Dirac smearing, width (Ry)=  0.0073
                       cart. coord. in units 2pi/alat
        k(    1) = (   0.0000000   0.0000000   0.0000000), wk =   0.1250000
        k(    2) = (   0.0000000   0.0419351   0.0000000), wk =   0.2500000
        k(    3) = (   0.0000000  -0.0838702   0.0000000), wk =   0.1250000
        k(    4) = (   0.0379955   0.0000049   0.0000000), wk =   0.2500000
        k(    5) = (   0.0379955   0.0419400   0.0000000), wk =   0.2500000
        k(    6) = (   0.0379955  -0.0838652   0.0000000), wk =   0.2500000
        k(    7) = (   0.0379955  -0.0419301   0.0000000), wk =   0.2500000
        k(    8) = (  -0.0759910  -0.0000099   0.0000000), wk =   0.1250000
        k(    9) = (  -0.0759910   0.0419252   0.0000000), wk =   0.2500000
        k(   10) = (  -0.0759910  -0.0838800   0.0000000), wk =   0.1250000

     Initial potential from superposition of free atoms

     starting charge  373.99919, renormalised to  390.00000

     negative rho (up, down):  1.845E-02 0.000E+00

     %%%%%%%%%%%%%%%%%%%%%%%%%%%%%%%%%%%%%%%%%%%%%%%%%%%%%%%%%%%%%%%%%%%%%%%%
     %                                                                      %
     % You are using vdW-DF, which was implemented by the Thonhauser group. %
     % Please cite the following two papers that made this development      %
     % possible and the two reviews that describe the various versions:     %
     %                                                                      %
     %   T. Thonhauser et al., PRL 115, 136402 (2015).                      %
     %   T. Thonhauser et al., PRB 76, 125112 (2007).                       %
     %   K. Berland et al., Rep. Prog. Phys. 78, 066501 (2015).             %
     %   D.C. Langreth et al., J. Phys.: Condens. Matter 21, 084203 (2009). %
     %                                                                      %
     %                                                                      %
     % If you are calculating the stress with vdW-DF, please also cite:     %
     %                                                                      %
     %   R. Sabatini et al., J. Phys.: Condens. Matter 24, 424209 (2012).   %
     %                                                                      %
     %%%%%%%%%%%%%%%%%%%%%%%%%%%%%%%%%%%%%%%%%%%%%%%%%%%%%%%%%%%%%%%%%%%%%%%%

     Adding external electric field

     Computed dipole along edir(3) :
        Dipole               -5.1802 Ry au,        -13.1669 Debye
        Dipole field         -0.0098 Ry au,

        Potential amp.        0.9062 Ry
        Total length         46.3494 bohr

     Starting wfcs are  294 atomic wfcs
  @ DRIVER MODE: Message from server: STATUS
  @ DRIVER MODE: Message from server: POSDATA
  @ DRIVER MODE: Reading and sharing cell
  @ DRIVER MODE: Reading and sharing positions
  @ DRIVER MODE: Received positions

     Self-consistent Calculation

     iteration #  1     ecut=    29.40 Ry     beta= 0.05
     Davidson diagonalization with overlap
     c_bands:  5 eigenvalues not converged
     c_bands:  4 eigenvalues not converged
     c_bands:  2 eigenvalues not converged
     c_bands:  1 eigenvalues not converged
     c_bands:  2 eigenvalues not converged
     c_bands:  5 eigenvalues not converged
     c_bands:  2 eigenvalues not converged
     c_bands:  3 eigenvalues not converged
     c_bands:  2 eigenvalues not converged
     ethr =  1.00E-05,  avg # of iterations = 20.9

[...]

     total energy              =   -2823.06493028 Ry
     estimated scf accuracy    <    1181.40675739 Ry

     iteration #  2     ecut=    29.40 Ry     beta= 0.05
     Davidson diagonalization with overlap
     ethr =  1.00E-02,  avg # of iterations = 16.7

[...]

     iteration # 65     ecut=    29.40 Ry     beta= 0.05
     Davidson diagonalization with overlap
     c_bands:  1 eigenvalues not converged
     ethr =  7.41E-11,  avg # of iterations = 13.0

[...]

     total energy              =   -2930.16726107 Ry
     estimated scf accuracy    <       0.00000009 Ry

     iteration # 68     ecut=    29.40 Ry     beta= 0.05
     Davidson diagonalization with overlap
     ethr =  2.29E-11,  avg # of iterations = 10.2

     negative rho (up, down):  1.727E-02 0.000E+00

     Adding external electric field

     Computed dipole along edir(3) :
        Dipole                0.9332 Ry au,          2.3720 Debye
        Dipole field          0.0018 Ry au,

        Potential amp.       -0.1633 Ry
        Total length         46.3494 bohr

     End of self-consistent calculation

          k = 0.0000 0.0000 0.0000 ( 18029 PWs)   bands (ev):

   -55.8209 -55.8104 -55.7846 -55.7741 -55.7116 -55.6971 -55.6747 -55.6023
   -55.6009 -55.5899 -55.5795 -55.5563 -55.5247 -55.4870 -54.8474 -54.8133
   -32.3802 -32.2934 -32.1879 -32.1710 -32.1272 -32.1224 -32.1155 -32.0967
   -32.0693 -32.0522 -32.0503 -32.0245 -31.9942 -31.9917 -31.9795 -31.9587
   -31.9426 -31.9411 -31.9315 -31.9152 -31.8929 -31.8870 -31.8841 -31.8722
   -31.8632 -31.8460 -31.8443 -31.8209 -31.8157 -31.8150 -31.7898 -31.7622
   -31.7563 -31.7341 -31.7335 -31.7306 -31.7089 -31.7088 -31.6948 -31.6777
   -31.6758 -31.6751 -31.2574 -31.1597 -31.1374 -31.0741 -30.9880 -30.8768
   -19.8409 -16.5910 -16.2967 -16.1505 -16.0167 -15.9675 -15.8525 -15.6945
   -15.6157 -15.5494 -15.4940 -15.4414 -15.4042 -15.4028 -15.3733 -15.3598
   -15.3544 -15.3467 -15.2726 -15.2707 -15.2362 -15.2181 -15.2074 -15.1183
   -15.0576 -14.9977 -14.9513 -14.8925 -14.8394 -14.8256 -13.3480 -13.2296
    -9.2964  -5.5373  -5.5204  -3.9401  -3.7634  -3.7240  -3.7080  -3.6513
    -3.5295  -3.4233  -3.3964  -3.1060  -3.0184  -2.9885  -2.9778  -2.9652
    -2.8227  -2.7795  -2.6653  -2.6623  -2.6506  -2.6459  -2.6258  -2.5905
    -2.5838  -2.5392  -2.5164  -2.4074  -2.3677  -2.2581  -2.2444  -2.2154
    -2.1562  -2.1313  -2.1005  -2.0874  -2.0578  -2.0537  -2.0515  -2.0066
    -1.9060  -1.8183  -1.7506  -1.6689  -1.6305  -1.5380  -1.3790  -1.3098
    -1.2691  -1.2340  -1.1843  -1.1655  -1.1351  -1.1133  -1.0904  -1.0812
    -0.9842  -0.8720  -0.8618  -0.7634  -0.7031  -0.6841  -0.6693  -0.5785
    -0.5598  -0.5492  -0.4555  -0.3140  -0.3043  -0.3003  -0.1815  -0.1505
    -0.1275  -0.0826  -0.0579  -0.0231   0.0076   0.0626   0.1070   0.1175
     0.1642   0.1819   0.2074   0.3088   0.3612   0.3728   0.4270   0.4640
     0.6456   0.6659   0.8071   0.8728   1.0791   1.1773   1.2327   1.3461
     1.7649   1.8228   3.3444   3.3758   3.4009   3.4508   3.4968   3.5388
     3.5918   3.8040   3.8127   3.8381   3.9040

[...]

          k = 0.0380-0.0419 0.0000 ( 17876 PWs)   bands (ev):

[...]

          k =-0.0760-0.0000 0.0000 ( 17886 PWs)   bands (ev):

[...]

          k =-0.0760-0.0839 0.0000 ( 17948 PWs)   bands (ev):

   -55.8091 -55.7963 -55.7925 -55.7918 -55.7019 -55.6938 -55.6844 -55.6053
   -55.5976 -55.5759 -55.5733 -55.5708 -55.5309 -55.4895 -54.8308 -54.8296
   -32.1816 -32.1813 -32.1169 -32.1033 -32.1019 -32.0967 -32.0821 -32.0766
   -32.0629 -32.0336 -32.0256 -32.0112 -31.9945 -31.9576 -31.9467 -31.9384
   -31.9370 -31.9334 -31.9252 -31.9218 -31.9047 -31.9018 -31.8981 -31.8971
   -31.8942 -31.8911 -31.8794 -31.8563 -31.8290 -31.8282 -31.8275 -31.8056
   -31.8009 -31.7833 -31.7801 -31.7737 -31.7706 -31.7699 -31.7433 -31.7167
   -31.7092 -31.6846 -31.1508 -31.1493 -31.0708 -31.0699 -31.0316 -31.0306
   -19.8331 -16.0231 -15.9925 -15.8754 -15.7627 -15.7498 -15.7069 -15.6638
   -15.6160 -15.5576 -15.5548 -15.5066 -15.4875 -15.4834 -15.4388 -15.4061
   -15.3583 -15.3522 -15.3409 -15.3398 -15.2861 -15.2825 -15.2357 -15.2283
   -15.2076 -15.1686 -15.1652 -15.0949 -15.0600 -15.0046 -13.3320 -13.3296
    -9.2974  -5.5162  -5.5013  -3.5557  -3.3119  -3.2784  -3.1082  -2.9805
    -2.9707  -2.9119  -2.8281  -2.7908  -2.7462  -2.6963  -2.6929  -2.6711
    -2.6588  -2.6449  -2.6410  -2.6329  -2.5873  -2.5678  -2.5260  -2.4820
    -2.4743  -2.4610  -2.4552  -2.4151  -2.3992  -2.3876  -2.3804  -2.3744
    -2.3030  -2.2270  -2.1558  -2.0808  -2.0276  -2.0076  -1.9765  -1.9418
    -1.9069  -1.8898  -1.8729  -1.7486  -1.7259  -1.5774  -1.5616  -1.5386
    -1.5297  -1.4760  -1.4691  -1.3477  -1.2711  -1.2652  -1.1955  -1.1755
    -1.1469  -1.0986  -1.0763  -0.9961  -0.9540  -0.9110  -0.8571  -0.7965
    -0.7847  -0.7186  -0.7083  -0.6277  -0.6069  -0.5857  -0.5809  -0.5104
    -0.4764  -0.3972  -0.3862  -0.3633  -0.2624  -0.1971  -0.1922   0.0028
     0.1744   0.1792   0.1991   0.2989   0.3294   0.3724   0.4285   0.4438
     0.5306   0.5852   0.6762   0.6963   0.7051   0.7859   1.5360   1.5370
     1.6280   1.6386   3.2988   3.5631   3.6004   3.6044   3.6645   3.8182
     3.8212   3.8385   3.8476   3.9765   4.0010

     the Fermi energy is     3.3297 ev

!    total energy              =   -2930.16728158 Ry
     estimated scf accuracy    <       0.00000006 Ry
     smearing contrib. (-TS)   =      -0.03341441 Ry
     internal energy E=F+TS    =   -2930.13386717 Ry

     The total energy is F=E-TS. E is the sum of the following terms:
     one-electron contribution =  -24668.11075114 Ry
     hartree contribution      =   12419.50474080 Ry
     xc contribution           =    -481.26823690 Ry
     ewald contribution        =    9799.73873652 Ry
     electric field correction =       0.00164356 Ry

     convergence has been achieved in  68 iterations

     Forces acting on atoms (cartesian axes, Ry/au):

     atom    1 type  1   force =    -0.00009968    0.00004793    0.10424196
     atom    2 type  1   force =    -0.00009420    0.00005370    0.10431568
     atom    3 type  2   force =    -0.00025493   -0.00196013    0.10281048
     atom    4 type  2   force =    -0.00015052    0.00159674    0.11372798
     atom    5 type  2   force =    -0.00032817    0.00059022   -0.18042812
     atom    6 type  2   force =    -0.00019837   -0.00014592   -0.18077730
     atom    7 type  1   force =    -0.06896818    0.00062553   -0.02909333
     atom    8 type  1   force =    -0.06849152   -0.00120265   -0.02913628
     atom    9 type  1   force =     0.06860392    0.00111587   -0.02917148
     atom   10 type  1   force =     0.06822347   -0.00080638   -0.02922432
     atom   11 type  1   force =     0.00037538    0.00051214    0.04558059
     atom   12 type  1   force =     0.00056946    0.00076183    0.04711188
     atom   13 type  1   force =     0.00028195   -0.00577051   -0.03305967
     atom   14 type  1   force =     0.00033334    0.00397229   -0.02583441
     atom   15 type  2   force =     0.00003110   -0.00027838    0.00025500
     atom   16 type  2   force =     0.00013415    0.00013051   -0.00009345
     atom   17 type  2   force =    -0.00021798   -0.00067556    0.00127406
     atom   18 type  2   force =    -0.00028205   -0.00035008    0.00065017
     atom   19 type  1   force =    -0.01793096    0.00014948    0.00393409
     atom   20 type  1   force =    -0.01644745    0.00130299    0.00320819
     atom   21 type  1   force =     0.01956442   -0.00097912    0.00432999
     atom   22 type  1   force =     0.01782368    0.00103091    0.00343955
     atom   23 type  1   force =    -0.00014343   -0.00026588    0.00013455
     atom   24 type  1   force =    -0.00022387    0.00002338   -0.00000628
     atom   25 type  1   force =    -0.00002655   -0.00010723   -0.00086708
     atom   26 type  1   force =    -0.00011634    0.00023375   -0.00016338
     atom   27 type  2   force =    -0.00004364   -0.00075419   -0.00091992
     atom   28 type  2   force =     0.00014756    0.00068209    0.00013086
     atom   29 type  2   force =     0.00010407   -0.00088545    0.00050446
     atom   30 type  2   force =    -0.00025046    0.00137063   -0.00047188
     atom   31 type  1   force =    -0.00020378   -0.00034209    0.00039837
     atom   32 type  1   force =    -0.00025130    0.00035826    0.00000595
     atom   33 type  1   force =    -0.00000551   -0.00038792    0.00050718
     atom   34 type  1   force =     0.00019565    0.00043448    0.00021808
     atom   35 type  1   force =     0.00014914   -0.00005094   -0.00138507
     atom   36 type  1   force =    -0.00006761    0.00032286   -0.00013609
     atom   37 type  1   force =    -0.00075636    0.00008731    0.00042385
     atom   38 type  1   force =     0.00006853   -0.00023481   -0.00060173
     atom   39 type  2   force =    -0.00079845    0.00065789    0.00133055
     atom   40 type  2   force =    -0.00105369   -0.00006480    0.00044454
     atom   41 type  2   force =     0.00073413   -0.00086085   -0.00064102
     atom   42 type  2   force =     0.00064464    0.00103119   -0.00063322
     atom   43 type  1   force =    -0.00034008    0.00019844    0.00057418
     atom   44 type  1   force =     0.00050808    0.00014679    0.00054263
     atom   45 type  1   force =    -0.00061209   -0.00003507    0.00039737
     atom   46 type  1   force =     0.00021154    0.00016405    0.00054419
     atom   47 type  1   force =    -0.00045460    0.00080216    0.00145097
     atom   48 type  1   force =    -0.00028711   -0.00027060    0.00131120
     atom   49 type  3   force =    -0.00127113   -0.00092727    0.00000113
     atom   50 type  4   force =     0.00074823   -0.00083669    0.00015175
     atom   51 type  4   force =     0.00091757   -0.00021089   -0.00130738

     Total force =     0.374435     Total SCF correction =     0.000861
  @ DRIVER MODE: Message from server: STATUS
  @ DRIVER MODE: Message from server: GETFORCE
  @ DRIVER MODE: Returning v,forces,stress,ensemble

     Writing output data file ./calc.save/
  @ DRIVER MODE: Message from server: EXIT
  @ DRIVE MODE: Exiting

     General routines

     Parallel routines

   This run was terminated on:   0:56:57  11Sep2021

   JOB DONE.