     Program PWSCF v.6.7GPU starts on  9Sep2021 at  6:51:23

     R & G space division:  proc/nbgrp/npool/nimage =      10
     Reading input from /storage/home/hcoda1/3/ntian30/research/carbon/CxH_vib/CH_calc/ads_slab/CHNHH_a/out_0030/pw.inp
Warning: card &CELL ignored
Warning: card   CELL_DYNAMICS='IPI', ignored
Warning: card / ignored

     Current dimensions of program PWSCF are:
     Max number of different atomic species (ntypx) = 10
     Max number of k-points (npk) =  40000
     Max angular momentum in pseudopotentials (lmaxx) =  3
     Presently no symmetry can be used with electric field

     Message from routine cell_base_init:
     DEPRECATED: use true lattice parameter, not A to a.u. conversion factor

     IMPORTANT: XC functional enforced from input :
     Exchange-correlation= BEEF-VDW
                           (   1   4  43  14   2   0   0)
     Any further DFT definition will be discarded
     Please, verify this is what you really want

  @ DRIVER MODE: Connecting to
 qe_1139763_2767378.sched-torque.pace.gatech.edu7gs76gtd_scratch
  using UNIX socket
  @ DRIVER MODE: Message from server: STATUS
  @ DRIVER MODE: Message from server: INIT
  @ DRIVER MODE: Receiving replica           0          -1
  @ DRIVER MODE: Receiving encoded integer          25
  @ DRIVER MODE:  SCF:  T  FORCE:  T  STRESS:  F  VC:  F  ENSEMBLE:  F
  @ DRIVER MODE:  SCF:  T  FORCE:  T  STRESS:  F  VC:  F  ENSEMBLE:  F

     Using Slab Decomposition

     bravais-lattice index     =            0
     lattice parameter (alat)  =       1.8897  a.u.
     unit-cell volume          =    6658.9804 (a.u.)^3
     number of atoms/cell      =           52
     number of atomic types    =            5
     number of electrons       =       390.00
     number of Kohn-Sham states=          205
     kinetic-energy cutoff     =      29.3995  Ry
     charge density cutoff     =     293.9946  Ry
     scf convergence threshold =      7.3E-08
     mixing beta               =       0.0500
     number of iterations used =            8  plain     mixing
     Exchange-correlation= BEEF-VDW
                           (   1   4  43  14   2   0   0)

     celldm(1)=   1.889726  celldm(2)=   0.000000  celldm(3)=   0.000000
     celldm(4)=   0.000000  celldm(5)=   0.000000  celldm(6)=   0.000000

     crystal axes: (cart. coord. in units of alat)
               a(1) = (   6.579727   0.000000   0.000000 )
               a(2) = (  -0.000775   5.961596   0.000000 )
               a(3) = (   0.000000   0.000000  25.155947 )

     reciprocal axes: (cart. coord. in units 2 pi/alat)
               b(1) = (  0.151982  0.000020  0.000000 )
               b(2) = (  0.000000  0.167740  0.000000 )
               b(3) = (  0.000000  0.000000  0.039752 )

     PseudoPot. # 1 for Ti read from file:
     /storage/coda1/p-amedford6/0/shared/rich_project_chbe-medford/medford-share/data/pseudos_module/espresso/nninc/pbe/van/Ti.UPF
     MD5 check sum: 8e4df49b7f0d34bbd5052bf3f5ea0213
     Pseudo is Ultrasoft, Zval = 12.0
     Generated by new atomic code, or converted to UPF format
     Using radial grid of  851 points,  6 beta functions with:
                l(1) =   0
                l(2) =   0
                l(3) =   1
                l(4) =   1
                l(5) =   2
                l(6) =   2
     Q(r) pseudized with  8 coefficients,  rinner =    1.000   1.000   1.000
                                                       1.000   1.000

     PseudoPot. # 2 for O  read from file:
     /storage/coda1/p-amedford6/0/shared/rich_project_chbe-medford/medford-share/data/pseudos_module/espresso/nninc/pbe/van/O.UPF
     MD5 check sum: 78c19812648e8988a0fe644b0f25305e
     Pseudo is Ultrasoft, Zval =  6.0
     Generated by new atomic code, or converted to UPF format
     Using radial grid of  737 points,  4 beta functions with:
                l(1) =   0
                l(2) =   0
                l(3) =   1
                l(4) =   1
     Q(r) pseudized with  8 coefficients,  rinner =    0.800   0.800   0.800

     PseudoPot. # 3 for N  read from file:
     /storage/coda1/p-amedford6/0/shared/rich_project_chbe-medford/medford-share/data/pseudos_module/espresso/nninc/pbe/van/N.UPF
     MD5 check sum: 90d10febe142ad51ac9d5be1deb811c4
     Pseudo is Ultrasoft, Zval =  5.0
     Generated by new atomic code, or converted to UPF format
     Using radial grid of  729 points,  4 beta functions with:
                l(1) =   0
                l(2) =   0
                l(3) =   1
                l(4) =   1
     Q(r) pseudized with  8 coefficients,  rinner =    0.800   0.800   0.800

     PseudoPot. # 4 for C  read from file:
     /storage/coda1/p-amedford6/0/shared/rich_project_chbe-medford/medford-share/data/pseudos_module/espresso/nninc/pbe/van/C.UPF
     MD5 check sum: 1a69bf6b8db32088f5b2163dbdb77a27
     Pseudo is Ultrasoft, Zval =  4.0
     Generated by new atomic code, or converted to UPF format
     Using radial grid of  721 points,  4 beta functions with:
                l(1) =   0
                l(2) =   0
                l(3) =   1
                l(4) =   1
     Q(r) pseudized with  8 coefficients,  rinner =    0.800   0.800   0.800

     PseudoPot. # 5 for H  read from file:
     /storage/coda1/p-amedford6/0/shared/rich_project_chbe-medford/medford-share/data/pseudos_module/espresso/nninc/pbe/van/H.UPF
     MD5 check sum: b5ee9d7bfd3a09ee7748110bda690ff7
     Pseudo is Ultrasoft, Zval =  1.0
     Generated by new atomic code, or converted to UPF format
     Using radial grid of  615 points,  1 beta functions with:
                l(1) =   0
     Q(r) pseudized with  8 coefficients,  rinner =    0.800

     atomic species   valence    mass     pseudopotential
        Ti1           12.00    47.86700     Ti( 1.00)
        O1             6.00    15.99900     O ( 1.00)
        N1             5.00    14.00700     N ( 1.00)
        C1             4.00    12.01100     C ( 1.00)
        H1             1.00     1.00800     H ( 1.00)

     No symmetry found

   Cartesian axes

     site n.     atom                  positions (alat units)
         1           Ti1 tau(   1) = (   0.0004258   2.9801865   6.0000000  )
         2           Ti1 tau(   2) = (   3.2906075   1.4906267   6.0002472  )
         3           O1  tau(   3) = (   0.0006271   0.0005054   7.9858123  )
         4           O1  tau(   4) = (   3.2906025   0.0005020   7.3038282  )
         5           O1  tau(   5) = (   4.5942328   1.4918067   9.2879030  )
         6           O1  tau(   6) = (   1.9868534   1.4903216   9.2879459  )
         7           Ti1 tau(   7) = (   3.2907910   2.8959150   9.1758416  )
         8           Ti1 tau(   8) = (   0.0015273   1.4827037   9.2680791  )
         9           O1  tau(   9) = (   3.2768318   5.9518058  11.3501096  )
        10           O1  tau(  10) = (   0.0116148   5.9584955  10.6183126  )
        11           O1  tau(  11) = (   1.2820894   1.4890407  12.6429483  )
        12           O1  tau(  12) = (   5.2701592   1.4861355  12.6244956  )
        13           Ti1 tau(  13) = (   0.0263608   2.9732685  12.5725065  )
        14           Ti1 tau(  14) = (   3.3311081   1.4825583  12.4934812  )
        15           O1  tau(  15) = (   6.5448050   0.0382128  14.6485099  )
        16           O1  tau(  16) = (   3.2835306   5.9556129  13.9684075  )
        17           O1  tau(  17) = (   4.5065730   1.5084740  16.1486978  )
        18           O1  tau(  18) = (   2.0110176   1.4968469  16.1316129  )
        19           Ti1 tau(  19) = (   3.2365874   2.9692752  15.7101938  )
        20           Ti1 tau(  20) = (   6.5183500   1.5288441  15.9766389  )
        21           O1  tau(  21) = (   3.2904802   0.0005063   4.7018136  )
        22           O1  tau(  22) = (   6.5552815   5.8936090  17.2115513  )
        23           O1  tau(  23) = (   1.3043587   1.4918075   6.0039043  )
        24           O1  tau(  24) = (   5.2767064   1.4903225   6.0039473  )
        25           Ti1 tau(  25) = (   0.0000382   5.9609847   6.0000000  )
        26           Ti1 tau(  26) = (   3.2902200   4.4714249   6.0002472  )
        27           O1  tau(  27) = (   0.0002396   2.9813036   7.9858123  )
        28           O1  tau(  28) = (   3.2902150   2.9813002   7.3038282  )
        29           O1  tau(  29) = (   4.5938453   4.4726049   9.2879030  )
        30           O1  tau(  30) = (   1.9864658   4.4711199   9.2879459  )
        31           Ti1 tau(  31) = (   3.2891106   5.8743827   9.1763621  )
        32           Ti1 tau(  32) = (   0.0006254   4.4649316   9.2693709  )
        33           O1  tau(  33) = (   3.2825058   2.9767457  11.3441782  )
        34           O1  tau(  34) = (   0.0092240   2.9805883  10.6323155  )
        35           O1  tau(  35) = (   1.2778777   4.4660374  12.6604661  )
        36           O1  tau(  36) = (   5.2710664   4.4675109  12.6369154  )
        37           Ti1 tau(  37) = (   0.0243246   5.9574881  12.5203091  )
        38           Ti1 tau(  38) = (   3.3318591   4.4611298  12.5006215  )
        39           O1  tau(  39) = (   6.5359656   2.9584677  14.7835642  )
        40           O1  tau(  40) = (   3.2771955   2.9708399  13.9242642  )
        41           O1  tau(  41) = (   4.4981441   4.4410618  16.1740548  )
        42           O1  tau(  42) = (   2.0042129   4.4512231  16.1075086  )
        43           Ti1 tau(  43) = (   3.2538698   5.9555144  15.7617387  )
        44           Ti1 tau(  44) = (   6.5531130   4.6830099  15.9084494  )
        45           O1  tau(  45) = (   3.2900926   2.9813045   4.7018136  )
        46           O1  tau(  46) = (   1.3039711   4.4726057   6.0039043  )
        47           O1  tau(  47) = (   5.2763189   4.4711207   6.0039473  )
        48           N1  tau(  48) = (   5.6690603   3.2568973  18.6585782  )
        49           C1  tau(  49) = (   0.0091554   2.6844975  17.9068455  )
        50           H1  tau(  50) = (   0.8805123   2.3964943  18.5001670  )
        51           H1  tau(  51) = (   4.8619660   3.6873350  18.2178346  )
        52           H1  tau(  52) = (   5.8095507   3.4768026  19.6456901  )

     number of k points=    10  Fermi-Dirac smearing, width (Ry)=  0.0073
                       cart. coord. in units 2pi/alat
        k(    1) = (   0.0000000   0.0000000   0.0000000), wk =   0.1250000
        k(    2) = (   0.0000000   0.0419351   0.0000000), wk =   0.2500000
        k(    3) = (   0.0000000  -0.0838702   0.0000000), wk =   0.1250000
        k(    4) = (   0.0379955   0.0000049   0.0000000), wk =   0.2500000
        k(    5) = (   0.0379955   0.0419400   0.0000000), wk =   0.2500000
        k(    6) = (   0.0379955  -0.0838652   0.0000000), wk =   0.2500000
        k(    7) = (   0.0379955  -0.0419301   0.0000000), wk =   0.2500000
        k(    8) = (  -0.0759910  -0.0000099   0.0000000), wk =   0.1250000
        k(    9) = (  -0.0759910   0.0419252   0.0000000), wk =   0.2500000
        k(   10) = (  -0.0759910  -0.0838800   0.0000000), wk =   0.1250000

     Initial potential from superposition of free atoms

     starting charge  373.99917, renormalised to  390.00000

     negative rho (up, down):  1.780E-02 0.000E+00

     %%%%%%%%%%%%%%%%%%%%%%%%%%%%%%%%%%%%%%%%%%%%%%%%%%%%%%%%%%%%%%%%%%%%%%%%
     %                                                                      %
     % You are using vdW-DF, which was implemented by the Thonhauser group. %
     % Please cite the following two papers that made this development      %
     % possible and the two reviews that describe the various versions:     %
     %                                                                      %
     %   T. Thonhauser et al., PRL 115, 136402 (2015).                      %
     %   T. Thonhauser et al., PRB 76, 125112 (2007).                       %
     %   K. Berland et al., Rep. Prog. Phys. 78, 066501 (2015).             %
     %   D.C. Langreth et al., J. Phys.: Condens. Matter 21, 084203 (2009). %
     %                                                                      %
     %                                                                      %
     % If you are calculating the stress with vdW-DF, please also cite:     %
     %                                                                      %
     %   R. Sabatini et al., J. Phys.: Condens. Matter 24, 424209 (2012).   %
     %                                                                      %
     %%%%%%%%%%%%%%%%%%%%%%%%%%%%%%%%%%%%%%%%%%%%%%%%%%%%%%%%%%%%%%%%%%%%%%%%

     Adding external electric field

     Computed dipole along edir(3) :
        Dipole               -5.8563 Ry au,        -14.8852 Debye
        Dipole field         -0.0111 Ry au,

        Potential amp.        1.0245 Ry
        Total length         46.3494 bohr

     Starting wfcs are  295 atomic wfcs
  @ DRIVER MODE: Message from server: STATUS
  @ DRIVER MODE: Message from server: POSDATA
  @ DRIVER MODE: Reading and sharing cell
  @ DRIVER MODE: Reading and sharing positions
  @ DRIVER MODE: Received positions

     Self-consistent Calculation

     iteration #  1     ecut=    29.40 Ry     beta= 0.05
     Davidson diagonalization with overlap
     c_bands:  4 eigenvalues not converged
     c_bands:  1 eigenvalues not converged
     c_bands:  2 eigenvalues not converged
     c_bands:  2 eigenvalues not converged
     c_bands:  3 eigenvalues not converged
     c_bands:  3 eigenvalues not converged
     c_bands:  3 eigenvalues not converged
     c_bands:  3 eigenvalues not converged
     c_bands:  3 eigenvalues not converged
     c_bands:  5 eigenvalues not converged
     ethr =  1.00E-05,  avg # of iterations = 20.0

[...]

     total energy              =   -2777.05074200 Ry
     estimated scf accuracy    <    1563.61091047 Ry

     iteration #  2     ecut=    29.40 Ry     beta= 0.05
     Davidson diagonalization with overlap
     ethr =  1.00E-02,  avg # of iterations = 18.5

[...]

     iteration # 64     ecut=    29.40 Ry     beta= 0.05
     Davidson diagonalization with overlap
     c_bands:  1 eigenvalues not converged
     ethr =  3.10E-11,  avg # of iterations = 12.5

[...]

     total energy              =   -2919.04274903 Ry
     estimated scf accuracy    <       0.00000062 Ry

     iteration # 65     ecut=    29.40 Ry     beta= 0.05
     Davidson diagonalization with overlap
     ethr =  3.10E-11,  avg # of iterations =  8.3

     negative rho (up, down):  1.800E-02 0.000E+00

     Adding external electric field

     Computed dipole along edir(3) :
        Dipole                1.3830 Ry au,          3.5153 Debye
        Dipole field          0.0026 Ry au,

        Potential amp.       -0.2419 Ry
        Total length         46.3494 bohr

     End of self-consistent calculation

          k = 0.0000 0.0000 0.0000 ( 18029 PWs)   bands (ev):

   -55.5072 -55.4821 -55.4709 -55.4480 -55.4213 -55.3764 -55.3345 -55.3260
   -55.3071 -55.3001 -55.2707 -55.2687 -55.0521 -54.9441 -54.4853 -54.4512
   -32.0742 -31.9696 -31.8679 -31.8458 -31.8355 -31.8025 -31.7949 -31.7726
   -31.7623 -31.7259 -31.7218 -31.7170 -31.6837 -31.6586 -31.6488 -31.6465
   -31.6350 -31.6102 -31.5999 -31.5913 -31.5784 -31.5651 -31.5395 -31.5354
   -31.5345 -31.5146 -31.5119 -31.5072 -31.5060 -31.4969 -31.4829 -31.4674
   -31.4563 -31.4561 -31.4329 -31.4219 -31.4063 -31.3551 -31.2880 -31.1896
   -31.1787 -31.0905 -30.8936 -30.8024 -30.7802 -30.7102 -30.6236 -30.5125
   -16.9992 -16.3066 -16.0225 -15.8581 -15.7153 -15.6843 -15.5739 -15.3987
   -15.3205 -15.2457 -15.2265 -15.1467 -15.1303 -15.1153 -15.0955 -15.0366
   -15.0288 -14.9837 -14.9788 -14.9435 -14.9246 -14.8929 -14.8754 -14.8679
   -14.8128 -14.7732 -14.7098 -14.6434 -14.5883 -14.1167 -12.9882 -12.8712
    -9.4341  -7.1813  -4.6081  -3.6640  -3.4944  -3.4136  -3.4042  -3.3830
    -3.1941  -3.1176  -2.8419  -2.7485  -2.7135  -2.7074  -2.6807  -2.6203
    -2.5476  -2.4491  -2.3775  -2.3483  -2.3282  -2.3208  -2.3092  -2.2942
    -2.2845  -2.2534  -2.1798  -2.1224  -2.0496  -1.9682  -1.8932  -1.8775
    -1.8170  -1.7891  -1.7741  -1.7678  -1.7607  -1.7355  -1.7301  -1.6389
    -1.5486  -1.5098  -1.4098  -1.3873  -1.2915  -1.1575  -1.1291  -1.0251
    -1.0181  -0.9622  -0.9372  -0.8937  -0.8446  -0.8358  -0.8178  -0.6747
    -0.6076  -0.5466  -0.4880  -0.4613  -0.4428  -0.3563  -0.2891  -0.2820
    -0.2645  -0.2426  -0.0679  -0.0364  -0.0162   0.0067   0.0213   0.1107
     0.1425   0.2175   0.2973   0.3119   0.3168   0.3945   0.4177   0.4609
     0.4633   0.4905   0.4959   0.6670   0.6776   0.7039   0.7349   0.8150
     0.8989   1.1039   1.1266   1.1685   1.4523   1.5189   1.5369   1.7246
     2.1103   2.1573   3.5831   3.6879   3.7203   3.7360   3.7640   3.8340
     3.9000   4.0788   4.0859   4.1168   4.1223

[...]

          k = 0.0380-0.0419 0.0000 ( 17876 PWs)   bands (ev):

[...]

          k =-0.0760-0.0000 0.0000 ( 17886 PWs)   bands (ev):

[...]

          k =-0.0760-0.0839 0.0000 ( 17948 PWs)   bands (ev):

   -55.4914 -55.4864 -55.4653 -55.4647 -55.4181 -55.3675 -55.3433 -55.3291
   -55.2884 -55.2867 -55.2864 -55.2847 -55.0492 -54.9469 -54.4682 -54.4681
   -31.8796 -31.8756 -31.8104 -31.7851 -31.7845 -31.7732 -31.7582 -31.7576
   -31.7179 -31.7126 -31.7108 -31.7037 -31.6744 -31.6375 -31.6286 -31.6245
   -31.6240 -31.6214 -31.6173 -31.6158 -31.6057 -31.5851 -31.5845 -31.5717
   -31.5684 -31.5577 -31.5454 -31.5291 -31.5216 -31.5191 -31.5031 -31.5022
   -31.5018 -31.5006 -31.4759 -31.4650 -31.4615 -31.3596 -31.2835 -31.2081
   -31.1817 -31.1745 -30.7929 -30.7928 -30.7063 -30.7061 -30.6669 -30.6669
   -16.9939 -15.7643 -15.7027 -15.5668 -15.4858 -15.4638 -15.4520 -15.4281
   -15.2896 -15.2740 -15.2556 -15.2059 -15.2022 -15.1996 -15.1599 -15.1038
   -15.0704 -15.0678 -15.0592 -15.0330 -14.9981 -14.9929 -14.9586 -14.9500
   -14.9366 -14.8470 -14.8417 -14.8393 -14.6671 -14.3408 -12.9729 -12.9728
    -9.4389  -7.1826  -4.5897  -3.0472  -2.9738  -2.8133  -2.7111  -2.6812
    -2.6493  -2.5057  -2.4708  -2.4607  -2.4473  -2.4101  -2.3951  -2.3811
    -2.3516  -2.3376  -2.3331  -2.3146  -2.3040  -2.2918  -2.2478  -2.2061
    -2.2019  -2.1944  -2.1637  -2.1438  -2.1314  -2.1026  -2.0832  -2.0675
    -2.0534  -2.0057  -1.8315  -1.8004  -1.7004  -1.6796  -1.6705  -1.6491
    -1.5823  -1.5551  -1.5230  -1.4838  -1.4321  -1.3095  -1.2432  -1.2220
    -1.1925  -1.1829  -1.1306  -1.0089  -0.9731  -0.9503  -0.9039  -0.8672
    -0.8231  -0.8125  -0.6927  -0.6873  -0.6418  -0.5992  -0.4858  -0.4687
    -0.4594  -0.4472  -0.4329  -0.3037  -0.2941  -0.2875  -0.2700  -0.2261
    -0.2090  -0.1035  -0.0040   0.0108   0.1130   0.1653   0.2904   0.3540
     0.4497   0.4958   0.5199   0.6100   0.6460   0.7279   0.7503   0.8046
     0.8162   0.9118   0.9666   0.9850   0.9930   1.0607   1.8969   1.8977
     1.9772   1.9774   3.7434   3.8391   3.8775   3.8996   3.9454   4.1038
     4.1198   4.1673   4.1701   4.1854   4.2673

     the Fermi energy is     3.6408 ev

!    total energy              =   -2919.04277533 Ry
     estimated scf accuracy    <       0.00000007 Ry
     smearing contrib. (-TS)   =      -0.03611604 Ry
     internal energy E=F+TS    =   -2919.00665928 Ry

     The total energy is F=E-TS. E is the sum of the following terms:
     one-electron contribution =  -24478.78295890 Ry
     hartree contribution      =   12327.57138653 Ry
     xc contribution           =    -479.99102274 Ry
     ewald contribution        =    9712.19232615 Ry
     electric field correction =       0.00360968 Ry

     convergence has been achieved in  65 iterations

     Forces acting on atoms (cartesian axes, Ry/au):

     atom    1 type  1   force =     0.00009151   -0.00020569    0.09493739
     atom    2 type  1   force =    -0.00022922   -0.00036118   -0.17674481
     atom    3 type  2   force =    -0.00004688   -0.00006711   -0.02290723
     atom    4 type  2   force =    -0.00004312   -0.00167834    0.05579003
     atom    5 type  2   force =    -0.01135759   -0.00122810    0.00625315
     atom    6 type  2   force =     0.01253597   -0.00034677    0.00441659
     atom    7 type  1   force =    -0.00113691    0.00152346   -0.01377635
     atom    8 type  1   force =     0.00062691    0.00694799    0.01263845
     atom    9 type  2   force =     0.00020371   -0.00005230    0.00013307
     atom   10 type  2   force =    -0.00164047    0.00010101   -0.00996013
     atom   11 type  2   force =    -0.00020528    0.00002739    0.00014697
     atom   12 type  2   force =     0.00023646    0.00011278   -0.00007720
     atom   13 type  1   force =     0.00006429   -0.00000938    0.00031452
     atom   14 type  1   force =     0.00001399   -0.00014965    0.00021466
     atom   15 type  2   force =     0.00002707    0.00002254    0.00000865
     atom   16 type  2   force =     0.00025738    0.00028301   -0.00001337
     atom   17 type  2   force =    -0.00006848   -0.00020757    0.00022682
     atom   18 type  2   force =     0.00032333    0.00010739    0.00016220
     atom   19 type  1   force =     0.00038562   -0.00000591   -0.00019564
     atom   20 type  1   force =     0.00016046   -0.00012073    0.00005194
     atom   21 type  2   force =     0.00004601   -0.00004238    0.10361408
     atom   22 type  2   force =     0.00004378    0.00010813    0.00015849
     atom   23 type  2   force =    -0.07097940   -0.00016550   -0.02732076
     atom   24 type  2   force =     0.07083505    0.00031534   -0.02733603
     atom   25 type  1   force =    -0.00013058   -0.00020527    0.09463704
     atom   26 type  1   force =    -0.00019447   -0.00046874   -0.17689555
     atom   27 type  2   force =     0.00006855   -0.00035366   -0.02193156
     atom   28 type  2   force =     0.00003813   -0.00139170    0.05534322
     atom   29 type  2   force =    -0.01158065   -0.00008963    0.00586235
     atom   30 type  2   force =     0.01265140    0.00013070    0.00407888
     atom   31 type  1   force =    -0.00125136    0.00417323   -0.01464764
     atom   32 type  1   force =     0.00055456   -0.00777480    0.01249715
     atom   33 type  2   force =    -0.00001208    0.00009404    0.00004757
     atom   34 type  2   force =    -0.00127362    0.00083214   -0.00836391
     atom   35 type  2   force =     0.00012096    0.00020172   -0.00001675
     atom   36 type  2   force =     0.00011577    0.00004221    0.00017709
     atom   37 type  1   force =     0.00002643    0.00000271   -0.00000152
     atom   38 type  1   force =    -0.00003697   -0.00016365   -0.00015504
     atom   39 type  2   force =    -0.00017303   -0.00017846   -0.00006368
     atom   40 type  2   force =     0.00023351   -0.00002318   -0.00016211
     atom   41 type  2   force =     0.00028532   -0.00009827    0.00017055
     atom   42 type  2   force =    -0.00012305    0.00011015   -0.00037773
     atom   43 type  1   force =    -0.00023277    0.00001366    0.00016318
     atom   44 type  1   force =     0.00044901   -0.00007065    0.00012880
     atom   45 type  2   force =     0.00003468   -0.00005022    0.10358530
     atom   46 type  2   force =    -0.07098264   -0.00007008   -0.02731156
     atom   47 type  2   force =     0.07084497    0.00032651   -0.02734376
     atom   48 type  3   force =     0.00217741    0.00353132    0.01295690
     atom   49 type  4   force =    -0.00034865    0.00020222    0.00104968
     atom   50 type  5   force =     0.00031815   -0.00021138   -0.00051215
     atom   51 type  5   force =     0.00058719   -0.00016280    0.00021834
     atom   52 type  5   force =    -0.00231036   -0.00325655   -0.01386857

     Total force =     0.366563     Total SCF correction =     0.000668
  @ DRIVER MODE: Message from server: STATUS
  @ DRIVER MODE: Message from server: GETFORCE
  @ DRIVER MODE: Returning v,forces,stress,ensemble

     Writing output data file ./calc.save/
  @ DRIVER MODE: Message from server: EXIT
  @ DRIVE MODE: Exiting

     General routines

     Parallel routines

   This run was terminated on:   7: 8:25   9Sep2021

   JOB DONE.