     Program PWSCF v.6.7GPU starts on 18Oct2021 at 13:44: 4

     R & G space division:  proc/nbgrp/npool/nimage =       8
     Reading input from /storage/home/hcoda1/3/ntian30/research/carbon/CxH_vib/Thiel_calc/ads_slab/NH2NH2HH_perslab/out_0005/pw.inp
Warning: card &CELL ignored
Warning: card   CELL_DYNAMICS='IPI', ignored
Warning: card / ignored

     Current dimensions of program PWSCF are:
     Max number of different atomic species (ntypx) = 10
     Max number of k-points (npk) =  40000
     Max angular momentum in pseudopotentials (lmaxx) =  3
     Presently no symmetry can be used with electric field

     Message from routine cell_base_init:
     DEPRECATED: use true lattice parameter, not A to a.u. conversion factor

     IMPORTANT: XC functional enforced from input :
     Exchange-correlation= BEEF-VDW
                           (   1   4  43  14   2   0   0)
     Any further DFT definition will be discarded
     Please, verify this is what you really want

  @ DRIVER MODE: Connecting to
 qe_1139763_3255137.sched-torque.pace.gatech.eduufkiglao_scratch
  using UNIX socket
  @ DRIVER MODE: Message from server: STATUS
  @ DRIVER MODE: Message from server: INIT
  @ DRIVER MODE: Receiving replica           0          -1
  @ DRIVER MODE: Receiving encoded integer          25
  @ DRIVER MODE:  SCF:  T  FORCE:  T  STRESS:  F  VC:  F  ENSEMBLE:  F
  @ DRIVER MODE:  SCF:  T  FORCE:  T  STRESS:  F  VC:  F  ENSEMBLE:  F

     Using Slab Decomposition

     bravais-lattice index     =            0
     lattice parameter (alat)  =       1.8897  a.u.
     unit-cell volume          =    9988.4706 (a.u.)^3
     number of atoms/cell      =           61
     number of atomic types    =            4
     number of electrons       =       442.00
     number of Kohn-Sham states=          231
     kinetic-energy cutoff     =      29.3995  Ry
     charge density cutoff     =     293.9946  Ry
     scf convergence threshold =      7.3E-08
     mixing beta               =       0.0500
     number of iterations used =            8  plain     mixing
     Exchange-correlation= BEEF-VDW
                           (   1   4  43  14   2   0   0)

     celldm(1)=   1.889726  celldm(2)=   0.000000  celldm(3)=   0.000000
     celldm(4)=   0.000000  celldm(5)=   0.000000  celldm(6)=   0.000000

     crystal axes: (cart. coord. in units of alat)
               a(1) = (   6.579727   0.000000   0.000000 )
               a(2) = (  -0.001163   8.942395   0.000000 )
               a(3) = (   0.000000   0.000000  25.155947 )

     reciprocal axes: (cart. coord. in units 2 pi/alat)
               b(1) = (  0.151982  0.000020  0.000000 )
               b(2) = (  0.000000  0.111827  0.000000 )
               b(3) = (  0.000000  0.000000  0.039752 )

     PseudoPot. # 1 for O  read from file:
     /storage/coda1/p-amedford6/0/shared/rich_project_chbe-medford/medford-share/data/pseudos_module/espresso/nninc/pbe/van/O.UPF
     MD5 check sum: 78c19812648e8988a0fe644b0f25305e
     Pseudo is Ultrasoft, Zval =  6.0
     Generated by new atomic code, or converted to UPF format
     Using radial grid of  737 points,  4 beta functions with:
                l(1) =   0
                l(2) =   0
                l(3) =   1
                l(4) =   1
     Q(r) pseudized with  8 coefficients,  rinner =    0.800   0.800   0.800

     PseudoPot. # 2 for Ti read from file:
     /storage/coda1/p-amedford6/0/shared/rich_project_chbe-medford/medford-share/data/pseudos_module/espresso/nninc/pbe/van/Ti.UPF
     MD5 check sum: 8e4df49b7f0d34bbd5052bf3f5ea0213
     Pseudo is Ultrasoft, Zval = 12.0
     Generated by new atomic code, or converted to UPF format
     Using radial grid of  851 points,  6 beta functions with:
                l(1) =   0
                l(2) =   0
                l(3) =   1
                l(4) =   1
                l(5) =   2
                l(6) =   2
     Q(r) pseudized with  8 coefficients,  rinner =    1.000   1.000   1.000
                                                       1.000   1.000

     PseudoPot. # 3 for N  read from file:
     /storage/coda1/p-amedford6/0/shared/rich_project_chbe-medford/medford-share/data/pseudos_module/espresso/nninc/pbe/van/N.UPF
     MD5 check sum: 90d10febe142ad51ac9d5be1deb811c4
     Pseudo is Ultrasoft, Zval =  5.0
     Generated by new atomic code, or converted to UPF format
     Using radial grid of  729 points,  4 beta functions with:
                l(1) =   0
                l(2) =   0
                l(3) =   1
                l(4) =   1
     Q(r) pseudized with  8 coefficients,  rinner =    0.800   0.800   0.800

     PseudoPot. # 4 for H  read from file:
     /storage/coda1/p-amedford6/0/shared/rich_project_chbe-medford/medford-share/data/pseudos_module/espresso/nninc/pbe/van/H.UPF
     MD5 check sum: b5ee9d7bfd3a09ee7748110bda690ff7
     Pseudo is Ultrasoft, Zval =  1.0
     Generated by new atomic code, or converted to UPF format
     Using radial grid of  615 points,  1 beta functions with:
                l(1) =   0
     Q(r) pseudized with  8 coefficients,  rinner =    0.800

     atomic species   valence    mass     pseudopotential
        O1             6.00    15.99900     O ( 1.00)
        Ti1           12.00    47.86700     Ti( 1.00)
        N1             5.00    14.00700     N ( 1.00)
        H1             1.00     1.00800     H ( 1.00)

     No symmetry found

   Cartesian axes

     site n.     atom                  positions (alat units)
         1           O1  tau(   1) = (   0.0007354   0.0005023  10.5931620  )
         2           O1  tau(   2) = (   3.2456387   0.0208629  13.8623892  )
         3           O1  tau(   3) = (   6.5569189   0.0555649  17.3369326  )
         4           O1  tau(   4) = (   0.0006271   0.0005054   7.9858123  )
         5           O1  tau(   5) = (   3.2933513   8.9300833  11.1812556  )
         6           O1  tau(   6) = (   0.0337597   0.0712708  14.6279364  )
         7           O1  tau(   7) = (   1.9868534   1.4903216   9.2879459  )
         8           O1  tau(   8) = (   5.2215124   1.6184176  12.5791628  )
         9           O1  tau(   9) = (   1.9922958   1.5902288  16.0980526  )
        10           Ti1 tau(  10) = (   0.0007404   1.4906270   9.2895810  )
        11           Ti1 tau(  11) = (   3.2860490   1.3455809  12.4359399  )
        12           Ti1 tau(  12) = (   6.5618936   1.3602716  15.8812525  )
        13           O1  tau(  13) = (   4.5942328   1.4918067   9.2879030  )
        14           O1  tau(  14) = (   1.3307156   1.5887400  12.5381291  )
        15           O1  tau(  15) = (   4.5725103   1.6118788  16.0006659  )
        16           Ti1 tau(  16) = (   3.2902859   2.9801868   9.2893338  )
        17           Ti1 tau(  17) = (   0.0046584   2.8227806  12.4510757  )
        18           Ti1 tau(  18) = (   3.2555632   2.8898243  15.6661830  )
        19           O1  tau(  19) = (   0.0003479   2.9813005  10.5931620  )
        20           O1  tau(  20) = (   3.2279248   2.9553539  13.8813459  )
        21           O1  tau(  21) = (   0.0002396   2.9813036   7.9858123  )
        22           O1  tau(  22) = (   3.2889556   2.9859946  11.1941525  )
        23           O1  tau(  23) = (   0.0559812   2.9852445  14.6488683  )
        24           O1  tau(  24) = (   1.9864658   4.4711199   9.2879459  )
        25           O1  tau(  25) = (   5.2314886   4.5920767  12.6107679  )
        26           O1  tau(  26) = (   1.9969377   4.5324570  16.1535429  )
        27           Ti1 tau(  27) = (   0.0003529   4.4714252   9.2895810  )
        28           Ti1 tau(  28) = (   3.2845268   4.3564118  12.5295435  )
        29           Ti1 tau(  29) = (   6.5676402   4.3565080  15.8255799  )
        30           O1  tau(  30) = (   4.5938453   4.4726049   9.2879030  )
        31           O1  tau(  31) = (   1.3315080   4.5776727  12.5731030  )
        32           O1  tau(  32) = (   4.5871741   4.4544688  15.9274438  )
        33           Ti1 tau(  33) = (   3.2898983   5.9609850   9.2893338  )
        34           Ti1 tau(  34) = (   6.5783773   5.8108302  12.4536689  )
        35           Ti1 tau(  35) = (   3.3162440   5.8110762  16.0333210  )
        36           O1  tau(  36) = (  -0.0000397   5.9620987  10.5931620  )
        37           O1  tau(  37) = (   3.2636778   5.9869953  13.9790019  )
        38           O1  tau(  38) = (   6.4104969   6.0475349  17.2872242  )
        39           O1  tau(  39) = (  -0.0001480   5.9621018   7.9858123  )
        40           O1  tau(  40) = (   3.2905218   5.9516507  11.2202175  )
        41           O1  tau(  41) = (   0.0617018   5.9803669  14.6637187  )
        42           O1  tau(  42) = (   1.9860782   7.4519181   9.2879459  )
        43           O1  tau(  43) = (   5.2407037   7.5572870  12.6049163  )
        44           O1  tau(  44) = (   1.9881273   7.5959696  16.0809372  )
        45           Ti1 tau(  45) = (  -0.0000347   7.4522234   9.2895810  )
        46           Ti1 tau(  46) = (   3.2912638   7.2305267  12.6172466  )
        47           Ti1 tau(  47) = (   0.0232661   7.3094817  15.9177444  )
        48           O1  tau(  48) = (   4.5934577   7.4534031   9.2879030  )
        49           O1  tau(  49) = (   1.3287160   7.5404973  12.5734398  )
        50           O1  tau(  50) = (   4.6507959   7.6754627  15.9163669  )
        51           Ti1 tau(  51) = (   3.2895107   8.9417832   9.2893338  )
        52           Ti1 tau(  52) = (   0.0077981   8.7799231  12.4640552  )
        53           Ti1 tau(  53) = (   3.2910717   8.8534038  15.6608489  )
        54           N1  tau(  54) = (   3.7626148   6.0985185  17.9919073  )
        55           H1  tau(  55) = (   3.4663780   5.3841571  18.6619304  )
        56           H1  tau(  56) = (   3.5565419   6.9988739  18.4208443  )
        57           N1  tau(  57) = (   6.5319303   3.0529623  17.4095181  )
        58           H1  tau(  58) = (   5.7013393   3.0140474  17.9904383  )
        59           H1  tau(  59) = (   0.7603229   3.1006543  18.0203722  )
        60           H1  tau(  60) = (   5.4974376   6.0468821  17.7423635  )
        61           H1  tau(  61) = (   0.7324116   0.0679216  17.9402240  )

     number of k points=    10  Fermi-Dirac smearing, width (Ry)=  0.0073
                       cart. coord. in units 2pi/alat
        k(    1) = (   0.0000000   0.0000000   0.0000000), wk =   0.1250000
        k(    2) = (   0.0000000   0.0279567   0.0000000), wk =   0.2500000
        k(    3) = (   0.0000000  -0.0559134   0.0000000), wk =   0.1250000
        k(    4) = (   0.0379955   0.0000049   0.0000000), wk =   0.2500000
        k(    5) = (   0.0379955   0.0279617   0.0000000), wk =   0.2500000
        k(    6) = (   0.0379955  -0.0559085   0.0000000), wk =   0.2500000
        k(    7) = (   0.0379955  -0.0279518   0.0000000), wk =   0.2500000
        k(    8) = (  -0.0759910  -0.0000099   0.0000000), wk =   0.1250000
        k(    9) = (  -0.0759910   0.0279468   0.0000000), wk =   0.2500000
        k(   10) = (  -0.0759910  -0.0559233   0.0000000), wk =   0.1250000

     Initial potential from superposition of free atoms

     starting charge  423.99908, renormalised to  442.00000

     negative rho (up, down):  3.745E-02 0.000E+00

     %%%%%%%%%%%%%%%%%%%%%%%%%%%%%%%%%%%%%%%%%%%%%%%%%%%%%%%%%%%%%%%%%%%%%%%%
     %                                                                      %
     % You are using vdW-DF, which was implemented by the Thonhauser group. %
     % Please cite the following two papers that made this development      %
     % possible and the two reviews that describe the various versions:     %
     %                                                                      %
     %   T. Thonhauser et al., PRL 115, 136402 (2015).                      %
     %   T. Thonhauser et al., PRB 76, 125112 (2007).                       %
     %   K. Berland et al., Rep. Prog. Phys. 78, 066501 (2015).             %
     %   D.C. Langreth et al., J. Phys.: Condens. Matter 21, 084203 (2009). %
     %                                                                      %
     %                                                                      %
     % If you are calculating the stress with vdW-DF, please also cite:     %
     %                                                                      %
     %   R. Sabatini et al., J. Phys.: Condens. Matter 24, 424209 (2012).   %
     %                                                                      %
     %%%%%%%%%%%%%%%%%%%%%%%%%%%%%%%%%%%%%%%%%%%%%%%%%%%%%%%%%%%%%%%%%%%%%%%%

     Adding external electric field

     Computed dipole along edir(3) :
        Dipole               -5.9647 Ry au,        -15.1606 Debye
        Dipole field         -0.0075 Ry au,

        Potential amp.        0.6956 Ry
        Total length         46.3494 bohr

     Starting wfcs are  334 atomic wfcs
  @ DRIVER MODE: Message from server: STATUS
  @ DRIVER MODE: Message from server: POSDATA
  @ DRIVER MODE: Reading and sharing cell
  @ DRIVER MODE: Reading and sharing positions
  @ DRIVER MODE: Received positions

     Self-consistent Calculation

     iteration #  1     ecut=    29.40 Ry     beta= 0.05
     Davidson diagonalization with overlap
     c_bands:  1 eigenvalues not converged
     c_bands:  3 eigenvalues not converged
     c_bands:  5 eigenvalues not converged
     c_bands:  2 eigenvalues not converged
     c_bands:  4 eigenvalues not converged
     c_bands:  5 eigenvalues not converged
     c_bands:  5 eigenvalues not converged
     c_bands:  3 eigenvalues not converged
     c_bands:  2 eigenvalues not converged
     c_bands:  2 eigenvalues not converged
     ethr =  1.00E-05,  avg # of iterations = 20.0

[...]

     total energy              =   -3277.96911624 Ry
     estimated scf accuracy    <     239.16313870 Ry

     iteration #  2     ecut=    29.40 Ry     beta= 0.05
     Davidson diagonalization with overlap
     ethr =  1.00E-02,  avg # of iterations = 15.8

[...]

     iteration # 53     ecut=    29.40 Ry     beta= 0.05
     Davidson diagonalization with overlap
     ethr =  3.56E-11,  avg # of iterations = 10.9

[...]

     total energy              =   -3295.80739860 Ry
     estimated scf accuracy    <       0.00000010 Ry

     iteration # 54     ecut=    29.40 Ry     beta= 0.05
     Davidson diagonalization with overlap
     c_bands:  1 eigenvalues not converged
     ethr =  2.34E-11,  avg # of iterations = 11.1

     negative rho (up, down):  3.607E-02 0.000E+00

     Adding external electric field

     Computed dipole along edir(3) :
        Dipole                1.5224 Ry au,          3.8695 Debye
        Dipole field          0.0019 Ry au,

        Potential amp.       -0.1775 Ry
        Total length         46.3494 bohr

     End of self-consistent calculation

          k = 0.0000 0.0000 0.0000 ( 26871 PWs)   bands (ev):

   -57.7187 -57.6931 -57.6827 -57.6572 -57.6476 -57.6153 -57.5970 -57.5923
   -57.5647 -57.5527 -57.5023 -57.4716 -57.4553 -57.4489 -57.4410 -56.7406
   -56.7165 -56.7120 -34.1002 -34.0961 -34.0885 -34.0798 -34.0684 -34.0515
   -34.0506 -34.0359 -34.0227 -34.0110 -33.9812 -33.9624 -33.9438 -33.9377
   -33.9299 -33.9116 -33.9073 -33.9041 -33.8864 -33.8812 -33.8600 -33.8583
   -33.8366 -33.8269 -33.8229 -33.8169 -33.8061 -33.8040 -33.7989 -33.7899
   -33.7775 -33.7757 -33.7617 -33.7259 -33.7172 -33.7125 -33.6984 -33.6970
   -33.6895 -33.6885 -33.6772 -33.6687 -33.6620 -33.6560 -33.6336 -33.0559
   -33.0548 -33.0503 -33.0387 -33.0345 -32.9667 -32.9046 -32.8993 -32.7665
   -19.2996 -18.7601 -18.5200 -18.2213 -18.0101 -17.9679 -17.9349 -17.8135
   -17.7779 -17.7539 -17.6561 -17.6448 -17.5818 -17.5282 -17.5000 -17.4515
   -17.4335 -17.3727 -17.3585 -17.3502 -17.3449 -17.3349 -17.3244 -17.2593
   -17.2323 -17.2030 -17.1646 -17.1490 -17.1424 -17.1350 -17.1126 -16.8398
   -15.4994 -15.2071 -15.1491 -15.1478 -15.0716  -6.9831  -6.8110  -6.6490
    -6.2996  -5.8543  -5.7806  -5.6312  -5.5075  -5.2154  -5.1884  -5.1363
    -5.1106  -5.0811  -5.0160  -4.9958  -4.9828  -4.9279  -4.9103  -4.8376
    -4.8147  -4.7731  -4.7497  -4.7249  -4.6792  -4.6389  -4.6115  -4.5994
    -4.5695  -4.5618  -4.5048  -4.4814  -4.4519  -4.4469  -4.4309  -4.3210
    -4.2901  -4.2351  -4.1654  -4.0875  -4.0331  -4.0254  -3.9694  -3.9524
    -3.8975  -3.8574  -3.8216  -3.8132  -3.7750  -3.7373  -3.6388  -3.6176
    -3.5821  -3.5163  -3.4952  -3.4260  -3.4082  -3.3757  -3.3335  -3.3296
    -3.2902  -3.1925  -3.1589  -3.0797  -3.0238  -2.9699  -2.9307  -2.8841
    -2.8376  -2.8048  -2.7800  -2.6987  -2.6260  -2.5395  -2.4872  -2.4745
    -2.4629  -2.4128  -2.4068  -2.4024  -2.3476  -2.3205  -2.3099  -2.2732
    -2.2211  -2.1971  -2.1348  -2.0911  -2.0548  -1.9876  -1.9718  -1.8908
    -1.8830  -1.8216  -1.7781  -1.7380  -1.6265  -1.5931  -1.5593  -1.5567
    -1.4378  -1.4017  -1.1413  -0.9997  -0.7969  -0.7532  -0.4941  -0.4454
    -0.4425  -0.1796  -0.1762  -0.0479   1.3284   1.5170   1.6505   1.7063
     1.7112   1.7444   1.8102   1.8970   1.9217   1.9695   2.0011

[...]

          k = 0.0380-0.0280 0.0000 ( 26873 PWs)   bands (ev):

[...]

          k =-0.0760-0.0000 0.0000 ( 26902 PWs)   bands (ev):

[...]

          k =-0.0760-0.0559 0.0000 ( 26868 PWs)   bands (ev):

   -57.7151 -57.7008 -57.6785 -57.6561 -57.6475 -57.6160 -57.5983 -57.5920
   -57.5640 -57.5524 -57.5026 -57.4665 -57.4591 -57.4548 -57.4362 -56.7344
   -56.7290 -56.7056 -34.1877 -34.1497 -34.1491 -34.0885 -34.0543 -34.0466
   -34.0356 -34.0331 -33.9957 -33.9619 -33.9266 -33.9142 -33.9084 -33.9068
   -33.8963 -33.8950 -33.8747 -33.8671 -33.8633 -33.8623 -33.8585 -33.8529
   -33.8477 -33.8405 -33.8253 -33.8204 -33.8178 -33.8130 -33.8090 -33.7876
   -33.7867 -33.7644 -33.7576 -33.7501 -33.7444 -33.7259 -33.7206 -33.7144
   -33.6949 -33.6945 -33.6925 -33.6891 -33.6800 -33.6618 -33.6449 -33.1447
   -33.0556 -33.0504 -33.0280 -32.9482 -32.9423 -32.8805 -32.8660 -32.8607
   -19.2862 -18.7351 -18.2658 -18.1289 -17.9571 -17.9157 -17.8418 -17.8287
   -17.8169 -17.7876 -17.6955 -17.6725 -17.6463 -17.5627 -17.5444 -17.4941
   -17.4502 -17.4371 -17.4195 -17.4079 -17.3997 -17.3835 -17.3491 -17.3170
   -17.2846 -17.2328 -17.1697 -17.1520 -17.1032 -17.0884 -17.0578 -16.8736
   -15.4940 -15.2051 -15.2030 -15.0863 -15.0729  -6.9878  -6.8418  -6.6407
    -6.2814  -5.5109  -5.4479  -5.3642  -5.3509  -5.2328  -5.2008  -5.0086
    -4.9981  -4.9835  -4.9513  -4.9193  -4.8835  -4.8570  -4.8325  -4.8188
    -4.8056  -4.7838  -4.7579  -4.7462  -4.7295  -4.6857  -4.6386  -4.6324
    -4.6213  -4.5987  -4.5464  -4.4990  -4.4726  -4.4198  -4.4164  -4.3362
    -4.3120  -4.2940  -4.2198  -4.2118  -4.1047  -3.9426  -3.8815  -3.8614
    -3.8395  -3.7906  -3.7800  -3.7266  -3.7081  -3.6893  -3.5524  -3.4690
    -3.4486  -3.4113  -3.3799  -3.3558  -3.3213  -3.2946  -3.2710  -3.2452
    -3.2289  -3.1770  -3.1601  -3.1170  -3.0754  -2.9930  -2.9492  -2.8938
    -2.8677  -2.8496  -2.8314  -2.8272  -2.8091  -2.7744  -2.7461  -2.6907
    -2.6814  -2.6504  -2.5788  -2.5308  -2.4964  -2.4709  -2.4288  -2.4230
    -2.2670  -2.2491  -2.2153  -2.2027  -2.1302  -2.0867  -1.9944  -1.9672
    -1.9453  -1.8734  -1.8021  -1.7582  -1.7023  -1.5050  -1.4962  -1.3772
    -1.3405  -1.2916  -1.2663  -1.2257  -1.0632  -0.7492  -0.6567  -0.3735
    -0.3622  -0.3362  -0.1808  -0.1745   1.4354   1.4591   1.5441   1.6002
     1.6193   1.6569   1.6698   1.7091   1.7294   1.7858   1.9212

     the Fermi energy is     1.3792 ev

!    total energy              =   -3295.80746959 Ry
     estimated scf accuracy    <       0.00000004 Ry
     smearing contrib. (-TS)   =      -0.03572525 Ry
     internal energy E=F+TS    =   -3295.77174434 Ry

     The total energy is F=E-TS. E is the sum of the following terms:
     one-electron contribution =  -34708.54701649 Ry
     hartree contribution      =   17420.26622889 Ry
     xc contribution           =    -543.86136581 Ry
     ewald contribution        =   14536.36749333 Ry
     electric field correction =       0.00291574 Ry

     convergence has been achieved in  54 iterations

     Forces acting on atoms (cartesian axes, Ry/au):

     atom    1 type  1   force =    -0.00168731    0.00377037    0.05472144
     atom    2 type  1   force =     0.00023998   -0.00249569   -0.00842073
     atom    3 type  1   force =     0.00043722   -0.00357082    0.00050624
     atom    4 type  1   force =     0.00004382   -0.00003087    0.10676613
     atom    5 type  1   force =    -0.00020467    0.00067407    0.00659070
     atom    6 type  1   force =     0.00003574   -0.00445386    0.00381042
     atom    7 type  1   force =     0.06647119    0.00078631   -0.02965707
     atom    8 type  1   force =     0.00659745   -0.02712772    0.00195665
     atom    9 type  1   force =     0.00657349   -0.02258217    0.00518588
     atom   10 type  2   force =    -0.00011383   -0.00451898   -0.18343051
     atom   11 type  2   force =     0.00067530    0.02088870   -0.00413854
     atom   12 type  2   force =    -0.00177756    0.02775300   -0.00675674
     atom   13 type  1   force =    -0.06652974    0.00044031   -0.02980058
     atom   14 type  1   force =    -0.00434074   -0.02770508    0.00253665
     atom   15 type  1   force =    -0.00653443   -0.02338072    0.00507331
     atom   16 type  2   force =     0.00008397    0.00068390    0.06698664
     atom   17 type  2   force =    -0.00237779    0.03352913    0.00348067
     atom   18 type  2   force =     0.00129610    0.02464965   -0.00372386
     atom   19 type  1   force =    -0.00169843    0.00674572    0.05328231
     atom   20 type  1   force =     0.00023576   -0.00118331   -0.00661779
     atom   21 type  1   force =     0.00003552    0.00109831    0.10722316
     atom   22 type  1   force =    -0.00025260   -0.00199327    0.00724490
     atom   23 type  1   force =     0.00072369   -0.00583626    0.00421843
     atom   24 type  1   force =     0.06750319    0.00138248   -0.02906043
     atom   25 type  1   force =     0.00529310   -0.03016545    0.00244721
     atom   26 type  1   force =     0.00653352   -0.02631494   -0.00414015
     atom   27 type  2   force =     0.00011600   -0.00120363   -0.18672196
     atom   28 type  2   force =     0.00008059    0.02387912   -0.00244787
     atom   29 type  2   force =    -0.00113614    0.02206749    0.00068777
     atom   30 type  1   force =    -0.06760739    0.00087722   -0.02891227
     atom   31 type  1   force =    -0.00538301   -0.02962879    0.00278926
     atom   32 type  1   force =    -0.00408084   -0.02282993    0.00239862
     atom   33 type  2   force =    -0.00005049    0.00131424    0.07475562
     atom   34 type  2   force =     0.00092083    0.03692529    0.00403967
     atom   35 type  2   force =    -0.00282968    0.03438642    0.00184653
     atom   36 type  1   force =    -0.00186695    0.00288545    0.05590358
     atom   37 type  1   force =     0.00132373    0.00414501   -0.01171493
     atom   38 type  1   force =     0.00009440   -0.00416287    0.00473433
     atom   39 type  1   force =     0.00002045   -0.00063468    0.10724577
     atom   40 type  1   force =     0.00015645   -0.00141428    0.00716554
     atom   41 type  1   force =    -0.00025907   -0.00394062    0.00191248
     atom   42 type  1   force =     0.06783676   -0.00221041   -0.02969931
     atom   43 type  1   force =     0.00370834   -0.02635443    0.00152387
     atom   44 type  1   force =     0.00984890   -0.01788780    0.00261771
     atom   45 type  2   force =     0.00002686    0.00217388   -0.18330466
     atom   46 type  2   force =    -0.00024012    0.01471143    0.00212080
     atom   47 type  2   force =     0.00297530    0.02663880   -0.00910745
     atom   48 type  1   force =    -0.06790165   -0.00284015   -0.02985452
     atom   49 type  1   force =    -0.00377194   -0.02549856    0.00182686
     atom   50 type  1   force =    -0.00775544   -0.02347694    0.00506132
     atom   51 type  2   force =     0.00045077   -0.00350411    0.06843513
     atom   52 type  2   force =    -0.00010496    0.03118254    0.00591422
     atom   53 type  2   force =    -0.00210199    0.02595359   -0.00066348
     atom   54 type  3   force =    -0.00376588   -0.00229073    0.01502068
     atom   55 type  4   force =     0.00236280    0.00582022   -0.00796711
     atom   56 type  4   force =     0.00197861   -0.00369409   -0.00280398
     atom   57 type  3   force =     0.00130855   -0.00272669   -0.00016306
     atom   58 type  4   force =     0.00049081    0.00101416   -0.00009097
     atom   59 type  4   force =     0.00007596    0.00027187    0.00068860
     atom   60 type  4   force =    -0.00095985    0.00010459   -0.00057084
     atom   61 type  4   force =    -0.00122265   -0.00109544    0.00104974

     Total force =     0.459893     Total SCF correction =     0.000604
  @ DRIVER MODE: Message from server: STATUS
  @ DRIVER MODE: Message from server: GETFORCE
  @ DRIVER MODE: Returning v,forces,stress,ensemble

     Writing output data file ./calc.save/
  @ DRIVER MODE: Message from server: EXIT
  @ DRIVE MODE: Exiting

     General routines

     Parallel routines

   This run was terminated on:  14:12:23  18Oct2021

   JOB DONE.