     Program PWSCF v.6.7GPU starts on 25Sep2021 at 14:47:32

     R & G space division:  proc/nbgrp/npool/nimage =       8
     Reading input from /storage/home/hcoda1/3/ntian30/research/carbon/CxH_vib/H2O_calc/ads_slab/CH3N2OHHO_l/out_0001/pw.inp
Warning: card &CELL ignored
Warning: card   CELL_DYNAMICS='IPI', ignored
Warning: card / ignored

     Current dimensions of program PWSCF are:
     Max number of different atomic species (ntypx) = 10
     Max number of k-points (npk) =  40000
     Max angular momentum in pseudopotentials (lmaxx) =  3
     Presently no symmetry can be used with electric field

     Message from routine cell_base_init:
     DEPRECATED: use true lattice parameter, not A to a.u. conversion factor

     IMPORTANT: XC functional enforced from input :
     Exchange-correlation= BEEF-VDW
                           (   1   4  43  14   2   0   0)
     Any further DFT definition will be discarded
     Please, verify this is what you really want

  @ DRIVER MODE: Connecting to
 qe_1139763_2971669.sched-torque.pace.gatech.edunr2tp4bp_scratch
  using UNIX socket
  @ DRIVER MODE: Message from server: STATUS
  @ DRIVER MODE: Message from server: INIT
  @ DRIVER MODE: Receiving replica           0          -1
  @ DRIVER MODE: Receiving encoded integer          25
  @ DRIVER MODE:  SCF:  T  FORCE:  T  STRESS:  F  VC:  F  ENSEMBLE:  F
  @ DRIVER MODE:  SCF:  T  FORCE:  T  STRESS:  F  VC:  F  ENSEMBLE:  F

     Using Slab Decomposition

     bravais-lattice index     =            0
     lattice parameter (alat)  =       1.8897  a.u.
     unit-cell volume          =    6658.9804 (a.u.)^3
     number of atoms/cell      =           57
     number of atomic types    =            5
     number of electrons       =       409.00
     number of Kohn-Sham states=          214
     kinetic-energy cutoff     =      29.3995  Ry
     charge density cutoff     =     293.9946  Ry
     scf convergence threshold =      7.3E-08
     mixing beta               =       0.0500
     number of iterations used =            8  plain     mixing
     Exchange-correlation= BEEF-VDW
                           (   1   4  43  14   2   0   0)

     celldm(1)=   1.889726  celldm(2)=   0.000000  celldm(3)=   0.000000
     celldm(4)=   0.000000  celldm(5)=   0.000000  celldm(6)=   0.000000

     crystal axes: (cart. coord. in units of alat)
               a(1) = (   6.579727   0.000000   0.000000 )
               a(2) = (  -0.000775   5.961596   0.000000 )
               a(3) = (   0.000000   0.000000  25.155947 )

     reciprocal axes: (cart. coord. in units 2 pi/alat)
               b(1) = (  0.151982  0.000020  0.000000 )
               b(2) = (  0.000000  0.167740  0.000000 )
               b(3) = (  0.000000  0.000000  0.039752 )

     PseudoPot. # 1 for Ti read from file:
     /storage/coda1/p-amedford6/0/shared/rich_project_chbe-medford/medford-share/data/pseudos_module/espresso/nninc/pbe/van/Ti.UPF
     MD5 check sum: 8e4df49b7f0d34bbd5052bf3f5ea0213
     Pseudo is Ultrasoft, Zval = 12.0
     Generated by new atomic code, or converted to UPF format
     Using radial grid of  851 points,  6 beta functions with:
                l(1) =   0
                l(2) =   0
                l(3) =   1
                l(4) =   1
                l(5) =   2
                l(6) =   2
     Q(r) pseudized with  8 coefficients,  rinner =    1.000   1.000   1.000
                                                       1.000   1.000

     PseudoPot. # 2 for O  read from file:
     /storage/coda1/p-amedford6/0/shared/rich_project_chbe-medford/medford-share/data/pseudos_module/espresso/nninc/pbe/van/O.UPF
     MD5 check sum: 78c19812648e8988a0fe644b0f25305e
     Pseudo is Ultrasoft, Zval =  6.0
     Generated by new atomic code, or converted to UPF format
     Using radial grid of  737 points,  4 beta functions with:
                l(1) =   0
                l(2) =   0
                l(3) =   1
                l(4) =   1
     Q(r) pseudized with  8 coefficients,  rinner =    0.800   0.800   0.800

     PseudoPot. # 3 for N  read from file:
     /storage/coda1/p-amedford6/0/shared/rich_project_chbe-medford/medford-share/data/pseudos_module/espresso/nninc/pbe/van/N.UPF
     MD5 check sum: 90d10febe142ad51ac9d5be1deb811c4
     Pseudo is Ultrasoft, Zval =  5.0
     Generated by new atomic code, or converted to UPF format
     Using radial grid of  729 points,  4 beta functions with:
                l(1) =   0
                l(2) =   0
                l(3) =   1
                l(4) =   1
     Q(r) pseudized with  8 coefficients,  rinner =    0.800   0.800   0.800

     PseudoPot. # 4 for C  read from file:
     /storage/coda1/p-amedford6/0/shared/rich_project_chbe-medford/medford-share/data/pseudos_module/espresso/nninc/pbe/van/C.UPF
     MD5 check sum: 1a69bf6b8db32088f5b2163dbdb77a27
     Pseudo is Ultrasoft, Zval =  4.0
     Generated by new atomic code, or converted to UPF format
     Using radial grid of  721 points,  4 beta functions with:
                l(1) =   0
                l(2) =   0
                l(3) =   1
                l(4) =   1
     Q(r) pseudized with  8 coefficients,  rinner =    0.800   0.800   0.800

     PseudoPot. # 5 for H  read from file:
     /storage/coda1/p-amedford6/0/shared/rich_project_chbe-medford/medford-share/data/pseudos_module/espresso/nninc/pbe/van/H.UPF
     MD5 check sum: b5ee9d7bfd3a09ee7748110bda690ff7
     Pseudo is Ultrasoft, Zval =  1.0
     Generated by new atomic code, or converted to UPF format
     Using radial grid of  615 points,  1 beta functions with:
                l(1) =   0
     Q(r) pseudized with  8 coefficients,  rinner =    0.800

     atomic species   valence    mass     pseudopotential
        Ti1           12.00    47.86700     Ti( 1.00)
        O1             6.00    15.99900     O ( 1.00)
        N1             5.00    14.00700     N ( 1.00)
        C1             4.00    12.01100     C ( 1.00)
        H1             1.00     1.00800     H ( 1.00)

     No symmetry found

   Cartesian axes

     site n.     atom                  positions (alat units)
         1           Ti1 tau(   1) = (   0.0004258   2.9801865   6.0000000  )
         2           Ti1 tau(   2) = (   3.2906075   1.4906267   6.0002472  )
         3           O1  tau(   3) = (   0.0006271   0.0005054   7.9858123  )
         4           O1  tau(   4) = (   3.2906025   0.0005020   7.3038282  )
         5           O1  tau(   5) = (   4.5942328   1.4918067   9.2879030  )
         6           O1  tau(   6) = (   1.9868534   1.4903216   9.2879459  )
         7           Ti1 tau(   7) = (   3.2907910   2.8959150   9.1758416  )
         8           Ti1 tau(   8) = (   0.0015273   1.4827037   9.2680791  )
         9           O1  tau(   9) = (   3.2779673   5.9607700  11.3423085  )
        10           O1  tau(  10) = (   0.0116148   5.9584955  10.6183126  )
        11           O1  tau(  11) = (   1.2787083   1.4818767  12.6451794  )
        12           O1  tau(  12) = (   5.2707140   1.4872516  12.6060838  )
        13           Ti1 tau(  13) = (   0.0520196   2.9452147  12.6012095  )
        14           Ti1 tau(  14) = (   3.3669591   1.4706787  12.5087448  )
        15           O1  tau(  15) = (   6.5166736   5.9505275  14.6414754  )
        16           O1  tau(  16) = (   3.3002175   0.0041348  13.9548274  )
        17           O1  tau(  17) = (   4.5235890   1.5203341  16.0633414  )
        18           O1  tau(  18) = (   1.9992342   1.5602939  15.9747780  )
        19           Ti1 tau(  19) = (   3.2541499   3.0080313  15.6961896  )
        20           Ti1 tau(  20) = (   6.5591015   1.5323982  15.7823192  )
        21           O1  tau(  21) = (   3.2904802   0.0005063   4.7018136  )
        22           O1  tau(  22) = (   0.0960927   0.0099221  17.2178370  )
        23           O1  tau(  23) = (   1.3043587   1.4918075   6.0039043  )
        24           O1  tau(  24) = (   5.2767064   1.4903225   6.0039473  )
        25           Ti1 tau(  25) = (   0.0000382   5.9609847   6.0000000  )
        26           Ti1 tau(  26) = (   3.2902200   4.4714249   6.0002472  )
        27           O1  tau(  27) = (   0.0002396   2.9813036   7.9858123  )
        28           O1  tau(  28) = (   3.2902150   2.9813002   7.3038282  )
        29           O1  tau(  29) = (   4.5938453   4.4726049   9.2879030  )
        30           O1  tau(  30) = (   1.9864658   4.4711199   9.2879459  )
        31           Ti1 tau(  31) = (   3.2891106   5.8743827   9.1763621  )
        32           Ti1 tau(  32) = (   0.0006254   4.4649316   9.2693709  )
        33           O1  tau(  33) = (   3.2807211   2.9768430  11.3440791  )
        34           O1  tau(  34) = (   0.0092240   2.9805883  10.6323155  )
        35           O1  tau(  35) = (   1.2789702   4.4681595  12.6395138  )
        36           O1  tau(  36) = (   5.2737968   4.4775610  12.6008310  )
        37           Ti1 tau(  37) = (   0.0460201   5.9176504  12.5434570  )
        38           Ti1 tau(  38) = (   3.3658678   4.4646095  12.4976877  )
        39           O1  tau(  39) = (   6.5297297   2.9761478  14.6509524  )
        40           O1  tau(  40) = (   3.3085871   2.9961499  13.9017917  )
        41           O1  tau(  41) = (   4.5138497   4.4896837  16.1272785  )
        42           O1  tau(  42) = (   1.9961282   4.4344792  16.0060688  )
        43           Ti1 tau(  43) = (   3.3116018   0.0224549  15.7990204  )
        44           Ti1 tau(  44) = (   6.5775847   4.6577750  16.0638065  )
        45           O1  tau(  45) = (   3.2900926   2.9813045   4.7018136  )
        46           O1  tau(  46) = (   1.3039711   4.4726057   6.0039043  )
        47           O1  tau(  47) = (   5.2763189   4.4711207   6.0039473  )
        48           N1  tau(  48) = (   6.4965777   2.6139801  18.6303060  )
        49           N1  tau(  49) = (   6.5364102   2.8728423  17.4370429  )
        50           C1  tau(  50) = (   6.4341180   3.7235584  19.6105657  )
        51           H1  tau(  51) = (   6.3066687   4.7022679  19.1488110  )
        52           H1  tau(  52) = (   5.6164842   3.4805663  20.2913871  )
        53           H1  tau(  53) = (   0.7823074   3.6964598  20.1845303  )
        54           O1  tau(  54) = (   3.0314481   5.0835218  18.9911038  )
        55           H1  tau(  55) = (   1.7414717   0.2044793  18.0242669  )
        56           O1  tau(  56) = (   2.7372941   0.2572207  18.0778760  )
        57           H1  tau(  57) = (   3.9343361   5.3466317  19.2487757  )

     number of k points=    10  Fermi-Dirac smearing, width (Ry)=  0.0073
                       cart. coord. in units 2pi/alat
        k(    1) = (   0.0000000   0.0000000   0.0000000), wk =   0.1250000
        k(    2) = (   0.0000000   0.0419351   0.0000000), wk =   0.2500000
        k(    3) = (   0.0000000  -0.0838702   0.0000000), wk =   0.1250000
        k(    4) = (   0.0379955   0.0000049   0.0000000), wk =   0.2500000
        k(    5) = (   0.0379955   0.0419400   0.0000000), wk =   0.2500000
        k(    6) = (   0.0379955  -0.0838652   0.0000000), wk =   0.2500000
        k(    7) = (   0.0379955  -0.0419301   0.0000000), wk =   0.2500000
        k(    8) = (  -0.0759910  -0.0000099   0.0000000), wk =   0.1250000
        k(    9) = (  -0.0759910   0.0419252   0.0000000), wk =   0.2500000
        k(   10) = (  -0.0759910  -0.0838800   0.0000000), wk =   0.1250000

     Initial potential from superposition of free atoms

     starting charge  392.99914, renormalised to  409.00000

     negative rho (up, down):  1.422E-02 0.000E+00

     %%%%%%%%%%%%%%%%%%%%%%%%%%%%%%%%%%%%%%%%%%%%%%%%%%%%%%%%%%%%%%%%%%%%%%%%
     %                                                                      %
     % You are using vdW-DF, which was implemented by the Thonhauser group. %
     % Please cite the following two papers that made this development      %
     % possible and the two reviews that describe the various versions:     %
     %                                                                      %
     %   T. Thonhauser et al., PRL 115, 136402 (2015).                      %
     %   T. Thonhauser et al., PRB 76, 125112 (2007).                       %
     %   K. Berland et al., Rep. Prog. Phys. 78, 066501 (2015).             %
     %   D.C. Langreth et al., J. Phys.: Condens. Matter 21, 084203 (2009). %
     %                                                                      %
     %                                                                      %
     % If you are calculating the stress with vdW-DF, please also cite:     %
     %                                                                      %
     %   R. Sabatini et al., J. Phys.: Condens. Matter 24, 424209 (2012).   %
     %                                                                      %
     %%%%%%%%%%%%%%%%%%%%%%%%%%%%%%%%%%%%%%%%%%%%%%%%%%%%%%%%%%%%%%%%%%%%%%%%

     Adding external electric field

     Computed dipole along edir(3) :
        Dipole              -16.7505 Ry au,        -42.5754 Debye
        Dipole field         -0.0316 Ry au,

        Potential amp.        2.9302 Ry
        Total length         46.3494 bohr

     Starting wfcs are  309 atomic wfcs
  @ DRIVER MODE: Message from server: STATUS
  @ DRIVER MODE: Message from server: POSDATA
  @ DRIVER MODE: Reading and sharing cell
  @ DRIVER MODE: Reading and sharing positions
  @ DRIVER MODE: Received positions

     Self-consistent Calculation

     iteration #  1     ecut=    29.40 Ry     beta= 0.05
     Davidson diagonalization with overlap
     c_bands:  5 eigenvalues not converged
     c_bands:  5 eigenvalues not converged
     c_bands:  3 eigenvalues not converged
     c_bands:  1 eigenvalues not converged
     c_bands:  4 eigenvalues not converged
     c_bands:  2 eigenvalues not converged
     c_bands:  5 eigenvalues not converged
     ethr =  1.00E-05,  avg # of iterations = 26.6

[...]

     total energy              =   -2110.46628670 Ry
     estimated scf accuracy    <   10326.51607586 Ry

     iteration #  2     ecut=    29.40 Ry     beta= 0.05
     Davidson diagonalization with overlap
     ethr =  1.00E-02,  avg # of iterations = 32.1

[...]

     iteration # 54     ecut=    29.40 Ry     beta= 0.05
     Davidson diagonalization with overlap
     c_bands:  1 eigenvalues not converged
     ethr =  8.79E-10,  avg # of iterations = 12.9

[...]

     total energy              =   -3006.13721382 Ry
     estimated scf accuracy    <       0.00000011 Ry

     iteration # 63     ecut=    29.40 Ry     beta= 0.05
     Davidson diagonalization with overlap
     ethr =  2.31E-11,  avg # of iterations =  8.3

     negative rho (up, down):  1.470E-02 0.000E+00

     Adding external electric field

     Computed dipole along edir(3) :
        Dipole                0.8085 Ry au,          2.0550 Debye
        Dipole field          0.0015 Ry au,

        Potential amp.       -0.1414 Ry
        Total length         46.3494 bohr

     End of self-consistent calculation

          k = 0.0000 0.0000 0.0000 ( 18029 PWs)   bands (ev):

   -55.6054 -55.5713 -55.5634 -55.5349 -55.5272 -55.4415 -55.4199 -55.4045
   -55.3860 -55.3839 -55.3667 -55.3502 -54.9886 -54.9184 -54.5861 -54.5521
   -32.1041 -32.0885 -31.9495 -31.9413 -31.9183 -31.8981 -31.8738 -31.8606
   -31.8494 -31.7950 -31.7801 -31.7646 -31.7577 -31.7411 -31.7297 -31.7194
   -31.7103 -31.7019 -31.6903 -31.6633 -31.6626 -31.6427 -31.6108 -31.6095
   -31.6001 -31.5957 -31.5932 -31.5825 -31.5645 -31.5602 -31.5545 -31.5495
   -31.5389 -31.5372 -31.5277 -31.5156 -31.4960 -31.2666 -31.2097 -31.1790
   -31.1252 -31.1027 -30.9933 -30.9047 -30.8823 -30.8100 -30.7235 -30.6125
   -20.7380 -18.2930 -16.3057 -16.0795 -15.8958 -15.7660 -15.7111 -15.5546
   -15.4962 -15.4103 -15.3397 -15.2031 -15.1507 -15.1420 -15.1360 -15.1172
   -15.1115 -15.0511 -15.0401 -15.0386 -15.0275 -14.9998 -14.9607 -14.9474
   -14.9425 -14.8597 -14.7666 -14.7436 -14.7233 -14.7200 -14.6622 -14.2763
   -13.0881 -12.9716 -11.2821  -6.8135  -5.7529  -5.3640  -4.1826  -3.8005
    -3.7723  -3.6730  -3.5505  -3.5116  -3.4322  -3.3853  -3.2311  -3.0800
    -3.0270  -2.8521  -2.7834  -2.7560  -2.7125  -2.6290  -2.5216  -2.4683
    -2.4131  -2.4094  -2.3951  -2.3780  -2.3619  -2.3453  -2.2380  -2.2192
    -2.1657  -2.1463  -2.1225  -1.9851  -1.9572  -1.9289  -1.9189  -1.8913
    -1.8781  -1.8652  -1.8379  -1.8193  -1.7796  -1.7554  -1.6227  -1.5814
    -1.5380  -1.4493  -1.3890  -1.3295  -1.2337  -1.2014  -1.1320  -1.0622
    -1.0569  -1.0368  -1.0035  -0.9954  -0.8690  -0.7646  -0.7544  -0.6808
    -0.6196  -0.5698  -0.5284  -0.4632  -0.3796  -0.3622  -0.3544  -0.3339
    -0.2820  -0.2576  -0.0983  -0.0594  -0.0114   0.0137   0.0709   0.1041
     0.1470   0.1874   0.2271   0.2770   0.3111   0.3443   0.3626   0.3769
     0.3923   0.4236   0.4444   0.6101   0.6456   0.6688   0.7298   0.7591
     0.8455   0.9026   0.9661   1.0500   1.1581   1.3636   1.4365   1.5276
     1.6283   2.0078   2.0536   2.8297   3.5238   3.6158   3.6568   3.6870
     3.7686   3.7802   3.9817   4.0033   4.0331   4.1088

[...]

          k = 0.0380-0.0419 0.0000 ( 17876 PWs)   bands (ev):

[...]

          k =-0.0760-0.0000 0.0000 ( 17886 PWs)   bands (ev):

[...]

          k =-0.0760-0.0839 0.0000 ( 17948 PWs)   bands (ev):

   -55.5888 -55.5878 -55.5482 -55.5422 -55.5330 -55.4297 -55.4164 -55.4032
   -55.4022 -55.3684 -55.3683 -55.3658 -54.9847 -54.9222 -54.5692 -54.5688
   -31.9183 -31.9041 -31.9034 -31.9010 -31.8839 -31.8830 -31.8270 -31.8183
   -31.8059 -31.7861 -31.7777 -31.7540 -31.7493 -31.7231 -31.7174 -31.7167
   -31.7085 -31.7079 -31.7077 -31.7061 -31.7038 -31.7018 -31.6751 -31.6467
   -31.6330 -31.6291 -31.6202 -31.6040 -31.6030 -31.5980 -31.5928 -31.5838
   -31.5807 -31.5732 -31.5725 -31.5706 -31.4175 -31.2683 -31.2486 -31.1866
   -31.1645 -31.1265 -30.8951 -30.8948 -30.8062 -30.8059 -30.7669 -30.7667
   -20.7374 -18.2890 -15.7433 -15.6967 -15.6315 -15.5644 -15.5293 -15.4592
   -15.4157 -15.3739 -15.3219 -15.2838 -15.2748 -15.2149 -15.1952 -15.1622
   -15.1530 -15.1234 -15.1139 -15.1117 -15.0580 -15.0521 -15.0460 -15.0390
   -15.0328 -14.9740 -14.9341 -14.9261 -14.9211 -14.8228 -14.7005 -14.4449
   -13.0734 -13.0733 -11.2804  -6.8363  -5.7503  -5.3404  -4.1109  -3.8039
    -3.7563  -3.1146  -3.0217  -2.8280  -2.7978  -2.7148  -2.7108  -2.6679
    -2.5457  -2.5128  -2.4667  -2.4487  -2.4276  -2.4189  -2.4133  -2.3930
    -2.3869  -2.3686  -2.3392  -2.3193  -2.2865  -2.2740  -2.2611  -2.2527
    -2.2387  -2.2158  -2.2136  -2.1652  -2.1449  -2.1263  -2.0630  -2.0304
    -1.8435  -1.7944  -1.7494  -1.7424  -1.7214  -1.6903  -1.6752  -1.6583
    -1.6115  -1.5901  -1.5133  -1.4660  -1.3284  -1.3098  -1.2939  -1.2733
    -1.2068  -1.1490  -1.0988  -1.0127  -1.0079  -0.9586  -0.8660  -0.8068
    -0.7983  -0.7675  -0.7119  -0.7022  -0.6617  -0.5684  -0.5628  -0.5447
    -0.5390  -0.4626  -0.4189  -0.3565  -0.3484  -0.3285  -0.2977  -0.2697
    -0.2363  -0.1973  -0.1015  -0.0683   0.0254   0.1310   0.2079   0.3431
     0.4619   0.4744   0.5592   0.5836   0.6847   0.6963   0.7085   0.7498
     0.7856   0.8101   0.9299   0.9438   0.9666   0.9942   1.0812   1.7999
     1.8008   1.8733   1.8735   2.8197   3.7648   3.8793   3.9111   3.9216
     4.0068   4.0437   4.0626   4.0645   4.1292   4.2029

     the Fermi energy is     3.5265 ev

!    total energy              =   -3006.13725767 Ry
     estimated scf accuracy    <       0.00000004 Ry
     smearing contrib. (-TS)   =      -0.02167348 Ry
     internal energy E=F+TS    =   -3006.11558419 Ry

     The total energy is F=E-TS. E is the sum of the following terms:
     one-electron contribution =  -23513.91754246 Ry
     hartree contribution      =   11854.93483915 Ry
     xc contribution           =    -501.16816037 Ry
     ewald contribution        =    9154.03404598 Ry
     electric field correction =       0.00123351 Ry

     convergence has been achieved in  63 iterations

     Forces acting on atoms (cartesian axes, Ry/au):

     atom    1 type  1   force =     0.00020894   -0.00032400    0.09615199
     atom    2 type  1   force =    -0.00012731   -0.00050536   -0.17561626
     atom    3 type  2   force =    -0.00002999   -0.00015940   -0.02418389
     atom    4 type  2   force =     0.00000424   -0.00156077    0.05345662
     atom    5 type  2   force =    -0.01165847   -0.00075573    0.00385823
     atom    6 type  2   force =     0.01284475   -0.00002106    0.00197284
     atom    7 type  1   force =    -0.00132484    0.00026323   -0.00660773
     atom    8 type  1   force =     0.00074373    0.00794599    0.02423753
     atom    9 type  2   force =     0.00000985    0.00002833    0.00002953
     atom   10 type  2   force =    -0.00082548    0.00166803   -0.01690296
     atom   11 type  2   force =    -0.00001801    0.00004443   -0.00001829
     atom   12 type  2   force =    -0.00000937    0.00001371   -0.00001276
     atom   13 type  1   force =     0.00001280   -0.00000897    0.00004060
     atom   14 type  1   force =    -0.00000045    0.00003415    0.00000672
     atom   15 type  2   force =     0.00000848    0.00001026   -0.00003710
     atom   16 type  2   force =    -0.00001524   -0.00003595   -0.00004505
     atom   17 type  2   force =    -0.00014233   -0.00004420   -0.00006584
     atom   18 type  2   force =    -0.00009926    0.00000445    0.00004749
     atom   19 type  1   force =     0.00001309   -0.00006787    0.00003868
     atom   20 type  1   force =     0.00001287    0.00003742    0.00003866
     atom   21 type  2   force =     0.00005627   -0.00004742    0.10322756
     atom   22 type  2   force =    -0.00004495   -0.00002386   -0.00006757
     atom   23 type  2   force =    -0.07147702   -0.00011674   -0.02772052
     atom   24 type  2   force =     0.07137770    0.00029389   -0.02772979
     atom   25 type  1   force =    -0.00003289   -0.00028779    0.09578438
     atom   26 type  1   force =    -0.00022768   -0.00035198   -0.17586670
     atom   27 type  2   force =     0.00004590   -0.00017458   -0.02323640
     atom   28 type  2   force =     0.00006896   -0.00125513    0.05306080
     atom   29 type  2   force =    -0.01200670    0.00042480    0.00403288
     atom   30 type  2   force =     0.01309063    0.00077073    0.00212164
     atom   31 type  1   force =    -0.00117834    0.00400017   -0.00990274
     atom   32 type  1   force =     0.00068120   -0.01005704    0.02472513
     atom   33 type  2   force =     0.00001521   -0.00001156    0.00001747
     atom   34 type  2   force =    -0.00025694    0.00012761   -0.02259738
     atom   35 type  2   force =    -0.00001016   -0.00000573   -0.00002144
     atom   36 type  2   force =    -0.00002334    0.00001266   -0.00003639
     atom   37 type  1   force =     0.00000357   -0.00004637    0.00002246
     atom   38 type  1   force =     0.00003547    0.00007679    0.00003722
     atom   39 type  2   force =    -0.00010958    0.00000268   -0.00003818
     atom   40 type  2   force =    -0.00001053   -0.00003762   -0.00002232
     atom   41 type  2   force =     0.00013044   -0.00006134    0.00006522
     atom   42 type  2   force =     0.00008633    0.00001155   -0.00007864
     atom   43 type  1   force =     0.00007108    0.00001392   -0.00004399
     atom   44 type  1   force =     0.00022288    0.00001390    0.00006535
     atom   45 type  2   force =     0.00004481   -0.00008887    0.10323475
     atom   46 type  2   force =    -0.07148866   -0.00008661   -0.02773995
     atom   47 type  2   force =     0.07139783    0.00035271   -0.02773501
     atom   48 type  3   force =     0.00247169   -0.00022687   -0.00070064
     atom   49 type  3   force =    -0.00082085   -0.00006556    0.00047467
     atom   50 type  4   force =    -0.00212848    0.00017598    0.00006590
     atom   51 type  5   force =     0.00018066    0.00005886    0.00016879
     atom   52 type  5   force =     0.00009202    0.00074149    0.00058671
     atom   53 type  5   force =     0.00010617   -0.00067823   -0.00064009
     atom   54 type  2   force =     0.00100221   -0.00004659   -0.00129141
     atom   55 type  5   force =    -0.00010557   -0.00006704   -0.00007353
     atom   56 type  2   force =    -0.00115253   -0.00000583    0.00138870
     atom   57 type  5   force =     0.00028519    0.00009834    0.00007403

     Total force =     0.367147     Total SCF correction =     0.000511
  @ DRIVER MODE: Message from server: STATUS
  @ DRIVER MODE: Message from server: GETFORCE
  @ DRIVER MODE: Returning v,forces,stress,ensemble

     Writing output data file ./calc.save/
  @ DRIVER MODE: Message from server: EXIT
  @ DRIVE MODE: Exiting

     General routines

     Parallel routines

   This run was terminated on:  15:17:13  25Sep2021

   JOB DONE.