     Program PWSCF v.6.7GPU starts on  2Aug2021 at 23:18:49

     R & G space division:  proc/nbgrp/npool/nimage =      16
     Reading input from /storage/home/hcoda1/3/ntian30/research/carbon/02Aug_vib_paired/ads_slab/CH3NNHHH_a/out_0041/pw.inp
Warning: card &CELL ignored
Warning: card   CELL_DYNAMICS='IPI', ignored
Warning: card / ignored

     Current dimensions of program PWSCF are:
     Max number of different atomic species (ntypx) = 10
     Max number of k-points (npk) =  40000
     Max angular momentum in pseudopotentials (lmaxx) =  3
     Presently no symmetry can be used with electric field

     Message from routine cell_base_init:
     DEPRECATED: use true lattice parameter, not A to a.u. conversion factor

     IMPORTANT: XC functional enforced from input :
     Exchange-correlation= BEEF-VDW
                           (   1   4  43  14   2   0   0)
     Any further DFT definition will be discarded
     Please, verify this is what you really want

  @ DRIVER MODE: Connecting to
 qe_1139763_2482545.sched-torque.pace.gatech.educbx__92x_scratch
  using UNIX socket
  @ DRIVER MODE: Message from server: STATUS
  @ DRIVER MODE: Message from server: INIT
  @ DRIVER MODE: Receiving replica           0          -1
  @ DRIVER MODE: Receiving encoded integer          25
  @ DRIVER MODE:  SCF:  T  FORCE:  T  STRESS:  F  VC:  F  ENSEMBLE:  F
  @ DRIVER MODE:  SCF:  T  FORCE:  T  STRESS:  F  VC:  F  ENSEMBLE:  F

     Using Slab Decomposition

     bravais-lattice index     =            0
     lattice parameter (alat)  =       1.8897  a.u.
     unit-cell volume          =    6658.9804 (a.u.)^3
     number of atoms/cell      =           56
     number of atomic types    =            5
     number of electrons       =       398.00
     number of Kohn-Sham states=          209
     kinetic-energy cutoff     =      29.3995  Ry
     charge density cutoff     =     293.9946  Ry
     scf convergence threshold =      7.3E-08
     mixing beta               =       0.0500
     number of iterations used =            8  plain     mixing
     Exchange-correlation= BEEF-VDW
                           (   1   4  43  14   2   0   0)

     celldm(1)=   1.889726  celldm(2)=   0.000000  celldm(3)=   0.000000
     celldm(4)=   0.000000  celldm(5)=   0.000000  celldm(6)=   0.000000

     crystal axes: (cart. coord. in units of alat)
               a(1) = (   6.579727   0.000000   0.000000 )
               a(2) = (  -0.000775   5.961596   0.000000 )
               a(3) = (   0.000000   0.000000  25.155947 )

     reciprocal axes: (cart. coord. in units 2 pi/alat)
               b(1) = (  0.151982  0.000020  0.000000 )
               b(2) = (  0.000000  0.167740  0.000000 )
               b(3) = (  0.000000  0.000000  0.039752 )

     PseudoPot. # 1 for Ti read from file:
     /storage/coda1/p-amedford6/0/shared/rich_project_chbe-medford/medford-share/data/pseudos_module/espresso/nninc/pbe/van/Ti.UPF
     MD5 check sum: 8e4df49b7f0d34bbd5052bf3f5ea0213
     Pseudo is Ultrasoft, Zval = 12.0
     Generated by new atomic code, or converted to UPF format
     Using radial grid of  851 points,  6 beta functions with:
                l(1) =   0
                l(2) =   0
                l(3) =   1
                l(4) =   1
                l(5) =   2
                l(6) =   2
     Q(r) pseudized with  8 coefficients,  rinner =    1.000   1.000   1.000
                                                       1.000   1.000

     PseudoPot. # 2 for O  read from file:
     /storage/coda1/p-amedford6/0/shared/rich_project_chbe-medford/medford-share/data/pseudos_module/espresso/nninc/pbe/van/O.UPF
     MD5 check sum: 78c19812648e8988a0fe644b0f25305e
     Pseudo is Ultrasoft, Zval =  6.0
     Generated by new atomic code, or converted to UPF format
     Using radial grid of  737 points,  4 beta functions with:
                l(1) =   0
                l(2) =   0
                l(3) =   1
                l(4) =   1
     Q(r) pseudized with  8 coefficients,  rinner =    0.800   0.800   0.800

     PseudoPot. # 3 for N  read from file:
     /storage/coda1/p-amedford6/0/shared/rich_project_chbe-medford/medford-share/data/pseudos_module/espresso/nninc/pbe/van/N.UPF
     MD5 check sum: 90d10febe142ad51ac9d5be1deb811c4
     Pseudo is Ultrasoft, Zval =  5.0
     Generated by new atomic code, or converted to UPF format
     Using radial grid of  729 points,  4 beta functions with:
                l(1) =   0
                l(2) =   0
                l(3) =   1
                l(4) =   1
     Q(r) pseudized with  8 coefficients,  rinner =    0.800   0.800   0.800

     PseudoPot. # 4 for C  read from file:
     /storage/coda1/p-amedford6/0/shared/rich_project_chbe-medford/medford-share/data/pseudos_module/espresso/nninc/pbe/van/C.UPF
     MD5 check sum: 1a69bf6b8db32088f5b2163dbdb77a27
     Pseudo is Ultrasoft, Zval =  4.0
     Generated by new atomic code, or converted to UPF format
     Using radial grid of  721 points,  4 beta functions with:
                l(1) =   0
                l(2) =   0
                l(3) =   1
                l(4) =   1
     Q(r) pseudized with  8 coefficients,  rinner =    0.800   0.800   0.800

     PseudoPot. # 5 for H  read from file:
     /storage/coda1/p-amedford6/0/shared/rich_project_chbe-medford/medford-share/data/pseudos_module/espresso/nninc/pbe/van/H.UPF
     MD5 check sum: b5ee9d7bfd3a09ee7748110bda690ff7
     Pseudo is Ultrasoft, Zval =  1.0
     Generated by new atomic code, or converted to UPF format
     Using radial grid of  615 points,  1 beta functions with:
                l(1) =   0
     Q(r) pseudized with  8 coefficients,  rinner =    0.800

     atomic species   valence    mass     pseudopotential
        Ti1           12.00    47.86700     Ti( 1.00)
        O1             6.00    15.99900     O ( 1.00)
        N1             5.00    14.00700     N ( 1.00)
        C1             4.00    12.01100     C ( 1.00)
        H1             1.00     1.00800     H ( 1.00)

     No symmetry found

   Cartesian axes

     site n.     atom                  positions (alat units)
         1           Ti1 tau(   1) = (   0.0004258   2.9801865   6.0000000  )
         2           Ti1 tau(   2) = (   3.2906075   1.4906267   6.0002472  )
         3           O1  tau(   3) = (   0.0006271   0.0005054   7.9858123  )
         4           O1  tau(   4) = (   3.2906025   0.0005020   7.3038282  )
         5           O1  tau(   5) = (   4.5942328   1.4918067   9.2879030  )
         6           O1  tau(   6) = (   1.9868534   1.4903216   9.2879459  )
         7           Ti1 tau(   7) = (   3.2907910   2.8959150   9.1758416  )
         8           Ti1 tau(   8) = (   0.0015273   1.4827037   9.2680791  )
         9           O1  tau(   9) = (   3.2969863   5.9453513  11.3493076  )
        10           O1  tau(  10) = (   0.0116148   5.9584955  10.6183126  )
        11           O1  tau(  11) = (   1.3059050   1.4736943  12.6642453  )
        12           O1  tau(  12) = (   5.3003793   1.4775083  12.6459419  )
        13           Ti1 tau(  13) = (   0.0167275   2.9625105  12.5508078  )
        14           Ti1 tau(  14) = (   3.3131340   1.4712512  12.4909780  )
        15           O1  tau(  15) = (   6.5517612   5.9325698  14.7566896  )
        16           O1  tau(  16) = (   3.3302114   5.9429442  13.9823395  )
        17           O1  tau(  17) = (   4.5243935   1.5056208  16.2316672  )
        18           O1  tau(  18) = (   2.0170937   1.4633510  16.1378485  )
        19           Ti1 tau(  19) = (   3.2500237   2.9242626  15.6920970  )
        20           Ti1 tau(  20) = (   6.5441017   1.2779805  16.1516014  )
        21           O1  tau(  21) = (   3.2904802   0.0005063   4.7018136  )
        22           O1  tau(  22) = (   6.5540411   5.9581837  17.3465722  )
        23           O1  tau(  23) = (   1.3043587   1.4918075   6.0039043  )
        24           O1  tau(  24) = (   5.2767064   1.4903225   6.0039473  )
        25           Ti1 tau(  25) = (   0.0000382   5.9609847   6.0000000  )
        26           Ti1 tau(  26) = (   3.2902200   4.4714249   6.0002472  )
        27           O1  tau(  27) = (   0.0002396   2.9813036   7.9858123  )
        28           O1  tau(  28) = (   3.2902150   2.9813002   7.3038282  )
        29           O1  tau(  29) = (   4.5938453   4.4726049   9.2879030  )
        30           O1  tau(  30) = (   1.9864658   4.4711199   9.2879459  )
        31           Ti1 tau(  31) = (   3.2891106   5.8743827   9.1763621  )
        32           Ti1 tau(  32) = (   0.0006254   4.4649316   9.2693709  )
        33           O1  tau(  33) = (   3.2962403   2.9651072  11.3429128  )
        34           O1  tau(  34) = (   0.0092240   2.9805883  10.6323155  )
        35           O1  tau(  35) = (   1.3076126   4.4641214  12.6643835  )
        36           O1  tau(  36) = (   5.2981430   4.4591552  12.6429889  )
        37           Ti1 tau(  37) = (   0.0194730   5.9489450  12.5196332  )
        38           Ti1 tau(  38) = (   3.3150505   4.4522436  12.4946186  )
        39           O1  tau(  39) = (   6.5702761   2.9869041  14.8038460  )
        40           O1  tau(  40) = (   3.3119818   2.9576719  13.9204832  )
        41           O1  tau(  41) = (   4.5223198   4.3950437  16.2490866  )
        42           O1  tau(  42) = (   2.0356696   4.4339808  16.1311045  )
        43           Ti1 tau(  43) = (   3.3057863   5.9493229  15.7677403  )
        44           Ti1 tau(  44) = (   0.0958844   4.4293496  15.8701971  )
        45           O1  tau(  45) = (   3.2900926   2.9813045   4.7018136  )
        46           O1  tau(  46) = (   1.3039711   4.4726057   6.0039043  )
        47           O1  tau(  47) = (   5.2763189   4.4711207   6.0039473  )
        48           N1  tau(  48) = (   0.0620580   3.0375546  17.6897758  )
        49           C1  tau(  49) = (   1.1116374   2.9693208  18.6984743  )
        50           H1  tau(  50) = (   1.2951007   3.9532040  19.1583453  )
        51           H1  tau(  51) = (   0.8627774   2.2426413  19.4871689  )
        52           H1  tau(  52) = (   2.0263963   2.6228967  18.2308865  )
        53           N1  tau(  53) = (   5.4279256   3.3744730  18.4033390  )
        54           H1  tau(  54) = (   5.6103604   4.1199394  19.0752601  )
        55           H1  tau(  55) = (   4.7934260   3.8076565  17.6395878  )
        56           H1  tau(  56) = (   5.0090149   2.5598412  18.8678436  )

     number of k points=    10  Fermi-Dirac smearing, width (Ry)=  0.0073
                       cart. coord. in units 2pi/alat
        k(    1) = (   0.0000000   0.0000000   0.0000000), wk =   0.1250000
        k(    2) = (   0.0000000   0.0419351   0.0000000), wk =   0.2500000
        k(    3) = (   0.0000000  -0.0838702   0.0000000), wk =   0.1250000
        k(    4) = (   0.0379955   0.0000049   0.0000000), wk =   0.2500000
        k(    5) = (   0.0379955   0.0419400   0.0000000), wk =   0.2500000
        k(    6) = (   0.0379955  -0.0838652   0.0000000), wk =   0.2500000
        k(    7) = (   0.0379955  -0.0419301   0.0000000), wk =   0.2500000
        k(    8) = (  -0.0759910  -0.0000099   0.0000000), wk =   0.1250000
        k(    9) = (  -0.0759910   0.0419252   0.0000000), wk =   0.2500000
        k(   10) = (  -0.0759910  -0.0838800   0.0000000), wk =   0.1250000

     Initial potential from superposition of free atoms

     starting charge  381.99914, renormalised to  398.00000

     negative rho (up, down):  1.617E-02 0.000E+00

     %%%%%%%%%%%%%%%%%%%%%%%%%%%%%%%%%%%%%%%%%%%%%%%%%%%%%%%%%%%%%%%%%%%%%%%%
     %                                                                      %
     % You are using vdW-DF, which was implemented by the Thonhauser group. %
     % Please cite the following two papers that made this development      %
     % possible and the two reviews that describe the various versions:     %
     %                                                                      %
     %   T. Thonhauser et al., PRL 115, 136402 (2015).                      %
     %   T. Thonhauser et al., PRB 76, 125112 (2007).                       %
     %   K. Berland et al., Rep. Prog. Phys. 78, 066501 (2015).             %
     %   D.C. Langreth et al., J. Phys.: Condens. Matter 21, 084203 (2009). %
     %                                                                      %
     %                                                                      %
     % If you are calculating the stress with vdW-DF, please also cite:     %
     %                                                                      %
     %   R. Sabatini et al., J. Phys.: Condens. Matter 24, 424209 (2012).   %
     %                                                                      %
     %%%%%%%%%%%%%%%%%%%%%%%%%%%%%%%%%%%%%%%%%%%%%%%%%%%%%%%%%%%%%%%%%%%%%%%%

     Adding external electric field

     Computed dipole along edir(3) :
        Dipole              -10.5721 Ry au,        -26.8716 Debye
        Dipole field         -0.0200 Ry au,

        Potential amp.        1.8494 Ry
        Total length         46.3494 bohr

     Starting wfcs are  302 atomic wfcs
  @ DRIVER MODE: Message from server: STATUS
  @ DRIVER MODE: Message from server: POSDATA
  @ DRIVER MODE: Reading and sharing cell
  @ DRIVER MODE: Reading and sharing positions
  @ DRIVER MODE: Received positions

     Self-consistent Calculation

     iteration #  1     ecut=    29.40 Ry     beta= 0.05
     Davidson diagonalization with overlap
     c_bands:  3 eigenvalues not converged
     c_bands:  3 eigenvalues not converged
     c_bands:  1 eigenvalues not converged
     c_bands:  5 eigenvalues not converged
     c_bands:  5 eigenvalues not converged
     c_bands:  5 eigenvalues not converged
     c_bands:  1 eigenvalues not converged
     c_bands:  4 eigenvalues not converged
     c_bands:  3 eigenvalues not converged
     ethr =  1.00E-05,  avg # of iterations = 20.0

[...]

     total energy              =   -2442.73007098 Ry
     estimated scf accuracy    <    5591.56497900 Ry

     iteration #  2     ecut=    29.40 Ry     beta= 0.05
     Davidson diagonalization with overlap
     ethr =  1.00E-02,  avg # of iterations = 25.7

[...]

     iteration # 76     ecut=    29.40 Ry     beta= 0.05
     Davidson diagonalization with overlap
     c_bands:  1 eigenvalues not converged
     ethr =  3.87E-11,  avg # of iterations = 12.1

[...]

     total energy              =   -2942.82504343 Ry
     estimated scf accuracy    <       0.00000010 Ry

     iteration # 79     ecut=    29.40 Ry     beta= 0.05
     Davidson diagonalization with overlap
     ethr =  2.04E-11,  avg # of iterations =  2.6

     negative rho (up, down):  1.417E-02 0.000E+00

     Adding external electric field

     Computed dipole along edir(3) :
        Dipole                1.6035 Ry au,          4.0757 Debye
        Dipole field          0.0030 Ry au,

        Potential amp.       -0.2805 Ry
        Total length         46.3494 bohr

     End of self-consistent calculation

          k = 0.0000 0.0000 0.0000 ( 18029 PWs)   bands (ev):

   -55.1432 -55.1065 -55.1045 -55.0704 -55.0255 -55.0104 -54.9874 -54.9447
   -54.9322 -54.9238 -54.9096 -54.8992 -54.8639 -54.7930 -54.1168 -54.0827
   -31.7230 -31.5942 -31.5119 -31.4801 -31.4355 -31.4346 -31.4323 -31.4022
   -31.3984 -31.3945 -31.3678 -31.3529 -31.3494 -31.3208 -31.3030 -31.2779
   -31.2612 -31.2573 -31.2471 -31.2420 -31.2157 -31.2097 -31.2027 -31.1761
   -31.1614 -31.1548 -31.1478 -31.1406 -31.1401 -31.1289 -31.1269 -31.1206
   -31.1036 -31.0948 -31.0891 -31.0627 -31.0600 -31.0478 -31.0410 -31.0355
   -31.0246 -30.9825 -30.5254 -30.4333 -30.4111 -30.3419 -30.2552 -30.1442
   -18.9536 -16.0072 -15.7524 -15.6172 -15.3825 -15.3305 -15.2741 -15.0674
   -15.0651 -14.9931 -14.9782 -14.9298 -14.9103 -14.8431 -14.7584 -14.7378
   -14.6698 -14.6682 -14.6383 -14.6275 -14.6263 -14.5636 -14.5538 -14.5244
   -14.5114 -14.4862 -14.3679 -14.2836 -14.2251 -13.9739 -13.6029 -12.6193
   -12.5022  -9.7480  -7.7589  -7.2157  -5.4582  -3.8161  -3.3446  -3.2786
    -3.1690  -3.1408  -3.0639  -3.0345  -2.8497  -2.8285  -2.4871  -2.4493
    -2.4010  -2.3829  -2.3614  -2.3441  -2.1758  -2.1501  -2.0774  -2.0439
    -2.0253  -1.9852  -1.9688  -1.9585  -1.9249  -1.9194  -1.9102  -1.7029
    -1.6464  -1.5513  -1.5289  -1.5030  -1.4700  -1.4338  -1.4253  -1.4223
    -1.4164  -1.4028  -1.3901  -1.3100  -1.2504  -1.1707  -1.1613  -1.1256
    -1.0219  -0.9754  -0.7740  -0.7603  -0.7147  -0.6726  -0.6098  -0.5886
    -0.5220  -0.4913  -0.4714  -0.3503  -0.3216  -0.2817  -0.2536  -0.1865
    -0.1557  -0.1108  -0.0266   0.0451   0.0800   0.0985   0.1579   0.2882
     0.2993   0.3282   0.3896   0.4530   0.4940   0.5140   0.5325   0.5694
     0.6189   0.7445   0.7894   0.8090   0.8133   0.8473   0.8704   0.9215
     0.9462   1.0060   1.0116   1.1301   1.1994   1.4297   1.4631   1.4859
     1.8181   1.8417   1.9058   2.0919   2.4799   2.5272   3.9613   4.0219
     4.0788   4.0956   4.1144   4.2031   4.2243   4.4242   4.4515   4.4553
     4.4582

[...]

          k = 0.0380-0.0419 0.0000 ( 17876 PWs)   bands (ev):

[...]

          k =-0.0760-0.0000 0.0000 ( 17886 PWs)   bands (ev):

[...]

          k =-0.0760-0.0839 0.0000 ( 17948 PWs)   bands (ev):

   -55.1276 -55.1219 -55.0873 -55.0873 -55.0149 -55.0068 -54.9980 -54.9285
   -54.9271 -54.9246 -54.9169 -54.9153 -54.8602 -54.7967 -54.0998 -54.0996
   -31.5267 -31.5238 -31.4470 -31.4251 -31.4094 -31.4093 -31.3800 -31.3798
   -31.3541 -31.3485 -31.3456 -31.3449 -31.3106 -31.2761 -31.2695 -31.2651
   -31.2638 -31.2598 -31.2578 -31.2515 -31.2204 -31.2167 -31.2142 -31.2114
   -31.2067 -31.2067 -31.1930 -31.1908 -31.1633 -31.1586 -31.1431 -31.1392
   -31.1367 -31.1361 -31.1348 -31.1265 -31.1017 -31.0979 -31.0951 -31.0726
   -31.0472 -31.0300 -30.4239 -30.4237 -30.3380 -30.3378 -30.2986 -30.2986
   -18.9488 -15.5141 -15.4044 -15.2962 -15.2305 -15.1884 -15.1368 -15.1194
   -15.1090 -15.0635 -15.0338 -14.9647 -14.9006 -14.8478 -14.8468 -14.8120
   -14.7337 -14.7198 -14.7128 -14.7022 -14.6457 -14.6390 -14.6075 -14.5866
   -14.5835 -14.5537 -14.4799 -14.4774 -14.3902 -14.1826 -13.6387 -12.6039
   -12.6037  -9.7175  -7.7547  -7.1624  -5.4613  -3.8377  -3.4326  -2.7629
    -2.6519  -2.4412  -2.4152  -2.3553  -2.3348  -2.2493  -2.1891  -2.1675
    -2.1442  -2.1102  -2.1073  -2.0829  -2.0615  -2.0075  -1.9787  -1.9677
    -1.9616  -1.9468  -1.9342  -1.9139  -1.8574  -1.8474  -1.8400  -1.7977
    -1.7866  -1.7549  -1.7487  -1.7098  -1.6930  -1.6173  -1.5243  -1.4998
    -1.4405  -1.3394  -1.3257  -1.3200  -1.2269  -1.2183  -1.1889  -1.1580
    -1.1030  -1.0036  -0.9486  -0.8729  -0.8696  -0.8395  -0.7519  -0.6888
    -0.6551  -0.6453  -0.6060  -0.5487  -0.5258  -0.4924  -0.4094  -0.3680
    -0.3407  -0.3064  -0.2117  -0.1505  -0.1272  -0.0961  -0.0926  -0.0034
     0.0297   0.0666   0.0873   0.1255   0.1521   0.2178   0.2394   0.3495
     0.4190   0.4498   0.5687   0.5925   0.6567   0.7889   0.8602   0.9013
     0.9542   1.0116   1.0388   1.1692   1.1764   1.2022   1.2949   1.3352
     1.3421   1.3552   2.2646   2.2657   2.3472   2.3474   4.0933   4.1801
     4.2233   4.2608   4.3683   4.4777   4.4963   4.5393   4.5399   4.6152
     4.6211

     the Fermi energy is     4.0136 ev

!    total energy              =   -2942.82505164 Ry
     estimated scf accuracy    <       0.00000005 Ry
     smearing contrib. (-TS)   =      -0.03686330 Ry
     internal energy E=F+TS    =   -2942.78818835 Ry

     The total energy is F=E-TS. E is the sum of the following terms:
     one-electron contribution =  -23972.62151798 Ry
     hartree contribution      =   12081.80139199 Ry
     xc contribution           =    -487.77658245 Ry
     ewald contribution        =    9435.80366784 Ry
     electric field correction =       0.00485225 Ry

     convergence has been achieved in  79 iterations

     Forces acting on atoms (cartesian axes, Ry/au):

     atom    1 type  1   force =     0.00014780   -0.00023450    0.09426922
     atom    2 type  1   force =    -0.00009503   -0.00032996   -0.17739691
     atom    3 type  2   force =     0.00005729   -0.00016546   -0.02135995
     atom    4 type  2   force =    -0.00001575   -0.00172150    0.05657107
     atom    5 type  2   force =    -0.01054230   -0.00127459    0.00623689
     atom    6 type  2   force =     0.01220851   -0.00073922    0.00571108
     atom    7 type  1   force =    -0.00034155    0.00172532   -0.01622176
     atom    8 type  1   force =    -0.00010661    0.00438739    0.00559412
     atom    9 type  2   force =     0.00000687   -0.00004406   -0.00006352
     atom   10 type  2   force =    -0.00074462   -0.00021567   -0.00046150
     atom   11 type  2   force =     0.00034676    0.00012558   -0.00020239
     atom   12 type  2   force =    -0.00052443    0.00000622   -0.00013789
     atom   13 type  1   force =     0.00003216   -0.00033707    0.00019968
     atom   14 type  1   force =     0.00056866    0.00011695   -0.00029107
     atom   15 type  2   force =    -0.00040230    0.00024074   -0.00026979
     atom   16 type  2   force =    -0.00033493    0.00019565   -0.00007697
     atom   17 type  2   force =    -0.00023080    0.00006752    0.00035773
     atom   18 type  2   force =     0.00017559    0.00030931   -0.00017144
     atom   19 type  1   force =     0.00015212    0.00008538    0.00012728
     atom   20 type  1   force =     0.00012563    0.00061226   -0.00016865
     atom   21 type  2   force =     0.00003536    0.00004047    0.10361981
     atom   22 type  2   force =    -0.00009516   -0.00085373   -0.00039222
     atom   23 type  2   force =    -0.07081538   -0.00010948   -0.02719549
     atom   24 type  2   force =     0.07067637    0.00033521   -0.02722211
     atom   25 type  1   force =    -0.00009254   -0.00020964    0.09374978
     atom   26 type  1   force =    -0.00013750   -0.00031815   -0.17730427
     atom   27 type  2   force =     0.00008823   -0.00035378   -0.02046526
     atom   28 type  2   force =     0.00003079   -0.00143969    0.05588427
     atom   29 type  2   force =    -0.01090826   -0.00073878    0.00608999
     atom   30 type  2   force =     0.01245686   -0.00029635    0.00556596
     atom   31 type  1   force =    -0.00015861    0.00464730   -0.01719629
     atom   32 type  1   force =    -0.00002907   -0.00482277    0.00558912
     atom   33 type  2   force =     0.00005646    0.00012612    0.00025500
     atom   34 type  2   force =     0.00005794   -0.00085401   -0.00298013
     atom   35 type  2   force =     0.00023480    0.00002799    0.00006597
     atom   36 type  2   force =    -0.00043272    0.00015284   -0.00007533
     atom   37 type  1   force =    -0.00012925   -0.00011441   -0.00008950
     atom   38 type  1   force =     0.00044107   -0.00028538    0.00039921
     atom   39 type  2   force =    -0.00045397    0.00009508    0.00063946
     atom   40 type  2   force =    -0.00012026    0.00019070   -0.00021841
     atom   41 type  2   force =     0.00001539    0.00039233    0.00007266
     atom   42 type  2   force =    -0.00001502    0.00023021   -0.00011980
     atom   43 type  1   force =    -0.00041999    0.00055940    0.00006144
     atom   44 type  1   force =    -0.00019299    0.00022654   -0.00008106
     atom   45 type  2   force =     0.00002551    0.00000710    0.10362769
     atom   46 type  2   force =    -0.07081284   -0.00003599   -0.02718663
     atom   47 type  2   force =     0.07068191    0.00038638   -0.02719543
     atom   48 type  3   force =     0.00049937   -0.00135651   -0.00065708
     atom   49 type  4   force =    -0.00028488    0.00031940   -0.00035221
     atom   50 type  5   force =     0.00010072   -0.00005566    0.00008431
     atom   51 type  5   force =    -0.00024318   -0.00026686    0.00000622
     atom   52 type  5   force =    -0.00034968   -0.00001062    0.00013113
     atom   53 type  3   force =    -0.00151399   -0.00496276   -0.00612234
     atom   54 type  5   force =     0.00169843    0.00642831    0.00757008
     atom   55 type  5   force =    -0.00016363   -0.00058855   -0.00114288
     atom   56 type  5   force =    -0.00021336    0.00069744    0.00033914

     Total force =     0.365779     Total SCF correction =     0.000604
  @ DRIVER MODE: Message from server: STATUS
  @ DRIVER MODE: Message from server: GETFORCE
  @ DRIVER MODE: Returning v,forces,stress,ensemble

     Writing output data file ./calc.save/
  @ DRIVER MODE: Message from server: EXIT
  @ DRIVE MODE: Exiting

     General routines

     Parallel routines

   This run was terminated on:  23:35:20   2Aug2021

   JOB DONE.