     Program PWSCF v.6.7GPU starts on 15Sep2021 at 16:50:31

     R & G space division:  proc/nbgrp/npool/nimage =      10
     Reading input from /storage/home/hcoda1/3/ntian30/research/carbon/CxH_vib/H2O_calc/ads_slab/CH3NHNHH2O_a/out_0004/pw.inp
Warning: card &CELL ignored
Warning: card   CELL_DYNAMICS='IPI', ignored
Warning: card / ignored

     Current dimensions of program PWSCF are:
     Max number of different atomic species (ntypx) = 10
     Max number of k-points (npk) =  40000
     Max angular momentum in pseudopotentials (lmaxx) =  3
     Presently no symmetry can be used with electric field

     Message from routine cell_base_init:
     DEPRECATED: use true lattice parameter, not A to a.u. conversion factor

     IMPORTANT: XC functional enforced from input :
     Exchange-correlation= BEEF-VDW
                           (   1   4  43  14   2   0   0)
     Any further DFT definition will be discarded
     Please, verify this is what you really want

  @ DRIVER MODE: Connecting to
 qe_1139763_2852620.sched-torque.pace.gatech.edup4bjhbhh_scratch
  using UNIX socket
  @ DRIVER MODE: Message from server: STATUS
  @ DRIVER MODE: Message from server: INIT
  @ DRIVER MODE: Receiving replica           0          -1
  @ DRIVER MODE: Receiving encoded integer          25
  @ DRIVER MODE:  SCF:  T  FORCE:  T  STRESS:  F  VC:  F  ENSEMBLE:  F
  @ DRIVER MODE:  SCF:  T  FORCE:  T  STRESS:  F  VC:  F  ENSEMBLE:  F

     Using Slab Decomposition

     bravais-lattice index     =            0
     lattice parameter (alat)  =       1.8897  a.u.
     unit-cell volume          =    6658.9804 (a.u.)^3
     number of atoms/cell      =           58
     number of atomic types    =            5
     number of electrons       =       405.00
     number of Kohn-Sham states=          212
     kinetic-energy cutoff     =      29.3995  Ry
     charge density cutoff     =     293.9946  Ry
     scf convergence threshold =      7.3E-08
     mixing beta               =       0.0500
     number of iterations used =            8  plain     mixing
     Exchange-correlation= BEEF-VDW
                           (   1   4  43  14   2   0   0)

     celldm(1)=   1.889726  celldm(2)=   0.000000  celldm(3)=   0.000000
     celldm(4)=   0.000000  celldm(5)=   0.000000  celldm(6)=   0.000000

     crystal axes: (cart. coord. in units of alat)
               a(1) = (   6.579727   0.000000   0.000000 )
               a(2) = (  -0.000775   5.961596   0.000000 )
               a(3) = (   0.000000   0.000000  25.155947 )

     reciprocal axes: (cart. coord. in units 2 pi/alat)
               b(1) = (  0.151982  0.000020  0.000000 )
               b(2) = (  0.000000  0.167740  0.000000 )
               b(3) = (  0.000000  0.000000  0.039752 )

     PseudoPot. # 1 for Ti read from file:
     /storage/coda1/p-amedford6/0/shared/rich_project_chbe-medford/medford-share/data/pseudos_module/espresso/nninc/pbe/van/Ti.UPF
     MD5 check sum: 8e4df49b7f0d34bbd5052bf3f5ea0213
     Pseudo is Ultrasoft, Zval = 12.0
     Generated by new atomic code, or converted to UPF format
     Using radial grid of  851 points,  6 beta functions with:
                l(1) =   0
                l(2) =   0
                l(3) =   1
                l(4) =   1
                l(5) =   2
                l(6) =   2
     Q(r) pseudized with  8 coefficients,  rinner =    1.000   1.000   1.000
                                                       1.000   1.000

     PseudoPot. # 2 for O  read from file:
     /storage/coda1/p-amedford6/0/shared/rich_project_chbe-medford/medford-share/data/pseudos_module/espresso/nninc/pbe/van/O.UPF
     MD5 check sum: 78c19812648e8988a0fe644b0f25305e
     Pseudo is Ultrasoft, Zval =  6.0
     Generated by new atomic code, or converted to UPF format
     Using radial grid of  737 points,  4 beta functions with:
                l(1) =   0
                l(2) =   0
                l(3) =   1
                l(4) =   1
     Q(r) pseudized with  8 coefficients,  rinner =    0.800   0.800   0.800

     PseudoPot. # 3 for N  read from file:
     /storage/coda1/p-amedford6/0/shared/rich_project_chbe-medford/medford-share/data/pseudos_module/espresso/nninc/pbe/van/N.UPF
     MD5 check sum: 90d10febe142ad51ac9d5be1deb811c4
     Pseudo is Ultrasoft, Zval =  5.0
     Generated by new atomic code, or converted to UPF format
     Using radial grid of  729 points,  4 beta functions with:
                l(1) =   0
                l(2) =   0
                l(3) =   1
                l(4) =   1
     Q(r) pseudized with  8 coefficients,  rinner =    0.800   0.800   0.800

     PseudoPot. # 4 for C  read from file:
     /storage/coda1/p-amedford6/0/shared/rich_project_chbe-medford/medford-share/data/pseudos_module/espresso/nninc/pbe/van/C.UPF
     MD5 check sum: 1a69bf6b8db32088f5b2163dbdb77a27
     Pseudo is Ultrasoft, Zval =  4.0
     Generated by new atomic code, or converted to UPF format
     Using radial grid of  721 points,  4 beta functions with:
                l(1) =   0
                l(2) =   0
                l(3) =   1
                l(4) =   1
     Q(r) pseudized with  8 coefficients,  rinner =    0.800   0.800   0.800

     PseudoPot. # 5 for H  read from file:
     /storage/coda1/p-amedford6/0/shared/rich_project_chbe-medford/medford-share/data/pseudos_module/espresso/nninc/pbe/van/H.UPF
     MD5 check sum: b5ee9d7bfd3a09ee7748110bda690ff7
     Pseudo is Ultrasoft, Zval =  1.0
     Generated by new atomic code, or converted to UPF format
     Using radial grid of  615 points,  1 beta functions with:
                l(1) =   0
     Q(r) pseudized with  8 coefficients,  rinner =    0.800

     atomic species   valence    mass     pseudopotential
        Ti1           12.00    47.86700     Ti( 1.00)
        O1             6.00    15.99900     O ( 1.00)
        N1             5.00    14.00700     N ( 1.00)
        C1             4.00    12.01100     C ( 1.00)
        H1             1.00     1.00800     H ( 1.00)

     No symmetry found

   Cartesian axes

     site n.     atom                  positions (alat units)
         1           Ti1 tau(   1) = (   0.0004258   2.9801865   6.0000000  )
         2           Ti1 tau(   2) = (   3.2906075   1.4906267   6.0002472  )
         3           O1  tau(   3) = (   0.0006271   0.0005054   7.9858123  )
         4           O1  tau(   4) = (   3.2906025   0.0005020   7.3038282  )
         5           O1  tau(   5) = (   4.5942328   1.4918067   9.2879030  )
         6           O1  tau(   6) = (   1.9868534   1.4903216   9.2879459  )
         7           Ti1 tau(   7) = (   3.2907910   2.8959150   9.1758416  )
         8           Ti1 tau(   8) = (   0.0015273   1.4827037   9.2680791  )
         9           O1  tau(   9) = (   3.2925356   5.9605122  11.3387169  )
        10           O1  tau(  10) = (   0.0116148   5.9584955  10.6183126  )
        11           O1  tau(  11) = (   1.2897729   1.4809555  12.6268520  )
        12           O1  tau(  12) = (   5.2791511   1.4810064  12.6173870  )
        13           Ti1 tau(  13) = (   0.0595640   3.0140846  12.5912772  )
        14           Ti1 tau(  14) = (   3.3761946   1.4800080  12.4968112  )
        15           O1  tau(  15) = (   6.5629824   0.0009262  14.6613707  )
        16           O1  tau(  16) = (   3.3123588   5.9604043  13.9421911  )
        17           O1  tau(  17) = (   4.5376415   1.5680301  16.0260299  )
        18           O1  tau(  18) = (   2.0142527   1.4857506  15.9764776  )
        19           Ti1 tau(  19) = (   3.2467940   3.0138708  15.6952036  )
        20           Ti1 tau(  20) = (   6.5376764   1.5432071  15.7832198  )
        21           O1  tau(  21) = (   3.2904802   0.0005063   4.7018136  )
        22           O1  tau(  22) = (   6.4898080   0.0110182  17.2547379  )
        23           O1  tau(  23) = (   1.3043587   1.4918075   6.0039043  )
        24           O1  tau(  24) = (   5.2767064   1.4903225   6.0039473  )
        25           Ti1 tau(  25) = (   0.0000382   5.9609847   6.0000000  )
        26           Ti1 tau(  26) = (   3.2902200   4.4714249   6.0002472  )
        27           O1  tau(  27) = (   0.0002396   2.9813036   7.9858123  )
        28           O1  tau(  28) = (   3.2902150   2.9813002   7.3038282  )
        29           O1  tau(  29) = (   4.5938453   4.4726049   9.2879030  )
        30           O1  tau(  30) = (   1.9864658   4.4711199   9.2879459  )
        31           Ti1 tau(  31) = (   3.2891106   5.8743827   9.1763621  )
        32           Ti1 tau(  32) = (   0.0006254   4.4649316   9.2693709  )
        33           O1  tau(  33) = (   3.2967638   2.9790471  11.3409087  )
        34           O1  tau(  34) = (   0.0092240   2.9805883  10.6323155  )
        35           O1  tau(  35) = (   1.2869154   4.4778632  12.6304858  )
        36           O1  tau(  36) = (   5.2845859   4.4648683  12.6187650  )
        37           Ti1 tau(  37) = (   0.0627082   0.0241251  12.5486904  )
        38           Ti1 tau(  38) = (   3.3788516   4.4738568  12.4976958  )
        39           O1  tau(  39) = (   6.5772583   2.9562949  14.6416036  )
        40           O1  tau(  40) = (   3.2725681   2.9944745  13.9013672  )
        41           O1  tau(  41) = (   4.5452577   4.4055011  16.0651929  )
        42           O1  tau(  42) = (   2.0228361   4.5129635  16.0417754  )
        43           Ti1 tau(  43) = (   3.2583029   0.0391736  15.7773877  )
        44           Ti1 tau(  44) = (   6.5476622   4.6515957  16.1089089  )
        45           O1  tau(  45) = (   3.2900926   2.9813045   4.7018136  )
        46           O1  tau(  46) = (   1.3039711   4.4726057   6.0039043  )
        47           O1  tau(  47) = (   5.2763189   4.4711207   6.0039473  )
        48           N1  tau(  48) = (   1.2275869   2.8350850  18.3327965  )
        49           N1  tau(  49) = (   0.1007212   2.9268546  17.4424539  )
        50           C1  tau(  50) = (   0.9834745   3.5098297  19.5973225  )
        51           H1  tau(  51) = (   0.0800711   3.1483545  20.1177682  )
        52           H1  tau(  52) = (   1.8428167   3.3484677  20.2521386  )
        53           H1  tau(  53) = (   0.8645268   4.5787652  19.4145101  )
        54           H1  tau(  54) = (   1.4038961   1.8348574  18.5000659  )
        55           H1  tau(  55) = (   5.8167727   2.7947134  17.9807349  )
        56           O1  tau(  56) = (   3.6251350   0.0523402  18.1652986  )
        57           H1  tau(  57) = (   4.6063402   0.0342754  18.1216558  )
        58           H1  tau(  58) = (   3.3562690   5.1322054  18.4688733  )

     number of k points=    10  Fermi-Dirac smearing, width (Ry)=  0.0073
                       cart. coord. in units 2pi/alat
        k(    1) = (   0.0000000   0.0000000   0.0000000), wk =   0.1250000
        k(    2) = (   0.0000000   0.0419351   0.0000000), wk =   0.2500000
        k(    3) = (   0.0000000  -0.0838702   0.0000000), wk =   0.1250000
        k(    4) = (   0.0379955   0.0000049   0.0000000), wk =   0.2500000
        k(    5) = (   0.0379955   0.0419400   0.0000000), wk =   0.2500000
        k(    6) = (   0.0379955  -0.0838652   0.0000000), wk =   0.2500000
        k(    7) = (   0.0379955  -0.0419301   0.0000000), wk =   0.2500000
        k(    8) = (  -0.0759910  -0.0000099   0.0000000), wk =   0.1250000
        k(    9) = (  -0.0759910   0.0419252   0.0000000), wk =   0.2500000
        k(   10) = (  -0.0759910  -0.0838800   0.0000000), wk =   0.1250000

     Initial potential from superposition of free atoms

     starting charge  388.99913, renormalised to  405.00000

     negative rho (up, down):  1.445E-02 0.000E+00

     %%%%%%%%%%%%%%%%%%%%%%%%%%%%%%%%%%%%%%%%%%%%%%%%%%%%%%%%%%%%%%%%%%%%%%%%
     %                                                                      %
     % You are using vdW-DF, which was implemented by the Thonhauser group. %
     % Please cite the following two papers that made this development      %
     % possible and the two reviews that describe the various versions:     %
     %                                                                      %
     %   T. Thonhauser et al., PRL 115, 136402 (2015).                      %
     %   T. Thonhauser et al., PRB 76, 125112 (2007).                       %
     %   K. Berland et al., Rep. Prog. Phys. 78, 066501 (2015).             %
     %   D.C. Langreth et al., J. Phys.: Condens. Matter 21, 084203 (2009). %
     %                                                                      %
     %                                                                      %
     % If you are calculating the stress with vdW-DF, please also cite:     %
     %                                                                      %
     %   R. Sabatini et al., J. Phys.: Condens. Matter 24, 424209 (2012).   %
     %                                                                      %
     %%%%%%%%%%%%%%%%%%%%%%%%%%%%%%%%%%%%%%%%%%%%%%%%%%%%%%%%%%%%%%%%%%%%%%%%

     Adding external electric field

     Computed dipole along edir(3) :
        Dipole              -14.1501 Ry au,        -35.9660 Debye
        Dipole field         -0.0267 Ry au,

        Potential amp.        2.4753 Ry
        Total length         46.3494 bohr

     Starting wfcs are  307 atomic wfcs
  @ DRIVER MODE: Message from server: STATUS
  @ DRIVER MODE: Message from server: POSDATA
  @ DRIVER MODE: Reading and sharing cell
  @ DRIVER MODE: Reading and sharing positions
  @ DRIVER MODE: Received positions

     Self-consistent Calculation

     iteration #  1     ecut=    29.40 Ry     beta= 0.05
     Davidson diagonalization with overlap
     c_bands:  4 eigenvalues not converged
     c_bands:  1 eigenvalues not converged
     c_bands:  1 eigenvalues not converged
     c_bands:  3 eigenvalues not converged
     c_bands:  2 eigenvalues not converged
     ethr =  1.00E-05,  avg # of iterations = 29.4

[...]

     total energy              =   -2232.57859848 Ry
     estimated scf accuracy    <    8442.89341119 Ry

     iteration #  2     ecut=    29.40 Ry     beta= 0.05
     Davidson diagonalization with overlap
     ethr =  1.00E-02,  avg # of iterations = 29.6

[...]

     iteration # 63     ecut=    29.40 Ry     beta= 0.05
     Davidson diagonalization with overlap
     c_bands:  1 eigenvalues not converged
     ethr =  6.55E-11,  avg # of iterations = 16.4

[...]

     total energy              =   -2976.50529139 Ry
     estimated scf accuracy    <       0.00000009 Ry

     iteration # 64     ecut=    29.40 Ry     beta= 0.05
     Davidson diagonalization with overlap
     ethr =  2.16E-11,  avg # of iterations =  7.7

     negative rho (up, down):  1.504E-02 0.000E+00

     Adding external electric field

     Computed dipole along edir(3) :
        Dipole                0.9853 Ry au,          2.5043 Debye
        Dipole field          0.0019 Ry au,

        Potential amp.       -0.1724 Ry
        Total length         46.3494 bohr

     End of self-consistent calculation

          k = 0.0000 0.0000 0.0000 ( 18029 PWs)   bands (ev):

   -55.5106 -55.4811 -55.4766 -55.4476 -55.4450 -55.3594 -55.3284 -55.3269
   -55.3242 -55.2945 -55.2935 -55.2598 -55.0521 -54.8857 -54.4936 -54.4595
   -32.0255 -31.9942 -31.8836 -31.8606 -31.8265 -31.8032 -31.7854 -31.7837
   -31.7552 -31.7126 -31.7010 -31.6814 -31.6782 -31.6628 -31.6580 -31.6364
   -31.6160 -31.6113 -31.6107 -31.5778 -31.5676 -31.5594 -31.5334 -31.5215
   -31.5186 -31.5171 -31.5138 -31.5080 -31.4930 -31.4849 -31.4819 -31.4721
   -31.4696 -31.4579 -31.4469 -31.4375 -31.4057 -31.3079 -31.2622 -31.1491
   -31.1412 -31.0768 -30.9008 -30.8119 -30.7895 -30.7175 -30.6310 -30.5200
   -18.7224 -16.5684 -16.2216 -15.9840 -15.7623 -15.6684 -15.6264 -15.4295
   -15.3350 -15.2501 -15.1303 -15.0791 -15.0529 -15.0455 -15.0319 -15.0068
   -14.9725 -14.9663 -14.9630 -14.9387 -14.9195 -14.8682 -14.8621 -14.8553
   -14.7619 -14.6980 -14.6631 -14.6497 -14.6402 -14.5746 -14.2027 -12.9958
   -12.8792 -11.6562  -8.8330  -6.4605  -5.1430  -4.2997  -3.7099  -3.5965
    -3.4678  -3.4194  -3.3724  -3.3450  -3.1514  -3.0945  -2.9429  -2.7719
    -2.6985  -2.6600  -2.6269  -2.5873  -2.5552  -2.4341  -2.4081  -2.3323
    -2.3194  -2.3088  -2.2764  -2.2667  -2.2518  -2.2204  -2.1579  -2.1492
    -2.0624  -1.9503  -1.9012  -1.8863  -1.8674  -1.8257  -1.7888  -1.7749
    -1.7623  -1.7439  -1.7306  -1.6930  -1.5774  -1.5266  -1.4471  -1.3670
    -1.2965  -1.2103  -1.1321  -1.1032  -1.0364  -1.0113  -0.9512  -0.9268
    -0.9122  -0.9061  -0.7893  -0.6810  -0.6626  -0.5930  -0.5321  -0.4558
    -0.4129  -0.3866  -0.3154  -0.2837  -0.2727  -0.2593  -0.2333  -0.2180
    -0.1624  -0.0150   0.0623   0.0808   0.1393   0.1801   0.2317   0.2569
     0.2847   0.3325   0.3638   0.4040   0.4535   0.4576   0.4694   0.4935
     0.5076   0.6668   0.7218   0.7552   0.7807   0.8295   0.9418   0.9848
     1.1387   1.2049   1.2691   1.4549   1.5290   1.6095   1.7205   2.0654
     2.1002   2.1461   3.6147   3.7071   3.7480   3.7691   3.8560   3.8587
     4.0698   4.1143   4.1224   4.2617

[...]

          k = 0.0380-0.0419 0.0000 ( 17876 PWs)   bands (ev):

[...]

          k =-0.0760-0.0000 0.0000 ( 17886 PWs)   bands (ev):

[...]

          k =-0.0760-0.0839 0.0000 ( 17948 PWs)   bands (ev):

   -55.4940 -55.4931 -55.4652 -55.4608 -55.4450 -55.3451 -55.3385 -55.3293
   -55.3115 -55.3109 -55.2779 -55.2756 -55.0506 -54.8871 -54.4765 -54.4764
   -31.8390 -31.8222 -31.8099 -31.8090 -31.7891 -31.7881 -31.7489 -31.7415
   -31.7335 -31.7054 -31.6944 -31.6754 -31.6598 -31.6581 -31.6323 -31.6305
   -31.6280 -31.6258 -31.6180 -31.6168 -31.6142 -31.6128 -31.6122 -31.5609
   -31.5526 -31.5461 -31.5382 -31.5278 -31.5132 -31.5122 -31.5081 -31.5035
   -31.4933 -31.4907 -31.4853 -31.4833 -31.4129 -31.3107 -31.2576 -31.2109
   -31.1516 -31.1044 -30.8023 -30.8022 -30.7136 -30.7135 -30.6743 -30.6743
   -18.7210 -16.5455 -15.6585 -15.5874 -15.4711 -15.4420 -15.3827 -15.3325
   -15.3150 -15.2458 -15.2095 -15.1969 -15.1454 -15.1428 -15.0947 -15.0708
   -15.0440 -15.0403 -15.0252 -14.9827 -14.9719 -14.9564 -14.9525 -14.9488
   -14.8717 -14.8358 -14.8318 -14.8271 -14.7578 -14.6241 -14.3517 -12.9810
   -12.9810 -11.6631  -8.8420  -6.4563  -5.1466  -4.2950  -3.6546  -3.0822
    -2.9438  -2.7857  -2.7203  -2.6396  -2.6388  -2.5963  -2.4674  -2.4461
    -2.4053  -2.3803  -2.3484  -2.3397  -2.3303  -2.3184  -2.3123  -2.3000
    -2.2874  -2.2472  -2.2027  -2.1870  -2.1787  -2.1738  -2.1591  -2.1458
    -2.1301  -2.1275  -2.0917  -2.0624  -2.0352  -1.9981  -1.9461  -1.7457
    -1.7179  -1.6970  -1.6675  -1.6573  -1.6455  -1.6124  -1.5734  -1.5634
    -1.4912  -1.4036  -1.3151  -1.2371  -1.2042  -1.1914  -1.1220  -1.0362
    -0.9952  -0.9562  -0.9189  -0.8586  -0.7995  -0.7621  -0.7241  -0.6435
    -0.6237  -0.6149  -0.5537  -0.5370  -0.4767  -0.4684  -0.3906  -0.3493
    -0.3122  -0.2654  -0.2378  -0.2322  -0.2133  -0.1788  -0.1710  -0.1172
    -0.0010   0.0077   0.0272   0.1326   0.2209   0.4601   0.5166   0.5495
     0.6297   0.6922   0.7541   0.7742   0.7964   0.8004   0.8364   0.8971
     1.0107   1.0209   1.0595   1.1474   1.1713   1.8921   1.8930   1.9658
     1.9660   2.0676   3.9265   3.9527   3.9786   4.0144   4.1153   4.1325
     4.1550   4.1570   4.2708   4.2911

     the Fermi energy is     3.6199 ev

!    total energy              =   -2976.50536191 Ry
     estimated scf accuracy    <       0.00000005 Ry
     smearing contrib. (-TS)   =      -0.02132355 Ry
     internal energy E=F+TS    =   -2976.48403836 Ry

     The total energy is F=E-TS. E is the sum of the following terms:
     one-electron contribution =  -23892.27605916 Ry
     hartree contribution      =   12042.65724781 Ry
     xc contribution           =    -495.75130977 Ry
     ewald contribution        =    9368.88425078 Ry
     electric field correction =       0.00183198 Ry

     convergence has been achieved in  64 iterations

     Forces acting on atoms (cartesian axes, Ry/au):

     atom    1 type  1   force =     0.00014746   -0.00027875    0.09587569
     atom    2 type  1   force =    -0.00023644   -0.00063059   -0.17571609
     atom    3 type  2   force =     0.00005979   -0.00014851   -0.02381817
     atom    4 type  2   force =     0.00006472   -0.00154429    0.05353039
     atom    5 type  2   force =    -0.01128134   -0.00076063    0.00356741
     atom    6 type  2   force =     0.01298164    0.00006006    0.00269406
     atom    7 type  1   force =    -0.00096356    0.00065275   -0.00794845
     atom    8 type  1   force =     0.00042790    0.00625143    0.02301233
     atom    9 type  2   force =    -0.00005124   -0.00031310   -0.00093306
     atom   10 type  2   force =    -0.00136881    0.00127796   -0.01513888
     atom   11 type  2   force =    -0.00029832    0.00025069   -0.00024096
     atom   12 type  2   force =    -0.00023048    0.00022675   -0.00034054
     atom   13 type  1   force =     0.00075022   -0.00047234    0.00027830
     atom   14 type  1   force =    -0.00018448    0.00041584    0.00151201
     atom   15 type  2   force =    -0.00001192    0.00013377    0.00026802
     atom   16 type  2   force =     0.00025744    0.00006615    0.00010018
     atom   17 type  2   force =     0.00072032   -0.00020217    0.00038467
     atom   18 type  2   force =     0.00012771   -0.00032308    0.00057484
     atom   19 type  1   force =    -0.00120885    0.00032608    0.00052820
     atom   20 type  1   force =     0.00084773   -0.00010242    0.00008939
     atom   21 type  2   force =     0.00008900   -0.00009318    0.10322360
     atom   22 type  2   force =    -0.00066992   -0.00046522   -0.00064626
     atom   23 type  2   force =    -0.07138410   -0.00019076   -0.02768935
     atom   24 type  2   force =     0.07135366    0.00027190   -0.02769464
     atom   25 type  1   force =     0.00001630   -0.00030091    0.09558399
     atom   26 type  1   force =    -0.00017706   -0.00030478   -0.17597993
     atom   27 type  2   force =     0.00009806   -0.00011890   -0.02291895
     atom   28 type  2   force =     0.00011366   -0.00127294    0.05317574
     atom   29 type  2   force =    -0.01152549    0.00015180    0.00362682
     atom   30 type  2   force =     0.01317856    0.00046570    0.00271656
     atom   31 type  1   force =    -0.00100662    0.00372990   -0.01106748
     atom   32 type  1   force =     0.00051565   -0.00742055    0.02341042
     atom   33 type  2   force =    -0.00023825    0.00031687   -0.00030103
     atom   34 type  2   force =    -0.00033250    0.00024742   -0.02186353
     atom   35 type  2   force =     0.00011654    0.00030543   -0.00037590
     atom   36 type  2   force =    -0.00038863    0.00030431   -0.00029741
     atom   37 type  1   force =     0.00040935    0.00055784   -0.00028118
     atom   38 type  1   force =    -0.00022713   -0.00041736    0.00133288
     atom   39 type  2   force =    -0.00005617   -0.00028129    0.00032730
     atom   40 type  2   force =     0.00033087    0.00007507   -0.00083916
     atom   41 type  2   force =     0.00108869    0.00052771    0.00007168
     atom   42 type  2   force =    -0.00064201    0.00038424   -0.00017514
     atom   43 type  1   force =    -0.00095821   -0.00120372   -0.00004881
     atom   44 type  1   force =     0.00066541    0.00051317   -0.00017172
     atom   45 type  2   force =     0.00008800   -0.00009839    0.10322123
     atom   46 type  2   force =    -0.07139516   -0.00012979   -0.02767348
     atom   47 type  2   force =     0.07139514    0.00030069   -0.02770222
     atom   48 type  3   force =     0.00366622   -0.02227449   -0.00152749
     atom   49 type  3   force =    -0.00192267    0.00284329   -0.00086869
     atom   50 type  4   force =    -0.00170990    0.00467634    0.00254255
     atom   51 type  5   force =    -0.00004772    0.00043197    0.00006776
     atom   52 type  5   force =    -0.00042384   -0.00034337   -0.00022159
     atom   53 type  5   force =     0.00002910    0.00030034    0.00172344
     atom   54 type  5   force =    -0.00082949    0.01402317   -0.00212044
     atom   55 type  5   force =     0.00022602   -0.00012235    0.00063611
     atom   56 type  2   force =    -0.00070175   -0.00004322   -0.00007202
     atom   57 type  5   force =     0.00075585   -0.00005958   -0.00000512
     atom   58 type  5   force =    -0.00004894   -0.00017196    0.00060215

     Total force =     0.367741     Total SCF correction =     0.000393
  @ DRIVER MODE: Message from server: STATUS
  @ DRIVER MODE: Message from server: GETFORCE
  @ DRIVER MODE: Returning v,forces,stress,ensemble

     Writing output data file ./calc.save/
  @ DRIVER MODE: Message from server: EXIT
  @ DRIVE MODE: Exiting

     General routines

     Parallel routines

   This run was terminated on:  17:10:25  15Sep2021

   JOB DONE.