     Program PWSCF v.6.7GPU starts on 16Sep2021 at  7: 5:49

     R & G space division:  proc/nbgrp/npool/nimage =      10
     Reading input from /storage/home/hcoda1/3/ntian30/research/carbon/CxH_vib/H2O_calc/ads_slab/CH2NHH2O_a/out_0046/pw.inp
Warning: card &CELL ignored
Warning: card   CELL_DYNAMICS='IPI', ignored
Warning: card / ignored

     Current dimensions of program PWSCF are:
     Max number of different atomic species (ntypx) = 10
     Max number of k-points (npk) =  40000
     Max angular momentum in pseudopotentials (lmaxx) =  3
     Presently no symmetry can be used with electric field

     Message from routine cell_base_init:
     DEPRECATED: use true lattice parameter, not A to a.u. conversion factor

     IMPORTANT: XC functional enforced from input :
     Exchange-correlation= BEEF-VDW
                           (   1   4  43  14   2   0   0)
     Any further DFT definition will be discarded
     Please, verify this is what you really want

  @ DRIVER MODE: Connecting to
 qe_1139763_2852608.sched-torque.pace.gatech.edu5he8ihfx_scratch
  using UNIX socket
  @ DRIVER MODE: Message from server: STATUS
  @ DRIVER MODE: Message from server: INIT
  @ DRIVER MODE: Receiving replica           0          -1
  @ DRIVER MODE: Receiving encoded integer          25
  @ DRIVER MODE:  SCF:  T  FORCE:  T  STRESS:  F  VC:  F  ENSEMBLE:  F
  @ DRIVER MODE:  SCF:  T  FORCE:  T  STRESS:  F  VC:  F  ENSEMBLE:  F

     Using Slab Decomposition

     bravais-lattice index     =            0
     lattice parameter (alat)  =       1.8897  a.u.
     unit-cell volume          =    6658.9804 (a.u.)^3
     number of atoms/cell      =           55
     number of atomic types    =            5
     number of electrons       =       398.00
     number of Kohn-Sham states=          209
     kinetic-energy cutoff     =      29.3995  Ry
     charge density cutoff     =     293.9946  Ry
     scf convergence threshold =      7.3E-08
     mixing beta               =       0.0500
     number of iterations used =            8  plain     mixing
     Exchange-correlation= BEEF-VDW
                           (   1   4  43  14   2   0   0)

     celldm(1)=   1.889726  celldm(2)=   0.000000  celldm(3)=   0.000000
     celldm(4)=   0.000000  celldm(5)=   0.000000  celldm(6)=   0.000000

     crystal axes: (cart. coord. in units of alat)
               a(1) = (   6.579727   0.000000   0.000000 )
               a(2) = (  -0.000775   5.961596   0.000000 )
               a(3) = (   0.000000   0.000000  25.155947 )

     reciprocal axes: (cart. coord. in units 2 pi/alat)
               b(1) = (  0.151982  0.000020  0.000000 )
               b(2) = (  0.000000  0.167740  0.000000 )
               b(3) = (  0.000000  0.000000  0.039752 )

     PseudoPot. # 1 for Ti read from file:
     /storage/coda1/p-amedford6/0/shared/rich_project_chbe-medford/medford-share/data/pseudos_module/espresso/nninc/pbe/van/Ti.UPF
     MD5 check sum: 8e4df49b7f0d34bbd5052bf3f5ea0213
     Pseudo is Ultrasoft, Zval = 12.0
     Generated by new atomic code, or converted to UPF format
     Using radial grid of  851 points,  6 beta functions with:
                l(1) =   0
                l(2) =   0
                l(3) =   1
                l(4) =   1
                l(5) =   2
                l(6) =   2
     Q(r) pseudized with  8 coefficients,  rinner =    1.000   1.000   1.000
                                                       1.000   1.000

     PseudoPot. # 2 for O  read from file:
     /storage/coda1/p-amedford6/0/shared/rich_project_chbe-medford/medford-share/data/pseudos_module/espresso/nninc/pbe/van/O.UPF
     MD5 check sum: 78c19812648e8988a0fe644b0f25305e
     Pseudo is Ultrasoft, Zval =  6.0
     Generated by new atomic code, or converted to UPF format
     Using radial grid of  737 points,  4 beta functions with:
                l(1) =   0
                l(2) =   0
                l(3) =   1
                l(4) =   1
     Q(r) pseudized with  8 coefficients,  rinner =    0.800   0.800   0.800

     PseudoPot. # 3 for N  read from file:
     /storage/coda1/p-amedford6/0/shared/rich_project_chbe-medford/medford-share/data/pseudos_module/espresso/nninc/pbe/van/N.UPF
     MD5 check sum: 90d10febe142ad51ac9d5be1deb811c4
     Pseudo is Ultrasoft, Zval =  5.0
     Generated by new atomic code, or converted to UPF format
     Using radial grid of  729 points,  4 beta functions with:
                l(1) =   0
                l(2) =   0
                l(3) =   1
                l(4) =   1
     Q(r) pseudized with  8 coefficients,  rinner =    0.800   0.800   0.800

     PseudoPot. # 4 for C  read from file:
     /storage/coda1/p-amedford6/0/shared/rich_project_chbe-medford/medford-share/data/pseudos_module/espresso/nninc/pbe/van/C.UPF
     MD5 check sum: 1a69bf6b8db32088f5b2163dbdb77a27
     Pseudo is Ultrasoft, Zval =  4.0
     Generated by new atomic code, or converted to UPF format
     Using radial grid of  721 points,  4 beta functions with:
                l(1) =   0
                l(2) =   0
                l(3) =   1
                l(4) =   1
     Q(r) pseudized with  8 coefficients,  rinner =    0.800   0.800   0.800

     PseudoPot. # 5 for H  read from file:
     /storage/coda1/p-amedford6/0/shared/rich_project_chbe-medford/medford-share/data/pseudos_module/espresso/nninc/pbe/van/H.UPF
     MD5 check sum: b5ee9d7bfd3a09ee7748110bda690ff7
     Pseudo is Ultrasoft, Zval =  1.0
     Generated by new atomic code, or converted to UPF format
     Using radial grid of  615 points,  1 beta functions with:
                l(1) =   0
     Q(r) pseudized with  8 coefficients,  rinner =    0.800

     atomic species   valence    mass     pseudopotential
        Ti1           12.00    47.86700     Ti( 1.00)
        O1             6.00    15.99900     O ( 1.00)
        N1             5.00    14.00700     N ( 1.00)
        C1             4.00    12.01100     C ( 1.00)
        H1             1.00     1.00800     H ( 1.00)

     No symmetry found

   Cartesian axes

     site n.     atom                  positions (alat units)
         1           Ti1 tau(   1) = (   0.0004258   2.9801865   6.0000000  )
         2           Ti1 tau(   2) = (   3.2906075   1.4906267   6.0002472  )
         3           O1  tau(   3) = (   0.0006271   0.0005054   7.9858123  )
         4           O1  tau(   4) = (   3.2906025   0.0005020   7.3038282  )
         5           O1  tau(   5) = (   4.5942328   1.4918067   9.2879030  )
         6           O1  tau(   6) = (   1.9868534   1.4903216   9.2879459  )
         7           Ti1 tau(   7) = (   3.2907910   2.8959150   9.1758416  )
         8           Ti1 tau(   8) = (   0.0015273   1.4827037   9.2680791  )
         9           O1  tau(   9) = (   3.2898722   0.0008919  11.3582996  )
        10           O1  tau(  10) = (   0.0116148   5.9584955  10.6183126  )
        11           O1  tau(  11) = (   1.2941175   1.4997011  12.6415926  )
        12           O1  tau(  12) = (   5.2900041   1.4988670  12.6311679  )
        13           Ti1 tau(  13) = (   0.0286627   2.9677426  12.5549903  )
        14           Ti1 tau(  14) = (   3.3305619   1.4761135  12.5169476  )
        15           O1  tau(  15) = (   0.0011522   0.0488603  14.6479508  )
        16           O1  tau(  16) = (   3.3026717   0.0283160  13.9913086  )
        17           O1  tau(  17) = (   4.5493611   1.5432082  16.1208237  )
        18           O1  tau(  18) = (   2.0202358   1.5417912  16.1150647  )
        19           Ti1 tau(  19) = (   3.2887705   3.0075965  15.7001020  )
        20           Ti1 tau(  20) = (   0.0091052   1.4341126  16.0176487  )
        21           O1  tau(  21) = (   3.2904802   0.0005063   4.7018136  )
        22           O1  tau(  22) = (   6.5755782   5.8726442  17.1894482  )
        23           O1  tau(  23) = (   1.3043587   1.4918075   6.0039043  )
        24           O1  tau(  24) = (   5.2767064   1.4903225   6.0039473  )
        25           Ti1 tau(  25) = (   0.0000382   5.9609847   6.0000000  )
        26           Ti1 tau(  26) = (   3.2902200   4.4714249   6.0002472  )
        27           O1  tau(  27) = (   0.0002396   2.9813036   7.9858123  )
        28           O1  tau(  28) = (   3.2902150   2.9813002   7.3038282  )
        29           O1  tau(  29) = (   4.5938453   4.4726049   9.2879030  )
        30           O1  tau(  30) = (   1.9864658   4.4711199   9.2879459  )
        31           Ti1 tau(  31) = (   3.2891106   5.8743827   9.1763621  )
        32           Ti1 tau(  32) = (   0.0006254   4.4649316   9.2693709  )
        33           O1  tau(  33) = (   3.2934734   2.9861727  11.3537610  )
        34           O1  tau(  34) = (   0.0092240   2.9805883  10.6323155  )
        35           O1  tau(  35) = (   1.2909626   4.4766429  12.6619247  )
        36           O1  tau(  36) = (   5.2900193   4.4803912  12.6490267  )
        37           Ti1 tau(  37) = (   0.0281377   5.9553508  12.5047683  )
        38           Ti1 tau(  38) = (   3.3302429   4.4653876  12.5079491  )
        39           O1  tau(  39) = (   6.5693844   2.9599090  14.8264494  )
        40           O1  tau(  40) = (   3.2969629   2.9925989  13.9157470  )
        41           O1  tau(  41) = (   4.5484520   4.4472025  16.1223275  )
        42           O1  tau(  42) = (   2.0280084   4.4594140  16.0867804  )
        43           Ti1 tau(  43) = (   3.2969344   0.0408593  15.8189202  )
        44           Ti1 tau(  44) = (   0.0203989   4.6198729  15.8219907  )
        45           O1  tau(  45) = (   3.2900926   2.9813045   4.7018136  )
        46           O1  tau(  46) = (   1.3039711   4.4726057   6.0039043  )
        47           O1  tau(  47) = (   5.2763189   4.4711207   6.0039473  )
        48           N1  tau(  48) = (   6.4956655   2.7544209  17.8339637  )
        49           C1  tau(  49) = (   0.7364952   2.7663736  18.8366375  )
        50           H1  tau(  50) = (   0.4484493   3.1383336  19.8159577  )
        51           H1  tau(  51) = (   1.7396475   2.3816028  18.7013769  )
        52           H1  tau(  52) = (   5.5670006   3.0916272  18.0761613  )
        53           O1  tau(  53) = (   3.3072362   0.1002980  18.2711691  )
        54           H1  tau(  54) = (   4.1501014   5.6086691  18.4387546  )
        55           H1  tau(  55) = (   2.5909652   5.4578326  18.5068232  )

     number of k points=    10  Fermi-Dirac smearing, width (Ry)=  0.0073
                       cart. coord. in units 2pi/alat
        k(    1) = (   0.0000000   0.0000000   0.0000000), wk =   0.1250000
        k(    2) = (   0.0000000   0.0419351   0.0000000), wk =   0.2500000
        k(    3) = (   0.0000000  -0.0838702   0.0000000), wk =   0.1250000
        k(    4) = (   0.0379955   0.0000049   0.0000000), wk =   0.2500000
        k(    5) = (   0.0379955   0.0419400   0.0000000), wk =   0.2500000
        k(    6) = (   0.0379955  -0.0838652   0.0000000), wk =   0.2500000
        k(    7) = (   0.0379955  -0.0419301   0.0000000), wk =   0.2500000
        k(    8) = (  -0.0759910  -0.0000099   0.0000000), wk =   0.1250000
        k(    9) = (  -0.0759910   0.0419252   0.0000000), wk =   0.2500000
        k(   10) = (  -0.0759910  -0.0838800   0.0000000), wk =   0.1250000

     Initial potential from superposition of free atoms

     starting charge  381.99915, renormalised to  398.00000

     negative rho (up, down):  1.643E-02 0.000E+00

     %%%%%%%%%%%%%%%%%%%%%%%%%%%%%%%%%%%%%%%%%%%%%%%%%%%%%%%%%%%%%%%%%%%%%%%%
     %                                                                      %
     % You are using vdW-DF, which was implemented by the Thonhauser group. %
     % Please cite the following two papers that made this development      %
     % possible and the two reviews that describe the various versions:     %
     %                                                                      %
     %   T. Thonhauser et al., PRL 115, 136402 (2015).                      %
     %   T. Thonhauser et al., PRB 76, 125112 (2007).                       %
     %   K. Berland et al., Rep. Prog. Phys. 78, 066501 (2015).             %
     %   D.C. Langreth et al., J. Phys.: Condens. Matter 21, 084203 (2009). %
     %                                                                      %
     %                                                                      %
     % If you are calculating the stress with vdW-DF, please also cite:     %
     %                                                                      %
     %   R. Sabatini et al., J. Phys.: Condens. Matter 24, 424209 (2012).   %
     %                                                                      %
     %%%%%%%%%%%%%%%%%%%%%%%%%%%%%%%%%%%%%%%%%%%%%%%%%%%%%%%%%%%%%%%%%%%%%%%%

     Adding external electric field

     Computed dipole along edir(3) :
        Dipole              -10.4007 Ry au,        -26.4360 Debye
        Dipole field         -0.0196 Ry au,

        Potential amp.        1.8194 Ry
        Total length         46.3494 bohr

     Starting wfcs are  301 atomic wfcs
  @ DRIVER MODE: Message from server: STATUS
  @ DRIVER MODE: Message from server: POSDATA
  @ DRIVER MODE: Reading and sharing cell
  @ DRIVER MODE: Reading and sharing positions
  @ DRIVER MODE: Received positions

     Self-consistent Calculation

     iteration #  1     ecut=    29.40 Ry     beta= 0.05
     Davidson diagonalization with overlap
     c_bands:  3 eigenvalues not converged
     c_bands:  3 eigenvalues not converged
     c_bands:  1 eigenvalues not converged
     c_bands:  4 eigenvalues not converged
     c_bands:  4 eigenvalues not converged
     c_bands:  4 eigenvalues not converged
     c_bands:  2 eigenvalues not converged
     c_bands:  3 eigenvalues not converged
     c_bands:  2 eigenvalues not converged
     ethr =  1.00E-05,  avg # of iterations = 19.9

[...]

     total energy              =   -2485.30796391 Ry
     estimated scf accuracy    <    5245.67276195 Ry

     iteration #  2     ecut=    29.40 Ry     beta= 0.05
     Davidson diagonalization with overlap
     ethr =  1.00E-02,  avg # of iterations = 24.5

[...]

     iteration # 73     ecut=    29.40 Ry     beta= 0.05
     Davidson diagonalization with overlap
     c_bands:  1 eigenvalues not converged
     c_bands:  2 eigenvalues not converged
     c_bands:  1 eigenvalues not converged
     ethr =  8.08E-10,  avg # of iterations = 17.1

[...]

     total energy              =   -2953.94953895 Ry
     estimated scf accuracy    <       0.00000019 Ry

     iteration # 81     ecut=    29.40 Ry     beta= 0.05
     Davidson diagonalization with overlap
     ethr =  4.09E-11,  avg # of iterations =  5.2

     negative rho (up, down):  1.568E-02 0.000E+00

     Adding external electric field

     Computed dipole along edir(3) :
        Dipole                1.2817 Ry au,          3.2578 Debye
        Dipole field          0.0024 Ry au,

        Potential amp.       -0.2242 Ry
        Total length         46.3494 bohr

     End of self-consistent calculation

          k = 0.0000 0.0000 0.0000 ( 18029 PWs)   bands (ev):

   -55.3916 -55.3715 -55.3555 -55.3388 -55.3374 -55.2715 -55.2270 -55.2066
   -55.1968 -55.1882 -55.1709 -55.1643 -55.1217 -54.9939 -54.3818 -54.3478
   -31.9519 -31.8607 -31.7594 -31.7452 -31.6996 -31.6970 -31.6951 -31.6616
   -31.6554 -31.6222 -31.6161 -31.6053 -31.5856 -31.5686 -31.5680 -31.5337
   -31.5310 -31.5242 -31.5098 -31.5071 -31.4823 -31.4550 -31.4520 -31.4346
   -31.4285 -31.4056 -31.4045 -31.4015 -31.3999 -31.3932 -31.3736 -31.3670
   -31.3612 -31.3564 -31.3472 -31.3305 -31.3279 -31.3213 -31.3040 -31.2935
   -31.2205 -31.1076 -30.7903 -30.6984 -30.6762 -30.6067 -30.5201 -30.4091
   -19.1956 -16.2518 -16.1574 -15.9137 -15.7330 -15.6442 -15.5822 -15.3929
   -15.3516 -15.2608 -15.1779 -15.0863 -15.0319 -14.9882 -14.9784 -14.9574
   -14.9315 -14.9215 -14.8837 -14.8692 -14.8675 -14.8205 -14.8184 -14.7796
   -14.7707 -14.7267 -14.7049 -14.5960 -14.5400 -14.4857 -14.0589 -12.8838
   -12.7667  -9.0952  -7.0333  -5.9826  -4.4637  -3.5494  -3.3973  -3.3884
    -3.3016  -3.2952  -3.2245  -3.1169  -2.9272  -2.7736  -2.6875  -2.6439
    -2.5927  -2.5683  -2.5097  -2.4557  -2.3607  -2.2895  -2.2593  -2.2264
    -2.2088  -2.1898  -2.1660  -2.1422  -2.1031  -2.0780  -2.0415  -1.9392
    -1.8531  -1.7995  -1.7848  -1.7142  -1.6915  -1.6855  -1.6777  -1.6675
    -1.6633  -1.6551  -1.6022  -1.5794  -1.5371  -1.4093  -1.3390  -1.2341
    -1.1216  -1.0712  -1.0305  -1.0121  -0.9245  -0.9189  -0.8637  -0.7872
    -0.7545  -0.7137  -0.7010  -0.5737  -0.4916  -0.4820  -0.4297  -0.3559
    -0.2979  -0.2572  -0.2010  -0.1764  -0.1539  -0.1372   0.0030   0.0356
     0.0792   0.1073   0.1359   0.2108   0.2476   0.3098   0.3574   0.3649
     0.4125   0.4991   0.5127   0.5626   0.5668   0.6114   0.6304   0.7260
     0.7610   0.7697   0.8354   0.8692   1.0120   1.2283   1.2352   1.2830
     1.5560   1.6177   1.6412   1.8281   2.2152   2.2624   3.7022   3.7931
     3.8321   3.8507   3.8635   3.9379   4.0772   4.1927   4.1971   4.2269
     4.2402

[...]

          k = 0.0380-0.0419 0.0000 ( 17876 PWs)   bands (ev):

[...]

          k =-0.0760-0.0000 0.0000 ( 17886 PWs)   bands (ev):

[...]

          k =-0.0760-0.0839 0.0000 ( 17948 PWs)   bands (ev):

   -55.3754 -55.3715 -55.3545 -55.3543 -55.3368 -55.2635 -55.2351 -55.1906
   -55.1900 -55.1854 -55.1815 -55.1808 -55.1194 -54.9962 -54.3648 -54.3647
   -31.7617 -31.7507 -31.6759 -31.6758 -31.6591 -31.6483 -31.6470 -31.6469
   -31.6198 -31.6080 -31.5897 -31.5857 -31.5783 -31.5594 -31.5399 -31.5251
   -31.5239 -31.5207 -31.5164 -31.5116 -31.5058 -31.4935 -31.4740 -31.4737
   -31.4676 -31.4660 -31.4642 -31.4341 -31.4230 -31.4153 -31.4049 -31.4011
   -31.4003 -31.3999 -31.3887 -31.3831 -31.3609 -31.3592 -31.3389 -31.2895
   -31.2240 -31.1934 -30.6888 -30.6888 -30.6029 -30.6028 -30.5635 -30.5634
   -19.1948 -16.1944 -15.6504 -15.5913 -15.5210 -15.3661 -15.3601 -15.3350
   -15.2732 -15.1748 -15.1613 -15.1291 -15.1214 -15.0868 -15.0754 -15.0550
   -15.0338 -14.9612 -14.9531 -14.9484 -14.9257 -14.8943 -14.8795 -14.8707
   -14.8487 -14.8441 -14.7886 -14.7416 -14.7386 -14.5476 -14.3543 -12.8685
   -12.8682  -9.1005  -7.0316  -5.9812  -4.4455  -3.3238  -2.9259  -2.7955
    -2.7434  -2.5939  -2.5667  -2.5194  -2.4621  -2.4018  -2.3747  -2.3559
    -2.3077  -2.3017  -2.2543  -2.2408  -2.2200  -2.2187  -2.2097  -2.1634
    -2.1467  -2.1397  -2.1200  -2.1049  -2.0939  -2.0751  -2.0467  -2.0373
    -2.0031  -1.9727  -1.9591  -1.9370  -1.8824  -1.7666  -1.7367  -1.6938
    -1.5825  -1.5746  -1.5689  -1.5275  -1.4806  -1.4760  -1.4468  -1.4174
    -1.3486  -1.3209  -1.1296  -1.1173  -1.1038  -1.0383  -1.0122  -0.9142
    -0.8955  -0.8285  -0.8111  -0.7961  -0.7096  -0.6784  -0.5732  -0.5648
    -0.5484  -0.5137  -0.4072  -0.3592  -0.3512  -0.3465  -0.3252  -0.2418
    -0.2269  -0.2090  -0.1750  -0.1469  -0.1135  -0.1001  -0.0165   0.1535
     0.1633   0.2509   0.3508   0.4448   0.5659   0.6365   0.6455   0.7004
     0.7435   0.8248   0.8685   0.9063   0.9256   1.0367   1.0685   1.0850
     1.0915   1.1469   2.0003   2.0017   2.0823   2.0826   3.7828   3.9324
     4.0016   4.0188   4.0587   4.1845   4.2237   4.2756   4.2773   4.2823
     4.3691

     the Fermi energy is     3.7480 ev

!    total energy              =   -2953.94954956 Ry
     estimated scf accuracy    <       0.00000006 Ry
     smearing contrib. (-TS)   =      -0.03632059 Ry
     internal energy E=F+TS    =   -2953.91322897 Ry

     The total energy is F=E-TS. E is the sum of the following terms:
     one-electron contribution =  -24165.80942508 Ry
     hartree contribution      =   12176.29700674 Ry
     xc contribution           =    -488.89985821 Ry
     ewald contribution        =    9524.49594746 Ry
     electric field correction =       0.00310012 Ry

     convergence has been achieved in  81 iterations

     Forces acting on atoms (cartesian axes, Ry/au):

     atom    1 type  1   force =     0.00006138   -0.00021507    0.09432330
     atom    2 type  1   force =    -0.00029206   -0.00032629   -0.17715232
     atom    3 type  2   force =     0.00001409   -0.00013445   -0.02176744
     atom    4 type  2   force =    -0.00002174   -0.00175057    0.05662938
     atom    5 type  2   force =    -0.01066470   -0.00110260    0.00625645
     atom    6 type  2   force =     0.01216395   -0.00035568    0.00530386
     atom    7 type  1   force =    -0.00069322    0.00164096   -0.01076043
     atom    8 type  1   force =     0.00018865    0.00659864    0.00671068
     atom    9 type  2   force =     0.00025093   -0.00039840   -0.00054542
     atom   10 type  2   force =    -0.00109501    0.00064671   -0.01013466
     atom   11 type  2   force =    -0.00027147   -0.00015745   -0.00022822
     atom   12 type  2   force =     0.00039181   -0.00023067    0.00000588
     atom   13 type  1   force =     0.00019685   -0.00051551    0.00120659
     atom   14 type  1   force =    -0.00008250    0.00039657    0.00042346
     atom   15 type  2   force =     0.00008538    0.00019045    0.00121149
     atom   16 type  2   force =    -0.00018140   -0.00065742    0.00025520
     atom   17 type  2   force =    -0.00004284   -0.00009041   -0.00024256
     atom   18 type  2   force =    -0.00104762   -0.00002783    0.00051783
     atom   19 type  1   force =     0.00110197   -0.00035151   -0.00049740
     atom   20 type  1   force =    -0.00141948    0.00074275   -0.00062253
     atom   21 type  2   force =     0.00000458   -0.00004572    0.10371464
     atom   22 type  2   force =    -0.00000798    0.00054738    0.00076575
     atom   23 type  2   force =    -0.07087511   -0.00014443   -0.02715668
     atom   24 type  2   force =     0.07071943    0.00029687   -0.02722597
     atom   25 type  1   force =     0.00000943   -0.00013994    0.09408255
     atom   26 type  1   force =    -0.00022320   -0.00036579   -0.17730717
     atom   27 type  2   force =     0.00005339   -0.00032034   -0.02068635
     atom   28 type  2   force =     0.00005165   -0.00136681    0.05587783
     atom   29 type  2   force =    -0.01088785    0.00029100    0.00604079
     atom   30 type  2   force =     0.01229079    0.00054990    0.00507907
     atom   31 type  1   force =    -0.00057102    0.00495092   -0.01402588
     atom   32 type  1   force =     0.00030790   -0.00743777    0.00637858
     atom   33 type  2   force =     0.00025030    0.00013599   -0.00020882
     atom   34 type  2   force =    -0.00066536    0.00182488   -0.00596898
     atom   35 type  2   force =    -0.00002293   -0.00025015    0.00001690
     atom   36 type  2   force =     0.00025389   -0.00032359    0.00017996
     atom   37 type  1   force =     0.00022326    0.00090937    0.00050838
     atom   38 type  1   force =    -0.00009692    0.00005209    0.00066873
     atom   39 type  2   force =     0.00034367    0.00027205    0.00006911
     atom   40 type  2   force =    -0.00012082   -0.00037420    0.00055818
     atom   41 type  2   force =    -0.00057202   -0.00024839   -0.00037166
     atom   42 type  2   force =    -0.00026406    0.00013505    0.00034046
     atom   43 type  1   force =     0.00079258   -0.00145516   -0.00069937
     atom   44 type  1   force =    -0.00104320    0.00030960   -0.00158639
     atom   45 type  2   force =     0.00000655   -0.00009498    0.10370814
     atom   46 type  2   force =    -0.07090252   -0.00009663   -0.02716062
     atom   47 type  2   force =     0.07074582    0.00033122   -0.02721166
     atom   48 type  3   force =     0.00127480   -0.00039355    0.00020017
     atom   49 type  4   force =     0.00007264   -0.00039522    0.00001573
     atom   50 type  5   force =    -0.00006005   -0.00022828   -0.00019586
     atom   51 type  5   force =     0.00037460   -0.00027821   -0.00012729
     atom   52 type  5   force =    -0.00127084    0.00102090    0.00048855
     atom   53 type  2   force =     0.01001235    0.00722804   -0.00258266
     atom   54 type  5   force =    -0.00119945    0.00011474    0.00014890
     atom   55 type  5   force =    -0.00764724   -0.00891303    0.00277981

     Total force =     0.366056     Total SCF correction =     0.000643
  @ DRIVER MODE: Message from server: STATUS
  @ DRIVER MODE: Message from server: GETFORCE
  @ DRIVER MODE: Returning v,forces,stress,ensemble

     Writing output data file ./calc.save/
  @ DRIVER MODE: Message from server: EXIT
  @ DRIVE MODE: Exiting

     General routines

     Parallel routines

   This run was terminated on:   7:26:50  16Sep2021

   JOB DONE.