     Program PWSCF v.6.7GPU starts on 10Sep2021 at  0:36:39

     R & G space division:  proc/nbgrp/npool/nimage =      10
     Reading input from /storage/home/hcoda1/3/ntian30/research/carbon/CxH_vib/CH3_calc/ads_slab/CH3N2OH_j/out_0013/pw.inp
Warning: card &CELL ignored
Warning: card   CELL_DYNAMICS='IPI', ignored
Warning: card / ignored

     Current dimensions of program PWSCF are:
     Max number of different atomic species (ntypx) = 10
     Max number of k-points (npk) =  40000
     Max angular momentum in pseudopotentials (lmaxx) =  3
     Presently no symmetry can be used with electric field

     Message from routine cell_base_init:
     DEPRECATED: use true lattice parameter, not A to a.u. conversion factor

     IMPORTANT: XC functional enforced from input :
     Exchange-correlation= BEEF-VDW
                           (   1   4  43  14   2   0   0)
     Any further DFT definition will be discarded
     Please, verify this is what you really want

  @ DRIVER MODE: Connecting to
 qe_1139763_2779713.sched-torque.pace.gatech.edujsxcaunt_scratch
  using UNIX socket
  @ DRIVER MODE: Message from server: STATUS
  @ DRIVER MODE: Message from server: INIT
  @ DRIVER MODE: Receiving replica           0          -1
  @ DRIVER MODE: Receiving encoded integer          25
  @ DRIVER MODE:  SCF:  T  FORCE:  T  STRESS:  F  VC:  F  ENSEMBLE:  F
  @ DRIVER MODE:  SCF:  T  FORCE:  T  STRESS:  F  VC:  F  ENSEMBLE:  F

     Using Slab Decomposition

     bravais-lattice index     =            0
     lattice parameter (alat)  =       1.8897  a.u.
     unit-cell volume          =    6658.9804 (a.u.)^3
     number of atoms/cell      =           55
     number of atomic types    =            5
     number of electrons       =       402.00
     number of Kohn-Sham states=          211
     kinetic-energy cutoff     =      29.3995  Ry
     charge density cutoff     =     293.9946  Ry
     scf convergence threshold =      7.3E-08
     mixing beta               =       0.0500
     number of iterations used =            8  plain     mixing
     Exchange-correlation= BEEF-VDW
                           (   1   4  43  14   2   0   0)

     celldm(1)=   1.889726  celldm(2)=   0.000000  celldm(3)=   0.000000
     celldm(4)=   0.000000  celldm(5)=   0.000000  celldm(6)=   0.000000

     crystal axes: (cart. coord. in units of alat)
               a(1) = (   6.579727   0.000000   0.000000 )
               a(2) = (  -0.000775   5.961596   0.000000 )
               a(3) = (   0.000000   0.000000  25.155947 )

     reciprocal axes: (cart. coord. in units 2 pi/alat)
               b(1) = (  0.151982  0.000020  0.000000 )
               b(2) = (  0.000000  0.167740  0.000000 )
               b(3) = (  0.000000  0.000000  0.039752 )

     PseudoPot. # 1 for Ti read from file:
     /storage/coda1/p-amedford6/0/shared/rich_project_chbe-medford/medford-share/data/pseudos_module/espresso/nninc/pbe/van/Ti.UPF
     MD5 check sum: 8e4df49b7f0d34bbd5052bf3f5ea0213
     Pseudo is Ultrasoft, Zval = 12.0
     Generated by new atomic code, or converted to UPF format
     Using radial grid of  851 points,  6 beta functions with:
                l(1) =   0
                l(2) =   0
                l(3) =   1
                l(4) =   1
                l(5) =   2
                l(6) =   2
     Q(r) pseudized with  8 coefficients,  rinner =    1.000   1.000   1.000
                                                       1.000   1.000

     PseudoPot. # 2 for O  read from file:
     /storage/coda1/p-amedford6/0/shared/rich_project_chbe-medford/medford-share/data/pseudos_module/espresso/nninc/pbe/van/O.UPF
     MD5 check sum: 78c19812648e8988a0fe644b0f25305e
     Pseudo is Ultrasoft, Zval =  6.0
     Generated by new atomic code, or converted to UPF format
     Using radial grid of  737 points,  4 beta functions with:
                l(1) =   0
                l(2) =   0
                l(3) =   1
                l(4) =   1
     Q(r) pseudized with  8 coefficients,  rinner =    0.800   0.800   0.800

     PseudoPot. # 3 for N  read from file:
     /storage/coda1/p-amedford6/0/shared/rich_project_chbe-medford/medford-share/data/pseudos_module/espresso/nninc/pbe/van/N.UPF
     MD5 check sum: 90d10febe142ad51ac9d5be1deb811c4
     Pseudo is Ultrasoft, Zval =  5.0
     Generated by new atomic code, or converted to UPF format
     Using radial grid of  729 points,  4 beta functions with:
                l(1) =   0
                l(2) =   0
                l(3) =   1
                l(4) =   1
     Q(r) pseudized with  8 coefficients,  rinner =    0.800   0.800   0.800

     PseudoPot. # 4 for C  read from file:
     /storage/coda1/p-amedford6/0/shared/rich_project_chbe-medford/medford-share/data/pseudos_module/espresso/nninc/pbe/van/C.UPF
     MD5 check sum: 1a69bf6b8db32088f5b2163dbdb77a27
     Pseudo is Ultrasoft, Zval =  4.0
     Generated by new atomic code, or converted to UPF format
     Using radial grid of  721 points,  4 beta functions with:
                l(1) =   0
                l(2) =   0
                l(3) =   1
                l(4) =   1
     Q(r) pseudized with  8 coefficients,  rinner =    0.800   0.800   0.800

     PseudoPot. # 5 for H  read from file:
     /storage/coda1/p-amedford6/0/shared/rich_project_chbe-medford/medford-share/data/pseudos_module/espresso/nninc/pbe/van/H.UPF
     MD5 check sum: b5ee9d7bfd3a09ee7748110bda690ff7
     Pseudo is Ultrasoft, Zval =  1.0
     Generated by new atomic code, or converted to UPF format
     Using radial grid of  615 points,  1 beta functions with:
                l(1) =   0
     Q(r) pseudized with  8 coefficients,  rinner =    0.800

     atomic species   valence    mass     pseudopotential
        Ti1           12.00    47.86700     Ti( 1.00)
        O1             6.00    15.99900     O ( 1.00)
        N1             5.00    14.00700     N ( 1.00)
        C1             4.00    12.01100     C ( 1.00)
        H1             1.00     1.00800     H ( 1.00)

     No symmetry found

   Cartesian axes

     site n.     atom                  positions (alat units)
         1           Ti1 tau(   1) = (   0.0004258   2.9801865   6.0000000  )
         2           Ti1 tau(   2) = (   3.2906075   1.4906267   6.0002472  )
         3           O1  tau(   3) = (   0.0006271   0.0005054   7.9858123  )
         4           O1  tau(   4) = (   3.2906025   0.0005020   7.3038282  )
         5           O1  tau(   5) = (   4.5942328   1.4918067   9.2879030  )
         6           O1  tau(   6) = (   1.9868534   1.4903216   9.2879459  )
         7           Ti1 tau(   7) = (   3.2907910   2.8959150   9.1758416  )
         8           Ti1 tau(   8) = (   0.0015273   1.4827037   9.2680791  )
         9           O1  tau(   9) = (   3.2817971   0.0424577  11.2706337  )
        10           O1  tau(  10) = (   0.0116148   5.9584955  10.6183126  )
        11           O1  tau(  11) = (   1.2813654   1.4951502  12.6332405  )
        12           O1  tau(  12) = (   5.2815101   1.4921423  12.6269808  )
        13           Ti1 tau(  13) = (   6.5662594   2.8603684  12.6843660  )
        14           Ti1 tau(  14) = (   3.2717346   1.4252475  12.4210995  )
        15           O1  tau(  15) = (   6.5710910   0.0045200  14.6317625  )
        16           O1  tau(  16) = (   3.2759495   0.0084639  13.8932321  )
        17           O1  tau(  17) = (   4.5517014   1.4983445  16.0008815  )
        18           O1  tau(  18) = (   2.0271237   1.5070609  16.0478782  )
        19           Ti1 tau(  19) = (   3.2345769   3.0092735  16.2435900  )
        20           Ti1 tau(  20) = (   6.4941389   1.4975806  15.8145731  )
        21           O1  tau(  21) = (   3.2904802   0.0005063   4.7018136  )
        22           O1  tau(  22) = (   6.5579512   0.0396517  17.1742205  )
        23           O1  tau(  23) = (   1.3043587   1.4918075   6.0039043  )
        24           O1  tau(  24) = (   5.2767064   1.4903225   6.0039473  )
        25           Ti1 tau(  25) = (   0.0000382   5.9609847   6.0000000  )
        26           Ti1 tau(  26) = (   3.2902200   4.4714249   6.0002472  )
        27           O1  tau(  27) = (   0.0002396   2.9813036   7.9858123  )
        28           O1  tau(  28) = (   3.2902150   2.9813002   7.3038282  )
        29           O1  tau(  29) = (   4.5938453   4.4726049   9.2879030  )
        30           O1  tau(  30) = (   1.9864658   4.4711199   9.2879459  )
        31           Ti1 tau(  31) = (   3.2891106   5.8743827   9.1763621  )
        32           Ti1 tau(  32) = (   0.0006254   4.4649316   9.2693709  )
        33           O1  tau(  33) = (   3.2800217   2.9666125  11.2981572  )
        34           O1  tau(  34) = (   0.0092240   2.9805883  10.6323155  )
        35           O1  tau(  35) = (   1.2755083   4.4823741  12.6262202  )
        36           O1  tau(  36) = (   5.2848398   4.4807727  12.6177486  )
        37           Ti1 tau(  37) = (   6.5672004   5.8338186  12.5551636  )
        38           Ti1 tau(  38) = (   3.2732152   4.2974050  12.6602233  )
        39           O1  tau(  39) = (   6.5693882   2.9786051  14.6782399  )
        40           O1  tau(  40) = (   3.2805734   3.0393479  13.9038923  )
        41           O1  tau(  41) = (   4.5335661   4.5240572  16.0872286  )
        42           O1  tau(  42) = (   2.0073973   4.5295938  16.0607137  )
        43           Ti1 tau(  43) = (   3.2598295   0.0330142  15.6732764  )
        44           Ti1 tau(  44) = (   6.5464637   4.6748829  16.0422594  )
        45           O1  tau(  45) = (   3.2900926   2.9813045   4.7018136  )
        46           O1  tau(  46) = (   1.3039711   4.4726057   6.0039043  )
        47           O1  tau(  47) = (   5.2763189   4.4711207   6.0039473  )
        48           N1  tau(  48) = (   0.1126456   2.6876119  18.6539570  )
        49           N1  tau(  49) = (   0.0165868   2.9082207  17.4746156  )
        50           C1  tau(  50) = (   0.2646321   3.7930379  19.6319179  )
        51           H1  tau(  51) = (   0.1055085   4.7742840  19.1878107  )
        52           H1  tau(  52) = (   6.1760284   3.5871646  20.4591619  )
        53           H1  tau(  53) = (   1.2982147   3.7051261  19.9977701  )
        54           O1  tau(  54) = (   3.2987527   2.9937385  18.0942264  )
        55           H1  tau(  55) = (   3.7476408   3.7324850  18.5320624  )

     number of k points=    10  Fermi-Dirac smearing, width (Ry)=  0.0073
                       cart. coord. in units 2pi/alat
        k(    1) = (   0.0000000   0.0000000   0.0000000), wk =   0.1250000
        k(    2) = (   0.0000000   0.0419351   0.0000000), wk =   0.2500000
        k(    3) = (   0.0000000  -0.0838702   0.0000000), wk =   0.1250000
        k(    4) = (   0.0379955   0.0000049   0.0000000), wk =   0.2500000
        k(    5) = (   0.0379955   0.0419400   0.0000000), wk =   0.2500000
        k(    6) = (   0.0379955  -0.0838652   0.0000000), wk =   0.2500000
        k(    7) = (   0.0379955  -0.0419301   0.0000000), wk =   0.2500000
        k(    8) = (  -0.0759910  -0.0000099   0.0000000), wk =   0.1250000
        k(    9) = (  -0.0759910   0.0419252   0.0000000), wk =   0.2500000
        k(   10) = (  -0.0759910  -0.0838800   0.0000000), wk =   0.1250000

     Initial potential from superposition of free atoms

     starting charge  385.99915, renormalised to  402.00000

     negative rho (up, down):  1.467E-02 0.000E+00

     %%%%%%%%%%%%%%%%%%%%%%%%%%%%%%%%%%%%%%%%%%%%%%%%%%%%%%%%%%%%%%%%%%%%%%%%
     %                                                                      %
     % You are using vdW-DF, which was implemented by the Thonhauser group. %
     % Please cite the following two papers that made this development      %
     % possible and the two reviews that describe the various versions:     %
     %                                                                      %
     %   T. Thonhauser et al., PRL 115, 136402 (2015).                      %
     %   T. Thonhauser et al., PRB 76, 125112 (2007).                       %
     %   K. Berland et al., Rep. Prog. Phys. 78, 066501 (2015).             %
     %   D.C. Langreth et al., J. Phys.: Condens. Matter 21, 084203 (2009). %
     %                                                                      %
     %                                                                      %
     % If you are calculating the stress with vdW-DF, please also cite:     %
     %                                                                      %
     %   R. Sabatini et al., J. Phys.: Condens. Matter 24, 424209 (2012).   %
     %                                                                      %
     %%%%%%%%%%%%%%%%%%%%%%%%%%%%%%%%%%%%%%%%%%%%%%%%%%%%%%%%%%%%%%%%%%%%%%%%

     Adding external electric field

     Computed dipole along edir(3) :
        Dipole              -11.9798 Ry au,        -30.4497 Debye
        Dipole field         -0.0226 Ry au,

        Potential amp.        2.0957 Ry
        Total length         46.3494 bohr

     Starting wfcs are  304 atomic wfcs
  @ DRIVER MODE: Message from server: STATUS
  @ DRIVER MODE: Message from server: POSDATA
  @ DRIVER MODE: Reading and sharing cell
  @ DRIVER MODE: Reading and sharing positions
  @ DRIVER MODE: Received positions

     Self-consistent Calculation

     iteration #  1     ecut=    29.40 Ry     beta= 0.05
     Davidson diagonalization with overlap
     c_bands:  4 eigenvalues not converged
     c_bands:  3 eigenvalues not converged
     c_bands:  5 eigenvalues not converged
     c_bands:  5 eigenvalues not converged
     c_bands:  3 eigenvalues not converged
     c_bands:  4 eigenvalues not converged
     c_bands:  2 eigenvalues not converged
     c_bands:  1 eigenvalues not converged
     ethr =  1.00E-05,  avg # of iterations = 25.3

[...]

     total energy              =   -2401.02248286 Ry
     estimated scf accuracy    <    6440.98232904 Ry

     iteration #  2     ecut=    29.40 Ry     beta= 0.05
     Davidson diagonalization with overlap
     ethr =  1.00E-02,  avg # of iterations = 22.8

[...]

     iteration # 52     ecut=    29.40 Ry     beta= 0.05
     Davidson diagonalization with overlap
     c_bands:  2 eigenvalues not converged
     ethr =  1.46E-06,  avg # of iterations =  7.2

[...]

     total energy              =   -2972.74444185 Ry
     estimated scf accuracy    <       0.00000021 Ry

     iteration # 80     ecut=    29.40 Ry     beta= 0.05
     Davidson diagonalization with overlap
     ethr =  2.40E-11,  avg # of iterations =  5.5

     negative rho (up, down):  1.549E-02 0.000E+00

     Adding external electric field

     Computed dipole along edir(3) :
        Dipole                0.6109 Ry au,          1.5527 Debye
        Dipole field          0.0012 Ry au,

        Potential amp.       -0.1069 Ry
        Total length         46.3494 bohr

     End of self-consistent calculation

          k = 0.0000 0.0000 0.0000 ( 18029 PWs)   bands (ev):

   -56.2387 -56.2049 -55.8235 -55.7899 -55.5909 -55.5313 -55.4794 -55.4040
   -55.3803 -55.3254 -55.2353 -55.1622 -55.0828 -55.0111 -54.9890 -54.9772
   -32.6890 -32.5312 -32.5042 -32.3972 -32.3132 -32.3046 -32.3027 -32.0709
   -32.0425 -32.0234 -31.9712 -31.9647 -31.9308 -31.8963 -31.8683 -31.8170
   -31.8077 -31.7914 -31.7541 -31.7346 -31.7265 -31.7061 -31.6936 -31.6912
   -31.6895 -31.6497 -31.6020 -31.5732 -31.5535 -31.5355 -31.5343 -31.4968
   -31.4871 -31.4269 -31.4164 -31.4079 -31.3665 -31.3442 -31.3385 -31.3206
   -31.3143 -31.2908 -31.2378 -31.2265 -31.2257 -31.2107 -31.1419 -31.0301
   -18.8597 -16.5328 -16.3518 -16.1974 -15.9858 -15.8182 -15.7258 -15.7179
   -15.6704 -15.5494 -15.5212 -15.4272 -15.3359 -15.2625 -15.2610 -15.2371
   -15.1405 -15.0838 -15.0571 -15.0171 -14.9971 -14.9900 -14.9772 -14.8789
   -14.8626 -14.8570 -14.7147 -14.6921 -14.6071 -14.3588 -14.2619 -13.5088
   -13.3966 -11.5303  -6.9381  -4.4187  -4.1540  -4.0422  -4.0371  -3.8220
    -3.7480  -3.5306  -3.4310  -3.3541  -3.2327  -3.1465  -2.9571  -2.9459
    -2.8922  -2.8225  -2.7475  -2.6882  -2.6365  -2.6261  -2.5520  -2.5128
    -2.4732  -2.4661  -2.4032  -2.3871  -2.3035  -2.2862  -2.2154  -2.1816
    -2.1512  -2.1211  -2.1016  -2.0410  -2.0334  -1.9984  -1.9709  -1.9190
    -1.8563  -1.8090  -1.7228  -1.6749  -1.6559  -1.5633  -1.5441  -1.5299
    -1.5134  -1.3208  -1.2473  -1.2259  -1.2146  -1.0669  -1.0237  -0.9991
    -0.9191  -0.8953  -0.8484  -0.8073  -0.7602  -0.7036  -0.6728  -0.6666
    -0.6417  -0.5897  -0.4022  -0.3699  -0.3215  -0.2916  -0.2538  -0.1975
    -0.1671  -0.1356  -0.0535  -0.0483  -0.0394  -0.0017   0.0486   0.1293
     0.1892   0.2095   0.3020   0.3086   0.3503   0.3850   0.4412   0.4685
     0.5525   0.5961   0.6115   0.6661   0.6864   0.8749   0.9119   0.9485
     0.9862   1.0133   1.0591   1.1743   1.2423   1.5442   1.5614   1.6009
     2.7530   2.9878   3.1166   3.2728   3.4200   3.5150   3.8263   3.8538
     3.8888   3.9480   3.9751

[...]

          k = 0.0380-0.0419 0.0000 ( 17876 PWs)   bands (ev):

[...]

          k =-0.0760-0.0000 0.0000 ( 17886 PWs)   bands (ev):

[...]

          k =-0.0760-0.0839 0.0000 ( 17948 PWs)   bands (ev):

   -56.2222 -56.2212 -55.8078 -55.8054 -55.5856 -55.5366 -55.4765 -55.4066
   -55.3743 -55.3312 -55.2334 -55.1606 -55.0845 -54.9945 -54.9937 -54.9905
   -32.5173 -32.5160 -32.5054 -32.5047 -32.3497 -32.3486 -32.1273 -32.1235
   -32.0021 -32.0000 -31.9967 -31.9950 -31.8911 -31.8525 -31.8151 -31.8090
   -31.8038 -31.7642 -31.7525 -31.7463 -31.7199 -31.7055 -31.6978 -31.6667
   -31.6606 -31.6246 -31.6203 -31.6007 -31.5938 -31.5640 -31.5576 -31.5440
   -31.4876 -31.4332 -31.4308 -31.4199 -31.3643 -31.3432 -31.3338 -31.3332
   -31.2950 -31.2946 -31.2445 -31.2275 -31.2231 -31.2221 -31.1847 -31.1840
   -18.8560 -16.3391 -15.9426 -15.9303 -15.8070 -15.8004 -15.6281 -15.6117
   -15.5898 -15.5334 -15.5116 -15.4645 -15.3242 -15.3148 -15.2546 -15.2216
   -15.1965 -15.1806 -15.1512 -15.1507 -15.1315 -15.0574 -15.0301 -15.0031
   -14.9542 -14.9501 -14.7843 -14.7188 -14.7047 -14.4907 -14.4587 -13.4997
   -13.4995 -11.5283  -6.9519  -4.3661  -4.0349  -4.0025  -3.9320  -3.1108
    -3.0562  -2.9459  -2.9193  -2.8449  -2.8224  -2.7152  -2.6913  -2.6506
    -2.6370  -2.6333  -2.5778  -2.5553  -2.5333  -2.4889  -2.4773  -2.4643
    -2.4395  -2.3907  -2.3783  -2.3624  -2.3467  -2.3303  -2.2366  -2.2279
    -2.2135  -2.1696  -2.1661  -2.1526  -2.0746  -2.0063  -1.9622  -1.9567
    -1.9243  -1.8670  -1.7962  -1.6766  -1.6569  -1.6052  -1.5778  -1.5022
    -1.4729  -1.4274  -1.3321  -1.3245  -1.2979  -1.2811  -1.2201  -1.2052
    -1.0628  -1.0302  -1.0243  -1.0162  -1.0151  -0.9170  -0.8566  -0.7958
    -0.7451  -0.6615  -0.6481  -0.6271  -0.6086  -0.5984  -0.5793  -0.5551
    -0.4937  -0.4524  -0.4021  -0.3851  -0.2808  -0.2014  -0.1671  -0.1009
    -0.0235   0.0656   0.1441   0.1573   0.1951   0.2495   0.3379   0.3799
     0.4224   0.4910   0.5330   0.6064   0.6678   0.7528   0.7768   0.8654
     0.9768   0.9936   1.0439   1.1311   1.4038   1.4105   1.4170   1.4179
     2.7582   3.5356   3.5394   3.5692   3.5775   3.7774   3.7894   3.9152
     3.9703   3.9956   4.0309

     the Fermi energy is     2.9245 ev

!    total energy              =   -2972.74445131 Ry
     estimated scf accuracy    <       0.00000002 Ry
     smearing contrib. (-TS)   =      -0.01283279 Ry
     internal energy E=F+TS    =   -2972.73161852 Ry

     The total energy is F=E-TS. E is the sum of the following terms:
     one-electron contribution =  -23700.69966697 Ry
     hartree contribution      =   11943.64928230 Ry
     xc contribution           =    -493.12449681 Ry
     ewald contribution        =    9277.44255871 Ry
     electric field correction =       0.00070425 Ry

     convergence has been achieved in  80 iterations

     Forces acting on atoms (cartesian axes, Ry/au):

     atom    1 type  1   force =     0.00009110   -0.00038320    0.10702623
     atom    2 type  1   force =    -0.00004281   -0.00169195   -0.16539128
     atom    3 type  2   force =     0.00003472   -0.00025920   -0.03869731
     atom    4 type  2   force =     0.00004428    0.00076220    0.03117124
     atom    5 type  2   force =    -0.00355430    0.00294581   -0.00840198
     atom    6 type  2   force =     0.00468881    0.00361382   -0.01017188
     atom    7 type  1   force =    -0.00073023    0.00048214    0.02125682
     atom    8 type  1   force =     0.00100985    0.01539806    0.06097004
     atom    9 type  2   force =     0.00011273   -0.00014901    0.00007514
     atom   10 type  2   force =    -0.00289455    0.00226618   -0.04715964
     atom   11 type  2   force =    -0.00004657   -0.00020431   -0.00002512
     atom   12 type  2   force =     0.00000536   -0.00002540    0.00019141
     atom   13 type  1   force =     0.00028386   -0.00013201    0.00015181
     atom   14 type  1   force =     0.00040769   -0.00014632    0.00026714
     atom   15 type  2   force =     0.00015625    0.00012113   -0.00032374
     atom   16 type  2   force =     0.00014579   -0.00015535    0.00001246
     atom   17 type  2   force =     0.00019766    0.00018109    0.00029533
     atom   18 type  2   force =     0.00023196    0.00023104    0.00002224
     atom   19 type  1   force =     0.00001778   -0.00017333   -0.00015847
     atom   20 type  1   force =    -0.00024266    0.00028368    0.00011412
     atom   21 type  2   force =     0.00010144    0.00000035    0.10028024
     atom   22 type  2   force =     0.00006753    0.00004137   -0.00016928
     atom   23 type  2   force =    -0.07670224   -0.00004736   -0.03006358
     atom   24 type  2   force =     0.07668620    0.00038500   -0.03008717
     atom   25 type  1   force =     0.00006153   -0.00043107    0.10697096
     atom   26 type  1   force =    -0.00010768    0.00063002   -0.16569191
     atom   27 type  2   force =     0.00012114   -0.00027379   -0.03751009
     atom   28 type  2   force =     0.00004364   -0.00043717    0.03534867
     atom   29 type  2   force =    -0.00569130   -0.00043762   -0.00598676
     atom   30 type  2   force =     0.00685436    0.00006031   -0.00767458
     atom   31 type  1   force =    -0.00057084   -0.00239539    0.03463910
     atom   32 type  1   force =     0.00111112   -0.01877615    0.06149281
     atom   33 type  2   force =     0.00022372   -0.00012702    0.00003773
     atom   34 type  2   force =    -0.00253829    0.00012853   -0.05386988
     atom   35 type  2   force =     0.00021577   -0.00024747   -0.00012078
     atom   36 type  2   force =     0.00018622   -0.00001734    0.00028070
     atom   37 type  1   force =     0.00034723   -0.00020014   -0.00008934
     atom   38 type  1   force =     0.00046821   -0.00022749    0.00030735
     atom   39 type  2   force =     0.00017567   -0.00044476    0.00022761
     atom   40 type  2   force =    -0.00019178   -0.00005040   -0.00013609
     atom   41 type  2   force =     0.00006954   -0.00037237    0.00007606
     atom   42 type  2   force =     0.00017452   -0.00044259    0.00015501
     atom   43 type  1   force =    -0.00026239    0.00007387   -0.00023229
     atom   44 type  1   force =    -0.00011491   -0.00032662    0.00027755
     atom   45 type  2   force =     0.00009600    0.00010980    0.10048768
     atom   46 type  2   force =    -0.07668162   -0.00005951   -0.03007564
     atom   47 type  2   force =     0.07667127    0.00036148   -0.03010445
     atom   48 type  3   force =    -0.00173259   -0.00035683    0.00078214
     atom   49 type  3   force =     0.00035088    0.00005258   -0.00155678
     atom   50 type  4   force =     0.01860972    0.00064111   -0.00147690
     atom   51 type  5   force =    -0.00183778    0.00043246    0.00011163
     atom   52 type  5   force =    -0.00533404   -0.00124326    0.00425375
     atom   53 type  5   force =    -0.01039114    0.00073314   -0.00230964
     atom   54 type  2   force =     0.00045111    0.00122831    0.00070028
     atom   55 type  5   force =    -0.00084691   -0.00092901   -0.00049868

     Total force =     0.382047     Total SCF correction =     0.000335
  @ DRIVER MODE: Message from server: STATUS
  @ DRIVER MODE: Message from server: GETFORCE
  @ DRIVER MODE: Returning v,forces,stress,ensemble

     Writing output data file ./calc.save/
  @ DRIVER MODE: Message from server: EXIT
  @ DRIVE MODE: Exiting

     General routines

     Parallel routines

   This run was terminated on:   0:57:56  10Sep2021

   JOB DONE.