     Program PWSCF v.6.7GPU starts on  8Sep2021 at 21:51:39

     R & G space division:  proc/nbgrp/npool/nimage =      10
     Reading input from /storage/home/hcoda1/3/ntian30/research/carbon/CxH_vib/CH2_calc/ads_slab/CH2N2H_a/out_0000/pw.inp
Warning: card &CELL ignored
Warning: card   CELL_DYNAMICS='IPI', ignored
Warning: card / ignored

     Current dimensions of program PWSCF are:
     Max number of different atomic species (ntypx) = 10
     Max number of k-points (npk) =  40000
     Max angular momentum in pseudopotentials (lmaxx) =  3
     Presently no symmetry can be used with electric field

     Message from routine cell_base_init:
     DEPRECATED: use true lattice parameter, not A to a.u. conversion factor

     IMPORTANT: XC functional enforced from input :
     Exchange-correlation= BEEF-VDW
                           (   1   4  43  14   2   0   0)
     Any further DFT definition will be discarded
     Please, verify this is what you really want

  @ DRIVER MODE: Connecting to
 qe_1139763_2767385.sched-torque.pace.gatech.edukblnfnac_scratch
  using UNIX socket
  @ DRIVER MODE: Message from server: STATUS
  @ DRIVER MODE: Message from server: INIT
  @ DRIVER MODE: Receiving replica           0          -1
  @ DRIVER MODE: Receiving encoded integer          25
  @ DRIVER MODE:  SCF:  T  FORCE:  T  STRESS:  F  VC:  F  ENSEMBLE:  F
  @ DRIVER MODE:  SCF:  T  FORCE:  T  STRESS:  F  VC:  F  ENSEMBLE:  F

     Using Slab Decomposition

     bravais-lattice index     =            0
     lattice parameter (alat)  =       1.8897  a.u.
     unit-cell volume          =    6658.9804 (a.u.)^3
     number of atoms/cell      =           53
     number of atomic types    =            5
     number of electrons       =       395.00
     number of Kohn-Sham states=          207
     kinetic-energy cutoff     =      29.3995  Ry
     charge density cutoff     =     293.9946  Ry
     scf convergence threshold =      7.3E-08
     mixing beta               =       0.0500
     number of iterations used =            8  plain     mixing
     Exchange-correlation= BEEF-VDW
                           (   1   4  43  14   2   0   0)

     celldm(1)=   1.889726  celldm(2)=   0.000000  celldm(3)=   0.000000
     celldm(4)=   0.000000  celldm(5)=   0.000000  celldm(6)=   0.000000

     crystal axes: (cart. coord. in units of alat)
               a(1) = (   6.579727   0.000000   0.000000 )
               a(2) = (  -0.000775   5.961596   0.000000 )
               a(3) = (   0.000000   0.000000  25.155947 )

     reciprocal axes: (cart. coord. in units 2 pi/alat)
               b(1) = (  0.151982  0.000020  0.000000 )
               b(2) = (  0.000000  0.167740  0.000000 )
               b(3) = (  0.000000  0.000000  0.039752 )

     PseudoPot. # 1 for Ti read from file:
     /storage/coda1/p-amedford6/0/shared/rich_project_chbe-medford/medford-share/data/pseudos_module/espresso/nninc/pbe/van/Ti.UPF
     MD5 check sum: 8e4df49b7f0d34bbd5052bf3f5ea0213
     Pseudo is Ultrasoft, Zval = 12.0
     Generated by new atomic code, or converted to UPF format
     Using radial grid of  851 points,  6 beta functions with:
                l(1) =   0
                l(2) =   0
                l(3) =   1
                l(4) =   1
                l(5) =   2
                l(6) =   2
     Q(r) pseudized with  8 coefficients,  rinner =    1.000   1.000   1.000
                                                       1.000   1.000

     PseudoPot. # 2 for O  read from file:
     /storage/coda1/p-amedford6/0/shared/rich_project_chbe-medford/medford-share/data/pseudos_module/espresso/nninc/pbe/van/O.UPF
     MD5 check sum: 78c19812648e8988a0fe644b0f25305e
     Pseudo is Ultrasoft, Zval =  6.0
     Generated by new atomic code, or converted to UPF format
     Using radial grid of  737 points,  4 beta functions with:
                l(1) =   0
                l(2) =   0
                l(3) =   1
                l(4) =   1
     Q(r) pseudized with  8 coefficients,  rinner =    0.800   0.800   0.800

     PseudoPot. # 3 for N  read from file:
     /storage/coda1/p-amedford6/0/shared/rich_project_chbe-medford/medford-share/data/pseudos_module/espresso/nninc/pbe/van/N.UPF
     MD5 check sum: 90d10febe142ad51ac9d5be1deb811c4
     Pseudo is Ultrasoft, Zval =  5.0
     Generated by new atomic code, or converted to UPF format
     Using radial grid of  729 points,  4 beta functions with:
                l(1) =   0
                l(2) =   0
                l(3) =   1
                l(4) =   1
     Q(r) pseudized with  8 coefficients,  rinner =    0.800   0.800   0.800

     PseudoPot. # 4 for C  read from file:
     /storage/coda1/p-amedford6/0/shared/rich_project_chbe-medford/medford-share/data/pseudos_module/espresso/nninc/pbe/van/C.UPF
     MD5 check sum: 1a69bf6b8db32088f5b2163dbdb77a27
     Pseudo is Ultrasoft, Zval =  4.0
     Generated by new atomic code, or converted to UPF format
     Using radial grid of  721 points,  4 beta functions with:
                l(1) =   0
                l(2) =   0
                l(3) =   1
                l(4) =   1
     Q(r) pseudized with  8 coefficients,  rinner =    0.800   0.800   0.800

     PseudoPot. # 5 for H  read from file:
     /storage/coda1/p-amedford6/0/shared/rich_project_chbe-medford/medford-share/data/pseudos_module/espresso/nninc/pbe/van/H.UPF
     MD5 check sum: b5ee9d7bfd3a09ee7748110bda690ff7
     Pseudo is Ultrasoft, Zval =  1.0
     Generated by new atomic code, or converted to UPF format
     Using radial grid of  615 points,  1 beta functions with:
                l(1) =   0
     Q(r) pseudized with  8 coefficients,  rinner =    0.800

     atomic species   valence    mass     pseudopotential
        Ti1           12.00    47.86700     Ti( 1.00)
        O1             6.00    15.99900     O ( 1.00)
        N1             5.00    14.00700     N ( 1.00)
        C1             4.00    12.01100     C ( 1.00)
        H1             1.00     1.00800     H ( 1.00)

     No symmetry found

   Cartesian axes

     site n.     atom                  positions (alat units)
         1           Ti1 tau(   1) = (   0.0004258   2.9801865   6.0000000  )
         2           Ti1 tau(   2) = (   3.2906075   1.4906267   6.0002472  )
         3           O1  tau(   3) = (   0.0006271   0.0005054   7.9858123  )
         4           O1  tau(   4) = (   3.2906025   0.0005020   7.3038282  )
         5           O1  tau(   5) = (   4.5942328   1.4918067   9.2879030  )
         6           O1  tau(   6) = (   1.9868534   1.4903216   9.2879459  )
         7           Ti1 tau(   7) = (   3.2907910   2.8959150   9.1758416  )
         8           Ti1 tau(   8) = (   0.0015273   1.4827037   9.2680791  )
         9           O1  tau(   9) = (   3.3007851   0.0027079  11.3193151  )
        10           O1  tau(  10) = (   0.0116148   5.9584955  10.6183126  )
        11           O1  tau(  11) = (   1.3147357   1.5019762  12.6210215  )
        12           O1  tau(  12) = (   5.3120411   1.4917641  12.6342566  )
        13           Ti1 tau(  13) = (   6.5359925   2.9538565  12.6086018  )
        14           Ti1 tau(  14) = (   3.2189980   1.4905645  12.4770757  )
        15           O1  tau(  15) = (   0.0426301   5.9606301  14.6312846  )
        16           O1  tau(  16) = (   3.3149351   0.0098317  13.8848037  )
        17           O1  tau(  17) = (   4.5523768   1.5206755  16.0744300  )
        18           O1  tau(  18) = (   2.0715852   1.4807026  15.9918588  )
        19           Ti1 tau(  19) = (   3.2935730   2.9941335  15.6827836  )
        20           Ti1 tau(  20) = (   0.0200723   1.3023755  15.9747514  )
        21           O1  tau(  21) = (   3.2904802   0.0005063   4.7018136  )
        22           O1  tau(  22) = (   6.5179923   0.0002674  17.1556216  )
        23           O1  tau(  23) = (   1.3043587   1.4918075   6.0039043  )
        24           O1  tau(  24) = (   5.2767064   1.4903225   6.0039473  )
        25           Ti1 tau(  25) = (   0.0000382   5.9609847   6.0000000  )
        26           Ti1 tau(  26) = (   3.2902200   4.4714249   6.0002472  )
        27           O1  tau(  27) = (   0.0002396   2.9813036   7.9858123  )
        28           O1  tau(  28) = (   3.2902150   2.9813002   7.3038282  )
        29           O1  tau(  29) = (   4.5938453   4.4726049   9.2879030  )
        30           O1  tau(  30) = (   1.9864658   4.4711199   9.2879459  )
        31           Ti1 tau(  31) = (   3.2891106   5.8743827   9.1763621  )
        32           Ti1 tau(  32) = (   0.0006254   4.4649316   9.2693709  )
        33           O1  tau(  33) = (   3.3053585   2.9833221  11.3185053  )
        34           O1  tau(  34) = (   0.0092240   2.9805883  10.6323155  )
        35           O1  tau(  35) = (   1.3157767   4.4721532  12.6203727  )
        36           O1  tau(  36) = (   5.3104355   4.4689601  12.6331991  )
        37           Ti1 tau(  37) = (   6.5385524   5.9338372  12.5465384  )
        38           Ti1 tau(  38) = (   3.2200853   4.4710709  12.4725482  )
        39           O1  tau(  39) = (   0.0068575   2.9964749  14.7765288  )
        40           O1  tau(  40) = (   3.3021705   2.9848394  13.8818356  )
        41           O1  tau(  41) = (   4.5334443   4.4765196  15.9883447  )
        42           O1  tau(  42) = (   2.0816803   4.4801587  16.0471567  )
        43           Ti1 tau(  43) = (   3.3155128   0.0116264  15.6901768  )
        44           Ti1 tau(  44) = (   6.5575601   4.4671909  15.9479714  )
        45           O1  tau(  45) = (   3.2900926   2.9813045   4.7018136  )
        46           O1  tau(  46) = (   1.3039711   4.4726057   6.0039043  )
        47           O1  tau(  47) = (   5.2763189   4.4711207   6.0039473  )
        48           N1  tau(  48) = (   0.4270260   2.3853988  17.9668900  )
        49           C1  tau(  49) = (   0.9469377   1.9340014  19.0583692  )
        50           H1  tau(  50) = (   1.0789317   2.5769861  19.9249762  )
        51           H1  tau(  51) = (   1.2326487   0.8959138  19.0941702  )
        52           N1  tau(  52) = (   0.0025679   3.6232397  17.7996529  )
        53           H1  tau(  53) = (   0.1020252   4.2324666  18.6151602  )

     number of k points=    10  Fermi-Dirac smearing, width (Ry)=  0.0073
                       cart. coord. in units 2pi/alat
        k(    1) = (   0.0000000   0.0000000   0.0000000), wk =   0.1250000
        k(    2) = (   0.0000000   0.0419351   0.0000000), wk =   0.2500000
        k(    3) = (   0.0000000  -0.0838702   0.0000000), wk =   0.1250000
        k(    4) = (   0.0379955   0.0000049   0.0000000), wk =   0.2500000
        k(    5) = (   0.0379955   0.0419400   0.0000000), wk =   0.2500000
        k(    6) = (   0.0379955  -0.0838652   0.0000000), wk =   0.2500000
        k(    7) = (   0.0379955  -0.0419301   0.0000000), wk =   0.2500000
        k(    8) = (  -0.0759910  -0.0000099   0.0000000), wk =   0.1250000
        k(    9) = (  -0.0759910   0.0419252   0.0000000), wk =   0.2500000
        k(   10) = (  -0.0759910  -0.0838800   0.0000000), wk =   0.1250000

     Initial potential from superposition of free atoms

     starting charge  378.99916, renormalised to  395.00000

     negative rho (up, down):  1.649E-02 0.000E+00

     %%%%%%%%%%%%%%%%%%%%%%%%%%%%%%%%%%%%%%%%%%%%%%%%%%%%%%%%%%%%%%%%%%%%%%%%
     %                                                                      %
     % You are using vdW-DF, which was implemented by the Thonhauser group. %
     % Please cite the following two papers that made this development      %
     % possible and the two reviews that describe the various versions:     %
     %                                                                      %
     %   T. Thonhauser et al., PRL 115, 136402 (2015).                      %
     %   T. Thonhauser et al., PRB 76, 125112 (2007).                       %
     %   K. Berland et al., Rep. Prog. Phys. 78, 066501 (2015).             %
     %   D.C. Langreth et al., J. Phys.: Condens. Matter 21, 084203 (2009). %
     %                                                                      %
     %                                                                      %
     % If you are calculating the stress with vdW-DF, please also cite:     %
     %                                                                      %
     %   R. Sabatini et al., J. Phys.: Condens. Matter 24, 424209 (2012).   %
     %                                                                      %
     %%%%%%%%%%%%%%%%%%%%%%%%%%%%%%%%%%%%%%%%%%%%%%%%%%%%%%%%%%%%%%%%%%%%%%%%

     Adding external electric field

     Computed dipole along edir(3) :
        Dipole               -8.3970 Ry au,        -21.3430 Debye
        Dipole field         -0.0158 Ry au,

        Potential amp.        1.4689 Ry
        Total length         46.3494 bohr

     Starting wfcs are  299 atomic wfcs
  @ DRIVER MODE: Message from server: STATUS
  @ DRIVER MODE: Message from server: POSDATA
  @ DRIVER MODE: Reading and sharing cell
  @ DRIVER MODE: Reading and sharing positions
  @ DRIVER MODE: Received positions

     Self-consistent Calculation

     iteration #  1     ecut=    29.40 Ry     beta= 0.05
     Davidson diagonalization with overlap
     ethr =  1.00E-02,  avg # of iterations =  2.6

[...]

     total energy              =   -2619.77329321 Ry
     estimated scf accuracy    <    3536.54223667 Ry

     iteration #  2     ecut=    29.40 Ry     beta= 0.05
     Davidson diagonalization with overlap
     c_bands:  4 eigenvalues not converged
     ethr =  1.00E-02,  avg # of iterations = 21.9

[...]

     iteration # 63     ecut=    29.40 Ry     beta= 0.05
     Davidson diagonalization with overlap
     c_bands:  1 eigenvalues not converged
     c_bands:  1 eigenvalues not converged
     ethr =  7.09E-10,  avg # of iterations = 17.8

[...]

     total energy              =   -2939.13541421 Ry
     estimated scf accuracy    <       0.00000011 Ry

     iteration # 80     ecut=    29.40 Ry     beta= 0.05
     Davidson diagonalization with overlap
     ethr =  2.69E-11,  avg # of iterations =  5.3

     negative rho (up, down):  1.681E-02 0.000E+00

     Adding external electric field

     Computed dipole along edir(3) :
        Dipole                0.7874 Ry au,          2.0013 Debye
        Dipole field          0.0015 Ry au,

        Potential amp.       -0.1377 Ry
        Total length         46.3494 bohr

     End of self-consistent calculation

          k = 0.0000 0.0000 0.0000 ( 18029 PWs)   bands (ev):

   -55.8527 -55.8515 -55.8186 -55.8155 -55.7459 -55.7027 -55.6652 -55.6633
   -55.6303 -55.6293 -55.6247 -55.5910 -55.1902 -55.1443 -54.8281 -54.7940
   -32.4057 -32.3356 -32.2416 -32.1632 -32.1493 -32.1448 -32.1313 -32.1165
   -32.0957 -32.0826 -32.0296 -32.0119 -32.0051 -32.0033 -31.9935 -31.9897
   -31.9575 -31.9456 -31.9396 -31.9370 -31.9101 -31.9077 -31.8918 -31.8896
   -31.8589 -31.8546 -31.8524 -31.8513 -31.8262 -31.8113 -31.8036 -31.7933
   -31.7815 -31.7792 -31.7715 -31.7381 -31.7317 -31.4546 -31.4174 -31.3901
   -31.3376 -31.3025 -31.2349 -31.1472 -31.1248 -31.0519 -30.9654 -30.8541
   -17.9119 -16.6118 -16.3316 -16.0763 -16.0011 -15.9972 -15.8637 -15.7007
   -15.5880 -15.5211 -15.4408 -15.4110 -15.3889 -15.3534 -15.3471 -15.3094
   -15.3005 -15.2751 -15.2715 -15.2092 -15.2059 -15.1984 -15.1886 -15.1045
   -15.0469 -14.9954 -14.9876 -14.9142 -14.8804 -14.3523 -13.3300 -13.2136
   -12.1621  -7.8737  -5.3655  -4.5378  -3.9886  -3.8293  -3.7595  -3.7251
    -3.6484  -3.4888  -3.4100  -3.1280  -3.0793  -3.0237  -3.0142  -2.9778
    -2.9332  -2.7813  -2.7038  -2.6769  -2.6612  -2.6389  -2.6239  -2.6118
    -2.5959  -2.5765  -2.4954  -2.4143  -2.3703  -2.2936  -2.2799  -2.2447
    -2.1648  -2.1644  -2.1243  -2.1040  -2.0858  -2.0696  -2.0612  -2.0459
    -1.9057  -1.8482  -1.8345  -1.6537  -1.6366  -1.5883  -1.4614  -1.4550
    -1.3387  -1.3233  -1.2831  -1.2453  -1.1728  -1.1509  -1.0394  -0.9982
    -0.9364  -0.8895  -0.8741  -0.7985  -0.7338  -0.6954  -0.6823  -0.6172
    -0.6103  -0.5973  -0.4628  -0.3861  -0.3328  -0.2768  -0.2545  -0.1986
    -0.1590  -0.1158  -0.0284  -0.0012   0.0105   0.0686   0.0904   0.1159
     0.1276   0.1472   0.1761   0.2316   0.3498   0.3815   0.4575   0.4718
     0.5323   0.6666   0.8047   0.8716   0.9244   1.0196   1.1252   1.1947
     1.2679   1.3871   1.7649   1.8103   2.1379   3.2671   3.3691   3.4019
     3.4129   3.5160   3.6647   3.7263   3.7414   3.7828   3.8165

[...]

          k = 0.0380-0.0419 0.0000 ( 17876 PWs)   bands (ev):

[...]

          k =-0.0760-0.0000 0.0000 ( 17886 PWs)   bands (ev):

[...]

          k =-0.0760-0.0839 0.0000 ( 17948 PWs)   bands (ev):

   -55.8359 -55.8353 -55.8339 -55.8328 -55.7374 -55.7112 -55.6485 -55.6469
   -55.6466 -55.6456 -55.6085 -55.6073 -55.1823 -55.1521 -54.8111 -54.8109
   -32.2078 -32.2062 -32.1511 -32.1507 -32.1304 -32.1300 -32.0964 -32.0934
   -32.0844 -32.0676 -32.0022 -31.9994 -31.9940 -31.9920 -31.9700 -31.9624
   -31.9556 -31.9550 -31.9499 -31.9487 -31.9468 -31.9353 -31.9296 -31.9225
   -31.9104 -31.9056 -31.8608 -31.8506 -31.8485 -31.8477 -31.8395 -31.8387
   -31.8255 -31.8248 -31.8243 -31.8230 -31.6842 -31.4500 -31.4162 -31.4117
   -31.3937 -31.3386 -31.1376 -31.1374 -31.0478 -31.0476 -31.0088 -31.0087
   -17.8984 -16.0270 -16.0242 -15.8164 -15.7775 -15.7584 -15.7525 -15.6627
   -15.5770 -15.5434 -15.5404 -15.4536 -15.4274 -15.4113 -15.3951 -15.3897
   -15.3809 -15.3513 -15.3161 -15.3086 -15.2944 -15.2888 -15.2771 -15.2200
   -15.1686 -15.1644 -15.1421 -15.0699 -14.8312 -14.6924 -13.3155 -13.3153
   -12.1229  -7.8142  -5.4106  -4.5983  -3.3216  -3.3120  -3.0656  -3.0228
    -3.0188  -2.9928  -2.9506  -2.7897  -2.7772  -2.7577  -2.7500  -2.7053
    -2.6817  -2.6613  -2.6418  -2.6366  -2.6076  -2.5815  -2.5664  -2.5294
    -2.5225  -2.5135  -2.4820  -2.4712  -2.4247  -2.4193  -2.3987  -2.3712
    -2.3618  -2.3276  -2.1797  -2.1072  -2.0791  -1.9942  -1.9873  -1.9476
    -1.9246  -1.9033  -1.8953  -1.8686  -1.8305  -1.6945  -1.6119  -1.5502
    -1.5415  -1.4571  -1.4295  -1.3679  -1.2781  -1.2525  -1.2317  -1.1600
    -1.0843  -1.0462  -0.9949  -0.9818  -0.9142  -0.9055  -0.8478  -0.8109
    -0.8089  -0.7321  -0.7018  -0.6545  -0.6180  -0.6012  -0.5782  -0.5514
    -0.5359  -0.5128  -0.4370  -0.3528  -0.3011  -0.2404  -0.1475  -0.0181
     0.1023   0.2150   0.2370   0.2812   0.3338   0.3679   0.4614   0.4653
     0.5285   0.5518   0.5933   0.6709   0.6822   0.7066   0.8176   0.8479
     1.5592   1.5596   1.6302   1.6304   2.0785   3.5899   3.6188   3.6379
     3.6696   3.7991   3.8052   3.8155   3.8164   3.9520   3.9577

     the Fermi energy is     3.2770 ev

!    total energy              =   -2939.13542699 Ry
     estimated scf accuracy    <       0.00000006 Ry
     smearing contrib. (-TS)   =      -0.02099052 Ry
     internal energy E=F+TS    =   -2939.11443648 Ry

     The total energy is F=E-TS. E is the sum of the following terms:
     one-electron contribution =  -24492.36534158 Ry
     hartree contribution      =   12334.14180291 Ry
     xc contribution           =    -485.37058752 Ry
     ewald contribution        =    9704.47851983 Ry
     electric field correction =       0.00116989 Ry

     convergence has been achieved in  80 iterations

     Forces acting on atoms (cartesian axes, Ry/au):

     atom    1 type  1   force =     0.00007639   -0.00023852    0.09634886
     atom    2 type  1   force =     0.00005305   -0.00057192   -0.17515773
     atom    3 type  2   force =     0.00014914   -0.00013131   -0.02409767
     atom    4 type  2   force =    -0.00000435   -0.00124757    0.05221634
     atom    5 type  2   force =    -0.01055534   -0.00048040    0.00250391
     atom    6 type  2   force =     0.01237287    0.00022045    0.00287820
     atom    7 type  1   force =     0.00098421    0.00026818   -0.01175250
     atom    8 type  1   force =    -0.00013822    0.00775518    0.02263378
     atom    9 type  2   force =    -0.00019681   -0.00015360   -0.00027827
     atom   10 type  2   force =    -0.00262148    0.00115246   -0.01266142
     atom   11 type  2   force =     0.00006302   -0.00013013    0.00005734
     atom   12 type  2   force =     0.00008865    0.00017626   -0.00038292
     atom   13 type  1   force =     0.00044337   -0.00034964    0.00022765
     atom   14 type  1   force =     0.00015640    0.00032424   -0.00014743
     atom   15 type  2   force =    -0.00022566    0.00013947    0.00002278
     atom   16 type  2   force =     0.00011334   -0.00021278    0.00034139
     atom   17 type  2   force =     0.00050448   -0.00001740    0.00036099
     atom   18 type  2   force =     0.00065249   -0.00016870    0.00026897
     atom   19 type  1   force =    -0.00117673   -0.00003346    0.00019165
     atom   20 type  1   force =     0.00031303   -0.00040804   -0.00051221
     atom   21 type  2   force =     0.00004775    0.00000549    0.10313014
     atom   22 type  2   force =     0.00013510   -0.00027491    0.00000631
     atom   23 type  2   force =    -0.07161560   -0.00014611   -0.02764537
     atom   24 type  2   force =     0.07155539    0.00035196   -0.02770696
     atom   25 type  1   force =     0.00015431   -0.00023464    0.09588262
     atom   26 type  1   force =     0.00009900   -0.00040987   -0.17541610
     atom   27 type  2   force =     0.00017648   -0.00021460   -0.02293347
     atom   28 type  2   force =     0.00006409   -0.00101334    0.05217507
     atom   29 type  2   force =    -0.01085484    0.00047947    0.00242493
     atom   30 type  2   force =     0.01255024    0.00063953    0.00277359
     atom   31 type  1   force =     0.00087132    0.00348148   -0.01293283
     atom   32 type  1   force =     0.00002968   -0.00925352    0.02306596
     atom   33 type  2   force =    -0.00048147    0.00013678    0.00022046
     atom   34 type  2   force =    -0.00302451    0.00022883   -0.01288542
     atom   35 type  2   force =     0.00008675    0.00009502   -0.00007833
     atom   36 type  2   force =     0.00009483    0.00034053   -0.00039290
     atom   37 type  1   force =     0.00033635    0.00036426    0.00007231
     atom   38 type  1   force =     0.00002861   -0.00043052    0.00014505
     atom   39 type  2   force =     0.00015355    0.00044433    0.00053998
     atom   40 type  2   force =     0.00035575    0.00013259   -0.00039019
     atom   41 type  2   force =     0.00044006    0.00003711    0.00028463
     atom   42 type  2   force =     0.00090882    0.00003161    0.00051180
     atom   43 type  1   force =    -0.00156049   -0.00035706   -0.00035424
     atom   44 type  1   force =     0.00069752   -0.00027982   -0.00077157
     atom   45 type  2   force =     0.00006029   -0.00003875    0.10310717
     atom   46 type  2   force =    -0.07163959   -0.00007520   -0.02765905
     atom   47 type  2   force =     0.07158078    0.00032147   -0.02772924
     atom   48 type  3   force =    -0.00058782   -0.00107252   -0.00037266
     atom   49 type  4   force =    -0.00086783   -0.00005598   -0.00031333
     atom   50 type  5   force =    -0.00096708    0.00068809    0.00065027
     atom   51 type  5   force =     0.00047779   -0.00058110    0.00018849
     atom   52 type  3   force =    -0.00022596    0.00077437   -0.00143364
     atom   53 type  5   force =    -0.00013112   -0.00000777    0.00077480

     Total force =     0.365740     Total SCF correction =     0.000657
  @ DRIVER MODE: Message from server: STATUS
  @ DRIVER MODE: Message from server: GETFORCE
  @ DRIVER MODE: Returning v,forces,stress,ensemble

     Writing output data file ./calc.save/
  @ DRIVER MODE: Message from server: EXIT
  @ DRIVE MODE: Exiting

     General routines

     Parallel routines

   This run was terminated on:  22:11:55   8Sep2021

   JOB DONE.