     Program PWSCF v.6.7GPU starts on 16Sep2021 at  0:46:48

     R & G space division:  proc/nbgrp/npool/nimage =      10
     Reading input from /storage/home/hcoda1/3/ntian30/research/carbon/CxH_vib/H2O_calc/ads_slab/CH2N2H2O_b/out_0028/pw.inp
Warning: card &CELL ignored
Warning: card   CELL_DYNAMICS='IPI', ignored
Warning: card / ignored

     Current dimensions of program PWSCF are:
     Max number of different atomic species (ntypx) = 10
     Max number of k-points (npk) =  40000
     Max angular momentum in pseudopotentials (lmaxx) =  3
     Presently no symmetry can be used with electric field

     Message from routine cell_base_init:
     DEPRECATED: use true lattice parameter, not A to a.u. conversion factor

     IMPORTANT: XC functional enforced from input :
     Exchange-correlation= BEEF-VDW
                           (   1   4  43  14   2   0   0)
     Any further DFT definition will be discarded
     Please, verify this is what you really want

  @ DRIVER MODE: Connecting to
 qe_1139763_2852605.sched-torque.pace.gatech.edughztgvxi_scratch
  using UNIX socket
  @ DRIVER MODE: Message from server: STATUS
  @ DRIVER MODE: Message from server: INIT
  @ DRIVER MODE: Receiving replica           0          -1
  @ DRIVER MODE: Receiving encoded integer          25
  @ DRIVER MODE:  SCF:  T  FORCE:  T  STRESS:  F  VC:  F  ENSEMBLE:  F
  @ DRIVER MODE:  SCF:  T  FORCE:  T  STRESS:  F  VC:  F  ENSEMBLE:  F

     Using Slab Decomposition

     bravais-lattice index     =            0
     lattice parameter (alat)  =       1.8897  a.u.
     unit-cell volume          =    6658.9804 (a.u.)^3
     number of atoms/cell      =           55
     number of atomic types    =            5
     number of electrons       =       402.00
     number of Kohn-Sham states=          211
     kinetic-energy cutoff     =      29.3995  Ry
     charge density cutoff     =     293.9946  Ry
     scf convergence threshold =      7.3E-08
     mixing beta               =       0.0500
     number of iterations used =            8  plain     mixing
     Exchange-correlation= BEEF-VDW
                           (   1   4  43  14   2   0   0)

     celldm(1)=   1.889726  celldm(2)=   0.000000  celldm(3)=   0.000000
     celldm(4)=   0.000000  celldm(5)=   0.000000  celldm(6)=   0.000000

     crystal axes: (cart. coord. in units of alat)
               a(1) = (   6.579727   0.000000   0.000000 )
               a(2) = (  -0.000775   5.961596   0.000000 )
               a(3) = (   0.000000   0.000000  25.155947 )

     reciprocal axes: (cart. coord. in units 2 pi/alat)
               b(1) = (  0.151982  0.000020  0.000000 )
               b(2) = (  0.000000  0.167740  0.000000 )
               b(3) = (  0.000000  0.000000  0.039752 )

     PseudoPot. # 1 for Ti read from file:
     /storage/coda1/p-amedford6/0/shared/rich_project_chbe-medford/medford-share/data/pseudos_module/espresso/nninc/pbe/van/Ti.UPF
     MD5 check sum: 8e4df49b7f0d34bbd5052bf3f5ea0213
     Pseudo is Ultrasoft, Zval = 12.0
     Generated by new atomic code, or converted to UPF format
     Using radial grid of  851 points,  6 beta functions with:
                l(1) =   0
                l(2) =   0
                l(3) =   1
                l(4) =   1
                l(5) =   2
                l(6) =   2
     Q(r) pseudized with  8 coefficients,  rinner =    1.000   1.000   1.000
                                                       1.000   1.000

     PseudoPot. # 2 for O  read from file:
     /storage/coda1/p-amedford6/0/shared/rich_project_chbe-medford/medford-share/data/pseudos_module/espresso/nninc/pbe/van/O.UPF
     MD5 check sum: 78c19812648e8988a0fe644b0f25305e
     Pseudo is Ultrasoft, Zval =  6.0
     Generated by new atomic code, or converted to UPF format
     Using radial grid of  737 points,  4 beta functions with:
                l(1) =   0
                l(2) =   0
                l(3) =   1
                l(4) =   1
     Q(r) pseudized with  8 coefficients,  rinner =    0.800   0.800   0.800

     PseudoPot. # 3 for N  read from file:
     /storage/coda1/p-amedford6/0/shared/rich_project_chbe-medford/medford-share/data/pseudos_module/espresso/nninc/pbe/van/N.UPF
     MD5 check sum: 90d10febe142ad51ac9d5be1deb811c4
     Pseudo is Ultrasoft, Zval =  5.0
     Generated by new atomic code, or converted to UPF format
     Using radial grid of  729 points,  4 beta functions with:
                l(1) =   0
                l(2) =   0
                l(3) =   1
                l(4) =   1
     Q(r) pseudized with  8 coefficients,  rinner =    0.800   0.800   0.800

     PseudoPot. # 4 for C  read from file:
     /storage/coda1/p-amedford6/0/shared/rich_project_chbe-medford/medford-share/data/pseudos_module/espresso/nninc/pbe/van/C.UPF
     MD5 check sum: 1a69bf6b8db32088f5b2163dbdb77a27
     Pseudo is Ultrasoft, Zval =  4.0
     Generated by new atomic code, or converted to UPF format
     Using radial grid of  721 points,  4 beta functions with:
                l(1) =   0
                l(2) =   0
                l(3) =   1
                l(4) =   1
     Q(r) pseudized with  8 coefficients,  rinner =    0.800   0.800   0.800

     PseudoPot. # 5 for H  read from file:
     /storage/coda1/p-amedford6/0/shared/rich_project_chbe-medford/medford-share/data/pseudos_module/espresso/nninc/pbe/van/H.UPF
     MD5 check sum: b5ee9d7bfd3a09ee7748110bda690ff7
     Pseudo is Ultrasoft, Zval =  1.0
     Generated by new atomic code, or converted to UPF format
     Using radial grid of  615 points,  1 beta functions with:
                l(1) =   0
     Q(r) pseudized with  8 coefficients,  rinner =    0.800

     atomic species   valence    mass     pseudopotential
        Ti1           12.00    47.86700     Ti( 1.00)
        O1             6.00    15.99900     O ( 1.00)
        N1             5.00    14.00700     N ( 1.00)
        C1             4.00    12.01100     C ( 1.00)
        H1             1.00     1.00800     H ( 1.00)

     No symmetry found

   Cartesian axes

     site n.     atom                  positions (alat units)
         1           Ti1 tau(   1) = (   0.0004258   2.9801865   6.0000000  )
         2           Ti1 tau(   2) = (   3.2906075   1.4906267   6.0002472  )
         3           O1  tau(   3) = (   0.0006271   0.0005054   7.9858123  )
         4           O1  tau(   4) = (   3.2906025   0.0005020   7.3038282  )
         5           O1  tau(   5) = (   4.5942328   1.4918067   9.2879030  )
         6           O1  tau(   6) = (   1.9868534   1.4903216   9.2879459  )
         7           Ti1 tau(   7) = (   3.2907910   2.8959150   9.1758416  )
         8           Ti1 tau(   8) = (   0.0015273   1.4827037   9.2680791  )
         9           O1  tau(   9) = (   3.2934429   5.9466490  11.3040654  )
        10           O1  tau(  10) = (   0.0116148   5.9584955  10.6183126  )
        11           O1  tau(  11) = (   1.2867109   1.4782735  12.6190062  )
        12           O1  tau(  12) = (   5.2776945   1.4764076  12.5976694  )
        13           Ti1 tau(  13) = (   0.0846880   2.9559742  12.7004455  )
        14           Ti1 tau(  14) = (   3.4192946   1.4610250  12.4797112  )
        15           O1  tau(  15) = (   0.0040618   5.9510889  14.6015872  )
        16           O1  tau(  16) = (   3.2972055   5.9566395  13.8969661  )
        17           O1  tau(  17) = (   4.5327346   1.5242580  16.0225792  )
        18           O1  tau(  18) = (   2.0474321   1.5095568  15.9818283  )
        19           Ti1 tau(  19) = (   3.2830006   2.9631064  15.6531525  )
        20           Ti1 tau(  20) = (   6.5418150   1.5417905  15.9635021  )
        21           O1  tau(  21) = (   3.2904802   0.0005063   4.7018136  )
        22           O1  tau(  22) = (   0.0063621   0.0138944  17.1794403  )
        23           O1  tau(  23) = (   1.3043587   1.4918075   6.0039043  )
        24           O1  tau(  24) = (   5.2767064   1.4903225   6.0039473  )
        25           Ti1 tau(  25) = (   0.0000382   5.9609847   6.0000000  )
        26           Ti1 tau(  26) = (   3.2902200   4.4714249   6.0002472  )
        27           O1  tau(  27) = (   0.0002396   2.9813036   7.9858123  )
        28           O1  tau(  28) = (   3.2902150   2.9813002   7.3038282  )
        29           O1  tau(  29) = (   4.5938453   4.4726049   9.2879030  )
        30           O1  tau(  30) = (   1.9864658   4.4711199   9.2879459  )
        31           Ti1 tau(  31) = (   3.2891106   5.8743827   9.1763621  )
        32           Ti1 tau(  32) = (   0.0006254   4.4649316   9.2693709  )
        33           O1  tau(  33) = (   3.2987291   2.9703105  11.3060640  )
        34           O1  tau(  34) = (   0.0092240   2.9805883  10.6323155  )
        35           O1  tau(  35) = (   1.2872851   4.4534926  12.6272766  )
        36           O1  tau(  36) = (   5.2800973   4.4624318  12.6062822  )
        37           Ti1 tau(  37) = (   0.1009857   5.9355968  12.6779778  )
        38           Ti1 tau(  38) = (   3.4194502   4.4581092  12.4739500  )
        39           O1  tau(  39) = (   6.5579784   2.9468049  14.6267102  )
        40           O1  tau(  40) = (   3.2950467   2.9662764  13.8528306  )
        41           O1  tau(  41) = (   4.5369278   4.4531499  15.9976687  )
        42           O1  tau(  42) = (   2.0426393   4.4597293  15.9709435  )
        43           Ti1 tau(  43) = (   3.2485613   5.9322867  15.7552632  )
        44           Ti1 tau(  44) = (   6.5504849   4.5932964  16.0494500  )
        45           O1  tau(  45) = (   3.2900926   2.9813045   4.7018136  )
        46           O1  tau(  46) = (   1.3039711   4.4726057   6.0039043  )
        47           O1  tau(  47) = (   5.2763189   4.4711207   6.0039473  )
        48           N1  tau(  48) = (   0.6156314   2.9572148  18.5116157  )
        49           N1  tau(  49) = (   0.0870375   2.9660652  17.3203775  )
        50           C1  tau(  50) = (   6.5561155   3.1780822  19.6039678  )
        51           H1  tau(  51) = (   5.4868456   3.3930584  19.6151425  )
        52           H1  tau(  52) = (   0.5344647   3.1646629  20.5288580  )
        53           O1  tau(  53) = (   3.2552377   5.9566958  18.1335742  )
        54           H1  tau(  54) = (   4.0211122   0.5273114  18.4085372  )
        55           H1  tau(  55) = (   2.4596908   0.4732500  18.4230009  )

     number of k points=    10  Fermi-Dirac smearing, width (Ry)=  0.0073
                       cart. coord. in units 2pi/alat
        k(    1) = (   0.0000000   0.0000000   0.0000000), wk =   0.1250000
        k(    2) = (   0.0000000   0.0419351   0.0000000), wk =   0.2500000
        k(    3) = (   0.0000000  -0.0838702   0.0000000), wk =   0.1250000
        k(    4) = (   0.0379955   0.0000049   0.0000000), wk =   0.2500000
        k(    5) = (   0.0379955   0.0419400   0.0000000), wk =   0.2500000
        k(    6) = (   0.0379955  -0.0838652   0.0000000), wk =   0.2500000
        k(    7) = (   0.0379955  -0.0419301   0.0000000), wk =   0.2500000
        k(    8) = (  -0.0759910  -0.0000099   0.0000000), wk =   0.1250000
        k(    9) = (  -0.0759910   0.0419252   0.0000000), wk =   0.2500000
        k(   10) = (  -0.0759910  -0.0838800   0.0000000), wk =   0.1250000

     Initial potential from superposition of free atoms

     starting charge  385.99915, renormalised to  402.00000

     negative rho (up, down):  1.463E-02 0.000E+00

     %%%%%%%%%%%%%%%%%%%%%%%%%%%%%%%%%%%%%%%%%%%%%%%%%%%%%%%%%%%%%%%%%%%%%%%%
     %                                                                      %
     % You are using vdW-DF, which was implemented by the Thonhauser group. %
     % Please cite the following two papers that made this development      %
     % possible and the two reviews that describe the various versions:     %
     %                                                                      %
     %   T. Thonhauser et al., PRL 115, 136402 (2015).                      %
     %   T. Thonhauser et al., PRB 76, 125112 (2007).                       %
     %   K. Berland et al., Rep. Prog. Phys. 78, 066501 (2015).             %
     %   D.C. Langreth et al., J. Phys.: Condens. Matter 21, 084203 (2009). %
     %                                                                      %
     %                                                                      %
     % If you are calculating the stress with vdW-DF, please also cite:     %
     %                                                                      %
     %   R. Sabatini et al., J. Phys.: Condens. Matter 24, 424209 (2012).   %
     %                                                                      %
     %%%%%%%%%%%%%%%%%%%%%%%%%%%%%%%%%%%%%%%%%%%%%%%%%%%%%%%%%%%%%%%%%%%%%%%%

     Adding external electric field

     Computed dipole along edir(3) :
        Dipole              -11.9608 Ry au,        -30.4013 Debye
        Dipole field         -0.0226 Ry au,

        Potential amp.        2.0924 Ry
        Total length         46.3494 bohr

     Starting wfcs are  304 atomic wfcs
  @ DRIVER MODE: Message from server: STATUS
  @ DRIVER MODE: Message from server: POSDATA
  @ DRIVER MODE: Reading and sharing cell
  @ DRIVER MODE: Reading and sharing positions
  @ DRIVER MODE: Received positions

     Self-consistent Calculation

     iteration #  1     ecut=    29.40 Ry     beta= 0.05
     Davidson diagonalization with overlap
     c_bands:  3 eigenvalues not converged
     c_bands:  1 eigenvalues not converged
     c_bands:  5 eigenvalues not converged
     c_bands:  3 eigenvalues not converged
     c_bands:  3 eigenvalues not converged
     c_bands:  2 eigenvalues not converged
     c_bands:  4 eigenvalues not converged
     c_bands:  4 eigenvalues not converged
     c_bands:  3 eigenvalues not converged
     ethr =  1.00E-05,  avg # of iterations = 21.6

[...]

     total energy              =   -2415.33491683 Ry
     estimated scf accuracy    <    6284.06440445 Ry

     iteration #  2     ecut=    29.40 Ry     beta= 0.05
     Davidson diagonalization with overlap
     ethr =  1.00E-02,  avg # of iterations = 23.0

[...]

     iteration # 42     ecut=    29.40 Ry     beta= 0.05
     Davidson diagonalization with overlap
     c_bands:  1 eigenvalues not converged
     ethr =  1.34E-07,  avg # of iterations =  8.3

[...]

     total energy              =   -2972.73819338 Ry
     estimated scf accuracy    <       0.00000012 Ry

     iteration # 63     ecut=    29.40 Ry     beta= 0.05
     Davidson diagonalization with overlap
     ethr =  2.86E-11,  avg # of iterations =  2.7

     negative rho (up, down):  1.529E-02 0.000E+00

     Adding external electric field

     Computed dipole along edir(3) :
        Dipole                0.6730 Ry au,          1.7107 Debye
        Dipole field          0.0013 Ry au,

        Potential amp.       -0.1177 Ry
        Total length         46.3494 bohr

     End of self-consistent calculation

          k = 0.0000 0.0000 0.0000 ( 18029 PWs)   bands (ev):

   -56.1193 -56.0855 -55.6567 -55.6229 -55.5644 -55.5400 -55.5300 -55.5046
   -55.4193 -55.3705 -55.3299 -55.2613 -54.9356 -54.9016 -54.8610 -54.8217
   -32.5711 -32.4105 -32.3829 -32.2795 -32.1950 -32.1866 -32.1240 -32.0728
   -32.0507 -31.8999 -31.8769 -31.8727 -31.8408 -31.8395 -31.8211 -31.7872
   -31.7772 -31.7742 -31.7603 -31.7588 -31.7537 -31.7195 -31.7175 -31.7104
   -31.6760 -31.6738 -31.6605 -31.6492 -31.6296 -31.5983 -31.5406 -31.5383
   -31.5088 -31.4821 -31.4540 -31.4215 -31.3921 -31.3357 -31.2647 -31.2413
   -31.1532 -31.1073 -31.0740 -31.0679 -31.0577 -31.0345 -30.9568 -30.9473
   -18.6833 -17.4858 -16.4401 -16.2210 -15.9858 -15.7471 -15.6959 -15.5798
   -15.5661 -15.5585 -15.4454 -15.4280 -15.3712 -15.2652 -15.1952 -15.1588
   -15.1054 -15.0970 -15.0732 -14.9802 -14.9656 -14.9492 -14.9379 -14.8630
   -14.8197 -14.7996 -14.6928 -14.6251 -14.5600 -14.5308 -14.2358 -13.4360
   -13.3227 -11.6628  -6.5503  -6.4446  -4.4120  -3.9409  -3.9316  -3.7208
    -3.5594  -3.4577  -3.3289  -3.3123  -3.1842  -3.0760  -2.9449  -2.8852
    -2.8780  -2.8062  -2.7822  -2.7747  -2.6394  -2.6004  -2.5581  -2.5348
    -2.5045  -2.4279  -2.4148  -2.3590  -2.3187  -2.2855  -2.1797  -2.1407
    -2.1012  -2.0858  -2.0618  -2.0171  -1.9805  -1.9587  -1.9494  -1.9352
    -1.8969  -1.8047  -1.7548  -1.6560  -1.6002  -1.4995  -1.4558  -1.4399
    -1.3741  -1.2831  -1.1638  -1.1509  -1.0797  -1.0398  -0.9934  -0.9659
    -0.8928  -0.8835  -0.8129  -0.7737  -0.6997  -0.6493  -0.6171  -0.5936
    -0.5708  -0.4748  -0.4255  -0.3469  -0.2885  -0.2326  -0.2109  -0.1184
    -0.0895  -0.0572  -0.0326   0.0251   0.0673   0.0843   0.1047   0.1299
     0.1628   0.1865   0.3070   0.3602   0.3735   0.4065   0.4311   0.5414
     0.6022   0.6776   0.7369   0.7776   0.8806   0.8965   0.9411   1.0666
     1.0794   1.0864   1.1449   1.3043   1.6189   1.6446   1.6856   1.7771
     2.9513   3.1092   3.2257   3.4474   3.5457   3.5805   3.8455   3.9519
     3.9899   4.0163   4.0263

[...]

          k = 0.0380-0.0419 0.0000 ( 17876 PWs)   bands (ev):

[...]

          k =-0.0760-0.0000 0.0000 ( 17886 PWs)   bands (ev):

[...]

          k =-0.0760-0.0839 0.0000 ( 17948 PWs)   bands (ev):

   -56.1024 -56.1023 -55.6419 -55.6374 -55.5503 -55.5442 -55.5237 -55.5207
   -55.4173 -55.3607 -55.3396 -55.2632 -54.9187 -54.9185 -54.8510 -54.8316
   -32.3962 -32.3958 -32.3871 -32.3869 -32.2313 -32.2311 -31.9486 -31.9434
   -31.8938 -31.8926 -31.8898 -31.8694 -31.8323 -31.8274 -31.8088 -31.8075
   -31.7914 -31.7878 -31.7650 -31.7593 -31.7562 -31.7507 -31.7503 -31.7444
   -31.7107 -31.6717 -31.6662 -31.6593 -31.6339 -31.6226 -31.5870 -31.5727
   -31.5654 -31.5296 -31.5147 -31.4623 -31.2731 -31.2542 -31.2540 -31.1590
   -31.1497 -31.1495 -31.1107 -31.1106 -31.0666 -31.0540 -31.0454 -31.0270
   -18.6822 -17.4802 -15.8152 -15.8098 -15.7430 -15.7391 -15.6700 -15.6074
   -15.5073 -15.5035 -15.4604 -15.3727 -15.2949 -15.2760 -15.2060 -15.1994
   -15.1976 -15.1889 -15.1202 -15.1099 -15.0749 -15.0519 -15.0267 -15.0232
   -14.9947 -14.9715 -14.7583 -14.7019 -14.6354 -14.5600 -14.4103 -13.4254
   -13.4253 -11.6679  -6.5369  -6.4478  -4.3659  -3.9239  -3.1330  -3.0175
    -2.9358  -2.9242  -2.8987  -2.8040  -2.7833  -2.7365  -2.7101  -2.6894
    -2.6145  -2.6029  -2.5511  -2.5454  -2.5121  -2.4949  -2.4413  -2.4315
    -2.4211  -2.4161  -2.3673  -2.3319  -2.3280  -2.3175  -2.2954  -2.2270
    -2.1643  -2.1265  -2.0885  -2.0728  -2.0703  -2.0132  -1.9872  -1.9543
    -1.9018  -1.8980  -1.8642  -1.8130  -1.6839  -1.6733  -1.5421  -1.4702
    -1.4516  -1.3730  -1.3228  -1.2897  -1.2169  -1.1658  -1.1364  -1.0291
    -1.0073  -0.9760  -0.9622  -0.9267  -0.9221  -0.8819  -0.7744  -0.7533
    -0.7154  -0.7123  -0.6337  -0.6036  -0.5502  -0.5293  -0.5172  -0.4748
    -0.4565  -0.3737  -0.3499  -0.2941  -0.2397  -0.1971  -0.1463  -0.0946
    -0.0107   0.0543   0.1083   0.1996   0.2018   0.2142   0.4201   0.4257
     0.5250   0.6081   0.7342   0.7601   0.7741   0.8782   0.9182   0.9416
     0.9691   1.1333   1.1751   1.4704   1.4720   1.5019   1.5022   1.7259
     2.8918   3.6428   3.6429   3.6789   3.6802   3.9122   3.9167   3.9646
     3.9707   4.0263   4.0504

     the Fermi energy is     3.0508 ev

!    total energy              =   -2972.73823279 Ry
     estimated scf accuracy    <       0.00000006 Ry
     smearing contrib. (-TS)   =      -0.01267881 Ry
     internal energy E=F+TS    =   -2972.72555398 Ry

     The total energy is F=E-TS. E is the sum of the following terms:
     one-electron contribution =  -24071.33425171 Ry
     hartree contribution      =   12129.27203093 Ry
     xc contribution           =    -493.17733999 Ry
     ewald contribution        =    9462.51315199 Ry
     electric field correction =       0.00085480 Ry

     convergence has been achieved in  63 iterations

     Forces acting on atoms (cartesian axes, Ry/au):

     atom    1 type  1   force =     0.00012982   -0.00030034    0.10880131
     atom    2 type  1   force =    -0.00011641   -0.00041018   -0.16773167
     atom    3 type  2   force =    -0.00015493   -0.00001039   -0.04386852
     atom    4 type  2   force =     0.00004950   -0.00075226    0.03932797
     atom    5 type  2   force =    -0.01328951    0.00016450   -0.00457579
     atom    6 type  2   force =     0.01488768    0.00103805   -0.00539926
     atom    7 type  1   force =    -0.00093548   -0.00250781    0.01167450
     atom    8 type  1   force =     0.00124666    0.00153947    0.07745611
     atom    9 type  2   force =    -0.00005508   -0.00014909   -0.00024229
     atom   10 type  2   force =    -0.00115012    0.00038807   -0.05117294
     atom   11 type  2   force =    -0.00008119    0.00036382    0.00009940
     atom   12 type  2   force =     0.00000104    0.00024820    0.00006190
     atom   13 type  1   force =     0.00045365    0.00001036    0.00001685
     atom   14 type  1   force =    -0.00023455   -0.00008075    0.00014462
     atom   15 type  2   force =    -0.00020333   -0.00014235    0.00043215
     atom   16 type  2   force =     0.00013615    0.00001607   -0.00005684
     atom   17 type  2   force =    -0.00073411    0.00035254   -0.00015065
     atom   18 type  2   force =     0.00036246    0.00029522   -0.00010634
     atom   19 type  1   force =     0.00036331   -0.00015201    0.00012184
     atom   20 type  1   force =    -0.00014784    0.00044209   -0.00013980
     atom   21 type  2   force =     0.00007836    0.00005618    0.10122858
     atom   22 type  2   force =    -0.00008848   -0.00003133    0.00008832
     atom   23 type  2   force =    -0.07507184   -0.00002531   -0.03017566
     atom   24 type  2   force =     0.07504698    0.00043017   -0.03017259
     atom   25 type  1   force =     0.00021102   -0.00029199    0.10845178
     atom   26 type  1   force =    -0.00010356   -0.00045061   -0.16775405
     atom   27 type  2   force =    -0.00001986   -0.00025467   -0.04287092
     atom   28 type  2   force =     0.00011524   -0.00047434    0.03868908
     atom   29 type  2   force =    -0.01360792    0.00094314   -0.00480673
     atom   30 type  2   force =     0.01514156    0.00120485   -0.00568359
     atom   31 type  1   force =    -0.00125663    0.00051319    0.00737454
     atom   32 type  1   force =     0.00133256   -0.00409002    0.07788643
     atom   33 type  2   force =    -0.00005885    0.00012272   -0.00027231
     atom   34 type  2   force =    -0.00137930    0.00034618   -0.05722830
     atom   35 type  2   force =    -0.00001522   -0.00050332   -0.00004111
     atom   36 type  2   force =    -0.00034722   -0.00022582   -0.00014040
     atom   37 type  1   force =    -0.00007335   -0.00002196   -0.00028030
     atom   38 type  1   force =    -0.00019232    0.00020805   -0.00013180
     atom   39 type  2   force =     0.00000874   -0.00002807   -0.00044095
     atom   40 type  2   force =    -0.00001170    0.00028764    0.00023300
     atom   41 type  2   force =    -0.00003953   -0.00011193    0.00003593
     atom   42 type  2   force =    -0.00030176    0.00004517   -0.00005655
     atom   43 type  1   force =     0.00029306    0.00078375    0.00016184
     atom   44 type  1   force =    -0.00007033    0.00005509    0.00016175
     atom   45 type  2   force =     0.00007025    0.00003672    0.10119061
     atom   46 type  2   force =    -0.07506138    0.00003940   -0.03013521
     atom   47 type  2   force =     0.07503821    0.00047284   -0.03014679
     atom   48 type  3   force =     0.00019033    0.00051104    0.00047930
     atom   49 type  3   force =     0.00013774   -0.00029179    0.00015529
     atom   50 type  4   force =    -0.00052462    0.00105852   -0.00017259
     atom   51 type  5   force =     0.00012880    0.00039489   -0.00038503
     atom   52 type  5   force =     0.00016257   -0.00098259    0.00007048
     atom   53 type  2   force =     0.00042088    0.00058197    0.00039958
     atom   54 type  5   force =    -0.00083416   -0.00089230   -0.00017809
     atom   55 type  5   force =     0.00015400    0.00023131   -0.00022605

     Total force =     0.390457     Total SCF correction =     0.000379
  @ DRIVER MODE: Message from server: STATUS
  @ DRIVER MODE: Message from server: GETFORCE
  @ DRIVER MODE: Returning v,forces,stress,ensemble

     Writing output data file ./calc.save/
  @ DRIVER MODE: Message from server: EXIT
  @ DRIVE MODE: Exiting

     General routines

     Parallel routines

   This run was terminated on:   1: 6:39  16Sep2021

   JOB DONE.