     Program PWSCF v.6.7GPU starts on 27Sep2021 at 21:46:32

     R & G space division:  proc/nbgrp/npool/nimage =       8
     Reading input from /storage/home/hcoda1/3/ntian30/research/carbon/CxH_vib/CH_calc/ads_slab/CHONHH_a/out_0031/pw.inp
Warning: card &CELL ignored
Warning: card   CELL_DYNAMICS='IPI', ignored
Warning: card / ignored

     Current dimensions of program PWSCF are:
     Max number of different atomic species (ntypx) = 10
     Max number of k-points (npk) =  40000
     Max angular momentum in pseudopotentials (lmaxx) =  3
     Presently no symmetry can be used with electric field

     Message from routine cell_base_init:
     DEPRECATED: use true lattice parameter, not A to a.u. conversion factor

     IMPORTANT: XC functional enforced from input :
     Exchange-correlation= BEEF-VDW
                           (   1   4  43  14   2   0   0)
     Any further DFT definition will be discarded
     Please, verify this is what you really want

  @ DRIVER MODE: Connecting to
 qe_1139763_2982670.sched-torque.pace.gatech.edugi8jimt3_scratch
  using UNIX socket
  @ DRIVER MODE: Message from server: STATUS
  @ DRIVER MODE: Message from server: INIT
  @ DRIVER MODE: Receiving replica           0          -1
  @ DRIVER MODE: Receiving encoded integer          25
  @ DRIVER MODE:  SCF:  T  FORCE:  T  STRESS:  F  VC:  F  ENSEMBLE:  F
  @ DRIVER MODE:  SCF:  T  FORCE:  T  STRESS:  F  VC:  F  ENSEMBLE:  F

     Using Slab Decomposition

     bravais-lattice index     =            0
     lattice parameter (alat)  =       1.8897  a.u.
     unit-cell volume          =    6658.9804 (a.u.)^3
     number of atoms/cell      =           53
     number of atomic types    =            5
     number of electrons       =       396.00
     number of Kohn-Sham states=          208
     kinetic-energy cutoff     =      29.3995  Ry
     charge density cutoff     =     293.9946  Ry
     scf convergence threshold =      7.3E-08
     mixing beta               =       0.0500
     number of iterations used =            8  plain     mixing
     Exchange-correlation= BEEF-VDW
                           (   1   4  43  14   2   0   0)

     celldm(1)=   1.889726  celldm(2)=   0.000000  celldm(3)=   0.000000
     celldm(4)=   0.000000  celldm(5)=   0.000000  celldm(6)=   0.000000

     crystal axes: (cart. coord. in units of alat)
               a(1) = (   6.579727   0.000000   0.000000 )
               a(2) = (  -0.000775   5.961596   0.000000 )
               a(3) = (   0.000000   0.000000  25.155947 )

     reciprocal axes: (cart. coord. in units 2 pi/alat)
               b(1) = (  0.151982  0.000020  0.000000 )
               b(2) = (  0.000000  0.167740  0.000000 )
               b(3) = (  0.000000  0.000000  0.039752 )

     PseudoPot. # 1 for O  read from file:
     /storage/coda1/p-amedford6/0/shared/rich_project_chbe-medford/medford-share/data/pseudos_module/espresso/nninc/pbe/van/O.UPF
     MD5 check sum: 78c19812648e8988a0fe644b0f25305e
     Pseudo is Ultrasoft, Zval =  6.0
     Generated by new atomic code, or converted to UPF format
     Using radial grid of  737 points,  4 beta functions with:
                l(1) =   0
                l(2) =   0
                l(3) =   1
                l(4) =   1
     Q(r) pseudized with  8 coefficients,  rinner =    0.800   0.800   0.800

     PseudoPot. # 2 for Ti read from file:
     /storage/coda1/p-amedford6/0/shared/rich_project_chbe-medford/medford-share/data/pseudos_module/espresso/nninc/pbe/van/Ti.UPF
     MD5 check sum: 8e4df49b7f0d34bbd5052bf3f5ea0213
     Pseudo is Ultrasoft, Zval = 12.0
     Generated by new atomic code, or converted to UPF format
     Using radial grid of  851 points,  6 beta functions with:
                l(1) =   0
                l(2) =   0
                l(3) =   1
                l(4) =   1
                l(5) =   2
                l(6) =   2
     Q(r) pseudized with  8 coefficients,  rinner =    1.000   1.000   1.000
                                                       1.000   1.000

     PseudoPot. # 3 for C  read from file:
     /storage/coda1/p-amedford6/0/shared/rich_project_chbe-medford/medford-share/data/pseudos_module/espresso/nninc/pbe/van/C.UPF
     MD5 check sum: 1a69bf6b8db32088f5b2163dbdb77a27
     Pseudo is Ultrasoft, Zval =  4.0
     Generated by new atomic code, or converted to UPF format
     Using radial grid of  721 points,  4 beta functions with:
                l(1) =   0
                l(2) =   0
                l(3) =   1
                l(4) =   1
     Q(r) pseudized with  8 coefficients,  rinner =    0.800   0.800   0.800

     PseudoPot. # 4 for H  read from file:
     /storage/coda1/p-amedford6/0/shared/rich_project_chbe-medford/medford-share/data/pseudos_module/espresso/nninc/pbe/van/H.UPF
     MD5 check sum: b5ee9d7bfd3a09ee7748110bda690ff7
     Pseudo is Ultrasoft, Zval =  1.0
     Generated by new atomic code, or converted to UPF format
     Using radial grid of  615 points,  1 beta functions with:
                l(1) =   0
     Q(r) pseudized with  8 coefficients,  rinner =    0.800

     PseudoPot. # 5 for N  read from file:
     /storage/coda1/p-amedford6/0/shared/rich_project_chbe-medford/medford-share/data/pseudos_module/espresso/nninc/pbe/van/N.UPF
     MD5 check sum: 90d10febe142ad51ac9d5be1deb811c4
     Pseudo is Ultrasoft, Zval =  5.0
     Generated by new atomic code, or converted to UPF format
     Using radial grid of  729 points,  4 beta functions with:
                l(1) =   0
                l(2) =   0
                l(3) =   1
                l(4) =   1
     Q(r) pseudized with  8 coefficients,  rinner =    0.800   0.800   0.800

     atomic species   valence    mass     pseudopotential
        O1             6.00    15.99900     O ( 1.00)
        Ti1           12.00    47.86700     Ti( 1.00)
        C1             4.00    12.01100     C ( 1.00)
        H1             1.00     1.00800     H ( 1.00)
        N1             5.00    14.00700     N ( 1.00)

     No symmetry found

   Cartesian axes

     site n.     atom                  positions (alat units)
         1           O1  tau(   1) = (   3.2904802   0.0005063   4.7018136  )
         2           O1  tau(   2) = (   3.2900926   2.9813045   4.7018136  )
         3           Ti1 tau(   3) = (   0.0004258   2.9801865   6.0000000  )
         4           Ti1 tau(   4) = (   0.0000382   5.9609847   6.0000000  )
         5           Ti1 tau(   5) = (   3.2906075   1.4906267   6.0002472  )
         6           Ti1 tau(   6) = (   3.2902200   4.4714249   6.0002472  )
         7           O1  tau(   7) = (   1.3043587   1.4918075   6.0039043  )
         8           O1  tau(   8) = (   1.3039711   4.4726057   6.0039043  )
         9           O1  tau(   9) = (   5.2767064   1.4903225   6.0039473  )
        10           O1  tau(  10) = (   5.2763189   4.4711207   6.0039473  )
        11           O1  tau(  11) = (   3.2906025   0.0005020   7.3038282  )
        12           O1  tau(  12) = (   3.2902150   2.9813002   7.3038282  )
        13           O1  tau(  13) = (   0.0006271   0.0005054   7.9858123  )
        14           O1  tau(  14) = (   0.0002396   2.9813036   7.9858123  )
        15           Ti1 tau(  15) = (   3.2907910   2.8959150   9.1758416  )
        16           Ti1 tau(  16) = (   3.2891106   5.8743827   9.1763621  )
        17           Ti1 tau(  17) = (   0.0015273   1.4827037   9.2680791  )
        18           Ti1 tau(  18) = (   0.0006254   4.4649316   9.2693709  )
        19           O1  tau(  19) = (   4.5942328   1.4918067   9.2879030  )
        20           O1  tau(  20) = (   4.5938453   4.4726049   9.2879030  )
        21           O1  tau(  21) = (   1.9868534   1.4903216   9.2879459  )
        22           O1  tau(  22) = (   1.9864658   4.4711199   9.2879459  )
        23           O1  tau(  23) = (   0.0116148   5.9584955  10.6183126  )
        24           O1  tau(  24) = (   0.0092240   2.9805883  10.6323155  )
        25           O1  tau(  25) = (   3.2982867   2.9605634  11.3629554  )
        26           O1  tau(  26) = (   3.2970280   5.9418052  11.3670498  )
        27           Ti1 tau(  27) = (   3.3197620   1.4647166  12.5186485  )
        28           Ti1 tau(  28) = (   3.3197371   4.4442548  12.5174675  )
        29           Ti1 tau(  29) = (   0.0247145   5.9392298  12.5050521  )
        30           Ti1 tau(  30) = (   0.0207888   2.9549252  12.5325712  )
        31           O1  tau(  31) = (   5.2994564   1.4737048  12.6581032  )
        32           O1  tau(  32) = (   5.2987173   4.4536623  12.6588755  )
        33           O1  tau(  33) = (   1.2980767   1.4735271  12.6640466  )
        34           O1  tau(  34) = (   1.2983722   4.4539272  12.6649509  )
        35           O1  tau(  35) = (   3.3003782   2.9593424  13.9572071  )
        36           O1  tau(  36) = (   3.3054355   5.9407569  13.9837565  )
        37           O1  tau(  37) = (   0.0046088   5.9251545  14.7309831  )
        38           O1  tau(  38) = (   0.0006132   2.9575759  14.8603695  )
        39           Ti1 tau(  39) = (   3.2921441   2.9479593  15.7473734  )
        40           Ti1 tau(  40) = (   3.3096684   5.9297328  15.7786280  )
        41           Ti1 tau(  41) = (   0.0292748   4.4653737  15.8834615  )
        42           Ti1 tau(  42) = (   0.0203033   1.2983705  16.0532229  )
        43           O1  tau(  43) = (   2.0312177   4.4313956  16.1584376  )
        44           O1  tau(  44) = (   2.0329186   1.4682422  16.1585226  )
        45           O1  tau(  45) = (   4.5395334   1.4708069  16.1744780  )
        46           O1  tau(  46) = (   4.5451706   4.4284814  16.1696510  )
        47           O1  tau(  47) = (   6.5626888   5.9521290  17.2995914  )
        48           C1  tau(  48) = (   6.0895709   3.0833951  18.7413599  )
        49           H1  tau(  49) = (   6.1064821   5.1028269  18.6976294  )
        50           H1  tau(  50) = (   5.8218695   2.1931775  19.3174373  )
        51           N1  tau(  51) = (   5.9176545   4.2705979  19.3036562  )
        52           H1  tau(  52) = (   5.4685665   4.3395963  20.1994452  )
        53           O1  tau(  53) = (   6.5388429   2.9572365  17.5815492  )

     number of k points=    10  Fermi-Dirac smearing, width (Ry)=  0.0073
                       cart. coord. in units 2pi/alat
        k(    1) = (   0.0000000   0.0000000   0.0000000), wk =   0.1250000
        k(    2) = (   0.0000000   0.0419351   0.0000000), wk =   0.2500000
        k(    3) = (   0.0000000  -0.0838702   0.0000000), wk =   0.1250000
        k(    4) = (   0.0379955   0.0000049   0.0000000), wk =   0.2500000
        k(    5) = (   0.0379955   0.0419400   0.0000000), wk =   0.2500000
        k(    6) = (   0.0379955  -0.0838652   0.0000000), wk =   0.2500000
        k(    7) = (   0.0379955  -0.0419301   0.0000000), wk =   0.2500000
        k(    8) = (  -0.0759910  -0.0000099   0.0000000), wk =   0.1250000
        k(    9) = (  -0.0759910   0.0419252   0.0000000), wk =   0.2500000
        k(   10) = (  -0.0759910  -0.0838800   0.0000000), wk =   0.1250000

     Initial potential from superposition of free atoms

     starting charge  379.99917, renormalised to  396.00000

     negative rho (up, down):  1.602E-02 0.000E+00

     %%%%%%%%%%%%%%%%%%%%%%%%%%%%%%%%%%%%%%%%%%%%%%%%%%%%%%%%%%%%%%%%%%%%%%%%
     %                                                                      %
     % You are using vdW-DF, which was implemented by the Thonhauser group. %
     % Please cite the following two papers that made this development      %
     % possible and the two reviews that describe the various versions:     %
     %                                                                      %
     %   T. Thonhauser et al., PRL 115, 136402 (2015).                      %
     %   T. Thonhauser et al., PRB 76, 125112 (2007).                       %
     %   K. Berland et al., Rep. Prog. Phys. 78, 066501 (2015).             %
     %   D.C. Langreth et al., J. Phys.: Condens. Matter 21, 084203 (2009). %
     %                                                                      %
     %                                                                      %
     % If you are calculating the stress with vdW-DF, please also cite:     %
     %                                                                      %
     %   R. Sabatini et al., J. Phys.: Condens. Matter 24, 424209 (2012).   %
     %                                                                      %
     %%%%%%%%%%%%%%%%%%%%%%%%%%%%%%%%%%%%%%%%%%%%%%%%%%%%%%%%%%%%%%%%%%%%%%%%

     Adding external electric field

     Computed dipole along edir(3) :
        Dipole               -9.7756 Ry au,        -24.8472 Debye
        Dipole field         -0.0184 Ry au,

        Potential amp.        1.7101 Ry
        Total length         46.3494 bohr

     Starting wfcs are  299 atomic wfcs
  @ DRIVER MODE: Message from server: STATUS
  @ DRIVER MODE: Message from server: POSDATA
  @ DRIVER MODE: Reading and sharing cell
  @ DRIVER MODE: Reading and sharing positions
  @ DRIVER MODE: Received positions

     Self-consistent Calculation

     iteration #  1     ecut=    29.40 Ry     beta= 0.05
     Davidson diagonalization with overlap
     c_bands:  1 eigenvalues not converged
     c_bands:  2 eigenvalues not converged
     c_bands:  2 eigenvalues not converged
     c_bands:  3 eigenvalues not converged
     c_bands:  2 eigenvalues not converged
     c_bands:  1 eigenvalues not converged
     c_bands:  2 eigenvalues not converged
     c_bands:  1 eigenvalues not converged
     c_bands:  2 eigenvalues not converged
     c_bands:  2 eigenvalues not converged
     ethr =  1.00E-05,  avg # of iterations = 20.0

[...]

     total energy              =   -2552.98289668 Ry
     estimated scf accuracy    <    4457.92808058 Ry

     iteration #  2     ecut=    29.40 Ry     beta= 0.05
     Davidson diagonalization with overlap
     ethr =  1.00E-02,  avg # of iterations = 25.8

[...]

     iteration # 77     ecut=    29.40 Ry     beta= 0.05
     Davidson diagonalization with overlap
     c_bands:  2 eigenvalues not converged
     ethr =  2.95E-11,  avg # of iterations = 12.0

[...]

     total energy              =   -2951.54894688 Ry
     estimated scf accuracy    <       0.00000009 Ry

     iteration # 78     ecut=    29.40 Ry     beta= 0.05
     Davidson diagonalization with overlap
     ethr =  2.20E-11,  avg # of iterations =  9.4

     negative rho (up, down):  1.481E-02 0.000E+00

     Adding external electric field

     Computed dipole along edir(3) :
        Dipole                1.7519 Ry au,          4.4529 Debye
        Dipole field          0.0033 Ry au,

        Potential amp.       -0.3065 Ry
        Total length         46.3494 bohr

     End of self-consistent calculation

          k = 0.0000 0.0000 0.0000 ( 18029 PWs)   bands (ev):

   -55.1178 -55.0819 -55.0740 -55.0398 -55.0002 -54.9965 -54.9897 -54.9595
   -54.9445 -54.9298 -54.9199 -54.9011 -54.8954 -54.8676 -54.0956 -54.0616
   -31.6865 -31.5882 -31.5651 -31.4853 -31.4341 -31.4261 -31.4194 -31.4050
   -31.3631 -31.3581 -31.3277 -31.3234 -31.3183 -31.3004 -31.2901 -31.2727
   -31.2564 -31.2544 -31.2393 -31.2296 -31.2254 -31.2148 -31.1973 -31.1866
   -31.1752 -31.1602 -31.1434 -31.1321 -31.1312 -31.1297 -31.1266 -31.1155
   -31.1011 -31.0993 -31.0953 -31.0873 -31.0822 -31.0787 -31.0441 -31.0393
   -31.0298 -31.0109 -30.5046 -30.4114 -30.3893 -30.3211 -30.2343 -30.1233
   -20.4743 -16.8895 -15.9355 -15.6644 -15.5194 -15.3839 -15.3075 -15.1851
   -15.1374 -15.0303 -14.9302 -14.8387 -14.8004 -14.7740 -14.7582 -14.7476
   -14.7303 -14.6523 -14.6487 -14.6183 -14.6067 -14.5760 -14.5454 -14.5228
   -14.5046 -14.4890 -14.4582 -14.3455 -14.2656 -14.2024 -14.1229 -12.5983
   -12.4810  -9.5041  -7.9848  -6.3933  -5.0841  -4.2948  -3.2796  -3.1236
    -3.0304  -3.0277  -3.0093  -2.8454  -2.7174  -2.5230  -2.3966  -2.3768
    -2.3311  -2.3119  -2.2913  -2.1853  -2.0969  -2.0540  -2.0118  -1.9656
    -1.9262  -1.9014  -1.8934  -1.8784  -1.8602  -1.8593  -1.7574  -1.6519
    -1.5895  -1.5728  -1.5521  -1.5134  -1.4534  -1.4198  -1.3994  -1.3965
    -1.3609  -1.3479  -1.3261  -1.2989  -1.1501  -1.0578  -1.0368  -0.9725
    -0.8562  -0.8091  -0.7483  -0.6756  -0.6736  -0.5935  -0.5915  -0.5538
    -0.5317  -0.4960  -0.4534  -0.3186  -0.2122  -0.1967  -0.1517  -0.1070
    -0.0682  -0.0496   0.1028   0.1076   0.1191   0.1372   0.3183   0.3207
     0.3766   0.3970   0.4535   0.4601   0.4921   0.5590   0.6305   0.6624
     0.6939   0.7757   0.8254   0.8287   0.8364   0.8441   0.8763   0.9603
     0.9907   1.0116   1.0527   1.1911   1.3071   1.4970   1.5035   1.8359
     1.8505   1.9270   2.1117   2.5023   2.5501   3.9809   4.0548   4.1224
     4.1345   4.1397   4.2194   4.3452   4.4603   4.4707   4.4821   4.4890

[...]

          k = 0.0380-0.0419 0.0000 ( 17876 PWs)   bands (ev):

[...]

          k =-0.0760-0.0000 0.0000 ( 17886 PWs)   bands (ev):

[...]

          k =-0.0760-0.0839 0.0000 ( 17948 PWs)   bands (ev):

   -55.1000 -55.0996 -55.0570 -55.0567 -54.9954 -54.9847 -54.9826 -54.9711
   -54.9524 -54.9237 -54.9134 -54.9112 -54.8850 -54.8840 -54.0786 -54.0784
   -31.4902 -31.4899 -31.4898 -31.4035 -31.3804 -31.3801 -31.3763 -31.3485
   -31.3484 -31.3271 -31.3198 -31.3173 -31.3101 -31.2794 -31.2680 -31.2487
   -31.2473 -31.2441 -31.2426 -31.2410 -31.2379 -31.2309 -31.2208 -31.1973
   -31.1935 -31.1898 -31.1826 -31.1808 -31.1766 -31.1765 -31.1640 -31.1475
   -31.1462 -31.1441 -31.1335 -31.1271 -31.1245 -31.1121 -31.1112 -31.1102
   -31.0659 -31.0642 -30.4020 -30.4019 -30.3172 -30.3170 -30.2777 -30.2777
   -20.4702 -16.8925 -15.3688 -15.3554 -15.3226 -15.1072 -15.1069 -15.0911
   -15.0811 -14.9366 -14.9051 -14.8884 -14.8761 -14.8263 -14.8157 -14.8145
   -14.8082 -14.7039 -14.7007 -14.6990 -14.6921 -14.6235 -14.6163 -14.6065
   -14.5756 -14.5636 -14.5595 -14.4632 -14.4629 -14.4603 -14.4043 -12.5825
   -12.5825  -9.5342  -7.9758  -6.3591  -5.0524  -4.2974  -2.6278  -2.5883
    -2.5206  -2.3239  -2.3154  -2.2883  -2.2028  -2.1683  -2.1067  -2.0927
    -2.0785  -2.0370  -1.9984  -1.9905  -1.9518  -1.9426  -1.9328  -1.9116
    -1.8938  -1.8587  -1.8366  -1.8267  -1.7968  -1.7757  -1.7673  -1.7564
    -1.7263  -1.7026  -1.6896  -1.6763  -1.6016  -1.5084  -1.4660  -1.3966
    -1.3117  -1.3101  -1.3041  -1.2158  -1.1921  -1.1639  -1.1501  -1.1037
    -1.0444  -0.9727  -0.8888  -0.8570  -0.8494  -0.8214  -0.7223  -0.6947
    -0.6474  -0.6097  -0.5995  -0.5488  -0.4315  -0.4288  -0.3892  -0.3247
    -0.3061  -0.2433  -0.1335  -0.1052  -0.0728  -0.0703  -0.0308   0.0039
     0.0181   0.0830   0.1160   0.1500   0.1673   0.2294   0.3918   0.4002
     0.4916   0.5198   0.5895   0.7558   0.7857   0.8062   0.9306   0.9633
     0.9973   1.0480   1.0924   1.1901   1.1977   1.2865   1.3361   1.3508
     1.3573   2.2848   2.2853   2.3700   2.3702   4.1073   4.2336   4.2546
     4.2933   4.3384   4.5031   4.5110   4.5649   4.5662   4.5995   4.6422

     the Fermi energy is     4.0411 ev

!    total energy              =   -2951.54895663 Ry
     estimated scf accuracy    <       0.00000004 Ry
     smearing contrib. (-TS)   =      -0.03720009 Ry
     internal energy E=F+TS    =   -2951.51175654 Ry

     The total energy is F=E-TS. E is the sum of the following terms:
     one-electron contribution =  -23930.94626977 Ry
     hartree contribution      =   12059.74552414 Ry
     xc contribution           =    -487.46546383 Ry
     ewald contribution        =    9407.14866088 Ry
     electric field correction =       0.00579203 Ry

     convergence has been achieved in  78 iterations

     Forces acting on atoms (cartesian axes, Ry/au):

     atom    1 type  1   force =     0.00000107    0.00001940    0.10379500
     atom    2 type  1   force =    -0.00000581    0.00001536    0.10380621
     atom    3 type  2   force =     0.00003883   -0.00017953    0.09364985
     atom    4 type  2   force =    -0.00001339   -0.00013084    0.09333402
     atom    5 type  2   force =    -0.00020358   -0.00037470   -0.17780496
     atom    6 type  2   force =    -0.00019016   -0.00030237   -0.17788816
     atom    7 type  1   force =    -0.07061002   -0.00006291   -0.02702748
     atom    8 type  1   force =    -0.07061286   -0.00004134   -0.02700965
     atom    9 type  1   force =     0.07042963    0.00038228   -0.02706460
     atom   10 type  1   force =     0.07041517    0.00039176   -0.02702951
     atom   11 type  1   force =    -0.00003919   -0.00187287    0.05771142
     atom   12 type  1   force =     0.00001640   -0.00159961    0.05727307
     atom   13 type  1   force =     0.00003238   -0.00022276   -0.02104934
     atom   14 type  1   force =     0.00006132   -0.00035087   -0.02012322
     atom   15 type  2   force =    -0.00034845    0.00218765   -0.01418315
     atom   16 type  2   force =    -0.00014633    0.00520813   -0.01503229
     atom   17 type  2   force =    -0.00008968    0.00329608    0.00052804
     atom   18 type  2   force =     0.00004880   -0.00379296    0.00037928
     atom   19 type  1   force =    -0.01057633   -0.00135468    0.00703418
     atom   20 type  1   force =    -0.01087788   -0.00104025    0.00697760
     atom   21 type  1   force =     0.01219891   -0.00074994    0.00656216
     atom   22 type  1   force =     0.01239252   -0.00067252    0.00648635
     atom   23 type  1   force =    -0.00110766   -0.00065603   -0.00094132
     atom   24 type  1   force =    -0.00064677   -0.00141547   -0.00126397
     atom   25 type  1   force =     0.00001586    0.00022402    0.00026912
     atom   26 type  1   force =     0.00001617    0.00003221   -0.00011052
     atom   27 type  2   force =    -0.00000050    0.00034379   -0.00004090
     atom   28 type  2   force =     0.00005847   -0.00014056    0.00005943
     atom   29 type  2   force =    -0.00001838    0.00008651   -0.00027756
     atom   30 type  2   force =     0.00009146   -0.00004602   -0.00020568
     atom   31 type  1   force =    -0.00009632   -0.00010669    0.00002768
     atom   32 type  1   force =    -0.00025545    0.00002545   -0.00002928
     atom   33 type  1   force =     0.00007854   -0.00002322   -0.00007570
     atom   34 type  1   force =     0.00011846   -0.00004645   -0.00005327
     atom   35 type  1   force =    -0.00000946   -0.00003907    0.00010147
     atom   36 type  1   force =    -0.00013421   -0.00020895   -0.00008179
     atom   37 type  1   force =     0.00012348   -0.00003938   -0.00020889
     atom   38 type  1   force =    -0.00014672    0.00024036   -0.00043265
     atom   39 type  2   force =     0.00034930    0.00000094    0.00020736
     atom   40 type  2   force =     0.00020237    0.00034590    0.00004587
     atom   41 type  2   force =    -0.00036706    0.00076084   -0.00010121
     atom   42 type  2   force =    -0.00014272   -0.00013963    0.00008613
     atom   43 type  1   force =    -0.00018526    0.00006681    0.00013191
     atom   44 type  1   force =    -0.00022919    0.00053538    0.00013299
     atom   45 type  1   force =    -0.00026828    0.00024024   -0.00030068
     atom   46 type  1   force =    -0.00034161    0.00033388   -0.00007853
     atom   47 type  1   force =    -0.00008930    0.00028006   -0.00020046
     atom   48 type  3   force =    -0.00429138    0.00014275    0.00460229
     atom   49 type  4   force =     0.00003272    0.00113916    0.00001287
     atom   50 type  4   force =     0.00064412   -0.00042636    0.00085830
     atom   51 type  5   force =     0.00007142    0.00028752   -0.00098321
     atom   52 type  4   force =    -0.00006615    0.00018556    0.00177068
     atom   53 type  1   force =     0.00467268   -0.00073606   -0.00624531

     Total force =     0.365911     Total SCF correction =     0.000657
  @ DRIVER MODE: Message from server: STATUS
  @ DRIVER MODE: Message from server: GETFORCE
  @ DRIVER MODE: Returning v,forces,stress,ensemble

     Writing output data file ./calc.save/
  @ DRIVER MODE: Message from server: EXIT
  @ DRIVE MODE: Exiting

     General routines

     Parallel routines

   This run was terminated on:  22:15:43  27Sep2021

   JOB DONE.