     Program PWSCF v.6.7GPU starts on 23Aug2021 at 13:39:26

     R & G space division:  proc/nbgrp/npool/nimage =       6
     Reading input from /storage/home/hcoda1/3/ntian30/research/carbon/CH_vib/ads_slab/CHNHH_a/out_0002/pw.inp
Warning: card &CELL ignored
Warning: card   CELL_DYNAMICS='IPI', ignored
Warning: card / ignored

     Current dimensions of program PWSCF are:
     Max number of different atomic species (ntypx) = 10
     Max number of k-points (npk) =  40000
     Max angular momentum in pseudopotentials (lmaxx) =  3
     Presently no symmetry can be used with electric field

     Message from routine cell_base_init:
     DEPRECATED: use true lattice parameter, not A to a.u. conversion factor

     IMPORTANT: XC functional enforced from input :
     Exchange-correlation= BEEF-VDW
                           (   1   4  43  14   2   0   0)
     Any further DFT definition will be discarded
     Please, verify this is what you really want

  @ DRIVER MODE: Connecting to
 qe_1139763_2632797.sched-torque.pace.gatech.eduwktxn83p_scratch
  using UNIX socket
  @ DRIVER MODE: Message from server: STATUS
  @ DRIVER MODE: Message from server: INIT
  @ DRIVER MODE: Receiving replica           0          -1
  @ DRIVER MODE: Receiving encoded integer          25
  @ DRIVER MODE:  SCF:  T  FORCE:  T  STRESS:  F  VC:  F  ENSEMBLE:  F
  @ DRIVER MODE:  SCF:  T  FORCE:  T  STRESS:  F  VC:  F  ENSEMBLE:  F

     Using Slab Decomposition

     bravais-lattice index     =            0
     lattice parameter (alat)  =       1.8897  a.u.
     unit-cell volume          =    6658.9804 (a.u.)^3
     number of atoms/cell      =           52
     number of atomic types    =            5
     number of electrons       =       390.00
     number of Kohn-Sham states=          205
     kinetic-energy cutoff     =      29.3995  Ry
     charge density cutoff     =     293.9946  Ry
     scf convergence threshold =      7.3E-08
     mixing beta               =       0.0500
     number of iterations used =            8  plain     mixing
     Exchange-correlation= BEEF-VDW
                           (   1   4  43  14   2   0   0)

     celldm(1)=   1.889726  celldm(2)=   0.000000  celldm(3)=   0.000000
     celldm(4)=   0.000000  celldm(5)=   0.000000  celldm(6)=   0.000000

     crystal axes: (cart. coord. in units of alat)
               a(1) = (   6.579727   0.000000   0.000000 )
               a(2) = (  -0.000775   5.961596   0.000000 )
               a(3) = (   0.000000   0.000000  25.155947 )

     reciprocal axes: (cart. coord. in units 2 pi/alat)
               b(1) = (  0.151982  0.000020  0.000000 )
               b(2) = (  0.000000  0.167740  0.000000 )
               b(3) = (  0.000000  0.000000  0.039752 )

     PseudoPot. # 1 for Ti read from file:
     /storage/coda1/p-amedford6/0/shared/rich_project_chbe-medford/medford-share/data/pseudos_module/espresso/nninc/pbe/van/Ti.UPF
     MD5 check sum: 8e4df49b7f0d34bbd5052bf3f5ea0213
     Pseudo is Ultrasoft, Zval = 12.0
     Generated by new atomic code, or converted to UPF format
     Using radial grid of  851 points,  6 beta functions with:
                l(1) =   0
                l(2) =   0
                l(3) =   1
                l(4) =   1
                l(5) =   2
                l(6) =   2
     Q(r) pseudized with  8 coefficients,  rinner =    1.000   1.000   1.000
                                                       1.000   1.000

     PseudoPot. # 2 for O  read from file:
     /storage/coda1/p-amedford6/0/shared/rich_project_chbe-medford/medford-share/data/pseudos_module/espresso/nninc/pbe/van/O.UPF
     MD5 check sum: 78c19812648e8988a0fe644b0f25305e
     Pseudo is Ultrasoft, Zval =  6.0
     Generated by new atomic code, or converted to UPF format
     Using radial grid of  737 points,  4 beta functions with:
                l(1) =   0
                l(2) =   0
                l(3) =   1
                l(4) =   1
     Q(r) pseudized with  8 coefficients,  rinner =    0.800   0.800   0.800

     PseudoPot. # 3 for N  read from file:
     /storage/coda1/p-amedford6/0/shared/rich_project_chbe-medford/medford-share/data/pseudos_module/espresso/nninc/pbe/van/N.UPF
     MD5 check sum: 90d10febe142ad51ac9d5be1deb811c4
     Pseudo is Ultrasoft, Zval =  5.0
     Generated by new atomic code, or converted to UPF format
     Using radial grid of  729 points,  4 beta functions with:
                l(1) =   0
                l(2) =   0
                l(3) =   1
                l(4) =   1
     Q(r) pseudized with  8 coefficients,  rinner =    0.800   0.800   0.800

     PseudoPot. # 4 for C  read from file:
     /storage/coda1/p-amedford6/0/shared/rich_project_chbe-medford/medford-share/data/pseudos_module/espresso/nninc/pbe/van/C.UPF
     MD5 check sum: 1a69bf6b8db32088f5b2163dbdb77a27
     Pseudo is Ultrasoft, Zval =  4.0
     Generated by new atomic code, or converted to UPF format
     Using radial grid of  721 points,  4 beta functions with:
                l(1) =   0
                l(2) =   0
                l(3) =   1
                l(4) =   1
     Q(r) pseudized with  8 coefficients,  rinner =    0.800   0.800   0.800

     PseudoPot. # 5 for H  read from file:
     /storage/coda1/p-amedford6/0/shared/rich_project_chbe-medford/medford-share/data/pseudos_module/espresso/nninc/pbe/van/H.UPF
     MD5 check sum: b5ee9d7bfd3a09ee7748110bda690ff7
     Pseudo is Ultrasoft, Zval =  1.0
     Generated by new atomic code, or converted to UPF format
     Using radial grid of  615 points,  1 beta functions with:
                l(1) =   0
     Q(r) pseudized with  8 coefficients,  rinner =    0.800

     atomic species   valence    mass     pseudopotential
        Ti1           12.00    47.86700     Ti( 1.00)
        O1             6.00    15.99900     O ( 1.00)
        N1             5.00    14.00700     N ( 1.00)
        C1             4.00    12.01100     C ( 1.00)
        H1             1.00     1.00800     H ( 1.00)

     No symmetry found

   Cartesian axes

     site n.     atom                  positions (alat units)
         1           Ti1 tau(   1) = (   0.0004258   2.9801865   6.0000000  )
         2           Ti1 tau(   2) = (   3.2906075   1.4906267   6.0002472  )
         3           O1  tau(   3) = (   0.0006271   0.0005054   7.9858123  )
         4           O1  tau(   4) = (   3.2906025   0.0005020   7.3038282  )
         5           O1  tau(   5) = (   4.5942328   1.4918067   9.2879030  )
         6           O1  tau(   6) = (   1.9868534   1.4903216   9.2879459  )
         7           Ti1 tau(   7) = (   3.2907910   2.8959150   9.1758416  )
         8           Ti1 tau(   8) = (   0.0015273   1.4827037   9.2680791  )
         9           O1  tau(   9) = (   3.2768318   5.9518058  11.3501096  )
        10           O1  tau(  10) = (   0.0116148   5.9584955  10.6183126  )
        11           O1  tau(  11) = (   1.2820894   1.4890407  12.6429483  )
        12           O1  tau(  12) = (   5.2701592   1.4861355  12.6244956  )
        13           Ti1 tau(  13) = (   0.0263608   2.9732685  12.5725065  )
        14           Ti1 tau(  14) = (   3.3311081   1.4825583  12.4934812  )
        15           O1  tau(  15) = (   6.5448050   0.0382128  14.6485099  )
        16           O1  tau(  16) = (   3.2835306   5.9556129  13.9684075  )
        17           O1  tau(  17) = (   4.5065730   1.5084740  16.1486978  )
        18           O1  tau(  18) = (   2.0110176   1.4968469  16.1316129  )
        19           Ti1 tau(  19) = (   3.2365874   2.9692752  15.7101938  )
        20           Ti1 tau(  20) = (   6.5183500   1.5288441  15.9766389  )
        21           O1  tau(  21) = (   3.2904802   0.0005063   4.7018136  )
        22           O1  tau(  22) = (   6.5552815   5.8936090  17.2115513  )
        23           O1  tau(  23) = (   1.3043587   1.4918075   6.0039043  )
        24           O1  tau(  24) = (   5.2767064   1.4903225   6.0039473  )
        25           Ti1 tau(  25) = (   0.0000382   5.9609847   6.0000000  )
        26           Ti1 tau(  26) = (   3.2902200   4.4714249   6.0002472  )
        27           O1  tau(  27) = (   0.0002396   2.9813036   7.9858123  )
        28           O1  tau(  28) = (   3.2902150   2.9813002   7.3038282  )
        29           O1  tau(  29) = (   4.5938453   4.4726049   9.2879030  )
        30           O1  tau(  30) = (   1.9864658   4.4711199   9.2879459  )
        31           Ti1 tau(  31) = (   3.2891106   5.8743827   9.1763621  )
        32           Ti1 tau(  32) = (   0.0006254   4.4649316   9.2693709  )
        33           O1  tau(  33) = (   3.2825058   2.9767457  11.3441782  )
        34           O1  tau(  34) = (   0.0092240   2.9805883  10.6323155  )
        35           O1  tau(  35) = (   1.2778777   4.4660374  12.6604661  )
        36           O1  tau(  36) = (   5.2710664   4.4675109  12.6369154  )
        37           Ti1 tau(  37) = (   0.0243246   5.9574881  12.5203091  )
        38           Ti1 tau(  38) = (   3.3318591   4.4611298  12.5006215  )
        39           O1  tau(  39) = (   6.5359656   2.9584677  14.7835642  )
        40           O1  tau(  40) = (   3.2771955   2.9708399  13.9242642  )
        41           O1  tau(  41) = (   4.4981441   4.4410618  16.1740548  )
        42           O1  tau(  42) = (   2.0042129   4.4512231  16.1075086  )
        43           Ti1 tau(  43) = (   3.2538698   5.9555144  15.7617387  )
        44           Ti1 tau(  44) = (   6.5531130   4.6830099  15.9084494  )
        45           O1  tau(  45) = (   3.2900926   2.9813045   4.7018136  )
        46           O1  tau(  46) = (   1.3039711   4.4726057   6.0039043  )
        47           O1  tau(  47) = (   5.2763189   4.4711207   6.0039473  )
        48           N1  tau(  48) = (   5.6790603   3.2568973  18.6585782  )
        49           C1  tau(  49) = (   0.0091554   2.6844975  17.9068455  )
        50           H1  tau(  50) = (   0.8805123   2.3964943  18.5001670  )
        51           H1  tau(  51) = (   4.8619660   3.6873350  18.2178346  )
        52           H1  tau(  52) = (   5.8095507   3.4768026  19.6356901  )

     number of k points=    10  Fermi-Dirac smearing, width (Ry)=  0.0073
                       cart. coord. in units 2pi/alat
        k(    1) = (   0.0000000   0.0000000   0.0000000), wk =   0.1250000
        k(    2) = (   0.0000000   0.0419351   0.0000000), wk =   0.2500000
        k(    3) = (   0.0000000  -0.0838702   0.0000000), wk =   0.1250000
        k(    4) = (   0.0379955   0.0000049   0.0000000), wk =   0.2500000
        k(    5) = (   0.0379955   0.0419400   0.0000000), wk =   0.2500000
        k(    6) = (   0.0379955  -0.0838652   0.0000000), wk =   0.2500000
        k(    7) = (   0.0379955  -0.0419301   0.0000000), wk =   0.2500000
        k(    8) = (  -0.0759910  -0.0000099   0.0000000), wk =   0.1250000
        k(    9) = (  -0.0759910   0.0419252   0.0000000), wk =   0.2500000
        k(   10) = (  -0.0759910  -0.0838800   0.0000000), wk =   0.1250000

     Initial potential from superposition of free atoms

     starting charge  373.99917, renormalised to  390.00000

     negative rho (up, down):  1.782E-02 0.000E+00

     %%%%%%%%%%%%%%%%%%%%%%%%%%%%%%%%%%%%%%%%%%%%%%%%%%%%%%%%%%%%%%%%%%%%%%%%
     %                                                                      %
     % You are using vdW-DF, which was implemented by the Thonhauser group. %
     % Please cite the following two papers that made this development      %
     % possible and the two reviews that describe the various versions:     %
     %                                                                      %
     %   T. Thonhauser et al., PRL 115, 136402 (2015).                      %
     %   T. Thonhauser et al., PRB 76, 125112 (2007).                       %
     %   K. Berland et al., Rep. Prog. Phys. 78, 066501 (2015).             %
     %   D.C. Langreth et al., J. Phys.: Condens. Matter 21, 084203 (2009). %
     %                                                                      %
     %                                                                      %
     % If you are calculating the stress with vdW-DF, please also cite:     %
     %                                                                      %
     %   R. Sabatini et al., J. Phys.: Condens. Matter 24, 424209 (2012).   %
     %                                                                      %
     %%%%%%%%%%%%%%%%%%%%%%%%%%%%%%%%%%%%%%%%%%%%%%%%%%%%%%%%%%%%%%%%%%%%%%%%

     Adding external electric field

     Computed dipole along edir(3) :
        Dipole               -5.8555 Ry au,        -14.8831 Debye
        Dipole field         -0.0111 Ry au,

        Potential amp.        1.0243 Ry
        Total length         46.3494 bohr

     Starting wfcs are  295 atomic wfcs
  @ DRIVER MODE: Message from server: STATUS
  @ DRIVER MODE: Message from server: POSDATA
  @ DRIVER MODE: Reading and sharing cell
  @ DRIVER MODE: Reading and sharing positions
  @ DRIVER MODE: Received positions

     Self-consistent Calculation

     iteration #  1     ecut=    29.40 Ry     beta= 0.05
     Davidson diagonalization with overlap
     c_bands:  4 eigenvalues not converged
     c_bands:  1 eigenvalues not converged
     c_bands:  2 eigenvalues not converged
     c_bands:  3 eigenvalues not converged
     c_bands:  3 eigenvalues not converged
     c_bands:  4 eigenvalues not converged
     c_bands:  3 eigenvalues not converged
     c_bands:  3 eigenvalues not converged
     c_bands:  4 eigenvalues not converged
     c_bands:  5 eigenvalues not converged
     ethr =  1.00E-05,  avg # of iterations = 20.0

[...]

     total energy              =   -2777.34336718 Ry
     estimated scf accuracy    <    1560.36262446 Ry

     iteration #  2     ecut=    29.40 Ry     beta= 0.05
     Davidson diagonalization with overlap
     ethr =  1.00E-02,  avg # of iterations = 18.2

[...]

     iteration # 63     ecut=    29.40 Ry     beta= 0.05
     Davidson diagonalization with overlap
     ethr =  3.73E-11,  avg # of iterations =  6.8

[...]

     total energy              =   -2919.04264036 Ry
     estimated scf accuracy    <       0.00000011 Ry

     iteration # 64     ecut=    29.40 Ry     beta= 0.05
     Davidson diagonalization with overlap
     c_bands:  1 eigenvalues not converged
     ethr =  2.91E-11,  avg # of iterations = 12.7

     negative rho (up, down):  1.801E-02 0.000E+00

     Adding external electric field

     Computed dipole along edir(3) :
        Dipole                1.3937 Ry au,          3.5423 Debye
        Dipole field          0.0026 Ry au,

        Potential amp.       -0.2438 Ry
        Total length         46.3494 bohr

     End of self-consistent calculation

          k = 0.0000 0.0000 0.0000 ( 18029 PWs)   bands (ev):

   -55.4991 -55.4742 -55.4628 -55.4401 -55.4135 -55.3686 -55.3266 -55.3182
   -55.2991 -55.2922 -55.2628 -55.2607 -55.0496 -54.9424 -54.4775 -54.4435
   -32.0661 -31.9618 -31.8602 -31.8381 -31.8279 -31.7946 -31.7870 -31.7646
   -31.7547 -31.7180 -31.7139 -31.7093 -31.6756 -31.6505 -31.6408 -31.6390
   -31.6271 -31.6023 -31.5929 -31.5834 -31.5747 -31.5572 -31.5316 -31.5280
   -31.5275 -31.5068 -31.5040 -31.4994 -31.4980 -31.4890 -31.4751 -31.4594
   -31.4485 -31.4482 -31.4249 -31.4140 -31.3983 -31.3521 -31.2863 -31.1879
   -31.1764 -31.0887 -30.8858 -30.7946 -30.7724 -30.7024 -30.6158 -30.5047
   -17.0827 -16.2997 -16.0157 -15.8540 -15.7084 -15.6769 -15.5667 -15.3914
   -15.3153 -15.2392 -15.2193 -15.1394 -15.1263 -15.1119 -15.0886 -15.0288
   -15.0210 -14.9759 -14.9715 -14.9393 -14.9168 -14.8858 -14.8681 -14.8606
   -14.8095 -14.7662 -14.7024 -14.6356 -14.5805 -14.1167 -12.9801 -12.8631
    -9.4951  -7.2344  -4.6131  -3.6566  -3.4868  -3.4067  -3.3965  -3.3779
    -3.1866  -3.1109  -2.8371  -2.7418  -2.7071  -2.7005  -2.6736  -2.6185
    -2.5651  -2.4426  -2.3785  -2.3423  -2.3216  -2.3187  -2.3070  -2.2888
    -2.2773  -2.2458  -2.1773  -2.1210  -2.0448  -1.9611  -1.8857  -1.8712
    -1.8093  -1.7815  -1.7668  -1.7605  -1.7538  -1.7309  -1.7232  -1.6319
    -1.5482  -1.5040  -1.4036  -1.3806  -1.2879  -1.1553  -1.1213  -1.0180
    -1.0107  -0.9544  -0.9320  -0.8859  -0.8407  -0.8284  -0.8128  -0.6676
    -0.6014  -0.5404  -0.4822  -0.4555  -0.4373  -0.3576  -0.2852  -0.2751
    -0.2572  -0.2400  -0.0638  -0.0311  -0.0118   0.0129   0.0281   0.1178
     0.1499   0.2235   0.3030   0.3178   0.3236   0.4010   0.4238   0.4684
     0.4703   0.4973   0.5030   0.6739   0.6848   0.7111   0.7386   0.8143
     0.9051   1.1079   1.1345   1.1723   1.4603   1.5263   1.5450   1.7325
     2.1185   2.1654   3.5909   3.6955   3.7282   3.7441   3.7721   3.8406
     3.9083   4.0864   4.0937   4.1246   4.1291

[...]

          k = 0.0380-0.0419 0.0000 ( 17876 PWs)   bands (ev):

[...]

          k =-0.0760-0.0000 0.0000 ( 17886 PWs)   bands (ev):

[...]

          k =-0.0760-0.0839 0.0000 ( 17948 PWs)   bands (ev):

   -55.4833 -55.4783 -55.4574 -55.4567 -55.4103 -55.3597 -55.3355 -55.3212
   -55.2806 -55.2787 -55.2785 -55.2767 -55.0468 -54.9451 -54.4604 -54.4604
   -31.8716 -31.8676 -31.8030 -31.7773 -31.7766 -31.7654 -31.7503 -31.7496
   -31.7101 -31.7046 -31.7031 -31.6958 -31.6667 -31.6295 -31.6206 -31.6167
   -31.6162 -31.6136 -31.6095 -31.6080 -31.5978 -31.5772 -31.5765 -31.5639
   -31.5608 -31.5501 -31.5375 -31.5212 -31.5137 -31.5112 -31.4952 -31.4943
   -31.4939 -31.4927 -31.4728 -31.4574 -31.4543 -31.3567 -31.2816 -31.2064
   -31.1795 -31.1727 -30.7851 -30.7851 -30.6984 -30.6984 -30.6592 -30.6591
   -17.0780 -15.7574 -15.6955 -15.5613 -15.4787 -15.4570 -15.4443 -15.4216
   -15.2856 -15.2682 -15.2505 -15.1997 -15.1952 -15.1923 -15.1559 -15.0985
   -15.0630 -15.0604 -15.0516 -15.0266 -14.9904 -14.9851 -14.9509 -14.9422
   -14.9289 -14.8394 -14.8339 -14.8316 -14.6640 -14.3417 -12.9648 -12.9647
    -9.4997  -7.2358  -4.5946  -3.0400  -2.9665  -2.8068  -2.7037  -2.6736
    -2.6419  -2.5031  -2.4653  -2.4612  -2.4500  -2.4209  -2.3975  -2.3746
    -2.3453  -2.3315  -2.3265  -2.3097  -2.2977  -2.2848  -2.2432  -2.2000
    -2.1982  -2.1873  -2.1579  -2.1363  -2.1247  -2.0959  -2.0767  -2.0610
    -2.0471  -2.0021  -1.8252  -1.7931  -1.6957  -1.6719  -1.6629  -1.6459
    -1.5748  -1.5476  -1.5157  -1.4792  -1.4284  -1.3061  -1.2362  -1.2146
    -1.1874  -1.1784  -1.1264  -1.0022  -0.9669  -0.9438  -0.8974  -0.8611
    -0.8196  -0.8056  -0.6864  -0.6827  -0.6360  -0.5938  -0.4800  -0.4612
    -0.4518  -0.4420  -0.4272  -0.2965  -0.2867  -0.2802  -0.2624  -0.2192
    -0.2014  -0.0972  -0.0034   0.0180   0.1178   0.1678   0.2969   0.3568
     0.4538   0.5013   0.5259   0.6152   0.6533   0.7342   0.7516   0.8124
     0.8239   0.9137   0.9733   0.9927   1.0006   1.0680   1.9050   1.9058
     1.9853   1.9855   3.7514   3.8458   3.8850   3.9072   3.9532   4.1107
     4.1275   4.1747   4.1780   4.1909   4.2734

     the Fermi energy is     3.6487 ev

!    total energy              =   -2919.04267812 Ry
     estimated scf accuracy    <       0.00000007 Ry
     smearing contrib. (-TS)   =      -0.03615495 Ry
     internal energy E=F+TS    =   -2919.00652317 Ry

     The total energy is F=E-TS. E is the sum of the following terms:
     one-electron contribution =  -24479.56581683 Ry
     hartree contribution      =   12328.04449791 Ry
     xc contribution           =    -480.00333276 Ry
     ewald contribution        =    9712.51446321 Ry
     electric field correction =       0.00366530 Ry

     convergence has been achieved in  64 iterations

     Forces acting on atoms (cartesian axes, Ry/au):

     atom    1 type  1   force =     0.00008940   -0.00021835    0.09491360
     atom    2 type  1   force =    -0.00022286   -0.00036551   -0.17677806
     atom    3 type  2   force =    -0.00004656   -0.00006238   -0.02294417
     atom    4 type  2   force =    -0.00004180   -0.00167405    0.05576973
     atom    5 type  2   force =    -0.01134388   -0.00123207    0.00625235
     atom    6 type  2   force =     0.01252307   -0.00034995    0.00441752
     atom    7 type  1   force =    -0.00113607    0.00152993   -0.01376913
     atom    8 type  1   force =     0.00061386    0.00693975    0.01264767
     atom    9 type  2   force =     0.00020259   -0.00004929    0.00014080
     atom   10 type  2   force =    -0.00163876    0.00010535   -0.00992154
     atom   11 type  2   force =    -0.00021041    0.00003128    0.00019140
     atom   12 type  2   force =     0.00025787    0.00011628   -0.00003384
     atom   13 type  1   force =     0.00005253   -0.00000091    0.00013848
     atom   14 type  1   force =     0.00000778   -0.00015613    0.00014254
     atom   15 type  2   force =     0.00001847    0.00001935    0.00026406
     atom   16 type  2   force =     0.00026543    0.00027681    0.00008704
     atom   17 type  2   force =     0.00014461   -0.00011740    0.00051197
     atom   18 type  2   force =     0.00017572    0.00013502    0.00028995
     atom   19 type  1   force =     0.00034457   -0.00009546   -0.00045522
     atom   20 type  1   force =     0.00021855   -0.00046100   -0.00058234
     atom   21 type  2   force =     0.00004720   -0.00004315    0.10362718
     atom   22 type  2   force =     0.00001160    0.00020542    0.00057863
     atom   23 type  2   force =    -0.07100602   -0.00016539   -0.02735075
     atom   24 type  2   force =     0.07085656    0.00031653   -0.02736761
     atom   25 type  1   force =    -0.00013926   -0.00020263    0.09463813
     atom   26 type  1   force =    -0.00017866   -0.00046013   -0.17692051
     atom   27 type  2   force =     0.00006903   -0.00035723   -0.02196616
     atom   28 type  2   force =     0.00003924   -0.00139535    0.05532307
     atom   29 type  2   force =    -0.01156887   -0.00009306    0.00586335
     atom   30 type  2   force =     0.01264151    0.00012541    0.00408086
     atom   31 type  1   force =    -0.00125284    0.00417467   -0.01464997
     atom   32 type  1   force =     0.00054668   -0.00777190    0.01250442
     atom   33 type  2   force =    -0.00001131    0.00009343    0.00005691
     atom   34 type  2   force =    -0.00127033    0.00083370   -0.00831754
     atom   35 type  2   force =     0.00011540    0.00019650    0.00002706
     atom   36 type  2   force =     0.00013688    0.00003756    0.00022152
     atom   37 type  1   force =     0.00002577   -0.00000632   -0.00018605
     atom   38 type  1   force =    -0.00004183   -0.00015548   -0.00021597
     atom   39 type  2   force =    -0.00018169   -0.00015833    0.00023207
     atom   40 type  2   force =     0.00023607   -0.00001634   -0.00006105
     atom   41 type  2   force =     0.00058139   -0.00022225    0.00051711
     atom   42 type  2   force =    -0.00037399    0.00004174   -0.00017655
     atom   43 type  1   force =    -0.00029879    0.00011203   -0.00007133
     atom   44 type  1   force =     0.00050905    0.00011605   -0.00060559
     atom   45 type  2   force =     0.00003497   -0.00005133    0.10358038
     atom   46 type  2   force =    -0.07101045   -0.00007134   -0.02734275
     atom   47 type  2   force =     0.07087034    0.00032581   -0.02737552
     atom   48 type  3   force =    -0.02267227    0.01179214   -0.00365156
     atom   49 type  4   force =     0.00905084   -0.00480752   -0.00299334
     atom   50 type  5   force =     0.00135094   -0.00084272   -0.00134043
     atom   51 type  5   force =     0.01013247   -0.00536257    0.00430636
     atom   52 type  5   force =     0.00247623   -0.00055924    0.00375279

     Total force =     0.367377     Total SCF correction =     0.000816
  @ DRIVER MODE: Message from server: STATUS
  @ DRIVER MODE: Message from server: GETFORCE
  @ DRIVER MODE: Returning v,forces,stress,ensemble

     Writing output data file ./calc.save/
  @ DRIVER MODE: Message from server: EXIT
  @ DRIVE MODE: Exiting

     General routines

     Parallel routines

   This run was terminated on:  14: 7:15  23Aug2021

   JOB DONE.