     Program PWSCF v.6.7GPU starts on  2Aug2021 at 21: 3:53

     R & G space division:  proc/nbgrp/npool/nimage =      16
     Reading input from /storage/home/hcoda1/3/ntian30/research/carbon/02Aug_vib_paired/ads_slab/CH3NNH3_a/out_0032/pw.inp
Warning: card &CELL ignored
Warning: card   CELL_DYNAMICS='IPI', ignored
Warning: card / ignored

     Current dimensions of program PWSCF are:
     Max number of different atomic species (ntypx) = 10
     Max number of k-points (npk) =  40000
     Max angular momentum in pseudopotentials (lmaxx) =  3
     Presently no symmetry can be used with electric field

     Message from routine cell_base_init:
     DEPRECATED: use true lattice parameter, not A to a.u. conversion factor

     IMPORTANT: XC functional enforced from input :
     Exchange-correlation= BEEF-VDW
                           (   1   4  43  14   2   0   0)
     Any further DFT definition will be discarded
     Please, verify this is what you really want

  @ DRIVER MODE: Connecting to
 qe_1139763_2482544.sched-torque.pace.gatech.educvv4y7c__scratch
  using UNIX socket
  @ DRIVER MODE: Message from server: STATUS
  @ DRIVER MODE: Message from server: INIT
  @ DRIVER MODE: Receiving replica           0          -1
  @ DRIVER MODE: Receiving encoded integer          25
  @ DRIVER MODE:  SCF:  T  FORCE:  T  STRESS:  F  VC:  F  ENSEMBLE:  F
  @ DRIVER MODE:  SCF:  T  FORCE:  T  STRESS:  F  VC:  F  ENSEMBLE:  F

     Using Slab Decomposition

     bravais-lattice index     =            0
     lattice parameter (alat)  =       1.8897  a.u.
     unit-cell volume          =    6658.9804 (a.u.)^3
     number of atoms/cell      =           56
     number of atomic types    =            5
     number of electrons       =       398.00
     number of Kohn-Sham states=          209
     kinetic-energy cutoff     =      29.3995  Ry
     charge density cutoff     =     293.9946  Ry
     scf convergence threshold =      7.3E-08
     mixing beta               =       0.0500
     number of iterations used =            8  plain     mixing
     Exchange-correlation= BEEF-VDW
                           (   1   4  43  14   2   0   0)

     celldm(1)=   1.889726  celldm(2)=   0.000000  celldm(3)=   0.000000
     celldm(4)=   0.000000  celldm(5)=   0.000000  celldm(6)=   0.000000

     crystal axes: (cart. coord. in units of alat)
               a(1) = (   6.579727   0.000000   0.000000 )
               a(2) = (  -0.000775   5.961596   0.000000 )
               a(3) = (   0.000000   0.000000  25.155947 )

     reciprocal axes: (cart. coord. in units 2 pi/alat)
               b(1) = (  0.151982  0.000020  0.000000 )
               b(2) = (  0.000000  0.167740  0.000000 )
               b(3) = (  0.000000  0.000000  0.039752 )

     PseudoPot. # 1 for Ti read from file:
     /storage/coda1/p-amedford6/0/shared/rich_project_chbe-medford/medford-share/data/pseudos_module/espresso/nninc/pbe/van/Ti.UPF
     MD5 check sum: 8e4df49b7f0d34bbd5052bf3f5ea0213
     Pseudo is Ultrasoft, Zval = 12.0
     Generated by new atomic code, or converted to UPF format
     Using radial grid of  851 points,  6 beta functions with:
                l(1) =   0
                l(2) =   0
                l(3) =   1
                l(4) =   1
                l(5) =   2
                l(6) =   2
     Q(r) pseudized with  8 coefficients,  rinner =    1.000   1.000   1.000
                                                       1.000   1.000

     PseudoPot. # 2 for O  read from file:
     /storage/coda1/p-amedford6/0/shared/rich_project_chbe-medford/medford-share/data/pseudos_module/espresso/nninc/pbe/van/O.UPF
     MD5 check sum: 78c19812648e8988a0fe644b0f25305e
     Pseudo is Ultrasoft, Zval =  6.0
     Generated by new atomic code, or converted to UPF format
     Using radial grid of  737 points,  4 beta functions with:
                l(1) =   0
                l(2) =   0
                l(3) =   1
                l(4) =   1
     Q(r) pseudized with  8 coefficients,  rinner =    0.800   0.800   0.800

     PseudoPot. # 3 for N  read from file:
     /storage/coda1/p-amedford6/0/shared/rich_project_chbe-medford/medford-share/data/pseudos_module/espresso/nninc/pbe/van/N.UPF
     MD5 check sum: 90d10febe142ad51ac9d5be1deb811c4
     Pseudo is Ultrasoft, Zval =  5.0
     Generated by new atomic code, or converted to UPF format
     Using radial grid of  729 points,  4 beta functions with:
                l(1) =   0
                l(2) =   0
                l(3) =   1
                l(4) =   1
     Q(r) pseudized with  8 coefficients,  rinner =    0.800   0.800   0.800

     PseudoPot. # 4 for C  read from file:
     /storage/coda1/p-amedford6/0/shared/rich_project_chbe-medford/medford-share/data/pseudos_module/espresso/nninc/pbe/van/C.UPF
     MD5 check sum: 1a69bf6b8db32088f5b2163dbdb77a27
     Pseudo is Ultrasoft, Zval =  4.0
     Generated by new atomic code, or converted to UPF format
     Using radial grid of  721 points,  4 beta functions with:
                l(1) =   0
                l(2) =   0
                l(3) =   1
                l(4) =   1
     Q(r) pseudized with  8 coefficients,  rinner =    0.800   0.800   0.800

     PseudoPot. # 5 for H  read from file:
     /storage/coda1/p-amedford6/0/shared/rich_project_chbe-medford/medford-share/data/pseudos_module/espresso/nninc/pbe/van/H.UPF
     MD5 check sum: b5ee9d7bfd3a09ee7748110bda690ff7
     Pseudo is Ultrasoft, Zval =  1.0
     Generated by new atomic code, or converted to UPF format
     Using radial grid of  615 points,  1 beta functions with:
                l(1) =   0
     Q(r) pseudized with  8 coefficients,  rinner =    0.800

     atomic species   valence    mass     pseudopotential
        Ti1           12.00    47.86700     Ti( 1.00)
        O1             6.00    15.99900     O ( 1.00)
        N1             5.00    14.00700     N ( 1.00)
        C1             4.00    12.01100     C ( 1.00)
        H1             1.00     1.00800     H ( 1.00)

     No symmetry found

   Cartesian axes

     site n.     atom                  positions (alat units)
         1           Ti1 tau(   1) = (   0.0004258   2.9801865   6.0000000  )
         2           Ti1 tau(   2) = (   3.2906075   1.4906267   6.0002472  )
         3           O1  tau(   3) = (   0.0006271   0.0005054   7.9858123  )
         4           O1  tau(   4) = (   3.2906025   0.0005020   7.3038282  )
         5           O1  tau(   5) = (   4.5942328   1.4918067   9.2879030  )
         6           O1  tau(   6) = (   1.9868534   1.4903216   9.2879459  )
         7           Ti1 tau(   7) = (   3.2907910   2.8959150   9.1758416  )
         8           Ti1 tau(   8) = (   0.0015273   1.4827037   9.2680791  )
         9           O1  tau(   9) = (   3.2727297   5.9424138  11.2974721  )
        10           O1  tau(  10) = (   0.0116148   5.9584955  10.6183126  )
        11           O1  tau(  11) = (   1.3027692   1.4721713  12.6242268  )
        12           O1  tau(  12) = (   5.2784376   1.4723552  12.6258992  )
        13           Ti1 tau(  13) = (   6.4570204   2.9507206  12.7630554  )
        14           Ti1 tau(  14) = (   3.1467966   1.4649636  12.4688949  )
        15           O1  tau(  15) = (   6.5600513   5.9133837  14.5918744  )
        16           O1  tau(  16) = (   3.2766225   5.9390981  13.8789110  )
        17           O1  tau(  17) = (   4.4915826   1.4834571  16.0540230  )
        18           O1  tau(  18) = (   2.0416982   1.4849982  16.0411193  )
        19           Ti1 tau(  19) = (   3.2679172   2.9642910  15.6858091  )
        20           Ti1 tau(  20) = (   6.5495220   1.5641796  16.1095294  )
        21           O1  tau(  21) = (   3.2904802   0.0005063   4.7018136  )
        22           O1  tau(  22) = (   6.5606002   0.0080969  17.2010096  )
        23           O1  tau(  23) = (   1.3043587   1.4918075   6.0039043  )
        24           O1  tau(  24) = (   5.2767064   1.4903225   6.0039473  )
        25           Ti1 tau(  25) = (   0.0000382   5.9609847   6.0000000  )
        26           Ti1 tau(  26) = (   3.2902200   4.4714249   6.0002472  )
        27           O1  tau(  27) = (   0.0002396   2.9813036   7.9858123  )
        28           O1  tau(  28) = (   3.2902150   2.9813002   7.3038282  )
        29           O1  tau(  29) = (   4.5938453   4.4726049   9.2879030  )
        30           O1  tau(  30) = (   1.9864658   4.4711199   9.2879459  )
        31           Ti1 tau(  31) = (   3.2891106   5.8743827   9.1763621  )
        32           Ti1 tau(  32) = (   0.0006254   4.4649316   9.2693709  )
        33           O1  tau(  33) = (   3.2718307   2.9587034  11.2961003  )
        34           O1  tau(  34) = (   0.0092240   2.9805883  10.6323155  )
        35           O1  tau(  35) = (   1.3028232   4.4416136  12.6207192  )
        36           O1  tau(  36) = (   5.2777600   4.4366566  12.6238879  )
        37           Ti1 tau(  37) = (   6.4830488   5.9304874  12.7660964  )
        38           Ti1 tau(  38) = (   3.1463657   4.4448748  12.4639736  )
        39           O1  tau(  39) = (   6.5417323   2.9404903  14.6589984  )
        40           O1  tau(  40) = (   3.2789452   2.9619718  13.8791424  )
        41           O1  tau(  41) = (   4.4971312   4.4676043  16.0556370  )
        42           O1  tau(  42) = (   2.0400509   4.4648231  16.0515753  )
        43           Ti1 tau(  43) = (   3.2598176   5.9476019  15.6881950  )
        44           Ti1 tau(  44) = (   6.5485469   4.5424454  16.1156095  )
        45           O1  tau(  45) = (   3.2900926   2.9813045   4.7018136  )
        46           O1  tau(  46) = (   1.3039711   4.4726057   6.0039043  )
        47           O1  tau(  47) = (   5.2763189   4.4711207   6.0039473  )
        48           N1  tau(  48) = (   0.0016189   2.9795595  17.3279962  )
        49           C1  tau(  49) = (   0.1681806   3.0735589  18.7581663  )
        50           H1  tau(  50) = (   6.0068595   3.7517258  19.1994632  )
        51           H1  tau(  51) = (   0.0766375   2.0971904  19.2409400  )
        52           H1  tau(  52) = (   1.1565538   3.4901639  19.0026035  )
        53           N1  tau(  53) = (   4.7701180   1.8141088  21.6614004  )
        54           H1  tau(  54) = (   4.4666586   2.7830198  21.5980365  )
        55           H1  tau(  55) = (   4.1231612   1.2775871  21.0809158  )
        56           H1  tau(  56) = (   4.6015807   1.5257772  22.6208530  )

     number of k points=    10  Fermi-Dirac smearing, width (Ry)=  0.0073
                       cart. coord. in units 2pi/alat
        k(    1) = (   0.0000000   0.0000000   0.0000000), wk =   0.1250000
        k(    2) = (   0.0000000   0.0419351   0.0000000), wk =   0.2500000
        k(    3) = (   0.0000000  -0.0838702   0.0000000), wk =   0.1250000
        k(    4) = (   0.0379955   0.0000049   0.0000000), wk =   0.2500000
        k(    5) = (   0.0379955   0.0419400   0.0000000), wk =   0.2500000
        k(    6) = (   0.0379955  -0.0838652   0.0000000), wk =   0.2500000
        k(    7) = (   0.0379955  -0.0419301   0.0000000), wk =   0.2500000
        k(    8) = (  -0.0759910  -0.0000099   0.0000000), wk =   0.1250000
        k(    9) = (  -0.0759910   0.0419252   0.0000000), wk =   0.2500000
        k(   10) = (  -0.0759910  -0.0838800   0.0000000), wk =   0.1250000

     Initial potential from superposition of free atoms

     starting charge  381.99914, renormalised to  398.00000

     negative rho (up, down):  9.479E-03 0.000E+00

     %%%%%%%%%%%%%%%%%%%%%%%%%%%%%%%%%%%%%%%%%%%%%%%%%%%%%%%%%%%%%%%%%%%%%%%%
     %                                                                      %
     % You are using vdW-DF, which was implemented by the Thonhauser group. %
     % Please cite the following two papers that made this development      %
     % possible and the two reviews that describe the various versions:     %
     %                                                                      %
     %   T. Thonhauser et al., PRL 115, 136402 (2015).                      %
     %   T. Thonhauser et al., PRB 76, 125112 (2007).                       %
     %   K. Berland et al., Rep. Prog. Phys. 78, 066501 (2015).             %
     %   D.C. Langreth et al., J. Phys.: Condens. Matter 21, 084203 (2009). %
     %                                                                      %
     %                                                                      %
     % If you are calculating the stress with vdW-DF, please also cite:     %
     %                                                                      %
     %   R. Sabatini et al., J. Phys.: Condens. Matter 24, 424209 (2012).   %
     %                                                                      %
     %%%%%%%%%%%%%%%%%%%%%%%%%%%%%%%%%%%%%%%%%%%%%%%%%%%%%%%%%%%%%%%%%%%%%%%%

     Adding external electric field

     Computed dipole along edir(3) :
        Dipole              -11.3717 Ry au,        -28.9040 Debye
        Dipole field         -0.0215 Ry au,

        Potential amp.        1.9893 Ry
        Total length         46.3494 bohr

     Starting wfcs are  302 atomic wfcs
  @ DRIVER MODE: Message from server: STATUS
  @ DRIVER MODE: Message from server: POSDATA
  @ DRIVER MODE: Reading and sharing cell
  @ DRIVER MODE: Reading and sharing positions
  @ DRIVER MODE: Received positions

     Self-consistent Calculation

     iteration #  1     ecut=    29.40 Ry     beta= 0.05
     Davidson diagonalization with overlap
     c_bands:  1 eigenvalues not converged
     c_bands:  1 eigenvalues not converged
     c_bands:  2 eigenvalues not converged
     c_bands:  1 eigenvalues not converged
     c_bands:  1 eigenvalues not converged
     c_bands:  1 eigenvalues not converged
     c_bands:  1 eigenvalues not converged
     c_bands:  2 eigenvalues not converged
     c_bands:  2 eigenvalues not converged
     ethr =  1.00E-05,  avg # of iterations = 19.6

[...]

     total energy              =   -2520.83622025 Ry
     estimated scf accuracy    <    4705.90912600 Ry

     iteration #  2     ecut=    29.40 Ry     beta= 0.05
     Davidson diagonalization with overlap
     ethr =  1.00E-02,  avg # of iterations = 21.8

[...]

     iteration # 71     ecut=    29.40 Ry     beta= 0.05
     Davidson diagonalization with overlap
     c_bands:  1 eigenvalues not converged
     ethr =  3.03E-11,  avg # of iterations =  7.0

[...]

     total energy              =   -2942.90670008 Ry
     estimated scf accuracy    <       0.00000011 Ry

     iteration # 72     ecut=    29.40 Ry     beta= 0.05
     Davidson diagonalization with overlap
     ethr =  2.79E-11,  avg # of iterations =  6.3

     negative rho (up, down):  1.096E-02 0.000E+00

     Adding external electric field

     Computed dipole along edir(3) :
        Dipole                0.4540 Ry au,          1.1539 Debye
        Dipole field          0.0009 Ry au,

        Potential amp.       -0.0794 Ry
        Total length         46.3494 bohr

     End of self-consistent calculation

          k = 0.0000 0.0000 0.0000 ( 18029 PWs)   bands (ev):

   -56.6133 -56.5797 -55.7327 -55.7241 -55.6973 -55.6918 -55.5872 -55.5514
   -55.3702 -55.3349 -55.2782 -55.2716 -55.2442 -55.1694 -54.7329 -54.6197
   -33.0412 -32.8878 -32.8597 -32.7895 -32.6984 -32.6672 -32.2073 -32.1966
   -32.1301 -32.0191 -31.9741 -31.9460 -31.9319 -31.9072 -31.8746 -31.8719
   -31.8680 -31.8613 -31.8381 -31.8349 -31.8234 -31.7954 -31.7701 -31.7563
   -31.7432 -31.7233 -31.7153 -31.6920 -31.6704 -31.6166 -31.6017 -31.5924
   -31.5138 -31.5090 -31.4891 -31.4471 -31.4369 -31.4056 -31.3983 -31.3739
   -31.3527 -31.2947 -31.2343 -30.9739 -30.9613 -30.8792 -30.8396 -30.7487
   -16.7774 -16.3431 -16.1133 -15.9759 -15.9083 -15.8540 -15.8086 -15.6876
   -15.6147 -15.6083 -15.5678 -15.5374 -15.4669 -15.3262 -15.2280 -15.1745
   -15.1301 -15.0091 -14.9492 -14.9163 -14.9117 -14.8773 -14.8577 -14.6616
   -14.6372 -14.5346 -14.5249 -14.3991 -14.1768 -13.7767 -13.7080 -13.6666
   -12.7968  -7.4930  -4.3431  -3.8383  -3.7695  -3.7126  -3.6009  -3.5138
    -3.4063  -3.3934  -3.3125  -3.1942  -3.1482  -3.1005  -2.9846  -2.9845
    -2.8351  -2.7949  -2.7890  -2.7852  -2.7400  -2.6767  -2.6610  -2.6221
    -2.6166  -2.6073  -2.4566  -2.3565  -2.2892  -2.2678  -2.2574  -2.2216
    -2.1435  -2.1234  -2.1087  -2.1050  -2.0046  -1.8558  -1.8542  -1.8231
    -1.7796  -1.7779  -1.7400  -1.7253  -1.5899  -1.5162  -1.4133  -1.3960
    -1.3575  -1.2934  -1.2870  -1.1890  -1.1146  -1.0520  -1.0265  -0.9175
    -0.8749  -0.8524  -0.7628  -0.7008  -0.6611  -0.6436  -0.6267  -0.5229
    -0.5029  -0.4919  -0.4071  -0.3953  -0.3381  -0.2567  -0.2370  -0.2309
    -0.1427  -0.1375  -0.0454  -0.0035   0.0383   0.0833   0.1791   0.1974
     0.3004   0.3359   0.3572   0.4770   0.4900   0.5528   0.6202   0.6877
     0.7189   0.7434   0.7728   0.7945   0.8677   0.9826   0.9875   1.0892
     1.1286   1.2964   1.3353   1.3469   1.6232   1.6483   2.3200   2.6612
     2.8211   3.1197   3.3105   3.4216   3.6365   3.6516   3.6570   3.8345
     3.8808

[...]

          k = 0.0380-0.0419 0.0000 ( 17876 PWs)   bands (ev):

[...]

          k =-0.0760-0.0000 0.0000 ( 17886 PWs)   bands (ev):

[...]

          k =-0.0760-0.0839 0.0000 ( 17948 PWs)   bands (ev):

   -56.5967 -56.5963 -55.7167 -55.7116 -55.7090 -55.7084 -55.5719 -55.5665
   -55.3553 -55.3497 -55.2686 -55.2612 -55.2611 -55.1724 -54.7300 -54.6225
   -32.8737 -32.8734 -32.8582 -32.8579 -32.7426 -32.7423 -32.0369 -32.0343
   -32.0209 -32.0149 -31.9647 -31.9636 -31.9214 -31.9199 -31.9185 -31.9176
   -31.9066 -31.9039 -31.9026 -31.9003 -31.8240 -31.8195 -31.7732 -31.7678
   -31.7067 -31.6994 -31.6383 -31.6317 -31.6055 -31.6053 -31.5981 -31.5543
   -31.5523 -31.5242 -31.4892 -31.4867 -31.4866 -31.4476 -31.4475 -31.4423
   -31.4152 -31.3760 -31.1131 -30.9939 -30.9609 -30.9291 -30.8421 -30.8074
   -16.1257 -16.1236 -16.0915 -16.0912 -15.8214 -15.8177 -15.7736 -15.7719
   -15.5991 -15.5932 -15.3867 -15.3764 -15.3705 -15.3665 -15.2424 -15.2335
   -15.1700 -15.1592 -15.0701 -15.0667 -15.0036 -14.9974 -14.9596 -14.9399
   -14.6232 -14.6157 -14.4880 -14.4794 -14.3268 -13.7701 -13.7701 -13.7072
   -12.8133  -7.4830  -3.7732  -3.7240  -3.2252  -3.2247  -3.1592  -3.1579
    -3.0370  -3.0323  -2.9557  -2.9552  -2.8559  -2.8516  -2.7555  -2.7120
    -2.7098  -2.7072  -2.6943  -2.6515  -2.5562  -2.5559  -2.5412  -2.5260
    -2.4705  -2.4683  -2.4538  -2.3813  -2.3678  -2.3319  -2.2925  -2.1861
    -2.1725  -2.1560  -2.1301  -2.0699  -2.0554  -2.0441  -1.9964  -1.9720
    -1.8941  -1.8276  -1.7863  -1.6665  -1.6630  -1.6531  -1.6410  -1.4860
    -1.4502  -1.4189  -1.4092  -1.4032  -1.3588  -1.2608  -1.2528  -1.1183
    -1.1157  -1.0460  -0.9641  -0.9409  -0.9188  -0.7844  -0.7441  -0.7033
    -0.6982  -0.6732  -0.6475  -0.6279  -0.6003  -0.4487  -0.4295  -0.3952
    -0.3644  -0.3563  -0.3151  -0.2468  -0.1671  -0.0863  -0.0851  -0.0187
     0.0335   0.0954   0.1833   0.1957   0.1997   0.4825   0.5627   0.6499
     0.7290   0.7928   0.8587   0.8834   0.9438   0.9829   1.1229   1.1257
     1.1444   1.1448   1.2050   1.2133   1.3301   1.6438   2.2067   3.2343
     3.2346   3.3016   3.3021   3.6259   3.6314   3.7402   3.7493   3.8596
     3.8649

     the Fermi energy is     2.4992 ev

!    total energy              =   -2942.90672441 Ry
     estimated scf accuracy    <       0.00000003 Ry
     smearing contrib. (-TS)   =      -0.00477621 Ry
     internal energy E=F+TS    =   -2942.90194820 Ry

     The total energy is F=E-TS. E is the sum of the following terms:
     one-electron contribution =  -23225.43901593 Ry
     hartree contribution      =   11703.00934154 Ry
     xc contribution           =    -487.45984862 Ry
     ewald contribution        =    9066.98718591 Ry
     electric field correction =       0.00038890 Ry

     convergence has been achieved in  72 iterations

     Forces acting on atoms (cartesian axes, Ry/au):

     atom    1 type  1   force =     0.00001095   -0.00043583    0.12432588
     atom    2 type  1   force =    -0.00005391   -0.00054376   -0.16063028
     atom    3 type  2   force =     0.00016805   -0.00030109   -0.06836348
     atom    4 type  2   force =    -0.00005141   -0.00038703    0.02751898
     atom    5 type  2   force =    -0.01677726    0.00112611   -0.00832846
     atom    6 type  2   force =     0.01783494    0.00162691   -0.01021931
     atom    7 type  1   force =     0.00039315   -0.00408359    0.02181555
     atom    8 type  1   force =     0.00020806   -0.00220176    0.11169367
     atom    9 type  2   force =     0.00010314    0.00018698   -0.00031602
     atom   10 type  2   force =    -0.00319464    0.00010866   -0.07305962
     atom   11 type  2   force =    -0.00035839    0.00032961   -0.00007624
     atom   12 type  2   force =     0.00016005    0.00044958   -0.00003167
     atom   13 type  1   force =     0.00015084   -0.00025043   -0.00003601
     atom   14 type  1   force =    -0.00016257    0.00004312   -0.00030837
     atom   15 type  2   force =    -0.00004389   -0.00024804    0.00018487
     atom   16 type  2   force =     0.00032821    0.00076666   -0.00000016
     atom   17 type  2   force =     0.00019603    0.00031171   -0.00028011
     atom   18 type  2   force =    -0.00019883    0.00021359    0.00012171
     atom   19 type  1   force =     0.00050178   -0.00008315   -0.00018101
     atom   20 type  1   force =     0.00026954   -0.00035319   -0.00048242
     atom   21 type  2   force =     0.00010451    0.00007969    0.09964965
     atom   22 type  2   force =     0.00008234    0.00094738    0.00046782
     atom   23 type  2   force =    -0.07915024    0.00008622   -0.03243275
     atom   24 type  2   force =     0.07906312    0.00051208   -0.03242817
     atom   25 type  1   force =     0.00002730   -0.00041031    0.12384468
     atom   26 type  1   force =    -0.00004419   -0.00042289   -0.16075950
     atom   27 type  2   force =     0.00029144   -0.00046862   -0.06735470
     atom   28 type  2   force =    -0.00005180   -0.00020425    0.02725309
     atom   29 type  2   force =    -0.01730819    0.00073969   -0.00825471
     atom   30 type  2   force =     0.01828054    0.00113841   -0.01009155
     atom   31 type  1   force =     0.00033642   -0.00099988    0.02127152
     atom   32 type  1   force =     0.00022204   -0.00027534    0.11225500
     atom   33 type  2   force =     0.00012185    0.00051089   -0.00008363
     atom   34 type  2   force =    -0.00294114   -0.00065473   -0.07291509
     atom   35 type  2   force =    -0.00026260    0.00027412   -0.00010060
     atom   36 type  2   force =     0.00011809    0.00014008   -0.00003638
     atom   37 type  1   force =     0.00015613   -0.00014606    0.00022574
     atom   38 type  1   force =     0.00006349    0.00005023    0.00032192
     atom   39 type  2   force =     0.00021611    0.00037615   -0.00016428
     atom   40 type  2   force =     0.00009945    0.00034547    0.00014676
     atom   41 type  2   force =    -0.00015433    0.00032838    0.00016961
     atom   42 type  2   force =    -0.00002818    0.00059788   -0.00001056
     atom   43 type  1   force =     0.00059108    0.00053531    0.00051971
     atom   44 type  1   force =     0.00015886    0.00031123   -0.00041204
     atom   45 type  2   force =     0.00010632    0.00005096    0.09966627
     atom   46 type  2   force =    -0.07915884    0.00012788   -0.03243593
     atom   47 type  2   force =     0.07906487    0.00056075   -0.03242504
     atom   48 type  3   force =     0.00042927    0.00030318   -0.00026844
     atom   49 type  4   force =     0.00071224   -0.00039577    0.00177805
     atom   50 type  5   force =     0.00056578   -0.00036353   -0.00036769
     atom   51 type  5   force =    -0.00021590    0.00036040   -0.00011884
     atom   52 type  5   force =    -0.00071146   -0.00058861    0.00023481
     atom   53 type  3   force =    -0.00837896   -0.00192311   -0.00356292
     atom   54 type  5   force =     0.00178599   -0.00237258   -0.00032450
     atom   55 type  5   force =     0.00660660    0.00449835    0.00488208
     atom   56 type  5   force =    -0.00028183    0.00007587   -0.00148688

     Total force =     0.425133     Total SCF correction =     0.000411
  @ DRIVER MODE: Message from server: STATUS
  @ DRIVER MODE: Message from server: GETFORCE
  @ DRIVER MODE: Returning v,forces,stress,ensemble

     Writing output data file ./calc.save/
  @ DRIVER MODE: Message from server: EXIT
  @ DRIVE MODE: Exiting

     General routines

     Parallel routines

   This run was terminated on:  21:20:35   2Aug2021

   JOB DONE.