     Program PWSCF v.6.7GPU starts on 16Sep2021 at  6:14:51

     R & G space division:  proc/nbgrp/npool/nimage =      10
     Reading input from /storage/home/hcoda1/3/ntian30/research/carbon/CxH_vib/H2O_calc/ads_slab/CH3NNH3H2O_a/out_0041/pw.inp
Warning: card &CELL ignored
Warning: card   CELL_DYNAMICS='IPI', ignored
Warning: card / ignored

     Current dimensions of program PWSCF are:
     Max number of different atomic species (ntypx) = 10
     Max number of k-points (npk) =  40000
     Max angular momentum in pseudopotentials (lmaxx) =  3
     Presently no symmetry can be used with electric field

     Message from routine cell_base_init:
     DEPRECATED: use true lattice parameter, not A to a.u. conversion factor

     IMPORTANT: XC functional enforced from input :
     Exchange-correlation= BEEF-VDW
                           (   1   4  43  14   2   0   0)
     Any further DFT definition will be discarded
     Please, verify this is what you really want

  @ DRIVER MODE: Connecting to
 qe_1139763_2852621.sched-torque.pace.gatech.eduddn950w5_scratch
  using UNIX socket
  @ DRIVER MODE: Message from server: STATUS
  @ DRIVER MODE: Message from server: INIT
  @ DRIVER MODE: Receiving replica           0          -1
  @ DRIVER MODE: Receiving encoded integer          25
  @ DRIVER MODE:  SCF:  T  FORCE:  T  STRESS:  F  VC:  F  ENSEMBLE:  F
  @ DRIVER MODE:  SCF:  T  FORCE:  T  STRESS:  F  VC:  F  ENSEMBLE:  F

     Using Slab Decomposition

     bravais-lattice index     =            0
     lattice parameter (alat)  =       1.8897  a.u.
     unit-cell volume          =    6658.9804 (a.u.)^3
     number of atoms/cell      =           59
     number of atomic types    =            5
     number of electrons       =       406.00
     number of Kohn-Sham states=          213
     kinetic-energy cutoff     =      29.3995  Ry
     charge density cutoff     =     293.9946  Ry
     scf convergence threshold =      7.3E-08
     mixing beta               =       0.0500
     number of iterations used =            8  plain     mixing
     Exchange-correlation= BEEF-VDW
                           (   1   4  43  14   2   0   0)

     celldm(1)=   1.889726  celldm(2)=   0.000000  celldm(3)=   0.000000
     celldm(4)=   0.000000  celldm(5)=   0.000000  celldm(6)=   0.000000

     crystal axes: (cart. coord. in units of alat)
               a(1) = (   6.579727   0.000000   0.000000 )
               a(2) = (  -0.000775   5.961596   0.000000 )
               a(3) = (   0.000000   0.000000  25.155947 )

     reciprocal axes: (cart. coord. in units 2 pi/alat)
               b(1) = (  0.151982  0.000020  0.000000 )
               b(2) = (  0.000000  0.167740  0.000000 )
               b(3) = (  0.000000  0.000000  0.039752 )

     PseudoPot. # 1 for Ti read from file:
     /storage/coda1/p-amedford6/0/shared/rich_project_chbe-medford/medford-share/data/pseudos_module/espresso/nninc/pbe/van/Ti.UPF
     MD5 check sum: 8e4df49b7f0d34bbd5052bf3f5ea0213
     Pseudo is Ultrasoft, Zval = 12.0
     Generated by new atomic code, or converted to UPF format
     Using radial grid of  851 points,  6 beta functions with:
                l(1) =   0
                l(2) =   0
                l(3) =   1
                l(4) =   1
                l(5) =   2
                l(6) =   2
     Q(r) pseudized with  8 coefficients,  rinner =    1.000   1.000   1.000
                                                       1.000   1.000

     PseudoPot. # 2 for O  read from file:
     /storage/coda1/p-amedford6/0/shared/rich_project_chbe-medford/medford-share/data/pseudos_module/espresso/nninc/pbe/van/O.UPF
     MD5 check sum: 78c19812648e8988a0fe644b0f25305e
     Pseudo is Ultrasoft, Zval =  6.0
     Generated by new atomic code, or converted to UPF format
     Using radial grid of  737 points,  4 beta functions with:
                l(1) =   0
                l(2) =   0
                l(3) =   1
                l(4) =   1
     Q(r) pseudized with  8 coefficients,  rinner =    0.800   0.800   0.800

     PseudoPot. # 3 for N  read from file:
     /storage/coda1/p-amedford6/0/shared/rich_project_chbe-medford/medford-share/data/pseudos_module/espresso/nninc/pbe/van/N.UPF
     MD5 check sum: 90d10febe142ad51ac9d5be1deb811c4
     Pseudo is Ultrasoft, Zval =  5.0
     Generated by new atomic code, or converted to UPF format
     Using radial grid of  729 points,  4 beta functions with:
                l(1) =   0
                l(2) =   0
                l(3) =   1
                l(4) =   1
     Q(r) pseudized with  8 coefficients,  rinner =    0.800   0.800   0.800

     PseudoPot. # 4 for C  read from file:
     /storage/coda1/p-amedford6/0/shared/rich_project_chbe-medford/medford-share/data/pseudos_module/espresso/nninc/pbe/van/C.UPF
     MD5 check sum: 1a69bf6b8db32088f5b2163dbdb77a27
     Pseudo is Ultrasoft, Zval =  4.0
     Generated by new atomic code, or converted to UPF format
     Using radial grid of  721 points,  4 beta functions with:
                l(1) =   0
                l(2) =   0
                l(3) =   1
                l(4) =   1
     Q(r) pseudized with  8 coefficients,  rinner =    0.800   0.800   0.800

     PseudoPot. # 5 for H  read from file:
     /storage/coda1/p-amedford6/0/shared/rich_project_chbe-medford/medford-share/data/pseudos_module/espresso/nninc/pbe/van/H.UPF
     MD5 check sum: b5ee9d7bfd3a09ee7748110bda690ff7
     Pseudo is Ultrasoft, Zval =  1.0
     Generated by new atomic code, or converted to UPF format
     Using radial grid of  615 points,  1 beta functions with:
                l(1) =   0
     Q(r) pseudized with  8 coefficients,  rinner =    0.800

     atomic species   valence    mass     pseudopotential
        Ti1           12.00    47.86700     Ti( 1.00)
        O1             6.00    15.99900     O ( 1.00)
        N1             5.00    14.00700     N ( 1.00)
        C1             4.00    12.01100     C ( 1.00)
        H1             1.00     1.00800     H ( 1.00)

     No symmetry found

   Cartesian axes

     site n.     atom                  positions (alat units)
         1           Ti1 tau(   1) = (   0.0004258   2.9801865   6.0000000  )
         2           Ti1 tau(   2) = (   3.2906075   1.4906267   6.0002472  )
         3           O1  tau(   3) = (   0.0006271   0.0005054   7.9858123  )
         4           O1  tau(   4) = (   3.2906025   0.0005020   7.3038282  )
         5           O1  tau(   5) = (   4.5942328   1.4918067   9.2879030  )
         6           O1  tau(   6) = (   1.9868534   1.4903216   9.2879459  )
         7           Ti1 tau(   7) = (   3.2907910   2.8959150   9.1758416  )
         8           Ti1 tau(   8) = (   0.0015273   1.4827037   9.2680791  )
         9           O1  tau(   9) = (   3.2954490   0.0159868  11.2922163  )
        10           O1  tau(  10) = (   0.0116148   5.9584955  10.6183126  )
        11           O1  tau(  11) = (   1.3242731   1.5050266  12.6143764  )
        12           O1  tau(  12) = (   5.3073597   1.5103589  12.6267567  )
        13           Ti1 tau(  13) = (   6.4831477   3.0011104  12.7364612  )
        14           Ti1 tau(  14) = (   3.1751638   1.4975352  12.4748964  )
        15           O1  tau(  15) = (   0.0212859   5.9607631  14.5987152  )
        16           O1  tau(  16) = (   3.3058086   0.0238703  13.8910224  )
        17           O1  tau(  17) = (   4.5539421   1.5574750  15.9960573  )
        18           O1  tau(  18) = (   2.0731809   1.5597727  15.9888445  )
        19           Ti1 tau(  19) = (   3.3176354   3.0289328  15.6523405  )
        20           Ti1 tau(  20) = (   0.0198791   1.6227889  16.0606591  )
        21           O1  tau(  21) = (   3.2904802   0.0005063   4.7018136  )
        22           O1  tau(  22) = (   0.0290054   0.0533443  17.2129705  )
        23           O1  tau(  23) = (   1.3043587   1.4918075   6.0039043  )
        24           O1  tau(  24) = (   5.2767064   1.4903225   6.0039473  )
        25           Ti1 tau(  25) = (   0.0000382   5.9609847   6.0000000  )
        26           Ti1 tau(  26) = (   3.2902200   4.4714249   6.0002472  )
        27           O1  tau(  27) = (   0.0002396   2.9813036   7.9858123  )
        28           O1  tau(  28) = (   3.2902150   2.9813002   7.3038282  )
        29           O1  tau(  29) = (   4.5938453   4.4726049   9.2879030  )
        30           O1  tau(  30) = (   1.9864658   4.4711199   9.2879459  )
        31           Ti1 tau(  31) = (   3.2891106   5.8743827   9.1763621  )
        32           Ti1 tau(  32) = (   0.0006254   4.4649316   9.2693709  )
        33           O1  tau(  33) = (   3.2918316   2.9938763  11.2915017  )
        34           O1  tau(  34) = (   0.0092240   2.9805883  10.6323155  )
        35           O1  tau(  35) = (   1.3226278   4.4784642  12.6110361  )
        36           O1  tau(  36) = (   5.3078083   4.4770455  12.6250823  )
        37           Ti1 tau(  37) = (   6.5141033   0.0190828  12.7620745  )
        38           Ti1 tau(  38) = (   3.1722404   4.4939287  12.4712879  )
        39           O1  tau(  39) = (   0.0035410   2.9850241  14.6487316  )
        40           O1  tau(  40) = (   3.3118331   3.0109266  13.8519036  )
        41           O1  tau(  41) = (   4.5522870   4.5059159  16.0259181  )
        42           O1  tau(  42) = (   2.0778134   4.5048723  16.0185459  )
        43           Ti1 tau(  43) = (   3.3116469   0.0596163  15.7453941  )
        44           Ti1 tau(  44) = (   0.0183239   4.5967015  16.1059876  )
        45           O1  tau(  45) = (   3.2900926   2.9813045   4.7018136  )
        46           O1  tau(  46) = (   1.3039711   4.4726057   6.0039043  )
        47           O1  tau(  47) = (   5.2763189   4.4711207   6.0039473  )
        48           N1  tau(  48) = (   0.0600715   3.0265251  17.3188267  )
        49           N1  tau(  49) = (   6.2826239   2.5295367  22.6224490  )
        50           C1  tau(  50) = (   0.2859397   3.0149959  18.7399364  )
        51           H1  tau(  51) = (   0.1411154   4.0060466  19.1894648  )
        52           H1  tau(  52) = (   6.1913215   2.3105648  19.2421896  )
        53           H1  tau(  53) = (   1.3125146   2.6868920  18.9691123  )
        54           H1  tau(  54) = (   6.1000088   3.2491606  23.3042794  )
        55           H1  tau(  55) = (   0.1456284   1.7586669  23.1118534  )
        56           H1  tau(  56) = (   0.3974265   2.9048463  21.9856970  )
        57           O1  tau(  57) = (   3.2908421   0.1144680  18.1630233  )
        58           H1  tau(  58) = (   4.0679411   5.5688996  18.4486002  )
        59           H1  tau(  59) = (   2.5060966   5.5711546  18.4327789  )

     number of k points=    10  Fermi-Dirac smearing, width (Ry)=  0.0073
                       cart. coord. in units 2pi/alat
        k(    1) = (   0.0000000   0.0000000   0.0000000), wk =   0.1250000
        k(    2) = (   0.0000000   0.0419351   0.0000000), wk =   0.2500000
        k(    3) = (   0.0000000  -0.0838702   0.0000000), wk =   0.1250000
        k(    4) = (   0.0379955   0.0000049   0.0000000), wk =   0.2500000
        k(    5) = (   0.0379955   0.0419400   0.0000000), wk =   0.2500000
        k(    6) = (   0.0379955  -0.0838652   0.0000000), wk =   0.2500000
        k(    7) = (   0.0379955  -0.0419301   0.0000000), wk =   0.2500000
        k(    8) = (  -0.0759910  -0.0000099   0.0000000), wk =   0.1250000
        k(    9) = (  -0.0759910   0.0419252   0.0000000), wk =   0.2500000
        k(   10) = (  -0.0759910  -0.0838800   0.0000000), wk =   0.1250000

     Initial potential from superposition of free atoms

     starting charge  389.99912, renormalised to  406.00000

     negative rho (up, down):  6.928E-03 0.000E+00

     %%%%%%%%%%%%%%%%%%%%%%%%%%%%%%%%%%%%%%%%%%%%%%%%%%%%%%%%%%%%%%%%%%%%%%%%
     %                                                                      %
     % You are using vdW-DF, which was implemented by the Thonhauser group. %
     % Please cite the following two papers that made this development      %
     % possible and the two reviews that describe the various versions:     %
     %                                                                      %
     %   T. Thonhauser et al., PRL 115, 136402 (2015).                      %
     %   T. Thonhauser et al., PRB 76, 125112 (2007).                       %
     %   K. Berland et al., Rep. Prog. Phys. 78, 066501 (2015).             %
     %   D.C. Langreth et al., J. Phys.: Condens. Matter 21, 084203 (2009). %
     %                                                                      %
     %                                                                      %
     % If you are calculating the stress with vdW-DF, please also cite:     %
     %                                                                      %
     %   R. Sabatini et al., J. Phys.: Condens. Matter 24, 424209 (2012).   %
     %                                                                      %
     %%%%%%%%%%%%%%%%%%%%%%%%%%%%%%%%%%%%%%%%%%%%%%%%%%%%%%%%%%%%%%%%%%%%%%%%

     Adding external electric field

     Computed dipole along edir(3) :
        Dipole              -16.2325 Ry au,        -41.2588 Debye
        Dipole field         -0.0306 Ry au,

        Potential amp.        2.8396 Ry
        Total length         46.3494 bohr

     Starting wfcs are  308 atomic wfcs
  @ DRIVER MODE: Message from server: STATUS
  @ DRIVER MODE: Message from server: POSDATA
  @ DRIVER MODE: Reading and sharing cell
  @ DRIVER MODE: Reading and sharing positions
  @ DRIVER MODE: Received positions

     Self-consistent Calculation

     iteration #  1     ecut=    29.40 Ry     beta= 0.05
     Davidson diagonalization with overlap
     c_bands:  2 eigenvalues not converged
     c_bands:  3 eigenvalues not converged
     c_bands:  5 eigenvalues not converged
     c_bands:  3 eigenvalues not converged
     c_bands:  4 eigenvalues not converged
     c_bands:  3 eigenvalues not converged
     c_bands:  1 eigenvalues not converged
     c_bands:  5 eigenvalues not converged
     c_bands:  3 eigenvalues not converged
     ethr =  1.00E-05,  avg # of iterations = 20.6

[...]

     total energy              =   -2253.35942207 Ry
     estimated scf accuracy    <    8263.89961771 Ry

     iteration #  2     ecut=    29.40 Ry     beta= 0.05
     Davidson diagonalization with overlap
     ethr =  1.00E-02,  avg # of iterations = 25.1

[...]

     iteration # 50     ecut=    29.40 Ry     beta= 0.05
     Davidson diagonalization with overlap
     c_bands:  2 eigenvalues not converged
     c_bands:  1 eigenvalues not converged
     ethr =  1.14E-05,  avg # of iterations = 11.7

[...]

     total energy              =   -2977.74432420 Ry
     estimated scf accuracy    <       0.00000011 Ry

     iteration # 76     ecut=    29.40 Ry     beta= 0.05
     Davidson diagonalization with overlap
     ethr =  2.82E-11,  avg # of iterations =  5.1

     negative rho (up, down):  8.799E-03 0.000E+00

     Adding external electric field

     Computed dipole along edir(3) :
        Dipole                0.7638 Ry au,          1.9415 Debye
        Dipole field          0.0014 Ry au,

        Potential amp.       -0.1336 Ry
        Total length         46.3494 bohr

     End of self-consistent calculation

          k = 0.0000 0.0000 0.0000 ( 18029 PWs)   bands (ev):

   -56.2624 -56.2288 -55.3796 -55.3457 -55.3372 -55.3023 -55.1544 -55.1192
   -55.0325 -54.9121 -54.8937 -54.8923 -54.8782 -54.8073 -54.3915 -54.3418
   -32.6891 -32.5366 -32.5084 -32.4387 -32.3477 -32.3153 -31.8474 -31.8194
   -31.6898 -31.6453 -31.5966 -31.5785 -31.5485 -31.5392 -31.5103 -31.5053
   -31.4866 -31.4804 -31.4581 -31.4436 -31.4305 -31.3812 -31.3709 -31.3322
   -31.3197 -31.3030 -31.2943 -31.2807 -31.2568 -31.2559 -31.2516 -31.2274
   -31.1326 -31.1220 -31.0821 -31.0717 -31.0442 -31.0389 -31.0301 -31.0116
   -30.9808 -30.9281 -30.9061 -30.6351 -30.6129 -30.5818 -30.5609 -30.4521
   -18.4468 -16.4181 -15.9520 -15.7088 -15.6189 -15.5358 -15.4969 -15.4530
   -15.3012 -15.2334 -15.2107 -15.2104 -15.1399 -14.9917 -14.9444 -14.8464
   -14.7529 -14.6181 -14.6011 -14.5675 -14.5501 -14.5171 -14.5100 -14.4583
   -14.2949 -14.2593 -14.2109 -14.1482 -14.0631 -14.0626 -13.8378 -13.4104
   -13.3007 -12.6442  -7.4503  -6.2372  -4.1492  -4.0794  -3.9854  -3.4516
    -3.1825  -3.1547  -3.0262  -3.0216  -2.9763  -2.8361  -2.8284  -2.7547
    -2.7310  -2.6939  -2.6175  -2.5846  -2.5355  -2.4459  -2.4332  -2.4133
    -2.4000  -2.3843  -2.2628  -2.2212  -2.1691  -2.0655  -1.9571  -1.9142
    -1.8872  -1.8432  -1.8052  -1.7580  -1.7460  -1.7311  -1.7243  -1.6135
    -1.4988  -1.4664  -1.4514  -1.4049  -1.3871  -1.3781  -1.3562  -1.2710
    -1.1615  -1.0679  -1.0006  -0.9885  -0.9207  -0.9128  -0.8538  -0.7380
    -0.6772  -0.6727  -0.6566  -0.5529  -0.5264  -0.4551  -0.3924  -0.3342
    -0.2796  -0.2169  -0.1667  -0.1438  -0.1312  -0.0322   0.0394   0.0627
     0.1140   0.1234   0.1322   0.1532   0.2495   0.2853   0.3591   0.4037
     0.4399   0.4840   0.5671   0.6173   0.6851   0.7349   0.7578   0.8192
     0.8729   0.9284   1.0234   1.0740   1.0782   1.0867   1.1097   1.1697
     1.1835   1.2595   1.3427   1.3582   1.4304   1.4988   1.6597   1.6988
     1.9485   2.0199   2.6465   3.0148   3.1758   3.4713   3.6610   3.7985
     3.9938   4.0043   4.0116   4.2378   4.2612

[...]

          k = 0.0380-0.0419 0.0000 ( 17876 PWs)   bands (ev):

[...]

          k =-0.0760-0.0000 0.0000 ( 17886 PWs)   bands (ev):

[...]

          k =-0.0760-0.0839 0.0000 ( 17948 PWs)   bands (ev):

   -56.2457 -56.2453 -55.3646 -55.3603 -55.3247 -55.3149 -55.1379 -55.1356
   -55.0303 -54.8952 -54.8950 -54.8944 -54.8901 -54.8109 -54.3844 -54.3488
   -32.5225 -32.5221 -32.5061 -32.5059 -32.3919 -32.3915 -31.6711 -31.6652
   -31.6553 -31.6478 -31.5714 -31.5564 -31.5546 -31.5503 -31.5440 -31.5425
   -31.5366 -31.5279 -31.4959 -31.4795 -31.3835 -31.3814 -31.3477 -31.3419
   -31.3228 -31.2866 -31.2483 -31.2405 -31.2403 -31.2397 -31.2152 -31.1932
   -31.1503 -31.1200 -31.1197 -31.1162 -31.0934 -31.0807 -31.0806 -31.0660
   -31.0491 -31.0137 -30.7668 -30.7042 -30.6108 -30.5864 -30.5688 -30.5226
   -18.4460 -15.7687 -15.7667 -15.7315 -15.7308 -15.4639 -15.4606 -15.3672
   -15.3619 -15.2276 -15.1106 -15.0088 -14.9961 -14.9606 -14.9335 -14.8216
   -14.8008 -14.7917 -14.7816 -14.6701 -14.6500 -14.6047 -14.5934 -14.5772
   -14.5670 -14.2730 -14.2599 -14.1569 -14.1331 -14.0623 -13.9909 -13.4043
   -13.4042 -12.6628  -7.4440  -6.2297  -4.1601  -4.0800  -2.8652  -2.8580
    -2.8221  -2.8036  -2.8027  -2.7442  -2.6385  -2.5988  -2.5968  -2.5956
    -2.5145  -2.4471  -2.4392  -2.3677  -2.3348  -2.3155  -2.2575  -2.2468
    -2.1814  -2.1551  -2.1468  -2.1302  -2.1067  -2.1054  -2.0096  -1.9469
    -1.8951  -1.8916  -1.8243  -1.8062  -1.7422  -1.7213  -1.7098  -1.6781
    -1.6364  -1.6137  -1.5819  -1.5480  -1.5072  -1.4476  -1.2806  -1.2716
    -1.2623  -1.2408  -1.1156  -1.1090  -1.0775  -1.0473  -1.0416  -0.9680
    -0.9181  -0.8829  -0.8257  -0.7420  -0.7195  -0.6177  -0.5666  -0.5205
    -0.4643  -0.3582  -0.3406  -0.3301  -0.3207  -0.2905  -0.2242  -0.1951
    -0.1794  -0.0588  -0.0393   0.0138   0.0350   0.0912   0.1175   0.1819
     0.2091   0.2807   0.2925   0.3315   0.4054   0.4867   0.5209   0.5692
     0.5739   0.8500   0.9239   1.0542   1.0649   1.1216   1.1802   1.2518
     1.3112   1.3437   1.3704   1.4939   1.4982   1.5075   1.5080   1.5793
     1.5843   1.9262   2.5237   3.5907   3.5909   3.6573   3.6580   3.9789
     3.9852   4.0919   4.1022   4.2632   4.2783

     the Fermi energy is     2.8426 ev

!    total energy              =   -2977.74434498 Ry
     estimated scf accuracy    <       0.00000007 Ry
     smearing contrib. (-TS)   =      -0.00445534 Ry
     internal energy E=F+TS    =   -2977.73988964 Ry

     The total energy is F=E-TS. E is the sum of the following terms:
     one-electron contribution =  -22876.08395070 Ry
     hartree contribution      =   11535.75783837 Ry
     xc contribution           =    -496.33270107 Ry
     ewald contribution        =    8858.91782271 Ry
     electric field correction =       0.00110105 Ry

     convergence has been achieved in  76 iterations

     Forces acting on atoms (cartesian axes, Ry/au):

     atom    1 type  1   force =    -0.00004007   -0.00046226    0.12452150
     atom    2 type  1   force =    -0.00008617   -0.00048703   -0.15980292
     atom    3 type  2   force =     0.00019098   -0.00024458   -0.06790997
     atom    4 type  2   force =    -0.00000786   -0.00011673    0.02622271
     atom    5 type  2   force =    -0.01449246    0.00181837   -0.00990785
     atom    6 type  2   force =     0.01627126    0.00224263   -0.01025325
     atom    7 type  1   force =     0.00071879   -0.00387376    0.02887798
     atom    8 type  1   force =    -0.00035076   -0.00440051    0.10954491
     atom    9 type  2   force =     0.00023838   -0.00029232   -0.00052148
     atom   10 type  2   force =    -0.00231606    0.00256594   -0.07334242
     atom   11 type  2   force =    -0.00002376   -0.00033714   -0.00000793
     atom   12 type  2   force =    -0.00016220   -0.00082902    0.00001338
     atom   13 type  1   force =     0.00106154   -0.00041016    0.00010509
     atom   14 type  1   force =    -0.00064423    0.00064461   -0.00011333
     atom   15 type  2   force =    -0.00028966   -0.00039163   -0.00075018
     atom   16 type  2   force =    -0.00001455   -0.00011225    0.00067574
     atom   17 type  2   force =     0.00015676   -0.00091211   -0.00019848
     atom   18 type  2   force =     0.00049999   -0.00052513    0.00013358
     atom   19 type  1   force =    -0.00113730   -0.00009600   -0.00095629
     atom   20 type  1   force =     0.00080086   -0.00012866   -0.00044905
     atom   21 type  2   force =     0.00004586   -0.00003863    0.09945064
     atom   22 type  2   force =     0.00002560   -0.00023528   -0.00038420
     atom   23 type  2   force =    -0.07966883   -0.00005778   -0.03249605
     atom   24 type  2   force =     0.07951101    0.00037872   -0.03254527
     atom   25 type  1   force =    -0.00001262   -0.00057056    0.12417383
     atom   26 type  1   force =    -0.00008238   -0.00062602   -0.15995254
     atom   27 type  2   force =     0.00030040   -0.00036416   -0.06696188
     atom   28 type  2   force =    -0.00002019    0.00015128    0.02514117
     atom   29 type  2   force =    -0.01511472    0.00192645   -0.00984686
     atom   30 type  2   force =     0.01679096    0.00242715   -0.01016023
     atom   31 type  1   force =     0.00074259   -0.00075181    0.02405004
     atom   32 type  1   force =    -0.00027604    0.00204343    0.11016536
     atom   33 type  2   force =     0.00007711    0.00029434    0.00057886
     atom   34 type  2   force =    -0.00193915    0.00199932   -0.07165492
     atom   35 type  2   force =    -0.00001841    0.00034210   -0.00002192
     atom   36 type  2   force =    -0.00054185    0.00061216   -0.00006371
     atom   37 type  1   force =     0.00119490    0.00043168    0.00028080
     atom   38 type  1   force =    -0.00053943   -0.00088121   -0.00023680
     atom   39 type  2   force =    -0.00027561   -0.00014832    0.00088539
     atom   40 type  2   force =     0.00017965   -0.00012893    0.00023779
     atom   41 type  2   force =     0.00102618    0.00015561    0.00017245
     atom   42 type  2   force =    -0.00048783   -0.00023448    0.00054802
     atom   43 type  1   force =    -0.00158943    0.00001595   -0.00029645
     atom   44 type  1   force =     0.00091304   -0.00015198   -0.00038457
     atom   45 type  2   force =     0.00001884   -0.00004650    0.09941450
     atom   46 type  2   force =    -0.07968292    0.00000420   -0.03250837
     atom   47 type  2   force =     0.07953455    0.00043648   -0.03253817
     atom   48 type  3   force =    -0.00087517   -0.00076401   -0.00044755
     atom   49 type  3   force =     0.00255019   -0.00732350   -0.00712060
     atom   50 type  4   force =    -0.00025571   -0.00011328    0.00004941
     atom   51 type  5   force =    -0.00021003    0.00038578    0.00028145
     atom   52 type  5   force =    -0.00005672   -0.00053316    0.00073374
     atom   53 type  5   force =     0.00051088   -0.00014696    0.00020823
     atom   54 type  5   force =    -0.00245425    0.00679621    0.00808987
     atom   55 type  5   force =    -0.00027745    0.00098239    0.00015438
     atom   56 type  5   force =     0.00027524   -0.00048271   -0.00250556
     atom   57 type  2   force =     0.00158607   -0.00047321   -0.00036601
     atom   58 type  5   force =    -0.00047623    0.00090454    0.00002613
     atom   59 type  5   force =    -0.00080156    0.00013246   -0.00003208

     Total force =     0.423798     Total SCF correction =     0.000423
  @ DRIVER MODE: Message from server: STATUS
  @ DRIVER MODE: Message from server: GETFORCE
  @ DRIVER MODE: Returning v,forces,stress,ensemble

     Writing output data file ./calc.save/
  @ DRIVER MODE: Message from server: EXIT
  @ DRIVE MODE: Exiting

     General routines

     Parallel routines

   This run was terminated on:   6:35:13  16Sep2021

   JOB DONE.