     Program PWSCF v.6.7GPU starts on 11Oct2021 at 22:11:13

     R & G space division:  proc/nbgrp/npool/nimage =       8
     Reading input from /storage/home/hcoda1/3/ntian30/research/carbon/CxH_vib/CH2_calc/ads_slab/CH2NHH_b/out_0015/pw.inp
Warning: card &CELL ignored
Warning: card   CELL_DYNAMICS='IPI', ignored
Warning: card / ignored

     Current dimensions of program PWSCF are:
     Max number of different atomic species (ntypx) = 10
     Max number of k-points (npk) =  40000
     Max angular momentum in pseudopotentials (lmaxx) =  3
     Presently no symmetry can be used with electric field

     Message from routine cell_base_init:
     DEPRECATED: use true lattice parameter, not A to a.u. conversion factor

     IMPORTANT: XC functional enforced from input :
     Exchange-correlation= BEEF-VDW
                           (   1   4  43  14   2   0   0)
     Any further DFT definition will be discarded
     Please, verify this is what you really want

  @ DRIVER MODE: Connecting to
 qe_1139763_3171005.sched-torque.pace.gatech.eduuexkq5n8_scratch
  using UNIX socket
  @ DRIVER MODE: Message from server: STATUS
  @ DRIVER MODE: Message from server: INIT
  @ DRIVER MODE: Receiving replica           0          -1
  @ DRIVER MODE: Receiving encoded integer          25
  @ DRIVER MODE:  SCF:  T  FORCE:  T  STRESS:  F  VC:  F  ENSEMBLE:  F
  @ DRIVER MODE:  SCF:  T  FORCE:  T  STRESS:  F  VC:  F  ENSEMBLE:  F

     Using Slab Decomposition

     bravais-lattice index     =            0
     lattice parameter (alat)  =       1.8897  a.u.
     unit-cell volume          =    6658.9804 (a.u.)^3
     number of atoms/cell      =           53
     number of atomic types    =            5
     number of electrons       =       391.00
     number of Kohn-Sham states=          205
     kinetic-energy cutoff     =      29.3995  Ry
     charge density cutoff     =     293.9946  Ry
     scf convergence threshold =      7.3E-08
     mixing beta               =       0.0500
     number of iterations used =            8  plain     mixing
     Exchange-correlation= BEEF-VDW
                           (   1   4  43  14   2   0   0)

     celldm(1)=   1.889726  celldm(2)=   0.000000  celldm(3)=   0.000000
     celldm(4)=   0.000000  celldm(5)=   0.000000  celldm(6)=   0.000000

     crystal axes: (cart. coord. in units of alat)
               a(1) = (   6.579727   0.000000   0.000000 )
               a(2) = (  -0.000775   5.961596   0.000000 )
               a(3) = (   0.000000   0.000000  25.155947 )

     reciprocal axes: (cart. coord. in units 2 pi/alat)
               b(1) = (  0.151982  0.000020  0.000000 )
               b(2) = (  0.000000  0.167740  0.000000 )
               b(3) = (  0.000000  0.000000  0.039752 )

     PseudoPot. # 1 for Ti read from file:
     /storage/coda1/p-amedford6/0/shared/rich_project_chbe-medford/medford-share/data/pseudos_module/espresso/nninc/pbe/van/Ti.UPF
     MD5 check sum: 8e4df49b7f0d34bbd5052bf3f5ea0213
     Pseudo is Ultrasoft, Zval = 12.0
     Generated by new atomic code, or converted to UPF format
     Using radial grid of  851 points,  6 beta functions with:
                l(1) =   0
                l(2) =   0
                l(3) =   1
                l(4) =   1
                l(5) =   2
                l(6) =   2
     Q(r) pseudized with  8 coefficients,  rinner =    1.000   1.000   1.000
                                                       1.000   1.000

     PseudoPot. # 2 for O  read from file:
     /storage/coda1/p-amedford6/0/shared/rich_project_chbe-medford/medford-share/data/pseudos_module/espresso/nninc/pbe/van/O.UPF
     MD5 check sum: 78c19812648e8988a0fe644b0f25305e
     Pseudo is Ultrasoft, Zval =  6.0
     Generated by new atomic code, or converted to UPF format
     Using radial grid of  737 points,  4 beta functions with:
                l(1) =   0
                l(2) =   0
                l(3) =   1
                l(4) =   1
     Q(r) pseudized with  8 coefficients,  rinner =    0.800   0.800   0.800

     PseudoPot. # 3 for H  read from file:
     /storage/coda1/p-amedford6/0/shared/rich_project_chbe-medford/medford-share/data/pseudos_module/espresso/nninc/pbe/van/H.UPF
     MD5 check sum: b5ee9d7bfd3a09ee7748110bda690ff7
     Pseudo is Ultrasoft, Zval =  1.0
     Generated by new atomic code, or converted to UPF format
     Using radial grid of  615 points,  1 beta functions with:
                l(1) =   0
     Q(r) pseudized with  8 coefficients,  rinner =    0.800

     PseudoPot. # 4 for N  read from file:
     /storage/coda1/p-amedford6/0/shared/rich_project_chbe-medford/medford-share/data/pseudos_module/espresso/nninc/pbe/van/N.UPF
     MD5 check sum: 90d10febe142ad51ac9d5be1deb811c4
     Pseudo is Ultrasoft, Zval =  5.0
     Generated by new atomic code, or converted to UPF format
     Using radial grid of  729 points,  4 beta functions with:
                l(1) =   0
                l(2) =   0
                l(3) =   1
                l(4) =   1
     Q(r) pseudized with  8 coefficients,  rinner =    0.800   0.800   0.800

     PseudoPot. # 5 for C  read from file:
     /storage/coda1/p-amedford6/0/shared/rich_project_chbe-medford/medford-share/data/pseudos_module/espresso/nninc/pbe/van/C.UPF
     MD5 check sum: 1a69bf6b8db32088f5b2163dbdb77a27
     Pseudo is Ultrasoft, Zval =  4.0
     Generated by new atomic code, or converted to UPF format
     Using radial grid of  721 points,  4 beta functions with:
                l(1) =   0
                l(2) =   0
                l(3) =   1
                l(4) =   1
     Q(r) pseudized with  8 coefficients,  rinner =    0.800   0.800   0.800

     atomic species   valence    mass     pseudopotential
        Ti1           12.00    47.86700     Ti( 1.00)
        O1             6.00    15.99900     O ( 1.00)
        H1             1.00     1.00800     H ( 1.00)
        N1             5.00    14.00700     N ( 1.00)
        C1             4.00    12.01100     C ( 1.00)

     No symmetry found

   Cartesian axes

     site n.     atom                  positions (alat units)
         1           Ti1 tau(   1) = (   0.0004258   2.9801865   6.0000000  )
         2           Ti1 tau(   2) = (   3.2906075   1.4906267   6.0002472  )
         3           O1  tau(   3) = (   0.0006271   0.0005054   7.9858123  )
         4           O1  tau(   4) = (   3.2906025   0.0005020   7.3038282  )
         5           O1  tau(   5) = (   4.5942328   1.4918067   9.2879030  )
         6           O1  tau(   6) = (   1.9868534   1.4903216   9.2879459  )
         7           Ti1 tau(   7) = (   3.2907910   2.8959150   9.1758416  )
         8           Ti1 tau(   8) = (   0.0015273   1.4827037   9.2680791  )
         9           O1  tau(   9) = (   3.3750462   0.0034689  11.3324641  )
        10           O1  tau(  10) = (   0.0116148   5.9584955  10.6183126  )
        11           O1  tau(  11) = (   1.3977860   1.4758343  12.6375763  )
        12           O1  tau(  12) = (   5.4232152   1.4913549  12.6657899  )
        13           Ti1 tau(  13) = (   0.0691229   2.9530050  12.5389017  )
        14           Ti1 tau(  14) = (   3.3643908   1.4039863  12.4577757  )
        15           O1  tau(  15) = (   0.1477665   0.0132832  14.6652528  )
        16           O1  tau(  16) = (   3.5189244   0.0045933  13.9158019  )
        17           O1  tau(  17) = (   4.7861523   1.5333885  16.1913275  )
        18           O1  tau(  18) = (   2.2541876   1.4026900  15.9427082  )
        19           Ti1 tau(  19) = (   3.5811307   2.9972434  16.0687679  )
        20           Ti1 tau(  20) = (   0.2998503   1.4255696  15.8726171  )
        21           O1  tau(  21) = (   3.2904802   0.0005063   4.7018136  )
        22           O1  tau(  22) = (   0.2643450   0.0038197  17.1846268  )
        23           O1  tau(  23) = (   1.3043587   1.4918075   6.0039043  )
        24           O1  tau(  24) = (   5.2767064   1.4903225   6.0039473  )
        25           Ti1 tau(  25) = (   0.0000382   5.9609847   6.0000000  )
        26           Ti1 tau(  26) = (   3.2902200   4.4714249   6.0002472  )
        27           O1  tau(  27) = (   0.0002396   2.9813036   7.9858123  )
        28           O1  tau(  28) = (   3.2902150   2.9813002   7.3038282  )
        29           O1  tau(  29) = (   4.5938453   4.4726049   9.2879030  )
        30           O1  tau(  30) = (   1.9864658   4.4711199   9.2879459  )
        31           Ti1 tau(  31) = (   3.2891106   5.8743827   9.1763621  )
        32           Ti1 tau(  32) = (   0.0006254   4.4649316   9.2693709  )
        33           O1  tau(  33) = (   3.3836021   2.9593565  11.3526375  )
        34           O1  tau(  34) = (   0.0092240   2.9805883  10.6323155  )
        35           O1  tau(  35) = (   1.3957467   4.4736095  12.6396340  )
        36           O1  tau(  36) = (   5.4261019   4.4541359  12.6685409  )
        37           Ti1 tau(  37) = (   0.0939275   5.9312067  12.4916740  )
        38           Ti1 tau(  38) = (   3.3665170   4.3046527  12.6650499  )
        39           O1  tau(  39) = (   0.1734719   2.9828917  14.8532074  )
        40           O1  tau(  40) = (   3.4150578   3.0309863  13.9715028  )
        41           O1  tau(  41) = (   4.7877001   4.4493464  16.1994792  )
        42           O1  tau(  42) = (   2.2536850   4.5881152  15.9586447  )
        43           Ti1 tau(  43) = (   3.5332629   0.0183730  15.6991940  )
        44           Ti1 tau(  44) = (   0.2986595   4.6220906  15.9451660  )
        45           O1  tau(  45) = (   3.2900926   2.9813045   4.7018136  )
        46           O1  tau(  46) = (   1.3039711   4.4726057   6.0039043  )
        47           O1  tau(  47) = (   5.2763189   4.4711207   6.0039473  )
        48           H1  tau(  48) = (   0.6716682   3.7174429  18.3617054  )
        49           H1  tau(  49) = (   0.7299512   2.1188458  18.2939656  )
        50           N1  tau(  50) = (   1.0883034   2.9430349  17.8291855  )
        51           C1  tau(  51) = (   2.6610371   2.9951180  18.0825860  )
        52           H1  tau(  52) = (   2.6895649   3.8224559  18.7561578  )
        53           H1  tau(  53) = (   2.7295784   2.2142559  18.8115579  )

     number of k points=    10  Fermi-Dirac smearing, width (Ry)=  0.0073
                       cart. coord. in units 2pi/alat
        k(    1) = (   0.0000000   0.0000000   0.0000000), wk =   0.1250000
        k(    2) = (   0.0000000   0.0419351   0.0000000), wk =   0.2500000
        k(    3) = (   0.0000000  -0.0838702   0.0000000), wk =   0.1250000
        k(    4) = (   0.0379955   0.0000049   0.0000000), wk =   0.2500000
        k(    5) = (   0.0379955   0.0419400   0.0000000), wk =   0.2500000
        k(    6) = (   0.0379955  -0.0838652   0.0000000), wk =   0.2500000
        k(    7) = (   0.0379955  -0.0419301   0.0000000), wk =   0.2500000
        k(    8) = (  -0.0759910  -0.0000099   0.0000000), wk =   0.1250000
        k(    9) = (  -0.0759910   0.0419252   0.0000000), wk =   0.2500000
        k(   10) = (  -0.0759910  -0.0838800   0.0000000), wk =   0.1250000

     Initial potential from superposition of free atoms

     starting charge  374.99916, renormalised to  391.00000

     negative rho (up, down):  1.820E-02 0.000E+00

     %%%%%%%%%%%%%%%%%%%%%%%%%%%%%%%%%%%%%%%%%%%%%%%%%%%%%%%%%%%%%%%%%%%%%%%%
     %                                                                      %
     % You are using vdW-DF, which was implemented by the Thonhauser group. %
     % Please cite the following two papers that made this development      %
     % possible and the two reviews that describe the various versions:     %
     %                                                                      %
     %   T. Thonhauser et al., PRL 115, 136402 (2015).                      %
     %   T. Thonhauser et al., PRB 76, 125112 (2007).                       %
     %   K. Berland et al., Rep. Prog. Phys. 78, 066501 (2015).             %
     %   D.C. Langreth et al., J. Phys.: Condens. Matter 21, 084203 (2009). %
     %                                                                      %
     %                                                                      %
     % If you are calculating the stress with vdW-DF, please also cite:     %
     %                                                                      %
     %   R. Sabatini et al., J. Phys.: Condens. Matter 24, 424209 (2012).   %
     %                                                                      %
     %%%%%%%%%%%%%%%%%%%%%%%%%%%%%%%%%%%%%%%%%%%%%%%%%%%%%%%%%%%%%%%%%%%%%%%%

     Adding external electric field

     Computed dipole along edir(3) :
        Dipole               -5.7422 Ry au,        -14.5952 Debye
        Dipole field         -0.0108 Ry au,

        Potential amp.        1.0045 Ry
        Total length         46.3494 bohr

     Starting wfcs are  296 atomic wfcs
  @ DRIVER MODE: Message from server: STATUS
  @ DRIVER MODE: Message from server: POSDATA
  @ DRIVER MODE: Reading and sharing cell
  @ DRIVER MODE: Reading and sharing positions
  @ DRIVER MODE: Received positions

     Self-consistent Calculation

     iteration #  1     ecut=    29.40 Ry     beta= 0.05
     Davidson diagonalization with overlap
     c_bands:  1 eigenvalues not converged
     c_bands:  1 eigenvalues not converged
     c_bands:  5 eigenvalues not converged
     c_bands:  2 eigenvalues not converged
     c_bands:  2 eigenvalues not converged
     c_bands:  2 eigenvalues not converged
     c_bands:  2 eigenvalues not converged
     ethr =  1.00E-05,  avg # of iterations = 20.8

[...]

     total energy              =   -2767.13863521 Ry
     estimated scf accuracy    <    1681.47145421 Ry

     iteration #  2     ecut=    29.40 Ry     beta= 0.05
     Davidson diagonalization with overlap
     ethr =  1.00E-02,  avg # of iterations = 19.0

[...]

     iteration # 50     ecut=    29.40 Ry     beta= 0.05
     Davidson diagonalization with overlap
     c_bands:  1 eigenvalues not converged
     ethr =  1.11E-07,  avg # of iterations = 13.0

[...]

     total energy              =   -2920.27052198 Ry
     estimated scf accuracy    <       0.00000019 Ry

     iteration # 70     ecut=    29.40 Ry     beta= 0.05
     Davidson diagonalization with overlap
     ethr =  4.89E-11,  avg # of iterations =  9.7

     negative rho (up, down):  1.844E-02 0.000E+00

     Adding external electric field

     Computed dipole along edir(3) :
        Dipole                0.8702 Ry au,          2.2118 Debye
        Dipole field          0.0016 Ry au,

        Potential amp.       -0.1522 Ry
        Total length         46.3494 bohr

     End of self-consistent calculation

          k = 0.0000 0.0000 0.0000 ( 18029 PWs)   bands (ev):

   -55.8840 -55.8500 -55.7540 -55.7157 -55.7107 -55.7085 -55.6959 -55.6767
   -55.6697 -55.6324 -55.6317 -55.6273 -55.5936 -55.5629 -54.8648 -54.8308
   -32.3698 -32.2809 -32.2440 -32.2132 -32.1773 -32.1748 -32.1566 -32.1560
   -32.1296 -32.0778 -32.0367 -32.0184 -32.0092 -31.9960 -31.9943 -31.9917
   -31.9784 -31.9482 -31.9416 -31.9322 -31.9221 -31.9103 -31.8996 -31.8907
   -31.8784 -31.8756 -31.8544 -31.8536 -31.8476 -31.8462 -31.8387 -31.8296
   -31.8228 -31.8225 -31.8205 -31.8055 -31.7922 -31.7809 -31.7795 -31.7679
   -31.7126 -31.6265 -31.2712 -31.1840 -31.1616 -31.0887 -31.0023 -30.8905
   -16.5736 -16.4028 -16.1959 -16.0689 -16.0512 -15.8578 -15.7650 -15.6875
   -15.4931 -15.4538 -15.4255 -15.4100 -15.3985 -15.3968 -15.3801 -15.3606
   -15.3404 -15.3307 -15.3093 -15.2569 -15.2507 -15.2414 -15.2168 -15.2140
   -15.0306 -15.0221 -14.9811 -14.9446 -14.8663 -14.5659 -13.3639 -13.2474
    -8.9232  -5.6313  -3.9575  -3.8897  -3.8169  -3.7915  -3.7764  -3.6571
    -3.4841  -3.2964  -3.2081  -3.1739  -3.0582  -3.0125  -2.9165  -2.8386
    -2.8246  -2.7625  -2.7216  -2.6991  -2.6726  -2.6611  -2.6076  -2.5846
    -2.5779  -2.4437  -2.3854  -2.3676  -2.3037  -2.2781  -2.2504  -2.2071
    -2.2011  -2.1874  -2.1706  -2.1336  -2.1052  -2.0872  -2.0070  -1.9353
    -1.8960  -1.8577  -1.6340  -1.5290  -1.5005  -1.4639  -1.4105  -1.3791
    -1.3350  -1.2962  -1.2803  -1.2616  -1.1931  -1.1034  -1.0225  -1.0147
    -0.9131  -0.8882  -0.8016  -0.7268  -0.7096  -0.6452  -0.6230  -0.6180
    -0.6140  -0.5217  -0.4715  -0.3876  -0.3387  -0.3017  -0.2357  -0.1694
    -0.1120  -0.1017  -0.0635  -0.0205   0.0224   0.0329   0.0578   0.0876
     0.1264   0.1639   0.2034   0.2848   0.3268   0.3619   0.4079   0.4203
     0.5228   0.7331   0.7731   0.9121   1.0925   1.1611   1.1868   1.2078
     1.3527   1.7295   1.7752   3.1979   3.3426   3.3603   3.4321   3.4623
     3.5148   3.6857   3.7724   3.8126   3.8693

[...]

          k = 0.0380-0.0419 0.0000 ( 17876 PWs)   bands (ev):

[...]

          k =-0.0760-0.0000 0.0000 ( 17886 PWs)   bands (ev):

[...]

          k =-0.0760-0.0839 0.0000 ( 17948 PWs)   bands (ev):

   -55.8672 -55.8667 -55.7428 -55.7266 -55.7061 -55.6937 -55.6934 -55.6911
   -55.6615 -55.6369 -55.6357 -55.6228 -55.6031 -55.5646 -54.8479 -54.8475
   -32.2050 -32.1852 -32.1850 -32.1605 -32.1600 -32.1003 -32.0672 -32.0492
   -32.0339 -32.0270 -32.0241 -32.0171 -32.0015 -31.9874 -31.9865 -31.9848
   -31.9766 -31.9686 -31.9616 -31.9476 -31.9460 -31.9368 -31.9343 -31.9257
   -31.9121 -31.9033 -31.8992 -31.8946 -31.8812 -31.8781 -31.8701 -31.8692
   -31.8686 -31.8609 -31.8574 -31.8477 -31.8454 -31.8321 -31.8136 -31.8135
   -31.7978 -31.6268 -31.1744 -31.1741 -31.0844 -31.0837 -31.0457 -31.0453
   -16.1461 -15.9774 -15.8683 -15.8536 -15.7903 -15.6807 -15.6678 -15.6405
   -15.6213 -15.5847 -15.5654 -15.5521 -15.5036 -15.4644 -15.4275 -15.4030
   -15.3993 -15.3524 -15.3481 -15.3384 -15.3163 -15.2819 -15.2732 -15.2090
   -15.2003 -15.1040 -15.0886 -15.0681 -15.0181 -14.8977 -13.3493 -13.3491
    -8.9292  -5.6017  -3.8084  -3.3045  -3.2068  -3.0703  -3.0024  -2.9622
    -2.9139  -2.8809  -2.8596  -2.8409  -2.7909  -2.7769  -2.7457  -2.7022
    -2.6839  -2.6668  -2.6469  -2.6200  -2.5990  -2.5873  -2.5687  -2.5510
    -2.5185  -2.5032  -2.4770  -2.4616  -2.4515  -2.4394  -2.4292  -2.4219
    -2.2352  -2.1435  -2.0518  -2.0454  -2.0331  -2.0068  -1.9810  -1.9651
    -1.9483  -1.9257  -1.9010  -1.8719  -1.8408  -1.5904  -1.5587  -1.5237
    -1.4657  -1.4286  -1.3801  -1.3672  -1.3343  -1.3052  -1.2235  -1.1870
    -1.1603  -1.0827  -1.0108  -0.9460  -0.9005  -0.8634  -0.8327  -0.8209
    -0.7814  -0.7424  -0.7334  -0.7092  -0.6931  -0.5865  -0.5846  -0.5818
    -0.4370  -0.3974  -0.3798  -0.2868  -0.2673  -0.0880  -0.0277   0.0018
     0.1353   0.1465   0.1841   0.2928   0.3199   0.3655   0.4220   0.4430
     0.5296   0.5818   0.6235   0.6629   0.6868   0.7035   1.1665   1.5235
     1.5293   1.5955   1.5956   3.5986   3.6397   3.7059   3.7317   3.7517
     3.7873   3.8098   3.8211   3.8664   3.8764

     the Fermi energy is     3.2366 ev

!    total energy              =   -2920.27053757 Ry
     estimated scf accuracy    <       0.00000006 Ry
     smearing contrib. (-TS)   =      -0.01952745 Ry
     internal energy E=F+TS    =   -2920.25101011 Ry

     The total energy is F=E-TS. E is the sum of the following terms:
     one-electron contribution =  -24543.70032986 Ry
     hartree contribution      =   12357.65339415 Ry
     xc contribution           =    -480.81307157 Ry
     ewald contribution        =    9746.60756811 Ry
     electric field correction =       0.00142906 Ry

     convergence has been achieved in  70 iterations

     Forces acting on atoms (cartesian axes, Ry/au):

     atom    1 type  1   force =     0.00007875   -0.00038271    0.09440410
     atom    2 type  1   force =    -0.00007786   -0.00122109   -0.17584379
     atom    3 type  2   force =     0.00046700   -0.00020887   -0.02135796
     atom    4 type  2   force =     0.00017570   -0.00092797    0.05145958
     atom    5 type  2   force =    -0.00540523    0.00099827   -0.00034602
     atom    6 type  2   force =     0.00989800    0.00143371    0.00528419
     atom    7 type  1   force =     0.00311823    0.00406123   -0.00383190
     atom    8 type  1   force =    -0.00264368    0.00537493    0.00464578
     atom    9 type  2   force =     0.00031974    0.00017817    0.00040382
     atom   10 type  2   force =     0.00290198    0.00077395   -0.01333993
     atom   11 type  2   force =     0.00010712    0.00027795   -0.00000287
     atom   12 type  2   force =    -0.00017827   -0.00005398   -0.00007292
     atom   13 type  1   force =    -0.00028653   -0.00029393    0.00138170
     atom   14 type  1   force =    -0.00061619    0.00043872   -0.00124863
     atom   15 type  2   force =     0.00026872   -0.00049176    0.00000954
     atom   16 type  2   force =     0.00005825   -0.00016146    0.00023210
     atom   17 type  2   force =     0.00031093   -0.00089826    0.00065819
     atom   18 type  2   force =     0.00050954   -0.00017002   -0.00044942
     atom   19 type  1   force =    -0.00019766    0.00019649   -0.00095187
     atom   20 type  1   force =     0.00010209    0.00242700   -0.00000809
     atom   21 type  2   force =     0.00005010   -0.00009401    0.10312893
     atom   22 type  2   force =    -0.00064096    0.00028328    0.00080619
     atom   23 type  2   force =    -0.07168390   -0.00014899   -0.02719664
     atom   24 type  2   force =     0.07174499    0.00034999   -0.02734016
     atom   25 type  1   force =    -0.00009166   -0.00020883    0.09388300
     atom   26 type  1   force =     0.00004228    0.00040320   -0.17581806
     atom   27 type  2   force =     0.00046678   -0.00026066   -0.02045019
     atom   28 type  2   force =     0.00023899   -0.00170691    0.05408659
     atom   29 type  2   force =    -0.00645470   -0.00170187    0.00028794
     atom   30 type  2   force =     0.01069641   -0.00155825    0.00560041
     atom   31 type  1   force =     0.00345885    0.00043079    0.00536651
     atom   32 type  1   force =    -0.00267222   -0.00668129    0.00505178
     atom   33 type  2   force =     0.00025014    0.00030375    0.00054444
     atom   34 type  2   force =     0.00503767   -0.00079223   -0.00876311
     atom   35 type  2   force =     0.00012582   -0.00001432    0.00000520
     atom   36 type  2   force =    -0.00013170   -0.00002702   -0.00001059
     atom   37 type  1   force =     0.00075319   -0.00042738    0.00088725
     atom   38 type  1   force =    -0.00028410   -0.00120848   -0.00000628
     atom   39 type  2   force =    -0.00074990   -0.00015653    0.00045562
     atom   40 type  2   force =     0.00037289    0.00040541   -0.00006742
     atom   41 type  2   force =     0.00024348    0.00152688    0.00078267
     atom   42 type  2   force =     0.00022009    0.00012030    0.00030284
     atom   43 type  1   force =     0.00074731    0.00033107    0.00006064
     atom   44 type  1   force =    -0.00021246   -0.00122448   -0.00115578
     atom   45 type  2   force =     0.00005325   -0.00001761    0.10329817
     atom   46 type  2   force =    -0.07166961   -0.00014806   -0.02721431
     atom   47 type  2   force =     0.07171186    0.00030419   -0.02732227
     atom   48 type  3   force =     0.00377224   -0.00908461   -0.00665295
     atom   49 type  3   force =    -0.00325184   -0.01162553    0.00631802
     atom   50 type  4   force =     0.00008272    0.02353060    0.00029164
     atom   51 type  5   force =    -0.08536043   -0.00646979   -0.00048148
     atom   52 type  3   force =     0.03004735    0.05162002   -0.00014802
     atom   53 type  3   force =     0.03417641   -0.04740299    0.00044384

     Total force =     0.383320     Total SCF correction =     0.000823
  @ DRIVER MODE: Message from server: STATUS
  @ DRIVER MODE: Message from server: GETFORCE
  @ DRIVER MODE: Returning v,forces,stress,ensemble

     Writing output data file ./calc.save/
  @ DRIVER MODE: Message from server: EXIT
  @ DRIVE MODE: Exiting

     General routines

     Parallel routines

   This run was terminated on:  22:34:26  11Oct2021

   JOB DONE.