     Program PWSCF v.6.7GPU starts on  3Aug2021 at  2:12:32

     R & G space division:  proc/nbgrp/npool/nimage =      16
     Reading input from /storage/home/hcoda1/3/ntian30/research/carbon/02Aug_vib_paired/ads_slab/CH3NHHH_a/out_0046/pw.inp
Warning: card &CELL ignored
Warning: card   CELL_DYNAMICS='IPI', ignored
Warning: card / ignored

     Current dimensions of program PWSCF are:
     Max number of different atomic species (ntypx) = 10
     Max number of k-points (npk) =  40000
     Max angular momentum in pseudopotentials (lmaxx) =  3
     Presently no symmetry can be used with electric field

     Message from routine cell_base_init:
     DEPRECATED: use true lattice parameter, not A to a.u. conversion factor

     IMPORTANT: XC functional enforced from input :
     Exchange-correlation= BEEF-VDW
                           (   1   4  43  14   2   0   0)
     Any further DFT definition will be discarded
     Please, verify this is what you really want

  @ DRIVER MODE: Connecting to
 qe_1139763_2482537.sched-torque.pace.gatech.edu_dokk2i7_scratch
  using UNIX socket
  @ DRIVER MODE: Message from server: STATUS
  @ DRIVER MODE: Message from server: INIT
  @ DRIVER MODE: Receiving replica           0          -1
  @ DRIVER MODE: Receiving encoded integer          25
  @ DRIVER MODE:  SCF:  T  FORCE:  T  STRESS:  F  VC:  F  ENSEMBLE:  F
  @ DRIVER MODE:  SCF:  T  FORCE:  T  STRESS:  F  VC:  F  ENSEMBLE:  F

     Using Slab Decomposition

     bravais-lattice index     =            0
     lattice parameter (alat)  =       1.8897  a.u.
     unit-cell volume          =    6658.9804 (a.u.)^3
     number of atoms/cell      =           55
     number of atomic types    =            5
     number of electrons       =       393.00
     number of Kohn-Sham states=          206
     kinetic-energy cutoff     =      29.3995  Ry
     charge density cutoff     =     293.9946  Ry
     scf convergence threshold =      7.3E-08
     mixing beta               =       0.0500
     number of iterations used =            8  plain     mixing
     Exchange-correlation= BEEF-VDW
                           (   1   4  43  14   2   0   0)

     celldm(1)=   1.889726  celldm(2)=   0.000000  celldm(3)=   0.000000
     celldm(4)=   0.000000  celldm(5)=   0.000000  celldm(6)=   0.000000

     crystal axes: (cart. coord. in units of alat)
               a(1) = (   6.579727   0.000000   0.000000 )
               a(2) = (  -0.000775   5.961596   0.000000 )
               a(3) = (   0.000000   0.000000  25.155947 )

     reciprocal axes: (cart. coord. in units 2 pi/alat)
               b(1) = (  0.151982  0.000020  0.000000 )
               b(2) = (  0.000000  0.167740  0.000000 )
               b(3) = (  0.000000  0.000000  0.039752 )

     PseudoPot. # 1 for Ti read from file:
     /storage/coda1/p-amedford6/0/shared/rich_project_chbe-medford/medford-share/data/pseudos_module/espresso/nninc/pbe/van/Ti.UPF
     MD5 check sum: 8e4df49b7f0d34bbd5052bf3f5ea0213
     Pseudo is Ultrasoft, Zval = 12.0
     Generated by new atomic code, or converted to UPF format
     Using radial grid of  851 points,  6 beta functions with:
                l(1) =   0
                l(2) =   0
                l(3) =   1
                l(4) =   1
                l(5) =   2
                l(6) =   2
     Q(r) pseudized with  8 coefficients,  rinner =    1.000   1.000   1.000
                                                       1.000   1.000

     PseudoPot. # 2 for O  read from file:
     /storage/coda1/p-amedford6/0/shared/rich_project_chbe-medford/medford-share/data/pseudos_module/espresso/nninc/pbe/van/O.UPF
     MD5 check sum: 78c19812648e8988a0fe644b0f25305e
     Pseudo is Ultrasoft, Zval =  6.0
     Generated by new atomic code, or converted to UPF format
     Using radial grid of  737 points,  4 beta functions with:
                l(1) =   0
                l(2) =   0
                l(3) =   1
                l(4) =   1
     Q(r) pseudized with  8 coefficients,  rinner =    0.800   0.800   0.800

     PseudoPot. # 3 for N  read from file:
     /storage/coda1/p-amedford6/0/shared/rich_project_chbe-medford/medford-share/data/pseudos_module/espresso/nninc/pbe/van/N.UPF
     MD5 check sum: 90d10febe142ad51ac9d5be1deb811c4
     Pseudo is Ultrasoft, Zval =  5.0
     Generated by new atomic code, or converted to UPF format
     Using radial grid of  729 points,  4 beta functions with:
                l(1) =   0
                l(2) =   0
                l(3) =   1
                l(4) =   1
     Q(r) pseudized with  8 coefficients,  rinner =    0.800   0.800   0.800

     PseudoPot. # 4 for C  read from file:
     /storage/coda1/p-amedford6/0/shared/rich_project_chbe-medford/medford-share/data/pseudos_module/espresso/nninc/pbe/van/C.UPF
     MD5 check sum: 1a69bf6b8db32088f5b2163dbdb77a27
     Pseudo is Ultrasoft, Zval =  4.0
     Generated by new atomic code, or converted to UPF format
     Using radial grid of  721 points,  4 beta functions with:
                l(1) =   0
                l(2) =   0
                l(3) =   1
                l(4) =   1
     Q(r) pseudized with  8 coefficients,  rinner =    0.800   0.800   0.800

     PseudoPot. # 5 for H  read from file:
     /storage/coda1/p-amedford6/0/shared/rich_project_chbe-medford/medford-share/data/pseudos_module/espresso/nninc/pbe/van/H.UPF
     MD5 check sum: b5ee9d7bfd3a09ee7748110bda690ff7
     Pseudo is Ultrasoft, Zval =  1.0
     Generated by new atomic code, or converted to UPF format
     Using radial grid of  615 points,  1 beta functions with:
                l(1) =   0
     Q(r) pseudized with  8 coefficients,  rinner =    0.800

     atomic species   valence    mass     pseudopotential
        Ti1           12.00    47.86700     Ti( 1.00)
        O1             6.00    15.99900     O ( 1.00)
        N1             5.00    14.00700     N ( 1.00)
        C1             4.00    12.01100     C ( 1.00)
        H1             1.00     1.00800     H ( 1.00)

     No symmetry found

   Cartesian axes

     site n.     atom                  positions (alat units)
         1           Ti1 tau(   1) = (   0.0004258   2.9801865   6.0000000  )
         2           Ti1 tau(   2) = (   3.2906075   1.4906267   6.0002472  )
         3           O1  tau(   3) = (   0.0006271   0.0005054   7.9858123  )
         4           O1  tau(   4) = (   3.2906025   0.0005020   7.3038282  )
         5           O1  tau(   5) = (   4.5942328   1.4918067   9.2879030  )
         6           O1  tau(   6) = (   1.9868534   1.4903216   9.2879459  )
         7           Ti1 tau(   7) = (   3.2907910   2.8959150   9.1758416  )
         8           Ti1 tau(   8) = (   0.0015273   1.4827037   9.2680791  )
         9           O1  tau(   9) = (   3.2636084   5.9406443  11.4082010  )
        10           O1  tau(  10) = (   0.0116148   5.9584955  10.6183126  )
        11           O1  tau(  11) = (   1.2642105   1.4849797  12.6947803  )
        12           O1  tau(  12) = (   5.2691575   1.4821021  12.6650678  )
        13           Ti1 tau(  13) = (   6.5574234   2.9640577  12.4921542  )
        14           Ti1 tau(  14) = (   3.2619390   1.4709553  12.5527290  )
        15           O1  tau(  15) = (   6.5247406   5.9594380  14.6832748  )
        16           O1  tau(  16) = (   3.2695906   5.9428997  14.0562986  )
        17           O1  tau(  17) = (   4.5175969   1.4707097  16.2986306  )
        18           O1  tau(  18) = (   1.9406912   1.4777946  16.2473769  )
        19           Ti1 tau(  19) = (   3.2491105   2.9422209  15.8109686  )
        20           Ti1 tau(  20) = (   6.5361480   1.3378720  15.9626387  )
        21           O1  tau(  21) = (   3.2904802   0.0005063   4.7018136  )
        22           O1  tau(  22) = (   6.5280740   5.8897732  17.4332532  )
        23           O1  tau(  23) = (   1.3043587   1.4918075   6.0039043  )
        24           O1  tau(  24) = (   5.2767064   1.4903225   6.0039473  )
        25           Ti1 tau(  25) = (   0.0000382   5.9609847   6.0000000  )
        26           Ti1 tau(  26) = (   3.2902200   4.4714249   6.0002472  )
        27           O1  tau(  27) = (   0.0002396   2.9813036   7.9858123  )
        28           O1  tau(  28) = (   3.2902150   2.9813002   7.3038282  )
        29           O1  tau(  29) = (   4.5938453   4.4726049   9.2879030  )
        30           O1  tau(  30) = (   1.9864658   4.4711199   9.2879459  )
        31           Ti1 tau(  31) = (   3.2891106   5.8743827   9.1763621  )
        32           Ti1 tau(  32) = (   0.0006254   4.4649316   9.2693709  )
        33           O1  tau(  33) = (   3.2649920   2.9642658  11.3997388  )
        34           O1  tau(  34) = (   0.0092240   2.9805883  10.6323155  )
        35           O1  tau(  35) = (   1.2634527   4.4478426  12.7061968  )
        36           O1  tau(  36) = (   5.2693862   4.4495813  12.6755241  )
        37           Ti1 tau(  37) = (   6.5522441   5.9483113  12.5008436  )
        38           Ti1 tau(  38) = (   3.2626494   4.4468850  12.5575576  )
        39           O1  tau(  39) = (   6.4970557   2.9363996  15.0046851  )
        40           O1  tau(  40) = (   3.2722650   2.9529576  14.0194401  )
        41           O1  tau(  41) = (   4.5170401   4.4205294  16.2730734  )
        42           O1  tau(  42) = (   1.9466746   4.4191161  16.2235312  )
        43           Ti1 tau(  43) = (   3.2419262   5.9323414  15.8513663  )
        44           Ti1 tau(  44) = (   6.5549466   4.5556212  15.8889459  )
        45           O1  tau(  45) = (   3.2900926   2.9813045   4.7018136  )
        46           O1  tau(  46) = (   1.3039711   4.4726057   6.0039043  )
        47           O1  tau(  47) = (   5.2763189   4.4711207   6.0039473  )
        48           N1  tau(  48) = (   4.8657738   4.5798987  19.4796958  )
        49           C1  tau(  49) = (   5.7271871   3.4329544  19.8049648  )
        50           H1  tau(  50) = (   6.3241292   3.1721029  18.9298488  )
        51           H1  tau(  51) = (   6.4229137   3.7195585  20.5942015  )
        52           H1  tau(  52) = (   5.1874390   2.5328885  20.1195193  )
        53           H1  tau(  53) = (   5.9066942   5.7389963  18.1772939  )
        54           H1  tau(  54) = (   4.2103208   4.3266459  18.7469397  )
        55           H1  tau(  55) = (   4.3187305   4.8645830  20.2870342  )

     number of k points=    10  Fermi-Dirac smearing, width (Ry)=  0.0073
                       cart. coord. in units 2pi/alat
        k(    1) = (   0.0000000   0.0000000   0.0000000), wk =   0.1250000
        k(    2) = (   0.0000000   0.0419351   0.0000000), wk =   0.2500000
        k(    3) = (   0.0000000  -0.0838702   0.0000000), wk =   0.1250000
        k(    4) = (   0.0379955   0.0000049   0.0000000), wk =   0.2500000
        k(    5) = (   0.0379955   0.0419400   0.0000000), wk =   0.2500000
        k(    6) = (   0.0379955  -0.0838652   0.0000000), wk =   0.2500000
        k(    7) = (   0.0379955  -0.0419301   0.0000000), wk =   0.2500000
        k(    8) = (  -0.0759910  -0.0000099   0.0000000), wk =   0.1250000
        k(    9) = (  -0.0759910   0.0419252   0.0000000), wk =   0.2500000
        k(   10) = (  -0.0759910  -0.0838800   0.0000000), wk =   0.1250000

     Initial potential from superposition of free atoms

     starting charge  376.99914, renormalised to  393.00000

     negative rho (up, down):  1.329E-02 0.000E+00

     %%%%%%%%%%%%%%%%%%%%%%%%%%%%%%%%%%%%%%%%%%%%%%%%%%%%%%%%%%%%%%%%%%%%%%%%
     %                                                                      %
     % You are using vdW-DF, which was implemented by the Thonhauser group. %
     % Please cite the following two papers that made this development      %
     % possible and the two reviews that describe the various versions:     %
     %                                                                      %
     %   T. Thonhauser et al., PRL 115, 136402 (2015).                      %
     %   T. Thonhauser et al., PRB 76, 125112 (2007).                       %
     %   K. Berland et al., Rep. Prog. Phys. 78, 066501 (2015).             %
     %   D.C. Langreth et al., J. Phys.: Condens. Matter 21, 084203 (2009). %
     %                                                                      %
     %                                                                      %
     % If you are calculating the stress with vdW-DF, please also cite:     %
     %                                                                      %
     %   R. Sabatini et al., J. Phys.: Condens. Matter 24, 424209 (2012).   %
     %                                                                      %
     %%%%%%%%%%%%%%%%%%%%%%%%%%%%%%%%%%%%%%%%%%%%%%%%%%%%%%%%%%%%%%%%%%%%%%%%

     Adding external electric field

     Computed dipole along edir(3) :
        Dipole               -9.4918 Ry au,        -24.1257 Debye
        Dipole field         -0.0179 Ry au,

        Potential amp.        1.6604 Ry
        Total length         46.3494 bohr

     Starting wfcs are  298 atomic wfcs
  @ DRIVER MODE: Message from server: STATUS
  @ DRIVER MODE: Message from server: POSDATA
  @ DRIVER MODE: Reading and sharing cell
  @ DRIVER MODE: Reading and sharing positions
  @ DRIVER MODE: Received positions

     Self-consistent Calculation

     iteration #  1     ecut=    29.40 Ry     beta= 0.05
     Davidson diagonalization with overlap
     c_bands:  2 eigenvalues not converged
     c_bands:  1 eigenvalues not converged
     c_bands:  2 eigenvalues not converged
     c_bands:  3 eigenvalues not converged
     c_bands:  3 eigenvalues not converged
     c_bands:  1 eigenvalues not converged
     ethr =  1.00E-05,  avg # of iterations = 18.9

[...]

     total energy              =   -2620.45245870 Ry
     estimated scf accuracy    <    3390.29683011 Ry

     iteration #  2     ecut=    29.40 Ry     beta= 0.05
     Davidson diagonalization with overlap
     ethr =  1.00E-02,  avg # of iterations = 23.3

[...]

     iteration # 81     ecut=    29.40 Ry     beta= 0.05
     Davidson diagonalization with overlap
     ethr =  2.23E-11,  avg # of iterations =  5.7

[...]

     total energy              =   -2922.77382214 Ry
     estimated scf accuracy    <       0.00000007 Ry

     iteration # 82     ecut=    29.40 Ry     beta= 0.05
     Davidson diagonalization with overlap
     c_bands:  1 eigenvalues not converged
     ethr =  1.90E-11,  avg # of iterations = 14.9

     negative rho (up, down):  1.444E-02 0.000E+00

     Adding external electric field

     Computed dipole along edir(3) :
        Dipole                1.4066 Ry au,          3.5753 Debye
        Dipole field          0.0027 Ry au,

        Potential amp.       -0.2461 Ry
        Total length         46.3494 bohr

     End of self-consistent calculation

          k = 0.0000 0.0000 0.0000 ( 18029 PWs)   bands (ev):

   -55.3081 -55.2723 -55.2564 -55.2223 -55.1721 -55.1479 -55.1467 -55.1378
   -55.1136 -55.0836 -55.0726 -55.0497 -55.0307 -54.9726 -54.3001 -54.2661
   -31.8751 -31.7507 -31.6883 -31.6605 -31.6359 -31.6150 -31.5906 -31.5498
   -31.5456 -31.5444 -31.5154 -31.5043 -31.5003 -31.4757 -31.4652 -31.4601
   -31.4468 -31.4367 -31.4094 -31.4010 -31.3964 -31.3803 -31.3720 -31.3547
   -31.3521 -31.3145 -31.3137 -31.3044 -31.3020 -31.2891 -31.2842 -31.2822
   -31.2756 -31.2747 -31.2597 -31.2564 -31.2244 -31.2110 -31.1997 -31.1943
   -31.1812 -31.1063 -30.7104 -30.6140 -30.5921 -30.5264 -30.4396 -30.3290
   -16.8234 -16.1471 -15.8908 -15.7699 -15.6607 -15.5763 -15.5203 -15.4411
   -15.3572 -15.2567 -15.1953 -15.0901 -15.0556 -15.0160 -15.0013 -14.9822
   -14.9554 -14.8754 -14.8644 -14.8538 -14.8282 -14.8099 -14.7815 -14.7728
   -14.7660 -14.7267 -14.6895 -14.5770 -14.4866 -14.4012 -12.8035 -12.6857
   -10.0130  -5.8480  -4.7412  -4.4265  -3.5235  -3.4749  -3.3430  -3.2380
    -3.2046  -3.1963  -3.0754  -2.8924  -2.7972  -2.7702  -2.6922  -2.6291
    -2.5333  -2.5295  -2.4892  -2.3889  -2.3511  -2.3244  -2.2412  -2.2145
    -2.1681  -2.1173  -2.1071  -2.1038  -2.0833  -2.0426  -2.0040  -1.8854
    -1.8005  -1.7786  -1.7050  -1.6887  -1.6826  -1.6545  -1.6116  -1.5924
    -1.5430  -1.5259  -1.4853  -1.4164  -1.3553  -1.2730  -1.2360  -1.1990
    -0.9930  -0.9643  -0.9138  -0.9112  -0.8828  -0.8144  -0.7847  -0.7551
    -0.6893  -0.6867  -0.6584  -0.5521  -0.5093  -0.3884  -0.3179  -0.2382
    -0.1166  -0.1034  -0.0795  -0.0298  -0.0063   0.0533   0.1134   0.1500
     0.1894   0.2022   0.2895   0.3193   0.3964   0.4117   0.4513   0.5120
     0.5292   0.5547   0.5750   0.5843   0.6183   0.6341   0.6681   0.7349
     0.7670   0.8684   0.9171   1.2009   1.2863   1.5952   1.6186   1.7220
     1.9033   2.3004   2.3495   3.7862   3.8474   3.8880   3.9305   3.9342
     4.0158   4.1466   4.2894   4.2989   4.3101   4.3169

[...]

          k = 0.0380-0.0419 0.0000 ( 17876 PWs)   bands (ev):

[...]

          k =-0.0760-0.0000 0.0000 ( 17886 PWs)   bands (ev):

[...]

          k =-0.0760-0.0839 0.0000 ( 17948 PWs)   bands (ev):

   -55.2916 -55.2887 -55.2395 -55.2390 -55.1555 -55.1544 -55.1426 -55.1327
   -55.1285 -55.0764 -55.0679 -55.0654 -55.0236 -54.9796 -54.2831 -54.2830
   -31.6829 -31.6778 -31.5874 -31.5820 -31.5659 -31.5657 -31.5564 -31.5299
   -31.5294 -31.5089 -31.5039 -31.5021 -31.4888 -31.4626 -31.4577 -31.4565
   -31.4308 -31.4302 -31.4237 -31.4025 -31.3802 -31.3782 -31.3679 -31.3639
   -31.3634 -31.3591 -31.3586 -31.3499 -31.3481 -31.3420 -31.3382 -31.3228
   -31.3199 -31.3074 -31.3044 -31.2930 -31.2645 -31.2476 -31.2457 -31.2430
   -31.2257 -31.1726 -30.6047 -30.6047 -30.5229 -30.5228 -30.4830 -30.4830
   -16.7619 -15.8198 -15.5778 -15.5392 -15.4987 -15.4043 -15.3306 -15.2994
   -15.2892 -15.2762 -15.1501 -15.1220 -15.1126 -15.0845 -15.0526 -15.0283
   -15.0244 -14.9893 -14.9322 -14.9262 -14.9183 -14.9100 -14.8464 -14.8382
   -14.8344 -14.8276 -14.7621 -14.7597 -14.6778 -14.6758 -12.7871 -12.7870
   -10.0227  -5.8484  -4.8685  -4.4073  -3.5369  -2.8234  -2.7958  -2.7439
    -2.7086  -2.6126  -2.5270  -2.4997  -2.4633  -2.4055  -2.3533  -2.3060
    -2.3038  -2.2681  -2.2486  -2.2298  -2.1860  -2.1645  -2.1420  -2.1238
    -2.1091  -2.0553  -2.0524  -2.0433  -2.0189  -1.9848  -1.9675  -1.9541
    -1.9379  -1.9196  -1.8942  -1.8749  -1.7319  -1.7109  -1.6703  -1.5530
    -1.5352  -1.5317  -1.4986  -1.4549  -1.4302  -1.4227  -1.3488  -1.3417
    -1.3088  -1.1518  -1.0796  -1.0779  -1.0545  -1.0306  -0.9355  -0.8840
    -0.8437  -0.7938  -0.7179  -0.6866  -0.6678  -0.5954  -0.5684  -0.4769
    -0.3875  -0.3607  -0.3525  -0.2752  -0.2738  -0.2403  -0.2272  -0.1581
    -0.0979  -0.0464  -0.0424  -0.0383   0.0904   0.1275   0.2076   0.3218
     0.4021   0.4106   0.4621   0.5221   0.6100   0.6519   0.6699   0.7887
     0.7906   0.9770   0.9803   1.0287   1.0437   1.1241   1.1292   2.0761
     2.0768   2.1692   2.1694   3.7616   3.9447   3.9989   4.0717   4.0972
     4.1952   4.2800   4.3138   4.3438   4.3661   4.3724

     the Fermi energy is     3.8548 ev

!    total energy              =   -2922.77382983 Ry
     estimated scf accuracy    <       0.00000006 Ry
     smearing contrib. (-TS)   =      -0.04552005 Ry
     internal energy E=F+TS    =   -2922.72830979 Ry

     The total energy is F=E-TS. E is the sum of the following terms:
     one-electron contribution =  -23201.62479961 Ry
     hartree contribution      =   11691.10135532 Ry
     xc contribution           =    -482.54544485 Ry
     ewald contribution        =    9070.33684536 Ry
     electric field correction =       0.00373399 Ry

     convergence has been achieved in  82 iterations

     Forces acting on atoms (cartesian axes, Ry/au):

     atom    1 type  1   force =     0.00016569   -0.00007660    0.09298173
     atom    2 type  1   force =     0.00000105   -0.00014203   -0.17881421
     atom    3 type  2   force =     0.00002144   -0.00029441   -0.02022779
     atom    4 type  2   force =    -0.00000235   -0.00223555    0.06097967
     atom    5 type  2   force =    -0.01149307   -0.00128236    0.01055463
     atom    6 type  2   force =     0.01240623   -0.00058676    0.00811746
     atom    7 type  1   force =    -0.00124286    0.00346392   -0.01488385
     atom    8 type  1   force =     0.00123032   -0.00358097   -0.00845317
     atom    9 type  2   force =     0.00001644   -0.00004787   -0.00025724
     atom   10 type  2   force =    -0.00281220   -0.00047684    0.00155574
     atom   11 type  2   force =     0.00011089   -0.00023520   -0.00028260
     atom   12 type  2   force =     0.00001438    0.00008805   -0.00009249
     atom   13 type  1   force =    -0.00019206   -0.00031909   -0.00061268
     atom   14 type  1   force =    -0.00003534   -0.00004279    0.00020625
     atom   15 type  2   force =    -0.00011131   -0.00024035   -0.00010641
     atom   16 type  2   force =     0.00032612    0.00035314   -0.00009923
     atom   17 type  2   force =     0.00078141    0.00028053   -0.00024203
     atom   18 type  2   force =     0.00009801   -0.00027617   -0.00004721
     atom   19 type  1   force =     0.00026170    0.00045266   -0.00041184
     atom   20 type  1   force =     0.00011063    0.00003670    0.00048195
     atom   21 type  2   force =     0.00012631   -0.00003265    0.10420872
     atom   22 type  2   force =    -0.00045437    0.00022104    0.00007763
     atom   23 type  2   force =    -0.06990626   -0.00011271   -0.02677509
     atom   24 type  2   force =     0.06987866    0.00034680   -0.02677847
     atom   25 type  1   force =     0.00019231   -0.00020938    0.09227155
     atom   26 type  1   force =    -0.00006589   -0.00036641   -0.17901574
     atom   27 type  2   force =     0.00004093   -0.00025792   -0.01895222
     atom   28 type  2   force =     0.00006659   -0.00192722    0.06022460
     atom   29 type  2   force =    -0.01168253   -0.00162775    0.01034779
     atom   30 type  2   force =     0.01246879   -0.00120956    0.00787857
     atom   31 type  1   force =    -0.00100980    0.00608603   -0.01576531
     atom   32 type  1   force =     0.00116664    0.00333837   -0.00863770
     atom   33 type  2   force =     0.00003088    0.00020061   -0.00024116
     atom   34 type  2   force =    -0.00240611   -0.00053690    0.00060691
     atom   35 type  2   force =    -0.00001016   -0.00000163    0.00006151
     atom   36 type  2   force =     0.00004961   -0.00007548    0.00037467
     atom   37 type  1   force =     0.00035192   -0.00003595   -0.00003841
     atom   38 type  1   force =    -0.00034106   -0.00030575    0.00045296
     atom   39 type  2   force =     0.00036423   -0.00014479    0.00063378
     atom   40 type  2   force =     0.00025150   -0.00017638    0.00004840
     atom   41 type  2   force =     0.00004982    0.00035901   -0.00041315
     atom   42 type  2   force =     0.00050596    0.00022687   -0.00019099
     atom   43 type  1   force =     0.00025657   -0.00018703   -0.00036066
     atom   44 type  1   force =     0.00014027   -0.00124993    0.00060578
     atom   45 type  2   force =     0.00011760   -0.00005350    0.10416442
     atom   46 type  2   force =    -0.06992119   -0.00005245   -0.02676703
     atom   47 type  2   force =     0.06991066    0.00035338   -0.02678595
     atom   48 type  3   force =    -0.00063261    0.00188327    0.00086732
     atom   49 type  4   force =    -0.00011343    0.00173418    0.00032391
     atom   50 type  5   force =    -0.00002729    0.00017820   -0.00015498
     atom   51 type  5   force =    -0.00065324   -0.00036437    0.00021201
     atom   52 type  5   force =    -0.00013175   -0.00034525    0.00032136
     atom   53 type  5   force =     0.00006941    0.00061313   -0.00095566
     atom   54 type  5   force =    -0.00049378    0.00042581   -0.00013790
     atom   55 type  5   force =     0.00215566   -0.00153172   -0.00205813

     Total force =     0.367558     Total SCF correction =     0.000781
  @ DRIVER MODE: Message from server: STATUS
  @ DRIVER MODE: Message from server: GETFORCE
  @ DRIVER MODE: Returning v,forces,stress,ensemble

     Writing output data file ./calc.save/
  @ DRIVER MODE: Message from server: EXIT
  @ DRIVE MODE: Exiting

     General routines

     Parallel routines

   This run was terminated on:   2:32:10   3Aug2021

   JOB DONE.