     Program PWSCF v.6.7GPU starts on 15Sep2021 at 16:32:41

     R & G space division:  proc/nbgrp/npool/nimage =      10
     Reading input from /storage/home/hcoda1/3/ntian30/research/carbon/CxH_vib/H2O_calc/ads_slab/CH2N2HH2O_a/out_0003/pw.inp
Warning: card &CELL ignored
Warning: card   CELL_DYNAMICS='IPI', ignored
Warning: card / ignored

     Current dimensions of program PWSCF are:
     Max number of different atomic species (ntypx) = 10
     Max number of k-points (npk) =  40000
     Max angular momentum in pseudopotentials (lmaxx) =  3
     Presently no symmetry can be used with electric field

     Message from routine cell_base_init:
     DEPRECATED: use true lattice parameter, not A to a.u. conversion factor

     IMPORTANT: XC functional enforced from input :
     Exchange-correlation= BEEF-VDW
                           (   1   4  43  14   2   0   0)
     Any further DFT definition will be discarded
     Please, verify this is what you really want

  @ DRIVER MODE: Connecting to
 qe_1139763_2852606.sched-torque.pace.gatech.eduaphh9h5c_scratch
  using UNIX socket
  @ DRIVER MODE: Message from server: STATUS
  @ DRIVER MODE: Message from server: INIT
  @ DRIVER MODE: Receiving replica           0          -1
  @ DRIVER MODE: Receiving encoded integer          25
  @ DRIVER MODE:  SCF:  T  FORCE:  T  STRESS:  F  VC:  F  ENSEMBLE:  F
  @ DRIVER MODE:  SCF:  T  FORCE:  T  STRESS:  F  VC:  F  ENSEMBLE:  F

     Using Slab Decomposition

     bravais-lattice index     =            0
     lattice parameter (alat)  =       1.8897  a.u.
     unit-cell volume          =    6658.9804 (a.u.)^3
     number of atoms/cell      =           56
     number of atomic types    =            5
     number of electrons       =       403.00
     number of Kohn-Sham states=          211
     kinetic-energy cutoff     =      29.3995  Ry
     charge density cutoff     =     293.9946  Ry
     scf convergence threshold =      7.3E-08
     mixing beta               =       0.0500
     number of iterations used =            8  plain     mixing
     Exchange-correlation= BEEF-VDW
                           (   1   4  43  14   2   0   0)

     celldm(1)=   1.889726  celldm(2)=   0.000000  celldm(3)=   0.000000
     celldm(4)=   0.000000  celldm(5)=   0.000000  celldm(6)=   0.000000

     crystal axes: (cart. coord. in units of alat)
               a(1) = (   6.579727   0.000000   0.000000 )
               a(2) = (  -0.000775   5.961596   0.000000 )
               a(3) = (   0.000000   0.000000  25.155947 )

     reciprocal axes: (cart. coord. in units 2 pi/alat)
               b(1) = (  0.151982  0.000020  0.000000 )
               b(2) = (  0.000000  0.167740  0.000000 )
               b(3) = (  0.000000  0.000000  0.039752 )

     PseudoPot. # 1 for Ti read from file:
     /storage/coda1/p-amedford6/0/shared/rich_project_chbe-medford/medford-share/data/pseudos_module/espresso/nninc/pbe/van/Ti.UPF
     MD5 check sum: 8e4df49b7f0d34bbd5052bf3f5ea0213
     Pseudo is Ultrasoft, Zval = 12.0
     Generated by new atomic code, or converted to UPF format
     Using radial grid of  851 points,  6 beta functions with:
                l(1) =   0
                l(2) =   0
                l(3) =   1
                l(4) =   1
                l(5) =   2
                l(6) =   2
     Q(r) pseudized with  8 coefficients,  rinner =    1.000   1.000   1.000
                                                       1.000   1.000

     PseudoPot. # 2 for O  read from file:
     /storage/coda1/p-amedford6/0/shared/rich_project_chbe-medford/medford-share/data/pseudos_module/espresso/nninc/pbe/van/O.UPF
     MD5 check sum: 78c19812648e8988a0fe644b0f25305e
     Pseudo is Ultrasoft, Zval =  6.0
     Generated by new atomic code, or converted to UPF format
     Using radial grid of  737 points,  4 beta functions with:
                l(1) =   0
                l(2) =   0
                l(3) =   1
                l(4) =   1
     Q(r) pseudized with  8 coefficients,  rinner =    0.800   0.800   0.800

     PseudoPot. # 3 for N  read from file:
     /storage/coda1/p-amedford6/0/shared/rich_project_chbe-medford/medford-share/data/pseudos_module/espresso/nninc/pbe/van/N.UPF
     MD5 check sum: 90d10febe142ad51ac9d5be1deb811c4
     Pseudo is Ultrasoft, Zval =  5.0
     Generated by new atomic code, or converted to UPF format
     Using radial grid of  729 points,  4 beta functions with:
                l(1) =   0
                l(2) =   0
                l(3) =   1
                l(4) =   1
     Q(r) pseudized with  8 coefficients,  rinner =    0.800   0.800   0.800

     PseudoPot. # 4 for C  read from file:
     /storage/coda1/p-amedford6/0/shared/rich_project_chbe-medford/medford-share/data/pseudos_module/espresso/nninc/pbe/van/C.UPF
     MD5 check sum: 1a69bf6b8db32088f5b2163dbdb77a27
     Pseudo is Ultrasoft, Zval =  4.0
     Generated by new atomic code, or converted to UPF format
     Using radial grid of  721 points,  4 beta functions with:
                l(1) =   0
                l(2) =   0
                l(3) =   1
                l(4) =   1
     Q(r) pseudized with  8 coefficients,  rinner =    0.800   0.800   0.800

     PseudoPot. # 5 for H  read from file:
     /storage/coda1/p-amedford6/0/shared/rich_project_chbe-medford/medford-share/data/pseudos_module/espresso/nninc/pbe/van/H.UPF
     MD5 check sum: b5ee9d7bfd3a09ee7748110bda690ff7
     Pseudo is Ultrasoft, Zval =  1.0
     Generated by new atomic code, or converted to UPF format
     Using radial grid of  615 points,  1 beta functions with:
                l(1) =   0
     Q(r) pseudized with  8 coefficients,  rinner =    0.800

     atomic species   valence    mass     pseudopotential
        Ti1           12.00    47.86700     Ti( 1.00)
        O1             6.00    15.99900     O ( 1.00)
        N1             5.00    14.00700     N ( 1.00)
        C1             4.00    12.01100     C ( 1.00)
        H1             1.00     1.00800     H ( 1.00)

     No symmetry found

   Cartesian axes

     site n.     atom                  positions (alat units)
         1           Ti1 tau(   1) = (   0.0004258   2.9801865   6.0000000  )
         2           Ti1 tau(   2) = (   3.2906075   1.4906267   6.0002472  )
         3           O1  tau(   3) = (   0.0006271   0.0005054   7.9858123  )
         4           O1  tau(   4) = (   3.2906025   0.0005020   7.3038282  )
         5           O1  tau(   5) = (   4.5942328   1.4918067   9.2879030  )
         6           O1  tau(   6) = (   1.9868534   1.4903216   9.2879459  )
         7           Ti1 tau(   7) = (   3.2907910   2.8959150   9.1758416  )
         8           Ti1 tau(   8) = (   0.0015273   1.4827037   9.2680791  )
         9           O1  tau(   9) = (   3.2932810   5.9556063  11.3276769  )
        10           O1  tau(  10) = (   0.0116148   5.9584955  10.6183126  )
        11           O1  tau(  11) = (   1.2966828   1.5020869  12.6141357  )
        12           O1  tau(  12) = (   5.2995835   1.4923495  12.6341875  )
        13           Ti1 tau(  13) = (   6.5470072   2.9473109  12.5798724  )
        14           Ti1 tau(  14) = (   3.2302912   1.4573256  12.5082679  )
        15           O1  tau(  15) = (   0.0525813   0.0137714  14.6435187  )
        16           O1  tau(  16) = (   3.2708393   0.0302713  13.9228694  )
        17           O1  tau(  17) = (   4.5627544   1.5900677  16.0055000  )
        18           O1  tau(  18) = (   2.0437599   1.5040777  16.0764052  )
        19           Ti1 tau(  19) = (   3.3063064   2.9825517  15.6619520  )
        20           Ti1 tau(  20) = (   6.5607061   1.3194196  15.9785141  )
        21           O1  tau(  21) = (   3.2904802   0.0005063   4.7018136  )
        22           O1  tau(  22) = (   6.3855286   5.9589440  17.1610702  )
        23           O1  tau(  23) = (   1.3043587   1.4918075   6.0039043  )
        24           O1  tau(  24) = (   5.2767064   1.4903225   6.0039473  )
        25           Ti1 tau(  25) = (   0.0000382   5.9609847   6.0000000  )
        26           Ti1 tau(  26) = (   3.2902200   4.4714249   6.0002472  )
        27           O1  tau(  27) = (   0.0002396   2.9813036   7.9858123  )
        28           O1  tau(  28) = (   3.2902150   2.9813002   7.3038282  )
        29           O1  tau(  29) = (   4.5938453   4.4726049   9.2879030  )
        30           O1  tau(  30) = (   1.9864658   4.4711199   9.2879459  )
        31           Ti1 tau(  31) = (   3.2891106   5.8743827   9.1763621  )
        32           Ti1 tau(  32) = (   0.0006254   4.4649316   9.2693709  )
        33           O1  tau(  33) = (   3.2946552   2.9814125  11.3288906  )
        34           O1  tau(  34) = (   0.0092240   2.9805883  10.6323155  )
        35           O1  tau(  35) = (   1.2978438   4.4726441  12.6233041  )
        36           O1  tau(  36) = (   5.2969606   4.4732664  12.6435870  )
        37           Ti1 tau(  37) = (   6.5415350   5.9305516  12.5357152  )
        38           Ti1 tau(  38) = (   3.2303862   4.4559975  12.4807118  )
        39           O1  tau(  39) = (   0.0164246   2.9899045  14.7829194  )
        40           O1  tau(  40) = (   3.2688228   2.9752494  13.8698570  )
        41           O1  tau(  41) = (   4.5210259   4.4573316  15.9082071  )
        42           O1  tau(  42) = (   2.0412773   4.4882057  16.0214637  )
        43           Ti1 tau(  43) = (   3.2233344   5.9452837  15.7820064  )
        44           Ti1 tau(  44) = (   6.5355943   4.4735413  15.8975681  )
        45           O1  tau(  45) = (   3.2900926   2.9813045   4.7018136  )
        46           O1  tau(  46) = (   1.3039711   4.4726057   6.0039043  )
        47           O1  tau(  47) = (   5.2763189   4.4711207   6.0039473  )
        48           N1  tau(  48) = (   0.2167872   2.3588911  18.0161765  )
        49           C1  tau(  49) = (   0.4968348   1.8934616  19.1878903  )
        50           H1  tau(  50) = (   0.5617972   2.5522217  20.0513624  )
        51           H1  tau(  51) = (   0.6371857   0.8299532  19.2874115  )
        52           N1  tau(  52) = (   6.5661014   3.6386027  17.7750644  )
        53           H1  tau(  53) = (   0.0713089   4.2532688  18.5884219  )
        54           O1  tau(  54) = (   3.6608114   5.9026821  18.0962282  )
        55           H1  tau(  55) = (   4.6425638   0.0038819  18.0438526  )
        56           H1  tau(  56) = (   3.3558581   0.7595698  18.5153002  )

     number of k points=    10  Fermi-Dirac smearing, width (Ry)=  0.0073
                       cart. coord. in units 2pi/alat
        k(    1) = (   0.0000000   0.0000000   0.0000000), wk =   0.1250000
        k(    2) = (   0.0000000   0.0419351   0.0000000), wk =   0.2500000
        k(    3) = (   0.0000000  -0.0838702   0.0000000), wk =   0.1250000
        k(    4) = (   0.0379955   0.0000049   0.0000000), wk =   0.2500000
        k(    5) = (   0.0379955   0.0419400   0.0000000), wk =   0.2500000
        k(    6) = (   0.0379955  -0.0838652   0.0000000), wk =   0.2500000
        k(    7) = (   0.0379955  -0.0419301   0.0000000), wk =   0.2500000
        k(    8) = (  -0.0759910  -0.0000099   0.0000000), wk =   0.1250000
        k(    9) = (  -0.0759910   0.0419252   0.0000000), wk =   0.2500000
        k(   10) = (  -0.0759910  -0.0838800   0.0000000), wk =   0.1250000

     Initial potential from superposition of free atoms

     starting charge  386.99914, renormalised to  403.00000

     negative rho (up, down):  1.555E-02 0.000E+00

     %%%%%%%%%%%%%%%%%%%%%%%%%%%%%%%%%%%%%%%%%%%%%%%%%%%%%%%%%%%%%%%%%%%%%%%%
     %                                                                      %
     % You are using vdW-DF, which was implemented by the Thonhauser group. %
     % Please cite the following two papers that made this development      %
     % possible and the two reviews that describe the various versions:     %
     %                                                                      %
     %   T. Thonhauser et al., PRL 115, 136402 (2015).                      %
     %   T. Thonhauser et al., PRB 76, 125112 (2007).                       %
     %   K. Berland et al., Rep. Prog. Phys. 78, 066501 (2015).             %
     %   D.C. Langreth et al., J. Phys.: Condens. Matter 21, 084203 (2009). %
     %                                                                      %
     %                                                                      %
     % If you are calculating the stress with vdW-DF, please also cite:     %
     %                                                                      %
     %   R. Sabatini et al., J. Phys.: Condens. Matter 24, 424209 (2012).   %
     %                                                                      %
     %%%%%%%%%%%%%%%%%%%%%%%%%%%%%%%%%%%%%%%%%%%%%%%%%%%%%%%%%%%%%%%%%%%%%%%%

     Adding external electric field

     Computed dipole along edir(3) :
        Dipole              -12.7952 Ry au,        -32.5221 Debye
        Dipole field         -0.0241 Ry au,

        Potential amp.        2.2383 Ry
        Total length         46.3494 bohr

     Starting wfcs are  305 atomic wfcs
  @ DRIVER MODE: Message from server: STATUS
  @ DRIVER MODE: Message from server: POSDATA
  @ DRIVER MODE: Reading and sharing cell
  @ DRIVER MODE: Reading and sharing positions
  @ DRIVER MODE: Received positions

     Self-consistent Calculation

     iteration #  1     ecut=    29.40 Ry     beta= 0.05
     Davidson diagonalization with overlap
     c_bands:  3 eigenvalues not converged
     c_bands:  3 eigenvalues not converged
     c_bands:  3 eigenvalues not converged
     c_bands:  5 eigenvalues not converged
     c_bands:  1 eigenvalues not converged
     c_bands:  1 eigenvalues not converged
     c_bands:  4 eigenvalues not converged
     c_bands:  3 eigenvalues not converged
     ethr =  1.00E-05,  avg # of iterations = 27.5

[...]

     total energy              =   -2369.04524970 Ry
     estimated scf accuracy    <    6884.64712646 Ry

     iteration #  2     ecut=    29.40 Ry     beta= 0.05
     Davidson diagonalization with overlap
     ethr =  1.00E-02,  avg # of iterations = 24.4

[...]

     iteration # 62     ecut=    29.40 Ry     beta= 0.05
     Davidson diagonalization with overlap
     c_bands:  1 eigenvalues not converged
     ethr =  4.08E-11,  avg # of iterations = 15.1

[...]

     total energy              =   -2973.98313231 Ry
     estimated scf accuracy    <       0.00000008 Ry

     iteration # 65     ecut=    29.40 Ry     beta= 0.05
     Davidson diagonalization with overlap
     ethr =  1.92E-11,  avg # of iterations = 10.5

     negative rho (up, down):  1.540E-02 0.000E+00

     Adding external electric field

     Computed dipole along edir(3) :
        Dipole                0.9355 Ry au,          2.3778 Debye
        Dipole field          0.0018 Ry au,

        Potential amp.       -0.1636 Ry
        Total length         46.3494 bohr

     End of self-consistent calculation

          k = 0.0000 0.0000 0.0000 ( 18029 PWs)   bands (ev):

   -55.6065 -55.5783 -55.5724 -55.5402 -55.4876 -55.4762 -55.4460 -55.4238
   -55.3898 -55.3854 -55.3514 -55.3282 -55.0362 -54.9842 -54.5862 -54.5522
   -32.1223 -32.0906 -31.9784 -31.9236 -31.9100 -31.8983 -31.8767 -31.8637
   -31.8509 -31.8098 -31.7589 -31.7547 -31.7265 -31.7259 -31.7222 -31.7124
   -31.7078 -31.7043 -31.7013 -31.6990 -31.6683 -31.6638 -31.6549 -31.6270
   -31.6177 -31.6168 -31.6096 -31.6069 -31.5910 -31.5829 -31.5657 -31.5525
   -31.5401 -31.5338 -31.5284 -31.4988 -31.4962 -31.3002 -31.2601 -31.2355
   -31.1821 -31.1407 -30.9931 -30.9052 -30.8828 -30.8102 -30.7237 -30.6123
   -18.6679 -17.8185 -16.3260 -16.0838 -15.8438 -15.7669 -15.7346 -15.5210
   -15.4181 -15.3626 -15.2271 -15.1781 -15.1646 -15.1447 -15.1196 -15.0848
   -15.0593 -15.0458 -15.0386 -15.0222 -14.9968 -14.9701 -14.9498 -14.9460
   -14.9050 -14.8362 -14.7667 -14.7411 -14.6791 -14.6670 -14.2279 -13.0875
   -12.9710 -12.0854  -7.8363  -6.4521  -5.2974  -4.5064  -3.6999  -3.5618
    -3.5144  -3.4645  -3.4565  -3.2667  -3.1847  -3.0514  -2.8899  -2.8360
    -2.7711  -2.7331  -2.6895  -2.6328  -2.5903  -2.4850  -2.4485  -2.4190
    -2.4037  -2.3584  -2.3533  -2.3483  -2.2864  -2.2509  -2.1729  -2.1463
    -2.0655  -1.9969  -1.9685  -1.9420  -1.9205  -1.9034  -1.8973  -1.8506
    -1.8492  -1.8475  -1.7744  -1.7233  -1.6528  -1.6065  -1.5425  -1.4142
    -1.3709  -1.2600  -1.2141  -1.0927  -1.0888  -1.0665  -1.0416  -1.0027
    -0.9947  -0.8711  -0.7858  -0.7336  -0.7010  -0.6396  -0.5402  -0.5189
    -0.4257  -0.4225  -0.3665  -0.3541  -0.3387  -0.3089  -0.2311  -0.1198
    -0.0994  -0.0385   0.0107   0.0738   0.1171   0.1421   0.1783   0.2294
     0.2534   0.2936   0.3194   0.3323   0.3652   0.4023   0.4251   0.5033
     0.5756   0.6253   0.6750   0.7124   0.7177   0.8970   1.0087   1.0481
     1.1785   1.1838   1.3697   1.4373   1.5076   1.6291   2.0074   2.0531
     2.2110   3.5014   3.6151   3.6395   3.6494   3.7527   3.8862   3.9689
     4.0097   4.0341   4.0729

[...]

          k = 0.0380-0.0419 0.0000 ( 17876 PWs)   bands (ev):

[...]

          k =-0.0760-0.0000 0.0000 ( 17886 PWs)   bands (ev):

[...]

          k =-0.0760-0.0839 0.0000 ( 17948 PWs)   bands (ev):

   -55.5895 -55.5892 -55.5656 -55.5526 -55.4785 -55.4741 -55.4550 -55.4071
   -55.4060 -55.3711 -55.3659 -55.3301 -55.0296 -54.9907 -54.5693 -54.5690
   -31.9386 -31.9134 -31.9059 -31.9057 -31.8839 -31.8836 -31.8184 -31.8137
   -31.8054 -31.8004 -31.7816 -31.7318 -31.7279 -31.7248 -31.7157 -31.7141
   -31.7121 -31.7094 -31.7086 -31.7068 -31.7051 -31.6927 -31.6833 -31.6687
   -31.6660 -31.6613 -31.6400 -31.6112 -31.6102 -31.6006 -31.5918 -31.5877
   -31.5846 -31.5835 -31.5821 -31.5371 -31.5126 -31.2883 -31.2619 -31.2573
   -31.2395 -31.1832 -30.8956 -30.8954 -30.8060 -30.8057 -30.7670 -30.7669
   -18.6660 -17.8048 -15.7669 -15.6739 -15.5870 -15.5449 -15.4662 -15.4478
   -15.3937 -15.3287 -15.2902 -15.2721 -15.2305 -15.2012 -15.1574 -15.1454
   -15.1371 -15.1137 -15.0896 -15.0653 -15.0542 -15.0481 -15.0433 -15.0300
   -14.9964 -14.9646 -14.9278 -14.9239 -14.8954 -14.6528 -14.5788 -13.0729
   -13.0727 -12.0373  -7.7578  -6.4460  -5.3619  -4.5760  -3.1833  -3.0548
    -2.8772  -2.8427  -2.7871  -2.7428  -2.7352  -2.6808  -2.5566  -2.5474
    -2.5161  -2.4523  -2.4287  -2.4254  -2.4170  -2.4130  -2.3918  -2.3550
    -2.3544  -2.2990  -2.2911  -2.2798  -2.2741  -2.2529  -2.2387  -2.2353
    -2.2115  -2.1659  -2.1503  -2.1355  -2.0268  -1.9225  -1.8690  -1.8293
    -1.7980  -1.7550  -1.7501  -1.7300  -1.7143  -1.6759  -1.6602  -1.6039
    -1.4906  -1.4108  -1.3269  -1.2943  -1.2664  -1.1949  -1.1508  -1.0863
    -1.0453  -1.0395  -0.9568  -0.8425  -0.8296  -0.7912  -0.7630  -0.6868
    -0.6587  -0.6258  -0.5653  -0.5586  -0.5308  -0.5042  -0.4755  -0.3761
    -0.3569  -0.3508  -0.3223  -0.3125  -0.3010  -0.2625  -0.1837  -0.0882
    -0.0156  -0.0099   0.0944   0.2227   0.3202   0.4514   0.4805   0.5287
     0.5806   0.6081   0.6990   0.7069   0.7336   0.7971   0.8380   0.9067
     0.9320   0.9471   1.0252   1.0380   1.8012   1.8024   1.8731   1.8732
     2.1540   3.8657   3.8942   3.9147   3.9599   4.0371   4.0609   4.0617
     4.0679   4.1841   4.1914

     the Fermi energy is     3.5203 ev

!    total energy              =   -2973.98316413 Ry
     estimated scf accuracy    <       0.00000001 Ry
     smearing contrib. (-TS)   =      -0.02040365 Ry
     internal energy E=F+TS    =   -2973.96276048 Ry

     The total energy is F=E-TS. E is the sum of the following terms:
     one-electron contribution =  -24204.31732285 Ry
     hartree contribution      =   12196.85915997 Ry
     xc contribution           =    -494.25521073 Ry
     ewald contribution        =    9527.74896164 Ry
     electric field correction =       0.00165150 Ry

     convergence has been achieved in  65 iterations

     Forces acting on atoms (cartesian axes, Ry/au):

     atom    1 type  1   force =    -0.00006657   -0.00019028    0.09554419
     atom    2 type  1   force =     0.00002131   -0.00035507   -0.17554516
     atom    3 type  2   force =     0.00009552   -0.00012547   -0.02314589
     atom    4 type  2   force =     0.00000608   -0.00139121    0.05290266
     atom    5 type  2   force =    -0.01000912   -0.00075303    0.00325517
     atom    6 type  2   force =     0.01153950   -0.00009379    0.00283000
     atom    7 type  1   force =     0.00046243    0.00028272   -0.00663234
     atom    8 type  1   force =     0.00029326    0.00536617    0.01757503
     atom    9 type  2   force =    -0.00015098   -0.00015747   -0.00038488
     atom   10 type  2   force =    -0.00346529    0.00075409   -0.01265239
     atom   11 type  2   force =    -0.00081376   -0.00032876    0.00008787
     atom   12 type  2   force =     0.00033489   -0.00017287    0.00009335
     atom   13 type  1   force =    -0.00025593    0.00039499   -0.00020792
     atom   14 type  1   force =     0.00022102    0.00002797    0.00068976
     atom   15 type  2   force =    -0.00011588    0.00018781   -0.00036135
     atom   16 type  2   force =    -0.00004139   -0.00020851   -0.00007286
     atom   17 type  2   force =     0.00051258   -0.00019183   -0.00005738
     atom   18 type  2   force =    -0.00023247   -0.00037625   -0.00000593
     atom   19 type  1   force =    -0.00007896    0.00008615    0.00025897
     atom   20 type  1   force =     0.00040758   -0.00028450   -0.00075915
     atom   21 type  2   force =     0.00007194    0.00003325    0.10317305
     atom   22 type  2   force =    -0.00011301   -0.00098634   -0.00009736
     atom   23 type  2   force =    -0.07161599   -0.00013381   -0.02754693
     atom   24 type  2   force =     0.07154246    0.00036564   -0.02758856
     atom   25 type  1   force =     0.00018238   -0.00009179    0.09520664
     atom   26 type  1   force =     0.00008142   -0.00040419   -0.17572370
     atom   27 type  2   force =     0.00011214   -0.00024127   -0.02206643
     atom   28 type  2   force =     0.00002865   -0.00099234    0.05230587
     atom   29 type  2   force =    -0.01015902    0.00037260    0.00285953
     atom   30 type  2   force =     0.01156044    0.00074834    0.00248145
     atom   31 type  1   force =     0.00027964    0.00393793   -0.01131682
     atom   32 type  1   force =     0.00045264   -0.00673551    0.01786823
     atom   33 type  2   force =    -0.00008039    0.00005002   -0.00019136
     atom   34 type  2   force =    -0.00395546    0.00073551   -0.01213778
     atom   35 type  2   force =    -0.00021886    0.00008615   -0.00017515
     atom   36 type  2   force =     0.00000589    0.00003561   -0.00008273
     atom   37 type  1   force =    -0.00003792   -0.00041047    0.00036742
     atom   38 type  1   force =     0.00006484    0.00001851    0.00041609
     atom   39 type  2   force =     0.00036032   -0.00039333    0.00027068
     atom   40 type  2   force =    -0.00050437    0.00025490   -0.00009388
     atom   41 type  2   force =    -0.00012992    0.00019455   -0.00028780
     atom   42 type  2   force =     0.00057709    0.00033004    0.00007621
     atom   43 type  1   force =    -0.00013058   -0.00056464   -0.00025106
     atom   44 type  1   force =    -0.00007795   -0.00071289    0.00102143
     atom   45 type  2   force =     0.00007238   -0.00000457    0.10313167
     atom   46 type  2   force =    -0.07161528   -0.00003856   -0.02752319
     atom   47 type  2   force =     0.07154708    0.00035293   -0.02760817
     atom   48 type  3   force =    -0.00281519    0.02073203   -0.00475972
     atom   49 type  4   force =     0.00194405   -0.00543313    0.00448015
     atom   50 type  5   force =     0.00025944    0.00004505   -0.00016204
     atom   51 type  5   force =     0.00076368   -0.00087302    0.00136637
     atom   52 type  3   force =     0.00105453   -0.01180566   -0.00083559
     atom   53 type  5   force =     0.00091695   -0.00116443   -0.00008247
     atom   54 type  2   force =    -0.00064959   -0.00128656   -0.00041257
     atom   55 type  5   force =     0.00179573   -0.00004494    0.00005791
     atom   56 type  5   force =    -0.00023398    0.00155355    0.00044885

     Total force =     0.365612     Total SCF correction =     0.000283
  @ DRIVER MODE: Message from server: STATUS
  @ DRIVER MODE: Message from server: GETFORCE
  @ DRIVER MODE: Returning v,forces,stress,ensemble

     Writing output data file ./calc.save/
  @ DRIVER MODE: Message from server: EXIT
  @ DRIVE MODE: Exiting

     General routines

     Parallel routines

   This run was terminated on:  16:52:27  15Sep2021

   JOB DONE.