     Program PWSCF v.6.7GPU starts on 13Oct2021 at  1: 6: 0

     R & G space division:  proc/nbgrp/npool/nimage =       8
     Reading input from /storage/home/hcoda1/3/ntian30/research/carbon/CxH_vib/CH_calc/ads_slab/CHNHH_b/out_0029/pw.inp
Warning: card &CELL ignored
Warning: card   CELL_DYNAMICS='IPI', ignored
Warning: card / ignored

     Current dimensions of program PWSCF are:
     Max number of different atomic species (ntypx) = 10
     Max number of k-points (npk) =  40000
     Max angular momentum in pseudopotentials (lmaxx) =  3
     Presently no symmetry can be used with electric field

     Message from routine cell_base_init:
     DEPRECATED: use true lattice parameter, not A to a.u. conversion factor

     IMPORTANT: XC functional enforced from input :
     Exchange-correlation= BEEF-VDW
                           (   1   4  43  14   2   0   0)
     Any further DFT definition will be discarded
     Please, verify this is what you really want

  @ DRIVER MODE: Connecting to
 qe_1139763_3182856.sched-torque.pace.gatech.edutvp5xlz1_scratch
  using UNIX socket
  @ DRIVER MODE: Message from server: STATUS
  @ DRIVER MODE: Message from server: INIT
  @ DRIVER MODE: Receiving replica           0          -1
  @ DRIVER MODE: Receiving encoded integer          25
  @ DRIVER MODE:  SCF:  T  FORCE:  T  STRESS:  F  VC:  F  ENSEMBLE:  F
  @ DRIVER MODE:  SCF:  T  FORCE:  T  STRESS:  F  VC:  F  ENSEMBLE:  F

     Using Slab Decomposition

     bravais-lattice index     =            0
     lattice parameter (alat)  =       1.8897  a.u.
     unit-cell volume          =    6658.9804 (a.u.)^3
     number of atoms/cell      =           52
     number of atomic types    =            5
     number of electrons       =       390.00
     number of Kohn-Sham states=          205
     kinetic-energy cutoff     =      29.3995  Ry
     charge density cutoff     =     293.9946  Ry
     scf convergence threshold =      7.3E-08
     mixing beta               =       0.0500
     number of iterations used =            8  plain     mixing
     Exchange-correlation= BEEF-VDW
                           (   1   4  43  14   2   0   0)

     celldm(1)=   1.889726  celldm(2)=   0.000000  celldm(3)=   0.000000
     celldm(4)=   0.000000  celldm(5)=   0.000000  celldm(6)=   0.000000

     crystal axes: (cart. coord. in units of alat)
               a(1) = (   6.579727   0.000000   0.000000 )
               a(2) = (  -0.000775   5.961596   0.000000 )
               a(3) = (   0.000000   0.000000  25.155947 )

     reciprocal axes: (cart. coord. in units 2 pi/alat)
               b(1) = (  0.151982  0.000020  0.000000 )
               b(2) = (  0.000000  0.167740  0.000000 )
               b(3) = (  0.000000  0.000000  0.039752 )

     PseudoPot. # 1 for Ti read from file:
     /storage/coda1/p-amedford6/0/shared/rich_project_chbe-medford/medford-share/data/pseudos_module/espresso/nninc/pbe/van/Ti.UPF
     MD5 check sum: 8e4df49b7f0d34bbd5052bf3f5ea0213
     Pseudo is Ultrasoft, Zval = 12.0
     Generated by new atomic code, or converted to UPF format
     Using radial grid of  851 points,  6 beta functions with:
                l(1) =   0
                l(2) =   0
                l(3) =   1
                l(4) =   1
                l(5) =   2
                l(6) =   2
     Q(r) pseudized with  8 coefficients,  rinner =    1.000   1.000   1.000
                                                       1.000   1.000

     PseudoPot. # 2 for O  read from file:
     /storage/coda1/p-amedford6/0/shared/rich_project_chbe-medford/medford-share/data/pseudos_module/espresso/nninc/pbe/van/O.UPF
     MD5 check sum: 78c19812648e8988a0fe644b0f25305e
     Pseudo is Ultrasoft, Zval =  6.0
     Generated by new atomic code, or converted to UPF format
     Using radial grid of  737 points,  4 beta functions with:
                l(1) =   0
                l(2) =   0
                l(3) =   1
                l(4) =   1
     Q(r) pseudized with  8 coefficients,  rinner =    0.800   0.800   0.800

     PseudoPot. # 3 for C  read from file:
     /storage/coda1/p-amedford6/0/shared/rich_project_chbe-medford/medford-share/data/pseudos_module/espresso/nninc/pbe/van/C.UPF
     MD5 check sum: 1a69bf6b8db32088f5b2163dbdb77a27
     Pseudo is Ultrasoft, Zval =  4.0
     Generated by new atomic code, or converted to UPF format
     Using radial grid of  721 points,  4 beta functions with:
                l(1) =   0
                l(2) =   0
                l(3) =   1
                l(4) =   1
     Q(r) pseudized with  8 coefficients,  rinner =    0.800   0.800   0.800

     PseudoPot. # 4 for H  read from file:
     /storage/coda1/p-amedford6/0/shared/rich_project_chbe-medford/medford-share/data/pseudos_module/espresso/nninc/pbe/van/H.UPF
     MD5 check sum: b5ee9d7bfd3a09ee7748110bda690ff7
     Pseudo is Ultrasoft, Zval =  1.0
     Generated by new atomic code, or converted to UPF format
     Using radial grid of  615 points,  1 beta functions with:
                l(1) =   0
     Q(r) pseudized with  8 coefficients,  rinner =    0.800

     PseudoPot. # 5 for N  read from file:
     /storage/coda1/p-amedford6/0/shared/rich_project_chbe-medford/medford-share/data/pseudos_module/espresso/nninc/pbe/van/N.UPF
     MD5 check sum: 90d10febe142ad51ac9d5be1deb811c4
     Pseudo is Ultrasoft, Zval =  5.0
     Generated by new atomic code, or converted to UPF format
     Using radial grid of  729 points,  4 beta functions with:
                l(1) =   0
                l(2) =   0
                l(3) =   1
                l(4) =   1
     Q(r) pseudized with  8 coefficients,  rinner =    0.800   0.800   0.800

     atomic species   valence    mass     pseudopotential
        Ti1           12.00    47.86700     Ti( 1.00)
        O1             6.00    15.99900     O ( 1.00)
        C1             4.00    12.01100     C ( 1.00)
        H1             1.00     1.00800     H ( 1.00)
        N1             5.00    14.00700     N ( 1.00)

     No symmetry found

   Cartesian axes

     site n.     atom                  positions (alat units)
         1           Ti1 tau(   1) = (   0.0004258   2.9801865   6.0000000  )
         2           Ti1 tau(   2) = (   3.2906075   1.4906267   6.0002472  )
         3           O1  tau(   3) = (   0.0006271   0.0005054   7.9858123  )
         4           O1  tau(   4) = (   3.2906025   0.0005020   7.3038282  )
         5           O1  tau(   5) = (   4.5942328   1.4918067   9.2879030  )
         6           O1  tau(   6) = (   1.9868534   1.4903216   9.2879459  )
         7           Ti1 tau(   7) = (   3.2907309   2.9776765   9.1658812  )
         8           Ti1 tau(   8) = (   0.0014263   1.4814950   9.2876947  )
         9           O1  tau(   9) = (   3.2944750   0.0002302  11.3604974  )
        10           O1  tau(  10) = (   0.0008895   5.9586890  10.6035392  )
        11           O1  tau(  11) = (   1.2972031   1.4939413  12.6393260  )
        12           O1  tau(  12) = (   5.2935702   1.4970258  12.6342454  )
        13           Ti1 tau(  13) = (   6.5783930   2.9813526  12.8381062  )
        14           Ti1 tau(  14) = (   3.2906537   1.4978773  12.4963327  )
        15           O1  tau(  15) = (   6.5733175   0.0290402  14.6574804  )
        16           O1  tau(  16) = (   3.3054662   0.0216765  13.9740687  )
        17           O1  tau(  17) = (   4.5350609   1.5403548  16.2059549  )
        18           O1  tau(  18) = (   2.0349166   1.5291342  16.1470642  )
        19           Ti1 tau(  19) = (   3.2872240   3.0047607  15.7234092  )
        20           Ti1 tau(  20) = (   0.0410825   1.5194215  16.1276637  )
        21           O1  tau(  21) = (   3.2904802   0.0005063   4.7018136  )
        22           O1  tau(  22) = (   6.5652676   5.8907541  17.2497628  )
        23           O1  tau(  23) = (   1.3043587   1.4918075   6.0039043  )
        24           O1  tau(  24) = (   5.2767064   1.4903225   6.0039473  )
        25           Ti1 tau(  25) = (   0.0000382   5.9609847   6.0000000  )
        26           Ti1 tau(  26) = (   3.2902200   4.4714249   6.0002472  )
        27           O1  tau(  27) = (   0.0002396   2.9813036   7.9858123  )
        28           O1  tau(  28) = (   3.2902150   2.9813002   7.3038282  )
        29           O1  tau(  29) = (   4.5938453   4.4726049   9.2879030  )
        30           O1  tau(  30) = (   1.9864658   4.4711199   9.2879459  )
        31           Ti1 tau(  31) = (   3.2906741   5.9584693   9.1623309  )
        32           Ti1 tau(  32) = (   0.0012165   4.4014169   9.3465426  )
        33           O1  tau(  33) = (   3.2924083   2.9889881  11.3543434  )
        34           O1  tau(  34) = (   0.0022264   2.9772995  10.5544931  )
        35           O1  tau(  35) = (   1.2986444   4.4679898  12.6568800  )
        36           O1  tau(  36) = (   5.2923799   4.4657857  12.6543205  )
        37           Ti1 tau(  37) = (   0.0025552   0.0092372  12.5181211  )
        38           Ti1 tau(  38) = (   3.2887235   4.4740353  12.4983661  )
        39           O1  tau(  39) = (   0.0036310   2.9570434  14.7349056  )
        40           O1  tau(  40) = (   3.2990611   2.9752856  13.9364830  )
        41           O1  tau(  41) = (   4.5418486   4.4722619  16.1017917  )
        42           O1  tau(  42) = (   2.0452692   4.4787779  16.1069431  )
        43           Ti1 tau(  43) = (   3.3182015   0.0155015  15.7624703  )
        44           Ti1 tau(  44) = (   0.0016332   4.6944760  15.9151726  )
        45           O1  tau(  45) = (   3.2900926   2.9813045   4.7018136  )
        46           C1  tau(  46) = (   0.0781255   2.7894620  17.8686468  )
        47           O1  tau(  47) = (   1.3039711   4.4726057   6.0039043  )
        48           O1  tau(  48) = (   5.2763189   4.4711207   6.0039473  )
        49           H1  tau(  49) = (   0.9954384   3.2332450  18.2619424  )
        50           H1  tau(  50) = (   4.7724221   2.4647446  18.5698542  )
        51           N1  tau(  51) = (   5.6845287   2.8438018  18.7814782  )
        52           H1  tau(  52) = (   5.7759989   3.3395087  19.6467880  )

     number of k points=    10  Fermi-Dirac smearing, width (Ry)=  0.0073
                       cart. coord. in units 2pi/alat
        k(    1) = (   0.0000000   0.0000000   0.0000000), wk =   0.1250000
        k(    2) = (   0.0000000   0.0419351   0.0000000), wk =   0.2500000
        k(    3) = (   0.0000000  -0.0838702   0.0000000), wk =   0.1250000
        k(    4) = (   0.0379955   0.0000049   0.0000000), wk =   0.2500000
        k(    5) = (   0.0379955   0.0419400   0.0000000), wk =   0.2500000
        k(    6) = (   0.0379955  -0.0838652   0.0000000), wk =   0.2500000
        k(    7) = (   0.0379955  -0.0419301   0.0000000), wk =   0.2500000
        k(    8) = (  -0.0759910  -0.0000099   0.0000000), wk =   0.1250000
        k(    9) = (  -0.0759910   0.0419252   0.0000000), wk =   0.2500000
        k(   10) = (  -0.0759910  -0.0838800   0.0000000), wk =   0.1250000

     Initial potential from superposition of free atoms

     starting charge  373.99917, renormalised to  390.00000

     negative rho (up, down):  1.782E-02 0.000E+00

     %%%%%%%%%%%%%%%%%%%%%%%%%%%%%%%%%%%%%%%%%%%%%%%%%%%%%%%%%%%%%%%%%%%%%%%%
     %                                                                      %
     % You are using vdW-DF, which was implemented by the Thonhauser group. %
     % Please cite the following two papers that made this development      %
     % possible and the two reviews that describe the various versions:     %
     %                                                                      %
     %   T. Thonhauser et al., PRL 115, 136402 (2015).                      %
     %   T. Thonhauser et al., PRB 76, 125112 (2007).                       %
     %   K. Berland et al., Rep. Prog. Phys. 78, 066501 (2015).             %
     %   D.C. Langreth et al., J. Phys.: Condens. Matter 21, 084203 (2009). %
     %                                                                      %
     %                                                                      %
     % If you are calculating the stress with vdW-DF, please also cite:     %
     %                                                                      %
     %   R. Sabatini et al., J. Phys.: Condens. Matter 24, 424209 (2012).   %
     %                                                                      %
     %%%%%%%%%%%%%%%%%%%%%%%%%%%%%%%%%%%%%%%%%%%%%%%%%%%%%%%%%%%%%%%%%%%%%%%%

     Adding external electric field

     Computed dipole along edir(3) :
        Dipole               -5.3768 Ry au,        -13.6664 Debye
        Dipole field         -0.0101 Ry au,

        Potential amp.        0.9406 Ry
        Total length         46.3494 bohr

     Starting wfcs are  295 atomic wfcs
  @ DRIVER MODE: Message from server: STATUS
  @ DRIVER MODE: Message from server: POSDATA
  @ DRIVER MODE: Reading and sharing cell
  @ DRIVER MODE: Reading and sharing positions
  @ DRIVER MODE: Received positions

     Self-consistent Calculation

     iteration #  1     ecut=    29.40 Ry     beta= 0.05
     Davidson diagonalization with overlap
     c_bands:  5 eigenvalues not converged
     c_bands:  5 eigenvalues not converged
     c_bands:  1 eigenvalues not converged
     c_bands:  2 eigenvalues not converged
     c_bands:  4 eigenvalues not converged
     c_bands:  1 eigenvalues not converged
     c_bands:  5 eigenvalues not converged
     c_bands:  1 eigenvalues not converged
     c_bands:  1 eigenvalues not converged
     c_bands:  1 eigenvalues not converged
     ethr =  1.00E-05,  avg # of iterations = 20.0

[...]

     total energy              =   -2827.23094153 Ry
     estimated scf accuracy    <    1022.90745717 Ry

     iteration #  2     ecut=    29.40 Ry     beta= 0.05
     Davidson diagonalization with overlap
     ethr =  1.00E-02,  avg # of iterations = 16.2

[...]

     iteration # 60     ecut=    29.40 Ry     beta= 0.05
     Davidson diagonalization with overlap
     c_bands:  1 eigenvalues not converged
     ethr =  2.57E-09,  avg # of iterations = 14.4

[...]

     total energy              =   -2919.05151204 Ry
     estimated scf accuracy    <       0.00000012 Ry

     iteration # 69     ecut=    29.40 Ry     beta= 0.05
     Davidson diagonalization with overlap
     ethr =  3.10E-11,  avg # of iterations =  9.1

     negative rho (up, down):  1.782E-02 0.000E+00

     Adding external electric field

     Computed dipole along edir(3) :
        Dipole                1.2248 Ry au,          3.1131 Debye
        Dipole field          0.0023 Ry au,

        Potential amp.       -0.2143 Ry
        Total length         46.3494 bohr

     End of self-consistent calculation

          k = 0.0000 0.0000 0.0000 ( 18029 PWs)   bands (ev):

   -55.6407 -55.6215 -55.6003 -55.5852 -55.5464 -55.5025 -55.4534 -55.4451
   -55.3971 -55.3847 -55.3623 -55.3004 -55.0211 -54.9638 -54.6224 -54.5884
   -32.1916 -32.1020 -31.9723 -31.9612 -31.9560 -31.9316 -31.8956 -31.8823
   -31.8684 -31.8539 -31.8346 -31.8254 -31.8040 -31.8020 -31.7698 -31.7685
   -31.7510 -31.7244 -31.7193 -31.7065 -31.6828 -31.6695 -31.6632 -31.6455
   -31.6443 -31.6320 -31.6158 -31.6031 -31.5943 -31.5839 -31.5524 -31.5496
   -31.5346 -31.5100 -31.4928 -31.4894 -31.4588 -31.3736 -31.3180 -31.2536
   -31.0773 -31.0413 -31.0315 -30.9371 -30.9145 -30.8479 -30.7617 -30.6507
   -16.5771 -16.3788 -16.0752 -15.9496 -15.7859 -15.7454 -15.6658 -15.4520
   -15.3334 -15.2603 -15.2409 -15.2253 -15.2066 -15.1978 -15.1543 -15.1424
   -15.1210 -15.0752 -15.0528 -15.0239 -15.0181 -14.9947 -14.9390 -14.8982
   -14.8970 -14.7790 -14.7389 -14.6124 -14.5752 -14.4325 -13.1247 -13.0071
    -9.1697  -6.9204  -4.3920  -3.7330  -3.5407  -3.5128  -3.5069  -3.4356
    -3.2114  -3.1897  -2.8578  -2.7987  -2.7889  -2.7554  -2.7381  -2.5943
    -2.5432  -2.4793  -2.4424  -2.4320  -2.4251  -2.4109  -2.3911  -2.3603
    -2.3458  -2.3185  -2.2280  -2.1553  -2.0527  -2.0418  -1.9761  -1.9260
    -1.8906  -1.8819  -1.8475  -1.8347  -1.8108  -1.7939  -1.7618  -1.7165
    -1.5307  -1.5247  -1.4871  -1.4419  -1.2896  -1.2557  -1.2228  -1.0936
    -1.0475  -1.0210  -0.9444  -0.9405  -0.9291  -0.8717  -0.8326  -0.7779
    -0.6816  -0.6563  -0.5721  -0.5564  -0.5014  -0.4700  -0.3501  -0.3404
    -0.3218  -0.3058  -0.1187  -0.1113  -0.0837  -0.0702   0.0307   0.0691
     0.0907   0.1648   0.1761   0.1913   0.2130   0.3332   0.3708   0.3783
     0.3992   0.4071   0.4158   0.5807   0.6090   0.6793   0.7027   0.7595
     0.9161   0.9403   1.0397   1.1052   1.3076   1.3999   1.4667   1.5771
     1.9869   2.0516   3.4352   3.5673   3.5730   3.6253   3.6515   3.7072
     3.9125   3.9496   3.9759   4.0092   4.0354

[...]

          k = 0.0380-0.0419 0.0000 ( 17876 PWs)   bands (ev):

[...]

          k =-0.0760-0.0000 0.0000 ( 17886 PWs)   bands (ev):

[...]

          k =-0.0760-0.0839 0.0000 ( 17948 PWs)   bands (ev):

   -55.6314 -55.6094 -55.6047 -55.6018 -55.5430 -55.4976 -55.4565 -55.4499
   -55.3817 -55.3814 -55.3771 -55.3039 -55.0162 -54.9686 -54.6056 -54.6051
   -31.9951 -31.9931 -31.9343 -31.9285 -31.9231 -31.9074 -31.8884 -31.8880
   -31.8340 -31.8321 -31.8266 -31.8002 -31.7973 -31.7596 -31.7476 -31.7447
   -31.7443 -31.7427 -31.7386 -31.7216 -31.7085 -31.6979 -31.6959 -31.6893
   -31.6629 -31.6616 -31.6567 -31.6290 -31.6287 -31.6220 -31.5833 -31.5807
   -31.5703 -31.5689 -31.5165 -31.4995 -31.4821 -31.3778 -31.3121 -31.2561
   -31.1532 -31.0441 -30.9275 -30.9269 -30.8445 -30.8441 -30.8051 -30.8046
   -16.5678 -15.8518 -15.7928 -15.5768 -15.5561 -15.5557 -15.4711 -15.3991
   -15.3931 -15.3623 -15.3436 -15.3189 -15.3106 -15.2572 -15.2336 -15.1681
   -15.1443 -15.1279 -15.1259 -15.0687 -15.0606 -15.0281 -15.0084 -14.9949
   -14.9719 -14.9411 -14.9305 -14.8031 -14.7648 -14.5601 -13.1104 -13.1067
    -9.1797  -6.9243  -4.3487  -3.1429  -3.0734  -2.7882  -2.7795  -2.7627
    -2.6581  -2.5769  -2.5637  -2.5311  -2.4745  -2.4501  -2.4450  -2.4316
    -2.4133  -2.4085  -2.4032  -2.3947  -2.3505  -2.3247  -2.2950  -2.2509
    -2.2424  -2.2316  -2.2194  -2.1764  -2.1656  -2.1570  -2.1521  -2.1428
    -2.0929  -1.9173  -1.8915  -1.8730  -1.7653  -1.7444  -1.7097  -1.6813
    -1.6796  -1.6384  -1.6293  -1.5587  -1.4627  -1.3750  -1.3404  -1.3207
    -1.2879  -1.2464  -1.1525  -1.0480  -1.0094  -0.9809  -0.9479  -0.9145
    -0.8825  -0.8790  -0.7711  -0.7217  -0.7022  -0.6499  -0.5941  -0.5712
    -0.5399  -0.4957  -0.4847  -0.4352  -0.3629  -0.3451  -0.2838  -0.2343
    -0.2078  -0.2070  -0.1518  -0.1397  -0.0285   0.0200   0.2129   0.2827
     0.3551   0.3961   0.4127   0.5566   0.5659   0.6711   0.7240   0.7327
     0.7663   0.8460   0.9238   0.9386   0.9700   1.0253   1.7615   1.7638
     1.8468   1.8604   3.5617   3.7323   3.7637   3.7695   3.8695   4.0138
     4.0273   4.0376   4.0473   4.1484   4.2091

     the Fermi energy is     3.5164 ev

!    total energy              =   -2919.05153681 Ry
     estimated scf accuracy    <       0.00000007 Ry
     smearing contrib. (-TS)   =      -0.03131244 Ry
     internal energy E=F+TS    =   -2919.02022436 Ry

     The total energy is F=E-TS. E is the sum of the following terms:
     one-electron contribution =  -24312.00746616 Ry
     hartree contribution      =   12243.48955046 Ry
     xc contribution           =    -479.93563129 Ry
     ewald contribution        =    9629.43049170 Ry
     electric field correction =       0.00283094 Ry

     convergence has been achieved in  69 iterations

     Forces acting on atoms (cartesian axes, Ry/au):

     atom    1 type  1   force =     0.00006497    0.00096109    0.10695677
     atom    2 type  1   force =    -0.00004842    0.00020005   -0.17812215
     atom    3 type  2   force =     0.00008004    0.00467861   -0.03578169
     atom    4 type  2   force =     0.00003188    0.00016662    0.04945711
     atom    5 type  2   force =    -0.02036588   -0.00163124    0.00504454
     atom    6 type  2   force =     0.02053026   -0.00127530    0.00512836
     atom    7 type  1   force =     0.00005704    0.00148926   -0.00757677
     atom    8 type  1   force =     0.00002403   -0.00050626   -0.00006492
     atom    9 type  2   force =    -0.00002871    0.00000894   -0.00042077
     atom   10 type  2   force =     0.00010300   -0.00036082    0.00069231
     atom   11 type  2   force =     0.00037638   -0.00018826    0.00001012
     atom   12 type  2   force =    -0.00029281   -0.00020074   -0.00009110
     atom   13 type  1   force =    -0.00021544   -0.00063728   -0.00019825
     atom   14 type  1   force =    -0.00011923   -0.00008297    0.00004341
     atom   15 type  2   force =     0.00008414    0.00022943    0.00054348
     atom   16 type  2   force =     0.00011723    0.00023933   -0.00061484
     atom   17 type  2   force =    -0.00030181   -0.00002435    0.00033722
     atom   18 type  2   force =     0.00053599   -0.00015383    0.00011534
     atom   19 type  1   force =     0.00003087    0.00024515    0.00033752
     atom   20 type  1   force =    -0.00021112   -0.00001698    0.00046883
     atom   21 type  2   force =     0.00003824    0.00000296    0.10386440
     atom   22 type  2   force =     0.00000808   -0.00027865   -0.00168039
     atom   23 type  2   force =    -0.06935286    0.00127346   -0.03018348
     atom   24 type  2   force =     0.06922606    0.00170140   -0.03022495
     atom   25 type  1   force =     0.00003409   -0.00088184    0.12352449
     atom   26 type  1   force =    -0.00007801   -0.00068200   -0.17773176
     atom   27 type  2   force =     0.00001130   -0.00219809   -0.03268596
     atom   28 type  2   force =     0.00001368   -0.00014293    0.05052380
     atom   29 type  2   force =    -0.02135704    0.00085832    0.00494439
     atom   30 type  2   force =     0.02155527    0.00148858    0.00503643
     atom   31 type  1   force =     0.00025414   -0.00213757   -0.00796822
     atom   32 type  1   force =     0.00000598   -0.00076316    0.00065129
     atom   33 type  2   force =    -0.00002928   -0.00000050   -0.00021015
     atom   34 type  2   force =     0.00002158    0.00023657    0.00078883
     atom   35 type  2   force =     0.00023022    0.00028198   -0.00008853
     atom   36 type  2   force =    -0.00015570    0.00031592   -0.00021429
     atom   37 type  1   force =    -0.00000865    0.00056386    0.00115359
     atom   38 type  1   force =    -0.00009912   -0.00033395    0.00034535
     atom   39 type  2   force =    -0.00002455    0.00053676    0.00012468
     atom   40 type  2   force =     0.00004467    0.00024572   -0.00126051
     atom   41 type  2   force =    -0.00093477    0.00051513    0.00041396
     atom   42 type  2   force =     0.00109209    0.00047810    0.00055226
     atom   43 type  1   force =     0.00011873    0.00030001    0.00008622
     atom   44 type  1   force =     0.00044097    0.00013502    0.00101192
     atom   45 type  2   force =     0.00005089    0.00007012    0.10392005
     atom   46 type  3   force =     0.00041823   -0.00056156   -0.00058084
     atom   47 type  2   force =    -0.06958763   -0.00177115   -0.03017108
     atom   48 type  2   force =     0.06949568   -0.00132959   -0.03023299
     atom   49 type  4   force =    -0.00080671    0.00015343    0.00023976
     atom   50 type  4   force =     0.00080640   -0.00041754   -0.00050770
     atom   51 type  5   force =    -0.00217963   -0.00741100   -0.01287776
     atom   52 type  4   force =     0.00029523    0.00661172    0.01317266

     Total force =     0.379955     Total SCF correction =     0.000457
  @ DRIVER MODE: Message from server: STATUS
  @ DRIVER MODE: Message from server: GETFORCE
  @ DRIVER MODE: Returning v,forces,stress,ensemble

     Writing output data file ./calc.save/
  @ DRIVER MODE: Message from server: EXIT
  @ DRIVE MODE: Exiting

     General routines

     Parallel routines

   This run was terminated on:   1:39:29  13Oct2021

   JOB DONE.