     Program PWSCF v.6.7GPU starts on 16Sep2021 at  2:24:23

     R & G space division:  proc/nbgrp/npool/nimage =      10
     Reading input from /storage/home/hcoda1/3/ntian30/research/carbon/CxH_vib/H2O_calc/ads_slab/CH2NNHHHH2O_a/out_0030/pw.inp
Warning: card &CELL ignored
Warning: card   CELL_DYNAMICS='IPI', ignored
Warning: card / ignored

     Current dimensions of program PWSCF are:
     Max number of different atomic species (ntypx) = 10
     Max number of k-points (npk) =  40000
     Max angular momentum in pseudopotentials (lmaxx) =  3
     Presently no symmetry can be used with electric field

     Message from routine cell_base_init:
     DEPRECATED: use true lattice parameter, not A to a.u. conversion factor

     IMPORTANT: XC functional enforced from input :
     Exchange-correlation= BEEF-VDW
                           (   1   4  43  14   2   0   0)
     Any further DFT definition will be discarded
     Please, verify this is what you really want

  @ DRIVER MODE: Connecting to
 qe_1139763_2852612.sched-torque.pace.gatech.eduswl8btlq_scratch
  using UNIX socket
  @ DRIVER MODE: Message from server: STATUS
  @ DRIVER MODE: Message from server: INIT
  @ DRIVER MODE: Receiving replica           0          -1
  @ DRIVER MODE: Receiving encoded integer          25
  @ DRIVER MODE:  SCF:  T  FORCE:  T  STRESS:  F  VC:  F  ENSEMBLE:  F
  @ DRIVER MODE:  SCF:  T  FORCE:  T  STRESS:  F  VC:  F  ENSEMBLE:  F

     Using Slab Decomposition

     bravais-lattice index     =            0
     lattice parameter (alat)  =       1.8897  a.u.
     unit-cell volume          =    6658.9804 (a.u.)^3
     number of atoms/cell      =           58
     number of atomic types    =            5
     number of electrons       =       405.00
     number of Kohn-Sham states=          212
     kinetic-energy cutoff     =      29.3995  Ry
     charge density cutoff     =     293.9946  Ry
     scf convergence threshold =      7.3E-08
     mixing beta               =       0.0500
     number of iterations used =            8  plain     mixing
     Exchange-correlation= BEEF-VDW
                           (   1   4  43  14   2   0   0)

     celldm(1)=   1.889726  celldm(2)=   0.000000  celldm(3)=   0.000000
     celldm(4)=   0.000000  celldm(5)=   0.000000  celldm(6)=   0.000000

     crystal axes: (cart. coord. in units of alat)
               a(1) = (   6.579727   0.000000   0.000000 )
               a(2) = (  -0.000775   5.961596   0.000000 )
               a(3) = (   0.000000   0.000000  25.155947 )

     reciprocal axes: (cart. coord. in units 2 pi/alat)
               b(1) = (  0.151982  0.000020  0.000000 )
               b(2) = (  0.000000  0.167740  0.000000 )
               b(3) = (  0.000000  0.000000  0.039752 )

     PseudoPot. # 1 for Ti read from file:
     /storage/coda1/p-amedford6/0/shared/rich_project_chbe-medford/medford-share/data/pseudos_module/espresso/nninc/pbe/van/Ti.UPF
     MD5 check sum: 8e4df49b7f0d34bbd5052bf3f5ea0213
     Pseudo is Ultrasoft, Zval = 12.0
     Generated by new atomic code, or converted to UPF format
     Using radial grid of  851 points,  6 beta functions with:
                l(1) =   0
                l(2) =   0
                l(3) =   1
                l(4) =   1
                l(5) =   2
                l(6) =   2
     Q(r) pseudized with  8 coefficients,  rinner =    1.000   1.000   1.000
                                                       1.000   1.000

     PseudoPot. # 2 for O  read from file:
     /storage/coda1/p-amedford6/0/shared/rich_project_chbe-medford/medford-share/data/pseudos_module/espresso/nninc/pbe/van/O.UPF
     MD5 check sum: 78c19812648e8988a0fe644b0f25305e
     Pseudo is Ultrasoft, Zval =  6.0
     Generated by new atomic code, or converted to UPF format
     Using radial grid of  737 points,  4 beta functions with:
                l(1) =   0
                l(2) =   0
                l(3) =   1
                l(4) =   1
     Q(r) pseudized with  8 coefficients,  rinner =    0.800   0.800   0.800

     PseudoPot. # 3 for N  read from file:
     /storage/coda1/p-amedford6/0/shared/rich_project_chbe-medford/medford-share/data/pseudos_module/espresso/nninc/pbe/van/N.UPF
     MD5 check sum: 90d10febe142ad51ac9d5be1deb811c4
     Pseudo is Ultrasoft, Zval =  5.0
     Generated by new atomic code, or converted to UPF format
     Using radial grid of  729 points,  4 beta functions with:
                l(1) =   0
                l(2) =   0
                l(3) =   1
                l(4) =   1
     Q(r) pseudized with  8 coefficients,  rinner =    0.800   0.800   0.800

     PseudoPot. # 4 for C  read from file:
     /storage/coda1/p-amedford6/0/shared/rich_project_chbe-medford/medford-share/data/pseudos_module/espresso/nninc/pbe/van/C.UPF
     MD5 check sum: 1a69bf6b8db32088f5b2163dbdb77a27
     Pseudo is Ultrasoft, Zval =  4.0
     Generated by new atomic code, or converted to UPF format
     Using radial grid of  721 points,  4 beta functions with:
                l(1) =   0
                l(2) =   0
                l(3) =   1
                l(4) =   1
     Q(r) pseudized with  8 coefficients,  rinner =    0.800   0.800   0.800

     PseudoPot. # 5 for H  read from file:
     /storage/coda1/p-amedford6/0/shared/rich_project_chbe-medford/medford-share/data/pseudos_module/espresso/nninc/pbe/van/H.UPF
     MD5 check sum: b5ee9d7bfd3a09ee7748110bda690ff7
     Pseudo is Ultrasoft, Zval =  1.0
     Generated by new atomic code, or converted to UPF format
     Using radial grid of  615 points,  1 beta functions with:
                l(1) =   0
     Q(r) pseudized with  8 coefficients,  rinner =    0.800

     atomic species   valence    mass     pseudopotential
        Ti1           12.00    47.86700     Ti( 1.00)
        O1             6.00    15.99900     O ( 1.00)
        N1             5.00    14.00700     N ( 1.00)
        C1             4.00    12.01100     C ( 1.00)
        H1             1.00     1.00800     H ( 1.00)

     No symmetry found

   Cartesian axes

     site n.     atom                  positions (alat units)
         1           Ti1 tau(   1) = (   0.0004258   2.9801865   6.0000000  )
         2           Ti1 tau(   2) = (   3.2906075   1.4906267   6.0002472  )
         3           O1  tau(   3) = (   0.0006271   0.0005054   7.9858123  )
         4           O1  tau(   4) = (   3.2906025   0.0005020   7.3038282  )
         5           O1  tau(   5) = (   4.5942328   1.4918067   9.2879030  )
         6           O1  tau(   6) = (   1.9868534   1.4903216   9.2879459  )
         7           Ti1 tau(   7) = (   3.2907910   2.8959150   9.1758416  )
         8           Ti1 tau(   8) = (   0.0015273   1.4827037   9.2680791  )
         9           O1  tau(   9) = (   3.2987819   5.9401718  11.3551833  )
        10           O1  tau(  10) = (   0.0116148   5.9584955  10.6183126  )
        11           O1  tau(  11) = (   1.3094369   1.4889762  12.6418845  )
        12           O1  tau(  12) = (   5.3041503   1.4933078  12.6143371  )
        13           Ti1 tau(  13) = (   0.0302489   2.9730182  12.5448133  )
        14           Ti1 tau(  14) = (   3.3273137   1.4751619  12.4920661  )
        15           O1  tau(  15) = (   6.5331299   0.0759724  14.6728253  )
        16           O1  tau(  16) = (   3.3443954   0.0128112  13.9985917  )
        17           O1  tau(  17) = (   4.5384157   1.5150964  16.2525342  )
        18           O1  tau(  18) = (   2.0107438   1.5096167  16.1239609  )
        19           Ti1 tau(  19) = (   3.2468703   2.9375149  15.6823127  )
        20           Ti1 tau(  20) = (   6.5402329   1.3810098  16.1103674  )
        21           O1  tau(  21) = (   3.2904802   0.0005063   4.7018136  )
        22           O1  tau(  22) = (   0.0855018   5.8309792  17.2460454  )
        23           O1  tau(  23) = (   1.3043587   1.4918075   6.0039043  )
        24           O1  tau(  24) = (   5.2767064   1.4903225   6.0039473  )
        25           Ti1 tau(  25) = (   0.0000382   5.9609847   6.0000000  )
        26           Ti1 tau(  26) = (   3.2902200   4.4714249   6.0002472  )
        27           O1  tau(  27) = (   0.0002396   2.9813036   7.9858123  )
        28           O1  tau(  28) = (   3.2902150   2.9813002   7.3038282  )
        29           O1  tau(  29) = (   4.5938453   4.4726049   9.2879030  )
        30           O1  tau(  30) = (   1.9864658   4.4711199   9.2879459  )
        31           Ti1 tau(  31) = (   3.2891106   5.8743827   9.1763621  )
        32           Ti1 tau(  32) = (   0.0006254   4.4649316   9.2693709  )
        33           O1  tau(  33) = (   3.2978634   2.9839445  11.3486163  )
        34           O1  tau(  34) = (   0.0092240   2.9805883  10.6323155  )
        35           O1  tau(  35) = (   1.3057425   4.4725738  12.6940039  )
        36           O1  tau(  36) = (   5.3035974   4.4670288  12.6562451  )
        37           Ti1 tau(  37) = (   0.0240142   0.0094741  12.5095027  )
        38           Ti1 tau(  38) = (   3.3290383   4.4615466  12.5202027  )
        39           O1  tau(  39) = (   6.5484913   2.9337383  14.8377676  )
        40           O1  tau(  40) = (   3.3243726   2.9440003  13.9069550  )
        41           O1  tau(  41) = (   4.5478640   4.3999133  16.1372545  )
        42           O1  tau(  42) = (   2.0209518   4.4226222  15.9786897  )
        43           Ti1 tau(  43) = (   3.3220059   5.9437776  15.8132296  )
        44           Ti1 tau(  44) = (   0.0730556   4.5544523  15.7304118  )
        45           O1  tau(  45) = (   3.2900926   2.9813045   4.7018136  )
        46           O1  tau(  46) = (   1.3039711   4.4726057   6.0039043  )
        47           O1  tau(  47) = (   5.2763189   4.4711207   6.0039473  )
        48           N1  tau(  48) = (   0.0453545   2.8788619  17.9090770  )
        49           C1  tau(  49) = (   1.0089482   2.8008358  18.8431878  )
        50           H1  tau(  50) = (   1.0080222   3.4413729  19.7168629  )
        51           H1  tau(  51) = (   1.8954070   2.2543435  18.5800802  )
        52           N1  tau(  52) = (   5.5320326   3.6725468  18.4465114  )
        53           H1  tau(  53) = (   5.8975581   4.6271042  18.6377988  )
        54           H1  tau(  54) = (   4.8553295   3.8628436  17.6443034  )
        55           H1  tau(  55) = (   5.1025442   3.2364756  19.2632064  )
        56           O1  tau(  56) = (   2.8928424   5.6518753  18.2681889  )
        57           H1  tau(  57) = (   3.0708471   0.5134993  18.7460362  )
        58           H1  tau(  58) = (   1.9180978   5.6479514  18.1114729  )

     number of k points=    10  Fermi-Dirac smearing, width (Ry)=  0.0073
                       cart. coord. in units 2pi/alat
        k(    1) = (   0.0000000   0.0000000   0.0000000), wk =   0.1250000
        k(    2) = (   0.0000000   0.0419351   0.0000000), wk =   0.2500000
        k(    3) = (   0.0000000  -0.0838702   0.0000000), wk =   0.1250000
        k(    4) = (   0.0379955   0.0000049   0.0000000), wk =   0.2500000
        k(    5) = (   0.0379955   0.0419400   0.0000000), wk =   0.2500000
        k(    6) = (   0.0379955  -0.0838652   0.0000000), wk =   0.2500000
        k(    7) = (   0.0379955  -0.0419301   0.0000000), wk =   0.2500000
        k(    8) = (  -0.0759910  -0.0000099   0.0000000), wk =   0.1250000
        k(    9) = (  -0.0759910   0.0419252   0.0000000), wk =   0.2500000
        k(   10) = (  -0.0759910  -0.0838800   0.0000000), wk =   0.1250000

     Initial potential from superposition of free atoms

     starting charge  388.99913, renormalised to  405.00000

     negative rho (up, down):  1.580E-02 0.000E+00

     %%%%%%%%%%%%%%%%%%%%%%%%%%%%%%%%%%%%%%%%%%%%%%%%%%%%%%%%%%%%%%%%%%%%%%%%
     %                                                                      %
     % You are using vdW-DF, which was implemented by the Thonhauser group. %
     % Please cite the following two papers that made this development      %
     % possible and the two reviews that describe the various versions:     %
     %                                                                      %
     %   T. Thonhauser et al., PRL 115, 136402 (2015).                      %
     %   T. Thonhauser et al., PRB 76, 125112 (2007).                       %
     %   K. Berland et al., Rep. Prog. Phys. 78, 066501 (2015).             %
     %   D.C. Langreth et al., J. Phys.: Condens. Matter 21, 084203 (2009). %
     %                                                                      %
     %                                                                      %
     % If you are calculating the stress with vdW-DF, please also cite:     %
     %                                                                      %
     %   R. Sabatini et al., J. Phys.: Condens. Matter 24, 424209 (2012).   %
     %                                                                      %
     %%%%%%%%%%%%%%%%%%%%%%%%%%%%%%%%%%%%%%%%%%%%%%%%%%%%%%%%%%%%%%%%%%%%%%%%

     Adding external electric field

     Computed dipole along edir(3) :
        Dipole              -14.4855 Ry au,        -36.8184 Debye
        Dipole field         -0.0273 Ry au,

        Potential amp.        2.5340 Ry
        Total length         46.3494 bohr

     Starting wfcs are  307 atomic wfcs
  @ DRIVER MODE: Message from server: STATUS
  @ DRIVER MODE: Message from server: POSDATA
  @ DRIVER MODE: Reading and sharing cell
  @ DRIVER MODE: Reading and sharing positions
  @ DRIVER MODE: Received positions

     Self-consistent Calculation

     iteration #  1     ecut=    29.40 Ry     beta= 0.05
     Davidson diagonalization with overlap
     c_bands:  2 eigenvalues not converged
     c_bands:  5 eigenvalues not converged
     c_bands:  1 eigenvalues not converged
     c_bands:  3 eigenvalues not converged
     c_bands:  3 eigenvalues not converged
     c_bands:  3 eigenvalues not converged
     ethr =  1.00E-05,  avg # of iterations = 27.0

[...]

     total energy              =   -2173.20902900 Ry
     estimated scf accuracy    <    9122.13771044 Ry

     iteration #  2     ecut=    29.40 Ry     beta= 0.05
     Davidson diagonalization with overlap
     ethr =  1.00E-02,  avg # of iterations = 27.5

[...]

     iteration # 77     ecut=    29.40 Ry     beta= 0.05
     Davidson diagonalization with overlap
     c_bands:  2 eigenvalues not converged
     ethr =  6.60E-11,  avg # of iterations = 12.7

[...]

     total energy              =   -2976.32700950 Ry
     estimated scf accuracy    <       0.00000010 Ry

     iteration # 80     ecut=    29.40 Ry     beta= 0.05
     Davidson diagonalization with overlap
     ethr =  2.52E-11,  avg # of iterations = 11.5

     negative rho (up, down):  1.316E-02 0.000E+00

     Adding external electric field

     Computed dipole along edir(3) :
        Dipole                1.3432 Ry au,          3.4141 Debye
        Dipole field          0.0025 Ry au,

        Potential amp.       -0.2350 Ry
        Total length         46.3494 bohr

     End of self-consistent calculation

          k = 0.0000 0.0000 0.0000 ( 18029 PWs)   bands (ev):

   -55.1685 -55.1393 -55.1275 -55.1052 -55.0890 -55.0457 -55.0048 -54.9783
   -54.9673 -54.9523 -54.9428 -54.9345 -54.8692 -54.7226 -54.1507 -54.1167
   -31.7352 -31.6290 -31.5332 -31.4996 -31.4782 -31.4705 -31.4675 -31.4291
   -31.4062 -31.3843 -31.3784 -31.3762 -31.3647 -31.3429 -31.3165 -31.3135
   -31.3035 -31.2920 -31.2863 -31.2815 -31.2506 -31.2335 -31.2270 -31.2075
   -31.1962 -31.1784 -31.1766 -31.1758 -31.1670 -31.1642 -31.1477 -31.1385
   -31.1284 -31.1273 -31.1054 -31.0975 -31.0936 -31.0758 -31.0505 -31.0144
   -30.9994 -30.8684 -30.5592 -30.4673 -30.4451 -30.3758 -30.2891 -30.1780
   -19.0694 -18.8004 -16.0060 -15.7486 -15.6212 -15.4433 -15.3632 -15.2098
   -15.1401 -15.0573 -15.0311 -14.9652 -14.9277 -14.8963 -14.7833 -14.7764
   -14.7030 -14.7026 -14.6945 -14.6617 -14.6580 -14.6546 -14.5979 -14.5950
   -14.5555 -14.5445 -14.5321 -14.3902 -14.3152 -14.2581 -14.0940 -13.9778
   -12.6533 -12.5362  -8.9945  -7.7324  -6.9021  -6.5498  -5.7552  -3.7886
    -3.3433  -3.2109  -3.1723  -3.1123  -3.0686  -2.9817  -2.8912  -2.7705
    -2.5518  -2.4772  -2.4345  -2.3858  -2.3772  -2.3304  -2.2438  -2.1583
    -2.1257  -2.0903  -2.0409  -2.0249  -1.9835  -1.9574  -1.9382  -1.8969
    -1.8889  -1.7413  -1.6856  -1.6283  -1.5825  -1.5593  -1.5563  -1.4990
    -1.4859  -1.4630  -1.4600  -1.4500  -1.4205  -1.3837  -1.3788  -1.3255
    -1.2890  -1.1613  -1.0876  -0.9752  -0.9137  -0.8817  -0.7969  -0.7287
    -0.7124  -0.6402  -0.5768  -0.5563  -0.4990  -0.4639  -0.3720  -0.3384
    -0.2900  -0.2618  -0.1535  -0.1407  -0.1249  -0.0552   0.0354   0.0439
     0.0688   0.1132   0.1968   0.2321   0.2868   0.3131   0.4132   0.4444
     0.4859   0.5033   0.5288   0.6109   0.6816   0.7191   0.7799   0.7892
     0.8238   0.8288   0.8514   0.9457   0.9766   0.9818   1.0296   1.1963
     1.2520   1.4534   1.4548   1.7858   1.8211   1.8719   2.0582   2.4457
     2.4930   3.9305   3.9967   4.0451   4.0623   4.0807   4.1393   4.1734
     4.4009   4.4239   4.4381   4.4510

[...]

          k = 0.0380-0.0419 0.0000 ( 17876 PWs)   bands (ev):

[...]

          k =-0.0760-0.0000 0.0000 ( 17886 PWs)   bands (ev):

[...]

          k =-0.0760-0.0839 0.0000 ( 17948 PWs)   bands (ev):

   -55.1578 -55.1380 -55.1222 -55.1222 -55.0868 -55.0365 -55.0141 -54.9628
   -54.9570 -54.9543 -54.9524 -54.9505 -54.8675 -54.7243 -54.1337 -54.1337
   -31.5463 -31.5314 -31.4442 -31.4442 -31.4442 -31.4346 -31.4146 -31.4145
   -31.3800 -31.3746 -31.3651 -31.3633 -31.3332 -31.3052 -31.2976 -31.2954
   -31.2928 -31.2892 -31.2867 -31.2819 -31.2730 -31.2592 -31.2449 -31.2415
   -31.2414 -31.2395 -31.2368 -31.2108 -31.1960 -31.1879 -31.1771 -31.1725
   -31.1720 -31.1714 -31.1530 -31.1517 -31.1323 -31.1297 -31.0686 -31.0068
   -31.0031 -30.9423 -30.4578 -30.4578 -30.3718 -30.3717 -30.3325 -30.3325
   -19.0616 -18.8037 -15.5079 -15.3720 -15.3328 -15.2437 -15.1608 -15.1442
   -15.1368 -15.1031 -15.0506 -14.9908 -14.9457 -14.9113 -14.8699 -14.8686
   -14.8559 -14.7553 -14.7442 -14.7368 -14.7199 -14.6716 -14.6619 -14.6451
   -14.6197 -14.6181 -14.5930 -14.5122 -14.5112 -14.4140 -14.3096 -14.0436
   -12.6378 -12.6377  -8.9818  -7.7481  -6.8578  -6.5396  -5.7696  -3.8707
    -3.0002  -2.7654  -2.5713  -2.5426  -2.4246  -2.3734  -2.3264  -2.3072
    -2.2186  -2.1780  -2.1614  -2.1558  -2.1360  -2.0804  -2.0571  -2.0184
    -1.9980  -1.9840  -1.9777  -1.9514  -1.9463  -1.9157  -1.8995  -1.8796
    -1.8738  -1.8374  -1.7983  -1.7875  -1.7496  -1.7302  -1.7207  -1.6646
    -1.5648  -1.5349  -1.4881  -1.4236  -1.3583  -1.3546  -1.2880  -1.2673
    -1.2479  -1.2284  -1.1927  -1.1807  -1.0715  -1.0122  -0.9064  -0.8940
    -0.8884  -0.7841  -0.7495  -0.7079  -0.6779  -0.6406  -0.5849  -0.5077
    -0.5001  -0.4243  -0.3864  -0.3749  -0.3561  -0.2170  -0.1846  -0.1515
    -0.1267  -0.1222  -0.0703  -0.0256   0.0050   0.0423   0.0695   0.1024
     0.1186   0.1941   0.3298   0.3632   0.4043   0.5372   0.5652   0.6785
     0.7052   0.8261   0.8998   0.9441   0.9650   1.0424   1.1185   1.1412
     1.1470   1.2579   1.3088   1.3108   1.3280   2.2307   2.2322   2.3130
     2.3132   3.7849   4.0756   4.2013   4.2177   4.2588   4.3824   4.4480
     4.4832   4.5052   4.5079   4.5913

     the Fermi energy is     3.9795 ev

!    total energy              =   -2976.32701875 Ry
     estimated scf accuracy    <       0.00000007 Ry
     smearing contrib. (-TS)   =      -0.04072878 Ry
     internal energy E=F+TS    =   -2976.28628997 Ry

     The total energy is F=E-TS. E is the sum of the following terms:
     one-electron contribution =  -23818.21685773 Ry
     hartree contribution      =   12007.98114867 Ry
     xc contribution           =    -495.75839115 Ry
     ewald contribution        =    9329.70440537 Ry
     electric field correction =       0.00340487 Ry

     convergence has been achieved in  80 iterations

     Forces acting on atoms (cartesian axes, Ry/au):

     atom    1 type  1   force =     0.00015674   -0.00019026    0.09426120
     atom    2 type  1   force =    -0.00011647   -0.00035027   -0.17723382
     atom    3 type  2   force =     0.00008521    0.00004050   -0.02132143
     atom    4 type  2   force =     0.00001870   -0.00174387    0.05669651
     atom    5 type  2   force =    -0.01043386   -0.00127626    0.00672844
     atom    6 type  2   force =     0.01219206   -0.00072234    0.00624275
     atom    7 type  1   force =    -0.00028618    0.00287701   -0.01269136
     atom    8 type  1   force =    -0.00014275    0.00438892    0.00450897
     atom    9 type  2   force =    -0.00036378    0.00009460    0.00075388
     atom   10 type  2   force =    -0.00008222   -0.00089032   -0.00640605
     atom   11 type  2   force =    -0.00041160   -0.00032320    0.00006322
     atom   12 type  2   force =    -0.00032605   -0.00041655    0.00014886
     atom   13 type  1   force =    -0.00034143   -0.00016843   -0.00035945
     atom   14 type  1   force =     0.00003654   -0.00043211   -0.00037557
     atom   15 type  2   force =    -0.00020764   -0.00009962    0.00008256
     atom   16 type  2   force =    -0.00063415    0.00020237   -0.00024986
     atom   17 type  2   force =    -0.00011440    0.00004617    0.00019732
     atom   18 type  2   force =     0.00028750   -0.00005369    0.00036158
     atom   19 type  1   force =     0.00016272   -0.00119435   -0.00002434
     atom   20 type  1   force =     0.00001669   -0.00020485    0.00041805
     atom   21 type  2   force =     0.00004666    0.00001561    0.10367209
     atom   22 type  2   force =    -0.00045478   -0.00019511    0.00091420
     atom   23 type  2   force =    -0.07081252   -0.00010701   -0.02713222
     atom   24 type  2   force =     0.07070812    0.00032962   -0.02716319
     atom   25 type  1   force =    -0.00005644   -0.00022544    0.09367003
     atom   26 type  1   force =    -0.00013964   -0.00041764   -0.17736164
     atom   27 type  2   force =     0.00014846   -0.00039582   -0.02027302
     atom   28 type  2   force =     0.00005440   -0.00138011    0.05584592
     atom   29 type  2   force =    -0.01030057   -0.00030088    0.00538266
     atom   30 type  2   force =     0.01197411    0.00009672    0.00502115
     atom   31 type  1   force =    -0.00016741    0.00359022   -0.01534497
     atom   32 type  1   force =    -0.00019537   -0.00484417    0.00437176
     atom   33 type  2   force =    -0.00006771   -0.00017234    0.00030856
     atom   34 type  2   force =     0.00120387    0.00258470   -0.00430110
     atom   35 type  2   force =    -0.00070778   -0.00016871    0.00018175
     atom   36 type  2   force =    -0.00001637   -0.00003414    0.00046541
     atom   37 type  1   force =     0.00038605    0.00041662   -0.00035426
     atom   38 type  1   force =    -0.00000719    0.00052308   -0.00160200
     atom   39 type  2   force =     0.00026887   -0.00042149   -0.00018596
     atom   40 type  2   force =     0.00005407    0.00006991    0.00064412
     atom   41 type  2   force =     0.00049779   -0.00088639    0.00132529
     atom   42 type  2   force =     0.00044909   -0.00036255    0.00006483
     atom   43 type  1   force =    -0.00084628    0.00095510    0.00054433
     atom   44 type  1   force =    -0.00007007   -0.00008208    0.00011338
     atom   45 type  2   force =     0.00003863   -0.00002237    0.10366920
     atom   46 type  2   force =    -0.07084546   -0.00006191   -0.02713622
     atom   47 type  2   force =     0.07074155    0.00034022   -0.02716449
     atom   48 type  3   force =    -0.00062140    0.00141916    0.00353141
     atom   49 type  4   force =     0.00187956   -0.00119781    0.00029566
     atom   50 type  5   force =     0.00125686   -0.00023463   -0.00031001
     atom   51 type  5   force =    -0.00062105    0.00077121   -0.00043882
     atom   52 type  3   force =    -0.00064713    0.00332617   -0.02269330
     atom   53 type  5   force =    -0.00054190    0.00171164    0.00270695
     atom   54 type  5   force =     0.00366225   -0.00089453    0.00639740
     atom   55 type  5   force =    -0.00405054   -0.00415554    0.00942990
     atom   56 type  2   force =    -0.00028139    0.00123795   -0.00051002
     atom   57 type  5   force =    -0.00029992   -0.00077791    0.00034613
     atom   58 type  5   force =    -0.00111505    0.00036718    0.00126763

     Total force =     0.366318     Total SCF correction =     0.000804
  @ DRIVER MODE: Message from server: STATUS
  @ DRIVER MODE: Message from server: GETFORCE
  @ DRIVER MODE: Returning v,forces,stress,ensemble

     Writing output data file ./calc.save/
  @ DRIVER MODE: Message from server: EXIT
  @ DRIVE MODE: Exiting

     General routines

     Parallel routines

   This run was terminated on:   2:45:41  16Sep2021

   JOB DONE.