     Program PWSCF v.6.7GPU starts on 26Sep2021 at 17:28:26

     R & G space division:  proc/nbgrp/npool/nimage =       8
     Reading input from /storage/home/hcoda1/3/ntian30/research/carbon/CxH_vib/H2O_calc/ads_slab/CH2OHN2HO_a/out_0047/pw.inp
Warning: card &CELL ignored
Warning: card   CELL_DYNAMICS='IPI', ignored
Warning: card / ignored

     Current dimensions of program PWSCF are:
     Max number of different atomic species (ntypx) = 10
     Max number of k-points (npk) =  40000
     Max angular momentum in pseudopotentials (lmaxx) =  3
     Presently no symmetry can be used with electric field

     Message from routine cell_base_init:
     DEPRECATED: use true lattice parameter, not A to a.u. conversion factor

     IMPORTANT: XC functional enforced from input :
     Exchange-correlation= BEEF-VDW
                           (   1   4  43  14   2   0   0)
     Any further DFT definition will be discarded
     Please, verify this is what you really want

  @ DRIVER MODE: Connecting to
 qe_1139763_2971670.sched-torque.pace.gatech.edu41f70xat_scratch
  using UNIX socket
  @ DRIVER MODE: Message from server: STATUS
  @ DRIVER MODE: Message from server: INIT
  @ DRIVER MODE: Receiving replica           0          -1
  @ DRIVER MODE: Receiving encoded integer          25
  @ DRIVER MODE:  SCF:  T  FORCE:  T  STRESS:  F  VC:  F  ENSEMBLE:  F
  @ DRIVER MODE:  SCF:  T  FORCE:  T  STRESS:  F  VC:  F  ENSEMBLE:  F

     Using Slab Decomposition

     bravais-lattice index     =            0
     lattice parameter (alat)  =       1.8897  a.u.
     unit-cell volume          =    6658.9804 (a.u.)^3
     number of atoms/cell      =           56
     number of atomic types    =            5
     number of electrons       =       408.00
     number of Kohn-Sham states=          214
     kinetic-energy cutoff     =      29.3995  Ry
     charge density cutoff     =     293.9946  Ry
     scf convergence threshold =      7.3E-08
     mixing beta               =       0.0500
     number of iterations used =            8  plain     mixing
     Exchange-correlation= BEEF-VDW
                           (   1   4  43  14   2   0   0)

     celldm(1)=   1.889726  celldm(2)=   0.000000  celldm(3)=   0.000000
     celldm(4)=   0.000000  celldm(5)=   0.000000  celldm(6)=   0.000000

     crystal axes: (cart. coord. in units of alat)
               a(1) = (   6.579727   0.000000   0.000000 )
               a(2) = (  -0.000775   5.961596   0.000000 )
               a(3) = (   0.000000   0.000000  25.155947 )

     reciprocal axes: (cart. coord. in units 2 pi/alat)
               b(1) = (  0.151982  0.000020  0.000000 )
               b(2) = (  0.000000  0.167740  0.000000 )
               b(3) = (  0.000000  0.000000  0.039752 )

     PseudoPot. # 1 for C  read from file:
     /storage/coda1/p-amedford6/0/shared/rich_project_chbe-medford/medford-share/data/pseudos_module/espresso/nninc/pbe/van/C.UPF
     MD5 check sum: 1a69bf6b8db32088f5b2163dbdb77a27
     Pseudo is Ultrasoft, Zval =  4.0
     Generated by new atomic code, or converted to UPF format
     Using radial grid of  721 points,  4 beta functions with:
                l(1) =   0
                l(2) =   0
                l(3) =   1
                l(4) =   1
     Q(r) pseudized with  8 coefficients,  rinner =    0.800   0.800   0.800

     PseudoPot. # 2 for H  read from file:
     /storage/coda1/p-amedford6/0/shared/rich_project_chbe-medford/medford-share/data/pseudos_module/espresso/nninc/pbe/van/H.UPF
     MD5 check sum: b5ee9d7bfd3a09ee7748110bda690ff7
     Pseudo is Ultrasoft, Zval =  1.0
     Generated by new atomic code, or converted to UPF format
     Using radial grid of  615 points,  1 beta functions with:
                l(1) =   0
     Q(r) pseudized with  8 coefficients,  rinner =    0.800

     PseudoPot. # 3 for O  read from file:
     /storage/coda1/p-amedford6/0/shared/rich_project_chbe-medford/medford-share/data/pseudos_module/espresso/nninc/pbe/van/O.UPF
     MD5 check sum: 78c19812648e8988a0fe644b0f25305e
     Pseudo is Ultrasoft, Zval =  6.0
     Generated by new atomic code, or converted to UPF format
     Using radial grid of  737 points,  4 beta functions with:
                l(1) =   0
                l(2) =   0
                l(3) =   1
                l(4) =   1
     Q(r) pseudized with  8 coefficients,  rinner =    0.800   0.800   0.800

     PseudoPot. # 4 for Ti read from file:
     /storage/coda1/p-amedford6/0/shared/rich_project_chbe-medford/medford-share/data/pseudos_module/espresso/nninc/pbe/van/Ti.UPF
     MD5 check sum: 8e4df49b7f0d34bbd5052bf3f5ea0213
     Pseudo is Ultrasoft, Zval = 12.0
     Generated by new atomic code, or converted to UPF format
     Using radial grid of  851 points,  6 beta functions with:
                l(1) =   0
                l(2) =   0
                l(3) =   1
                l(4) =   1
                l(5) =   2
                l(6) =   2
     Q(r) pseudized with  8 coefficients,  rinner =    1.000   1.000   1.000
                                                       1.000   1.000

     PseudoPot. # 5 for N  read from file:
     /storage/coda1/p-amedford6/0/shared/rich_project_chbe-medford/medford-share/data/pseudos_module/espresso/nninc/pbe/van/N.UPF
     MD5 check sum: 90d10febe142ad51ac9d5be1deb811c4
     Pseudo is Ultrasoft, Zval =  5.0
     Generated by new atomic code, or converted to UPF format
     Using radial grid of  729 points,  4 beta functions with:
                l(1) =   0
                l(2) =   0
                l(3) =   1
                l(4) =   1
     Q(r) pseudized with  8 coefficients,  rinner =    0.800   0.800   0.800

     atomic species   valence    mass     pseudopotential
        C1             4.00    12.01100     C ( 1.00)
        H1             1.00     1.00800     H ( 1.00)
        O1             6.00    15.99900     O ( 1.00)
        Ti1           12.00    47.86700     Ti( 1.00)
        N1             5.00    14.00700     N ( 1.00)

     No symmetry found

   Cartesian axes

     site n.     atom                  positions (alat units)
         1           C1  tau(   1) = (   4.4694424   3.1333252  19.5683752  )
         2           H1  tau(   2) = (   3.5225350   3.1610456  19.0510688  )
         3           H1  tau(   3) = (   5.8501665   2.9975095  17.9951248  )
         4           H1  tau(   4) = (   4.8161173   2.2403860  20.0673745  )
         5           O1  tau(   5) = (   0.0006271   0.0005054   7.9858123  )
         6           O1  tau(   6) = (   3.2906025   0.0005020   7.3038282  )
         7           O1  tau(   7) = (   4.5942328   1.4918067   9.2879030  )
         8           O1  tau(   8) = (   1.9868534   1.4903216   9.2879459  )
         9           O1  tau(   9) = (   3.2658522   0.0207364  11.3165592  )
        10           O1  tau(  10) = (   0.0022773   0.0111808  10.5833539  )
        11           O1  tau(  11) = (   1.2584498   1.5025451  12.6333345  )
        12           O1  tau(  12) = (   5.2827793   1.4879884  12.6049259  )
        13           O1  tau(  13) = (   6.5229081   0.0016576  14.6697044  )
        14           O1  tau(  14) = (   3.2671471   5.9223268  13.9212949  )
        15           O1  tau(  15) = (   4.5038562   1.5078053  16.0770842  )
        16           O1  tau(  16) = (   1.9713840   1.5400684  15.9915579  )
        17           O1  tau(  17) = (   3.2904802   0.0005063   4.7018136  )
        18           O1  tau(  18) = (   0.0083768   5.9574009  17.1899481  )
        19           O1  tau(  19) = (   1.3043587   1.4918075   6.0039043  )
        20           O1  tau(  20) = (   5.2767064   1.4903225   6.0039473  )
        21           O1  tau(  21) = (   0.0002396   2.9813036   7.9858123  )
        22           O1  tau(  22) = (   3.2902150   2.9813002   7.3038282  )
        23           O1  tau(  23) = (   4.5938453   4.4726049   9.2879030  )
        24           O1  tau(  24) = (   1.9864658   4.4711199   9.2879459  )
        25           O1  tau(  25) = (   3.2699439   2.9592623  11.2883102  )
        26           O1  tau(  26) = (   0.0014687   2.9942081  10.5424492  )
        27           O1  tau(  27) = (   1.2624719   4.4656417  12.6394791  )
        28           O1  tau(  28) = (   5.2897987   4.4902883  12.6063686  )
        29           O1  tau(  29) = (   6.5205774   2.9949485  14.6561412  )
        30           O1  tau(  30) = (   3.3050662   2.9767913  13.8748461  )
        31           O1  tau(  31) = (   4.4950179   4.4323158  16.0974573  )
        32           O1  tau(  32) = (   1.9671975   4.4064719  15.9829847  )
        33           O1  tau(  33) = (   3.2900926   2.9813045   4.7018136  )
        34           O1  tau(  34) = (   1.3039711   4.4726057   6.0039043  )
        35           O1  tau(  35) = (   5.2763189   4.4711207   6.0039473  )
        36           O1  tau(  36) = (   6.5424668   2.9800173  17.2949776  )
        37           Ti1 tau(  37) = (   0.0004258   2.9801865   6.0000000  )
        38           Ti1 tau(  38) = (   3.2906075   1.4906267   6.0002472  )
        39           Ti1 tau(  39) = (   3.3167600   3.1006338   9.2159236  )
        40           Ti1 tau(  40) = (   0.0391818   1.5627686   9.3440282  )
        41           Ti1 tau(  41) = (   6.5783755   3.0458713  12.7937554  )
        42           Ti1 tau(  42) = (   3.2318486   1.5634082  12.4209175  )
        43           Ti1 tau(  43) = (   3.2670811   2.9501284  15.6494465  )
        44           Ti1 tau(  44) = (   0.0280251   1.4030395  16.0254105  )
        45           Ti1 tau(  45) = (   0.0000382   5.9609847   6.0000000  )
        46           Ti1 tau(  46) = (   3.2902200   4.4714249   6.0002472  )
        47           Ti1 tau(  47) = (   3.3194908   0.1157174   9.1781592  )
        48           Ti1 tau(  48) = (   0.0398790   4.5135925   9.3581580  )
        49           Ti1 tau(  49) = (   6.5007586   0.0629955  12.6074658  )
        50           Ti1 tau(  50) = (   3.2510718   4.6571100  12.6672192  )
        51           Ti1 tau(  51) = (   3.3282601   5.9350673  16.2366838  )
        52           Ti1 tau(  52) = (   0.0495319   4.5308688  15.9870001  )
        53           N1  tau(  53) = (   5.2748021   5.2735043  20.4272172  )
        54           N1  tau(  54) = (   4.8779203   4.2732533  20.0576380  )
        55           O1  tau(  55) = (   3.0402417   5.9484128  18.0430970  )
        56           H1  tau(  56) = (   2.1234608   0.1014992  18.3542784  )

     number of k points=    10  Fermi-Dirac smearing, width (Ry)=  0.0073
                       cart. coord. in units 2pi/alat
        k(    1) = (   0.0000000   0.0000000   0.0000000), wk =   0.1250000
        k(    2) = (   0.0000000   0.0419351   0.0000000), wk =   0.2500000
        k(    3) = (   0.0000000  -0.0838702   0.0000000), wk =   0.1250000
        k(    4) = (   0.0379955   0.0000049   0.0000000), wk =   0.2500000
        k(    5) = (   0.0379955   0.0419400   0.0000000), wk =   0.2500000
        k(    6) = (   0.0379955  -0.0838652   0.0000000), wk =   0.2500000
        k(    7) = (   0.0379955  -0.0419301   0.0000000), wk =   0.2500000
        k(    8) = (  -0.0759910  -0.0000099   0.0000000), wk =   0.1250000
        k(    9) = (  -0.0759910   0.0419252   0.0000000), wk =   0.2500000
        k(   10) = (  -0.0759910  -0.0838800   0.0000000), wk =   0.1250000

     Initial potential from superposition of free atoms

     starting charge  391.99915, renormalised to  408.00000

     negative rho (up, down):  1.414E-02 0.000E+00

     %%%%%%%%%%%%%%%%%%%%%%%%%%%%%%%%%%%%%%%%%%%%%%%%%%%%%%%%%%%%%%%%%%%%%%%%
     %                                                                      %
     % You are using vdW-DF, which was implemented by the Thonhauser group. %
     % Please cite the following two papers that made this development      %
     % possible and the two reviews that describe the various versions:     %
     %                                                                      %
     %   T. Thonhauser et al., PRL 115, 136402 (2015).                      %
     %   T. Thonhauser et al., PRB 76, 125112 (2007).                       %
     %   K. Berland et al., Rep. Prog. Phys. 78, 066501 (2015).             %
     %   D.C. Langreth et al., J. Phys.: Condens. Matter 21, 084203 (2009). %
     %                                                                      %
     %                                                                      %
     % If you are calculating the stress with vdW-DF, please also cite:     %
     %                                                                      %
     %   R. Sabatini et al., J. Phys.: Condens. Matter 24, 424209 (2012).   %
     %                                                                      %
     %%%%%%%%%%%%%%%%%%%%%%%%%%%%%%%%%%%%%%%%%%%%%%%%%%%%%%%%%%%%%%%%%%%%%%%%

     Adding external electric field

     Computed dipole along edir(3) :
        Dipole              -15.5882 Ry au,        -39.6213 Debye
        Dipole field         -0.0294 Ry au,

        Potential amp.        2.7269 Ry
        Total length         46.3494 bohr

     Starting wfcs are  308 atomic wfcs
  @ DRIVER MODE: Message from server: STATUS
  @ DRIVER MODE: Message from server: POSDATA
  @ DRIVER MODE: Reading and sharing cell
  @ DRIVER MODE: Reading and sharing positions
  @ DRIVER MODE: Received positions

     Self-consistent Calculation

     iteration #  1     ecut=    29.40 Ry     beta= 0.05
     Davidson diagonalization with overlap
     c_bands:  4 eigenvalues not converged
     c_bands:  1 eigenvalues not converged
     c_bands:  1 eigenvalues not converged
     c_bands:  3 eigenvalues not converged
     c_bands:  4 eigenvalues not converged
     c_bands:  2 eigenvalues not converged
     ethr =  1.00E-05,  avg # of iterations = 30.1

[...]

     total energy              =   -2234.28667102 Ry
     estimated scf accuracy    <    8816.85394553 Ry

     iteration #  2     ecut=    29.40 Ry     beta= 0.05
     Davidson diagonalization with overlap
     ethr =  1.00E-02,  avg # of iterations = 32.3

[...]

     iteration # 76     ecut=    29.40 Ry     beta= 0.05
     Davidson diagonalization with overlap
     c_bands:  1 eigenvalues not converged
     c_bands:  1 eigenvalues not converged
     ethr =  9.08E-08,  avg # of iterations =  8.0

[...]

     total energy              =   -3005.15888680 Ry
     estimated scf accuracy    <       0.00000009 Ry

     iteration # 98     ecut=    29.40 Ry     beta= 0.05
     Davidson diagonalization with overlap
     ethr =  2.31E-11,  avg # of iterations =  5.0

     negative rho (up, down):  1.448E-02 0.000E+00

     Adding external electric field

     Computed dipole along edir(3) :
        Dipole                0.5100 Ry au,          1.2962 Debye
        Dipole field          0.0010 Ry au,

        Potential amp.       -0.0892 Ry
        Total length         46.3494 bohr

     End of self-consistent calculation

          k = 0.0000 0.0000 0.0000 ( 18029 PWs)   bands (ev):

   -56.1859 -56.1396 -55.6362 -55.6334 -55.6200 -55.5716 -55.5621 -55.5194
   -55.5060 -55.4792 -55.4350 -55.3926 -55.3878 -55.2639 -54.8104 -54.7765
   -32.6001 -32.4493 -32.4006 -32.3663 -32.2719 -32.2265 -32.1385 -32.0767
   -32.0671 -32.0063 -31.9388 -31.9322 -31.9311 -31.8776 -31.8755 -31.8683
   -31.8539 -31.8350 -31.8188 -31.8010 -31.7919 -31.7844 -31.7494 -31.7233
   -31.7198 -31.7025 -31.6965 -31.6941 -31.6922 -31.6837 -31.6780 -31.6663
   -31.6587 -31.6409 -31.6375 -31.5963 -31.5874 -31.5798 -31.5545 -31.5178
   -31.4775 -31.4658 -31.2052 -31.1497 -31.1253 -31.0222 -30.9373 -30.8263
   -20.6268 -16.8401 -16.4340 -16.3497 -16.2062 -15.9755 -15.8380 -15.7534
   -15.5229 -15.5069 -15.3943 -15.3852 -15.3418 -15.2295 -15.2137 -15.1793
   -15.1723 -15.1566 -15.1456 -15.1110 -15.1058 -15.0997 -15.0317 -15.0041
   -14.9764 -14.9324 -14.8760 -14.8380 -14.7675 -14.7638 -14.7177 -14.5121
   -13.7712 -13.3109 -13.2019  -6.3687  -5.3870  -4.8394  -4.2815  -4.0583
    -3.8742  -3.6577  -3.5617  -3.5538  -3.4143  -3.3634  -3.2649  -3.0459
    -2.9130  -2.8305  -2.8002  -2.7402  -2.7172  -2.6476  -2.6133  -2.6038
    -2.5629  -2.5145  -2.4642  -2.4480  -2.4387  -2.4082  -2.3776  -2.3458
    -2.3299  -2.3262  -2.2874  -2.1373  -2.1267  -2.0681  -2.0595  -2.0136
    -2.0082  -1.9779  -1.9675  -1.9221  -1.8861  -1.7462  -1.7283  -1.7135
    -1.6457  -1.4296  -1.3932  -1.2964  -1.2422  -1.2046  -1.1062  -1.1045
    -1.0722  -1.0426  -0.9939  -0.9115  -0.8797  -0.8260  -0.7865  -0.7779
    -0.7218  -0.6558  -0.6115  -0.5474  -0.5104  -0.4830  -0.3962  -0.3418
    -0.2750  -0.2563  -0.2089  -0.1685  -0.0789  -0.0428  -0.0133   0.0389
     0.0631   0.1275   0.1324   0.1731   0.1885   0.2712   0.2992   0.3174
     0.3657   0.3930   0.4023   0.4706   0.5330   0.5767   0.6219   0.7236
     0.7557   0.7939   0.8645   0.9397   1.1098   1.2082   1.2373   1.4335
     1.4650   1.7620   1.8100   1.8399   3.1122   3.2770   3.5648   3.6574
     3.6918   3.7233   3.8200   3.8497   4.0057   4.0486

[...]

          k = 0.0380-0.0419 0.0000 ( 17876 PWs)   bands (ev):

[...]

          k =-0.0760-0.0000 0.0000 ( 17886 PWs)   bands (ev):

[...]

          k =-0.0760-0.0839 0.0000 ( 17948 PWs)   bands (ev):

   -56.1787 -56.1467 -55.6343 -55.6313 -55.6148 -55.5676 -55.5648 -55.5259
   -55.5075 -55.4809 -55.4266 -55.4010 -55.3855 -55.2661 -54.7936 -54.7932
   -32.4445 -32.4306 -32.4049 -32.4032 -32.3312 -32.3040 -32.0277 -31.9431
   -31.9381 -31.9104 -31.9070 -31.8761 -31.8748 -31.8600 -31.8545 -31.8445
   -31.8345 -31.8236 -31.8083 -31.7992 -31.7927 -31.7900 -31.7822 -31.7785
   -31.7737 -31.7726 -31.7601 -31.7433 -31.7138 -31.7089 -31.7010 -31.6922
   -31.6905 -31.6656 -31.6491 -31.6387 -31.6341 -31.6143 -31.5847 -31.5787
   -31.5175 -31.4694 -31.1385 -31.1383 -31.0207 -31.0190 -30.9795 -30.9786
   -20.6261 -16.7641 -16.4129 -15.7884 -15.6600 -15.6522 -15.6513 -15.6162
   -15.5753 -15.5218 -15.4952 -15.4410 -15.3720 -15.3445 -15.3268 -15.3023
   -15.2592 -15.2263 -15.2129 -15.1395 -15.1026 -15.0905 -15.0756 -15.0643
   -15.0216 -15.0184 -14.9997 -14.9946 -14.9840 -14.9286 -14.8304 -14.6525
   -13.7784 -13.3060 -13.3050  -6.3007  -5.4301  -4.7897  -4.2516  -4.0320
    -3.5097  -3.0165  -2.9162  -2.8370  -2.8299  -2.7419  -2.7005  -2.6699
    -2.6498  -2.6325  -2.6050  -2.5562  -2.5317  -2.4961  -2.4868  -2.4853
    -2.4667  -2.4598  -2.4382  -2.4141  -2.4009  -2.3858  -2.3742  -2.3505
    -2.3388  -2.3314  -2.3246  -2.2868  -2.2378  -2.2169  -2.0447  -2.0093
    -2.0014  -2.0007  -1.9351  -1.9303  -1.8714  -1.7997  -1.7823  -1.7611
    -1.7420  -1.6279  -1.4936  -1.4466  -1.3878  -1.3661  -1.2994  -1.2462
    -1.1504  -1.1314  -1.1208  -1.1022  -1.0574  -1.0547  -0.9743  -0.9174
    -0.8712  -0.8668  -0.8526  -0.8080  -0.6862  -0.6741  -0.6397  -0.6129
    -0.5997  -0.4979  -0.4652  -0.4453  -0.4294  -0.4192  -0.3138  -0.2643
    -0.2198  -0.1731  -0.1104  -0.0516   0.0659   0.0897   0.1902   0.2212
     0.2596   0.3950   0.4200   0.4677   0.5025   0.5600   0.5970   0.6094
     0.7395   0.7951   0.8109   0.8802   0.9001   0.9386   0.9619   1.6007
     1.6068   1.6140   1.6165   1.7779   3.6546   3.6811   3.6872   3.7217
     3.9065   3.9356   4.0135   4.0366   4.0519   4.0637

     the Fermi energy is     2.5640 ev

!    total energy              =   -3005.15889075 Ry
     estimated scf accuracy    <       0.00000004 Ry
     smearing contrib. (-TS)   =      -0.00022491 Ry
     internal energy E=F+TS    =   -3005.15866584 Ry

     The total energy is F=E-TS. E is the sum of the following terms:
     one-electron contribution =  -22955.54789578 Ry
     hartree contribution      =   11573.78764555 Ry
     xc contribution           =    -500.30964594 Ry
     ewald contribution        =    8876.91073955 Ry
     electric field correction =       0.00049078 Ry

     convergence has been achieved in  98 iterations

     Forces acting on atoms (cartesian axes, Ry/au):

     atom    1 type  1   force =     0.00052856   -0.00015329    0.00039718
     atom    2 type  2   force =    -0.00019019    0.00019806   -0.00016245
     atom    3 type  2   force =     0.00015064   -0.00000452   -0.00060894
     atom    4 type  2   force =    -0.00036307   -0.00010346    0.00009891
     atom    5 type  3   force =     0.00027491   -0.00316313   -0.05389785
     atom    6 type  3   force =     0.00044638    0.00119719    0.04055188
     atom    7 type  3   force =    -0.00979743   -0.00221446    0.00042670
     atom    8 type  3   force =     0.00887844   -0.00511599   -0.00067561
     atom    9 type  3   force =     0.00010356    0.00004762   -0.00006362
     atom   10 type  3   force =    -0.00010311    0.00004979    0.00000502
     atom   11 type  3   force =     0.00010716   -0.00000738   -0.00010911
     atom   12 type  3   force =     0.00004315    0.00013371    0.00001124
     atom   13 type  3   force =     0.00002185    0.00003290    0.00012677
     atom   14 type  3   force =     0.00003720   -0.00013525    0.00005529
     atom   15 type  3   force =     0.00030001    0.00053211    0.00009616
     atom   16 type  3   force =    -0.00037162    0.00019881   -0.00008971
     atom   17 type  3   force =    -0.00006804    0.00016385    0.09942127
     atom   18 type  3   force =     0.00016361   -0.00005410    0.00045813
     atom   19 type  3   force =    -0.08023107    0.00059249   -0.03415545
     atom   20 type  3   force =     0.08000373    0.00110644   -0.03418198
     atom   21 type  3   force =     0.00051490    0.00002256   -0.05297555
     atom   22 type  3   force =     0.00038265    0.00048806    0.04230987
     atom   23 type  3   force =    -0.01092840    0.00576275    0.00233992
     atom   24 type  3   force =     0.01005724    0.00213625    0.00119441
     atom   25 type  3   force =     0.00007935   -0.00000109    0.00003752
     atom   26 type  3   force =     0.00000805    0.00006553    0.00000060
     atom   27 type  3   force =     0.00003696    0.00007517   -0.00001639
     atom   28 type  3   force =     0.00008917   -0.00002500    0.00006325
     atom   29 type  3   force =     0.00014323   -0.00013722    0.00022301
     atom   30 type  3   force =    -0.00002199   -0.00007155   -0.00004012
     atom   31 type  3   force =     0.00045889   -0.00058409   -0.00009166
     atom   32 type  3   force =    -0.00040280   -0.00049176    0.00005943
     atom   33 type  3   force =    -0.00007822    0.00025373    0.09899452
     atom   34 type  3   force =    -0.08023020   -0.00145194   -0.03415531
     atom   35 type  3   force =     0.08001257   -0.00092901   -0.03420624
     atom   36 type  3   force =    -0.00001933   -0.00014342    0.00055342
     atom   37 type  4   force =     0.00020085    0.00016838    0.13340072
     atom   38 type  4   force =     0.00002224    0.00798672   -0.15911703
     atom   39 type  4   force =    -0.00006390   -0.00006056    0.00002828
     atom   40 type  4   force =    -0.00007763    0.00015404    0.00006484
     atom   41 type  4   force =    -0.00027992   -0.00000264   -0.00011878
     atom   42 type  4   force =    -0.00007393    0.00007657   -0.00002164
     atom   43 type  4   force =     0.00026801   -0.00001794   -0.00017804
     atom   44 type  4   force =     0.00018650    0.00000878   -0.00054928
     atom   45 type  4   force =    -0.00024494   -0.00009243    0.14216254
     atom   46 type  4   force =    -0.00018590   -0.00646952   -0.15859520
     atom   47 type  4   force =     0.00012074   -0.00008025    0.00006363
     atom   48 type  4   force =    -0.00016086    0.00015834    0.00015656
     atom   49 type  4   force =    -0.00013105   -0.00000500    0.00002841
     atom   50 type  4   force =    -0.00009128    0.00002052    0.00008189
     atom   51 type  4   force =     0.00107580    0.00006473   -0.00628858
     atom   52 type  4   force =     0.00010240   -0.00009896   -0.00031781
     atom   53 type  5   force =     0.00029475    0.00017908   -0.00037356
     atom   54 type  5   force =    -0.00016329   -0.00022071    0.00040000
     atom   55 type  3   force =    -0.00678605    0.00109328    0.00906799
     atom   56 type  2   force =     0.00595074   -0.00113280   -0.00188947

     Total force =     0.385312     Total SCF correction =     0.000436
  @ DRIVER MODE: Message from server: STATUS
  @ DRIVER MODE: Message from server: GETFORCE
  @ DRIVER MODE: Returning v,forces,stress,ensemble

     Writing output data file ./calc.save/
  @ DRIVER MODE: Message from server: EXIT
  @ DRIVE MODE: Exiting

     General routines

     Parallel routines

   This run was terminated on:  18:23:22  26Sep2021

   JOB DONE.