     Program PWSCF v.6.7GPU starts on 23Aug2021 at 22:19:20

     R & G space division:  proc/nbgrp/npool/nimage =       6
     Reading input from /storage/home/hcoda1/3/ntian30/research/carbon/CH_vib/ads_slab/CHNNHH_a/out_0018/pw.inp
Warning: card &CELL ignored
Warning: card   CELL_DYNAMICS='IPI', ignored
Warning: card / ignored

     Current dimensions of program PWSCF are:
     Max number of different atomic species (ntypx) = 10
     Max number of k-points (npk) =  40000
     Max angular momentum in pseudopotentials (lmaxx) =  3
     Presently no symmetry can be used with electric field

     Message from routine cell_base_init:
     DEPRECATED: use true lattice parameter, not A to a.u. conversion factor

     IMPORTANT: XC functional enforced from input :
     Exchange-correlation= BEEF-VDW
                           (   1   4  43  14   2   0   0)
     Any further DFT definition will be discarded
     Please, verify this is what you really want

  @ DRIVER MODE: Connecting to
 qe_1139763_2632796.sched-torque.pace.gatech.eduiaj522vq_scratch
  using UNIX socket
  @ DRIVER MODE: Message from server: STATUS
  @ DRIVER MODE: Message from server: INIT
  @ DRIVER MODE: Receiving replica           0          -1
  @ DRIVER MODE: Receiving encoded integer          25
  @ DRIVER MODE:  SCF:  T  FORCE:  T  STRESS:  F  VC:  F  ENSEMBLE:  F
  @ DRIVER MODE:  SCF:  T  FORCE:  T  STRESS:  F  VC:  F  ENSEMBLE:  F

     Using Slab Decomposition

     bravais-lattice index     =            0
     lattice parameter (alat)  =       1.8897  a.u.
     unit-cell volume          =    6658.9804 (a.u.)^3
     number of atoms/cell      =           53
     number of atomic types    =            5
     number of electrons       =       395.00
     number of Kohn-Sham states=          207
     kinetic-energy cutoff     =      29.3995  Ry
     charge density cutoff     =     293.9946  Ry
     scf convergence threshold =      7.3E-08
     mixing beta               =       0.0500
     number of iterations used =            8  plain     mixing
     Exchange-correlation= BEEF-VDW
                           (   1   4  43  14   2   0   0)

     celldm(1)=   1.889726  celldm(2)=   0.000000  celldm(3)=   0.000000
     celldm(4)=   0.000000  celldm(5)=   0.000000  celldm(6)=   0.000000

     crystal axes: (cart. coord. in units of alat)
               a(1) = (   6.579727   0.000000   0.000000 )
               a(2) = (  -0.000775   5.961596   0.000000 )
               a(3) = (   0.000000   0.000000  25.155947 )

     reciprocal axes: (cart. coord. in units 2 pi/alat)
               b(1) = (  0.151982  0.000020  0.000000 )
               b(2) = (  0.000000  0.167740  0.000000 )
               b(3) = (  0.000000  0.000000  0.039752 )

     PseudoPot. # 1 for Ti read from file:
     /storage/coda1/p-amedford6/0/shared/rich_project_chbe-medford/medford-share/data/pseudos_module/espresso/nninc/pbe/van/Ti.UPF
     MD5 check sum: 8e4df49b7f0d34bbd5052bf3f5ea0213
     Pseudo is Ultrasoft, Zval = 12.0
     Generated by new atomic code, or converted to UPF format
     Using radial grid of  851 points,  6 beta functions with:
                l(1) =   0
                l(2) =   0
                l(3) =   1
                l(4) =   1
                l(5) =   2
                l(6) =   2
     Q(r) pseudized with  8 coefficients,  rinner =    1.000   1.000   1.000
                                                       1.000   1.000

     PseudoPot. # 2 for O  read from file:
     /storage/coda1/p-amedford6/0/shared/rich_project_chbe-medford/medford-share/data/pseudos_module/espresso/nninc/pbe/van/O.UPF
     MD5 check sum: 78c19812648e8988a0fe644b0f25305e
     Pseudo is Ultrasoft, Zval =  6.0
     Generated by new atomic code, or converted to UPF format
     Using radial grid of  737 points,  4 beta functions with:
                l(1) =   0
                l(2) =   0
                l(3) =   1
                l(4) =   1
     Q(r) pseudized with  8 coefficients,  rinner =    0.800   0.800   0.800

     PseudoPot. # 3 for N  read from file:
     /storage/coda1/p-amedford6/0/shared/rich_project_chbe-medford/medford-share/data/pseudos_module/espresso/nninc/pbe/van/N.UPF
     MD5 check sum: 90d10febe142ad51ac9d5be1deb811c4
     Pseudo is Ultrasoft, Zval =  5.0
     Generated by new atomic code, or converted to UPF format
     Using radial grid of  729 points,  4 beta functions with:
                l(1) =   0
                l(2) =   0
                l(3) =   1
                l(4) =   1
     Q(r) pseudized with  8 coefficients,  rinner =    0.800   0.800   0.800

     PseudoPot. # 4 for C  read from file:
     /storage/coda1/p-amedford6/0/shared/rich_project_chbe-medford/medford-share/data/pseudos_module/espresso/nninc/pbe/van/C.UPF
     MD5 check sum: 1a69bf6b8db32088f5b2163dbdb77a27
     Pseudo is Ultrasoft, Zval =  4.0
     Generated by new atomic code, or converted to UPF format
     Using radial grid of  721 points,  4 beta functions with:
                l(1) =   0
                l(2) =   0
                l(3) =   1
                l(4) =   1
     Q(r) pseudized with  8 coefficients,  rinner =    0.800   0.800   0.800

     PseudoPot. # 5 for H  read from file:
     /storage/coda1/p-amedford6/0/shared/rich_project_chbe-medford/medford-share/data/pseudos_module/espresso/nninc/pbe/van/H.UPF
     MD5 check sum: b5ee9d7bfd3a09ee7748110bda690ff7
     Pseudo is Ultrasoft, Zval =  1.0
     Generated by new atomic code, or converted to UPF format
     Using radial grid of  615 points,  1 beta functions with:
                l(1) =   0
     Q(r) pseudized with  8 coefficients,  rinner =    0.800

     atomic species   valence    mass     pseudopotential
        Ti1           12.00    47.86700     Ti( 1.00)
        O1             6.00    15.99900     O ( 1.00)
        N1             5.00    14.00700     N ( 1.00)
        C1             4.00    12.01100     C ( 1.00)
        H1             1.00     1.00800     H ( 1.00)

     No symmetry found

   Cartesian axes

     site n.     atom                  positions (alat units)
         1           Ti1 tau(   1) = (   0.0004258   2.9801865   6.0000000  )
         2           Ti1 tau(   2) = (   3.2906075   1.4906267   6.0002472  )
         3           O1  tau(   3) = (   0.0006271   0.0005054   7.9858123  )
         4           O1  tau(   4) = (   3.2906025   0.0005020   7.3038282  )
         5           O1  tau(   5) = (   4.5942328   1.4918067   9.2879030  )
         6           O1  tau(   6) = (   1.9868534   1.4903216   9.2879459  )
         7           Ti1 tau(   7) = (   3.2907910   2.8959150   9.1758416  )
         8           Ti1 tau(   8) = (   0.0015273   1.4827037   9.2680791  )
         9           O1  tau(   9) = (   3.2912281   5.9459940  11.3193265  )
        10           O1  tau(  10) = (   0.0116148   5.9584955  10.6183126  )
        11           O1  tau(  11) = (   1.3103257   1.4650607  12.6442557  )
        12           O1  tau(  12) = (   5.3047449   1.4806448  12.6312737  )
        13           Ti1 tau(  13) = (   6.5337005   3.0128982  12.6900614  )
        14           Ti1 tau(  14) = (   3.2207025   1.4698770  12.4715817  )
        15           O1  tau(  15) = (   6.5518216   5.9146589  14.6704082  )
        16           O1  tau(  16) = (   3.3240203   5.9583723  13.8895330  )
        17           O1  tau(  17) = (   4.5456974   1.5225049  16.1264218  )
        18           O1  tau(  18) = (   2.0489736   1.4727210  15.9535721  )
        19           Ti1 tau(  19) = (   3.2591190   2.9927146  15.6788090  )
        20           Ti1 tau(  20) = (   0.0289511   1.3544711  15.7732889  )
        21           O1  tau(  21) = (   3.2904802   0.0005063   4.7018136  )
        22           O1  tau(  22) = (   0.0559926   0.0451390  17.2112278  )
        23           O1  tau(  23) = (   1.3043587   1.4918075   6.0039043  )
        24           O1  tau(  24) = (   5.2767064   1.4903225   6.0039473  )
        25           Ti1 tau(  25) = (   0.0000382   5.9609847   6.0000000  )
        26           Ti1 tau(  26) = (   3.2902200   4.4714249   6.0002472  )
        27           O1  tau(  27) = (   0.0002396   2.9813036   7.9858123  )
        28           O1  tau(  28) = (   3.2902150   2.9813002   7.3038282  )
        29           O1  tau(  29) = (   4.5938453   4.4726049   9.2879030  )
        30           O1  tau(  30) = (   1.9864658   4.4711199   9.2879459  )
        31           Ti1 tau(  31) = (   3.2891106   5.8743827   9.1763621  )
        32           Ti1 tau(  32) = (   0.0006254   4.4649316   9.2693709  )
        33           O1  tau(  33) = (   3.2889932   2.9698301  11.3211337  )
        34           O1  tau(  34) = (   0.0092240   2.9805883  10.6323155  )
        35           O1  tau(  35) = (   1.3069247   4.4567274  12.6410950  )
        36           O1  tau(  36) = (   5.3013738   4.4587240  12.6283471  )
        37           Ti1 tau(  37) = (   6.5339814   0.0202798  12.5235249  )
        38           Ti1 tau(  38) = (   3.2191325   4.4512509  12.4750946  )
        39           O1  tau(  39) = (   6.5688456   2.9522374  14.7547250  )
        40           O1  tau(  40) = (   3.3031296   2.9710333  13.8824388  )
        41           O1  tau(  41) = (   4.5425837   4.4734130  15.9989242  )
        42           O1  tau(  42) = (   2.0771424   4.4889556  16.0364895  )
        43           Ti1 tau(  43) = (   3.3121389   0.0026565  15.6888161  )
        44           Ti1 tau(  44) = (   6.5128106   4.4989306  16.3061806  )
        45           O1  tau(  45) = (   3.2900926   2.9813045   4.7018136  )
        46           O1  tau(  46) = (   1.3039711   4.4726057   6.0039043  )
        47           O1  tau(  47) = (   5.2763189   4.4711207   6.0039473  )
        48           N1  tau(  48) = (   0.4628824   2.9849886  17.7976856  )
        49           C1  tau(  49) = (   1.4182946   2.9518240  18.6700831  )
        50           H1  tau(  50) = (   2.3503500   2.6458988  18.1656329  )
        51           N1  tau(  51) = (   5.7893717   3.5482605  18.2279111  )
        52           H1  tau(  52) = (   5.8942619   4.0012392  19.1365464  )
        53           H1  tau(  53) = (   5.0734348   2.8266848  18.2415795  )

     number of k points=    10  Fermi-Dirac smearing, width (Ry)=  0.0073
                       cart. coord. in units 2pi/alat
        k(    1) = (   0.0000000   0.0000000   0.0000000), wk =   0.1250000
        k(    2) = (   0.0000000   0.0419351   0.0000000), wk =   0.2500000
        k(    3) = (   0.0000000  -0.0838702   0.0000000), wk =   0.1250000
        k(    4) = (   0.0379955   0.0000049   0.0000000), wk =   0.2500000
        k(    5) = (   0.0379955   0.0419400   0.0000000), wk =   0.2500000
        k(    6) = (   0.0379955  -0.0838652   0.0000000), wk =   0.2500000
        k(    7) = (   0.0379955  -0.0419301   0.0000000), wk =   0.2500000
        k(    8) = (  -0.0759910  -0.0000099   0.0000000), wk =   0.1250000
        k(    9) = (  -0.0759910   0.0419252   0.0000000), wk =   0.2500000
        k(   10) = (  -0.0759910  -0.0838800   0.0000000), wk =   0.1250000

     Initial potential from superposition of free atoms

     starting charge  378.99916, renormalised to  395.00000

     negative rho (up, down):  1.775E-02 0.000E+00

     %%%%%%%%%%%%%%%%%%%%%%%%%%%%%%%%%%%%%%%%%%%%%%%%%%%%%%%%%%%%%%%%%%%%%%%%
     %                                                                      %
     % You are using vdW-DF, which was implemented by the Thonhauser group. %
     % Please cite the following two papers that made this development      %
     % possible and the two reviews that describe the various versions:     %
     %                                                                      %
     %   T. Thonhauser et al., PRL 115, 136402 (2015).                      %
     %   T. Thonhauser et al., PRB 76, 125112 (2007).                       %
     %   K. Berland et al., Rep. Prog. Phys. 78, 066501 (2015).             %
     %   D.C. Langreth et al., J. Phys.: Condens. Matter 21, 084203 (2009). %
     %                                                                      %
     %                                                                      %
     % If you are calculating the stress with vdW-DF, please also cite:     %
     %                                                                      %
     %   R. Sabatini et al., J. Phys.: Condens. Matter 24, 424209 (2012).   %
     %                                                                      %
     %%%%%%%%%%%%%%%%%%%%%%%%%%%%%%%%%%%%%%%%%%%%%%%%%%%%%%%%%%%%%%%%%%%%%%%%

     Adding external electric field

     Computed dipole along edir(3) :
        Dipole               -8.0628 Ry au,        -20.4935 Debye
        Dipole field         -0.0152 Ry au,

        Potential amp.        1.4105 Ry
        Total length         46.3494 bohr

     Starting wfcs are  299 atomic wfcs
  @ DRIVER MODE: Message from server: STATUS
  @ DRIVER MODE: Message from server: POSDATA
  @ DRIVER MODE: Reading and sharing cell
  @ DRIVER MODE: Reading and sharing positions
  @ DRIVER MODE: Received positions

     Self-consistent Calculation

     iteration #  1     ecut=    29.40 Ry     beta= 0.05
     Davidson diagonalization with overlap
     c_bands:  1 eigenvalues not converged
     c_bands:  1 eigenvalues not converged
     c_bands:  2 eigenvalues not converged
     c_bands:  3 eigenvalues not converged
     c_bands:  3 eigenvalues not converged
     c_bands:  2 eigenvalues not converged
     c_bands:  1 eigenvalues not converged
     ethr =  1.00E-05,  avg # of iterations = 19.3

[...]

     total energy              =   -2614.85816731 Ry
     estimated scf accuracy    <    3583.95677571 Ry

[...]

     iteration #  3     ecut=    29.40 Ry     beta= 0.05
     Davidson diagonalization with overlap
     ethr =  1.00E-02,  avg # of iterations = 14.3

[...]

     iteration # 59     ecut=    29.40 Ry     beta= 0.05
     Davidson diagonalization with overlap
     c_bands:  1 eigenvalues not converged
     ethr =  1.58E-10,  avg # of iterations = 14.5

[...]

     total energy              =   -2939.00604125 Ry
     estimated scf accuracy    <       0.00000010 Ry

     iteration # 65     ecut=    29.40 Ry     beta= 0.05
     Davidson diagonalization with overlap
     ethr =  2.56E-11,  avg # of iterations = 10.8

     negative rho (up, down):  1.646E-02 0.000E+00

     Adding external electric field

     Computed dipole along edir(3) :
        Dipole                0.3069 Ry au,          0.7800 Debye
        Dipole field          0.0006 Ry au,

        Potential amp.       -0.0537 Ry
        Total length         46.3494 bohr

     End of self-consistent calculation

          k = 0.0000 0.0000 0.0000 ( 18029 PWs)   bands (ev):

   -56.1049 -56.1028 -56.0708 -56.0664 -55.9930 -55.9592 -55.9528 -55.9181
   -55.9025 -55.8683 -55.8674 -55.8331 -55.6452 -55.5839 -55.0750 -55.0410
   -32.6619 -32.5860 -32.4847 -32.4249 -32.4104 -32.4062 -32.3975 -32.3585
   -32.3450 -32.3304 -32.3052 -32.2833 -32.2773 -32.2572 -32.2504 -32.2436
   -32.2079 -32.1953 -32.1923 -32.1877 -32.1840 -32.1623 -32.1560 -32.1402
   -32.1149 -32.1011 -32.0997 -32.0992 -32.0940 -32.0905 -32.0695 -32.0426
   -32.0419 -32.0276 -32.0205 -32.0005 -31.9793 -31.9508 -31.8731 -31.8443
   -31.7997 -31.7354 -31.4817 -31.3944 -31.3719 -31.2987 -31.2122 -31.1010
   -17.9761 -16.8713 -16.5814 -16.3665 -16.2605 -16.2452 -16.1389 -15.9534
   -15.8200 -15.7920 -15.6852 -15.6788 -15.6373 -15.6253 -15.5961 -15.5729
   -15.5646 -15.5380 -15.5354 -15.5187 -15.4744 -15.4512 -15.4321 -15.3356
   -15.2961 -15.2353 -15.2141 -15.1524 -15.0300 -14.7950 -13.5771 -13.4609
   -13.3116  -8.0559  -6.3631  -4.3769  -4.2454  -4.0688  -4.0077  -3.9704
    -3.9614  -3.7176  -3.6852  -3.3259  -3.2937  -3.2748  -3.2635  -3.2521
    -3.1463  -3.0173  -2.9618  -2.9199  -2.9093  -2.8986  -2.8914  -2.8786
    -2.8527  -2.8305  -2.7270  -2.6838  -2.6514  -2.5420  -2.5231  -2.4336
    -2.4151  -2.4043  -2.3700  -2.3495  -2.3405  -2.3144  -2.3031  -2.2776
    -2.1915  -2.1427  -2.0276  -1.9629  -1.8845  -1.8500  -1.7017  -1.6582
    -1.5703  -1.5642  -1.5451  -1.5230  -1.4898  -1.4038  -1.3299  -1.2402
    -1.1988  -1.1605  -1.1247  -1.0814  -1.0001  -0.9809  -0.9637  -0.8672
    -0.8632  -0.8538  -0.8107  -0.6096  -0.5852  -0.5509  -0.5381  -0.4611
    -0.4024  -0.3862  -0.3648  -0.3169  -0.2566  -0.1934  -0.1476  -0.1326
    -0.1212  -0.1177  -0.0835  -0.0575   0.0853   0.0959   0.1899   0.2019
     0.2252   0.3519   0.5260   0.5641   0.5848   0.7050   0.8781   0.9474
     1.0491   1.1404   1.5177   1.5630   2.4193   3.0329   3.1190   3.1528
     3.1721   3.2774   3.3103   3.4804   3.4956   3.5306   3.5501

[...]

          k = 0.0380-0.0419 0.0000 ( 17876 PWs)   bands (ev):

[...]

          k =-0.0760-0.0000 0.0000 ( 17886 PWs)   bands (ev):

[...]

          k =-0.0760-0.0839 0.0000 ( 17948 PWs)   bands (ev):

   -56.0889 -56.0867 -56.0865 -56.0825 -55.9837 -55.9620 -55.9496 -55.9275
   -55.8873 -55.8829 -55.8537 -55.8470 -55.6419 -55.5871 -55.0580 -55.0579
   -32.4653 -32.4609 -32.4020 -32.4006 -32.3838 -32.3822 -32.3643 -32.3518
   -32.3326 -32.3133 -32.2903 -32.2737 -32.2475 -32.2379 -32.2375 -32.2188
   -32.2185 -32.2087 -32.2062 -32.2006 -32.1996 -32.1921 -32.1864 -32.1717
   -32.1669 -32.1490 -32.1326 -32.1295 -32.0870 -32.0852 -32.0833 -32.0795
   -32.0701 -32.0685 -32.0645 -32.0632 -32.0587 -31.9689 -31.8847 -31.8376
   -31.8030 -31.7918 -31.3847 -31.3846 -31.2946 -31.2944 -31.2555 -31.2554
   -17.9662 -16.3072 -16.2912 -16.0745 -16.0301 -16.0259 -16.0049 -15.9165
   -15.8266 -15.8074 -15.7930 -15.7756 -15.7607 -15.6805 -15.6548 -15.6324
   -15.6286 -15.6162 -15.5611 -15.5556 -15.5525 -15.5469 -15.5271 -15.4940
   -15.4115 -15.4066 -15.3958 -15.1574 -15.0917 -15.0202 -13.5629 -13.5625
   -13.3246  -8.0131  -6.3011  -4.3996  -3.6002  -3.5812  -3.3577  -3.3173
    -3.2824  -3.2734  -3.1580  -3.0556  -3.0254  -3.0129  -2.9744  -2.9561
    -2.9439  -2.9313  -2.9184  -2.8992  -2.8735  -2.8399  -2.8347  -2.7892
    -2.7718  -2.7508  -2.7333  -2.7115  -2.7105  -2.6699  -2.6644  -2.6257
    -2.5875  -2.5427  -2.4333  -2.3787  -2.3400  -2.2903  -2.2342  -2.2231
    -2.2140  -2.1601  -2.1550  -2.1218  -2.0362  -1.9609  -1.8253  -1.8034
    -1.7704  -1.7295  -1.6964  -1.5988  -1.5554  -1.5059  -1.4540  -1.3982
    -1.3863  -1.3437  -1.3068  -1.2405  -1.2235  -1.1839  -1.1628  -1.1004
    -1.0585  -1.0543  -0.9911  -0.9239  -0.8658  -0.8629  -0.8427  -0.8266
    -0.7694  -0.7215  -0.6548  -0.6057  -0.5640  -0.4671  -0.4102  -0.2937
    -0.1855  -0.0666   0.0046   0.0084   0.0641   0.1413   0.1867   0.2218
     0.2320   0.2498   0.3420   0.4136   0.4328   0.4464   0.5126   0.6994
     1.3121   1.3133   1.3823   1.3831   2.4162   3.3209   3.3589   3.3733
     3.4042   3.5495   3.5522   3.5646   3.5685   3.6867   3.7334

     the Fermi energy is     3.0299 ev

!    total energy              =   -2939.00606863 Ry
     estimated scf accuracy    <       0.00000004 Ry
     smearing contrib. (-TS)   =      -0.02203695 Ry
     internal energy E=F+TS    =   -2938.98403168 Ry

     The total energy is F=E-TS. E is the sum of the following terms:
     one-electron contribution =  -24452.26884419 Ry
     hartree contribution      =   12311.21999285 Ry
     xc contribution           =    -485.13222261 Ry
     ewald contribution        =    9687.19686457 Ry
     electric field correction =       0.00017770 Ry

     convergence has been achieved in  65 iterations

     Forces acting on atoms (cartesian axes, Ry/au):

     atom    1 type  1   force =     0.00018466   -0.00028211    0.09691885
     atom    2 type  1   force =     0.00006468   -0.00078992   -0.17498397
     atom    3 type  2   force =     0.00014624   -0.00008478   -0.02553685
     atom    4 type  2   force =    -0.00003195   -0.00142596    0.05155067
     atom    5 type  2   force =    -0.01206345   -0.00173687    0.00278239
     atom    6 type  2   force =     0.01348731   -0.00134254    0.00222152
     atom    7 type  1   force =     0.00040465    0.00015665   -0.01208655
     atom    8 type  1   force =     0.00019151    0.02419509    0.02897387
     atom    9 type  2   force =    -0.00004028    0.00051967   -0.00008056
     atom   10 type  2   force =    -0.00266382    0.00014501   -0.01165408
     atom   11 type  2   force =    -0.00003010    0.00027476    0.00004104
     atom   12 type  2   force =    -0.00024837   -0.00001174    0.00013734
     atom   13 type  1   force =    -0.00012596    0.00114630   -0.00014143
     atom   14 type  1   force =    -0.00000249    0.00049374    0.00002761
     atom   15 type  2   force =     0.00009773   -0.00012382   -0.00009188
     atom   16 type  2   force =    -0.00021547    0.00022942   -0.00026472
     atom   17 type  2   force =     0.00030313    0.00019613   -0.00031435
     atom   18 type  2   force =    -0.00017836    0.00019969    0.00004426
     atom   19 type  1   force =    -0.00017241   -0.00022690   -0.00072621
     atom   20 type  1   force =     0.00018626    0.00001486   -0.00014714
     atom   21 type  2   force =     0.00006748   -0.00007183    0.10298315
     atom   22 type  2   force =     0.00003522   -0.00014254   -0.00035737
     atom   23 type  2   force =    -0.07169285   -0.00017267   -0.02790523
     atom   24 type  2   force =     0.07159689    0.00028604   -0.02794364
     atom   25 type  1   force =     0.00003756   -0.00025698    0.09681333
     atom   26 type  1   force =    -0.00000642   -0.00018073   -0.17514740
     atom   27 type  2   force =     0.00015649   -0.00027117   -0.02420138
     atom   28 type  2   force =     0.00001491   -0.00118047    0.05210007
     atom   29 type  2   force =    -0.01222253    0.00077782    0.00246205
     atom   30 type  2   force =     0.01352946    0.00126232    0.00187292
     atom   31 type  1   force =     0.00045188    0.00287057   -0.01397603
     atom   32 type  1   force =     0.00038619   -0.02517359    0.03046554
     atom   33 type  2   force =     0.00004568   -0.00008051   -0.00018436
     atom   34 type  2   force =    -0.00184179   -0.00050372   -0.02072345
     atom   35 type  2   force =    -0.00000543    0.00021659   -0.00005755
     atom   36 type  2   force =     0.00017114    0.00032509    0.00015696
     atom   37 type  1   force =    -0.00021211   -0.00085638   -0.00002588
     atom   38 type  1   force =     0.00008659    0.00013393   -0.00022976
     atom   39 type  2   force =     0.00007970    0.00032609   -0.00023900
     atom   40 type  2   force =    -0.00006192    0.00008920    0.00051283
     atom   41 type  2   force =     0.00045859    0.00002850   -0.00009301
     atom   42 type  2   force =    -0.00024814   -0.00011829   -0.00013570
     atom   43 type  1   force =    -0.00033952    0.00033903    0.00003141
     atom   44 type  1   force =     0.00007768    0.00009034    0.00001941
     atom   45 type  2   force =     0.00005484   -0.00006755    0.10300136
     atom   46 type  2   force =    -0.07171941   -0.00011710   -0.02790674
     atom   47 type  2   force =     0.07160838    0.00025760   -0.02793192
     atom   48 type  3   force =     0.00127349   -0.00002932    0.00003872
     atom   49 type  4   force =    -0.00499233    0.00152982    0.00289452
     atom   50 type  5   force =     0.00368541   -0.00069066   -0.00336552
     atom   51 type  3   force =     0.00013750    0.00009342    0.00018083
     atom   52 type  5   force =     0.00007953   -0.00015790   -0.00001294
     atom   53 type  5   force =     0.00001433   -0.00010164    0.00023394

     Total force =     0.369077     Total SCF correction =     0.000684
  @ DRIVER MODE: Message from server: STATUS
  @ DRIVER MODE: Message from server: GETFORCE
  @ DRIVER MODE: Returning v,forces,stress,ensemble

     Writing output data file ./calc.save/
  @ DRIVER MODE: Message from server: EXIT
  @ DRIVE MODE: Exiting

     General routines

     Parallel routines

   This run was terminated on:  22:50:36  23Aug2021

   JOB DONE.