     Program PWSCF v.6.7GPU starts on 26Sep2021 at 16: 0:32

     R & G space division:  proc/nbgrp/npool/nimage =       8
     Reading input from /storage/home/hcoda1/3/ntian30/research/carbon/CxH_vib/H2O_calc/ads_slab/CH3OHN2HO_a/out_0043/pw.inp
Warning: card &CELL ignored
Warning: card   CELL_DYNAMICS='IPI', ignored
Warning: card / ignored

     Current dimensions of program PWSCF are:
     Max number of different atomic species (ntypx) = 10
     Max number of k-points (npk) =  40000
     Max angular momentum in pseudopotentials (lmaxx) =  3
     Presently no symmetry can be used with electric field

     Message from routine cell_base_init:
     DEPRECATED: use true lattice parameter, not A to a.u. conversion factor

     IMPORTANT: XC functional enforced from input :
     Exchange-correlation= BEEF-VDW
                           (   1   4  43  14   2   0   0)
     Any further DFT definition will be discarded
     Please, verify this is what you really want

  @ DRIVER MODE: Connecting to
 qe_1139763_2971668.sched-torque.pace.gatech.edusa31lv_e_scratch
  using UNIX socket
  @ DRIVER MODE: Message from server: STATUS
  @ DRIVER MODE: Message from server: INIT
  @ DRIVER MODE: Receiving replica           0          -1
  @ DRIVER MODE: Receiving encoded integer          25
  @ DRIVER MODE:  SCF:  T  FORCE:  T  STRESS:  F  VC:  F  ENSEMBLE:  F
  @ DRIVER MODE:  SCF:  T  FORCE:  T  STRESS:  F  VC:  F  ENSEMBLE:  F

     Using Slab Decomposition

     bravais-lattice index     =            0
     lattice parameter (alat)  =       1.8897  a.u.
     unit-cell volume          =    6658.9804 (a.u.)^3
     number of atoms/cell      =           57
     number of atomic types    =            5
     number of electrons       =       409.00
     number of Kohn-Sham states=          214
     kinetic-energy cutoff     =      29.3995  Ry
     charge density cutoff     =     293.9946  Ry
     scf convergence threshold =      7.3E-08
     mixing beta               =       0.0500
     number of iterations used =            8  plain     mixing
     Exchange-correlation= BEEF-VDW
                           (   1   4  43  14   2   0   0)

     celldm(1)=   1.889726  celldm(2)=   0.000000  celldm(3)=   0.000000
     celldm(4)=   0.000000  celldm(5)=   0.000000  celldm(6)=   0.000000

     crystal axes: (cart. coord. in units of alat)
               a(1) = (   6.579727   0.000000   0.000000 )
               a(2) = (  -0.000775   5.961596   0.000000 )
               a(3) = (   0.000000   0.000000  25.155947 )

     reciprocal axes: (cart. coord. in units 2 pi/alat)
               b(1) = (  0.151982  0.000020  0.000000 )
               b(2) = (  0.000000  0.167740  0.000000 )
               b(3) = (  0.000000  0.000000  0.039752 )

     PseudoPot. # 1 for Ti read from file:
     /storage/coda1/p-amedford6/0/shared/rich_project_chbe-medford/medford-share/data/pseudos_module/espresso/nninc/pbe/van/Ti.UPF
     MD5 check sum: 8e4df49b7f0d34bbd5052bf3f5ea0213
     Pseudo is Ultrasoft, Zval = 12.0
     Generated by new atomic code, or converted to UPF format
     Using radial grid of  851 points,  6 beta functions with:
                l(1) =   0
                l(2) =   0
                l(3) =   1
                l(4) =   1
                l(5) =   2
                l(6) =   2
     Q(r) pseudized with  8 coefficients,  rinner =    1.000   1.000   1.000
                                                       1.000   1.000

     PseudoPot. # 2 for O  read from file:
     /storage/coda1/p-amedford6/0/shared/rich_project_chbe-medford/medford-share/data/pseudos_module/espresso/nninc/pbe/van/O.UPF
     MD5 check sum: 78c19812648e8988a0fe644b0f25305e
     Pseudo is Ultrasoft, Zval =  6.0
     Generated by new atomic code, or converted to UPF format
     Using radial grid of  737 points,  4 beta functions with:
                l(1) =   0
                l(2) =   0
                l(3) =   1
                l(4) =   1
     Q(r) pseudized with  8 coefficients,  rinner =    0.800   0.800   0.800

     PseudoPot. # 3 for C  read from file:
     /storage/coda1/p-amedford6/0/shared/rich_project_chbe-medford/medford-share/data/pseudos_module/espresso/nninc/pbe/van/C.UPF
     MD5 check sum: 1a69bf6b8db32088f5b2163dbdb77a27
     Pseudo is Ultrasoft, Zval =  4.0
     Generated by new atomic code, or converted to UPF format
     Using radial grid of  721 points,  4 beta functions with:
                l(1) =   0
                l(2) =   0
                l(3) =   1
                l(4) =   1
     Q(r) pseudized with  8 coefficients,  rinner =    0.800   0.800   0.800

     PseudoPot. # 4 for H  read from file:
     /storage/coda1/p-amedford6/0/shared/rich_project_chbe-medford/medford-share/data/pseudos_module/espresso/nninc/pbe/van/H.UPF
     MD5 check sum: b5ee9d7bfd3a09ee7748110bda690ff7
     Pseudo is Ultrasoft, Zval =  1.0
     Generated by new atomic code, or converted to UPF format
     Using radial grid of  615 points,  1 beta functions with:
                l(1) =   0
     Q(r) pseudized with  8 coefficients,  rinner =    0.800

     PseudoPot. # 5 for N  read from file:
     /storage/coda1/p-amedford6/0/shared/rich_project_chbe-medford/medford-share/data/pseudos_module/espresso/nninc/pbe/van/N.UPF
     MD5 check sum: 90d10febe142ad51ac9d5be1deb811c4
     Pseudo is Ultrasoft, Zval =  5.0
     Generated by new atomic code, or converted to UPF format
     Using radial grid of  729 points,  4 beta functions with:
                l(1) =   0
                l(2) =   0
                l(3) =   1
                l(4) =   1
     Q(r) pseudized with  8 coefficients,  rinner =    0.800   0.800   0.800

     atomic species   valence    mass     pseudopotential
        Ti1           12.00    47.86700     Ti( 1.00)
        O1             6.00    15.99900     O ( 1.00)
        C1             4.00    12.01100     C ( 1.00)
        H1             1.00     1.00800     H ( 1.00)
        N1             5.00    14.00700     N ( 1.00)

     No symmetry found

   Cartesian axes

     site n.     atom                  positions (alat units)
         1           Ti1 tau(   1) = (   0.0004258   2.9801865   6.0000000  )
         2           Ti1 tau(   2) = (   3.2906075   1.4906267   6.0002472  )
         3           O1  tau(   3) = (   0.0006271   0.0005054   7.9858123  )
         4           O1  tau(   4) = (   3.2906025   0.0005020   7.3038282  )
         5           O1  tau(   5) = (   4.5942328   1.4918067   9.2879030  )
         6           O1  tau(   6) = (   1.9868534   1.4903216   9.2879459  )
         7           Ti1 tau(   7) = (   3.3371032   3.0268772   9.1887580  )
         8           Ti1 tau(   8) = (   0.0611061   1.5258697   9.2809523  )
         9           O1  tau(   9) = (   3.3143856   0.0188946  11.3581724  )
        10           O1  tau(  10) = (   0.0164151   0.0031400  10.5895864  )
        11           O1  tau(  11) = (   1.3088961   1.4994640  12.6347600  )
        12           O1  tau(  12) = (   5.3347766   1.4946156  12.6347356  )
        13           Ti1 tau(  13) = (   0.0202478   3.0292801  12.5720800  )
        14           Ti1 tau(  14) = (   3.3188568   1.5851219  12.4260843  )
        15           O1  tau(  15) = (   0.0445434   5.9450813  14.6510506  )
        16           O1  tau(  16) = (   3.3207065   5.8849141  14.0104376  )
        17           O1  tau(  17) = (   4.6249962   1.5116716  16.1313945  )
        18           O1  tau(  18) = (   2.0639035   1.5439872  16.0680944  )
        19           Ti1 tau(  19) = (   3.3360141   2.9454253  15.6763505  )
        20           Ti1 tau(  20) = (   0.0686920   1.3314864  15.9334539  )
        21           O1  tau(  21) = (   3.2904802   0.0005063   4.7018136  )
        22           O1  tau(  22) = (   0.0979609   0.0039778  17.1657837  )
        23           O1  tau(  23) = (   1.3043587   1.4918075   6.0039043  )
        24           O1  tau(  24) = (   5.2767064   1.4903225   6.0039473  )
        25           Ti1 tau(  25) = (   0.0000382   5.9609847   6.0000000  )
        26           Ti1 tau(  26) = (   3.2902200   4.4714249   6.0002472  )
        27           O1  tau(  27) = (   0.0002396   2.9813036   7.9858123  )
        28           O1  tau(  28) = (   3.2902150   2.9813002   7.3038282  )
        29           O1  tau(  29) = (   4.5938453   4.4726049   9.2879030  )
        30           O1  tau(  30) = (   1.9864658   4.4711199   9.2879459  )
        31           Ti1 tau(  31) = (   3.3368545   0.0404040   9.1664313  )
        32           Ti1 tau(  32) = (   0.0604674   4.4799263   9.2696248  )
        33           O1  tau(  33) = (   3.3137611   2.9662427  11.3084074  )
        34           O1  tau(  34) = (   0.0134136   2.9850836  10.6046154  )
        35           O1  tau(  35) = (   1.3054726   4.4719986  12.6384794  )
        36           O1  tau(  36) = (   5.3362180   4.4781181  12.6390536  )
        37           Ti1 tau(  37) = (   0.0365240   0.0487139  12.4702884  )
        38           Ti1 tau(  38) = (   3.3180881   4.6653017  12.7087268  )
        39           O1  tau(  39) = (   0.0228105   2.9918545  14.7761892  )
        40           O1  tau(  40) = (   3.3431522   2.9700269  13.9040455  )
        41           O1  tau(  41) = (   4.6265974   4.4152401  16.1544535  )
        42           O1  tau(  42) = (   2.0571238   4.3592187  16.1146037  )
        43           Ti1 tau(  43) = (   3.3848590   5.9294639  16.2700006  )
        44           Ti1 tau(  44) = (   0.0517009   4.5268197  15.8466567  )
        45           O1  tau(  45) = (   3.2900926   2.9813045   4.7018136  )
        46           O1  tau(  46) = (   1.3039711   4.4726057   6.0039043  )
        47           O1  tau(  47) = (   5.2763189   4.4711207   6.0039473  )
        48           C1  tau(  48) = (   5.9450987   3.0517216  18.8599509  )
        49           O1  tau(  49) = (   0.1802289   3.0084098  17.6484507  )
        50           H1  tau(  50) = (   4.9625852   2.6832861  18.5889656  )
        51           H1  tau(  51) = (   1.1163247   3.1442434  17.8758057  )
        52           H1  tau(  52) = (   6.3899442   2.3914015  19.6026461  )
        53           H1  tau(  53) = (   5.8846647   4.0795385  19.2151274  )
        54           N1  tau(  54) = (   5.7598779   3.1323611  22.9045362  )
        55           N1  tau(  55) = (   4.9745974   3.1850264  22.1203839  )
        56           O1  tau(  56) = (   3.1467188   0.0118795  18.1166202  )
        57           H1  tau(  57) = (   2.2164505   0.0865285  18.3868412  )

     number of k points=    10  Fermi-Dirac smearing, width (Ry)=  0.0073
                       cart. coord. in units 2pi/alat
        k(    1) = (   0.0000000   0.0000000   0.0000000), wk =   0.1250000
        k(    2) = (   0.0000000   0.0419351   0.0000000), wk =   0.2500000
        k(    3) = (   0.0000000  -0.0838702   0.0000000), wk =   0.1250000
        k(    4) = (   0.0379955   0.0000049   0.0000000), wk =   0.2500000
        k(    5) = (   0.0379955   0.0419400   0.0000000), wk =   0.2500000
        k(    6) = (   0.0379955  -0.0838652   0.0000000), wk =   0.2500000
        k(    7) = (   0.0379955  -0.0419301   0.0000000), wk =   0.2500000
        k(    8) = (  -0.0759910  -0.0000099   0.0000000), wk =   0.1250000
        k(    9) = (  -0.0759910   0.0419252   0.0000000), wk =   0.2500000
        k(   10) = (  -0.0759910  -0.0838800   0.0000000), wk =   0.1250000

     Initial potential from superposition of free atoms

     starting charge  392.99914, renormalised to  409.00000

     negative rho (up, down):  9.130E-03 0.000E+00

     %%%%%%%%%%%%%%%%%%%%%%%%%%%%%%%%%%%%%%%%%%%%%%%%%%%%%%%%%%%%%%%%%%%%%%%%
     %                                                                      %
     % You are using vdW-DF, which was implemented by the Thonhauser group. %
     % Please cite the following two papers that made this development      %
     % possible and the two reviews that describe the various versions:     %
     %                                                                      %
     %   T. Thonhauser et al., PRL 115, 136402 (2015).                      %
     %   T. Thonhauser et al., PRB 76, 125112 (2007).                       %
     %   K. Berland et al., Rep. Prog. Phys. 78, 066501 (2015).             %
     %   D.C. Langreth et al., J. Phys.: Condens. Matter 21, 084203 (2009). %
     %                                                                      %
     %                                                                      %
     % If you are calculating the stress with vdW-DF, please also cite:     %
     %                                                                      %
     %   R. Sabatini et al., J. Phys.: Condens. Matter 24, 424209 (2012).   %
     %                                                                      %
     %%%%%%%%%%%%%%%%%%%%%%%%%%%%%%%%%%%%%%%%%%%%%%%%%%%%%%%%%%%%%%%%%%%%%%%%

     Adding external electric field

     Computed dipole along edir(3) :
        Dipole              -18.8687 Ry au,        -47.9594 Debye
        Dipole field         -0.0356 Ry au,

        Potential amp.        3.3008 Ry
        Total length         46.3494 bohr

     Starting wfcs are  309 atomic wfcs
  @ DRIVER MODE: Message from server: STATUS
  @ DRIVER MODE: Message from server: POSDATA
  @ DRIVER MODE: Reading and sharing cell
  @ DRIVER MODE: Reading and sharing positions
  @ DRIVER MODE: Received positions

     Self-consistent Calculation

     iteration #  1     ecut=    29.40 Ry     beta= 0.05
     Davidson diagonalization with overlap
     c_bands:  5 eigenvalues not converged
     c_bands:  5 eigenvalues not converged
     c_bands:  1 eigenvalues not converged
     c_bands:  4 eigenvalues not converged
     c_bands:  1 eigenvalues not converged
     c_bands:  3 eigenvalues not converged
     ethr =  1.00E-05,  avg # of iterations = 27.3

[...]

     total energy              =   -2113.26495456 Ry
     estimated scf accuracy    <   10330.93980307 Ry

     iteration #  2     ecut=    29.40 Ry     beta= 0.05
     Davidson diagonalization with overlap
     ethr =  1.00E-02,  avg # of iterations = 30.3

[...]

     iteration # 64     ecut=    29.40 Ry     beta= 0.05
     Davidson diagonalization with overlap
     c_bands:  1 eigenvalues not converged
     ethr =  1.19E-10,  avg # of iterations = 11.0

[...]

     total energy              =   -3006.45806003 Ry
     estimated scf accuracy    <       0.00000010 Ry

     iteration # 67     ecut=    29.40 Ry     beta= 0.05
     Davidson diagonalization with overlap
     ethr =  2.37E-11,  avg # of iterations = 12.6

     negative rho (up, down):  1.060E-02 0.000E+00

     Adding external electric field

     Computed dipole along edir(3) :
        Dipole                1.0501 Ry au,          2.6691 Debye
        Dipole field          0.0020 Ry au,

        Potential amp.       -0.1837 Ry
        Total length         46.3494 bohr

     End of self-consistent calculation

          k = 0.0000 0.0000 0.0000 ( 18029 PWs)   bands (ev):

   -55.3291 -55.2534 -55.2182 -55.1442 -55.1226 -55.0875 -55.0512 -55.0471
   -55.0453 -55.0256 -55.0157 -54.9857 -54.8994 -54.8233 -54.2134 -54.1793
   -31.7313 -31.7231 -31.6353 -31.6238 -31.5826 -31.5690 -31.5445 -31.5425
   -31.5076 -31.4962 -31.4853 -31.4205 -31.4073 -31.4072 -31.3804 -31.3621
   -31.3535 -31.3364 -31.3358 -31.3244 -31.3170 -31.3123 -31.2664 -31.2644
   -31.2622 -31.2555 -31.2529 -31.2396 -31.2336 -31.2150 -31.2079 -31.1972
   -31.1957 -31.1756 -31.1714 -31.1632 -31.1623 -31.1278 -31.0881 -31.0686
   -31.0375 -31.0271 -30.6195 -30.5332 -30.5107 -30.4365 -30.3502 -30.2386
   -21.3946 -19.7120 -16.1358 -15.9056 -15.7263 -15.5243 -15.4676 -15.4011
   -15.2139 -15.1405 -14.9846 -14.8594 -14.8447 -14.7880 -14.7868 -14.7767
   -14.7479 -14.7229 -14.6777 -14.6663 -14.6610 -14.6572 -14.5958 -14.5534
   -14.5507 -14.5236 -14.5030 -14.3756 -14.3287 -14.2743 -14.1044 -14.0822
   -12.7128 -12.5967 -10.5726  -6.7318  -6.4123  -4.6426  -4.5742  -4.5572
    -4.4066  -3.6520  -3.3630  -3.2549  -3.1543  -3.1357  -3.0710  -3.0202
    -2.8054  -2.6990  -2.6360  -2.5234  -2.3962  -2.3599  -2.3079  -2.2779
    -2.1860  -2.1680  -2.1361  -2.1062  -2.0508  -2.0228  -2.0153  -2.0024
    -1.9270  -1.9203  -1.7905  -1.7854  -1.7292  -1.6372  -1.6194  -1.5965
    -1.5892  -1.5548  -1.5525  -1.5102  -1.4865  -1.4625  -1.4340  -1.3589
    -1.3395  -1.2765  -1.2391  -1.0069  -0.8523  -0.8278  -0.7475  -0.7312
    -0.7003  -0.6712  -0.6510  -0.6403  -0.6033  -0.5878  -0.4842  -0.3808
    -0.3721  -0.3124  -0.2747  -0.2698  -0.1343  -0.0894  -0.0150   0.0077
     0.0399   0.0610   0.1452   0.1940   0.2157   0.2823   0.3137   0.4191
     0.4566   0.4758   0.5172   0.5725   0.6329   0.6668   0.7062   0.7096
     0.7425   0.7915   0.8210   0.8556   0.8779   0.9249   1.0277   1.0651
     1.0757   1.2163   1.2274   1.3095   1.4343   1.4862   1.7593   1.8117
     1.8584   2.0041   2.3806   2.4275   3.8704   3.9730   3.9941   4.0153
     4.0830   4.1647   4.3303   4.3534   4.4177   4.5247

[...]

          k = 0.0380-0.0419 0.0000 ( 17876 PWs)   bands (ev):

[...]

          k =-0.0760-0.0000 0.0000 ( 17886 PWs)   bands (ev):

[...]

          k =-0.0760-0.0839 0.0000 ( 17948 PWs)   bands (ev):

   -55.3283 -55.2402 -55.2312 -55.1382 -55.1182 -55.0933 -55.0510 -55.0462
   -55.0373 -55.0291 -55.0166 -54.9950 -54.8957 -54.8269 -54.1966 -54.1960
   -31.6427 -31.5787 -31.5690 -31.5512 -31.5424 -31.5422 -31.5363 -31.5206
   -31.4585 -31.4539 -31.4150 -31.3938 -31.3818 -31.3768 -31.3603 -31.3584
   -31.3546 -31.3529 -31.3456 -31.3401 -31.3350 -31.3328 -31.3176 -31.3158
   -31.2970 -31.2861 -31.2569 -31.2505 -31.2472 -31.2430 -31.2351 -31.2341
   -31.2273 -31.2224 -31.2187 -31.2142 -31.2117 -31.1737 -31.1551 -31.0922
   -31.0746 -31.0310 -30.5236 -30.5232 -30.4333 -30.4317 -30.3935 -30.3925
   -21.3945 -19.7082 -16.1122 -15.5356 -15.3791 -15.2080 -15.1942 -15.1149
   -15.0233 -15.0056 -14.9750 -14.9616 -14.9445 -14.9201 -14.9119 -14.8768
   -14.8138 -14.7719 -14.7488 -14.7406 -14.6937 -14.6884 -14.6848 -14.6221
   -14.6149 -14.5968 -14.5720 -14.5121 -14.5032 -14.4028 -14.3877 -14.2156
   -12.6989 -12.6982 -10.5747  -6.7322  -6.4141  -4.6311  -4.5808  -4.5523
    -4.3990  -3.6173  -3.3533  -2.6839  -2.5995  -2.5366  -2.4318  -2.3535
    -2.2998  -2.2501  -2.2292  -2.1841  -2.1630  -2.0935  -2.0589  -2.0500
    -2.0306  -2.0285  -1.9980  -1.9826  -1.9698  -1.9486  -1.9202  -1.9030
    -1.8924  -1.8715  -1.8515  -1.8257  -1.8135  -1.8037  -1.7888  -1.7728
    -1.6621  -1.6453  -1.6126  -1.4500  -1.4386  -1.3694  -1.3378  -1.3112
    -1.3076  -1.2772  -1.2622  -1.2203  -1.1149  -1.0868  -1.0376  -0.9966
    -0.9032  -0.8873  -0.8364  -0.7855  -0.7396  -0.7110  -0.6806  -0.6653
    -0.6115  -0.4733  -0.4525  -0.4074  -0.2882  -0.2149  -0.1992  -0.1867
    -0.1650  -0.1418  -0.0953  -0.0871  -0.0253  -0.0127   0.0581   0.0621
     0.0912   0.1127   0.2152   0.3373   0.4158   0.4597   0.5047   0.5540
     0.5878   0.6701   0.7464   0.8327   0.9088   0.9383   0.9520   1.0699
     1.1023   1.1548   1.2007   1.2208   1.2792   1.3149   1.3551   1.3882
     2.1728   2.1865   2.2429   2.2484   4.0509   4.3011   4.3611   4.3784
     4.3881   4.4204   4.4413   4.4927   4.5097   4.5334

     the Fermi energy is     3.8805 ev

!    total energy              =   -3006.45808724 Ry
     estimated scf accuracy    <       0.00000007 Ry
     smearing contrib. (-TS)   =      -0.02082832 Ry
     internal energy E=F+TS    =   -3006.43725893 Ry

     The total energy is F=E-TS. E is the sum of the following terms:
     one-electron contribution =  -22317.53087219 Ry
     hartree contribution      =   11258.29325693 Ry
     xc contribution           =    -501.12957172 Ry
     ewald contribution        =    8553.92784707 Ry
     electric field correction =       0.00208099 Ry

     convergence has been achieved in  67 iterations

     Forces acting on atoms (cartesian axes, Ry/au):

     atom    1 type  1   force =    -0.00037639   -0.00017315    0.09499816
     atom    2 type  1   force =    -0.00034857    0.00511687   -0.17480866
     atom    3 type  2   force =     0.00070879    0.00013001   -0.02673289
     atom    4 type  2   force =     0.00128959    0.00083275    0.05205349
     atom    5 type  2   force =    -0.01095809   -0.00255869    0.00076425
     atom    6 type  2   force =     0.01193005   -0.00381010    0.00177391
     atom    7 type  1   force =    -0.00022400    0.00038588    0.00064687
     atom    8 type  1   force =     0.00013566    0.00022895    0.00013345
     atom    9 type  2   force =     0.00024883    0.00075379   -0.00066789
     atom   10 type  2   force =    -0.00039047    0.00015819    0.00012998
     atom   11 type  2   force =     0.00043821   -0.00014920    0.00010598
     atom   12 type  2   force =    -0.00084238   -0.00015002    0.00036111
     atom   13 type  1   force =     0.00043166    0.00034980   -0.00021863
     atom   14 type  1   force =    -0.00033787   -0.00070054    0.00094728
     atom   15 type  2   force =    -0.00014135   -0.00053308   -0.00100633
     atom   16 type  2   force =    -0.00027584    0.00000518   -0.00021846
     atom   17 type  2   force =    -0.00098033    0.00031018   -0.00000360
     atom   18 type  2   force =     0.00048819    0.00069758   -0.00006736
     atom   19 type  1   force =     0.00023915   -0.00081905    0.00026398
     atom   20 type  1   force =    -0.00024596    0.00007819    0.00042570
     atom   21 type  2   force =    -0.00000395    0.00007594    0.10302465
     atom   22 type  2   force =    -0.00002578   -0.00014238    0.00098575
     atom   23 type  2   force =    -0.07196331    0.00014251   -0.02803639
     atom   24 type  2   force =     0.07179979    0.00063865   -0.02813851
     atom   25 type  1   force =    -0.00036022    0.00025793    0.10244581
     atom   26 type  1   force =    -0.00010066   -0.00474457   -0.17504473
     atom   27 type  2   force =     0.00084909    0.00117235   -0.02485325
     atom   28 type  2   force =     0.00119718    0.00025291    0.05169112
     atom   29 type  2   force =    -0.01191799    0.00381475    0.00170978
     atom   30 type  2   force =     0.01375774    0.00146364    0.00243853
     atom   31 type  1   force =    -0.00029793   -0.00017471    0.00078982
     atom   32 type  1   force =     0.00029236    0.00029526    0.00056009
     atom   33 type  2   force =     0.00000790    0.00020922    0.00008723
     atom   34 type  2   force =    -0.00027255   -0.00032125   -0.00057887
     atom   35 type  2   force =    -0.00023212    0.00004666   -0.00047897
     atom   36 type  2   force =    -0.00037595    0.00009178   -0.00009759
     atom   37 type  1   force =    -0.00005799   -0.00036069    0.00005073
     atom   38 type  1   force =    -0.00056861    0.00026495   -0.00000136
     atom   39 type  2   force =    -0.00025081   -0.00024618    0.00077796
     atom   40 type  2   force =    -0.00019932    0.00011694    0.00028946
     atom   41 type  2   force =    -0.00140200   -0.00026037   -0.00004336
     atom   42 type  2   force =     0.00107949   -0.00013691   -0.00048571
     atom   43 type  1   force =    -0.00017248    0.00054962    0.00020007
     atom   44 type  1   force =    -0.00006991    0.00011820    0.00012776
     atom   45 type  2   force =     0.00000070    0.00013891    0.10259757
     atom   46 type  2   force =    -0.07186012   -0.00062849   -0.02798209
     atom   47 type  2   force =     0.07171826   -0.00013785   -0.02805719
     atom   48 type  3   force =    -0.00032638   -0.00014723    0.00003477
     atom   49 type  2   force =    -0.00119715   -0.00078651    0.00021875
     atom   50 type  4   force =    -0.00006906   -0.00044433   -0.00021851
     atom   51 type  4   force =     0.00035514    0.00039291   -0.00067903
     atom   52 type  4   force =    -0.00020209    0.00008848   -0.00045044
     atom   53 type  4   force =    -0.00001680   -0.00039253   -0.00106662
     atom   54 type  5   force =    -0.02833203    0.00183729   -0.02807425
     atom   55 type  5   force =     0.02794704   -0.00184748    0.02807350
     atom   56 type  2   force =     0.00077628   -0.00055184    0.00049409
     atom   57 type  4   force =    -0.00029461   -0.00079912   -0.00119085

     Total force =     0.369128     Total SCF correction =     0.000609
  @ DRIVER MODE: Message from server: STATUS
  @ DRIVER MODE: Message from server: GETFORCE
  @ DRIVER MODE: Returning v,forces,stress,ensemble

     Writing output data file ./calc.save/
  @ DRIVER MODE: Message from server: EXIT
  @ DRIVE MODE: Exiting

     General routines

     Parallel routines

   This run was terminated on:  16:27:36  26Sep2021

   JOB DONE.