     Program PWSCF v.6.7GPU starts on 19Oct2021 at  9:10: 0

     R & G space division:  proc/nbgrp/npool/nimage =       8
     Reading input from /storage/home/hcoda1/3/ntian30/research/carbon/CxH_vib/Thiel_calc/ads_slab/NH2NH2HH_perslab/out_0044/pw.inp
Warning: card &CELL ignored
Warning: card   CELL_DYNAMICS='IPI', ignored
Warning: card / ignored

     Current dimensions of program PWSCF are:
     Max number of different atomic species (ntypx) = 10
     Max number of k-points (npk) =  40000
     Max angular momentum in pseudopotentials (lmaxx) =  3
     Presently no symmetry can be used with electric field

     Message from routine cell_base_init:
     DEPRECATED: use true lattice parameter, not A to a.u. conversion factor

     IMPORTANT: XC functional enforced from input :
     Exchange-correlation= BEEF-VDW
                           (   1   4  43  14   2   0   0)
     Any further DFT definition will be discarded
     Please, verify this is what you really want

  @ DRIVER MODE: Connecting to
 qe_1139763_3255137.sched-torque.pace.gatech.educzsruzmy_scratch
  using UNIX socket
  @ DRIVER MODE: Message from server: STATUS
  @ DRIVER MODE: Message from server: INIT
  @ DRIVER MODE: Receiving replica           0          -1
  @ DRIVER MODE: Receiving encoded integer          25
  @ DRIVER MODE:  SCF:  T  FORCE:  T  STRESS:  F  VC:  F  ENSEMBLE:  F
  @ DRIVER MODE:  SCF:  T  FORCE:  T  STRESS:  F  VC:  F  ENSEMBLE:  F

     Using Slab Decomposition

     bravais-lattice index     =            0
     lattice parameter (alat)  =       1.8897  a.u.
     unit-cell volume          =    9988.4706 (a.u.)^3
     number of atoms/cell      =           61
     number of atomic types    =            4
     number of electrons       =       442.00
     number of Kohn-Sham states=          231
     kinetic-energy cutoff     =      29.3995  Ry
     charge density cutoff     =     293.9946  Ry
     scf convergence threshold =      7.3E-08
     mixing beta               =       0.0500
     number of iterations used =            8  plain     mixing
     Exchange-correlation= BEEF-VDW
                           (   1   4  43  14   2   0   0)

     celldm(1)=   1.889726  celldm(2)=   0.000000  celldm(3)=   0.000000
     celldm(4)=   0.000000  celldm(5)=   0.000000  celldm(6)=   0.000000

     crystal axes: (cart. coord. in units of alat)
               a(1) = (   6.579727   0.000000   0.000000 )
               a(2) = (  -0.001163   8.942395   0.000000 )
               a(3) = (   0.000000   0.000000  25.155947 )

     reciprocal axes: (cart. coord. in units 2 pi/alat)
               b(1) = (  0.151982  0.000020  0.000000 )
               b(2) = (  0.000000  0.111827  0.000000 )
               b(3) = (  0.000000  0.000000  0.039752 )

     PseudoPot. # 1 for O  read from file:
     /storage/coda1/p-amedford6/0/shared/rich_project_chbe-medford/medford-share/data/pseudos_module/espresso/nninc/pbe/van/O.UPF
     MD5 check sum: 78c19812648e8988a0fe644b0f25305e
     Pseudo is Ultrasoft, Zval =  6.0
     Generated by new atomic code, or converted to UPF format
     Using radial grid of  737 points,  4 beta functions with:
                l(1) =   0
                l(2) =   0
                l(3) =   1
                l(4) =   1
     Q(r) pseudized with  8 coefficients,  rinner =    0.800   0.800   0.800

     PseudoPot. # 2 for Ti read from file:
     /storage/coda1/p-amedford6/0/shared/rich_project_chbe-medford/medford-share/data/pseudos_module/espresso/nninc/pbe/van/Ti.UPF
     MD5 check sum: 8e4df49b7f0d34bbd5052bf3f5ea0213
     Pseudo is Ultrasoft, Zval = 12.0
     Generated by new atomic code, or converted to UPF format
     Using radial grid of  851 points,  6 beta functions with:
                l(1) =   0
                l(2) =   0
                l(3) =   1
                l(4) =   1
                l(5) =   2
                l(6) =   2
     Q(r) pseudized with  8 coefficients,  rinner =    1.000   1.000   1.000
                                                       1.000   1.000

     PseudoPot. # 3 for N  read from file:
     /storage/coda1/p-amedford6/0/shared/rich_project_chbe-medford/medford-share/data/pseudos_module/espresso/nninc/pbe/van/N.UPF
     MD5 check sum: 90d10febe142ad51ac9d5be1deb811c4
     Pseudo is Ultrasoft, Zval =  5.0
     Generated by new atomic code, or converted to UPF format
     Using radial grid of  729 points,  4 beta functions with:
                l(1) =   0
                l(2) =   0
                l(3) =   1
                l(4) =   1
     Q(r) pseudized with  8 coefficients,  rinner =    0.800   0.800   0.800

     PseudoPot. # 4 for H  read from file:
     /storage/coda1/p-amedford6/0/shared/rich_project_chbe-medford/medford-share/data/pseudos_module/espresso/nninc/pbe/van/H.UPF
     MD5 check sum: b5ee9d7bfd3a09ee7748110bda690ff7
     Pseudo is Ultrasoft, Zval =  1.0
     Generated by new atomic code, or converted to UPF format
     Using radial grid of  615 points,  1 beta functions with:
                l(1) =   0
     Q(r) pseudized with  8 coefficients,  rinner =    0.800

     atomic species   valence    mass     pseudopotential
        O1             6.00    15.99900     O ( 1.00)
        Ti1           12.00    47.86700     Ti( 1.00)
        N1             5.00    14.00700     N ( 1.00)
        H1             1.00     1.00800     H ( 1.00)

     No symmetry found

   Cartesian axes

     site n.     atom                  positions (alat units)
         1           O1  tau(   1) = (   0.0007354   0.0005023  10.5931620  )
         2           O1  tau(   2) = (   3.2456387   0.0208629  13.8623892  )
         3           O1  tau(   3) = (   6.5569189   0.0555649  17.3369326  )
         4           O1  tau(   4) = (   0.0006271   0.0005054   7.9858123  )
         5           O1  tau(   5) = (   3.2933513   8.9300833  11.1812556  )
         6           O1  tau(   6) = (   0.0337597   0.0712708  14.6279364  )
         7           O1  tau(   7) = (   1.9868534   1.4903216   9.2879459  )
         8           O1  tau(   8) = (   5.2215124   1.6184176  12.5791628  )
         9           O1  tau(   9) = (   1.9922958   1.5902288  16.0980526  )
        10           Ti1 tau(  10) = (   0.0007404   1.4906270   9.2895810  )
        11           Ti1 tau(  11) = (   3.2860490   1.3455809  12.4359399  )
        12           Ti1 tau(  12) = (   6.5618936   1.3602716  15.8812525  )
        13           O1  tau(  13) = (   4.5942328   1.4918067   9.2879030  )
        14           O1  tau(  14) = (   1.3307156   1.5887400  12.5381291  )
        15           O1  tau(  15) = (   4.5725103   1.6118788  16.0006659  )
        16           Ti1 tau(  16) = (   3.2902859   2.9801868   9.2893338  )
        17           Ti1 tau(  17) = (   0.0046584   2.8227806  12.4510757  )
        18           Ti1 tau(  18) = (   3.2555632   2.8898243  15.6661830  )
        19           O1  tau(  19) = (   0.0003479   2.9813005  10.5931620  )
        20           O1  tau(  20) = (   3.2279248   2.9553539  13.8813459  )
        21           O1  tau(  21) = (   0.0002396   2.9813036   7.9858123  )
        22           O1  tau(  22) = (   3.2889556   2.9859946  11.1941525  )
        23           O1  tau(  23) = (   0.0559812   2.9852445  14.6488683  )
        24           O1  tau(  24) = (   1.9864658   4.4711199   9.2879459  )
        25           O1  tau(  25) = (   5.2314886   4.5920767  12.6107679  )
        26           O1  tau(  26) = (   1.9969377   4.5324570  16.1535429  )
        27           Ti1 tau(  27) = (   0.0003529   4.4714252   9.2895810  )
        28           Ti1 tau(  28) = (   3.2845268   4.3564118  12.5295435  )
        29           Ti1 tau(  29) = (   6.5676402   4.3565080  15.8255799  )
        30           O1  tau(  30) = (   4.5938453   4.4726049   9.2879030  )
        31           O1  tau(  31) = (   1.3315080   4.5776727  12.5731030  )
        32           O1  tau(  32) = (   4.5871741   4.4544688  15.9274438  )
        33           Ti1 tau(  33) = (   3.2898983   5.9609850   9.2893338  )
        34           Ti1 tau(  34) = (   6.5783773   5.8108302  12.4536689  )
        35           Ti1 tau(  35) = (   3.3162440   5.8110762  16.0333210  )
        36           O1  tau(  36) = (  -0.0000397   5.9620987  10.5931620  )
        37           O1  tau(  37) = (   3.2636778   5.9869953  13.9790019  )
        38           O1  tau(  38) = (   6.4104969   6.0475349  17.2872242  )
        39           O1  tau(  39) = (  -0.0001480   5.9621018   7.9858123  )
        40           O1  tau(  40) = (   3.2905218   5.9516507  11.2202175  )
        41           O1  tau(  41) = (   0.0617018   5.9803669  14.6637187  )
        42           O1  tau(  42) = (   1.9860782   7.4519181   9.2879459  )
        43           O1  tau(  43) = (   5.2407037   7.5572870  12.6049163  )
        44           O1  tau(  44) = (   1.9881273   7.5959696  16.0809372  )
        45           Ti1 tau(  45) = (  -0.0000347   7.4522234   9.2895810  )
        46           Ti1 tau(  46) = (   3.2912638   7.2305267  12.6172466  )
        47           Ti1 tau(  47) = (   0.0232661   7.3094817  15.9177444  )
        48           O1  tau(  48) = (   4.5934577   7.4534031   9.2879030  )
        49           O1  tau(  49) = (   1.3287160   7.5404973  12.5734398  )
        50           O1  tau(  50) = (   4.6507959   7.6754627  15.9163669  )
        51           Ti1 tau(  51) = (   3.2895107   8.9417832   9.2893338  )
        52           Ti1 tau(  52) = (   0.0077981   8.7799231  12.4640552  )
        53           Ti1 tau(  53) = (   3.2910717   8.8534038  15.6608489  )
        54           N1  tau(  54) = (   3.7626148   6.0985185  18.0019073  )
        55           H1  tau(  55) = (   3.4663780   5.3841571  18.6619304  )
        56           H1  tau(  56) = (   3.5565419   6.9988739  18.4208443  )
        57           N1  tau(  57) = (   6.5319303   3.0529623  17.4095181  )
        58           H1  tau(  58) = (   5.7013393   3.0140474  17.9904383  )
        59           H1  tau(  59) = (   0.7603229   3.1006543  18.0203722  )
        60           H1  tau(  60) = (   5.4974376   6.0468821  17.7423635  )
        61           H1  tau(  61) = (   0.7424116   0.0679216  17.9402240  )

     number of k points=    10  Fermi-Dirac smearing, width (Ry)=  0.0073
                       cart. coord. in units 2pi/alat
        k(    1) = (   0.0000000   0.0000000   0.0000000), wk =   0.1250000
        k(    2) = (   0.0000000   0.0279567   0.0000000), wk =   0.2500000
        k(    3) = (   0.0000000  -0.0559134   0.0000000), wk =   0.1250000
        k(    4) = (   0.0379955   0.0000049   0.0000000), wk =   0.2500000
        k(    5) = (   0.0379955   0.0279617   0.0000000), wk =   0.2500000
        k(    6) = (   0.0379955  -0.0559085   0.0000000), wk =   0.2500000
        k(    7) = (   0.0379955  -0.0279518   0.0000000), wk =   0.2500000
        k(    8) = (  -0.0759910  -0.0000099   0.0000000), wk =   0.1250000
        k(    9) = (  -0.0759910   0.0279468   0.0000000), wk =   0.2500000
        k(   10) = (  -0.0759910  -0.0559233   0.0000000), wk =   0.1250000

     Initial potential from superposition of free atoms

     starting charge  423.99908, renormalised to  442.00000

     negative rho (up, down):  3.745E-02 0.000E+00

     %%%%%%%%%%%%%%%%%%%%%%%%%%%%%%%%%%%%%%%%%%%%%%%%%%%%%%%%%%%%%%%%%%%%%%%%
     %                                                                      %
     % You are using vdW-DF, which was implemented by the Thonhauser group. %
     % Please cite the following two papers that made this development      %
     % possible and the two reviews that describe the various versions:     %
     %                                                                      %
     %   T. Thonhauser et al., PRL 115, 136402 (2015).                      %
     %   T. Thonhauser et al., PRB 76, 125112 (2007).                       %
     %   K. Berland et al., Rep. Prog. Phys. 78, 066501 (2015).             %
     %   D.C. Langreth et al., J. Phys.: Condens. Matter 21, 084203 (2009). %
     %                                                                      %
     %                                                                      %
     % If you are calculating the stress with vdW-DF, please also cite:     %
     %                                                                      %
     %   R. Sabatini et al., J. Phys.: Condens. Matter 24, 424209 (2012).   %
     %                                                                      %
     %%%%%%%%%%%%%%%%%%%%%%%%%%%%%%%%%%%%%%%%%%%%%%%%%%%%%%%%%%%%%%%%%%%%%%%%

     Adding external electric field

     Computed dipole along edir(3) :
        Dipole               -5.9687 Ry au,        -15.1708 Debye
        Dipole field         -0.0075 Ry au,

        Potential amp.        0.6961 Ry
        Total length         46.3494 bohr

     Starting wfcs are  334 atomic wfcs
  @ DRIVER MODE: Message from server: STATUS
  @ DRIVER MODE: Message from server: POSDATA
  @ DRIVER MODE: Reading and sharing cell
  @ DRIVER MODE: Reading and sharing positions
  @ DRIVER MODE: Received positions

     Self-consistent Calculation

     iteration #  1     ecut=    29.40 Ry     beta= 0.05
     Davidson diagonalization with overlap
     c_bands:  2 eigenvalues not converged
     c_bands:  3 eigenvalues not converged
     c_bands:  5 eigenvalues not converged
     c_bands:  3 eigenvalues not converged
     c_bands:  5 eigenvalues not converged
     c_bands:  5 eigenvalues not converged
     c_bands:  4 eigenvalues not converged
     c_bands:  3 eigenvalues not converged
     c_bands:  2 eigenvalues not converged
     c_bands:  4 eigenvalues not converged
     ethr =  1.00E-05,  avg # of iterations = 20.0

[...]

     total energy              =   -3277.93088264 Ry
     estimated scf accuracy    <     239.71778052 Ry

     iteration #  2     ecut=    29.40 Ry     beta= 0.05
     Davidson diagonalization with overlap
     ethr =  1.00E-02,  avg # of iterations = 16.5

[...]

     iteration # 48     ecut=    29.40 Ry     beta= 0.05
     Davidson diagonalization with overlap
     c_bands:  1 eigenvalues not converged
     ethr =  1.67E-11,  avg # of iterations = 13.3

[...]

     total energy              =   -3295.80734534 Ry
     estimated scf accuracy    <       0.00000008 Ry

     iteration # 49     ecut=    29.40 Ry     beta= 0.05
     Davidson diagonalization with overlap
     ethr =  1.67E-11,  avg # of iterations =  2.0

     negative rho (up, down):  3.606E-02 0.000E+00

     Adding external electric field

     Computed dipole along edir(3) :
        Dipole                1.5088 Ry au,          3.8349 Debye
        Dipole field          0.0019 Ry au,

        Potential amp.       -0.1760 Ry
        Total length         46.3494 bohr

     End of self-consistent calculation

          k = 0.0000 0.0000 0.0000 ( 26871 PWs)   bands (ev):

   -57.7254 -57.6997 -57.6893 -57.6617 -57.6541 -57.6199 -57.6069 -57.5989
   -57.5715 -57.5577 -57.5088 -57.4782 -57.4618 -57.4555 -57.4474 -56.7472
   -56.7231 -56.7186 -34.1070 -34.1039 -34.0950 -34.0861 -34.0729 -34.0572
   -34.0559 -34.0425 -34.0294 -34.0182 -33.9883 -33.9699 -33.9504 -33.9442
   -33.9365 -33.9181 -33.9119 -33.9108 -33.8930 -33.8878 -33.8656 -33.8626
   -33.8432 -33.8333 -33.8295 -33.8235 -33.8126 -33.8107 -33.8049 -33.7952
   -33.7842 -33.7822 -33.7682 -33.7326 -33.7230 -33.7191 -33.7042 -33.7036
   -33.6961 -33.6951 -33.6836 -33.6752 -33.6683 -33.6625 -33.6401 -33.0625
   -33.0614 -33.0570 -33.0454 -33.0412 -32.9733 -32.9113 -32.9060 -32.7731
   -19.2583 -18.7587 -18.5259 -18.2272 -18.0168 -17.9745 -17.9413 -17.8199
   -17.7845 -17.7604 -17.6631 -17.6518 -17.5883 -17.5342 -17.5063 -17.4573
   -17.4398 -17.3790 -17.3651 -17.3567 -17.3514 -17.3412 -17.3310 -17.2659
   -17.2384 -17.2105 -17.1713 -17.1556 -17.1491 -17.1416 -17.1189 -16.8465
   -15.5011 -15.2136 -15.1555 -15.1542 -15.0833  -6.9585  -6.8118  -6.6482
    -6.3421  -5.8609  -5.7873  -5.6378  -5.5139  -5.2219  -5.1939  -5.1427
    -5.1158  -5.0871  -5.0224  -5.0024  -4.9894  -4.9342  -4.9165  -4.8441
    -4.8212  -4.7799  -4.7559  -4.7301  -4.6848  -4.6443  -4.6178  -4.6058
    -4.5752  -4.5677  -4.5112  -4.4876  -4.4581  -4.4524  -4.4362  -4.3269
    -4.2950  -4.2387  -4.1696  -4.0923  -4.0397  -4.0316  -3.9751  -3.9558
    -3.9032  -3.8634  -3.8261  -3.8177  -3.7813  -3.7428  -3.6417  -3.6112
    -3.5882  -3.5226  -3.5005  -3.4319  -3.4143  -3.3807  -3.3394  -3.3336
    -3.2965  -3.1988  -3.1644  -3.0843  -3.0273  -2.9743  -2.9347  -2.8905
    -2.8436  -2.8109  -2.7853  -2.7037  -2.6277  -2.5442  -2.4938  -2.4810
    -2.4693  -2.4185  -2.4118  -2.4089  -2.3522  -2.3261  -2.3153  -2.2779
    -2.2261  -2.2035  -2.1412  -2.0957  -2.0612  -1.9936  -1.9780  -1.8972
    -1.8881  -1.8266  -1.7840  -1.7446  -1.6332  -1.5979  -1.5658  -1.5632
    -1.4444  -1.4081  -1.1441  -1.0050  -0.7870  -0.7541  -0.5006  -0.4518
    -0.4490  -0.1861  -0.1827  -0.0544   1.3216   1.5103   1.6438   1.6995
     1.7043   1.7378   1.8038   1.8906   1.9165   1.9631   1.9948

[...]

          k = 0.0380-0.0280 0.0000 ( 26873 PWs)   bands (ev):

[...]

          k =-0.0760-0.0000 0.0000 ( 26902 PWs)   bands (ev):

[...]

          k =-0.0760-0.0559 0.0000 ( 26868 PWs)   bands (ev):

   -57.7219 -57.7073 -57.6851 -57.6605 -57.6541 -57.6206 -57.6082 -57.5986
   -57.5709 -57.5574 -57.5091 -57.4732 -57.4656 -57.4613 -57.4426 -56.7410
   -56.7357 -56.7122 -34.1943 -34.1573 -34.1536 -34.0949 -34.0607 -34.0531
   -34.0423 -34.0396 -34.0023 -33.9685 -33.9342 -33.9200 -33.9152 -33.9137
   -33.9029 -33.8998 -33.8808 -33.8734 -33.8690 -33.8685 -33.8645 -33.8594
   -33.8543 -33.8456 -33.8318 -33.8268 -33.8243 -33.8191 -33.8146 -33.7941
   -33.7936 -33.7709 -33.7642 -33.7567 -33.7509 -33.7327 -33.7260 -33.7209
   -33.7011 -33.7009 -33.6989 -33.6956 -33.6865 -33.6681 -33.6515 -33.1513
   -33.0622 -33.0570 -33.0346 -32.9548 -32.9489 -32.8872 -32.8726 -32.8673
   -19.2431 -18.7344 -18.2725 -18.1357 -17.9640 -17.9222 -17.8481 -17.8354
   -17.8233 -17.7943 -17.7022 -17.6791 -17.6525 -17.5695 -17.5502 -17.5007
   -17.4569 -17.4436 -17.4250 -17.4144 -17.4063 -17.3895 -17.3557 -17.3237
   -17.2913 -17.2389 -17.1774 -17.1580 -17.1098 -17.0950 -17.0643 -16.8802
   -15.4958 -15.2116 -15.2095 -15.0927 -15.0846  -6.9651  -6.8420  -6.6404
    -6.3235  -5.5175  -5.4544  -5.3712  -5.3560  -5.2382  -5.2061  -5.0144
    -5.0046  -4.9898  -4.9578  -4.9259  -4.8896  -4.8631  -4.8389  -4.8253
    -4.8113  -4.7901  -4.7642  -4.7524  -4.7360  -4.6919  -4.6451  -4.6387
    -4.6277  -4.6052  -4.5510  -4.5060  -4.4779  -4.4255  -4.4217  -4.3417
    -4.3183  -4.3003  -4.2258  -4.2180  -4.0971  -3.9487  -3.8876  -3.8676
    -3.8435  -3.7964  -3.7858  -3.7328  -3.7109  -3.6938  -3.5561  -3.4739
    -3.4511  -3.4162  -3.3850  -3.3621  -3.3261  -3.2987  -3.2768  -3.2513
    -3.2352  -3.1821  -3.1657  -3.1233  -3.0805  -2.9988  -2.9552  -2.8970
    -2.8742  -2.8558  -2.8375  -2.8337  -2.8132  -2.7804  -2.7514  -2.6953
    -2.6864  -2.6561  -2.5844  -2.5299  -2.5021  -2.4772  -2.4351  -2.4281
    -2.2733  -2.2535  -2.2203  -2.2087  -2.1349  -2.0916  -1.9996  -1.9734
    -1.9508  -1.8797  -1.8079  -1.7644  -1.7081  -1.5115  -1.5028  -1.3837
    -1.3469  -1.2980  -1.2724  -1.2287  -1.0697  -0.7350  -0.6631  -0.3799
    -0.3686  -0.3427  -0.1873  -0.1810   1.4289   1.4524   1.5375   1.5939
     1.6126   1.6503   1.6632   1.7023   1.7228   1.7794   1.9144

     the Fermi energy is     1.3725 ev

!    total energy              =   -3295.80746649 Ry
     estimated scf accuracy    <       0.00000006 Ry
     smearing contrib. (-TS)   =      -0.03572086 Ry
     internal energy E=F+TS    =   -3295.77174564 Ry

     The total energy is F=E-TS. E is the sum of the following terms:
     one-electron contribution =  -34705.68294517 Ry
     hartree contribution      =   17418.75584557 Ry
     xc contribution           =    -543.85786221 Ry
     ewald contribution        =   14535.01035231 Ry
     electric field correction =       0.00286387 Ry

     convergence has been achieved in  49 iterations

     Forces acting on atoms (cartesian axes, Ry/au):

     atom    1 type  1   force =    -0.00168799    0.00377541    0.05471057
     atom    2 type  1   force =     0.00024068   -0.00250230   -0.00840610
     atom    3 type  1   force =     0.01214461   -0.00341459    0.00975220
     atom    4 type  1   force =     0.00004514   -0.00003010    0.10677259
     atom    5 type  1   force =    -0.00020437    0.00066758    0.00660294
     atom    6 type  1   force =     0.00003140   -0.00448093    0.00363864
     atom    7 type  1   force =     0.06649154    0.00079923   -0.02967252
     atom    8 type  1   force =     0.00658729   -0.02713156    0.00194580
     atom    9 type  1   force =     0.00667230   -0.02260232    0.00516454
     atom   10 type  2   force =    -0.00011998   -0.00451013   -0.18344354
     atom   11 type  2   force =     0.00067136    0.02088075   -0.00414382
     atom   12 type  2   force =    -0.00179107    0.02771112   -0.00657996
     atom   13 type  1   force =    -0.06655140    0.00045140   -0.02981847
     atom   14 type  1   force =    -0.00433365   -0.02770477    0.00252796
     atom   15 type  1   force =    -0.00656298   -0.02340952    0.00506184
     atom   16 type  2   force =     0.00008578    0.00068861    0.06699446
     atom   17 type  2   force =    -0.00237779    0.03351038    0.00352365
     atom   18 type  2   force =     0.00128956    0.02459161   -0.00365672
     atom   19 type  1   force =    -0.00169868    0.00674963    0.05326884
     atom   20 type  1   force =     0.00023637   -0.00117164   -0.00661154
     atom   21 type  1   force =     0.00003345    0.00109898    0.10724346
     atom   22 type  1   force =    -0.00025412   -0.00199845    0.00722808
     atom   23 type  1   force =     0.00072932   -0.00578460    0.00411920
     atom   24 type  1   force =     0.06751841    0.00136946   -0.02907823
     atom   25 type  1   force =     0.00527941   -0.03016116    0.00244743
     atom   26 type  1   force =     0.00675035   -0.02609837   -0.00413538
     atom   27 type  2   force =     0.00011423   -0.00121342   -0.18672630
     atom   28 type  2   force =     0.00007674    0.02385752   -0.00247971
     atom   29 type  2   force =    -0.00112620    0.02210866    0.00088990
     atom   30 type  1   force =    -0.06762392    0.00086469   -0.02893044
     atom   31 type  1   force =    -0.00537424   -0.02962272    0.00278763
     atom   32 type  1   force =    -0.00430058   -0.02248307    0.00259285
     atom   33 type  2   force =    -0.00005027    0.00131085    0.07476607
     atom   34 type  2   force =     0.00093127    0.03692710    0.00407922
     atom   35 type  2   force =    -0.00214783    0.03474369    0.00499105
     atom   36 type  1   force =    -0.00186639    0.00288209    0.05589666
     atom   37 type  1   force =     0.00132337    0.00402845   -0.01133951
     atom   38 type  1   force =     0.00015183   -0.00408618    0.00418447
     atom   39 type  1   force =     0.00002158   -0.00063709    0.10724720
     atom   40 type  1   force =     0.00015616   -0.00140637    0.00717124
     atom   41 type  1   force =    -0.00024958   -0.00398822    0.00179301
     atom   42 type  1   force =     0.06785053   -0.00221026   -0.02971435
     atom   43 type  1   force =     0.00368316   -0.02635792    0.00152426
     atom   44 type  1   force =     0.01003692   -0.01796530    0.00270908
     atom   45 type  2   force =     0.00003045    0.00218041   -0.18330546
     atom   46 type  2   force =    -0.00023538    0.01480056    0.00204128
     atom   47 type  2   force =     0.00294463    0.02650758   -0.00875270
     atom   48 type  1   force =    -0.06791757   -0.00283772   -0.02986740
     atom   49 type  1   force =    -0.00375012   -0.02549918    0.00182642
     atom   50 type  1   force =    -0.00789305   -0.02362734    0.00529332
     atom   51 type  2   force =     0.00045198   -0.00349345    0.06842473
     atom   52 type  2   force =    -0.00010467    0.03118517    0.00598463
     atom   53 type  2   force =    -0.00206451    0.02596985   -0.00067663
     atom   54 type  3   force =     0.00070037   -0.00196043   -0.00090297
     atom   55 type  4   force =    -0.00073486    0.00039606   -0.00050539
     atom   56 type  4   force =     0.00029808    0.00087901    0.00128768
     atom   57 type  3   force =     0.00131358   -0.00265818   -0.00032140
     atom   58 type  4   force =     0.00050458    0.00102405   -0.00006082
     atom   59 type  4   force =     0.00005809    0.00027631    0.00071632
     atom   60 type  4   force =    -0.00137307    0.00009457    0.00010565
     atom   61 type  4   force =    -0.01306023   -0.00128351   -0.00818556

     Total force =     0.460056     Total SCF correction =     0.000673
  @ DRIVER MODE: Message from server: STATUS
  @ DRIVER MODE: Message from server: GETFORCE
  @ DRIVER MODE: Returning v,forces,stress,ensemble

     Writing output data file ./calc.save/
  @ DRIVER MODE: Message from server: EXIT
  @ DRIVE MODE: Exiting

     General routines

     Parallel routines

   This run was terminated on:   9:35:37  19Oct2021

   JOB DONE.