     Program PWSCF v.6.7GPU starts on 21Sep2021 at 12:32:33

     R & G space division:  proc/nbgrp/npool/nimage =      10
     Reading input from /storage/home/hcoda1/3/ntian30/research/carbon/CxH_vib/CH3_calc/ads_slab/CH3ON2_a/out_0002/pw.inp
Warning: card &CELL ignored
Warning: card   CELL_DYNAMICS='IPI', ignored
Warning: card / ignored

     Current dimensions of program PWSCF are:
     Max number of different atomic species (ntypx) = 10
     Max number of k-points (npk) =  40000
     Max angular momentum in pseudopotentials (lmaxx) =  3
     Presently no symmetry can be used with electric field

     Message from routine cell_base_init:
     DEPRECATED: use true lattice parameter, not A to a.u. conversion factor

     IMPORTANT: XC functional enforced from input :
     Exchange-correlation= BEEF-VDW
                           (   1   4  43  14   2   0   0)
     Any further DFT definition will be discarded
     Please, verify this is what you really want

  @ DRIVER MODE: Connecting to
 qe_1139763_2922197.sched-torque.pace.gatech.edua3bhuyoe_scratch
  using UNIX socket
  @ DRIVER MODE: Message from server: STATUS
  @ DRIVER MODE: Message from server: INIT
  @ DRIVER MODE: Receiving replica           0          -1
  @ DRIVER MODE: Receiving encoded integer          25
  @ DRIVER MODE:  SCF:  T  FORCE:  T  STRESS:  F  VC:  F  ENSEMBLE:  F
  @ DRIVER MODE:  SCF:  T  FORCE:  T  STRESS:  F  VC:  F  ENSEMBLE:  F

     Using Slab Decomposition

     bravais-lattice index     =            0
     lattice parameter (alat)  =       1.8897  a.u.
     unit-cell volume          =    6658.9804 (a.u.)^3
     number of atoms/cell      =           54
     number of atomic types    =            5
     number of electrons       =       401.00
     number of Kohn-Sham states=          210
     kinetic-energy cutoff     =      29.3995  Ry
     charge density cutoff     =     293.9946  Ry
     scf convergence threshold =      7.3E-08
     mixing beta               =       0.0500
     number of iterations used =            8  plain     mixing
     Exchange-correlation= BEEF-VDW
                           (   1   4  43  14   2   0   0)

     celldm(1)=   1.889726  celldm(2)=   0.000000  celldm(3)=   0.000000
     celldm(4)=   0.000000  celldm(5)=   0.000000  celldm(6)=   0.000000

     crystal axes: (cart. coord. in units of alat)
               a(1) = (   6.579727   0.000000   0.000000 )
               a(2) = (  -0.000775   5.961596   0.000000 )
               a(3) = (   0.000000   0.000000  25.155947 )

     reciprocal axes: (cart. coord. in units 2 pi/alat)
               b(1) = (  0.151982  0.000020  0.000000 )
               b(2) = (  0.000000  0.167740  0.000000 )
               b(3) = (  0.000000  0.000000  0.039752 )

     PseudoPot. # 1 for Ti read from file:
     /storage/coda1/p-amedford6/0/shared/rich_project_chbe-medford/medford-share/data/pseudos_module/espresso/nninc/pbe/van/Ti.UPF
     MD5 check sum: 8e4df49b7f0d34bbd5052bf3f5ea0213
     Pseudo is Ultrasoft, Zval = 12.0
     Generated by new atomic code, or converted to UPF format
     Using radial grid of  851 points,  6 beta functions with:
                l(1) =   0
                l(2) =   0
                l(3) =   1
                l(4) =   1
                l(5) =   2
                l(6) =   2
     Q(r) pseudized with  8 coefficients,  rinner =    1.000   1.000   1.000
                                                       1.000   1.000

     PseudoPot. # 2 for O  read from file:
     /storage/coda1/p-amedford6/0/shared/rich_project_chbe-medford/medford-share/data/pseudos_module/espresso/nninc/pbe/van/O.UPF
     MD5 check sum: 78c19812648e8988a0fe644b0f25305e
     Pseudo is Ultrasoft, Zval =  6.0
     Generated by new atomic code, or converted to UPF format
     Using radial grid of  737 points,  4 beta functions with:
                l(1) =   0
                l(2) =   0
                l(3) =   1
                l(4) =   1
     Q(r) pseudized with  8 coefficients,  rinner =    0.800   0.800   0.800

     PseudoPot. # 3 for C  read from file:
     /storage/coda1/p-amedford6/0/shared/rich_project_chbe-medford/medford-share/data/pseudos_module/espresso/nninc/pbe/van/C.UPF
     MD5 check sum: 1a69bf6b8db32088f5b2163dbdb77a27
     Pseudo is Ultrasoft, Zval =  4.0
     Generated by new atomic code, or converted to UPF format
     Using radial grid of  721 points,  4 beta functions with:
                l(1) =   0
                l(2) =   0
                l(3) =   1
                l(4) =   1
     Q(r) pseudized with  8 coefficients,  rinner =    0.800   0.800   0.800

     PseudoPot. # 4 for H  read from file:
     /storage/coda1/p-amedford6/0/shared/rich_project_chbe-medford/medford-share/data/pseudos_module/espresso/nninc/pbe/van/H.UPF
     MD5 check sum: b5ee9d7bfd3a09ee7748110bda690ff7
     Pseudo is Ultrasoft, Zval =  1.0
     Generated by new atomic code, or converted to UPF format
     Using radial grid of  615 points,  1 beta functions with:
                l(1) =   0
     Q(r) pseudized with  8 coefficients,  rinner =    0.800

     PseudoPot. # 5 for N  read from file:
     /storage/coda1/p-amedford6/0/shared/rich_project_chbe-medford/medford-share/data/pseudos_module/espresso/nninc/pbe/van/N.UPF
     MD5 check sum: 90d10febe142ad51ac9d5be1deb811c4
     Pseudo is Ultrasoft, Zval =  5.0
     Generated by new atomic code, or converted to UPF format
     Using radial grid of  729 points,  4 beta functions with:
                l(1) =   0
                l(2) =   0
                l(3) =   1
                l(4) =   1
     Q(r) pseudized with  8 coefficients,  rinner =    0.800   0.800   0.800

     atomic species   valence    mass     pseudopotential
        Ti1           12.00    47.86700     Ti( 1.00)
        O1             6.00    15.99900     O ( 1.00)
        C1             4.00    12.01100     C ( 1.00)
        H1             1.00     1.00800     H ( 1.00)
        N1             5.00    14.00700     N ( 1.00)

     No symmetry found

   Cartesian axes

     site n.     atom                  positions (alat units)
         1           Ti1 tau(   1) = (   0.0004258   2.9801865   6.0000000  )
         2           Ti1 tau(   2) = (   3.2906075   1.4906267   6.0002472  )
         3           O1  tau(   3) = (   0.0006271   0.0005054   7.9858123  )
         4           O1  tau(   4) = (   3.2906025   0.0005020   7.3038282  )
         5           O1  tau(   5) = (   4.5942328   1.4918067   9.2879030  )
         6           O1  tau(   6) = (   1.9868534   1.4903216   9.2879459  )
         7           Ti1 tau(   7) = (   3.3204934   3.0328528   9.1574130  )
         8           Ti1 tau(   8) = (   0.0292148   1.6159158   9.3632543  )
         9           O1  tau(   9) = (   3.3070435   0.0102262  11.3480939  )
        10           O1  tau(  10) = (   0.0088878   0.0096727  10.6115680  )
        11           O1  tau(  11) = (   1.3030819   1.4981340  12.6442205  )
        12           O1  tau(  12) = (   5.3040506   1.5010416  12.6455732  )
        13           Ti1 tau(  13) = (   0.0403577   3.0063940  12.8112948  )
        14           Ti1 tau(  14) = (   3.3464846   1.5065728  12.4912112  )
        15           O1  tau(  15) = (   0.0134291   0.0009660  14.7247257  )
        16           O1  tau(  16) = (   3.3093041   0.0058478  13.9373560  )
        17           O1  tau(  17) = (   4.5500255   1.4945122  16.1009386  )
        18           O1  tau(  18) = (   2.0583445   1.4942802  16.1012567  )
        19           Ti1 tau(  19) = (   3.3037885   2.9813703  15.7231771  )
        20           Ti1 tau(  20) = (   0.0263689   1.3683668  16.1009981  )
        21           O1  tau(  21) = (   3.2904802   0.0005063   4.7018136  )
        22           O1  tau(  22) = (   0.0160251   5.9515368  17.2504238  )
        23           O1  tau(  23) = (   1.3043587   1.4918075   6.0039043  )
        24           O1  tau(  24) = (   5.2767064   1.4903225   6.0039473  )
        25           Ti1 tau(  25) = (   0.0000382   5.9609847   6.0000000  )
        26           Ti1 tau(  26) = (   3.2902200   4.4714249   6.0002472  )
        27           O1  tau(  27) = (   0.0002396   2.9813036   7.9858123  )
        28           O1  tau(  28) = (   3.2902150   2.9813002   7.3038282  )
        29           O1  tau(  29) = (   4.5938453   4.4726049   9.2879030  )
        30           O1  tau(  30) = (   1.9864658   4.4711199   9.2879459  )
        31           Ti1 tau(  31) = (   3.3068128   0.0556959   9.1539818  )
        32           Ti1 tau(  32) = (   0.0329352   4.5395830   9.2719105  )
        33           O1  tau(  33) = (   3.3067668   2.9902038  11.3487497  )
        34           O1  tau(  34) = (   0.0086428   2.9933526  10.5732881  )
        35           O1  tau(  35) = (   1.3040514   4.4849883  12.6410176  )
        36           O1  tau(  36) = (   5.3019722   4.4792838  12.6433842  )
        37           Ti1 tau(  37) = (   0.0449501   0.0247790  12.5283380  )
        38           Ti1 tau(  38) = (   3.3452221   4.4882979  12.4886840  )
        39           O1  tau(  39) = (   0.0326844   3.0101588  14.7024583  )
        40           O1  tau(  40) = (   3.3056340   2.9839048  13.9300935  )
        41           O1  tau(  41) = (   4.5482541   4.4683137  16.0944903  )
        42           O1  tau(  42) = (   2.0564524   4.4684886  16.0889558  )
        43           Ti1 tau(  43) = (   3.3155465   0.0028818  15.7289974  )
        44           Ti1 tau(  44) = (   0.0293978   4.5260084  15.9878609  )
        45           O1  tau(  45) = (   3.2900926   2.9813045   4.7018136  )
        46           O1  tau(  46) = (   1.3039711   4.4726057   6.0039043  )
        47           O1  tau(  47) = (   5.2763189   4.4711207   6.0039473  )
        48           C1  tau(  48) = (   6.1041187   3.0165090  18.6783144  )
        49           O1  tau(  49) = (   6.5649259   2.9843894  17.3344459  )
        50           H1  tau(  50) = (   5.0084317   2.8724860  18.7083625  )
        51           H1  tau(  51) = (   6.5664557   2.2147430  19.2506469  )
        52           H1  tau(  52) = (   6.3318479   3.9831036  19.1258517  )
        53           N1  tau(  53) = (   6.0286935   3.0693532  22.8641725  )
        54           N1  tau(  54) = (   5.2900788   3.1330812  22.0463807  )

     number of k points=    10  Fermi-Dirac smearing, width (Ry)=  0.0073
                       cart. coord. in units 2pi/alat
        k(    1) = (   0.0000000   0.0000000   0.0000000), wk =   0.1250000
        k(    2) = (   0.0000000   0.0419351   0.0000000), wk =   0.2500000
        k(    3) = (   0.0000000  -0.0838702   0.0000000), wk =   0.1250000
        k(    4) = (   0.0379955   0.0000049   0.0000000), wk =   0.2500000
        k(    5) = (   0.0379955   0.0419400   0.0000000), wk =   0.2500000
        k(    6) = (   0.0379955  -0.0838652   0.0000000), wk =   0.2500000
        k(    7) = (   0.0379955  -0.0419301   0.0000000), wk =   0.2500000
        k(    8) = (  -0.0759910  -0.0000099   0.0000000), wk =   0.1250000
        k(    9) = (  -0.0759910   0.0419252   0.0000000), wk =   0.2500000
        k(   10) = (  -0.0759910  -0.0838800   0.0000000), wk =   0.1250000

     Initial potential from superposition of free atoms

     starting charge  384.99916, renormalised to  401.00000

     negative rho (up, down):  1.014E-02 0.000E+00

     %%%%%%%%%%%%%%%%%%%%%%%%%%%%%%%%%%%%%%%%%%%%%%%%%%%%%%%%%%%%%%%%%%%%%%%%
     %                                                                      %
     % You are using vdW-DF, which was implemented by the Thonhauser group. %
     % Please cite the following two papers that made this development      %
     % possible and the two reviews that describe the various versions:     %
     %                                                                      %
     %   T. Thonhauser et al., PRL 115, 136402 (2015).                      %
     %   T. Thonhauser et al., PRB 76, 125112 (2007).                       %
     %   K. Berland et al., Rep. Prog. Phys. 78, 066501 (2015).             %
     %   D.C. Langreth et al., J. Phys.: Condens. Matter 21, 084203 (2009). %
     %                                                                      %
     %                                                                      %
     % If you are calculating the stress with vdW-DF, please also cite:     %
     %                                                                      %
     %   R. Sabatini et al., J. Phys.: Condens. Matter 24, 424209 (2012).   %
     %                                                                      %
     %%%%%%%%%%%%%%%%%%%%%%%%%%%%%%%%%%%%%%%%%%%%%%%%%%%%%%%%%%%%%%%%%%%%%%%%

     Adding external electric field

     Computed dipole along edir(3) :
        Dipole              -14.4684 Ry au,        -36.7751 Debye
        Dipole field         -0.0273 Ry au,

        Potential amp.        2.5310 Ry
        Total length         46.3494 bohr

     Starting wfcs are  303 atomic wfcs
  @ DRIVER MODE: Message from server: STATUS
  @ DRIVER MODE: Message from server: POSDATA
  @ DRIVER MODE: Reading and sharing cell
  @ DRIVER MODE: Reading and sharing positions
  @ DRIVER MODE: Received positions

     Self-consistent Calculation

     iteration #  1     ecut=    29.40 Ry     beta= 0.05
     Davidson diagonalization with overlap
     c_bands:  3 eigenvalues not converged
     c_bands:  3 eigenvalues not converged
     c_bands:  4 eigenvalues not converged
     c_bands:  3 eigenvalues not converged
     c_bands:  5 eigenvalues not converged
     c_bands:  3 eigenvalues not converged
     c_bands:  5 eigenvalues not converged
     c_bands:  3 eigenvalues not converged
     c_bands:  3 eigenvalues not converged
     c_bands:  1 eigenvalues not converged
     ethr =  1.00E-05,  avg # of iterations = 24.0

[...]

     total energy              =   -2414.28425069 Ry
     estimated scf accuracy    <    6341.43880928 Ry

     iteration #  2     ecut=    29.40 Ry     beta= 0.05
     Davidson diagonalization with overlap
     ethr =  1.00E-02,  avg # of iterations = 24.6

[...]

     iteration # 70     ecut=    29.40 Ry     beta= 0.05
     Davidson diagonalization with overlap
     c_bands:  1 eigenvalues not converged
     ethr =  7.38E-11,  avg # of iterations = 11.8

[...]

     total energy              =   -2971.68355593 Ry
     estimated scf accuracy    <       0.00000011 Ry

     iteration # 73     ecut=    29.40 Ry     beta= 0.05
     Davidson diagonalization with overlap
     ethr =  2.67E-11,  avg # of iterations = 11.7

     negative rho (up, down):  1.202E-02 0.000E+00

     Adding external electric field

     Computed dipole along edir(3) :
        Dipole                0.7536 Ry au,          1.9154 Debye
        Dipole field          0.0014 Ry au,

        Potential amp.       -0.1318 Ry
        Total length         46.3494 bohr

     End of self-consistent calculation

          k = 0.0000 0.0000 0.0000 ( 18029 PWs)   bands (ev):

   -55.6106 -55.5956 -55.5739 -55.5594 -55.5053 -55.4946 -55.4708 -55.4434
   -55.4366 -55.3827 -55.3743 -55.3670 -55.3332 -55.2542 -54.6245 -54.5904
   -32.1617 -32.0785 -32.0145 -31.9598 -31.9295 -31.9100 -31.9018 -31.8790
   -31.8464 -31.8348 -31.8163 -31.8110 -31.8091 -31.7770 -31.7707 -31.7549
   -31.7492 -31.7411 -31.7294 -31.7009 -31.6996 -31.6755 -31.6728 -31.6597
   -31.6514 -31.6495 -31.6272 -31.6203 -31.6111 -31.5990 -31.5921 -31.5914
   -31.5862 -31.5694 -31.5489 -31.5412 -31.5371 -31.5112 -31.4780 -31.4707
   -31.4493 -31.4424 -31.0344 -30.9371 -30.9147 -30.8509 -30.7649 -30.6538
   -21.1833 -17.3777 -16.3481 -16.0554 -15.8930 -15.7590 -15.7285 -15.6242
   -15.4346 -15.2967 -15.2781 -15.2149 -15.1770 -15.1654 -15.1364 -15.1319
   -15.1194 -15.1158 -15.0670 -15.0351 -15.0315 -15.0135 -14.9899 -14.9283
   -14.8878 -14.8079 -14.7605 -14.7288 -14.6732 -14.6109 -14.5950 -13.1251
   -13.0069  -9.1654  -6.3499  -4.3263  -4.3060  -4.0698  -3.8488  -3.7074
    -3.5335  -3.5190  -3.4993  -3.4659  -3.4135  -3.1666  -3.1500  -3.0449
    -2.8325  -2.7738  -2.7499  -2.7350  -2.7299  -2.4877  -2.4678  -2.4374
    -2.4274  -2.4176  -2.3909  -2.3636  -2.3608  -2.3297  -2.3112  -2.2163
    -2.1406  -2.1289  -2.0222  -1.9860  -1.9600  -1.9117  -1.8815  -1.8657
    -1.8492  -1.8218  -1.8080  -1.7789  -1.7763  -1.6770  -1.5527  -1.4409
    -1.4114  -1.3744  -1.3102  -1.1046  -1.0561  -1.0245  -1.0115  -0.9536
    -0.9270  -0.9167  -0.8392  -0.8081  -0.7857  -0.6784  -0.6170  -0.5981
    -0.5666  -0.5045  -0.4722  -0.4273  -0.3492  -0.3339  -0.3208  -0.1031
    -0.0810  -0.0716  -0.0620   0.0519   0.1026   0.1604   0.1723   0.1814
     0.2118   0.2928   0.3445   0.3640   0.3839   0.4051   0.4431   0.5196
     0.5388   0.5695   0.5950   0.6237   0.7136   0.7660   0.9056   1.0357
     1.0648   1.1590   1.3032   1.3998   1.4738   1.5705   1.9889   2.0482
     3.5769   3.6045   3.6378   3.6673   3.7301   3.8438   3.9633   4.0125
     4.0354   4.0594

[...]

          k = 0.0380-0.0419 0.0000 ( 17876 PWs)   bands (ev):

[...]

          k =-0.0760-0.0000 0.0000 ( 17886 PWs)   bands (ev):

[...]

          k =-0.0760-0.0839 0.0000 ( 17948 PWs)   bands (ev):

   -55.5992 -55.5852 -55.5784 -55.5764 -55.5027 -55.4888 -55.4544 -55.4530
   -55.4492 -55.3799 -55.3765 -55.3524 -55.3480 -55.2564 -54.6080 -54.6068
   -31.9659 -31.9604 -31.9146 -31.9022 -31.8911 -31.8873 -31.8692 -31.8648
   -31.8612 -31.8199 -31.7970 -31.7914 -31.7901 -31.7516 -31.7410 -31.7357
   -31.7256 -31.7253 -31.7215 -31.7161 -31.7128 -31.6956 -31.6907 -31.6856
   -31.6808 -31.6745 -31.6679 -31.6573 -31.6564 -31.6521 -31.6289 -31.6048
   -31.6041 -31.6014 -31.5967 -31.5791 -31.5746 -31.5632 -31.5570 -31.5464
   -31.4865 -31.4508 -30.9281 -30.9267 -30.8478 -30.8469 -30.8084 -30.8075
   -21.1832 -17.3421 -15.7850 -15.7740 -15.5303 -15.5281 -15.5257 -15.4573
   -15.3659 -15.3488 -15.3302 -15.3258 -15.2676 -15.2603 -15.2460 -15.1860
   -15.1463 -15.1271 -15.1151 -15.1127 -15.0599 -15.0557 -15.0030 -14.9807
   -14.9658 -14.9589 -14.9412 -14.9346 -14.8451 -14.8421 -14.7696 -13.1092
   -13.1070  -9.1660  -6.3504  -4.3235  -4.3130  -3.9473  -3.8170  -3.5127
    -3.0772  -3.0632  -3.0357  -2.7721  -2.7471  -2.7454  -2.6516  -2.5646
    -2.5256  -2.4883  -2.4503  -2.4473  -2.4459  -2.4268  -2.4076  -2.3957
    -2.3732  -2.3589  -2.3482  -2.2882  -2.2510  -2.2435  -2.2386  -2.2305
    -2.2018  -2.1833  -2.1617  -2.1557  -2.1456  -2.1251  -2.0312  -1.8931
    -1.8592  -1.7495  -1.7396  -1.7098  -1.6955  -1.6638  -1.6566  -1.6373
    -1.5295  -1.4616  -1.3395  -1.3270  -1.3091  -1.2571  -1.1881  -1.1148
    -1.0554  -1.0260  -1.0075  -0.9154  -0.9052  -0.8264  -0.8149  -0.7615
    -0.7275  -0.7087  -0.6163  -0.5778  -0.5650  -0.5530  -0.4790  -0.4663
    -0.4417  -0.4070  -0.3480  -0.3385  -0.2639  -0.2324  -0.1841  -0.1232
    -0.1016  -0.0494   0.0385   0.2052   0.3003   0.4002   0.4358   0.4939
     0.5070   0.6039   0.6475   0.6661   0.6721   0.7577   0.8272   0.8492
     0.9152   0.9297   0.9523   1.0155   1.7597   1.7613   1.8515   1.8616
     3.7825   3.8106   3.8308   3.8772   4.0363   4.0409   4.0601   4.0635
     4.1390   4.2007

     the Fermi energy is     3.5446 ev

!    total energy              =   -2971.68356723 Ry
     estimated scf accuracy    <       0.00000007 Ry
     smearing contrib. (-TS)   =      -0.02320875 Ry
     internal energy E=F+TS    =   -2971.66035848 Ry

     The total energy is F=E-TS. E is the sum of the following terms:
     one-electron contribution =  -22785.49224217 Ry
     hartree contribution      =   11484.69982330 Ry
     xc contribution           =    -492.26926581 Ry
     ewald contribution        =    8821.40025452 Ry
     electric field correction =       0.00107167 Ry

     convergence has been achieved in  73 iterations

     Forces acting on atoms (cartesian axes, Ry/au):

     atom    1 type  1   force =    -0.00020994   -0.00154524    0.10612121
     atom    2 type  1   force =    -0.00045070    0.00046761   -0.17981862
     atom    3 type  2   force =     0.00026637   -0.00689621   -0.03317763
     atom    4 type  2   force =     0.00053839    0.00050841    0.04563300
     atom    5 type  2   force =    -0.01840581    0.00015796    0.00401442
     atom    6 type  2   force =     0.02062122   -0.00127901    0.00460886
     atom    7 type  1   force =    -0.00033690   -0.00020234    0.00006325
     atom    8 type  1   force =    -0.00018308   -0.00127332    0.00019571
     atom    9 type  2   force =     0.00001164    0.00011730   -0.00076245
     atom   10 type  2   force =    -0.00005528    0.00002699   -0.00041204
     atom   11 type  2   force =     0.00005627    0.00007561    0.00042309
     atom   12 type  2   force =    -0.00071960    0.00014693    0.00038716
     atom   13 type  1   force =    -0.00000217    0.00043011    0.00048291
     atom   14 type  1   force =    -0.00014602    0.00087788    0.00021941
     atom   15 type  2   force =    -0.00040559   -0.00030476    0.00013293
     atom   16 type  2   force =    -0.00018958    0.00013444   -0.00073599
     atom   17 type  2   force =    -0.00034100    0.00006233    0.00005309
     atom   18 type  2   force =     0.00039358   -0.00012437   -0.00049827
     atom   19 type  1   force =     0.00002227    0.00070624   -0.00042053
     atom   20 type  1   force =    -0.00030943   -0.00006851   -0.00057390
     atom   21 type  2   force =    -0.00006821    0.00009780    0.10416798
     atom   22 type  2   force =    -0.00007395   -0.00045075   -0.00071980
     atom   23 type  2   force =    -0.06899398    0.00066903   -0.02956156
     atom   24 type  2   force =     0.06865004    0.00114434   -0.02962165
     atom   25 type  1   force =    -0.00012595    0.00147068    0.11712023
     atom   26 type  1   force =    -0.00022109    0.00000067   -0.17989413
     atom   27 type  2   force =     0.00042316    0.00389742   -0.02756027
     atom   28 type  2   force =     0.00072527    0.00077788    0.04708363
     atom   29 type  2   force =    -0.01718527    0.00152159    0.00339928
     atom   30 type  2   force =     0.01883359    0.00099892    0.00381578
     atom   31 type  1   force =    -0.00038549    0.00044112   -0.00029777
     atom   32 type  1   force =    -0.00022855    0.00076027    0.00039638
     atom   33 type  2   force =    -0.00028498   -0.00010540   -0.00017104
     atom   34 type  2   force =    -0.00003453    0.00048704    0.00032179
     atom   35 type  2   force =    -0.00004584    0.00006088    0.00055295
     atom   36 type  2   force =    -0.00068061   -0.00005447    0.00043116
     atom   37 type  1   force =    -0.00004844   -0.00017177    0.00007338
     atom   38 type  1   force =    -0.00007260   -0.00114716    0.00011106
     atom   39 type  2   force =    -0.00026197    0.00002678    0.00062834
     atom   40 type  2   force =    -0.00022578    0.00019977    0.00069483
     atom   41 type  2   force =    -0.00088352   -0.00039079   -0.00028119
     atom   42 type  2   force =     0.00080846   -0.00013544   -0.00006783
     atom   43 type  1   force =     0.00024313   -0.00086838    0.00032099
     atom   44 type  1   force =    -0.00002541    0.00129264   -0.00040445
     atom   45 type  2   force =    -0.00006337    0.00007371    0.10420726
     atom   46 type  2   force =    -0.06857936   -0.00127421   -0.02960587
     atom   47 type  2   force =     0.06833695   -0.00085128   -0.02968988
     atom   48 type  3   force =    -0.01890260   -0.00053848   -0.00201968
     atom   49 type  2   force =     0.00245351    0.00039483   -0.00149297
     atom   50 type  4   force =     0.01039366    0.00119817    0.00006762
     atom   51 type  4   force =     0.00374556   -0.00328369    0.00181644
     atom   52 type  4   force =     0.00275587    0.00184922    0.00059265
     atom   53 type  5   force =     0.00056696    0.00000840    0.00078978
     atom   54 type  5   force =    -0.00069930   -0.00011740   -0.00113901

     Total force =     0.376824     Total SCF correction =     0.001218
  @ DRIVER MODE: Message from server: STATUS
  @ DRIVER MODE: Message from server: GETFORCE
  @ DRIVER MODE: Returning v,forces,stress,ensemble

     Writing output data file ./calc.save/
  @ DRIVER MODE: Message from server: EXIT
  @ DRIVE MODE: Exiting

     General routines

     Parallel routines

   This run was terminated on:  12:53: 3  21Sep2021

   JOB DONE.