     Program PWSCF v.6.7GPU starts on 23Jul2021 at  0:14:32

     R & G space division:  proc/nbgrp/npool/nimage =      16
     Reading input from /storage/home/hcoda1/3/ntian30/research/carbon/1Jul_vib/slab/rutile_O_br_vacant/out_0021/pw.inp
Warning: card &CELL ignored
Warning: card   CELL_DYNAMICS='IPI', ignored
Warning: card / ignored

     Current dimensions of program PWSCF are:
     Max number of different atomic species (ntypx) = 10
     Max number of k-points (npk) =  40000
     Max angular momentum in pseudopotentials (lmaxx) =  3
     Presently no symmetry can be used with electric field

     Message from routine cell_base_init:
     DEPRECATED: use true lattice parameter, not A to a.u. conversion factor

     IMPORTANT: XC functional enforced from input :
     Exchange-correlation= BEEF-VDW
                           (   1   4  43  14   2   0   0)
     Any further DFT definition will be discarded
     Please, verify this is what you really want

  @ DRIVER MODE: Connecting to
 qe_1139763_2402406.sched-torque.pace.gatech.edulm3xi_fx_scratch
  using UNIX socket
  @ DRIVER MODE: Message from server: STATUS
  @ DRIVER MODE: Message from server: INIT
  @ DRIVER MODE: Receiving replica           0          -1
  @ DRIVER MODE: Receiving encoded integer          25
  @ DRIVER MODE:  SCF:  T  FORCE:  T  STRESS:  F  VC:  F  ENSEMBLE:  F
  @ DRIVER MODE:  SCF:  T  FORCE:  T  STRESS:  F  VC:  F  ENSEMBLE:  F

     Using Slab Decomposition

     bravais-lattice index     =            0
     lattice parameter (alat)  =       1.8897  a.u.
     unit-cell volume          =    6658.9804 (a.u.)^3
     number of atoms/cell      =           47
     number of atomic types    =            2
     number of electrons       =       378.00
     number of Kohn-Sham states=          199
     kinetic-energy cutoff     =      29.3995  Ry
     charge density cutoff     =     293.9946  Ry
     scf convergence threshold =      7.3E-08
     mixing beta               =       0.0500
     number of iterations used =            8  plain     mixing
     Exchange-correlation= BEEF-VDW
                           (   1   4  43  14   2   0   0)

     celldm(1)=   1.889726  celldm(2)=   0.000000  celldm(3)=   0.000000
     celldm(4)=   0.000000  celldm(5)=   0.000000  celldm(6)=   0.000000

     crystal axes: (cart. coord. in units of alat)
               a(1) = (   6.579727   0.000000   0.000000 )
               a(2) = (  -0.000775   5.961596   0.000000 )
               a(3) = (   0.000000   0.000000  25.155947 )

     reciprocal axes: (cart. coord. in units 2 pi/alat)
               b(1) = (  0.151982  0.000020  0.000000 )
               b(2) = (  0.000000  0.167740  0.000000 )
               b(3) = (  0.000000  0.000000  0.039752 )

     PseudoPot. # 1 for Ti read from file:
     /storage/coda1/p-amedford6/0/shared/rich_project_chbe-medford/medford-share/data/pseudos_module/espresso/nninc/pbe/van/Ti.UPF
     MD5 check sum: 8e4df49b7f0d34bbd5052bf3f5ea0213
     Pseudo is Ultrasoft, Zval = 12.0
     Generated by new atomic code, or converted to UPF format
     Using radial grid of  851 points,  6 beta functions with:
                l(1) =   0
                l(2) =   0
                l(3) =   1
                l(4) =   1
                l(5) =   2
                l(6) =   2
     Q(r) pseudized with  8 coefficients,  rinner =    1.000   1.000   1.000
                                                       1.000   1.000

     PseudoPot. # 2 for O  read from file:
     /storage/coda1/p-amedford6/0/shared/rich_project_chbe-medford/medford-share/data/pseudos_module/espresso/nninc/pbe/van/O.UPF
     MD5 check sum: 78c19812648e8988a0fe644b0f25305e
     Pseudo is Ultrasoft, Zval =  6.0
     Generated by new atomic code, or converted to UPF format
     Using radial grid of  737 points,  4 beta functions with:
                l(1) =   0
                l(2) =   0
                l(3) =   1
                l(4) =   1
     Q(r) pseudized with  8 coefficients,  rinner =    0.800   0.800   0.800

     atomic species   valence    mass     pseudopotential
        Ti1           12.00    47.86700     Ti( 1.00)
        O1             6.00    15.99900     O ( 1.00)

     Starting magnetic structure
     atomic species   magnetization
        Ti1          0.000
        O1           0.000

     No symmetry found

   Cartesian axes

     site n.     atom                  positions (alat units)
         1           Ti1 tau(   1) = (   0.0004258   2.9801865   6.0000000  )
         2           Ti1 tau(   2) = (   3.2906075   1.4906267   6.0002472  )
         3           O1  tau(   3) = (   0.0006271   0.0005054   7.9858123  )
         4           O1  tau(   4) = (   3.2906025   0.0005020   7.3038282  )
         5           O1  tau(   5) = (   4.5942328   1.4918067   9.2879030  )
         6           O1  tau(   6) = (   1.9868534   1.4903216   9.2879459  )
         7           Ti1 tau(   7) = (   3.2895655   2.9803496   9.1561551  )
         8           Ti1 tau(   8) = (   6.5792279   1.4901203   9.2542590  )
         9           O1  tau(   9) = (   3.2908496   0.0003861  11.3974292  )
        10           O1  tau(  10) = (   0.0009741   0.0005107  10.6121890  )
        11           O1  tau(  11) = (   1.2851668   1.4970119  12.6717501  )
        12           O1  tau(  12) = (   5.2960956   1.4969944  12.6716611  )
        13           Ti1 tau(  13) = (   0.0014209   2.9817635  12.4865077  )
        14           Ti1 tau(  14) = (   3.2920103   1.4923710  12.5431595  )
        15           O1  tau(  15) = (   0.0005111   0.0003601  14.6908606  )
        16           O1  tau(  16) = (   3.2907661   0.0003422  14.0280135  )
        17           O1  tau(  17) = (   4.5563287   1.5043111  16.1972802  )
        18           O1  tau(  18) = (   2.0238984   1.5042417  16.1969189  )
        19           Ti1 tau(  19) = (   3.2900530   2.9812534  15.7923096  )
        20           Ti1 tau(  20) = (   0.0002900   1.3462356  15.9516996  )
        21           O1  tau(  21) = (   3.2904802   0.0005063   4.7018136  )
        22           O1  tau(  22) = (   0.0005067   0.0002908  17.2230471  )
        23           O1  tau(  23) = (   1.3043587   1.4918075   6.0039043  )
        24           O1  tau(  24) = (   5.2767064   1.4903225   6.0039473  )
        25           Ti1 tau(  25) = (   0.0000382   5.9609847   6.0000000  )
        26           Ti1 tau(  26) = (   3.2902200   4.4714249   6.0002472  )
        27           O1  tau(  27) = (   0.0002396   2.9813036   7.9858123  )
        28           O1  tau(  28) = (   3.2902150   2.9813002   7.3038282  )
        29           O1  tau(  29) = (   4.5938453   4.4726049   9.2879030  )
        30           O1  tau(  30) = (   1.9864658   4.4711199   9.2879459  )
        31           Ti1 tau(  31) = (   3.2890184   5.9611387   9.1545655  )
        32           Ti1 tau(  32) = (   6.5788211   4.4731772   9.2541010  )
        33           O1  tau(  33) = (   3.2904314   2.9811918  11.3932170  )
        34           O1  tau(  34) = (   0.0006808   2.9813391  10.6259032  )
        35           O1  tau(  35) = (   1.2847872   4.4655815  12.6717948  )
        36           O1  tau(  36) = (   5.2956760   4.4653813  12.6716352  )
        37           Ti1 tau(  37) = (   0.0020938   0.0010105  12.4782417  )
        38           Ti1 tau(  38) = (   3.2917349   4.4701355  12.5431901  )
        39           O1  tau(  39) = (   0.0000992   2.9811129  15.0245885  )
        40           O1  tau(  40) = (   3.2903432   2.9811263  13.9978513  )
        41           O1  tau(  41) = (   4.5559250   4.4580163  16.1971803  )
        42           O1  tau(  42) = (   2.0234811   4.4579909  16.1969720  )
        43           Ti1 tau(  43) = (   3.2904469   0.0004528  15.8318627  )
        44           Ti1 tau(  44) = (   0.0000435   4.6159127  15.9515978  )
        45           O1  tau(  45) = (   3.2900926   2.9713045   4.7018136  )
        46           O1  tau(  46) = (   1.3039711   4.4726057   6.0039043  )
        47           O1  tau(  47) = (   5.2763189   4.4711207   6.0039473  )

     number of k points=    10  Fermi-Dirac smearing, width (Ry)=  0.0073
                       cart. coord. in units 2pi/alat
        k(    1) = (   0.0000000   0.0000000   0.0000000), wk =   0.0625000
        k(    2) = (   0.0000000   0.0419351   0.0000000), wk =   0.1250000
        k(    3) = (   0.0000000  -0.0838702   0.0000000), wk =   0.0625000
        k(    4) = (   0.0379955   0.0000049   0.0000000), wk =   0.1250000
        k(    5) = (   0.0379955   0.0419400   0.0000000), wk =   0.1250000
        k(    6) = (   0.0379955  -0.0838652   0.0000000), wk =   0.1250000
        k(    7) = (   0.0379955  -0.0419301   0.0000000), wk =   0.1250000
        k(    8) = (  -0.0759910  -0.0000099   0.0000000), wk =   0.0625000
        k(    9) = (  -0.0759910   0.0419252   0.0000000), wk =   0.1250000
        k(   10) = (  -0.0759910  -0.0838800   0.0000000), wk =   0.0625000

     Initial potential from superposition of free atoms

     starting charge  361.99925, renormalised to  378.00000

     negative rho (up, down):  1.184E-02 1.184E-02

     %%%%%%%%%%%%%%%%%%%%%%%%%%%%%%%%%%%%%%%%%%%%%%%%%%%%%%%%%%%%%%%%%%%%%%%%
     %                                                                      %
     % You are using vdW-DF, which was implemented by the Thonhauser group. %
     % Please cite the following two papers that made this development      %
     % possible and the two reviews that describe the various versions:     %
     %                                                                      %
     %   T. Thonhauser et al., PRL 115, 136402 (2015).                      %
     %   T. Thonhauser et al., PRB 76, 125112 (2007).                       %
     %   K. Berland et al., Rep. Prog. Phys. 78, 066501 (2015).             %
     %   D.C. Langreth et al., J. Phys.: Condens. Matter 21, 084203 (2009). %
     %                                                                      %
     %                                                                      %
     % If you are calculating the stress with vdW-DF, please also cite:     %
     %                                                                      %
     %   R. Sabatini et al., J. Phys.: Condens. Matter 24, 424209 (2012).   %
     %                                                                      %
     %%%%%%%%%%%%%%%%%%%%%%%%%%%%%%%%%%%%%%%%%%%%%%%%%%%%%%%%%%%%%%%%%%%%%%%%

     Adding external electric field

     Computed dipole along edir(3) :
        Dipole                1.1416 Ry au,          2.9015 Debye
        Dipole field          0.0022 Ry au,

        Potential amp.       -0.1997 Ry
        Total length         46.3494 bohr

[...]

     Starting wfcs are  284 atomic wfcs
  @ DRIVER MODE: Message from server: STATUS
  @ DRIVER MODE: Message from server: POSDATA
  @ DRIVER MODE: Reading and sharing cell
  @ DRIVER MODE: Reading and sharing positions
  @ DRIVER MODE: Received positions

     Self-consistent Calculation

     iteration #  1     ecut=    29.40 Ry     beta= 0.05
     Davidson diagonalization with overlap
     c_bands:  2 eigenvalues not converged
     c_bands:  3 eigenvalues not converged
     c_bands:  2 eigenvalues not converged
     c_bands:  3 eigenvalues not converged
     c_bands:  1 eigenvalues not converged
     c_bands:  2 eigenvalues not converged
     c_bands:  1 eigenvalues not converged
     c_bands:  1 eigenvalues not converged
     c_bands:  3 eigenvalues not converged
     c_bands:  2 eigenvalues not converged
     c_bands:  2 eigenvalues not converged
     c_bands:  3 eigenvalues not converged
     c_bands:  2 eigenvalues not converged
     c_bands:  3 eigenvalues not converged
     c_bands:  1 eigenvalues not converged
     c_bands:  2 eigenvalues not converged
     c_bands:  1 eigenvalues not converged
     c_bands:  1 eigenvalues not converged
     c_bands:  3 eigenvalues not converged
     c_bands:  2 eigenvalues not converged
     ethr =  1.00E-05,  avg # of iterations = 20.0

[...]

     total energy              =   -2885.09648110 Ry
     estimated scf accuracy    <      12.51173694 Ry

     total magnetization       =     0.00 Bohr mag/cell
     absolute magnetization    =     0.00 Bohr mag/cell

     iteration #  2     ecut=    29.40 Ry     beta= 0.05
     Davidson diagonalization with overlap
     ethr =  3.31E-03,  avg # of iterations =  1.0

[...]

     iteration # 57     ecut=    29.40 Ry     beta= 0.05
     Davidson diagonalization with overlap
     c_bands:  1 eigenvalues not converged
     c_bands:  1 eigenvalues not converged
     ethr =  5.69E-11,  avg # of iterations = 14.1

[...]

     total energy              =   -2883.85323852 Ry
     estimated scf accuracy    <       0.00000009 Ry

[...]

     iteration # 59     ecut=    29.40 Ry     beta= 0.05
     Davidson diagonalization with overlap
     ethr =  2.32E-11,  avg # of iterations =  2.3

     negative rho (up, down):  1.071E-02 1.071E-02

[...]

     Adding external electric field

     Computed dipole along edir(3) :
        Dipole                0.5578 Ry au,          1.4177 Debye
        Dipole field          0.0011 Ry au,

        Potential amp.       -0.0976 Ry
        Total length         46.3494 bohr

     Magnetic moment per site  (integrated on atomic sphere of radius R)
     atom   1 (R=0.740)  charge=  8.0666  magn=  0.0000
     atom   2 (R=0.740)  charge=  8.0469  magn= -0.0000
     atom   3 (R=0.740)  charge=  5.0351  magn= -0.0000
     atom   4 (R=0.740)  charge=  5.0739  magn=  0.0000
     atom   5 (R=0.740)  charge=  5.0337  magn= -0.0000
     atom   6 (R=0.740)  charge=  5.0338  magn=  0.0000
     atom   7 (R=0.740)  charge=  8.0461  magn= -0.0000
     atom   8 (R=0.740)  charge=  8.0494  magn=  0.0000
     atom   9 (R=0.740)  charge=  5.0395  magn=  0.0000
     atom  10 (R=0.740)  charge=  5.0477  magn= -0.0000
     atom  11 (R=0.740)  charge=  5.0325  magn=  0.0000
     atom  12 (R=0.740)  charge=  5.0326  magn=  0.0000
     atom  13 (R=0.740)  charge=  8.0562  magn=  0.0000
     atom  14 (R=0.740)  charge=  8.0499  magn=  0.0000
     atom  15 (R=0.740)  charge=  5.0483  magn=  0.0000
     atom  16 (R=0.740)  charge=  5.0335  magn=  0.0000
     atom  17 (R=0.740)  charge=  5.0152  magn= -0.0000
     atom  18 (R=0.740)  charge=  5.0151  magn=  0.0000
     atom  19 (R=0.740)  charge=  8.0776  magn= -0.0000
     atom  20 (R=0.740)  charge=  8.0902  magn= -0.0000
     atom  21 (R=0.740)  charge=  4.9132  magn=  0.0000
     atom  22 (R=0.740)  charge=  4.9955  magn=  0.0000
     atom  23 (R=0.740)  charge=  5.0273  magn=  0.0000
     atom  24 (R=0.740)  charge=  5.0274  magn=  0.0000
     atom  25 (R=0.740)  charge=  8.0668  magn= -0.0000
     atom  26 (R=0.740)  charge=  8.0453  magn= -0.0000
     atom  27 (R=0.740)  charge=  5.0345  magn= -0.0000
     atom  28 (R=0.740)  charge=  5.0735  magn=  0.0000
     atom  29 (R=0.740)  charge=  5.0337  magn= -0.0000
     atom  30 (R=0.740)  charge=  5.0338  magn=  0.0000
     atom  31 (R=0.740)  charge=  8.0465  magn= -0.0000
     atom  32 (R=0.740)  charge=  8.0494  magn=  0.0000
     atom  33 (R=0.740)  charge=  5.0395  magn= -0.0000
     atom  34 (R=0.740)  charge=  5.0426  magn= -0.0000
     atom  35 (R=0.740)  charge=  5.0324  magn=  0.0000
     atom  36 (R=0.740)  charge=  5.0325  magn= -0.0000
     atom  37 (R=0.740)  charge=  8.0520  magn=  0.0000
     atom  38 (R=0.740)  charge=  8.0499  magn=  0.0000
     atom  39 (R=0.740)  charge=  5.0311  magn=  0.0000
     atom  40 (R=0.740)  charge=  5.0467  magn=  0.0000
     atom  41 (R=0.740)  charge=  5.0152  magn=  0.0000
     atom  42 (R=0.740)  charge=  5.0151  magn= -0.0000
     atom  43 (R=0.740)  charge=  8.0771  magn= -0.0000
     atom  44 (R=0.740)  charge=  8.0902  magn=  0.0000
     atom  45 (R=0.740)  charge=  4.9134  magn=  0.0000
     atom  46 (R=0.740)  charge=  5.0274  magn=  0.0000
     atom  47 (R=0.740)  charge=  5.0275  magn=  0.0000

     End of self-consistent calculation

 ------ SPIN UP ------------

          k = 0.0000 0.0000 0.0000 ( 18029 PWs)   bands (ev):

   -56.2747 -56.2389 -56.2236 -56.1894 -56.1550 -56.1415 -56.1127 -56.1069
   -56.0891 -56.0801 -56.0785 -56.0522 -56.0252 -56.0182 -55.3441 -55.2968
   -32.8368 -32.7911 -32.7259 -32.6265 -32.5854 -32.5802 -32.5770 -32.5669
   -32.5138 -32.5008 -32.4800 -32.4737 -32.4687 -32.4450 -32.4440 -32.4245
   -32.4119 -32.4108 -32.3979 -32.3883 -32.3759 -32.3752 -32.3721 -32.3708
   -32.3462 -32.3441 -32.3221 -32.2787 -32.2722 -32.2630 -32.2623 -32.2562
   -32.2501 -32.2407 -32.2402 -32.2352 -32.2307 -32.2097 -32.2008 -32.1851
   -32.1676 -32.1074 -31.7509 -31.6537 -31.6161 -31.5687 -31.4773 -31.3686
   -17.1057 -16.8831 -16.7407 -16.6043 -16.5023 -16.3991 -16.2755 -16.2247
   -16.1714 -16.0246 -15.9651 -15.9398 -15.9002 -15.8763 -15.8685 -15.8537
   -15.8304 -15.8143 -15.7936 -15.7855 -15.7696 -15.7689 -15.7207 -15.6683
   -15.5750 -15.5074 -15.4367 -15.3795 -15.0546 -13.8387 -13.7189  -4.4261
    -4.2910  -4.2166  -4.2016  -4.1502  -4.0400  -3.8196  -3.7959  -3.7301
    -3.5741  -3.5260  -3.4687  -3.4091  -3.3393  -3.2822  -3.2718  -3.1702
    -3.1456  -3.1411  -3.1351  -3.0533  -3.0508  -3.0286  -3.0019  -2.9631
    -2.8714  -2.7518  -2.7075  -2.6734  -2.6524  -2.6442  -2.6218  -2.5925
    -2.5605  -2.5264  -2.5250  -2.4896  -2.4476  -2.3238  -2.1766  -2.1326
    -2.0627  -1.9709  -1.8996  -1.8343  -1.7940  -1.7562  -1.7315  -1.6820
    -1.6510  -1.6187  -1.5411  -1.4521  -1.4101  -1.3063  -1.2902  -1.2226
    -1.1871  -1.1139  -1.0722  -1.0682  -1.0266  -0.9383  -0.9112  -0.7879
    -0.7603  -0.7521  -0.7400  -0.7303  -0.6200  -0.5168  -0.4859  -0.4785
    -0.4770  -0.3920  -0.3418  -0.3348  -0.3201  -0.3127  -0.2631  -0.1877
    -0.1471  -0.0961   0.0467   0.2731   0.2735   0.3389   0.5716   0.6422
     0.6882   0.8455   1.2741   1.3275   2.8235   2.8891   2.9203   2.9536
     2.9816   3.0298   3.3202   3.3338   3.3574   3.3853   3.4030

[...]

          k =-0.0760-0.0000 0.0000 ( 17886 PWs)   bands (ev):

[...]

 ------ SPIN DOWN ----------

[...]

          k = 0.0380-0.0419 0.0000 ( 17876 PWs)   bands (ev):

[...]

          k =-0.0760-0.0839 0.0000 ( 17948 PWs)   bands (ev):

   -56.2569 -56.2564 -56.2066 -56.2063 -56.1508 -56.1264 -56.1219 -56.0961
   -56.0947 -56.0842 -56.0826 -56.0354 -56.0350 -56.0316 -55.3368 -55.3040
   -32.7146 -32.6424 -32.6395 -32.5408 -32.5404 -32.5402 -32.5256 -32.4991
   -32.4990 -32.4722 -32.4685 -32.4682 -32.4620 -32.4194 -32.4170 -32.4162
   -32.4107 -32.4100 -32.3961 -32.3905 -32.3893 -32.3854 -32.3740 -32.3586
   -32.3552 -32.3526 -32.3508 -32.3465 -32.3244 -32.3242 -32.3191 -32.3146
   -32.2919 -32.2908 -32.2654 -32.2652 -32.2649 -32.2640 -32.2341 -32.2209
   -32.2207 -32.2122 -31.6523 -31.6213 -31.5767 -31.5495 -31.5376 -31.5081
   -16.8134 -16.4588 -16.4202 -16.3345 -16.3270 -16.2277 -16.2079 -16.1189
   -16.0775 -16.0538 -16.0525 -16.0001 -15.9804 -15.9600 -15.9571 -15.8948
   -15.8792 -15.8505 -15.8476 -15.7934 -15.7906 -15.7896 -15.7868 -15.7520
   -15.7488 -15.7103 -15.7069 -15.6050 -15.4382 -13.8208 -13.8187  -3.8299
    -3.7280  -3.6735  -3.5576  -3.4834  -3.4479  -3.4015  -3.3921  -3.3181
    -3.2746  -3.2702  -3.1877  -3.1764  -3.1763  -3.1632  -3.1010  -3.0865
    -3.0621  -3.0370  -3.0112  -2.9832  -2.9711  -2.9694  -2.9490  -2.9399
    -2.9205  -2.9183  -2.8888  -2.8640  -2.8420  -2.8258  -2.6656  -2.6614
    -2.5754  -2.5159  -2.5143  -2.4350  -2.4268  -2.3826  -2.3488  -2.2925
    -2.2534  -2.0973  -2.0757  -2.0733  -2.0073  -1.9809  -1.9123  -1.8541
    -1.8389  -1.7914  -1.7342  -1.6167  -1.5981  -1.5735  -1.4672  -1.4664
    -1.3919  -1.3173  -1.2734  -1.2680  -1.2646  -1.2359  -1.2313  -1.2291
    -1.1190  -1.0666  -1.0197  -1.0124  -0.9992  -0.7958  -0.7358  -0.7227
    -0.6098  -0.5567  -0.3727  -0.3668  -0.3255  -0.2112  -0.2083  -0.2080
    -0.1563  -0.0320  -0.0201   0.0472   0.0900   0.1031   0.1423   0.1438
     1.0351   1.0398   1.1443   1.1470   2.9944   3.0766   3.0822   3.1314
     3.2718   3.3230   3.3284   3.3736   3.3743   3.3809   3.4570

     the Fermi energy is     2.8890 ev

!    total energy              =   -2883.85327632 Ry
     estimated scf accuracy    <       0.00000004 Ry
     smearing contrib. (-TS)   =      -0.03660683 Ry
     internal energy E=F+TS    =   -2883.81666949 Ry

     The total energy is F=E-TS. E is the sum of the following terms:
     one-electron contribution =  -24914.68755177 Ry
     hartree contribution      =   12532.19763443 Ry
     xc contribution           =    -468.94582850 Ry
     ewald contribution        =    9967.61848927 Ry
     electric field correction =       0.00058708 Ry

     total magnetization       =     0.00 Bohr mag/cell
     absolute magnetization    =     0.00 Bohr mag/cell

     convergence has been achieved in  59 iterations

     Forces acting on atoms (cartesian axes, Ry/au):

     atom    1 type  1   force =     0.00010669   -0.00074812    0.08981324
     atom    2 type  1   force =    -0.00004145    0.00133414   -0.18495878
     atom    3 type  2   force =     0.00002903   -0.00004860   -0.02422534
     atom    4 type  2   force =    -0.00001051   -0.00167032    0.05193820
     atom    5 type  2   force =    -0.01337619   -0.00028072    0.00584411
     atom    6 type  2   force =     0.01334894    0.00019980    0.00581227
     atom    7 type  1   force =    -0.00003088    0.00003345    0.00043666
     atom    8 type  1   force =     0.00001896    0.00043847    0.00042204
     atom    9 type  2   force =     0.00000940    0.00001105    0.00083681
     atom   10 type  2   force =    -0.00000130    0.00001078   -0.00042593
     atom   11 type  2   force =     0.00016920   -0.00023915    0.00048787
     atom   12 type  2   force =    -0.00019354   -0.00025173    0.00048820
     atom   13 type  1   force =    -0.00000088   -0.00000099   -0.00073975
     atom   14 type  1   force =     0.00003805   -0.00074181    0.00053992
     atom   15 type  2   force =    -0.00000279   -0.00001413   -0.00073326
     atom   16 type  2   force =     0.00001808    0.00001355    0.00012962
     atom   17 type  2   force =    -0.00004065    0.00023568    0.00002117
     atom   18 type  2   force =     0.00005620    0.00023350    0.00002696
     atom   19 type  1   force =    -0.00001643   -0.00000814   -0.00078782
     atom   20 type  1   force =     0.00002961    0.00017288   -0.00003017
     atom   21 type  2   force =     0.00005972   -0.00213001    0.10529858
     atom   22 type  2   force =    -0.00001604   -0.00000394    0.00049625
     atom   23 type  2   force =    -0.06827856   -0.00049135   -0.02580226
     atom   24 type  2   force =     0.06818334   -0.00005859   -0.02583709
     atom   25 type  1   force =     0.00010219    0.00082216    0.08889157
     atom   26 type  1   force =    -0.00007259    0.00068066   -0.18406070
     atom   27 type  2   force =     0.00003353    0.00001075   -0.02317270
     atom   28 type  2   force =    -0.00000497    0.00029327    0.05197701
     atom   29 type  2   force =    -0.01336895   -0.00027493    0.00585944
     atom   30 type  2   force =     0.01333771    0.00022465    0.00582776
     atom   31 type  1   force =    -0.00003039   -0.00001540    0.00077274
     atom   32 type  1   force =     0.00000569   -0.00043070    0.00043792
     atom   33 type  2   force =     0.00001835    0.00001261   -0.00031900
     atom   34 type  2   force =    -0.00001615   -0.00000011    0.00008671
     atom   35 type  2   force =     0.00016199    0.00026326    0.00048766
     atom   36 type  2   force =    -0.00018838    0.00025548    0.00049154
     atom   37 type  1   force =     0.00000022   -0.00001815    0.00082165
     atom   38 type  1   force =     0.00002485    0.00076397    0.00053822
     atom   39 type  2   force =    -0.00001746    0.00000069   -0.00042907
     atom   40 type  2   force =     0.00001542    0.00001409   -0.00049960
     atom   41 type  2   force =    -0.00003870   -0.00022243    0.00001998
     atom   42 type  2   force =     0.00006149   -0.00022908    0.00002480
     atom   43 type  1   force =    -0.00001425   -0.00000160    0.00043466
     atom   44 type  1   force =    -0.00003469   -0.00016434   -0.00002559
     atom   45 type  2   force =     0.00006112    0.00237600    0.10520140
     atom   46 type  2   force =    -0.06684332   -0.00039930   -0.02618780
     atom   47 type  2   force =     0.06674926    0.00004275   -0.02623013

     Total force =     0.366814     Total SCF correction =     0.000558
  @ DRIVER MODE: Message from server: STATUS
  @ DRIVER MODE: Message from server: GETFORCE
  @ DRIVER MODE: Returning v,forces,stress,ensemble

     Writing output data file ./calc.save/
  @ DRIVER MODE: Message from server: EXIT
  @ DRIVE MODE: Exiting

     General routines

     Parallel routines

   This run was terminated on:   0:36:49  23Jul2021

   JOB DONE.