     Program PWSCF v.6.7GPU starts on 23Sep2021 at 10:41:31

     R & G space division:  proc/nbgrp/npool/nimage =       8
     Reading input from /storage/home/hcoda1/3/ntian30/research/carbon/CxH_vib/H2O_calc/ads_slab/CH3NNHHHHO_a/out_0000/pw.inp
Warning: card &CELL ignored
Warning: card   CELL_DYNAMICS='IPI', ignored
Warning: card / ignored

     Current dimensions of program PWSCF are:
     Max number of different atomic species (ntypx) = 10
     Max number of k-points (npk) =  40000
     Max angular momentum in pseudopotentials (lmaxx) =  3
     Presently no symmetry can be used with electric field

     Message from routine cell_base_init:
     DEPRECATED: use true lattice parameter, not A to a.u. conversion factor

     IMPORTANT: XC functional enforced from input :
     Exchange-correlation= BEEF-VDW
                           (   1   4  43  14   2   0   0)
     Any further DFT definition will be discarded
     Please, verify this is what you really want

  @ DRIVER MODE: Connecting to
 qe_1139763_2947308.sched-torque.pace.gatech.educ6x7mcn__scratch
  using UNIX socket
  @ DRIVER MODE: Message from server: STATUS
  @ DRIVER MODE: Message from server: INIT
  @ DRIVER MODE: Receiving replica           0          -1
  @ DRIVER MODE: Receiving encoded integer          25
  @ DRIVER MODE:  SCF:  T  FORCE:  T  STRESS:  F  VC:  F  ENSEMBLE:  F
  @ DRIVER MODE:  SCF:  T  FORCE:  T  STRESS:  F  VC:  F  ENSEMBLE:  F

     Using Slab Decomposition

     bravais-lattice index     =            0
     lattice parameter (alat)  =       1.8897  a.u.
     unit-cell volume          =    6658.9804 (a.u.)^3
     number of atoms/cell      =           58
     number of atomic types    =            5
     number of electrons       =       405.00
     number of Kohn-Sham states=          212
     kinetic-energy cutoff     =      29.3995  Ry
     charge density cutoff     =     293.9946  Ry
     scf convergence threshold =      7.3E-08
     mixing beta               =       0.0500
     number of iterations used =            8  plain     mixing
     Exchange-correlation= BEEF-VDW
                           (   1   4  43  14   2   0   0)

     celldm(1)=   1.889726  celldm(2)=   0.000000  celldm(3)=   0.000000
     celldm(4)=   0.000000  celldm(5)=   0.000000  celldm(6)=   0.000000

     crystal axes: (cart. coord. in units of alat)
               a(1) = (   6.579727   0.000000   0.000000 )
               a(2) = (  -0.000775   5.961596   0.000000 )
               a(3) = (   0.000000   0.000000  25.155947 )

     reciprocal axes: (cart. coord. in units 2 pi/alat)
               b(1) = (  0.151982  0.000020  0.000000 )
               b(2) = (  0.000000  0.167740  0.000000 )
               b(3) = (  0.000000  0.000000  0.039752 )

     PseudoPot. # 1 for Ti read from file:
     /storage/coda1/p-amedford6/0/shared/rich_project_chbe-medford/medford-share/data/pseudos_module/espresso/nninc/pbe/van/Ti.UPF
     MD5 check sum: 8e4df49b7f0d34bbd5052bf3f5ea0213
     Pseudo is Ultrasoft, Zval = 12.0
     Generated by new atomic code, or converted to UPF format
     Using radial grid of  851 points,  6 beta functions with:
                l(1) =   0
                l(2) =   0
                l(3) =   1
                l(4) =   1
                l(5) =   2
                l(6) =   2
     Q(r) pseudized with  8 coefficients,  rinner =    1.000   1.000   1.000
                                                       1.000   1.000

     PseudoPot. # 2 for O  read from file:
     /storage/coda1/p-amedford6/0/shared/rich_project_chbe-medford/medford-share/data/pseudos_module/espresso/nninc/pbe/van/O.UPF
     MD5 check sum: 78c19812648e8988a0fe644b0f25305e
     Pseudo is Ultrasoft, Zval =  6.0
     Generated by new atomic code, or converted to UPF format
     Using radial grid of  737 points,  4 beta functions with:
                l(1) =   0
                l(2) =   0
                l(3) =   1
                l(4) =   1
     Q(r) pseudized with  8 coefficients,  rinner =    0.800   0.800   0.800

     PseudoPot. # 3 for N  read from file:
     /storage/coda1/p-amedford6/0/shared/rich_project_chbe-medford/medford-share/data/pseudos_module/espresso/nninc/pbe/van/N.UPF
     MD5 check sum: 90d10febe142ad51ac9d5be1deb811c4
     Pseudo is Ultrasoft, Zval =  5.0
     Generated by new atomic code, or converted to UPF format
     Using radial grid of  729 points,  4 beta functions with:
                l(1) =   0
                l(2) =   0
                l(3) =   1
                l(4) =   1
     Q(r) pseudized with  8 coefficients,  rinner =    0.800   0.800   0.800

     PseudoPot. # 4 for C  read from file:
     /storage/coda1/p-amedford6/0/shared/rich_project_chbe-medford/medford-share/data/pseudos_module/espresso/nninc/pbe/van/C.UPF
     MD5 check sum: 1a69bf6b8db32088f5b2163dbdb77a27
     Pseudo is Ultrasoft, Zval =  4.0
     Generated by new atomic code, or converted to UPF format
     Using radial grid of  721 points,  4 beta functions with:
                l(1) =   0
                l(2) =   0
                l(3) =   1
                l(4) =   1
     Q(r) pseudized with  8 coefficients,  rinner =    0.800   0.800   0.800

     PseudoPot. # 5 for H  read from file:
     /storage/coda1/p-amedford6/0/shared/rich_project_chbe-medford/medford-share/data/pseudos_module/espresso/nninc/pbe/van/H.UPF
     MD5 check sum: b5ee9d7bfd3a09ee7748110bda690ff7
     Pseudo is Ultrasoft, Zval =  1.0
     Generated by new atomic code, or converted to UPF format
     Using radial grid of  615 points,  1 beta functions with:
                l(1) =   0
     Q(r) pseudized with  8 coefficients,  rinner =    0.800

     atomic species   valence    mass     pseudopotential
        Ti1           12.00    47.86700     Ti( 1.00)
        O1             6.00    15.99900     O ( 1.00)
        N1             5.00    14.00700     N ( 1.00)
        C1             4.00    12.01100     C ( 1.00)
        H1             1.00     1.00800     H ( 1.00)

     No symmetry found

   Cartesian axes

     site n.     atom                  positions (alat units)
         1           Ti1 tau(   1) = (   0.0004258   2.9801865   6.0000000  )
         2           Ti1 tau(   2) = (   3.2906075   1.4906267   6.0002472  )
         3           O1  tau(   3) = (   0.0006271   0.0005054   7.9858123  )
         4           O1  tau(   4) = (   3.2906025   0.0005020   7.3038282  )
         5           O1  tau(   5) = (   4.5942328   1.4918067   9.2879030  )
         6           O1  tau(   6) = (   1.9868534   1.4903216   9.2879459  )
         7           Ti1 tau(   7) = (   3.2907910   2.8959150   9.1758416  )
         8           Ti1 tau(   8) = (   0.0015273   1.4827037   9.2680791  )
         9           O1  tau(   9) = (   3.3066316   0.0080679  11.3583267  )
        10           O1  tau(  10) = (   0.0116148   5.9584955  10.6183126  )
        11           O1  tau(  11) = (   1.3000076   1.5005770  12.6434233  )
        12           O1  tau(  12) = (   5.3281586   1.4930334  12.6431679  )
        13           Ti1 tau(  13) = (   0.0126194   3.0144704  12.5166071  )
        14           Ti1 tau(  14) = (   3.3185830   1.5708444  12.4374219  )
        15           O1  tau(  15) = (   0.0449490   0.0685618  14.6579901  )
        16           O1  tau(  16) = (   3.3164028   5.8986079  13.9921319  )
        17           O1  tau(  17) = (   4.5763498   1.4919541  16.1892649  )
        18           O1  tau(  18) = (   2.0390356   1.5007807  16.1677599  )
        19           Ti1 tau(  19) = (   3.3152479   2.9236451  15.6986563  )
        20           Ti1 tau(  20) = (   0.0808212   1.4292116  16.0039943  )
        21           O1  tau(  21) = (   3.2904802   0.0005063   4.7018136  )
        22           O1  tau(  22) = (   0.0303022   5.8046116  17.1736243  )
        23           O1  tau(  23) = (   1.3043587   1.4918075   6.0039043  )
        24           O1  tau(  24) = (   5.2767064   1.4903225   6.0039473  )
        25           Ti1 tau(  25) = (   0.0000382   5.9609847   6.0000000  )
        26           Ti1 tau(  26) = (   3.2902200   4.4714249   6.0002472  )
        27           O1  tau(  27) = (   0.0002396   2.9813036   7.9858123  )
        28           O1  tau(  28) = (   3.2902150   2.9813002   7.3038282  )
        29           O1  tau(  29) = (   4.5938453   4.4726049   9.2879030  )
        30           O1  tau(  30) = (   1.9864658   4.4711199   9.2879459  )
        31           Ti1 tau(  31) = (   3.2891106   5.8743827   9.1763621  )
        32           Ti1 tau(  32) = (   0.0006254   4.4649316   9.2693709  )
        33           O1  tau(  33) = (   3.3101163   2.9547251  11.3177968  )
        34           O1  tau(  34) = (   0.0092240   2.9805883  10.6323155  )
        35           O1  tau(  35) = (   1.2917786   4.4638488  12.6831265  )
        36           O1  tau(  36) = (   5.3332004   4.4701953  12.6833355  )
        37           Ti1 tau(  37) = (   0.0360484   0.0435164  12.5022323  )
        38           Ti1 tau(  38) = (   3.3166134   4.6596848  12.7231989  )
        39           O1  tau(  39) = (   6.5734590   2.9070644  14.8960501  )
        40           O1  tau(  40) = (   3.3256711   2.9499323  13.9293234  )
        41           O1  tau(  41) = (   4.5718193   4.3849529  16.1598725  )
        42           O1  tau(  42) = (   2.0293811   4.3548050  16.0908550  )
        43           Ti1 tau(  43) = (   3.3839698   5.9011270  16.3477160  )
        44           Ti1 tau(  44) = (   0.0762916   4.6312412  15.8077656  )
        45           O1  tau(  45) = (   3.2900926   2.9813045   4.7018136  )
        46           O1  tau(  46) = (   1.3039711   4.4726057   6.0039043  )
        47           O1  tau(  47) = (   5.2763189   4.4711207   6.0039473  )
        48           N1  tau(  48) = (   1.0338470   3.0145746  18.8549854  )
        49           N1  tau(  49) = (   6.4614719   2.5758313  18.0922931  )
        50           C1  tau(  50) = (   0.6385090   3.7489381  20.0602371  )
        51           H1  tau(  51) = (   6.5128770   4.5633600  19.8465500  )
        52           H1  tau(  52) = (   0.1876125   3.0656416  20.7809517  )
        53           H1  tau(  53) = (   1.5398112   4.1767214  20.4987412  )
        54           H1  tau(  54) = (   5.7034478   3.2665398  18.1448723  )
        55           H1  tau(  55) = (   6.1095767   1.7263867  18.5341855  )
        56           H1  tau(  56) = (   1.5400177   3.6533120  18.2466354  )
        57           O1  tau(  57) = (   3.2295176   5.8880611  18.1942677  )
        58           H1  tau(  58) = (   2.6769533   0.6239085  18.5854980  )

     number of k points=    10  Fermi-Dirac smearing, width (Ry)=  0.0073
                       cart. coord. in units 2pi/alat
        k(    1) = (   0.0000000   0.0000000   0.0000000), wk =   0.1250000
        k(    2) = (   0.0000000   0.0419351   0.0000000), wk =   0.2500000
        k(    3) = (   0.0000000  -0.0838702   0.0000000), wk =   0.1250000
        k(    4) = (   0.0379955   0.0000049   0.0000000), wk =   0.2500000
        k(    5) = (   0.0379955   0.0419400   0.0000000), wk =   0.2500000
        k(    6) = (   0.0379955  -0.0838652   0.0000000), wk =   0.2500000
        k(    7) = (   0.0379955  -0.0419301   0.0000000), wk =   0.2500000
        k(    8) = (  -0.0759910  -0.0000099   0.0000000), wk =   0.1250000
        k(    9) = (  -0.0759910   0.0419252   0.0000000), wk =   0.2500000
        k(   10) = (  -0.0759910  -0.0838800   0.0000000), wk =   0.1250000

     Initial potential from superposition of free atoms

     starting charge  388.99913, renormalised to  405.00000

     negative rho (up, down):  1.325E-02 0.000E+00

     %%%%%%%%%%%%%%%%%%%%%%%%%%%%%%%%%%%%%%%%%%%%%%%%%%%%%%%%%%%%%%%%%%%%%%%%
     %                                                                      %
     % You are using vdW-DF, which was implemented by the Thonhauser group. %
     % Please cite the following two papers that made this development      %
     % possible and the two reviews that describe the various versions:     %
     %                                                                      %
     %   T. Thonhauser et al., PRL 115, 136402 (2015).                      %
     %   T. Thonhauser et al., PRB 76, 125112 (2007).                       %
     %   K. Berland et al., Rep. Prog. Phys. 78, 066501 (2015).             %
     %   D.C. Langreth et al., J. Phys.: Condens. Matter 21, 084203 (2009). %
     %                                                                      %
     %                                                                      %
     % If you are calculating the stress with vdW-DF, please also cite:     %
     %                                                                      %
     %   R. Sabatini et al., J. Phys.: Condens. Matter 24, 424209 (2012).   %
     %                                                                      %
     %%%%%%%%%%%%%%%%%%%%%%%%%%%%%%%%%%%%%%%%%%%%%%%%%%%%%%%%%%%%%%%%%%%%%%%%

     Adding external electric field

     Computed dipole along edir(3) :
        Dipole              -14.7651 Ry au,        -37.5293 Debye
        Dipole field         -0.0279 Ry au,

        Potential amp.        2.5829 Ry
        Total length         46.3494 bohr

     Starting wfcs are  307 atomic wfcs
  @ DRIVER MODE: Message from server: STATUS
  @ DRIVER MODE: Message from server: POSDATA
  @ DRIVER MODE: Reading and sharing cell
  @ DRIVER MODE: Reading and sharing positions
  @ DRIVER MODE: Received positions

     Self-consistent Calculation

     iteration #  1     ecut=    29.40 Ry     beta= 0.05
     Davidson diagonalization with overlap
     ethr =  1.00E-02,  avg # of iterations =  6.4

[...]

     total energy              =   -2250.23224105 Ry
     estimated scf accuracy    <    8302.81062447 Ry

[...]

     iteration #  3     ecut=    29.40 Ry     beta= 0.05
     Davidson diagonalization with overlap
     c_bands:  1 eigenvalues not converged
     ethr =  1.00E-02,  avg # of iterations = 17.8

[...]

     iteration # 48     ecut=    29.40 Ry     beta= 0.05
     Davidson diagonalization with overlap
     c_bands:  1 eigenvalues not converged
     ethr =  1.50E-09,  avg # of iterations = 14.7

[...]

     total energy              =   -2976.49823506 Ry
     estimated scf accuracy    <       0.00000008 Ry

     iteration # 59     ecut=    29.40 Ry     beta= 0.05
     Davidson diagonalization with overlap
     ethr =  2.00E-11,  avg # of iterations =  8.1

     negative rho (up, down):  1.443E-02 0.000E+00

     Adding external electric field

     Computed dipole along edir(3) :
        Dipole                0.9931 Ry au,          2.5242 Debye
        Dipole field          0.0019 Ry au,

        Potential amp.       -0.1737 Ry
        Total length         46.3494 bohr

     End of self-consistent calculation

          k = 0.0000 0.0000 0.0000 ( 18029 PWs)   bands (ev):

   -55.5818 -55.4982 -55.4641 -55.3636 -55.3424 -55.3261 -55.3124 -55.3059
   -55.2924 -55.2626 -55.2189 -55.0969 -55.0861 -55.0093 -54.4673 -54.4333
   -31.9826 -31.9183 -31.8773 -31.8298 -31.8283 -31.8092 -31.7987 -31.7891
   -31.7491 -31.7442 -31.7263 -31.6508 -31.6273 -31.6067 -31.6046 -31.6028
   -31.5972 -31.5853 -31.5829 -31.5558 -31.5498 -31.5245 -31.5236 -31.5121
   -31.4970 -31.4855 -31.4781 -31.4610 -31.4563 -31.4535 -31.4439 -31.4378
   -31.4342 -31.4146 -31.3728 -31.3710 -31.3006 -31.2935 -31.2794 -31.2589
   -31.2220 -31.2148 -30.8729 -30.7874 -30.7649 -30.6906 -30.6042 -30.4923
   -17.5822 -16.4005 -16.1391 -15.9766 -15.7609 -15.6754 -15.6469 -15.4543
   -15.3490 -15.2960 -15.1099 -15.0638 -15.0330 -15.0220 -15.0065 -14.9838
   -14.9641 -14.9258 -14.9174 -14.9071 -14.9015 -14.8630 -14.8405 -14.7901
   -14.7675 -14.7047 -14.6325 -14.5648 -14.5175 -14.2565 -14.2388 -12.9684
   -12.9659 -12.8496  -9.4621  -6.1533  -5.2031  -4.6371  -3.9621  -3.5037
    -3.4028  -3.3870  -3.3321  -3.2684  -3.1691  -2.9954  -2.8867  -2.8329
    -2.7321  -2.6248  -2.5699  -2.5066  -2.4800  -2.4300  -2.3970  -2.3853
    -2.3785  -2.2822  -2.2738  -2.2466  -2.2113  -2.1551  -2.1395  -2.0616
    -2.0252  -2.0168  -1.8925  -1.8797  -1.8139  -1.8095  -1.8035  -1.7697
    -1.7486  -1.7338  -1.7047  -1.6210  -1.5680  -1.4976  -1.4749  -1.4450
    -1.1859  -1.0936  -1.0561  -1.0285  -0.9305  -0.9145  -0.9011  -0.8974
    -0.8833  -0.8339  -0.7875  -0.7032  -0.5938  -0.5737  -0.5647  -0.5197
    -0.4544  -0.3725  -0.2994  -0.2698  -0.2325  -0.2192  -0.1532  -0.0757
    -0.0596  -0.0473   0.0614   0.0757   0.1581   0.2167   0.2307   0.2754
     0.3164   0.3493   0.4058   0.4423   0.4727   0.4786   0.5118   0.5563
     0.6121   0.6425   0.6704   0.7526   0.8081   0.8536   0.8813   1.0526
     1.0826   1.1391   1.1790   1.2662   1.5089   1.5591   1.5985   1.7535
     2.1254   2.1706   3.5864   3.7376   3.7527   3.8221   3.8473   3.9381
     4.0757   4.1433   4.2767   4.2842

[...]

          k = 0.0380-0.0419 0.0000 ( 17876 PWs)   bands (ev):

[...]

          k =-0.0760-0.0000 0.0000 ( 17886 PWs)   bands (ev):

[...]

          k =-0.0760-0.0839 0.0000 ( 17948 PWs)   bands (ev):

   -55.5811 -55.4813 -55.4809 -55.3624 -55.3292 -55.3190 -55.3130 -55.3093
   -55.3089 -55.2547 -55.2269 -55.0938 -55.0872 -55.0124 -54.4504 -54.4501
   -31.8656 -31.8078 -31.8029 -31.7981 -31.7978 -31.7836 -31.7748 -31.7743
   -31.7058 -31.6497 -31.6416 -31.6341 -31.6295 -31.6162 -31.6013 -31.6011
   -31.5989 -31.5988 -31.5843 -31.5741 -31.5665 -31.5580 -31.5371 -31.5188
   -31.5160 -31.5119 -31.5046 -31.5017 -31.4894 -31.4820 -31.4796 -31.4736
   -31.4685 -31.4498 -31.4441 -31.3671 -31.3553 -31.3411 -31.3025 -31.2976
   -31.2642 -31.2181 -30.7777 -30.7776 -30.6860 -30.6856 -30.6476 -30.6473
   -17.5762 -16.3864 -15.7474 -15.5693 -15.4730 -15.4665 -15.3358 -15.2700
   -15.2611 -15.2268 -15.2080 -15.1932 -15.1601 -15.1427 -15.1032 -15.0502
   -15.0169 -14.9942 -14.9827 -14.9456 -14.9331 -14.9113 -14.9038 -14.8952
   -14.8369 -14.8047 -14.7956 -14.7650 -14.5696 -14.5476 -14.3713 -12.9699
   -12.9516 -12.9514  -9.4596  -6.1385  -5.2048  -4.6471  -3.9582  -3.1701
    -2.9216  -2.7782  -2.7019  -2.5679  -2.5581  -2.5002  -2.4922  -2.4476
    -2.4390  -2.3979  -2.3438  -2.3281  -2.2847  -2.2799  -2.2491  -2.2365
    -2.2259  -2.2168  -2.1917  -2.1720  -2.1631  -2.1224  -2.1178  -2.1021
    -2.0824  -2.0659  -2.0383  -2.0273  -1.9873  -1.9478  -1.8826  -1.8088
    -1.7231  -1.6402  -1.6296  -1.6188  -1.5725  -1.5660  -1.5193  -1.5078
    -1.4605  -1.4090  -1.2950  -1.1723  -1.1324  -1.1058  -1.0738  -1.0417
    -0.9870  -0.9642  -0.9291  -0.8809  -0.8491  -0.7253  -0.7143  -0.6489
    -0.5644  -0.5310  -0.4552  -0.4420  -0.4274  -0.4112  -0.3895  -0.3728
    -0.3432  -0.3272  -0.2228  -0.1988  -0.1956  -0.1729  -0.1222  -0.0195
     0.0546   0.1375   0.2402   0.2899   0.3177   0.3514   0.4513   0.5695
     0.5946   0.6577   0.6898   0.7326   0.7998   0.8206   0.8684   0.9533
     1.0068   1.0393   1.0655   1.0705   1.1252   1.1549   1.9221   1.9307
     1.9909   1.9911   3.7999   4.0762   4.1020   4.1179   4.1551   4.1594
     4.1813   4.1958   4.2609   4.2764

     the Fermi energy is     3.6233 ev

!    total energy              =   -2976.49828735 Ry
     estimated scf accuracy    <       0.00000003 Ry
     smearing contrib. (-TS)   =      -0.01953087 Ry
     internal energy E=F+TS    =   -2976.47875648 Ry

     The total energy is F=E-TS. E is the sum of the following terms:
     one-electron contribution =  -23034.48253099 Ry
     hartree contribution      =   11613.59812918 Ry
     xc contribution           =    -495.70958920 Ry
     ewald contribution        =    8940.11337336 Ry
     electric field correction =       0.00186117 Ry

     convergence has been achieved in  59 iterations

     Forces acting on atoms (cartesian axes, Ry/au):

     atom    1 type  1   force =     0.00001046   -0.00022546    0.09408880
     atom    2 type  1   force =    -0.00016208    0.00025327   -0.17512409
     atom    3 type  2   force =     0.00007427   -0.00016790   -0.02114714
     atom    4 type  2   force =     0.00000334   -0.00104384    0.05355512
     atom    5 type  2   force =    -0.00455544   -0.00322001    0.00114821
     atom    6 type  2   force =     0.00661178   -0.00241997    0.00161429
     atom    7 type  1   force =     0.00037211    0.00457788    0.01036299
     atom    8 type  1   force =    -0.00055977    0.00198788    0.00310597
     atom    9 type  2   force =     0.00010283   -0.00049612   -0.00046338
     atom   10 type  2   force =    -0.00031150   -0.00004692   -0.01130001
     atom   11 type  2   force =    -0.00024279    0.00046054    0.00003529
     atom   12 type  2   force =    -0.00026175    0.00067742    0.00007353
     atom   13 type  1   force =     0.00061469   -0.00065926    0.00022696
     atom   14 type  1   force =    -0.00035712    0.00017403    0.00019976
     atom   15 type  2   force =    -0.00016990    0.00010382    0.00052598
     atom   16 type  2   force =     0.00004519   -0.00003011    0.00040176
     atom   17 type  2   force =    -0.00038216    0.00023513    0.00007891
     atom   18 type  2   force =     0.00003242    0.00009031    0.00024092
     atom   19 type  1   force =    -0.00009571    0.00054169   -0.00028091
     atom   20 type  1   force =    -0.00000063   -0.00012777   -0.00011296
     atom   21 type  2   force =     0.00002946   -0.00001358    0.10310513
     atom   22 type  2   force =    -0.00006954   -0.00016572   -0.00038037
     atom   23 type  2   force =    -0.07214292   -0.00020598   -0.02724788
     atom   24 type  2   force =     0.07204666    0.00023753   -0.02732600
     atom   25 type  1   force =     0.00007020   -0.00034636    0.09407392
     atom   26 type  1   force =    -0.00000342   -0.00129162   -0.17515485
     atom   27 type  2   force =     0.00015429   -0.00021022   -0.01992963
     atom   28 type  2   force =     0.00008743   -0.00110986    0.04907308
     atom   29 type  2   force =    -0.00668742    0.00152955    0.00212316
     atom   30 type  2   force =     0.00855611    0.00170795    0.00249485
     atom   31 type  1   force =     0.00049859   -0.00019554    0.00052619
     atom   32 type  1   force =    -0.00020646   -0.00145569    0.00350012
     atom   33 type  2   force =    -0.00007852   -0.00001555   -0.00000900
     atom   34 type  2   force =    -0.00088772    0.00246877   -0.01150706
     atom   35 type  2   force =     0.00002544   -0.00043345    0.00047450
     atom   36 type  2   force =    -0.00052481   -0.00040971    0.00032994
     atom   37 type  1   force =     0.00036310    0.00028165    0.00001232
     atom   38 type  1   force =    -0.00037877    0.00020846    0.00029180
     atom   39 type  2   force =    -0.00050792    0.00042220    0.00047669
     atom   40 type  2   force =    -0.00002196   -0.00007574   -0.00006226
     atom   41 type  2   force =    -0.00038469   -0.00027048    0.00025722
     atom   42 type  2   force =    -0.00021894   -0.00025162   -0.00025372
     atom   43 type  1   force =    -0.00004190   -0.00037005    0.00070655
     atom   44 type  1   force =    -0.00017172    0.00018949    0.00011413
     atom   45 type  2   force =     0.00002132   -0.00001421    0.10297105
     atom   46 type  2   force =    -0.07214792   -0.00009066   -0.02724382
     atom   47 type  2   force =     0.07200317    0.00034784   -0.02728570
     atom   48 type  3   force =     0.00054143   -0.00054346   -0.00026024
     atom   49 type  3   force =    -0.00069676    0.00009718    0.00007849
     atom   50 type  4   force =     0.00033003   -0.00026428    0.00018828
     atom   51 type  5   force =    -0.00030098    0.00024351    0.00003321
     atom   52 type  5   force =    -0.00009992   -0.00079877    0.00001031
     atom   53 type  5   force =     0.00020526   -0.00052545    0.00001930
     atom   54 type  5   force =     0.00017928    0.00021745   -0.00055624
     atom   55 type  5   force =    -0.00016557    0.00031207    0.00041120
     atom   56 type  5   force =     0.00031742    0.00021486   -0.00038819
     atom   57 type  2   force =    -0.00021373    0.00052932   -0.00070118
     atom   58 type  5   force =    -0.00024584   -0.00061443   -0.00019530

     Total force =     0.361697     Total SCF correction =     0.000528
  @ DRIVER MODE: Message from server: STATUS
  @ DRIVER MODE: Message from server: GETFORCE
  @ DRIVER MODE: Returning v,forces,stress,ensemble

     Writing output data file ./calc.save/
  @ DRIVER MODE: Message from server: EXIT
  @ DRIVE MODE: Exiting

     General routines

     Parallel routines

   This run was terminated on:  11: 1:53  23Sep2021

   JOB DONE.