     Program PWSCF v.6.7GPU starts on  8Sep2021 at 22:57:53

     R & G space division:  proc/nbgrp/npool/nimage =      10
     Reading input from /storage/home/hcoda1/3/ntian30/research/carbon/CxH_vib/CH2_calc/ads_slab/CH2N2H_a/out_0004/pw.inp
Warning: card &CELL ignored
Warning: card   CELL_DYNAMICS='IPI', ignored
Warning: card / ignored

     Current dimensions of program PWSCF are:
     Max number of different atomic species (ntypx) = 10
     Max number of k-points (npk) =  40000
     Max angular momentum in pseudopotentials (lmaxx) =  3
     Presently no symmetry can be used with electric field

     Message from routine cell_base_init:
     DEPRECATED: use true lattice parameter, not A to a.u. conversion factor

     IMPORTANT: XC functional enforced from input :
     Exchange-correlation= BEEF-VDW
                           (   1   4  43  14   2   0   0)
     Any further DFT definition will be discarded
     Please, verify this is what you really want

  @ DRIVER MODE: Connecting to
 qe_1139763_2767385.sched-torque.pace.gatech.edu2e6utard_scratch
  using UNIX socket
  @ DRIVER MODE: Message from server: STATUS
  @ DRIVER MODE: Message from server: INIT
  @ DRIVER MODE: Receiving replica           0          -1
  @ DRIVER MODE: Receiving encoded integer          25
  @ DRIVER MODE:  SCF:  T  FORCE:  T  STRESS:  F  VC:  F  ENSEMBLE:  F
  @ DRIVER MODE:  SCF:  T  FORCE:  T  STRESS:  F  VC:  F  ENSEMBLE:  F

     Using Slab Decomposition

     bravais-lattice index     =            0
     lattice parameter (alat)  =       1.8897  a.u.
     unit-cell volume          =    6658.9804 (a.u.)^3
     number of atoms/cell      =           53
     number of atomic types    =            5
     number of electrons       =       395.00
     number of Kohn-Sham states=          207
     kinetic-energy cutoff     =      29.3995  Ry
     charge density cutoff     =     293.9946  Ry
     scf convergence threshold =      7.3E-08
     mixing beta               =       0.0500
     number of iterations used =            8  plain     mixing
     Exchange-correlation= BEEF-VDW
                           (   1   4  43  14   2   0   0)

     celldm(1)=   1.889726  celldm(2)=   0.000000  celldm(3)=   0.000000
     celldm(4)=   0.000000  celldm(5)=   0.000000  celldm(6)=   0.000000

     crystal axes: (cart. coord. in units of alat)
               a(1) = (   6.579727   0.000000   0.000000 )
               a(2) = (  -0.000775   5.961596   0.000000 )
               a(3) = (   0.000000   0.000000  25.155947 )

     reciprocal axes: (cart. coord. in units 2 pi/alat)
               b(1) = (  0.151982  0.000020  0.000000 )
               b(2) = (  0.000000  0.167740  0.000000 )
               b(3) = (  0.000000  0.000000  0.039752 )

     PseudoPot. # 1 for Ti read from file:
     /storage/coda1/p-amedford6/0/shared/rich_project_chbe-medford/medford-share/data/pseudos_module/espresso/nninc/pbe/van/Ti.UPF
     MD5 check sum: 8e4df49b7f0d34bbd5052bf3f5ea0213
     Pseudo is Ultrasoft, Zval = 12.0
     Generated by new atomic code, or converted to UPF format
     Using radial grid of  851 points,  6 beta functions with:
                l(1) =   0
                l(2) =   0
                l(3) =   1
                l(4) =   1
                l(5) =   2
                l(6) =   2
     Q(r) pseudized with  8 coefficients,  rinner =    1.000   1.000   1.000
                                                       1.000   1.000

     PseudoPot. # 2 for O  read from file:
     /storage/coda1/p-amedford6/0/shared/rich_project_chbe-medford/medford-share/data/pseudos_module/espresso/nninc/pbe/van/O.UPF
     MD5 check sum: 78c19812648e8988a0fe644b0f25305e
     Pseudo is Ultrasoft, Zval =  6.0
     Generated by new atomic code, or converted to UPF format
     Using radial grid of  737 points,  4 beta functions with:
                l(1) =   0
                l(2) =   0
                l(3) =   1
                l(4) =   1
     Q(r) pseudized with  8 coefficients,  rinner =    0.800   0.800   0.800

     PseudoPot. # 3 for N  read from file:
     /storage/coda1/p-amedford6/0/shared/rich_project_chbe-medford/medford-share/data/pseudos_module/espresso/nninc/pbe/van/N.UPF
     MD5 check sum: 90d10febe142ad51ac9d5be1deb811c4
     Pseudo is Ultrasoft, Zval =  5.0
     Generated by new atomic code, or converted to UPF format
     Using radial grid of  729 points,  4 beta functions with:
                l(1) =   0
                l(2) =   0
                l(3) =   1
                l(4) =   1
     Q(r) pseudized with  8 coefficients,  rinner =    0.800   0.800   0.800

     PseudoPot. # 4 for C  read from file:
     /storage/coda1/p-amedford6/0/shared/rich_project_chbe-medford/medford-share/data/pseudos_module/espresso/nninc/pbe/van/C.UPF
     MD5 check sum: 1a69bf6b8db32088f5b2163dbdb77a27
     Pseudo is Ultrasoft, Zval =  4.0
     Generated by new atomic code, or converted to UPF format
     Using radial grid of  721 points,  4 beta functions with:
                l(1) =   0
                l(2) =   0
                l(3) =   1
                l(4) =   1
     Q(r) pseudized with  8 coefficients,  rinner =    0.800   0.800   0.800

     PseudoPot. # 5 for H  read from file:
     /storage/coda1/p-amedford6/0/shared/rich_project_chbe-medford/medford-share/data/pseudos_module/espresso/nninc/pbe/van/H.UPF
     MD5 check sum: b5ee9d7bfd3a09ee7748110bda690ff7
     Pseudo is Ultrasoft, Zval =  1.0
     Generated by new atomic code, or converted to UPF format
     Using radial grid of  615 points,  1 beta functions with:
                l(1) =   0
     Q(r) pseudized with  8 coefficients,  rinner =    0.800

     atomic species   valence    mass     pseudopotential
        Ti1           12.00    47.86700     Ti( 1.00)
        O1             6.00    15.99900     O ( 1.00)
        N1             5.00    14.00700     N ( 1.00)
        C1             4.00    12.01100     C ( 1.00)
        H1             1.00     1.00800     H ( 1.00)

     No symmetry found

   Cartesian axes

     site n.     atom                  positions (alat units)
         1           Ti1 tau(   1) = (   0.0004258   2.9801865   6.0000000  )
         2           Ti1 tau(   2) = (   3.2906075   1.4906267   6.0002472  )
         3           O1  tau(   3) = (   0.0006271   0.0005054   7.9858123  )
         4           O1  tau(   4) = (   3.2906025   0.0005020   7.3038282  )
         5           O1  tau(   5) = (   4.5942328   1.4918067   9.2879030  )
         6           O1  tau(   6) = (   1.9868534   1.4903216   9.2879459  )
         7           Ti1 tau(   7) = (   3.2907910   2.8959150   9.1758416  )
         8           Ti1 tau(   8) = (   0.0015273   1.4827037   9.2680791  )
         9           O1  tau(   9) = (   3.3007851   0.0027079  11.3193151  )
        10           O1  tau(  10) = (   0.0116148   5.9584955  10.6183126  )
        11           O1  tau(  11) = (   1.3147357   1.5019762  12.6210215  )
        12           O1  tau(  12) = (   5.3120411   1.4917641  12.6342566  )
        13           Ti1 tau(  13) = (   6.5359925   2.9538565  12.6086018  )
        14           Ti1 tau(  14) = (   3.2189980   1.4905645  12.4770757  )
        15           O1  tau(  15) = (   0.0426301   5.9606301  14.6312846  )
        16           O1  tau(  16) = (   3.3149351   0.0098317  13.8848037  )
        17           O1  tau(  17) = (   4.5523768   1.5206755  16.0744300  )
        18           O1  tau(  18) = (   2.0715852   1.4807026  15.9918588  )
        19           Ti1 tau(  19) = (   3.2935730   2.9941335  15.6827836  )
        20           Ti1 tau(  20) = (   0.0200723   1.3023755  15.9747514  )
        21           O1  tau(  21) = (   3.2904802   0.0005063   4.7018136  )
        22           O1  tau(  22) = (   6.5179923   0.0002674  17.1556216  )
        23           O1  tau(  23) = (   1.3043587   1.4918075   6.0039043  )
        24           O1  tau(  24) = (   5.2767064   1.4903225   6.0039473  )
        25           Ti1 tau(  25) = (   0.0000382   5.9609847   6.0000000  )
        26           Ti1 tau(  26) = (   3.2902200   4.4714249   6.0002472  )
        27           O1  tau(  27) = (   0.0002396   2.9813036   7.9858123  )
        28           O1  tau(  28) = (   3.2902150   2.9813002   7.3038282  )
        29           O1  tau(  29) = (   4.5938453   4.4726049   9.2879030  )
        30           O1  tau(  30) = (   1.9864658   4.4711199   9.2879459  )
        31           Ti1 tau(  31) = (   3.2891106   5.8743827   9.1763621  )
        32           Ti1 tau(  32) = (   0.0006254   4.4649316   9.2693709  )
        33           O1  tau(  33) = (   3.3053585   2.9833221  11.3185053  )
        34           O1  tau(  34) = (   0.0092240   2.9805883  10.6323155  )
        35           O1  tau(  35) = (   1.3157767   4.4721532  12.6203727  )
        36           O1  tau(  36) = (   5.3104355   4.4689601  12.6331991  )
        37           Ti1 tau(  37) = (   6.5385524   5.9338372  12.5465384  )
        38           Ti1 tau(  38) = (   3.2200853   4.4710709  12.4725482  )
        39           O1  tau(  39) = (   0.0068575   2.9964749  14.7765288  )
        40           O1  tau(  40) = (   3.3021705   2.9848394  13.8818356  )
        41           O1  tau(  41) = (   4.5334443   4.4765196  15.9883447  )
        42           O1  tau(  42) = (   2.0816803   4.4801587  16.0471567  )
        43           Ti1 tau(  43) = (   3.3155128   0.0116264  15.6901768  )
        44           Ti1 tau(  44) = (   6.5575601   4.4671909  15.9479714  )
        45           O1  tau(  45) = (   3.2900926   2.9813045   4.7018136  )
        46           O1  tau(  46) = (   1.3039711   4.4726057   6.0039043  )
        47           O1  tau(  47) = (   5.2763189   4.4711207   6.0039473  )
        48           N1  tau(  48) = (   0.4270260   2.3953988  17.9668900  )
        49           C1  tau(  49) = (   0.9469377   1.9340014  19.0583692  )
        50           H1  tau(  50) = (   1.0789317   2.5769861  19.9249762  )
        51           H1  tau(  51) = (   1.2326487   0.8959138  19.0941702  )
        52           N1  tau(  52) = (   0.0025679   3.6232397  17.7996529  )
        53           H1  tau(  53) = (   0.1020252   4.2324666  18.6151602  )

     number of k points=    10  Fermi-Dirac smearing, width (Ry)=  0.0073
                       cart. coord. in units 2pi/alat
        k(    1) = (   0.0000000   0.0000000   0.0000000), wk =   0.1250000
        k(    2) = (   0.0000000   0.0419351   0.0000000), wk =   0.2500000
        k(    3) = (   0.0000000  -0.0838702   0.0000000), wk =   0.1250000
        k(    4) = (   0.0379955   0.0000049   0.0000000), wk =   0.2500000
        k(    5) = (   0.0379955   0.0419400   0.0000000), wk =   0.2500000
        k(    6) = (   0.0379955  -0.0838652   0.0000000), wk =   0.2500000
        k(    7) = (   0.0379955  -0.0419301   0.0000000), wk =   0.2500000
        k(    8) = (  -0.0759910  -0.0000099   0.0000000), wk =   0.1250000
        k(    9) = (  -0.0759910   0.0419252   0.0000000), wk =   0.2500000
        k(   10) = (  -0.0759910  -0.0838800   0.0000000), wk =   0.1250000

     Initial potential from superposition of free atoms

     starting charge  378.99916, renormalised to  395.00000

     negative rho (up, down):  1.650E-02 0.000E+00

     %%%%%%%%%%%%%%%%%%%%%%%%%%%%%%%%%%%%%%%%%%%%%%%%%%%%%%%%%%%%%%%%%%%%%%%%
     %                                                                      %
     % You are using vdW-DF, which was implemented by the Thonhauser group. %
     % Please cite the following two papers that made this development      %
     % possible and the two reviews that describe the various versions:     %
     %                                                                      %
     %   T. Thonhauser et al., PRL 115, 136402 (2015).                      %
     %   T. Thonhauser et al., PRB 76, 125112 (2007).                       %
     %   K. Berland et al., Rep. Prog. Phys. 78, 066501 (2015).             %
     %   D.C. Langreth et al., J. Phys.: Condens. Matter 21, 084203 (2009). %
     %                                                                      %
     %                                                                      %
     % If you are calculating the stress with vdW-DF, please also cite:     %
     %                                                                      %
     %   R. Sabatini et al., J. Phys.: Condens. Matter 24, 424209 (2012).   %
     %                                                                      %
     %%%%%%%%%%%%%%%%%%%%%%%%%%%%%%%%%%%%%%%%%%%%%%%%%%%%%%%%%%%%%%%%%%%%%%%%

     Adding external electric field

     Computed dipole along edir(3) :
        Dipole               -8.3970 Ry au,        -21.3430 Debye
        Dipole field         -0.0158 Ry au,

        Potential amp.        1.4689 Ry
        Total length         46.3494 bohr

     Starting wfcs are  299 atomic wfcs
  @ DRIVER MODE: Message from server: STATUS
  @ DRIVER MODE: Message from server: POSDATA
  @ DRIVER MODE: Reading and sharing cell
  @ DRIVER MODE: Reading and sharing positions
  @ DRIVER MODE: Received positions

     Self-consistent Calculation

     iteration #  1     ecut=    29.40 Ry     beta= 0.05
     Davidson diagonalization with overlap
     c_bands:  2 eigenvalues not converged
     c_bands:  1 eigenvalues not converged
     c_bands:  2 eigenvalues not converged
     c_bands:  3 eigenvalues not converged
     c_bands:  3 eigenvalues not converged
     c_bands:  2 eigenvalues not converged
     c_bands:  1 eigenvalues not converged
     ethr =  1.00E-05,  avg # of iterations = 19.3

[...]

     total energy              =   -2613.93784023 Ry
     estimated scf accuracy    <    3601.28864609 Ry

[...]

     iteration #  3     ecut=    29.40 Ry     beta= 0.05
     Davidson diagonalization with overlap
     ethr =  1.00E-02,  avg # of iterations = 14.2

[...]

     iteration # 57     ecut=    29.40 Ry     beta= 0.05
     Davidson diagonalization with overlap
     c_bands:  1 eigenvalues not converged
     c_bands:  1 eigenvalues not converged
     c_bands:  1 eigenvalues not converged
     ethr =  8.18E-07,  avg # of iterations = 17.4

[...]

     total energy              =   -2939.13521191 Ry
     estimated scf accuracy    <       0.00000009 Ry

     iteration # 81     ecut=    29.40 Ry     beta= 0.05
     Davidson diagonalization with overlap
     ethr =  2.30E-11,  avg # of iterations =  7.9

     negative rho (up, down):  1.678E-02 0.000E+00

     Adding external electric field

     Computed dipole along edir(3) :
        Dipole                0.7778 Ry au,          1.9770 Debye
        Dipole field          0.0015 Ry au,

        Potential amp.       -0.1361 Ry
        Total length         46.3494 bohr

     End of self-consistent calculation

          k = 0.0000 0.0000 0.0000 ( 18029 PWs)   bands (ev):

   -55.8586 -55.8574 -55.8245 -55.8214 -55.7518 -55.7087 -55.6712 -55.6692
   -55.6363 -55.6352 -55.6305 -55.5968 -55.1955 -55.1494 -54.8343 -54.8003
   -32.4116 -32.3415 -32.2475 -32.1691 -32.1552 -32.1507 -32.1373 -32.1223
   -32.1016 -32.0885 -32.0355 -32.0178 -32.0110 -32.0092 -31.9994 -31.9956
   -31.9634 -31.9515 -31.9455 -31.9429 -31.9160 -31.9138 -31.8977 -31.8956
   -31.8647 -31.8605 -31.8584 -31.8572 -31.8321 -31.8174 -31.8095 -31.7992
   -31.7868 -31.7850 -31.7774 -31.7439 -31.7378 -31.4590 -31.4232 -31.3949
   -31.3436 -31.3077 -31.2412 -31.1535 -31.1311 -31.0582 -30.9717 -30.8604
   -17.9984 -16.6179 -16.3378 -16.0827 -16.0073 -16.0033 -15.8697 -15.7068
   -15.5940 -15.5271 -15.4468 -15.4171 -15.3951 -15.3596 -15.3533 -15.3154
   -15.3066 -15.2815 -15.2777 -15.2154 -15.2120 -15.2046 -15.1947 -15.1106
   -15.0529 -15.0014 -14.9938 -14.9203 -14.8867 -14.3580 -13.3363 -13.2200
   -12.1504  -7.8856  -5.3716  -4.5321  -3.9946  -3.8353  -3.7657  -3.7312
    -3.6544  -3.4948  -3.4161  -3.1378  -3.0887  -3.0299  -3.0203  -2.9838
    -2.9507  -2.7891  -2.7110  -2.6835  -2.6677  -2.6451  -2.6300  -2.6181
    -2.6044  -2.5827  -2.5038  -2.4208  -2.3766  -2.3001  -2.2860  -2.2520
    -2.1707  -2.1704  -2.1310  -2.1102  -2.0921  -2.0758  -2.0674  -2.0522
    -1.9140  -1.8584  -1.8409  -1.6634  -1.6507  -1.5942  -1.4675  -1.4613
    -1.3442  -1.3294  -1.2891  -1.2514  -1.1787  -1.1570  -1.0453  -1.0043
    -0.9425  -0.8980  -0.8817  -0.8047  -0.7394  -0.6985  -0.6832  -0.6232
    -0.6163  -0.6035  -0.4697  -0.3907  -0.3389  -0.2826  -0.2604  -0.2048
    -0.1648  -0.1217  -0.0326  -0.0072   0.0046   0.0639   0.0845   0.1100
     0.1213   0.1411   0.1710   0.2256   0.3438   0.3759   0.4527   0.4667
     0.5275   0.6605   0.7985   0.8664   0.9182   1.0362   1.1190   1.1884
     1.2618   1.3808   1.7585   1.8040   2.1463   3.2612   3.3632   3.3959
     3.4070   3.5101   3.6586   3.7204   3.7355   3.7769   3.8106

[...]

          k = 0.0380-0.0419 0.0000 ( 17876 PWs)   bands (ev):

[...]

          k =-0.0760-0.0000 0.0000 ( 17886 PWs)   bands (ev):

[...]

          k =-0.0760-0.0839 0.0000 ( 17948 PWs)   bands (ev):

   -55.8417 -55.8413 -55.8399 -55.8387 -55.7432 -55.7173 -55.6546 -55.6528
   -55.6524 -55.6515 -55.6143 -55.6131 -55.1876 -55.1571 -54.8174 -54.8172
   -32.2137 -32.2121 -32.1569 -32.1567 -32.1362 -32.1359 -32.1023 -32.0994
   -32.0902 -32.0736 -32.0080 -32.0053 -31.9999 -31.9979 -31.9759 -31.9683
   -31.9615 -31.9610 -31.9558 -31.9546 -31.9526 -31.9413 -31.9355 -31.9285
   -31.9164 -31.9114 -31.8669 -31.8565 -31.8545 -31.8536 -31.8453 -31.8446
   -31.8313 -31.8306 -31.8301 -31.8288 -31.6893 -31.4547 -31.4215 -31.4176
   -31.3982 -31.3446 -31.1439 -31.1437 -31.0540 -31.0539 -31.0150 -31.0150
   -17.9858 -16.0330 -16.0303 -15.8225 -15.7835 -15.7645 -15.7586 -15.6688
   -15.5831 -15.5496 -15.5466 -15.4605 -15.4332 -15.4172 -15.4012 -15.3958
   -15.3866 -15.3574 -15.3222 -15.3147 -15.3006 -15.2950 -15.2834 -15.2261
   -15.1748 -15.1706 -15.1483 -15.0760 -14.8374 -14.6969 -13.3218 -13.3217
   -12.1120  -7.8269  -5.4168  -4.5930  -3.3276  -3.3181  -3.0720  -3.0351
    -3.0280  -3.0108  -2.9570  -2.7957  -2.7832  -2.7637  -2.7562  -2.7112
    -2.6879  -2.6675  -2.6479  -2.6427  -2.6140  -2.5878  -2.5727  -2.5354
    -2.5285  -2.5197  -2.4881  -2.4774  -2.4319  -2.4256  -2.4049  -2.3777
    -2.3691  -2.3354  -2.1899  -2.1134  -2.0855  -2.0003  -1.9934  -1.9535
    -1.9333  -1.9098  -1.9091  -1.8748  -1.8374  -1.7003  -1.6178  -1.5563
    -1.5477  -1.4632  -1.4353  -1.3727  -1.2842  -1.2581  -1.2378  -1.1662
    -1.0898  -1.0522  -1.0019  -0.9875  -0.9205  -0.9097  -0.8535  -0.8170
    -0.8151  -0.7369  -0.7037  -0.6624  -0.6241  -0.6072  -0.5839  -0.5572
    -0.5415  -0.5196  -0.4466  -0.3587  -0.3072  -0.2460  -0.1530  -0.0213
     0.0962   0.2091   0.2307   0.2751   0.3293   0.3642   0.4553   0.4591
     0.5217   0.5457   0.5878   0.6660   0.6759   0.7005   0.8116   0.8608
     1.5529   1.5533   1.6239   1.6240   2.0877   3.5840   3.6128   3.6321
     3.6634   3.7932   3.7991   3.8096   3.8104   3.9490   3.9550

     the Fermi energy is     3.2711 ev

!    total energy              =   -2939.13521829 Ry
     estimated scf accuracy    <       0.00000006 Ry
     smearing contrib. (-TS)   =      -0.02099207 Ry
     internal energy E=F+TS    =   -2939.11422622 Ry

     The total energy is F=E-TS. E is the sum of the following terms:
     one-electron contribution =  -24492.32251385 Ry
     hartree contribution      =   12334.04969375 Ry
     xc contribution           =    -485.37579705 Ry
     ewald contribution        =    9704.53324927 Ry
     electric field correction =       0.00114167 Ry

     convergence has been achieved in  81 iterations

     Forces acting on atoms (cartesian axes, Ry/au):

     atom    1 type  1   force =     0.00007557   -0.00023819    0.09632745
     atom    2 type  1   force =     0.00005191   -0.00056974   -0.17513806
     atom    3 type  2   force =     0.00014901   -0.00013270   -0.02410232
     atom    4 type  2   force =    -0.00000539   -0.00124813    0.05221989
     atom    5 type  2   force =    -0.01055764   -0.00047828    0.00251254
     atom    6 type  2   force =     0.01237321    0.00022134    0.00288632
     atom    7 type  1   force =     0.00098600    0.00026409   -0.01174352
     atom    8 type  1   force =    -0.00014086    0.00775546    0.02263264
     atom    9 type  2   force =    -0.00019786   -0.00015267   -0.00028656
     atom   10 type  2   force =    -0.00262109    0.00114827   -0.01267262
     atom   11 type  2   force =     0.00006192   -0.00012335    0.00006025
     atom   12 type  2   force =     0.00008908    0.00018273   -0.00038090
     atom   13 type  1   force =     0.00044190   -0.00034889    0.00023451
     atom   14 type  1   force =     0.00016018    0.00033677   -0.00016414
     atom   15 type  2   force =    -0.00024862    0.00007348    0.00003194
     atom   16 type  2   force =     0.00011614   -0.00022665    0.00036157
     atom   17 type  2   force =     0.00052263    0.00001526    0.00034326
     atom   18 type  2   force =     0.00063128   -0.00020893    0.00024212
     atom   19 type  1   force =    -0.00122613   -0.00025850    0.00026968
     atom   20 type  1   force =     0.00048764   -0.00007551   -0.00024751
     atom   21 type  2   force =     0.00004726    0.00000631    0.10309700
     atom   22 type  2   force =     0.00029445    0.00059894    0.00014110
     atom   23 type  2   force =    -0.07160742   -0.00015308   -0.02764364
     atom   24 type  2   force =     0.07154323    0.00034843   -0.02770573
     atom   25 type  1   force =     0.00015135   -0.00022805    0.09585458
     atom   26 type  1   force =     0.00010155   -0.00040234   -0.17540486
     atom   27 type  2   force =     0.00017480   -0.00021252   -0.02293190
     atom   28 type  2   force =     0.00006234   -0.00101482    0.05218206
     atom   29 type  2   force =    -0.01085580    0.00047807    0.00243451
     atom   30 type  2   force =     0.01254772    0.00063816    0.00278182
     atom   31 type  1   force =     0.00088017    0.00347739   -0.01292644
     atom   32 type  1   force =     0.00003311   -0.00925446    0.02306268
     atom   33 type  2   force =    -0.00048362    0.00013357    0.00021449
     atom   34 type  2   force =    -0.00302731    0.00022978   -0.01288390
     atom   35 type  2   force =     0.00009012    0.00008572   -0.00008097
     atom   36 type  2   force =     0.00008982    0.00033237   -0.00039521
     atom   37 type  1   force =     0.00033600    0.00036589    0.00008301
     atom   38 type  1   force =     0.00002635   -0.00043590    0.00013466
     atom   39 type  2   force =     0.00013410    0.00047069    0.00049351
     atom   40 type  2   force =     0.00035895    0.00015017   -0.00038573
     atom   41 type  2   force =     0.00062930   -0.00005728    0.00039695
     atom   42 type  2   force =     0.00066473   -0.00004786    0.00064720
     atom   43 type  1   force =    -0.00161568   -0.00016588   -0.00025309
     atom   44 type  1   force =     0.00062049    0.00020137   -0.00164248
     atom   45 type  2   force =     0.00006123   -0.00003943    0.10307572
     atom   46 type  2   force =    -0.07163049   -0.00007059   -0.02765778
     atom   47 type  2   force =     0.07156877    0.00032580   -0.02772423
     atom   48 type  3   force =     0.00519210   -0.02112407    0.00304030
     atom   49 type  4   force =    -0.00303183    0.00517275   -0.00398199
     atom   50 type  5   force =    -0.00092197    0.00035896    0.00122182
     atom   51 type  5   force =    -0.00000795   -0.00003260   -0.00102592
     atom   52 type  3   force =    -0.00284029    0.01247251   -0.00046940
     atom   53 type  5   force =    -0.00073445    0.00145612    0.00086531

     Total force =     0.366642     Total SCF correction =     0.000370
  @ DRIVER MODE: Message from server: STATUS
  @ DRIVER MODE: Message from server: GETFORCE
  @ DRIVER MODE: Returning v,forces,stress,ensemble

     Writing output data file ./calc.save/
  @ DRIVER MODE: Message from server: EXIT
  @ DRIVE MODE: Exiting

     General routines

     Parallel routines

   This run was terminated on:  23:18: 3   8Sep2021

   JOB DONE.