     Program PWSCF v.6.7GPU starts on 16Sep2021 at  7:56:13

     R & G space division:  proc/nbgrp/npool/nimage =      10
     Reading input from /storage/home/hcoda1/3/ntian30/research/carbon/CxH_vib/H2O_calc/ads_slab/CH2N2HH2O_a/out_0049/pw.inp
Warning: card &CELL ignored
Warning: card   CELL_DYNAMICS='IPI', ignored
Warning: card / ignored

     Current dimensions of program PWSCF are:
     Max number of different atomic species (ntypx) = 10
     Max number of k-points (npk) =  40000
     Max angular momentum in pseudopotentials (lmaxx) =  3
     Presently no symmetry can be used with electric field

     Message from routine cell_base_init:
     DEPRECATED: use true lattice parameter, not A to a.u. conversion factor

     IMPORTANT: XC functional enforced from input :
     Exchange-correlation= BEEF-VDW
                           (   1   4  43  14   2   0   0)
     Any further DFT definition will be discarded
     Please, verify this is what you really want

  @ DRIVER MODE: Connecting to
 qe_1139763_2852606.sched-torque.pace.gatech.edubu_rj_o1_scratch
  using UNIX socket
  @ DRIVER MODE: Message from server: STATUS
  @ DRIVER MODE: Message from server: INIT
  @ DRIVER MODE: Receiving replica           0          -1
  @ DRIVER MODE: Receiving encoded integer          25
  @ DRIVER MODE:  SCF:  T  FORCE:  T  STRESS:  F  VC:  F  ENSEMBLE:  F
  @ DRIVER MODE:  SCF:  T  FORCE:  T  STRESS:  F  VC:  F  ENSEMBLE:  F

     Using Slab Decomposition

     bravais-lattice index     =            0
     lattice parameter (alat)  =       1.8897  a.u.
     unit-cell volume          =    6658.9804 (a.u.)^3
     number of atoms/cell      =           56
     number of atomic types    =            5
     number of electrons       =       403.00
     number of Kohn-Sham states=          211
     kinetic-energy cutoff     =      29.3995  Ry
     charge density cutoff     =     293.9946  Ry
     scf convergence threshold =      7.3E-08
     mixing beta               =       0.0500
     number of iterations used =            8  plain     mixing
     Exchange-correlation= BEEF-VDW
                           (   1   4  43  14   2   0   0)

     celldm(1)=   1.889726  celldm(2)=   0.000000  celldm(3)=   0.000000
     celldm(4)=   0.000000  celldm(5)=   0.000000  celldm(6)=   0.000000

     crystal axes: (cart. coord. in units of alat)
               a(1) = (   6.579727   0.000000   0.000000 )
               a(2) = (  -0.000775   5.961596   0.000000 )
               a(3) = (   0.000000   0.000000  25.155947 )

     reciprocal axes: (cart. coord. in units 2 pi/alat)
               b(1) = (  0.151982  0.000020  0.000000 )
               b(2) = (  0.000000  0.167740  0.000000 )
               b(3) = (  0.000000  0.000000  0.039752 )

     PseudoPot. # 1 for Ti read from file:
     /storage/coda1/p-amedford6/0/shared/rich_project_chbe-medford/medford-share/data/pseudos_module/espresso/nninc/pbe/van/Ti.UPF
     MD5 check sum: 8e4df49b7f0d34bbd5052bf3f5ea0213
     Pseudo is Ultrasoft, Zval = 12.0
     Generated by new atomic code, or converted to UPF format
     Using radial grid of  851 points,  6 beta functions with:
                l(1) =   0
                l(2) =   0
                l(3) =   1
                l(4) =   1
                l(5) =   2
                l(6) =   2
     Q(r) pseudized with  8 coefficients,  rinner =    1.000   1.000   1.000
                                                       1.000   1.000

     PseudoPot. # 2 for O  read from file:
     /storage/coda1/p-amedford6/0/shared/rich_project_chbe-medford/medford-share/data/pseudos_module/espresso/nninc/pbe/van/O.UPF
     MD5 check sum: 78c19812648e8988a0fe644b0f25305e
     Pseudo is Ultrasoft, Zval =  6.0
     Generated by new atomic code, or converted to UPF format
     Using radial grid of  737 points,  4 beta functions with:
                l(1) =   0
                l(2) =   0
                l(3) =   1
                l(4) =   1
     Q(r) pseudized with  8 coefficients,  rinner =    0.800   0.800   0.800

     PseudoPot. # 3 for N  read from file:
     /storage/coda1/p-amedford6/0/shared/rich_project_chbe-medford/medford-share/data/pseudos_module/espresso/nninc/pbe/van/N.UPF
     MD5 check sum: 90d10febe142ad51ac9d5be1deb811c4
     Pseudo is Ultrasoft, Zval =  5.0
     Generated by new atomic code, or converted to UPF format
     Using radial grid of  729 points,  4 beta functions with:
                l(1) =   0
                l(2) =   0
                l(3) =   1
                l(4) =   1
     Q(r) pseudized with  8 coefficients,  rinner =    0.800   0.800   0.800

     PseudoPot. # 4 for C  read from file:
     /storage/coda1/p-amedford6/0/shared/rich_project_chbe-medford/medford-share/data/pseudos_module/espresso/nninc/pbe/van/C.UPF
     MD5 check sum: 1a69bf6b8db32088f5b2163dbdb77a27
     Pseudo is Ultrasoft, Zval =  4.0
     Generated by new atomic code, or converted to UPF format
     Using radial grid of  721 points,  4 beta functions with:
                l(1) =   0
                l(2) =   0
                l(3) =   1
                l(4) =   1
     Q(r) pseudized with  8 coefficients,  rinner =    0.800   0.800   0.800

     PseudoPot. # 5 for H  read from file:
     /storage/coda1/p-amedford6/0/shared/rich_project_chbe-medford/medford-share/data/pseudos_module/espresso/nninc/pbe/van/H.UPF
     MD5 check sum: b5ee9d7bfd3a09ee7748110bda690ff7
     Pseudo is Ultrasoft, Zval =  1.0
     Generated by new atomic code, or converted to UPF format
     Using radial grid of  615 points,  1 beta functions with:
                l(1) =   0
     Q(r) pseudized with  8 coefficients,  rinner =    0.800

     atomic species   valence    mass     pseudopotential
        Ti1           12.00    47.86700     Ti( 1.00)
        O1             6.00    15.99900     O ( 1.00)
        N1             5.00    14.00700     N ( 1.00)
        C1             4.00    12.01100     C ( 1.00)
        H1             1.00     1.00800     H ( 1.00)

     No symmetry found

   Cartesian axes

     site n.     atom                  positions (alat units)
         1           Ti1 tau(   1) = (   0.0004258   2.9801865   6.0000000  )
         2           Ti1 tau(   2) = (   3.2906075   1.4906267   6.0002472  )
         3           O1  tau(   3) = (   0.0006271   0.0005054   7.9858123  )
         4           O1  tau(   4) = (   3.2906025   0.0005020   7.3038282  )
         5           O1  tau(   5) = (   4.5942328   1.4918067   9.2879030  )
         6           O1  tau(   6) = (   1.9868534   1.4903216   9.2879459  )
         7           Ti1 tau(   7) = (   3.2907910   2.8959150   9.1758416  )
         8           Ti1 tau(   8) = (   0.0015273   1.4827037   9.2680791  )
         9           O1  tau(   9) = (   3.2932810   5.9556063  11.3276769  )
        10           O1  tau(  10) = (   0.0116148   5.9584955  10.6183126  )
        11           O1  tau(  11) = (   1.2966828   1.5020869  12.6141357  )
        12           O1  tau(  12) = (   5.2995835   1.4923495  12.6341875  )
        13           Ti1 tau(  13) = (   6.5470072   2.9473109  12.5798724  )
        14           Ti1 tau(  14) = (   3.2302912   1.4573256  12.5082679  )
        15           O1  tau(  15) = (   0.0525813   0.0137714  14.6435187  )
        16           O1  tau(  16) = (   3.2708393   0.0302713  13.9228694  )
        17           O1  tau(  17) = (   4.5627544   1.5900677  16.0055000  )
        18           O1  tau(  18) = (   2.0437599   1.5040777  16.0764052  )
        19           Ti1 tau(  19) = (   3.3063064   2.9825517  15.6619520  )
        20           Ti1 tau(  20) = (   6.5607061   1.3194196  15.9785141  )
        21           O1  tau(  21) = (   3.2904802   0.0005063   4.7018136  )
        22           O1  tau(  22) = (   6.3855286   5.9589440  17.1610702  )
        23           O1  tau(  23) = (   1.3043587   1.4918075   6.0039043  )
        24           O1  tau(  24) = (   5.2767064   1.4903225   6.0039473  )
        25           Ti1 tau(  25) = (   0.0000382   5.9609847   6.0000000  )
        26           Ti1 tau(  26) = (   3.2902200   4.4714249   6.0002472  )
        27           O1  tau(  27) = (   0.0002396   2.9813036   7.9858123  )
        28           O1  tau(  28) = (   3.2902150   2.9813002   7.3038282  )
        29           O1  tau(  29) = (   4.5938453   4.4726049   9.2879030  )
        30           O1  tau(  30) = (   1.9864658   4.4711199   9.2879459  )
        31           Ti1 tau(  31) = (   3.2891106   5.8743827   9.1763621  )
        32           Ti1 tau(  32) = (   0.0006254   4.4649316   9.2693709  )
        33           O1  tau(  33) = (   3.2946552   2.9814125  11.3288906  )
        34           O1  tau(  34) = (   0.0092240   2.9805883  10.6323155  )
        35           O1  tau(  35) = (   1.2978438   4.4726441  12.6233041  )
        36           O1  tau(  36) = (   5.2969606   4.4732664  12.6435870  )
        37           Ti1 tau(  37) = (   6.5415350   5.9305516  12.5357152  )
        38           Ti1 tau(  38) = (   3.2303862   4.4559975  12.4807118  )
        39           O1  tau(  39) = (   0.0164246   2.9899045  14.7829194  )
        40           O1  tau(  40) = (   3.2688228   2.9752494  13.8698570  )
        41           O1  tau(  41) = (   4.5210259   4.4573316  15.9082071  )
        42           O1  tau(  42) = (   2.0412773   4.4882057  16.0214637  )
        43           Ti1 tau(  43) = (   3.2233344   5.9452837  15.7820064  )
        44           Ti1 tau(  44) = (   6.5355943   4.4735413  15.8975681  )
        45           O1  tau(  45) = (   3.2900926   2.9813045   4.7018136  )
        46           O1  tau(  46) = (   1.3039711   4.4726057   6.0039043  )
        47           O1  tau(  47) = (   5.2763189   4.4711207   6.0039473  )
        48           N1  tau(  48) = (   0.2167872   2.3688911  18.0161765  )
        49           C1  tau(  49) = (   0.4968348   1.8934616  19.1878903  )
        50           H1  tau(  50) = (   0.5617972   2.5522217  20.0513624  )
        51           H1  tau(  51) = (   0.6371857   0.8299532  19.2874115  )
        52           N1  tau(  52) = (   6.5661014   3.6386027  17.7750644  )
        53           H1  tau(  53) = (   0.0713089   4.2532688  18.5884219  )
        54           O1  tau(  54) = (   3.6608114   5.9026821  18.0962282  )
        55           H1  tau(  55) = (   4.6425638   0.0038819  18.0438526  )
        56           H1  tau(  56) = (   3.3458581   0.7595698  18.5153002  )

     number of k points=    10  Fermi-Dirac smearing, width (Ry)=  0.0073
                       cart. coord. in units 2pi/alat
        k(    1) = (   0.0000000   0.0000000   0.0000000), wk =   0.1250000
        k(    2) = (   0.0000000   0.0419351   0.0000000), wk =   0.2500000
        k(    3) = (   0.0000000  -0.0838702   0.0000000), wk =   0.1250000
        k(    4) = (   0.0379955   0.0000049   0.0000000), wk =   0.2500000
        k(    5) = (   0.0379955   0.0419400   0.0000000), wk =   0.2500000
        k(    6) = (   0.0379955  -0.0838652   0.0000000), wk =   0.2500000
        k(    7) = (   0.0379955  -0.0419301   0.0000000), wk =   0.2500000
        k(    8) = (  -0.0759910  -0.0000099   0.0000000), wk =   0.1250000
        k(    9) = (  -0.0759910   0.0419252   0.0000000), wk =   0.2500000
        k(   10) = (  -0.0759910  -0.0838800   0.0000000), wk =   0.1250000

     Initial potential from superposition of free atoms

     starting charge  386.99914, renormalised to  403.00000

     negative rho (up, down):  1.554E-02 0.000E+00

     %%%%%%%%%%%%%%%%%%%%%%%%%%%%%%%%%%%%%%%%%%%%%%%%%%%%%%%%%%%%%%%%%%%%%%%%
     %                                                                      %
     % You are using vdW-DF, which was implemented by the Thonhauser group. %
     % Please cite the following two papers that made this development      %
     % possible and the two reviews that describe the various versions:     %
     %                                                                      %
     %   T. Thonhauser et al., PRL 115, 136402 (2015).                      %
     %   T. Thonhauser et al., PRB 76, 125112 (2007).                       %
     %   K. Berland et al., Rep. Prog. Phys. 78, 066501 (2015).             %
     %   D.C. Langreth et al., J. Phys.: Condens. Matter 21, 084203 (2009). %
     %                                                                      %
     %                                                                      %
     % If you are calculating the stress with vdW-DF, please also cite:     %
     %                                                                      %
     %   R. Sabatini et al., J. Phys.: Condens. Matter 24, 424209 (2012).   %
     %                                                                      %
     %%%%%%%%%%%%%%%%%%%%%%%%%%%%%%%%%%%%%%%%%%%%%%%%%%%%%%%%%%%%%%%%%%%%%%%%

     Adding external electric field

     Computed dipole along edir(3) :
        Dipole              -12.7952 Ry au,        -32.5221 Debye
        Dipole field         -0.0241 Ry au,

        Potential amp.        2.2383 Ry
        Total length         46.3494 bohr

     Starting wfcs are  305 atomic wfcs
  @ DRIVER MODE: Message from server: STATUS
  @ DRIVER MODE: Message from server: POSDATA
  @ DRIVER MODE: Reading and sharing cell
  @ DRIVER MODE: Reading and sharing positions
  @ DRIVER MODE: Received positions

     Self-consistent Calculation

     iteration #  1     ecut=    29.40 Ry     beta= 0.05
     Davidson diagonalization with overlap
     c_bands:  3 eigenvalues not converged
     c_bands:  3 eigenvalues not converged
     c_bands:  4 eigenvalues not converged
     c_bands:  5 eigenvalues not converged
     c_bands:  1 eigenvalues not converged
     c_bands:  1 eigenvalues not converged
     c_bands:  4 eigenvalues not converged
     c_bands:  3 eigenvalues not converged
     ethr =  1.00E-05,  avg # of iterations = 27.5

[...]

     total energy              =   -2369.06104945 Ry
     estimated scf accuracy    <    6884.51026998 Ry

     iteration #  2     ecut=    29.40 Ry     beta= 0.05
     Davidson diagonalization with overlap
     ethr =  1.00E-02,  avg # of iterations = 24.4

[...]

     iteration # 53     ecut=    29.40 Ry     beta= 0.05
     Davidson diagonalization with overlap
     c_bands:  1 eigenvalues not converged
     ethr =  4.82E-08,  avg # of iterations = 12.2

[...]

     total energy              =   -2973.98331347 Ry
     estimated scf accuracy    <       0.00000008 Ry

     iteration # 72     ecut=    29.40 Ry     beta= 0.05
     Davidson diagonalization with overlap
     ethr =  2.07E-11,  avg # of iterations = 12.8

     negative rho (up, down):  1.541E-02 0.000E+00

     Adding external electric field

     Computed dipole along edir(3) :
        Dipole                0.9248 Ry au,          2.3505 Debye
        Dipole field          0.0017 Ry au,

        Potential amp.       -0.1618 Ry
        Total length         46.3494 bohr

     End of self-consistent calculation

          k = 0.0000 0.0000 0.0000 ( 18029 PWs)   bands (ev):

   -55.6133 -55.5851 -55.5793 -55.5471 -55.4946 -55.4830 -55.4530 -55.4307
   -55.3967 -55.3924 -55.3583 -55.3351 -55.0419 -54.9914 -54.5930 -54.5590
   -32.1291 -32.0974 -31.9854 -31.9305 -31.9169 -31.9051 -31.8836 -31.8706
   -31.8577 -31.8167 -31.7658 -31.7616 -31.7330 -31.7327 -31.7290 -31.7193
   -31.7147 -31.7112 -31.7080 -31.7060 -31.6753 -31.6707 -31.6618 -31.6340
   -31.6246 -31.6237 -31.6164 -31.6134 -31.5981 -31.5898 -31.5726 -31.5594
   -31.5470 -31.5407 -31.5354 -31.5057 -31.5030 -31.3054 -31.2661 -31.2428
   -31.1898 -31.1473 -30.9999 -30.9120 -30.8896 -30.8169 -30.7304 -30.6191
   -18.6391 -17.9057 -16.3330 -16.0907 -15.8511 -15.7740 -15.7416 -15.5279
   -15.4250 -15.3695 -15.2340 -15.1853 -15.1717 -15.1515 -15.1265 -15.0923
   -15.0662 -15.0527 -15.0456 -15.0291 -15.0038 -14.9771 -14.9567 -14.9529
   -14.9119 -14.8431 -14.7736 -14.7480 -14.6861 -14.6740 -14.2345 -13.0944
   -12.9780 -12.0746  -7.8479  -6.4596  -5.3047  -4.4993  -3.7066  -3.5688
    -3.5212  -3.4717  -3.4620  -3.2737  -3.1786  -3.0510  -2.8970  -2.8486
    -2.7797  -2.7408  -2.7028  -2.6384  -2.5992  -2.4928  -2.4555  -2.4258
    -2.4106  -2.3653  -2.3601  -2.3564  -2.2945  -2.2580  -2.1788  -2.1532
    -2.0742  -2.0040  -1.9754  -1.9493  -1.9273  -1.9098  -1.9066  -1.8576
    -1.8565  -1.8545  -1.7828  -1.7354  -1.6603  -1.6146  -1.5573  -1.4172
    -1.3760  -1.2664  -1.2208  -1.0995  -1.0956  -1.0721  -1.0485  -1.0096
    -1.0014  -0.8779  -0.7928  -0.7433  -0.7080  -0.6457  -0.5422  -0.5216
    -0.4322  -0.4273  -0.3735  -0.3602  -0.3443  -0.3154  -0.2369  -0.1241
    -0.1058  -0.0452   0.0039   0.0668   0.1103   0.1351   0.1731   0.2230
     0.2466   0.2877   0.3143   0.3252   0.3584   0.3961   0.4184   0.4965
     0.5692   0.6188   0.6679   0.7086   0.7127   0.8901   1.0023   1.0413
     1.1724   1.1949   1.3627   1.4303   1.5006   1.6222   2.0005   2.0462
     2.2159   3.4945   3.6082   3.6326   3.6425   3.7458   3.8793   3.9620
     4.0028   4.0273   4.0662

[...]

          k = 0.0380-0.0419 0.0000 ( 17876 PWs)   bands (ev):

[...]

          k =-0.0760-0.0000 0.0000 ( 17886 PWs)   bands (ev):

[...]

          k =-0.0760-0.0839 0.0000 ( 17948 PWs)   bands (ev):

   -55.5964 -55.5961 -55.5725 -55.5595 -55.4856 -55.4809 -55.4620 -55.4140
   -55.4130 -55.3780 -55.3728 -55.3370 -55.0350 -54.9982 -54.5761 -54.5758
   -31.9455 -31.9202 -31.9128 -31.9126 -31.8907 -31.8903 -31.8254 -31.8206
   -31.8122 -31.8074 -31.7885 -31.7387 -31.7348 -31.7317 -31.7222 -31.7210
   -31.7190 -31.7163 -31.7155 -31.7137 -31.7119 -31.6995 -31.6903 -31.6756
   -31.6730 -31.6684 -31.6468 -31.6181 -31.6171 -31.6076 -31.5987 -31.5946
   -31.5915 -31.5904 -31.5890 -31.5440 -31.5187 -31.2941 -31.2685 -31.2630
   -31.2468 -31.1909 -30.9024 -30.9022 -30.8128 -30.8125 -30.7738 -30.7737
   -18.6370 -17.8930 -15.7738 -15.6807 -15.5939 -15.5519 -15.4731 -15.4548
   -15.4006 -15.3358 -15.2973 -15.2789 -15.2376 -15.2087 -15.1644 -15.1521
   -15.1442 -15.1206 -15.0964 -15.0723 -15.0611 -15.0550 -15.0502 -15.0369
   -15.0033 -14.9715 -14.9347 -14.9308 -14.9024 -14.6599 -14.5839 -13.0799
   -13.0797 -12.0274  -7.7705  -6.4535  -5.3696  -4.5696  -3.1694  -3.0617
    -2.8913  -2.8513  -2.7989  -2.7489  -2.7422  -2.6877  -2.5635  -2.5544
    -2.5236  -2.4591  -2.4357  -2.4326  -2.4239  -2.4201  -2.3989  -2.3622
    -2.3615  -2.3070  -2.2974  -2.2862  -2.2812  -2.2625  -2.2455  -2.2426
    -2.2190  -2.1726  -2.1578  -2.1421  -2.0344  -1.9338  -1.8771  -1.8393
    -1.8085  -1.7620  -1.7570  -1.7365  -1.7209  -1.6829  -1.6669  -1.6110
    -1.4961  -1.4177  -1.3308  -1.3012  -1.2715  -1.2018  -1.1564  -1.0920
    -1.0521  -1.0464  -0.9627  -0.8485  -0.8350  -0.7978  -0.7702  -0.6938
    -0.6651  -0.6326  -0.5721  -0.5653  -0.5379  -0.5092  -0.4737  -0.3818
    -0.3640  -0.3575  -0.3278  -0.3189  -0.3078  -0.2670  -0.1930  -0.0949
    -0.0232  -0.0165   0.0891   0.2160   0.3134   0.4453   0.4735   0.5216
     0.5747   0.6083   0.6922   0.6999   0.7259   0.7901   0.8326   0.9009
     0.9250   0.9402   1.0256   1.0330   1.7942   1.7955   1.8662   1.8663
     2.1599   3.8590   3.8873   3.9080   3.9526   4.0301   4.0540   4.0548
     4.0608   4.1770   4.1841

     the Fermi energy is     3.5134 ev

!    total energy              =   -2973.98333199 Ry
     estimated scf accuracy    <       0.00000004 Ry
     smearing contrib. (-TS)   =      -0.02040380 Ry
     internal energy E=F+TS    =   -2973.96292820 Ry

     The total energy is F=E-TS. E is the sum of the following terms:
     one-electron contribution =  -24204.21702125 Ry
     hartree contribution      =   12196.73668748 Ry
     xc contribution           =    -494.25698483 Ry
     ewald contribution        =    9527.77277657 Ry
     electric field correction =       0.00161383 Ry

     convergence has been achieved in  72 iterations

     Forces acting on atoms (cartesian axes, Ry/au):

     atom    1 type  1   force =    -0.00005987   -0.00019160    0.09553837
     atom    2 type  1   force =     0.00002435   -0.00035418   -0.17555452
     atom    3 type  2   force =     0.00009520   -0.00012570   -0.02316353
     atom    4 type  2   force =     0.00000637   -0.00138986    0.05289419
     atom    5 type  2   force =    -0.01000127   -0.00075490    0.00325531
     atom    6 type  2   force =     0.01153145   -0.00009604    0.00283078
     atom    7 type  1   force =     0.00046087    0.00027654   -0.00662609
     atom    8 type  1   force =     0.00029195    0.00536966    0.01757831
     atom    9 type  2   force =    -0.00015163   -0.00015441   -0.00038971
     atom   10 type  2   force =    -0.00346320    0.00075090   -0.01265476
     atom   11 type  2   force =    -0.00079942   -0.00032838    0.00010184
     atom   12 type  2   force =     0.00031433   -0.00017215    0.00010735
     atom   13 type  1   force =    -0.00025932    0.00039686   -0.00022815
     atom   14 type  1   force =     0.00022077    0.00002779    0.00066973
     atom   15 type  2   force =    -0.00012248    0.00008569   -0.00035125
     atom   16 type  2   force =    -0.00003584   -0.00022205   -0.00008160
     atom   17 type  2   force =     0.00051317   -0.00012258   -0.00014448
     atom   18 type  2   force =    -0.00025885   -0.00039723   -0.00000715
     atom   19 type  1   force =    -0.00006399   -0.00011886    0.00029308
     atom   20 type  1   force =     0.00043264   -0.00001181   -0.00041653
     atom   21 type  2   force =     0.00007096    0.00003347    0.10316740
     atom   22 type  2   force =     0.00003970   -0.00002833    0.00000874
     atom   23 type  2   force =    -0.07161265   -0.00013420   -0.02753475
     atom   24 type  2   force =     0.07154091    0.00036780   -0.02757516
     atom   25 type  1   force =     0.00018630   -0.00009131    0.09520608
     atom   26 type  1   force =     0.00008020   -0.00040198   -0.17573434
     atom   27 type  2   force =     0.00011168   -0.00024044   -0.02208408
     atom   28 type  2   force =     0.00002817   -0.00099061    0.05229566
     atom   29 type  2   force =    -0.01015183    0.00036919    0.00285992
     atom   30 type  2   force =     0.01155285    0.00074591    0.00248207
     atom   31 type  1   force =     0.00027687    0.00393571   -0.01130468
     atom   32 type  1   force =     0.00045684   -0.00673108    0.01787453
     atom   33 type  2   force =    -0.00008076    0.00004896   -0.00019663
     atom   34 type  2   force =    -0.00395370    0.00073702   -0.01213720
     atom   35 type  2   force =    -0.00020278    0.00008277   -0.00016481
     atom   36 type  2   force =    -0.00001612    0.00003232   -0.00007169
     atom   37 type  1   force =    -0.00004309   -0.00041101    0.00035681
     atom   38 type  1   force =     0.00005968    0.00002132    0.00040145
     atom   39 type  2   force =     0.00036242   -0.00035118    0.00026689
     atom   40 type  2   force =    -0.00050589    0.00026802   -0.00006797
     atom   41 type  2   force =     0.00010680    0.00008740   -0.00019047
     atom   42 type  2   force =     0.00028649    0.00018560    0.00021625
     atom   43 type  1   force =    -0.00005028   -0.00038198    0.00005155
     atom   44 type  1   force =    -0.00013800   -0.00017176    0.00011845
     atom   45 type  2   force =     0.00007221   -0.00000297    0.10312327
     atom   46 type  2   force =    -0.07161177   -0.00003857   -0.02751000
     atom   47 type  2   force =     0.07154485    0.00035216   -0.02759900
     atom   48 type  3   force =     0.00009593    0.00016172   -0.00031280
     atom   49 type  4   force =     0.00090896   -0.00010158    0.00033481
     atom   50 type  5   force =     0.00026447   -0.00025084    0.00042122
     atom   51 type  5   force =     0.00043940   -0.00031246    0.00007053
     atom   52 type  3   force =    -0.00012268   -0.00000772   -0.00034261
     atom   53 type  5   force =     0.00054401    0.00039107   -0.00009091
     atom   54 type  2   force =    -0.00396401    0.00238807    0.00117495
     atom   55 type  5   force =     0.00131341    0.00151507    0.00091891
     atom   56 type  5   force =     0.00343521   -0.00354326   -0.00208357

     Total force =     0.364769     Total SCF correction =     0.000393
  @ DRIVER MODE: Message from server: STATUS
  @ DRIVER MODE: Message from server: GETFORCE
  @ DRIVER MODE: Returning v,forces,stress,ensemble

     Writing output data file ./calc.save/
  @ DRIVER MODE: Message from server: EXIT
  @ DRIVE MODE: Exiting

     General routines

     Parallel routines

   This run was terminated on:   8:17: 2  16Sep2021

   JOB DONE.