     Program PWSCF v.6.7GPU starts on 23Aug2021 at 22:38:10

     R & G space division:  proc/nbgrp/npool/nimage =       6
     Reading input from /storage/home/hcoda1/3/ntian30/research/carbon/CH_vib/ads_slab/CHN2H_a/out_0019/pw.inp
Warning: card &CELL ignored
Warning: card   CELL_DYNAMICS='IPI', ignored
Warning: card / ignored

     Current dimensions of program PWSCF are:
     Max number of different atomic species (ntypx) = 10
     Max number of k-points (npk) =  40000
     Max angular momentum in pseudopotentials (lmaxx) =  3
     Presently no symmetry can be used with electric field

     Message from routine cell_base_init:
     DEPRECATED: use true lattice parameter, not A to a.u. conversion factor

     IMPORTANT: XC functional enforced from input :
     Exchange-correlation= BEEF-VDW
                           (   1   4  43  14   2   0   0)
     Any further DFT definition will be discarded
     Please, verify this is what you really want

  @ DRIVER MODE: Connecting to
 qe_1139763_2632792.sched-torque.pace.gatech.eduadnjy4p0_scratch
  using UNIX socket
  @ DRIVER MODE: Message from server: STATUS
  @ DRIVER MODE: Message from server: INIT
  @ DRIVER MODE: Receiving replica           0          -1
  @ DRIVER MODE: Receiving encoded integer          25
  @ DRIVER MODE:  SCF:  T  FORCE:  T  STRESS:  F  VC:  F  ENSEMBLE:  F
  @ DRIVER MODE:  SCF:  T  FORCE:  T  STRESS:  F  VC:  F  ENSEMBLE:  F

     Using Slab Decomposition

     bravais-lattice index     =            0
     lattice parameter (alat)  =       1.8897  a.u.
     unit-cell volume          =    6658.9804 (a.u.)^3
     number of atoms/cell      =           52
     number of atomic types    =            5
     number of electrons       =       394.00
     number of Kohn-Sham states=          207
     kinetic-energy cutoff     =      29.3995  Ry
     charge density cutoff     =     293.9946  Ry
     scf convergence threshold =      7.3E-08
     mixing beta               =       0.0500
     number of iterations used =            8  plain     mixing
     Exchange-correlation= BEEF-VDW
                           (   1   4  43  14   2   0   0)

     celldm(1)=   1.889726  celldm(2)=   0.000000  celldm(3)=   0.000000
     celldm(4)=   0.000000  celldm(5)=   0.000000  celldm(6)=   0.000000

     crystal axes: (cart. coord. in units of alat)
               a(1) = (   6.579727   0.000000   0.000000 )
               a(2) = (  -0.000775   5.961596   0.000000 )
               a(3) = (   0.000000   0.000000  25.155947 )

     reciprocal axes: (cart. coord. in units 2 pi/alat)
               b(1) = (  0.151982  0.000020  0.000000 )
               b(2) = (  0.000000  0.167740  0.000000 )
               b(3) = (  0.000000  0.000000  0.039752 )

     PseudoPot. # 1 for Ti read from file:
     /storage/coda1/p-amedford6/0/shared/rich_project_chbe-medford/medford-share/data/pseudos_module/espresso/nninc/pbe/van/Ti.UPF
     MD5 check sum: 8e4df49b7f0d34bbd5052bf3f5ea0213
     Pseudo is Ultrasoft, Zval = 12.0
     Generated by new atomic code, or converted to UPF format
     Using radial grid of  851 points,  6 beta functions with:
                l(1) =   0
                l(2) =   0
                l(3) =   1
                l(4) =   1
                l(5) =   2
                l(6) =   2
     Q(r) pseudized with  8 coefficients,  rinner =    1.000   1.000   1.000
                                                       1.000   1.000

     PseudoPot. # 2 for O  read from file:
     /storage/coda1/p-amedford6/0/shared/rich_project_chbe-medford/medford-share/data/pseudos_module/espresso/nninc/pbe/van/O.UPF
     MD5 check sum: 78c19812648e8988a0fe644b0f25305e
     Pseudo is Ultrasoft, Zval =  6.0
     Generated by new atomic code, or converted to UPF format
     Using radial grid of  737 points,  4 beta functions with:
                l(1) =   0
                l(2) =   0
                l(3) =   1
                l(4) =   1
     Q(r) pseudized with  8 coefficients,  rinner =    0.800   0.800   0.800

     PseudoPot. # 3 for N  read from file:
     /storage/coda1/p-amedford6/0/shared/rich_project_chbe-medford/medford-share/data/pseudos_module/espresso/nninc/pbe/van/N.UPF
     MD5 check sum: 90d10febe142ad51ac9d5be1deb811c4
     Pseudo is Ultrasoft, Zval =  5.0
     Generated by new atomic code, or converted to UPF format
     Using radial grid of  729 points,  4 beta functions with:
                l(1) =   0
                l(2) =   0
                l(3) =   1
                l(4) =   1
     Q(r) pseudized with  8 coefficients,  rinner =    0.800   0.800   0.800

     PseudoPot. # 4 for C  read from file:
     /storage/coda1/p-amedford6/0/shared/rich_project_chbe-medford/medford-share/data/pseudos_module/espresso/nninc/pbe/van/C.UPF
     MD5 check sum: 1a69bf6b8db32088f5b2163dbdb77a27
     Pseudo is Ultrasoft, Zval =  4.0
     Generated by new atomic code, or converted to UPF format
     Using radial grid of  721 points,  4 beta functions with:
                l(1) =   0
                l(2) =   0
                l(3) =   1
                l(4) =   1
     Q(r) pseudized with  8 coefficients,  rinner =    0.800   0.800   0.800

     PseudoPot. # 5 for H  read from file:
     /storage/coda1/p-amedford6/0/shared/rich_project_chbe-medford/medford-share/data/pseudos_module/espresso/nninc/pbe/van/H.UPF
     MD5 check sum: b5ee9d7bfd3a09ee7748110bda690ff7
     Pseudo is Ultrasoft, Zval =  1.0
     Generated by new atomic code, or converted to UPF format
     Using radial grid of  615 points,  1 beta functions with:
                l(1) =   0
     Q(r) pseudized with  8 coefficients,  rinner =    0.800

     atomic species   valence    mass     pseudopotential
        Ti1           12.00    47.86700     Ti( 1.00)
        O1             6.00    15.99900     O ( 1.00)
        N1             5.00    14.00700     N ( 1.00)
        C1             4.00    12.01100     C ( 1.00)
        H1             1.00     1.00800     H ( 1.00)

     No symmetry found

   Cartesian axes

     site n.     atom                  positions (alat units)
         1           Ti1 tau(   1) = (   0.0004258   2.9801865   6.0000000  )
         2           Ti1 tau(   2) = (   3.2906075   1.4906267   6.0002472  )
         3           O1  tau(   3) = (   0.0006271   0.0005054   7.9858123  )
         4           O1  tau(   4) = (   3.2906025   0.0005020   7.3038282  )
         5           O1  tau(   5) = (   4.5942328   1.4918067   9.2879030  )
         6           O1  tau(   6) = (   1.9868534   1.4903216   9.2879459  )
         7           Ti1 tau(   7) = (   3.2907910   2.8959150   9.1758416  )
         8           Ti1 tau(   8) = (   0.0015273   1.4827037   9.2680791  )
         9           O1  tau(   9) = (   3.3079035   5.9465650  11.3667630  )
        10           O1  tau(  10) = (   0.0116148   5.9584955  10.6183126  )
        11           O1  tau(  11) = (   1.3159687   1.4802111  12.6598234  )
        12           O1  tau(  12) = (   5.3141237   1.4785834  12.6569702  )
        13           Ti1 tau(  13) = (   0.0356438   2.9569522  12.5500042  )
        14           Ti1 tau(  14) = (   3.3321116   1.4682926  12.5176941  )
        15           O1  tau(  15) = (   0.0287262   5.9365737  14.6848071  )
        16           O1  tau(  16) = (   3.3260766   5.9477468  13.9918032  )
        17           O1  tau(  17) = (   4.5788076   1.5006004  16.1778977  )
        18           O1  tau(  18) = (   2.0653823   1.4932191  16.1519216  )
        19           Ti1 tau(  19) = (   3.3252840   2.9629899  15.7366588  )
        20           Ti1 tau(  20) = (   0.0567170   1.3280226  15.9864722  )
        21           O1  tau(  21) = (   3.2904802   0.0005063   4.7018136  )
        22           O1  tau(  22) = (   0.0395201   5.9563027  17.2132275  )
        23           O1  tau(  23) = (   1.3043587   1.4918075   6.0039043  )
        24           O1  tau(  24) = (   5.2767064   1.4903225   6.0039473  )
        25           Ti1 tau(  25) = (   0.0000382   5.9609847   6.0000000  )
        26           Ti1 tau(  26) = (   3.2902200   4.4714249   6.0002472  )
        27           O1  tau(  27) = (   0.0002396   2.9813036   7.9858123  )
        28           O1  tau(  28) = (   3.2902150   2.9813002   7.3038282  )
        29           O1  tau(  29) = (   4.5938453   4.4726049   9.2879030  )
        30           O1  tau(  30) = (   1.9864658   4.4711199   9.2879459  )
        31           Ti1 tau(  31) = (   3.2891106   5.8743827   9.1763621  )
        32           Ti1 tau(  32) = (   0.0006254   4.4649316   9.2693709  )
        33           O1  tau(  33) = (   3.3109971   2.9638951  11.3609806  )
        34           O1  tau(  34) = (   0.0092240   2.9805883  10.6323155  )
        35           O1  tau(  35) = (   1.3172493   4.4579999  12.6547637  )
        36           O1  tau(  36) = (   5.3123203   4.4599931  12.6537913  )
        37           Ti1 tau(  37) = (   0.0349292   5.9384232  12.5038109  )
        38           Ti1 tau(  38) = (   3.3308216   4.4462378  12.5132791  )
        39           O1  tau(  39) = (   0.0262156   2.9786664  14.8481040  )
        40           O1  tau(  40) = (   3.3240488   2.9673873  13.9486158  )
        41           O1  tau(  41) = (   4.5778164   4.4375445  16.1741249  )
        42           O1  tau(  42) = (   2.0647505   4.4412733  16.1578575  )
        43           Ti1 tau(  43) = (   3.3314326   5.9455663  15.7867969  )
        44           Ti1 tau(  44) = (   0.0345939   4.5236910  15.9072353  )
        45           O1  tau(  45) = (   3.2900926   2.9813045   4.7018136  )
        46           O1  tau(  46) = (   1.3039711   4.4726057   6.0039043  )
        47           O1  tau(  47) = (   5.2763189   4.4711207   6.0039473  )
        48           N1  tau(  48) = (   0.8843530   3.1395628  18.6524426  )
        49           C1  tau(  49) = (   1.8908588   3.1194352  19.2834450  )
        50           H1  tau(  50) = (   2.4245030   3.8971110  19.8100181  )
        51           N1  tau(  51) = (   6.5488057   2.9807634  17.7841789  )
        52           H1  tau(  52) = (   5.6432114   2.8891999  18.2270943  )

     number of k points=    10  Fermi-Dirac smearing, width (Ry)=  0.0073
                       cart. coord. in units 2pi/alat
        k(    1) = (   0.0000000   0.0000000   0.0000000), wk =   0.1250000
        k(    2) = (   0.0000000   0.0419351   0.0000000), wk =   0.2500000
        k(    3) = (   0.0000000  -0.0838702   0.0000000), wk =   0.1250000
        k(    4) = (   0.0379955   0.0000049   0.0000000), wk =   0.2500000
        k(    5) = (   0.0379955   0.0419400   0.0000000), wk =   0.2500000
        k(    6) = (   0.0379955  -0.0838652   0.0000000), wk =   0.2500000
        k(    7) = (   0.0379955  -0.0419301   0.0000000), wk =   0.2500000
        k(    8) = (  -0.0759910  -0.0000099   0.0000000), wk =   0.1250000
        k(    9) = (  -0.0759910   0.0419252   0.0000000), wk =   0.2500000
        k(   10) = (  -0.0759910  -0.0838800   0.0000000), wk =   0.1250000

     Initial potential from superposition of free atoms

     starting charge  377.99917, renormalised to  394.00000

     negative rho (up, down):  1.653E-02 0.000E+00

     %%%%%%%%%%%%%%%%%%%%%%%%%%%%%%%%%%%%%%%%%%%%%%%%%%%%%%%%%%%%%%%%%%%%%%%%
     %                                                                      %
     % You are using vdW-DF, which was implemented by the Thonhauser group. %
     % Please cite the following two papers that made this development      %
     % possible and the two reviews that describe the various versions:     %
     %                                                                      %
     %   T. Thonhauser et al., PRL 115, 136402 (2015).                      %
     %   T. Thonhauser et al., PRB 76, 125112 (2007).                       %
     %   K. Berland et al., Rep. Prog. Phys. 78, 066501 (2015).             %
     %   D.C. Langreth et al., J. Phys.: Condens. Matter 21, 084203 (2009). %
     %                                                                      %
     %                                                                      %
     % If you are calculating the stress with vdW-DF, please also cite:     %
     %                                                                      %
     %   R. Sabatini et al., J. Phys.: Condens. Matter 24, 424209 (2012).   %
     %                                                                      %
     %%%%%%%%%%%%%%%%%%%%%%%%%%%%%%%%%%%%%%%%%%%%%%%%%%%%%%%%%%%%%%%%%%%%%%%%

     Adding external electric field

     Computed dipole along edir(3) :
        Dipole               -8.4995 Ry au,        -21.6035 Debye
        Dipole field         -0.0160 Ry au,

        Potential amp.        1.4869 Ry
        Total length         46.3494 bohr

     Starting wfcs are  298 atomic wfcs
  @ DRIVER MODE: Message from server: STATUS
  @ DRIVER MODE: Message from server: POSDATA
  @ DRIVER MODE: Reading and sharing cell
  @ DRIVER MODE: Reading and sharing positions
  @ DRIVER MODE: Received positions

     Self-consistent Calculation

     iteration #  1     ecut=    29.40 Ry     beta= 0.05
     Davidson diagonalization with overlap
     c_bands:  1 eigenvalues not converged
     c_bands:  1 eigenvalues not converged
     c_bands:  2 eigenvalues not converged
     c_bands:  2 eigenvalues not converged
     c_bands:  2 eigenvalues not converged
     c_bands:  1 eigenvalues not converged
     ethr =  1.00E-05,  avg # of iterations = 19.0

[...]

     total energy              =   -2624.25570069 Ry
     estimated scf accuracy    <    3488.56955946 Ry

[...]

     iteration #  3     ecut=    29.40 Ry     beta= 0.05
     Davidson diagonalization with overlap
     ethr =  1.00E-02,  avg # of iterations = 15.9

[...]

     iteration # 48     ecut=    29.40 Ry     beta= 0.05
     Davidson diagonalization with overlap
     c_bands:  1 eigenvalues not converged
     ethr =  1.25E-09,  avg # of iterations = 13.5

[...]

     total energy              =   -2937.80830504 Ry
     estimated scf accuracy    <       0.00000010 Ry

     iteration # 56     ecut=    29.40 Ry     beta= 0.05
     Davidson diagonalization with overlap
     ethr =  2.57E-11,  avg # of iterations =  2.0

     negative rho (up, down):  1.626E-02 0.000E+00

     Adding external electric field

     Computed dipole along edir(3) :
        Dipole                1.2895 Ry au,          3.2776 Debye
        Dipole field          0.0024 Ry au,

        Potential amp.       -0.2256 Ry
        Total length         46.3494 bohr

     End of self-consistent calculation

          k = 0.0000 0.0000 0.0000 ( 18029 PWs)   bands (ev):

   -55.4379 -55.4019 -55.4015 -55.3674 -55.3312 -55.3154 -55.2724 -55.2507
   -55.2448 -55.2360 -55.2283 -55.2161 -55.1950 -55.1655 -54.4201 -54.3860
   -32.0069 -31.8921 -31.8289 -31.8011 -31.7571 -31.7495 -31.7399 -31.7312
   -31.6911 -31.6843 -31.6470 -31.6461 -31.6388 -31.6116 -31.5923 -31.5740
   -31.5693 -31.5629 -31.5549 -31.5494 -31.5136 -31.5128 -31.5041 -31.4956
   -31.4810 -31.4586 -31.4529 -31.4485 -31.4451 -31.4422 -31.4392 -31.4249
   -31.4169 -31.4102 -31.4050 -31.3999 -31.3765 -31.3653 -31.3635 -31.3577
   -31.3370 -31.2726 -30.8289 -30.7360 -30.7139 -30.6454 -30.5587 -30.4477
   -20.1413 -16.2519 -15.9795 -15.8348 -15.7116 -15.6281 -15.5011 -15.4611
   -15.3439 -15.3329 -15.2299 -15.1542 -15.0866 -15.0837 -15.0654 -15.0399
   -14.9863 -14.9730 -14.9705 -14.9282 -14.9258 -14.8840 -14.8646 -14.8306
   -14.8128 -14.7937 -14.7738 -14.6537 -14.5845 -14.5257 -14.1601 -12.9227
   -12.8055  -8.8366  -7.1517  -5.3851  -4.6726  -3.5973  -3.4375  -3.3504
    -3.3343  -3.3299  -3.1656  -3.0373  -2.8101  -2.7724  -2.6985  -2.6444
    -2.6263  -2.6044  -2.4265  -2.4023  -2.3419  -2.3147  -2.2776  -2.2480
    -2.2231  -2.2029  -2.1950  -2.1771  -2.1623  -2.0025  -1.9038  -1.8704
    -1.8361  -1.8233  -1.7638  -1.7308  -1.7250  -1.7231  -1.7141  -1.6706
    -1.6499  -1.6032  -1.5012  -1.4742  -1.4496  -1.3221  -1.3033  -1.1540
    -1.0706  -0.9854  -0.9784  -0.9117  -0.9041  -0.8714  -0.8216  -0.7952
    -0.7731  -0.6394  -0.5684  -0.5110  -0.4954  -0.4515  -0.4066  -0.3704
    -0.2759  -0.2134  -0.2053  -0.1934  -0.0277  -0.0130   0.0330   0.0824
     0.1084   0.1552   0.1823   0.2503   0.2851   0.3299   0.3603   0.4563
     0.4977   0.5164   0.5310   0.5502   0.5622   0.6242   0.6892   0.7075
     0.7562   0.8168   0.9245   1.1242   1.1831   1.1975   1.5123   1.5467
     1.6026   1.7878   2.1776   2.2253   3.6623   3.7338   3.7975   3.8126
     3.8222   3.8978   4.0672   4.1455   4.1609   4.1676   4.1794

[...]

          k = 0.0380-0.0419 0.0000 ( 17876 PWs)   bands (ev):

[...]

          k =-0.0760-0.0000 0.0000 ( 17886 PWs)   bands (ev):

[...]

          k =-0.0760-0.0839 0.0000 ( 17948 PWs)   bands (ev):

   -55.4210 -55.4186 -55.3845 -55.3844 -55.3279 -55.3069 -55.2809 -55.2404
   -55.2393 -55.2342 -55.2320 -55.2120 -55.2116 -55.1696 -54.4031 -54.4029
   -31.8118 -31.8089 -31.7475 -31.7301 -31.7073 -31.7072 -31.6954 -31.6766
   -31.6765 -31.6483 -31.6390 -31.6335 -31.6304 -31.5899 -31.5682 -31.5650
   -31.5649 -31.5570 -31.5565 -31.5460 -31.5332 -31.5237 -31.5133 -31.5098
   -31.5055 -31.5040 -31.5038 -31.4968 -31.4752 -31.4673 -31.4647 -31.4641
   -31.4479 -31.4452 -31.4441 -31.4362 -31.4348 -31.4299 -31.3921 -31.3916
   -31.3839 -31.3640 -30.7266 -30.7264 -30.6416 -30.6414 -30.6021 -30.6020
   -20.1400 -15.7057 -15.6873 -15.6285 -15.4224 -15.4197 -15.4081 -15.3934
   -15.3653 -15.2340 -15.2135 -15.1987 -15.1819 -15.1401 -15.1363 -15.1191
   -15.1087 -15.0111 -15.0089 -15.0068 -15.0054 -14.9433 -14.9354 -14.9215
   -14.8871 -14.8839 -14.8548 -14.7850 -14.7820 -14.6466 -14.4799 -12.9071
   -12.9070  -8.8216  -7.1713  -5.3831  -4.6558  -2.9628  -2.8924  -2.8485
    -2.6396  -2.6172  -2.6024  -2.5190  -2.4696  -2.4082  -2.4008  -2.3933
    -2.3350  -2.2991  -2.2858  -2.2677  -2.2599  -2.2419  -2.2209  -2.2095
    -2.1629  -2.1529  -2.1434  -2.1068  -2.0951  -2.0768  -2.0548  -2.0377
    -2.0175  -2.0127  -1.9939  -1.8322  -1.7817  -1.7335  -1.6856  -1.6730
    -1.6298  -1.6222  -1.5279  -1.4933  -1.4646  -1.4355  -1.4279  -1.2364
    -1.2205  -1.1693  -1.1645  -1.1400  -0.9842  -0.9641  -0.9458  -0.9318
    -0.8859  -0.8045  -0.7955  -0.7598  -0.6526  -0.6220  -0.6160  -0.5652
    -0.4453  -0.4220  -0.3993  -0.3938  -0.3879  -0.2954  -0.2782  -0.2685
    -0.2370  -0.2040  -0.1531  -0.1469  -0.0934   0.0886   0.1348   0.1993
     0.2779   0.4506   0.4883   0.5144   0.5548   0.6162   0.6884   0.7077
     0.7696   0.8630   0.8775   0.9105   0.9801   1.0326   1.0405   1.0652
     1.9606   1.9614   2.0452   2.0453   3.8319   3.8442   3.9073   3.9434
     3.9921   4.0825   4.1812   4.1977   4.2409   4.2418   4.3223

     the Fermi energy is     3.7161 ev

!    total energy              =   -2937.80836411 Ry
     estimated scf accuracy    <       0.00000006 Ry
     smearing contrib. (-TS)   =      -0.03815439 Ry
     internal energy E=F+TS    =   -2937.77020972 Ry

     The total energy is F=E-TS. E is the sum of the following terms:
     one-electron contribution =  -24092.07515495 Ry
     hartree contribution      =   12136.08769793 Ry
     xc contribution           =    -484.38204622 Ry
     ewald contribution        =    9502.59615557 Ry
     electric field correction =       0.00313795 Ry

     convergence has been achieved in  56 iterations

     Forces acting on atoms (cartesian axes, Ry/au):

     atom    1 type  1   force =     0.00007070   -0.00012401    0.09408794
     atom    2 type  1   force =    -0.00016140   -0.00023584   -0.17761050
     atom    3 type  2   force =     0.00011026   -0.00020872   -0.02136572
     atom    4 type  2   force =     0.00002600   -0.00184028    0.05754084
     atom    5 type  2   force =    -0.01068471   -0.00139374    0.00633150
     atom    6 type  2   force =     0.01275437   -0.00074579    0.00661145
     atom    7 type  1   force =     0.00011224    0.00197732   -0.01404100
     atom    8 type  1   force =    -0.00046166    0.00581515    0.00394986
     atom    9 type  2   force =     0.00036120    0.00023035   -0.00008179
     atom   10 type  2   force =    -0.00024259    0.00021632   -0.00514825
     atom   11 type  2   force =     0.00005074   -0.00015434   -0.00047808
     atom   12 type  2   force =    -0.00029639    0.00001088    0.00005979
     atom   13 type  1   force =    -0.00026723    0.00001864   -0.00021008
     atom   14 type  1   force =    -0.00008048    0.00015190   -0.00015200
     atom   15 type  2   force =    -0.00055719   -0.00045510   -0.00030887
     atom   16 type  2   force =    -0.00018887    0.00019170   -0.00001074
     atom   17 type  2   force =    -0.00033263   -0.00030132   -0.00036008
     atom   18 type  2   force =    -0.00041033   -0.00009842   -0.00050386
     atom   19 type  1   force =    -0.00008311    0.00011806   -0.00009823
     atom   20 type  1   force =    -0.00052046    0.00023006    0.00143741
     atom   21 type  2   force =     0.00002107    0.00001868    0.10380150
     atom   22 type  2   force =     0.00010757    0.00013647   -0.00040184
     atom   23 type  2   force =    -0.07065031   -0.00007782   -0.02705186
     atom   24 type  2   force =     0.07054328    0.00036659   -0.02709933
     atom   25 type  1   force =     0.00001187   -0.00008423    0.09372427
     atom   26 type  1   force =    -0.00014333   -0.00016365   -0.17765632
     atom   27 type  2   force =     0.00013576   -0.00023786   -0.02035753
     atom   28 type  2   force =     0.00006789   -0.00155200    0.05701659
     atom   29 type  2   force =    -0.01102714   -0.00053611    0.00635184
     atom   30 type  2   force =     0.01294923   -0.00027482    0.00664477
     atom   31 type  1   force =     0.00029831    0.00522432   -0.01481995
     atom   32 type  1   force =    -0.00038877   -0.00657460    0.00411110
     atom   33 type  2   force =     0.00015527    0.00008413   -0.00031233
     atom   34 type  2   force =     0.00035726   -0.00101967   -0.00207259
     atom   35 type  2   force =    -0.00031283    0.00015771   -0.00024242
     atom   36 type  2   force =    -0.00004660   -0.00000106    0.00008685
     atom   37 type  1   force =    -0.00008877    0.00023894   -0.00007308
     atom   38 type  1   force =     0.00006957    0.00025551    0.00023350
     atom   39 type  2   force =     0.00000093    0.00025443   -0.00011325
     atom   40 type  2   force =    -0.00030564    0.00009612   -0.00025889
     atom   41 type  2   force =    -0.00056200    0.00007980   -0.00017464
     atom   42 type  2   force =    -0.00024314    0.00012150   -0.00022612
     atom   43 type  1   force =    -0.00006302    0.00013972   -0.00001834
     atom   44 type  1   force =    -0.00031422   -0.00074119    0.00059784
     atom   45 type  2   force =     0.00001120   -0.00000451    0.10380485
     atom   46 type  2   force =    -0.07066650   -0.00004444   -0.02706276
     atom   47 type  2   force =     0.07054678    0.00039412   -0.02709945
     atom   48 type  3   force =    -0.00977870   -0.00147076   -0.00615890
     atom   49 type  4   force =    -0.00262463   -0.00002614   -0.00188795
     atom   50 type  5   force =     0.00036182    0.00019972   -0.00009851
     atom   51 type  3   force =     0.02449276    0.00234507    0.00014020
     atom   52 type  5   force =    -0.01211342   -0.00070678    0.00702320

     Total force =     0.367270     Total SCF correction =     0.000364
  @ DRIVER MODE: Message from server: STATUS
  @ DRIVER MODE: Message from server: GETFORCE
  @ DRIVER MODE: Returning v,forces,stress,ensemble

     Writing output data file ./calc.save/
  @ DRIVER MODE: Message from server: EXIT
  @ DRIVE MODE: Exiting

     General routines

     Parallel routines

   This run was terminated on:  23: 3:59  23Aug2021

   JOB DONE.