     Program PWSCF v.6.7GPU starts on 13Oct2021 at  1:19:50

     R & G space division:  proc/nbgrp/npool/nimage =       8
     Reading input from /storage/home/hcoda1/3/ntian30/research/carbon/ACS_vib/ads_slab/N2H6/out_0039/pw.inp
Warning: card &CELL ignored
Warning: card   CELL_DYNAMICS='IPI', ignored
Warning: card / ignored

     Current dimensions of program PWSCF are:
     Max number of different atomic species (ntypx) = 10
     Max number of k-points (npk) =  40000
     Max angular momentum in pseudopotentials (lmaxx) =  3
     Presently no symmetry can be used with electric field

     Message from routine cell_base_init:
     DEPRECATED: use true lattice parameter, not A to a.u. conversion factor

     IMPORTANT: XC functional enforced from input :
     Exchange-correlation= BEEF-VDW
                           (   1   4  43  14   2   0   0)
     Any further DFT definition will be discarded
     Please, verify this is what you really want

  @ DRIVER MODE: Connecting to
 qe_1139763_3181315.sched-torque.pace.gatech.edumrz4i0t2_scratch
  using UNIX socket
  @ DRIVER MODE: Message from server: STATUS
  @ DRIVER MODE: Message from server: INIT
  @ DRIVER MODE: Receiving replica           0          -1
  @ DRIVER MODE: Receiving encoded integer          25
  @ DRIVER MODE:  SCF:  T  FORCE:  T  STRESS:  F  VC:  F  ENSEMBLE:  F
  @ DRIVER MODE:  SCF:  T  FORCE:  T  STRESS:  F  VC:  F  ENSEMBLE:  F

     Using Slab Decomposition

     bravais-lattice index     =            0
     lattice parameter (alat)  =       1.8897  a.u.
     unit-cell volume          =    6658.9804 (a.u.)^3
     number of atoms/cell      =           55
     number of atomic types    =            4
     number of electrons       =       394.00
     number of Kohn-Sham states=          207
     kinetic-energy cutoff     =      29.3995  Ry
     charge density cutoff     =     293.9946  Ry
     scf convergence threshold =      7.3E-08
     mixing beta               =       0.0500
     number of iterations used =            8  plain     mixing
     Exchange-correlation= BEEF-VDW
                           (   1   4  43  14   2   0   0)

     celldm(1)=   1.889726  celldm(2)=   0.000000  celldm(3)=   0.000000
     celldm(4)=   0.000000  celldm(5)=   0.000000  celldm(6)=   0.000000

     crystal axes: (cart. coord. in units of alat)
               a(1) = (   6.579727   0.000000   0.000000 )
               a(2) = (  -0.000775   5.961596   0.000000 )
               a(3) = (   0.000000   0.000000  25.155947 )

     reciprocal axes: (cart. coord. in units 2 pi/alat)
               b(1) = (  0.151982  0.000020  0.000000 )
               b(2) = (  0.000000  0.167740  0.000000 )
               b(3) = (  0.000000  0.000000  0.039752 )

     PseudoPot. # 1 for Ti read from file:
     /storage/coda1/p-amedford6/0/shared/rich_project_chbe-medford/medford-share/data/pseudos_module/espresso/nninc/pbe/van/Ti.UPF
     MD5 check sum: 8e4df49b7f0d34bbd5052bf3f5ea0213
     Pseudo is Ultrasoft, Zval = 12.0
     Generated by new atomic code, or converted to UPF format
     Using radial grid of  851 points,  6 beta functions with:
                l(1) =   0
                l(2) =   0
                l(3) =   1
                l(4) =   1
                l(5) =   2
                l(6) =   2
     Q(r) pseudized with  8 coefficients,  rinner =    1.000   1.000   1.000
                                                       1.000   1.000

     PseudoPot. # 2 for O  read from file:
     /storage/coda1/p-amedford6/0/shared/rich_project_chbe-medford/medford-share/data/pseudos_module/espresso/nninc/pbe/van/O.UPF
     MD5 check sum: 78c19812648e8988a0fe644b0f25305e
     Pseudo is Ultrasoft, Zval =  6.0
     Generated by new atomic code, or converted to UPF format
     Using radial grid of  737 points,  4 beta functions with:
                l(1) =   0
                l(2) =   0
                l(3) =   1
                l(4) =   1
     Q(r) pseudized with  8 coefficients,  rinner =    0.800   0.800   0.800

     PseudoPot. # 3 for N  read from file:
     /storage/coda1/p-amedford6/0/shared/rich_project_chbe-medford/medford-share/data/pseudos_module/espresso/nninc/pbe/van/N.UPF
     MD5 check sum: 90d10febe142ad51ac9d5be1deb811c4
     Pseudo is Ultrasoft, Zval =  5.0
     Generated by new atomic code, or converted to UPF format
     Using radial grid of  729 points,  4 beta functions with:
                l(1) =   0
                l(2) =   0
                l(3) =   1
                l(4) =   1
     Q(r) pseudized with  8 coefficients,  rinner =    0.800   0.800   0.800

     PseudoPot. # 4 for H  read from file:
     /storage/coda1/p-amedford6/0/shared/rich_project_chbe-medford/medford-share/data/pseudos_module/espresso/nninc/pbe/van/H.UPF
     MD5 check sum: b5ee9d7bfd3a09ee7748110bda690ff7
     Pseudo is Ultrasoft, Zval =  1.0
     Generated by new atomic code, or converted to UPF format
     Using radial grid of  615 points,  1 beta functions with:
                l(1) =   0
     Q(r) pseudized with  8 coefficients,  rinner =    0.800

     atomic species   valence    mass     pseudopotential
        Ti1           12.00    47.86700     Ti( 1.00)
        O1             6.00    15.99900     O ( 1.00)
        N1             5.00    14.00700     N ( 1.00)
        H1             1.00     1.00800     H ( 1.00)

     No symmetry found

   Cartesian axes

     site n.     atom                  positions (alat units)
         1           Ti1 tau(   1) = (   0.0004258   2.9801865   6.0000000  )
         2           Ti1 tau(   2) = (   3.2906075   1.4906267   6.0002472  )
         3           O1  tau(   3) = (   0.0006271   0.0005054   7.9858123  )
         4           O1  tau(   4) = (   3.2906025   0.0005020   7.3038282  )
         5           O1  tau(   5) = (   4.5942328   1.4918067   9.2879030  )
         6           O1  tau(   6) = (   1.9868534   1.4903216   9.2879459  )
         7           Ti1 tau(   7) = (   3.2905188   2.9817269   9.1608671  )
         8           Ti1 tau(   8) = (   0.0008727   1.4903491   9.2579811  )
         9           O1  tau(   9) = (   3.2897677   5.9391746  11.3820438  )
        10           O1  tau(  10) = (  -0.0000005   5.9544960  10.6146985  )
        11           O1  tau(  11) = (   1.2884133   1.4789655  12.6516217  )
        12           O1  tau(  12) = (   5.2921206   1.4788385  12.6515509  )
        13           Ti1 tau(  13) = (   0.0005720   2.9629092  12.4975245  )
        14           Ti1 tau(  14) = (   3.2903801   1.4745319  12.5205501  )
        15           O1  tau(  15) = (   0.0004407   0.0388239  14.7059933  )
        16           O1  tau(  16) = (   3.2897445   5.9465346  14.0037610  )
        17           O1  tau(  17) = (   4.5472543   1.4569283  16.2215039  )
        18           O1  tau(  18) = (   2.0329396   1.4568822  16.2213506  )
        19           Ti1 tau(  19) = (   3.2899346   2.9358424  15.7577366  )
        20           Ti1 tau(  20) = (   0.0004932   1.4309995  16.0137732  )
        21           O1  tau(  21) = (   3.2904802   0.0005063   4.7018136  )
        22           O1  tau(  22) = (  -0.0003511   5.7889056  17.2622344  )
        23           O1  tau(  23) = (   1.3043587   1.4918075   6.0039043  )
        24           O1  tau(  24) = (   5.2767064   1.4903225   6.0039473  )
        25           Ti1 tau(  25) = (   0.0000382   5.9609847   6.0000000  )
        26           Ti1 tau(  26) = (   3.2902200   4.4714249   6.0002472  )
        27           O1  tau(  27) = (   0.0002396   2.9813036   7.9858123  )
        28           O1  tau(  28) = (   3.2902150   2.9813002   7.3038282  )
        29           O1  tau(  29) = (   4.5938453   4.4726049   9.2879030  )
        30           O1  tau(  30) = (   1.9864658   4.4711199   9.2879459  )
        31           Ti1 tau(  31) = (   3.2908958   0.0009406   9.1591437  )
        32           Ti1 tau(  32) = (   0.0004876   4.4725358   9.2579169  )
        33           O1  tau(  33) = (   3.2901541   2.9707129  11.3740276  )
        34           O1  tau(  34) = (   0.0003862   2.9798045  10.6274311  )
        35           O1  tau(  35) = (   1.2860740   4.4511954  12.6821393  )
        36           O1  tau(  36) = (   5.2936768   4.4510845  12.6820400  )
        37           Ti1 tau(  37) = (   0.0001324   5.9497034  12.4914426  )
        38           Ti1 tau(  38) = (   3.2900283   4.4525324  12.5305491  )
        39           O1  tau(  39) = (   0.0000299   2.9046373  14.9484161  )
        40           O1  tau(  40) = (   3.2901113   2.9423191  13.9685580  )
        41           O1  tau(  41) = (   4.5465916   4.4073028  16.1601725  )
        42           O1  tau(  42) = (   2.0329218   4.4072560  16.1600144  )
        43           Ti1 tau(  43) = (   3.2897320   5.9176933  15.7983882  )
        44           Ti1 tau(  44) = (   0.0000796   4.6311109  15.9036278  )
        45           O1  tau(  45) = (   3.2900926   2.9813045   4.7018136  )
        46           O1  tau(  46) = (   1.3039711   4.4726057   6.0039043  )
        47           O1  tau(  47) = (   5.2763189   4.4711207   6.0039473  )
        48           N1  tau(  48) = (   6.5791966   2.5420708  18.0661808  )
        49           H1  tau(  49) = (   6.5785613   1.6509345  18.5577087  )
        50           H1  tau(  50) = (   0.8131443   3.0604954  18.3807411  )
        51           H1  tau(  51) = (   5.7641953   3.0602838  18.3787844  )
        52           N1  tau(  52) = (  -0.0000615   4.8677125  20.5088556  )
        53           H1  tau(  53) = (   6.5774456   5.1124690  21.4935560  )
        54           H1  tau(  54) = (   0.8078797   5.3021143  20.0844266  )
        55           H1  tau(  55) = (   5.7710899   5.3082688  20.0816402  )

     number of k points=    10  Fermi-Dirac smearing, width (Ry)=  0.0073
                       cart. coord. in units 2pi/alat
        k(    1) = (   0.0000000   0.0000000   0.0000000), wk =   0.1250000
        k(    2) = (   0.0000000   0.0419351   0.0000000), wk =   0.2500000
        k(    3) = (   0.0000000  -0.0838702   0.0000000), wk =   0.1250000
        k(    4) = (   0.0379955   0.0000049   0.0000000), wk =   0.2500000
        k(    5) = (   0.0379955   0.0419400   0.0000000), wk =   0.2500000
        k(    6) = (   0.0379955  -0.0838652   0.0000000), wk =   0.2500000
        k(    7) = (   0.0379955  -0.0419301   0.0000000), wk =   0.2500000
        k(    8) = (  -0.0759910  -0.0000099   0.0000000), wk =   0.1250000
        k(    9) = (  -0.0759910   0.0419252   0.0000000), wk =   0.2500000
        k(   10) = (  -0.0759910  -0.0838800   0.0000000), wk =   0.1250000

     Initial potential from superposition of free atoms

     starting charge  377.99918, renormalised to  394.00000

     negative rho (up, down):  1.302E-02 0.000E+00

     %%%%%%%%%%%%%%%%%%%%%%%%%%%%%%%%%%%%%%%%%%%%%%%%%%%%%%%%%%%%%%%%%%%%%%%%
     %                                                                      %
     % You are using vdW-DF, which was implemented by the Thonhauser group. %
     % Please cite the following two papers that made this development      %
     % possible and the two reviews that describe the various versions:     %
     %                                                                      %
     %   T. Thonhauser et al., PRL 115, 136402 (2015).                      %
     %   T. Thonhauser et al., PRB 76, 125112 (2007).                       %
     %   K. Berland et al., Rep. Prog. Phys. 78, 066501 (2015).             %
     %   D.C. Langreth et al., J. Phys.: Condens. Matter 21, 084203 (2009). %
     %                                                                      %
     %                                                                      %
     % If you are calculating the stress with vdW-DF, please also cite:     %
     %                                                                      %
     %   R. Sabatini et al., J. Phys.: Condens. Matter 24, 424209 (2012).   %
     %                                                                      %
     %%%%%%%%%%%%%%%%%%%%%%%%%%%%%%%%%%%%%%%%%%%%%%%%%%%%%%%%%%%%%%%%%%%%%%%%

     Adding external electric field

     Computed dipole along edir(3) :
        Dipole               -9.7176 Ry au,        -24.6996 Debye
        Dipole field         -0.0183 Ry au,

        Potential amp.        1.6999 Ry
        Total length         46.3494 bohr

     Starting wfcs are  298 atomic wfcs
  @ DRIVER MODE: Message from server: STATUS
  @ DRIVER MODE: Message from server: POSDATA
  @ DRIVER MODE: Reading and sharing cell
  @ DRIVER MODE: Reading and sharing positions
  @ DRIVER MODE: Received positions

     Self-consistent Calculation

     iteration #  1     ecut=    29.40 Ry     beta= 0.05
     Davidson diagonalization with overlap
     c_bands:  1 eigenvalues not converged
     c_bands:  1 eigenvalues not converged
     c_bands:  1 eigenvalues not converged
     c_bands:  1 eigenvalues not converged
     ethr =  1.00E-05,  avg # of iterations = 18.0

[...]

     total energy              =   -2598.34498378 Ry
     estimated scf accuracy    <    3718.52196466 Ry

     iteration #  2     ecut=    29.40 Ry     beta= 0.05
     Davidson diagonalization with overlap
     ethr =  1.00E-02,  avg # of iterations = 22.7

[...]

     iteration # 61     ecut=    29.40 Ry     beta= 0.05
     Davidson diagonalization with overlap
     c_bands:  1 eigenvalues not converged
     ethr =  1.30E-09,  avg # of iterations = 13.4

[...]

     total energy              =   -2931.48030604 Ry
     estimated scf accuracy    <       0.00000008 Ry

     iteration # 79     ecut=    29.40 Ry     beta= 0.05
     Davidson diagonalization with overlap
     ethr =  1.92E-11,  avg # of iterations = 12.5

     negative rho (up, down):  1.427E-02 0.000E+00

     Adding external electric field

     Computed dipole along edir(3) :
        Dipole                1.3627 Ry au,          3.4637 Debye
        Dipole field          0.0026 Ry au,

        Potential amp.       -0.2384 Ry
        Total length         46.3494 bohr

     End of self-consistent calculation

          k = 0.0000 0.0000 0.0000 ( 18029 PWs)   bands (ev):

   -55.2823 -55.2458 -55.2341 -55.2035 -55.1999 -55.1674 -55.1535 -55.1191
   -55.1126 -55.0832 -55.0784 -55.0608 -55.0266 -54.9512 -54.3251 -54.2910
   -31.8502 -31.7368 -31.7334 -31.6397 -31.5999 -31.5891 -31.5864 -31.5725
   -31.5264 -31.5244 -31.4889 -31.4888 -31.4793 -31.4742 -31.4549 -31.4403
   -31.4351 -31.4222 -31.4181 -31.3918 -31.3856 -31.3764 -31.3667 -31.3540
   -31.3511 -31.3384 -31.3328 -31.3198 -31.2899 -31.2846 -31.2683 -31.2637
   -31.2579 -31.2545 -31.2517 -31.2442 -31.2111 -31.2061 -31.1929 -31.1749
   -31.1542 -31.1534 -30.7370 -30.6353 -30.6137 -30.5532 -30.4667 -30.3558
   -16.1138 -15.8767 -15.7466 -15.5882 -15.4983 -15.4579 -15.3585 -15.3332
   -15.2246 -15.1489 -15.0160 -14.9820 -14.9404 -14.9332 -14.9255 -14.9061
   -14.8997 -14.8292 -14.8155 -14.7995 -14.7907 -14.7687 -14.7673 -14.7478
   -14.7186 -14.6654 -14.6452 -14.5159 -14.4348 -14.3768 -14.1268 -12.8266
   -12.7074  -5.6492  -5.5105  -4.9605  -4.8313  -3.4447  -3.2909  -3.2560
    -3.2055  -3.1941  -3.0408  -2.8800  -2.7307  -2.7114  -2.5619  -2.5330
    -2.4807  -2.4588  -2.3075  -2.2821  -2.2377  -2.2115  -2.1622  -2.1521
    -2.1444  -2.1329  -2.0538  -2.0426  -2.0271  -1.8909  -1.8715  -1.7601
    -1.7197  -1.6637  -1.6502  -1.6452  -1.6116  -1.5935  -1.5529  -1.5422
    -1.5256  -1.5001  -1.4901  -1.3258  -1.2992  -1.2008  -1.1399  -1.0491
    -1.0333  -0.8887  -0.8532  -0.7644  -0.7456  -0.7284  -0.7138  -0.6812
    -0.6328  -0.5249  -0.4353  -0.4139  -0.3532  -0.3286  -0.2903  -0.2023
    -0.0987  -0.0703  -0.0373  -0.0350   0.0816   0.1062   0.1515   0.2178
     0.2377   0.2504   0.2627   0.3525   0.3663   0.4645   0.4881   0.4953
     0.5437   0.6329   0.6371   0.6513   0.6614   0.6876   0.7584   0.7650
     0.8645   0.8877   1.0040   1.2152   1.2862   1.3129   1.5910   1.6517
     1.7001   1.8628   2.2833   2.3357   3.8161   3.8826   3.9156   3.9487
     3.9852   4.0258   4.3133   4.3213   4.3339   4.3382   4.3748

[...]

          k = 0.0380-0.0419 0.0000 ( 17876 PWs)   bands (ev):

[...]

          k =-0.0760-0.0000 0.0000 ( 17886 PWs)   bands (ev):

[...]

          k =-0.0760-0.0839 0.0000 ( 17948 PWs)   bands (ev):

   -55.2668 -55.2611 -55.2172 -55.2168 -55.2020 -55.1639 -55.1372 -55.1353
   -55.0969 -55.0937 -55.0867 -55.0463 -55.0412 -54.9525 -54.3081 -54.3079
   -31.6555 -31.6513 -31.6510 -31.5710 -31.5484 -31.5480 -31.5415 -31.5098
   -31.5097 -31.4833 -31.4832 -31.4795 -31.4759 -31.4571 -31.4369 -31.4173
   -31.4130 -31.4109 -31.4107 -31.4048 -31.4034 -31.4006 -31.3617 -31.3607
   -31.3570 -31.3546 -31.3515 -31.3503 -31.3486 -31.3354 -31.3352 -31.3305
   -31.3279 -31.2943 -31.2919 -31.2760 -31.2736 -31.2678 -31.2311 -31.2302
   -31.2256 -31.1581 -30.6264 -30.6262 -30.5497 -30.5495 -30.5100 -30.5098
   -15.6334 -15.5208 -15.5124 -15.4750 -15.3220 -15.3010 -15.2635 -15.2488
   -15.1303 -15.0944 -15.0752 -15.0591 -15.0267 -15.0227 -15.0156 -14.9789
   -14.8951 -14.8753 -14.8698 -14.8576 -14.8199 -14.7937 -14.7883 -14.7816
   -14.7807 -14.7457 -14.7421 -14.7001 -14.6971 -14.6918 -14.3758 -12.8085
   -12.8084  -5.6286  -5.5132  -4.9273  -4.8394  -2.7938  -2.7375  -2.7373
    -2.5468  -2.4758  -2.4585  -2.4417  -2.3587  -2.3192  -2.2897  -2.2663
    -2.2353  -2.1934  -2.1896  -2.1687  -2.1600  -2.1439  -2.0986  -2.0802
    -2.0546  -2.0010  -1.9764  -1.9683  -1.9560  -1.9473  -1.9426  -1.9192
    -1.9170  -1.8909  -1.8798  -1.8241  -1.6724  -1.6569  -1.5786  -1.5097
    -1.5055  -1.5037  -1.4203  -1.4002  -1.3456  -1.3364  -1.3303  -1.0871
    -1.0652  -1.0649  -1.0599  -1.0274  -0.9132  -0.9039  -0.8314  -0.8018
    -0.7833  -0.6759  -0.6659  -0.6059  -0.6021  -0.4948  -0.4930  -0.4345
    -0.3062  -0.2997  -0.2865  -0.2618  -0.2600  -0.2182  -0.2141  -0.1068
    -0.0708  -0.0200  -0.0086   0.0238   0.1878   0.2289   0.2520   0.2714
     0.4047   0.4263   0.5593   0.5671   0.6220   0.7316   0.7617   0.8003
     0.8283   0.9775   0.9883   1.0101   1.1014   1.1154   1.1530   1.1596
     2.0508   2.0523   2.1538   2.1541   3.9767   4.0583   4.0838   4.1233
     4.2283   4.3264   4.3418   4.3424   4.3763   4.3792   4.4821

     the Fermi energy is     3.8796 ev

!    total energy              =   -2931.48031400 Ry
     estimated scf accuracy    <       0.00000002 Ry
     smearing contrib. (-TS)   =      -0.03684498 Ry
     internal energy E=F+TS    =   -2931.44346902 Ry

     The total energy is F=E-TS. E is the sum of the following terms:
     one-electron contribution =  -23481.11357919 Ry
     hartree contribution      =   11831.24279235 Ry
     xc contribution           =    -484.17177936 Ry
     ewald contribution        =    9202.59559281 Ry
     electric field correction =       0.00350436 Ry

     convergence has been achieved in  79 iterations

     Forces acting on atoms (cartesian axes, Ry/au):

     atom    1 type  1   force =     0.00008642   -0.00009444    0.09072495
     atom    2 type  1   force =    -0.00005386    0.00053363   -0.18275495
     atom    3 type  2   force =     0.00005444   -0.00002218   -0.02345263
     atom    4 type  2   force =     0.00001840   -0.00005916    0.05277396
     atom    5 type  2   force =    -0.01300733   -0.00097522    0.00606107
     atom    6 type  2   force =     0.01295253   -0.00048416    0.00604953
     atom    7 type  1   force =     0.00000048    0.00068272   -0.00328856
     atom    8 type  1   force =     0.00001833   -0.00013927    0.00139671
     atom    9 type  2   force =    -0.00003062   -0.00016408   -0.00048438
     atom   10 type  2   force =     0.00001843   -0.00005566   -0.00021132
     atom   11 type  2   force =     0.00017361    0.00017260    0.00017585
     atom   12 type  2   force =    -0.00009044    0.00016772    0.00015313
     atom   13 type  1   force =    -0.00019930   -0.00019773    0.00002464
     atom   14 type  1   force =     0.00014754    0.00045456   -0.00098771
     atom   15 type  2   force =     0.00002372   -0.00058660    0.00009352
     atom   16 type  2   force =    -0.00002866    0.00000779    0.00044007
     atom   17 type  2   force =     0.00042836    0.00001752    0.00049263
     atom   18 type  2   force =    -0.00045966    0.00001255    0.00048997
     atom   19 type  1   force =     0.00006468    0.00002618    0.00032879
     atom   20 type  1   force =    -0.00002886   -0.00085234    0.00031375
     atom   21 type  2   force =     0.00005669    0.00012455    0.10487527
     atom   22 type  2   force =     0.00001423    0.00013447    0.00106516
     atom   23 type  2   force =    -0.06825209   -0.00019809   -0.02625241
     atom   24 type  2   force =     0.06816397    0.00023458   -0.02629803
     atom   25 type  1   force =     0.00009241    0.00004096    0.09033820
     atom   26 type  1   force =    -0.00005613   -0.00044794   -0.18292339
     atom   27 type  2   force =     0.00005126   -0.00094049   -0.02257856
     atom   28 type  2   force =     0.00001887   -0.00006404    0.05254258
     atom   29 type  2   force =    -0.01330599   -0.00072651    0.00528395
     atom   30 type  2   force =     0.01324349   -0.00023428    0.00526959
     atom   31 type  1   force =     0.00000877   -0.00072993   -0.00309479
     atom   32 type  1   force =     0.00001231   -0.00007776    0.00151836
     atom   33 type  2   force =    -0.00003047   -0.00015172    0.00019062
     atom   34 type  2   force =     0.00002207    0.00007393   -0.00046712
     atom   35 type  2   force =     0.00014526   -0.00013642    0.00024152
     atom   36 type  2   force =    -0.00006732   -0.00014963    0.00021628
     atom   37 type  1   force =    -0.00019296    0.00005184    0.00092294
     atom   38 type  1   force =     0.00014452   -0.00029225   -0.00097407
     atom   39 type  2   force =     0.00001394    0.00026164   -0.00014876
     atom   40 type  2   force =    -0.00003168   -0.00001327    0.00107512
     atom   41 type  2   force =     0.00056781   -0.00017599    0.00025289
     atom   42 type  2   force =    -0.00061596   -0.00017487    0.00027417
     atom   43 type  1   force =     0.00007389    0.00010294    0.00066896
     atom   44 type  1   force =    -0.00004567    0.00103339   -0.00108584
     atom   45 type  2   force =     0.00005639    0.00014330    0.10484887
     atom   46 type  2   force =    -0.06826012   -0.00011265   -0.02630111
     atom   47 type  2   force =     0.06816492    0.00032470   -0.02634256
     atom   48 type  3   force =    -0.00050292    0.00000674   -0.00028159
     atom   49 type  4   force =     0.00003447   -0.00008068    0.00081097
     atom   50 type  4   force =     0.00094687    0.00095301    0.00001540
     atom   51 type  4   force =    -0.00049739    0.00071086   -0.00014530
     atom   52 type  3   force =    -0.00620470   -0.00261447    0.00388684
     atom   53 type  4   force =     0.00034981    0.00118960   -0.00177325
     atom   54 type  4   force =     0.00522202    0.00338682   -0.00329460
     atom   55 type  4   force =     0.00057119    0.00010324   -0.00067534

     Total force =     0.366342     Total SCF correction =     0.000478
  @ DRIVER MODE: Message from server: STATUS
  @ DRIVER MODE: Message from server: GETFORCE
  @ DRIVER MODE: Returning v,forces,stress,ensemble

     Writing output data file ./calc.save/
  @ DRIVER MODE: Message from server: EXIT
  @ DRIVE MODE: Exiting

     General routines

     Parallel routines

   This run was terminated on:   1:47:11  13Oct2021

   JOB DONE.