     Program PWSCF v.6.7GPU starts on  8Sep2021 at 22:20:56

     R & G space division:  proc/nbgrp/npool/nimage =      10
     Reading input from /storage/home/hcoda1/3/ntian30/research/carbon/CxH_vib/CH_calc/ads_slab/CH_a/out_0002/pw.inp
Warning: card &CELL ignored
Warning: card   CELL_DYNAMICS='IPI', ignored
Warning: card / ignored

     Current dimensions of program PWSCF are:
     Max number of different atomic species (ntypx) = 10
     Max number of k-points (npk) =  40000
     Max angular momentum in pseudopotentials (lmaxx) =  3
     Presently no symmetry can be used with electric field

     Message from routine cell_base_init:
     DEPRECATED: use true lattice parameter, not A to a.u. conversion factor

     IMPORTANT: XC functional enforced from input :
     Exchange-correlation= BEEF-VDW
                           (   1   4  43  14   2   0   0)
     Any further DFT definition will be discarded
     Please, verify this is what you really want

  @ DRIVER MODE: Connecting to
 qe_1139763_2767381.sched-torque.pace.gatech.edukow4pbjg_scratch
  using UNIX socket
  @ DRIVER MODE: Message from server: STATUS
  @ DRIVER MODE: Message from server: INIT
  @ DRIVER MODE: Receiving replica           0          -1
  @ DRIVER MODE: Receiving encoded integer          25
  @ DRIVER MODE:  SCF:  T  FORCE:  T  STRESS:  F  VC:  F  ENSEMBLE:  F
  @ DRIVER MODE:  SCF:  T  FORCE:  T  STRESS:  F  VC:  F  ENSEMBLE:  F

     Using Slab Decomposition

     bravais-lattice index     =            0
     lattice parameter (alat)  =       1.8897  a.u.
     unit-cell volume          =    6658.9804 (a.u.)^3
     number of atoms/cell      =           49
     number of atomic types    =            4
     number of electrons       =       383.00
     number of Kohn-Sham states=          201
     kinetic-energy cutoff     =      29.3995  Ry
     charge density cutoff     =     293.9946  Ry
     scf convergence threshold =      7.3E-08
     mixing beta               =       0.0500
     number of iterations used =            8  plain     mixing
     Exchange-correlation= BEEF-VDW
                           (   1   4  43  14   2   0   0)

     celldm(1)=   1.889726  celldm(2)=   0.000000  celldm(3)=   0.000000
     celldm(4)=   0.000000  celldm(5)=   0.000000  celldm(6)=   0.000000

     crystal axes: (cart. coord. in units of alat)
               a(1) = (   6.579727   0.000000   0.000000 )
               a(2) = (  -0.000775   5.961596   0.000000 )
               a(3) = (   0.000000   0.000000  25.155947 )

     reciprocal axes: (cart. coord. in units 2 pi/alat)
               b(1) = (  0.151982  0.000020  0.000000 )
               b(2) = (  0.000000  0.167740  0.000000 )
               b(3) = (  0.000000  0.000000  0.039752 )

     PseudoPot. # 1 for Ti read from file:
     /storage/coda1/p-amedford6/0/shared/rich_project_chbe-medford/medford-share/data/pseudos_module/espresso/nninc/pbe/van/Ti.UPF
     MD5 check sum: 8e4df49b7f0d34bbd5052bf3f5ea0213
     Pseudo is Ultrasoft, Zval = 12.0
     Generated by new atomic code, or converted to UPF format
     Using radial grid of  851 points,  6 beta functions with:
                l(1) =   0
                l(2) =   0
                l(3) =   1
                l(4) =   1
                l(5) =   2
                l(6) =   2
     Q(r) pseudized with  8 coefficients,  rinner =    1.000   1.000   1.000
                                                       1.000   1.000

     PseudoPot. # 2 for O  read from file:
     /storage/coda1/p-amedford6/0/shared/rich_project_chbe-medford/medford-share/data/pseudos_module/espresso/nninc/pbe/van/O.UPF
     MD5 check sum: 78c19812648e8988a0fe644b0f25305e
     Pseudo is Ultrasoft, Zval =  6.0
     Generated by new atomic code, or converted to UPF format
     Using radial grid of  737 points,  4 beta functions with:
                l(1) =   0
                l(2) =   0
                l(3) =   1
                l(4) =   1
     Q(r) pseudized with  8 coefficients,  rinner =    0.800   0.800   0.800

     PseudoPot. # 3 for C  read from file:
     /storage/coda1/p-amedford6/0/shared/rich_project_chbe-medford/medford-share/data/pseudos_module/espresso/nninc/pbe/van/C.UPF
     MD5 check sum: 1a69bf6b8db32088f5b2163dbdb77a27
     Pseudo is Ultrasoft, Zval =  4.0
     Generated by new atomic code, or converted to UPF format
     Using radial grid of  721 points,  4 beta functions with:
                l(1) =   0
                l(2) =   0
                l(3) =   1
                l(4) =   1
     Q(r) pseudized with  8 coefficients,  rinner =    0.800   0.800   0.800

     PseudoPot. # 4 for H  read from file:
     /storage/coda1/p-amedford6/0/shared/rich_project_chbe-medford/medford-share/data/pseudos_module/espresso/nninc/pbe/van/H.UPF
     MD5 check sum: b5ee9d7bfd3a09ee7748110bda690ff7
     Pseudo is Ultrasoft, Zval =  1.0
     Generated by new atomic code, or converted to UPF format
     Using radial grid of  615 points,  1 beta functions with:
                l(1) =   0
     Q(r) pseudized with  8 coefficients,  rinner =    0.800

     atomic species   valence    mass     pseudopotential
        Ti1           12.00    47.86700     Ti( 1.00)
        O1             6.00    15.99900     O ( 1.00)
        C1             4.00    12.01100     C ( 1.00)
        H1             1.00     1.00800     H ( 1.00)

     No symmetry found

   Cartesian axes

     site n.     atom                  positions (alat units)
         1           Ti1 tau(   1) = (   0.0004258   2.9801865   6.0000000  )
         2           Ti1 tau(   2) = (   3.2906075   1.4906267   6.0002472  )
         3           O1  tau(   3) = (   0.0006271   0.0005054   7.9858123  )
         4           O1  tau(   4) = (   3.2906025   0.0005020   7.3038282  )
         5           O1  tau(   5) = (   4.5942328   1.4918067   9.2879030  )
         6           O1  tau(   6) = (   1.9868534   1.4903216   9.2879459  )
         7           Ti1 tau(   7) = (   3.2921849   2.8658251   9.1648892  )
         8           Ti1 tau(   8) = (   0.0073351   1.4983988   9.3831490  )
         9           O1  tau(   9) = (   3.2842540   0.0070318  11.3521760  )
        10           O1  tau(  10) = (   0.0010487   0.0043113  10.5580200  )
        11           O1  tau(  11) = (   1.2736759   1.5124129  12.6486185  )
        12           O1  tau(  12) = (   5.2630300   1.5084811  12.6300625  )
        13           Ti1 tau(  13) = (   0.0799159   2.9885021  12.8537609  )
        14           Ti1 tau(  14) = (   3.3962166   1.4899997  12.4930974  )
        15           O1  tau(  15) = (   6.5670857   5.9608082  14.6055349  )
        16           O1  tau(  16) = (   3.2779887   0.0262294  13.9455360  )
        17           O1  tau(  17) = (   4.5047259   1.5524619  16.1062024  )
        18           O1  tau(  18) = (   2.0328015   1.5482461  16.0993997  )
        19           Ti1 tau(  19) = (   3.2588990   3.0258902  15.7259251  )
        20           Ti1 tau(  20) = (   6.5443225   1.5921241  16.1654916  )
        21           O1  tau(  21) = (   3.2904802   0.0005063   4.7018136  )
        22           O1  tau(  22) = (   6.5577444   0.0567680  17.2452940  )
        23           O1  tau(  23) = (   1.3043587   1.4918075   6.0039043  )
        24           O1  tau(  24) = (   5.2767064   1.4903225   6.0039473  )
        25           Ti1 tau(  25) = (   0.0000382   5.9609847   6.0000000  )
        26           Ti1 tau(  26) = (   3.2902200   4.4714249   6.0002472  )
        27           O1  tau(  27) = (   0.0002396   2.9813036   7.9858123  )
        28           O1  tau(  28) = (   3.2902150   2.9813002   7.3038282  )
        29           O1  tau(  29) = (   4.5938453   4.4726049   9.2879030  )
        30           O1  tau(  30) = (   1.9864658   4.4711199   9.2879459  )
        31           Ti1 tau(  31) = (   3.2960881   5.8478476   9.1648656  )
        32           Ti1 tau(  32) = (   0.0086818   4.4758218   9.3788328  )
        33           O1  tau(  33) = (   3.2854246   2.9850844  11.3450670  )
        34           O1  tau(  34) = (   0.0004502   2.9836692  10.5560002  )
        35           O1  tau(  35) = (   1.2751814   4.4662498  12.6462591  )
        36           O1  tau(  36) = (   5.2612828   4.4711168  12.6263095  )
        37           Ti1 tau(  37) = (   0.0650160   0.0072273  12.8037121  )
        38           Ti1 tau(  38) = (   3.3952379   4.4681493  12.4860303  )
        39           O1  tau(  39) = (   6.5700874   2.9943110  14.6990684  )
        40           O1  tau(  40) = (   3.2774739   3.0059374  13.9302241  )
        41           O1  tau(  41) = (   4.5038310   4.5165569  16.1051355  )
        42           O1  tau(  42) = (   2.0336826   4.5180826  16.0999700  )
        43           Ti1 tau(  43) = (   3.2582433   0.0441072  15.7465997  )
        44           Ti1 tau(  44) = (   6.5393581   4.6163053  16.1595090  )
        45           O1  tau(  45) = (   3.2900926   2.9813045   4.7018136  )
        46           O1  tau(  46) = (   1.3039711   4.4726057   6.0039043  )
        47           O1  tau(  47) = (   5.2763189   4.4711207   6.0039473  )
        48           C1  tau(  48) = (   6.5769965   3.0274956  17.5143990  )
        49           H1  tau(  49) = (   0.0036594   3.1884539  18.5931066  )

     number of k points=    10  Fermi-Dirac smearing, width (Ry)=  0.0073
                       cart. coord. in units 2pi/alat
        k(    1) = (   0.0000000   0.0000000   0.0000000), wk =   0.1250000
        k(    2) = (   0.0000000   0.0419351   0.0000000), wk =   0.2500000
        k(    3) = (   0.0000000  -0.0838702   0.0000000), wk =   0.1250000
        k(    4) = (   0.0379955   0.0000049   0.0000000), wk =   0.2500000
        k(    5) = (   0.0379955   0.0419400   0.0000000), wk =   0.2500000
        k(    6) = (   0.0379955  -0.0838652   0.0000000), wk =   0.2500000
        k(    7) = (   0.0379955  -0.0419301   0.0000000), wk =   0.2500000
        k(    8) = (  -0.0759910  -0.0000099   0.0000000), wk =   0.1250000
        k(    9) = (  -0.0759910   0.0419252   0.0000000), wk =   0.2500000
        k(   10) = (  -0.0759910  -0.0838800   0.0000000), wk =   0.1250000

     Initial potential from superposition of free atoms

     starting charge  366.99920, renormalised to  383.00000

     negative rho (up, down):  2.156E-02 0.000E+00

     %%%%%%%%%%%%%%%%%%%%%%%%%%%%%%%%%%%%%%%%%%%%%%%%%%%%%%%%%%%%%%%%%%%%%%%%
     %                                                                      %
     % You are using vdW-DF, which was implemented by the Thonhauser group. %
     % Please cite the following two papers that made this development      %
     % possible and the two reviews that describe the various versions:     %
     %                                                                      %
     %   T. Thonhauser et al., PRL 115, 136402 (2015).                      %
     %   T. Thonhauser et al., PRB 76, 125112 (2007).                       %
     %   K. Berland et al., Rep. Prog. Phys. 78, 066501 (2015).             %
     %   D.C. Langreth et al., J. Phys.: Condens. Matter 21, 084203 (2009). %
     %                                                                      %
     %                                                                      %
     % If you are calculating the stress with vdW-DF, please also cite:     %
     %                                                                      %
     %   R. Sabatini et al., J. Phys.: Condens. Matter 24, 424209 (2012).   %
     %                                                                      %
     %%%%%%%%%%%%%%%%%%%%%%%%%%%%%%%%%%%%%%%%%%%%%%%%%%%%%%%%%%%%%%%%%%%%%%%%

     Adding external electric field

     Computed dipole along edir(3) :
        Dipole                0.0501 Ry au,          0.1273 Debye
        Dipole field          0.0001 Ry au,

        Potential amp.       -0.0088 Ry
        Total length         46.3494 bohr

     Starting wfcs are  289 atomic wfcs
  @ DRIVER MODE: Message from server: STATUS
  @ DRIVER MODE: Message from server: POSDATA
  @ DRIVER MODE: Reading and sharing cell
  @ DRIVER MODE: Reading and sharing positions
  @ DRIVER MODE: Received positions

     Self-consistent Calculation

     iteration #  1     ecut=    29.40 Ry     beta= 0.05
     Davidson diagonalization with overlap
     c_bands:  1 eigenvalues not converged
     c_bands:  1 eigenvalues not converged
     c_bands:  1 eigenvalues not converged
     c_bands:  1 eigenvalues not converged
     c_bands:  1 eigenvalues not converged
     c_bands:  1 eigenvalues not converged
     ethr =  1.00E-05,  avg # of iterations = 19.5

[...]

     total energy              =   -2897.80966319 Ry
     estimated scf accuracy    <      11.75344862 Ry

     iteration #  2     ecut=    29.40 Ry     beta= 0.05
     Davidson diagonalization with overlap
     ethr =  3.07E-03,  avg # of iterations =  1.0

[...]

     iteration # 53     ecut=    29.40 Ry     beta= 0.05
     Davidson diagonalization with overlap
     c_bands:  1 eigenvalues not converged
     ethr =  9.22E-08,  avg # of iterations =  7.1

[...]

     total energy              =   -2896.37511885 Ry
     estimated scf accuracy    <       0.00000014 Ry

     iteration # 70     ecut=    29.40 Ry     beta= 0.05
     Davidson diagonalization with overlap
     ethr =  3.65E-11,  avg # of iterations =  6.0

     negative rho (up, down):  2.070E-02 0.000E+00

     Adding external electric field

     Computed dipole along edir(3) :
        Dipole                0.3683 Ry au,          0.9361 Debye
        Dipole field          0.0007 Ry au,

        Potential amp.       -0.0644 Ry
        Total length         46.3494 bohr

     End of self-consistent calculation

          k = 0.0000 0.0000 0.0000 ( 18029 PWs)   bands (ev):

   -56.6403 -56.6065 -56.3426 -56.3058 -56.2270 -56.1659 -56.0427 -56.0399
   -56.0056 -55.9452 -55.9356 -55.9088 -55.4377 -55.4037 -55.3537 -55.2683
   -33.0687 -32.8868 -32.8859 -32.8583 -32.8323 -32.7411 -32.6955 -32.6798
   -32.6494 -32.5572 -32.5446 -32.5375 -32.5231 -32.5196 -32.5125 -32.4957
   -32.4727 -32.4550 -32.4447 -32.3491 -32.3117 -32.2886 -32.2863 -32.2760
   -32.2623 -32.2591 -32.1972 -32.1936 -32.1677 -32.1615 -32.1543 -32.1302
   -32.1222 -32.1124 -32.0990 -32.0413 -31.8962 -31.8380 -31.7629 -31.7391
   -31.6565 -31.6256 -31.5871 -31.5715 -31.5607 -31.4851 -31.4594 -31.3416
   -16.9972 -16.8092 -16.5768 -16.4417 -16.3517 -16.2786 -16.0120 -16.0098
   -15.9635 -15.8914 -15.8634 -15.8006 -15.7976 -15.7711 -15.7605 -15.7508
   -15.7324 -15.6842 -15.6679 -15.6402 -15.6069 -15.5657 -15.4436 -15.4243
   -15.4077 -15.2937 -15.2441 -15.2059 -15.0226 -13.9307 -13.8166  -7.7774
    -4.3998  -4.3411  -4.1869  -4.1624  -4.0705  -3.8264  -3.6993  -3.4768
    -3.4356  -3.4049  -3.3900  -3.3239  -3.2648  -3.1575  -3.1412  -3.1196
    -3.0795  -3.0711  -3.0491  -3.0352  -3.0102  -2.9698  -2.8871  -2.8482
    -2.8292  -2.7499  -2.7224  -2.6452  -2.6188  -2.5744  -2.5491  -2.4900
    -2.4834  -2.4198  -2.3487  -2.2907  -2.1393  -2.0988  -2.0904  -2.0833
    -2.0128  -1.9038  -1.7624  -1.7281  -1.6616  -1.6597  -1.6421  -1.6054
    -1.5125  -1.4954  -1.4104  -1.3046  -1.2951  -1.2430  -1.1908  -1.1500
    -1.1335  -1.1324  -1.0754  -1.0427  -1.0070  -0.8802  -0.8526  -0.7335
    -0.7163  -0.6811  -0.6440  -0.6390  -0.5884  -0.5302  -0.4770  -0.4464
    -0.4251  -0.3781  -0.3679  -0.3327  -0.3097  -0.2551  -0.1402  -0.1166
    -0.1060  -0.0412   0.1439   0.1694   0.2124   0.3014   0.3499   0.5118
     0.5323   0.5909   0.7990   0.8358   1.1814   1.2615   1.5402   2.2811
     2.6274   2.8223   3.0831   3.1192   3.1364   3.1680   3.3429   3.3774
     3.3963

[...]

          k = 0.0380-0.0419 0.0000 ( 17876 PWs)   bands (ev):

[...]

          k =-0.0760-0.0000 0.0000 ( 17886 PWs)   bands (ev):

[...]

          k =-0.0760-0.0839 0.0000 ( 17948 PWs)   bands (ev):

   -56.6255 -56.6212 -56.3286 -56.3197 -56.2216 -56.1712 -56.0398 -56.0252
   -56.0201 -55.9384 -55.9314 -55.9225 -55.4206 -55.4206 -55.3500 -55.2718
   -32.8879 -32.8843 -32.8749 -32.8695 -32.7868 -32.7831 -32.6936 -32.6868
   -32.6048 -32.5939 -32.5368 -32.5267 -32.5247 -32.5165 -32.4911 -32.4639
   -32.4275 -32.3731 -32.3602 -32.3527 -32.3489 -32.2844 -32.2756 -32.2697
   -32.2674 -32.2588 -32.2515 -32.2430 -32.2313 -32.2259 -32.1833 -32.1747
   -32.1427 -32.1415 -32.1344 -32.1334 -31.7940 -31.7520 -31.7520 -31.6522
   -31.6521 -31.6350 -31.6240 -31.6141 -31.6141 -31.5640 -31.5056 -31.3817
   -16.4529 -16.4341 -16.2204 -16.2112 -16.1126 -16.1122 -16.1113 -16.1089
   -16.0087 -16.0059 -15.9337 -15.9194 -15.8636 -15.8558 -15.8205 -15.8186
   -15.7974 -15.7941 -15.7522 -15.7455 -15.6170 -15.6149 -15.5090 -15.5053
   -15.4663 -15.4258 -15.3861 -15.3756 -15.1590 -13.9189 -13.9187  -7.7797
    -3.7508  -3.7200  -3.4357  -3.4319  -3.2496  -3.2471  -3.2457  -3.2263
    -3.1824  -3.1523  -3.1427  -3.1173  -3.0857  -3.0433  -3.0325  -3.0127
    -3.0080  -3.0023  -2.9894  -2.9884  -2.9652  -2.9562  -2.9038  -2.8825
    -2.8721  -2.8625  -2.8132  -2.8118  -2.7088  -2.5858  -2.5379  -2.5338
    -2.4845  -2.4505  -2.3668  -2.3641  -2.3354  -2.3193  -2.2726  -2.1687
    -2.0375  -2.0349  -1.9894  -1.9592  -1.8924  -1.8180  -1.7167  -1.6499
    -1.6186  -1.5888  -1.5227  -1.4650  -1.4571  -1.4382  -1.4275  -1.4194
    -1.4054  -1.3092  -1.2969  -1.2257  -1.1883  -1.1781  -1.1683  -1.1356
    -1.1089  -1.0459  -0.9508  -0.9480  -0.9359  -0.9081  -0.8035  -0.7593
    -0.7025  -0.6514  -0.6054  -0.3578  -0.3553  -0.2011  -0.0923  -0.0301
     0.0350   0.0589   0.1017   0.1670   0.2290   0.2341   0.2611   0.2635
     0.3593   0.3618   0.9771   0.9775   1.0362   1.0371   1.7717   2.2241
     3.1078   3.1508   3.1682   3.1735   3.1986   3.2265   3.2450   3.2553
     3.5887

     the Fermi energy is     2.1464 ev

!    total energy              =   -2896.37513330 Ry
     estimated scf accuracy    <       0.00000004 Ry
     smearing contrib. (-TS)   =      -0.01052712 Ry
     internal energy E=F+TS    =   -2896.36460618 Ry

     The total energy is F=E-TS. E is the sum of the following terms:
     one-electron contribution =  -24783.61100798 Ry
     hartree contribution      =   12469.83315555 Ry
     xc contribution           =    -472.98108675 Ry
     ewald contribution        =    9890.39407700 Ry
     electric field correction =       0.00025599 Ry

     convergence has been achieved in  70 iterations

     Forces acting on atoms (cartesian axes, Ry/au):

     atom    1 type  1   force =     0.00019150   -0.00055796    0.14917739
     atom    2 type  1   force =    -0.00003108   -0.00031825   -0.17023785
     atom    3 type  2   force =     0.00005992    0.00011881   -0.06122314
     atom    4 type  2   force =     0.00011013   -0.00167339    0.04074288
     atom    5 type  2   force =    -0.02327656    0.00031038    0.00410398
     atom    6 type  2   force =     0.02299650    0.00151905    0.00330929
     atom    7 type  1   force =    -0.00055127    0.00074354    0.00018387
     atom    8 type  1   force =     0.00020667    0.00084309   -0.00020613
     atom    9 type  2   force =    -0.00005551    0.00009801   -0.00047896
     atom   10 type  2   force =    -0.00002792   -0.00051018    0.00032263
     atom   11 type  2   force =    -0.00024365    0.00047285    0.00028594
     atom   12 type  2   force =     0.00034380    0.00011151    0.00023466
     atom   13 type  1   force =     0.00033805    0.00065203   -0.00097378
     atom   14 type  1   force =    -0.00046616    0.00097006   -0.00028544
     atom   15 type  2   force =     0.00034510   -0.00005389   -0.00016332
     atom   16 type  2   force =     0.00014628   -0.00026033   -0.00006362
     atom   17 type  2   force =     0.00099578    0.00032258    0.00033018
     atom   18 type  2   force =    -0.00036594    0.00012488   -0.00015862
     atom   19 type  1   force =    -0.00015100   -0.00107968    0.00059843
     atom   20 type  1   force =     0.00046353   -0.00052744    0.00082003
     atom   21 type  2   force =     0.00008181   -0.00018322    0.10248683
     atom   22 type  2   force =    -0.00025451    0.00043566   -0.00032774
     atom   23 type  2   force =    -0.07444041    0.00018931   -0.03479006
     atom   24 type  2   force =     0.07439898    0.00061745   -0.03484075
     atom   25 type  1   force =    -0.00004104   -0.00050752    0.15021860
     atom   26 type  1   force =    -0.00002692   -0.00069902   -0.17018823
     atom   27 type  2   force =     0.00007345    0.00063761   -0.06042912
     atom   28 type  2   force =     0.00002943   -0.00161938    0.04019352
     atom   29 type  2   force =    -0.02285264    0.00144544    0.00427940
     atom   30 type  2   force =     0.02312517    0.00224098    0.00347783
     atom   31 type  1   force =    -0.00055087    0.00012697   -0.00078915
     atom   32 type  1   force =     0.00023078   -0.00110653    0.00051349
     atom   33 type  2   force =     0.00026025   -0.00007914    0.00121306
     atom   34 type  2   force =    -0.00004302    0.00059065   -0.00024176
     atom   35 type  2   force =    -0.00098253   -0.00041847    0.00003061
     atom   36 type  2   force =     0.00100815   -0.00022192    0.00010938
     atom   37 type  1   force =    -0.00004194   -0.00007506   -0.00027320
     atom   38 type  1   force =    -0.00071014   -0.00076181    0.00033843
     atom   39 type  2   force =    -0.00011174   -0.00019026   -0.00014003
     atom   40 type  2   force =     0.00010534   -0.00016004   -0.00077531
     atom   41 type  2   force =     0.00100187   -0.00050152    0.00064981
     atom   42 type  2   force =    -0.00043982   -0.00032151    0.00030835
     atom   43 type  1   force =    -0.00014891    0.00081784   -0.00090319
     atom   44 type  1   force =     0.00025417   -0.00040129    0.00070061
     atom   45 type  2   force =     0.00007362   -0.00018369    0.10244820
     atom   46 type  2   force =    -0.07443077   -0.00012880   -0.03479687
     atom   47 type  2   force =     0.07438512    0.00031589   -0.03484974
     atom   48 type  3   force =    -0.00192533   -0.00086895    0.00076212
     atom   49 type  4   force =     0.00094427   -0.00029535   -0.00070350

     Total force =     0.404563     Total SCF correction =     0.000479
  @ DRIVER MODE: Message from server: STATUS
  @ DRIVER MODE: Message from server: GETFORCE
  @ DRIVER MODE: Returning v,forces,stress,ensemble

     Writing output data file ./calc.save/
  @ DRIVER MODE: Message from server: EXIT
  @ DRIVE MODE: Exiting

     General routines

     Parallel routines

   This run was terminated on:  22:36:18   8Sep2021

   JOB DONE.