     Program PWSCF v.6.7GPU starts on 22Sep2021 at 18:58:22

     R & G space division:  proc/nbgrp/npool/nimage =      10
     Reading input from /storage/home/hcoda1/3/ntian30/research/carbon/CxH_vib/H2O_calc/ads_slab/CH3NHO_a/out_0008/pw.inp
Warning: card &CELL ignored
Warning: card   CELL_DYNAMICS='IPI', ignored
Warning: card / ignored

     Current dimensions of program PWSCF are:
     Max number of different atomic species (ntypx) = 10
     Max number of k-points (npk) =  40000
     Max angular momentum in pseudopotentials (lmaxx) =  3
     Presently no symmetry can be used with electric field

     Message from routine cell_base_init:
     DEPRECATED: use true lattice parameter, not A to a.u. conversion factor

     IMPORTANT: XC functional enforced from input :
     Exchange-correlation= BEEF-VDW
                           (   1   4  43  14   2   0   0)
     Any further DFT definition will be discarded
     Please, verify this is what you really want

  @ DRIVER MODE: Connecting to
 qe_1139763_2937319.sched-torque.pace.gatech.eduw_npsqt2_scratch
  using UNIX socket
  @ DRIVER MODE: Message from server: STATUS
  @ DRIVER MODE: Message from server: INIT
  @ DRIVER MODE: Receiving replica           0          -1
  @ DRIVER MODE: Receiving encoded integer          25
  @ DRIVER MODE:  SCF:  T  FORCE:  T  STRESS:  F  VC:  F  ENSEMBLE:  F
  @ DRIVER MODE:  SCF:  T  FORCE:  T  STRESS:  F  VC:  F  ENSEMBLE:  F

     Using Slab Decomposition

     bravais-lattice index     =            0
     lattice parameter (alat)  =       1.8897  a.u.
     unit-cell volume          =    6658.9804 (a.u.)^3
     number of atoms/cell      =           54
     number of atomic types    =            5
     number of electrons       =       397.00
     number of Kohn-Sham states=          208
     kinetic-energy cutoff     =      29.3995  Ry
     charge density cutoff     =     293.9946  Ry
     scf convergence threshold =      7.3E-08
     mixing beta               =       0.0500
     number of iterations used =            8  plain     mixing
     Exchange-correlation= BEEF-VDW
                           (   1   4  43  14   2   0   0)

     celldm(1)=   1.889726  celldm(2)=   0.000000  celldm(3)=   0.000000
     celldm(4)=   0.000000  celldm(5)=   0.000000  celldm(6)=   0.000000

     crystal axes: (cart. coord. in units of alat)
               a(1) = (   6.579727   0.000000   0.000000 )
               a(2) = (  -0.000775   5.961596   0.000000 )
               a(3) = (   0.000000   0.000000  25.155947 )

     reciprocal axes: (cart. coord. in units 2 pi/alat)
               b(1) = (  0.151982  0.000020  0.000000 )
               b(2) = (  0.000000  0.167740  0.000000 )
               b(3) = (  0.000000  0.000000  0.039752 )

     PseudoPot. # 1 for Ti read from file:
     /storage/coda1/p-amedford6/0/shared/rich_project_chbe-medford/medford-share/data/pseudos_module/espresso/nninc/pbe/van/Ti.UPF
     MD5 check sum: 8e4df49b7f0d34bbd5052bf3f5ea0213
     Pseudo is Ultrasoft, Zval = 12.0
     Generated by new atomic code, or converted to UPF format
     Using radial grid of  851 points,  6 beta functions with:
                l(1) =   0
                l(2) =   0
                l(3) =   1
                l(4) =   1
                l(5) =   2
                l(6) =   2
     Q(r) pseudized with  8 coefficients,  rinner =    1.000   1.000   1.000
                                                       1.000   1.000

     PseudoPot. # 2 for O  read from file:
     /storage/coda1/p-amedford6/0/shared/rich_project_chbe-medford/medford-share/data/pseudos_module/espresso/nninc/pbe/van/O.UPF
     MD5 check sum: 78c19812648e8988a0fe644b0f25305e
     Pseudo is Ultrasoft, Zval =  6.0
     Generated by new atomic code, or converted to UPF format
     Using radial grid of  737 points,  4 beta functions with:
                l(1) =   0
                l(2) =   0
                l(3) =   1
                l(4) =   1
     Q(r) pseudized with  8 coefficients,  rinner =    0.800   0.800   0.800

     PseudoPot. # 3 for N  read from file:
     /storage/coda1/p-amedford6/0/shared/rich_project_chbe-medford/medford-share/data/pseudos_module/espresso/nninc/pbe/van/N.UPF
     MD5 check sum: 90d10febe142ad51ac9d5be1deb811c4
     Pseudo is Ultrasoft, Zval =  5.0
     Generated by new atomic code, or converted to UPF format
     Using radial grid of  729 points,  4 beta functions with:
                l(1) =   0
                l(2) =   0
                l(3) =   1
                l(4) =   1
     Q(r) pseudized with  8 coefficients,  rinner =    0.800   0.800   0.800

     PseudoPot. # 4 for C  read from file:
     /storage/coda1/p-amedford6/0/shared/rich_project_chbe-medford/medford-share/data/pseudos_module/espresso/nninc/pbe/van/C.UPF
     MD5 check sum: 1a69bf6b8db32088f5b2163dbdb77a27
     Pseudo is Ultrasoft, Zval =  4.0
     Generated by new atomic code, or converted to UPF format
     Using radial grid of  721 points,  4 beta functions with:
                l(1) =   0
                l(2) =   0
                l(3) =   1
                l(4) =   1
     Q(r) pseudized with  8 coefficients,  rinner =    0.800   0.800   0.800

     PseudoPot. # 5 for H  read from file:
     /storage/coda1/p-amedford6/0/shared/rich_project_chbe-medford/medford-share/data/pseudos_module/espresso/nninc/pbe/van/H.UPF
     MD5 check sum: b5ee9d7bfd3a09ee7748110bda690ff7
     Pseudo is Ultrasoft, Zval =  1.0
     Generated by new atomic code, or converted to UPF format
     Using radial grid of  615 points,  1 beta functions with:
                l(1) =   0
     Q(r) pseudized with  8 coefficients,  rinner =    0.800

     atomic species   valence    mass     pseudopotential
        Ti1           12.00    47.86700     Ti( 1.00)
        O1             6.00    15.99900     O ( 1.00)
        N1             5.00    14.00700     N ( 1.00)
        C1             4.00    12.01100     C ( 1.00)
        H1             1.00     1.00800     H ( 1.00)

     No symmetry found

   Cartesian axes

     site n.     atom                  positions (alat units)
         1           Ti1 tau(   1) = (   0.0004258   2.9801865   6.0000000  )
         2           Ti1 tau(   2) = (   3.2906075   1.4906267   6.0002472  )
         3           O1  tau(   3) = (   0.0006271   0.0005054   7.9858123  )
         4           O1  tau(   4) = (   3.2906025   0.0005020   7.3038282  )
         5           O1  tau(   5) = (   4.5942328   1.4918067   9.2879030  )
         6           O1  tau(   6) = (   1.9868534   1.4903216   9.2879459  )
         7           Ti1 tau(   7) = (   3.2907910   2.8959150   9.1758416  )
         8           Ti1 tau(   8) = (   0.0015273   1.4827037   9.2680791  )
         9           O1  tau(   9) = (   3.2880966   5.9442215  11.2779904  )
        10           O1  tau(  10) = (   0.0116148   5.9584955  10.6183126  )
        11           O1  tau(  11) = (   1.2901275   1.4920942  12.6240107  )
        12           O1  tau(  12) = (   5.2966278   1.4852543  12.6143030  )
        13           Ti1 tau(  13) = (   0.0031916   3.1007002  12.7073671  )
        14           Ti1 tau(  14) = (   3.2978183   1.3116672  12.6600973  )
        15           O1  tau(  15) = (   6.5743189   0.0224225  14.6379036  )
        16           O1  tau(  16) = (   3.2931419   0.0435670  13.8892854  )
        17           O1  tau(  17) = (   4.5409235   1.5821231  16.0748620  )
        18           O1  tau(  18) = (   2.0417342   1.5698890  16.0900686  )
        19           Ti1 tau(  19) = (   3.2746960   3.0378214  15.6558348  )
        20           Ti1 tau(  20) = (   6.4705883   1.5381531  15.9030332  )
        21           O1  tau(  21) = (   3.2904802   0.0005063   4.7018136  )
        22           O1  tau(  22) = (   6.5584422   0.0457650  17.1906971  )
        23           O1  tau(  23) = (   1.3043587   1.4918075   6.0039043  )
        24           O1  tau(  24) = (   5.2767064   1.4903225   6.0039473  )
        25           Ti1 tau(  25) = (   0.0000382   5.9609847   6.0000000  )
        26           Ti1 tau(  26) = (   3.2902200   4.4714249   6.0002472  )
        27           O1  tau(  27) = (   0.0002396   2.9813036   7.9858123  )
        28           O1  tau(  28) = (   3.2902150   2.9813002   7.3038282  )
        29           O1  tau(  29) = (   4.5938453   4.4726049   9.2879030  )
        30           O1  tau(  30) = (   1.9864658   4.4711199   9.2879459  )
        31           Ti1 tau(  31) = (   3.2891106   5.8743827   9.1763621  )
        32           Ti1 tau(  32) = (   0.0006254   4.4649316   9.2693709  )
        33           O1  tau(  33) = (   3.2918970   3.0256722  11.2465752  )
        34           O1  tau(  34) = (   0.0092240   2.9805883  10.6323155  )
        35           O1  tau(  35) = (   1.2932338   4.4650182  12.6342030  )
        36           O1  tau(  36) = (   5.2897350   4.4662865  12.6224893  )
        37           Ti1 tau(  37) = (   0.0112454   0.1207271  12.6557084  )
        38           Ti1 tau(  38) = (   3.2993242   4.4067673  12.4119285  )
        39           O1  tau(  39) = (   6.5542949   2.9732608  14.6543823  )
        40           O1  tau(  40) = (   3.2957262   2.9928748  13.8751945  )
        41           O1  tau(  41) = (   4.5169628   4.4726675  16.1294972  )
        42           O1  tau(  42) = (   2.0179035   4.4711894  16.0655614  )
        43           Ti1 tau(  43) = (   3.1791666   0.0518155  16.3463265  )
        44           Ti1 tau(  44) = (   6.5235282   4.6410908  16.0777984  )
        45           O1  tau(  45) = (   3.2900926   2.9813045   4.7018136  )
        46           O1  tau(  46) = (   1.3039711   4.4726057   6.0039043  )
        47           O1  tau(  47) = (   5.2763189   4.4711207   6.0039473  )
        48           N1  tau(  48) = (   0.0679940   2.9882472  17.3287890  )
        49           C1  tau(  49) = (   0.3545104   2.8919884  18.7043053  )
        50           H1  tau(  50) = (   0.5935414   3.8503421  19.1719745  )
        51           H1  tau(  51) = (   6.0379261   2.4644003  19.2136804  )
        52           H1  tau(  52) = (   1.1315070   2.1426081  18.8955932  )
        53           O1  tau(  53) = (   3.2362511   0.0690349  18.1809703  )
        54           H1  tau(  54) = (   3.8186072   5.4079590  18.6400750  )

     number of k points=    10  Fermi-Dirac smearing, width (Ry)=  0.0073
                       cart. coord. in units 2pi/alat
        k(    1) = (   0.0000000   0.0000000   0.0000000), wk =   0.1250000
        k(    2) = (   0.0000000   0.0419351   0.0000000), wk =   0.2500000
        k(    3) = (   0.0000000  -0.0838702   0.0000000), wk =   0.1250000
        k(    4) = (   0.0379955   0.0000049   0.0000000), wk =   0.2500000
        k(    5) = (   0.0379955   0.0419400   0.0000000), wk =   0.2500000
        k(    6) = (   0.0379955  -0.0838652   0.0000000), wk =   0.2500000
        k(    7) = (   0.0379955  -0.0419301   0.0000000), wk =   0.2500000
        k(    8) = (  -0.0759910  -0.0000099   0.0000000), wk =   0.1250000
        k(    9) = (  -0.0759910   0.0419252   0.0000000), wk =   0.2500000
        k(   10) = (  -0.0759910  -0.0838800   0.0000000), wk =   0.1250000

     Initial potential from superposition of free atoms

     starting charge  380.99916, renormalised to  397.00000

     negative rho (up, down):  1.676E-02 0.000E+00

     %%%%%%%%%%%%%%%%%%%%%%%%%%%%%%%%%%%%%%%%%%%%%%%%%%%%%%%%%%%%%%%%%%%%%%%%
     %                                                                      %
     % You are using vdW-DF, which was implemented by the Thonhauser group. %
     % Please cite the following two papers that made this development      %
     % possible and the two reviews that describe the various versions:     %
     %                                                                      %
     %   T. Thonhauser et al., PRL 115, 136402 (2015).                      %
     %   T. Thonhauser et al., PRB 76, 125112 (2007).                       %
     %   K. Berland et al., Rep. Prog. Phys. 78, 066501 (2015).             %
     %   D.C. Langreth et al., J. Phys.: Condens. Matter 21, 084203 (2009). %
     %                                                                      %
     %                                                                      %
     % If you are calculating the stress with vdW-DF, please also cite:     %
     %                                                                      %
     %   R. Sabatini et al., J. Phys.: Condens. Matter 24, 424209 (2012).   %
     %                                                                      %
     %%%%%%%%%%%%%%%%%%%%%%%%%%%%%%%%%%%%%%%%%%%%%%%%%%%%%%%%%%%%%%%%%%%%%%%%

     Adding external electric field

     Computed dipole along edir(3) :
        Dipole               -8.2921 Ry au,        -21.0764 Debye
        Dipole field         -0.0156 Ry au,

        Potential amp.        1.4506 Ry
        Total length         46.3494 bohr

     Starting wfcs are  300 atomic wfcs
  @ DRIVER MODE: Message from server: STATUS
  @ DRIVER MODE: Message from server: POSDATA
  @ DRIVER MODE: Reading and sharing cell
  @ DRIVER MODE: Reading and sharing positions
  @ DRIVER MODE: Received positions

     Self-consistent Calculation

     iteration #  1     ecut=    29.40 Ry     beta= 0.05
     Davidson diagonalization with overlap
     c_bands:  1 eigenvalues not converged
     c_bands:  1 eigenvalues not converged
     c_bands:  1 eigenvalues not converged
     c_bands:  3 eigenvalues not converged
     c_bands:  2 eigenvalues not converged
     c_bands:  1 eigenvalues not converged
     c_bands:  1 eigenvalues not converged
     ethr =  1.00E-05,  avg # of iterations = 19.2

[...]

     total energy              =   -2606.47005245 Ry
     estimated scf accuracy    <    3820.59556432 Ry

     iteration #  2     ecut=    29.40 Ry     beta= 0.05
     Davidson diagonalization with overlap
     ethr =  1.00E-02,  avg # of iterations = 24.1

[...]

     iteration # 43     ecut=    29.40 Ry     beta= 0.05
     Davidson diagonalization with overlap
     c_bands:  1 eigenvalues not converged
     ethr =  6.27E-07,  avg # of iterations =  8.5

[...]

     total energy              =   -2952.64731087 Ry
     estimated scf accuracy    <       0.00000015 Ry

     iteration # 69     ecut=    29.40 Ry     beta= 0.05
     Davidson diagonalization with overlap
     ethr =  2.84E-11,  avg # of iterations =  5.0

     negative rho (up, down):  1.695E-02 0.000E+00

     Adding external electric field

     Computed dipole along edir(3) :
        Dipole                0.3629 Ry au,          0.9225 Debye
        Dipole field          0.0007 Ry au,

        Potential amp.       -0.0635 Ry
        Total length         46.3494 bohr

     End of self-consistent calculation

          k = 0.0000 0.0000 0.0000 ( 18029 PWs)   bands (ev):

   -56.8741 -56.8406 -55.9445 -55.9090 -55.7341 -55.6694 -55.5484 -55.4256
   -55.3917 -55.3123 -55.3097 -55.2393 -55.2174 -55.1148 -55.0456 -54.9191
   -33.2929 -33.1445 -33.1164 -33.0538 -32.9637 -32.9200 -32.4257 -32.2094
   -32.1647 -32.1445 -32.0890 -32.0806 -32.0551 -31.9679 -31.9465 -31.9042
   -31.8897 -31.8720 -31.8316 -31.8035 -31.7944 -31.7921 -31.7797 -31.7726
   -31.7481 -31.7287 -31.6639 -31.6298 -31.5904 -31.5807 -31.5495 -31.5273
   -31.5147 -31.5066 -31.4732 -31.4643 -31.4380 -31.4291 -31.4069 -31.3925
   -31.3553 -31.3043 -31.2980 -31.2811 -31.2493 -31.1910 -31.1556 -31.1023
   -16.9769 -16.4636 -16.4151 -16.1904 -16.0679 -16.0624 -16.0167 -15.9553
   -15.7815 -15.7281 -15.6879 -15.6243 -15.4735 -15.3628 -15.2658 -15.0707
   -15.0357 -15.0035 -15.0016 -14.9877 -14.9573 -14.9450 -14.8693 -14.8183
   -14.7877 -14.7056 -14.6989 -14.5376 -14.3095 -14.2856 -13.9233 -13.8163
   -13.7834  -8.0397  -4.5527  -4.0914  -3.8836  -3.7084  -3.5589  -3.5115
    -3.4618  -3.3928  -3.3800  -3.2351  -3.2339  -3.2213  -3.2196  -3.1366
    -3.0709  -3.0138  -2.9248  -2.9093  -2.8188  -2.7683  -2.6091  -2.5751
    -2.4870  -2.4083  -2.4029  -2.3363  -2.3177  -2.2758  -2.2402  -2.2094
    -2.1804  -2.1365  -2.0822  -2.0718  -1.9773  -1.9713  -1.8886  -1.8733
    -1.8668  -1.7458  -1.7065  -1.6472  -1.5077  -1.4858  -1.4691  -1.4373
    -1.3996  -1.3387  -1.2346  -1.1762  -1.1474  -1.0934  -1.0241  -0.9674
    -0.9470  -0.8733  -0.8468  -0.7721  -0.7291  -0.7128  -0.6931  -0.6686
    -0.5299  -0.4477  -0.4133  -0.3610  -0.3460  -0.3066  -0.2828  -0.2274
    -0.1691  -0.1476  -0.0487  -0.0457   0.0904   0.1583   0.1606   0.2597
     0.3042   0.3103   0.3668   0.4360   0.4477   0.5113   0.5312   0.5896
     0.5955   0.6378   0.7214   0.7982   0.8417   0.8718   0.9120   0.9322
     1.0442   1.0695   1.1329   1.1892   1.4941   1.5706   2.1800   2.4204
     2.5922   2.8697   3.0650   3.3646   3.4063   3.4245   3.4246   3.8450

[...]

          k = 0.0380-0.0419 0.0000 ( 17876 PWs)   bands (ev):

[...]

          k =-0.0760-0.0000 0.0000 ( 17886 PWs)   bands (ev):

[...]

          k =-0.0760-0.0839 0.0000 ( 17948 PWs)   bands (ev):

   -56.8580 -56.8566 -55.9325 -55.9208 -55.7293 -55.6741 -55.5476 -55.4092
   -55.4080 -55.3129 -55.3052 -55.2435 -55.2160 -55.1133 -55.0471 -54.9205
   -33.1310 -33.1294 -33.1108 -33.1094 -33.0080 -33.0068 -32.2507 -32.2405
   -32.1271 -32.1229 -32.1150 -32.1140 -32.0275 -31.9869 -31.9611 -31.9473
   -31.8997 -31.8982 -31.8333 -31.7910 -31.7708 -31.7616 -31.7608 -31.6851
   -31.6347 -31.6295 -31.6280 -31.6036 -31.5930 -31.5894 -31.5885 -31.5827
   -31.5339 -31.5264 -31.5096 -31.4843 -31.4789 -31.4632 -31.4337 -31.4089
   -31.3922 -31.3581 -31.3064 -31.2922 -31.2595 -31.2551 -31.1580 -31.1401
   -16.4529 -16.3348 -16.3329 -16.2903 -16.2889 -16.0253 -16.0209 -15.7728
   -15.7438 -15.5685 -15.4562 -15.4341 -15.3924 -15.3519 -15.2750 -15.2243
   -15.2110 -15.1827 -15.1562 -15.0838 -15.0498 -14.9487 -14.9132 -14.8512
   -14.8169 -14.7434 -14.7032 -14.6745 -14.4807 -14.4185 -13.9207 -13.9203
   -13.8066  -8.0385  -4.0952  -3.4930  -3.4118  -3.4074  -3.3721  -3.3650
    -3.2842  -3.1606  -3.1570  -3.0330  -2.9565  -2.9296  -2.9000  -2.8460
    -2.8315  -2.7362  -2.6863  -2.6814  -2.6663  -2.6319  -2.6006  -2.5935
    -2.5360  -2.4098  -2.3659  -2.3276  -2.2869  -2.2176  -2.1889  -2.1812
    -2.1481  -2.1085  -2.0904  -2.0616  -2.0489  -2.0421  -2.0313  -1.9466
    -1.7978  -1.7711  -1.6775  -1.6744  -1.6647  -1.6248  -1.5951  -1.5810
    -1.5606  -1.5270  -1.4502  -1.4244  -1.3606  -1.2235  -1.2123  -1.1773
    -1.1240  -1.0207  -1.0063  -0.9104  -0.8924  -0.8823  -0.8191  -0.7958
    -0.7790  -0.7170  -0.6800  -0.5596  -0.4880  -0.4798  -0.4613  -0.4525
    -0.4022  -0.3555  -0.2821  -0.2779  -0.2612  -0.1531  -0.0573   0.0367
     0.0413   0.1117   0.1261   0.1818   0.3392   0.3495   0.3917   0.4529
     0.5693   0.6607   0.7149   0.8147   0.8471   0.9533   0.9725   0.9775
     0.9967   1.0055   1.0484   1.1047   1.1682   1.4753   1.9804   3.0131
     3.0162   3.0746   3.0801   3.3914   3.3936   3.5057   3.5106   3.8311

     the Fermi energy is     2.0777 ev

!    total energy              =   -2952.64733140 Ry
     estimated scf accuracy    <       0.00000004 Ry
     smearing contrib. (-TS)   =      -0.01067438 Ry
     internal energy E=F+TS    =   -2952.63665702 Ry

     The total energy is F=E-TS. E is the sum of the following terms:
     one-electron contribution =  -24061.19160532 Ry
     hartree contribution      =   12121.05953155 Ry
     xc contribution           =    -487.77655966 Ry
     ewald contribution        =    9475.27172783 Ry
     electric field correction =       0.00024857 Ry

     convergence has been achieved in  69 iterations

     Forces acting on atoms (cartesian axes, Ry/au):

     atom    1 type  1   force =     0.00005462   -0.00036695    0.12633245
     atom    2 type  1   force =    -0.00006581    0.00038637   -0.15474768
     atom    3 type  2   force =     0.00003793    0.00023007   -0.06865608
     atom    4 type  2   force =     0.00004205    0.00001141    0.01723195
     atom    5 type  2   force =    -0.00541665   -0.00183259   -0.01283291
     atom    6 type  2   force =     0.00699815   -0.00107183   -0.01373349
     atom    7 type  1   force =    -0.00029696   -0.00640579    0.05891350
     atom    8 type  1   force =     0.00058394    0.00675073    0.10095041
     atom    9 type  2   force =     0.00031899    0.00036475    0.00015247
     atom   10 type  2   force =    -0.00198570    0.00132495   -0.06335625
     atom   11 type  2   force =    -0.00018278   -0.00066663    0.00025221
     atom   12 type  2   force =    -0.00035621   -0.00040265    0.00007166
     atom   13 type  1   force =     0.00058603   -0.00073915    0.00022074
     atom   14 type  1   force =    -0.00002837   -0.00056214    0.00120137
     atom   15 type  2   force =     0.00002721    0.00001557    0.00029125
     atom   16 type  2   force =     0.00005214   -0.00019878   -0.00085208
     atom   17 type  2   force =    -0.00038333   -0.00054814   -0.00040793
     atom   18 type  2   force =    -0.00032486   -0.00065704   -0.00063933
     atom   19 type  1   force =     0.00133758    0.00036008   -0.00084049
     atom   20 type  1   force =    -0.00076525    0.00087360   -0.00065569
     atom   21 type  2   force =     0.00009586    0.00015047    0.09787234
     atom   22 type  2   force =    -0.00007176   -0.00004212   -0.00027107
     atom   23 type  2   force =    -0.08272811    0.00003146   -0.03315637
     atom   24 type  2   force =     0.08270074    0.00046210   -0.03322030
     atom   25 type  1   force =     0.00005198   -0.00040039    0.12669686
     atom   26 type  1   force =    -0.00004508   -0.00138935   -0.15490385
     atom   27 type  2   force =     0.00012114   -0.00037033   -0.06705746
     atom   28 type  2   force =     0.00007046    0.00177033    0.01245494
     atom   29 type  2   force =    -0.00383959    0.00476885   -0.01597650
     atom   30 type  2   force =     0.00536808    0.00500906   -0.01690649
     atom   31 type  1   force =    -0.00028777    0.00187838    0.04200502
     atom   32 type  1   force =     0.00074419   -0.00886690    0.10187735
     atom   33 type  2   force =    -0.00004864   -0.00033950   -0.00056840
     atom   34 type  2   force =    -0.00187789    0.00206005   -0.07567347
     atom   35 type  2   force =     0.00012553   -0.00013332   -0.00046439
     atom   36 type  2   force =    -0.00029378    0.00006498   -0.00018022
     atom   37 type  1   force =     0.00047506    0.00055826    0.00034519
     atom   38 type  1   force =    -0.00034920   -0.00074062   -0.00037839
     atom   39 type  2   force =     0.00000148   -0.00050395    0.00067040
     atom   40 type  2   force =    -0.00008959   -0.00056906   -0.00042290
     atom   41 type  2   force =     0.00037140   -0.00030087   -0.00071286
     atom   42 type  2   force =    -0.00148596    0.00014229    0.00001136
     atom   43 type  1   force =     0.00087474   -0.00064047   -0.00079917
     atom   44 type  1   force =    -0.00145356   -0.00060315   -0.00011976
     atom   45 type  2   force =     0.00008327   -0.00002909    0.09771214
     atom   46 type  2   force =    -0.08276470    0.00001804   -0.03316838
     atom   47 type  2   force =     0.08273190    0.00043172   -0.03321719
     atom   48 type  3   force =     0.00231853   -0.00082863    0.00125746
     atom   49 type  4   force =    -0.01672781   -0.00074677   -0.00143425
     atom   50 type  5   force =     0.00199428    0.00166606    0.00150899
     atom   51 type  5   force =     0.00696052    0.00295797   -0.00325323
     atom   52 type  5   force =     0.00520870   -0.00354583    0.00129868
     atom   53 type  2   force =     0.00031409    0.00028002   -0.00077911
     atom   54 type  5   force =     0.00121880    0.00093445    0.00005697

     Total force =     0.421621     Total SCF correction =     0.000455
  @ DRIVER MODE: Message from server: STATUS
  @ DRIVER MODE: Message from server: GETFORCE
  @ DRIVER MODE: Returning v,forces,stress,ensemble

     Writing output data file ./calc.save/
  @ DRIVER MODE: Message from server: EXIT
  @ DRIVE MODE: Exiting

     General routines

     Parallel routines

   This run was terminated on:  19:15:27  22Sep2021

   JOB DONE.