     Program PWSCF v.6.7GPU starts on 15Sep2021 at 21: 6: 4

     R & G space division:  proc/nbgrp/npool/nimage =      10
     Reading input from /storage/home/hcoda1/3/ntian30/research/carbon/CxH_vib/H2O_calc/ads_slab/CHNHHH2O_a/out_0017/pw.inp
Warning: card &CELL ignored
Warning: card   CELL_DYNAMICS='IPI', ignored
Warning: card / ignored

     Current dimensions of program PWSCF are:
     Max number of different atomic species (ntypx) = 10
     Max number of k-points (npk) =  40000
     Max angular momentum in pseudopotentials (lmaxx) =  3
     Presently no symmetry can be used with electric field

     Message from routine cell_base_init:
     DEPRECATED: use true lattice parameter, not A to a.u. conversion factor

     IMPORTANT: XC functional enforced from input :
     Exchange-correlation= BEEF-VDW
                           (   1   4  43  14   2   0   0)
     Any further DFT definition will be discarded
     Please, verify this is what you really want

  @ DRIVER MODE: Connecting to
 qe_1139763_2852629.sched-torque.pace.gatech.edud1yzhhyx_scratch
  using UNIX socket
  @ DRIVER MODE: Message from server: STATUS
  @ DRIVER MODE: Message from server: INIT
  @ DRIVER MODE: Receiving replica           0          -1
  @ DRIVER MODE: Receiving encoded integer          25
  @ DRIVER MODE:  SCF:  T  FORCE:  T  STRESS:  F  VC:  F  ENSEMBLE:  F
  @ DRIVER MODE:  SCF:  T  FORCE:  T  STRESS:  F  VC:  F  ENSEMBLE:  F

     Using Slab Decomposition

     bravais-lattice index     =            0
     lattice parameter (alat)  =       1.8897  a.u.
     unit-cell volume          =    6658.9804 (a.u.)^3
     number of atoms/cell      =           55
     number of atomic types    =            5
     number of electrons       =       398.00
     number of Kohn-Sham states=          209
     kinetic-energy cutoff     =      29.3995  Ry
     charge density cutoff     =     293.9946  Ry
     scf convergence threshold =      7.3E-08
     mixing beta               =       0.0500
     number of iterations used =            8  plain     mixing
     Exchange-correlation= BEEF-VDW
                           (   1   4  43  14   2   0   0)

     celldm(1)=   1.889726  celldm(2)=   0.000000  celldm(3)=   0.000000
     celldm(4)=   0.000000  celldm(5)=   0.000000  celldm(6)=   0.000000

     crystal axes: (cart. coord. in units of alat)
               a(1) = (   6.579727   0.000000   0.000000 )
               a(2) = (  -0.000775   5.961596   0.000000 )
               a(3) = (   0.000000   0.000000  25.155947 )

     reciprocal axes: (cart. coord. in units 2 pi/alat)
               b(1) = (  0.151982  0.000020  0.000000 )
               b(2) = (  0.000000  0.167740  0.000000 )
               b(3) = (  0.000000  0.000000  0.039752 )

     PseudoPot. # 1 for Ti read from file:
     /storage/coda1/p-amedford6/0/shared/rich_project_chbe-medford/medford-share/data/pseudos_module/espresso/nninc/pbe/van/Ti.UPF
     MD5 check sum: 8e4df49b7f0d34bbd5052bf3f5ea0213
     Pseudo is Ultrasoft, Zval = 12.0
     Generated by new atomic code, or converted to UPF format
     Using radial grid of  851 points,  6 beta functions with:
                l(1) =   0
                l(2) =   0
                l(3) =   1
                l(4) =   1
                l(5) =   2
                l(6) =   2
     Q(r) pseudized with  8 coefficients,  rinner =    1.000   1.000   1.000
                                                       1.000   1.000

     PseudoPot. # 2 for O  read from file:
     /storage/coda1/p-amedford6/0/shared/rich_project_chbe-medford/medford-share/data/pseudos_module/espresso/nninc/pbe/van/O.UPF
     MD5 check sum: 78c19812648e8988a0fe644b0f25305e
     Pseudo is Ultrasoft, Zval =  6.0
     Generated by new atomic code, or converted to UPF format
     Using radial grid of  737 points,  4 beta functions with:
                l(1) =   0
                l(2) =   0
                l(3) =   1
                l(4) =   1
     Q(r) pseudized with  8 coefficients,  rinner =    0.800   0.800   0.800

     PseudoPot. # 3 for N  read from file:
     /storage/coda1/p-amedford6/0/shared/rich_project_chbe-medford/medford-share/data/pseudos_module/espresso/nninc/pbe/van/N.UPF
     MD5 check sum: 90d10febe142ad51ac9d5be1deb811c4
     Pseudo is Ultrasoft, Zval =  5.0
     Generated by new atomic code, or converted to UPF format
     Using radial grid of  729 points,  4 beta functions with:
                l(1) =   0
                l(2) =   0
                l(3) =   1
                l(4) =   1
     Q(r) pseudized with  8 coefficients,  rinner =    0.800   0.800   0.800

     PseudoPot. # 4 for C  read from file:
     /storage/coda1/p-amedford6/0/shared/rich_project_chbe-medford/medford-share/data/pseudos_module/espresso/nninc/pbe/van/C.UPF
     MD5 check sum: 1a69bf6b8db32088f5b2163dbdb77a27
     Pseudo is Ultrasoft, Zval =  4.0
     Generated by new atomic code, or converted to UPF format
     Using radial grid of  721 points,  4 beta functions with:
                l(1) =   0
                l(2) =   0
                l(3) =   1
                l(4) =   1
     Q(r) pseudized with  8 coefficients,  rinner =    0.800   0.800   0.800

     PseudoPot. # 5 for H  read from file:
     /storage/coda1/p-amedford6/0/shared/rich_project_chbe-medford/medford-share/data/pseudos_module/espresso/nninc/pbe/van/H.UPF
     MD5 check sum: b5ee9d7bfd3a09ee7748110bda690ff7
     Pseudo is Ultrasoft, Zval =  1.0
     Generated by new atomic code, or converted to UPF format
     Using radial grid of  615 points,  1 beta functions with:
                l(1) =   0
     Q(r) pseudized with  8 coefficients,  rinner =    0.800

     atomic species   valence    mass     pseudopotential
        Ti1           12.00    47.86700     Ti( 1.00)
        O1             6.00    15.99900     O ( 1.00)
        N1             5.00    14.00700     N ( 1.00)
        C1             4.00    12.01100     C ( 1.00)
        H1             1.00     1.00800     H ( 1.00)

     No symmetry found

   Cartesian axes

     site n.     atom                  positions (alat units)
         1           Ti1 tau(   1) = (   0.0004258   2.9801865   6.0000000  )
         2           Ti1 tau(   2) = (   3.2906075   1.4906267   6.0002472  )
         3           O1  tau(   3) = (   0.0006271   0.0005054   7.9858123  )
         4           O1  tau(   4) = (   3.2906025   0.0005020   7.3038282  )
         5           O1  tau(   5) = (   4.5942328   1.4918067   9.2879030  )
         6           O1  tau(   6) = (   1.9868534   1.4903216   9.2879459  )
         7           Ti1 tau(   7) = (   3.2907910   2.8959150   9.1758416  )
         8           Ti1 tau(   8) = (   0.0015273   1.4827037   9.2680791  )
         9           O1  tau(   9) = (   3.2943807   5.9438157  11.3430345  )
        10           O1  tau(  10) = (   0.0116148   5.9584955  10.6183126  )
        11           O1  tau(  11) = (   1.2953376   1.4759649  12.6292060  )
        12           O1  tau(  12) = (   5.2846356   1.4785235  12.6176154  )
        13           Ti1 tau(  13) = (   0.0556596   2.9564334  12.6140783  )
        14           Ti1 tau(  14) = (   3.3658323   1.4657407  12.4949608  )
        15           O1  tau(  15) = (   6.5664030   0.0209144  14.6477191  )
        16           O1  tau(  16) = (   3.3113265   5.9542485  13.9698242  )
        17           O1  tau(  17) = (   4.5454210   1.5146250  16.1225105  )
        18           O1  tau(  18) = (   2.0305911   1.5113983  16.0894517  )
        19           Ti1 tau(  19) = (   3.2587399   2.9544808  15.6767922  )
        20           Ti1 tau(  20) = (   6.5654577   1.5458692  15.9193722  )
        21           O1  tau(  21) = (   3.2904802   0.0005063   4.7018136  )
        22           O1  tau(  22) = (   0.0418464   5.8849155  17.2380659  )
        23           O1  tau(  23) = (   1.3043587   1.4918075   6.0039043  )
        24           O1  tau(  24) = (   5.2767064   1.4903225   6.0039473  )
        25           Ti1 tau(  25) = (   0.0000382   5.9609847   6.0000000  )
        26           Ti1 tau(  26) = (   3.2902200   4.4714249   6.0002472  )
        27           O1  tau(  27) = (   0.0002396   2.9813036   7.9858123  )
        28           O1  tau(  28) = (   3.2902150   2.9813002   7.3038282  )
        29           O1  tau(  29) = (   4.5938453   4.4726049   9.2879030  )
        30           O1  tau(  30) = (   1.9864658   4.4711199   9.2879459  )
        31           Ti1 tau(  31) = (   3.2891106   5.8743827   9.1763621  )
        32           Ti1 tau(  32) = (   0.0006254   4.4649316   9.2693709  )
        33           O1  tau(  33) = (   3.2978316   2.9705197  11.3397625  )
        34           O1  tau(  34) = (   0.0092240   2.9805883  10.6323155  )
        35           O1  tau(  35) = (   1.2936985   4.4655287  12.6460247  )
        36           O1  tau(  36) = (   5.2856521   4.4646452  12.6308247  )
        37           Ti1 tau(  37) = (   0.0515089   5.9379728  12.5308627  )
        38           Ti1 tau(  38) = (   3.3654372   4.4547101  12.4935900  )
        39           O1  tau(  39) = (   6.5748852   2.9443291  14.6951209  )
        40           O1  tau(  40) = (   3.2957406   2.9584624  13.8938737  )
        41           O1  tau(  41) = (   4.5486474   4.4154460  16.0876977  )
        42           O1  tau(  42) = (   2.0388008   4.4257786  16.0448984  )
        43           Ti1 tau(  43) = (   3.3137362   5.9209902  15.7922403  )
        44           Ti1 tau(  44) = (   0.0032603   4.6697478  15.9558853  )
        45           O1  tau(  45) = (   3.2900926   2.9813045   4.7018136  )
        46           O1  tau(  46) = (   1.3039711   4.4726057   6.0039043  )
        47           O1  tau(  47) = (   5.2763189   4.4711207   6.0039473  )
        48           N1  tau(  48) = (   5.6270067   3.1633449  18.6203826  )
        49           C1  tau(  49) = (   0.0237924   2.7940403  17.7774691  )
        50           H1  tau(  50) = (   0.9584034   2.6460975  18.3147808  )
        51           H1  tau(  51) = (   4.7713523   3.5531088  18.2436842  )
        52           H1  tau(  52) = (   5.8168525   3.4166350  19.5804594  )
        53           O1  tau(  53) = (   3.2115967   5.9081562  18.2546127  )
        54           H1  tau(  54) = (   3.8106726   0.6855978  18.4519937  )
        55           H1  tau(  55) = (   2.3006756   0.2828797  18.3268221  )

     number of k points=    10  Fermi-Dirac smearing, width (Ry)=  0.0073
                       cart. coord. in units 2pi/alat
        k(    1) = (   0.0000000   0.0000000   0.0000000), wk =   0.1250000
        k(    2) = (   0.0000000   0.0419351   0.0000000), wk =   0.2500000
        k(    3) = (   0.0000000  -0.0838702   0.0000000), wk =   0.1250000
        k(    4) = (   0.0379955   0.0000049   0.0000000), wk =   0.2500000
        k(    5) = (   0.0379955   0.0419400   0.0000000), wk =   0.2500000
        k(    6) = (   0.0379955  -0.0838652   0.0000000), wk =   0.2500000
        k(    7) = (   0.0379955  -0.0419301   0.0000000), wk =   0.2500000
        k(    8) = (  -0.0759910  -0.0000099   0.0000000), wk =   0.1250000
        k(    9) = (  -0.0759910   0.0419252   0.0000000), wk =   0.2500000
        k(   10) = (  -0.0759910  -0.0838800   0.0000000), wk =   0.1250000

     Initial potential from superposition of free atoms

     starting charge  381.99915, renormalised to  398.00000

     negative rho (up, down):  1.708E-02 0.000E+00

     %%%%%%%%%%%%%%%%%%%%%%%%%%%%%%%%%%%%%%%%%%%%%%%%%%%%%%%%%%%%%%%%%%%%%%%%
     %                                                                      %
     % You are using vdW-DF, which was implemented by the Thonhauser group. %
     % Please cite the following two papers that made this development      %
     % possible and the two reviews that describe the various versions:     %
     %                                                                      %
     %   T. Thonhauser et al., PRL 115, 136402 (2015).                      %
     %   T. Thonhauser et al., PRB 76, 125112 (2007).                       %
     %   K. Berland et al., Rep. Prog. Phys. 78, 066501 (2015).             %
     %   D.C. Langreth et al., J. Phys.: Condens. Matter 21, 084203 (2009). %
     %                                                                      %
     %                                                                      %
     % If you are calculating the stress with vdW-DF, please also cite:     %
     %                                                                      %
     %   R. Sabatini et al., J. Phys.: Condens. Matter 24, 424209 (2012).   %
     %                                                                      %
     %%%%%%%%%%%%%%%%%%%%%%%%%%%%%%%%%%%%%%%%%%%%%%%%%%%%%%%%%%%%%%%%%%%%%%%%

     Adding external electric field

     Computed dipole along edir(3) :
        Dipole              -10.1344 Ry au,        -25.7591 Debye
        Dipole field         -0.0191 Ry au,

        Potential amp.        1.7729 Ry
        Total length         46.3494 bohr

     Starting wfcs are  301 atomic wfcs
  @ DRIVER MODE: Message from server: STATUS
  @ DRIVER MODE: Message from server: POSDATA
  @ DRIVER MODE: Reading and sharing cell
  @ DRIVER MODE: Reading and sharing positions
  @ DRIVER MODE: Received positions

     Self-consistent Calculation

     iteration #  1     ecut=    29.40 Ry     beta= 0.05
     Davidson diagonalization with overlap
     c_bands:  2 eigenvalues not converged
     c_bands:  1 eigenvalues not converged
     c_bands:  1 eigenvalues not converged
     c_bands:  3 eigenvalues not converged
     c_bands:  1 eigenvalues not converged
     c_bands:  3 eigenvalues not converged
     c_bands:  3 eigenvalues not converged
     c_bands:  3 eigenvalues not converged
     c_bands:  1 eigenvalues not converged
     ethr =  1.00E-05,  avg # of iterations = 19.8

[...]

     total energy              =   -2497.70224758 Ry
     estimated scf accuracy    <    5094.06195522 Ry

     iteration #  2     ecut=    29.40 Ry     beta= 0.05
     Davidson diagonalization with overlap
     ethr =  1.00E-02,  avg # of iterations = 25.5

[...]

     iteration # 56     ecut=    29.40 Ry     beta= 0.05
     Davidson diagonalization with overlap
     c_bands:  1 eigenvalues not converged
     ethr =  3.28E-07,  avg # of iterations = 12.8

[...]

     total energy              =   -2953.88250294 Ry
     estimated scf accuracy    <       0.00000014 Ry

     iteration # 76     ecut=    29.40 Ry     beta= 0.05
     Davidson diagonalization with overlap
     ethr =  3.41E-11,  avg # of iterations = 11.4

     negative rho (up, down):  1.667E-02 0.000E+00

     Adding external electric field

     Computed dipole along edir(3) :
        Dipole                1.2949 Ry au,          3.2914 Debye
        Dipole field          0.0024 Ry au,

        Potential amp.       -0.2265 Ry
        Total length         46.3494 bohr

     End of self-consistent calculation

          k = 0.0000 0.0000 0.0000 ( 18029 PWs)   bands (ev):

   -55.4425 -55.4362 -55.4171 -55.4085 -55.4001 -55.2988 -55.2570 -55.2506
   -55.2354 -55.2330 -55.2160 -55.1996 -54.8578 -54.7659 -54.4288 -54.3948
   -31.9923 -31.9264 -31.8181 -31.7938 -31.7535 -31.7494 -31.7339 -31.7235
   -31.6855 -31.6838 -31.6540 -31.6383 -31.6271 -31.6164 -31.5955 -31.5829
   -31.5737 -31.5482 -31.5441 -31.5089 -31.5003 -31.4975 -31.4633 -31.4518
   -31.4456 -31.4432 -31.4349 -31.4343 -31.4342 -31.4084 -31.4081 -31.4024
   -31.3856 -31.3818 -31.3574 -31.3488 -31.3427 -31.1901 -31.0755 -31.0238
   -30.9638 -30.9278 -30.8363 -30.7470 -30.7246 -30.6530 -30.5664 -30.4554
   -19.0629 -16.4559 -16.2000 -15.9386 -15.7550 -15.6257 -15.5983 -15.4246
   -15.2895 -15.1874 -15.1253 -15.0681 -15.0488 -15.0007 -14.9984 -14.9861
   -14.9831 -14.9520 -14.9038 -14.8830 -14.8632 -14.8217 -14.8125 -14.7958
   -14.7465 -14.7084 -14.6133 -14.5814 -14.5551 -14.5149 -14.0306 -12.9313
   -12.8147  -9.0266  -6.8716  -6.6894  -4.2905  -3.5710  -3.4086  -3.3544
    -3.3458  -3.3206  -3.2316  -3.0914  -2.9542  -2.7208  -2.6586  -2.6228
    -2.5904  -2.5531  -2.4364  -2.3854  -2.3741  -2.3086  -2.2612  -2.2532
    -2.2403  -2.2190  -2.2036  -2.1430  -2.1297  -2.0293  -1.9874  -1.9174
    -1.8569  -1.8251  -1.7744  -1.7594  -1.7162  -1.7128  -1.6977  -1.6789
    -1.6650  -1.6494  -1.5912  -1.5297  -1.4518  -1.2669  -1.2340  -1.1177
    -1.0893  -1.0578  -1.0142  -0.9302  -0.9034  -0.8811  -0.8416  -0.7507
    -0.7247  -0.6780  -0.5895  -0.4998  -0.4542  -0.4282  -0.3485  -0.3133
    -0.2853  -0.2186  -0.2112  -0.1996  -0.1233  -0.0641   0.0382   0.0749
     0.1091   0.1252   0.1394   0.2239   0.2624   0.3196   0.3639   0.4174
     0.4529   0.4677   0.5044   0.5249   0.5397   0.5669   0.5788   0.7612
     0.8027   0.8318   0.8623   0.9509   1.0491   1.1157   1.1993   1.2686
     1.5160   1.5934   1.6464   1.7839   2.1655   2.2118   3.6285   3.7569
     3.7753   3.7936   3.8248   3.8875   3.9505   4.1397   4.1621   4.1837
     4.2116

[...]

          k = 0.0380-0.0419 0.0000 ( 17876 PWs)   bands (ev):

[...]

          k =-0.0760-0.0000 0.0000 ( 17886 PWs)   bands (ev):

[...]

          k =-0.0760-0.0839 0.0000 ( 17948 PWs)   bands (ev):

   -55.4260 -55.4248 -55.4199 -55.4167 -55.4149 -55.2899 -55.2657 -55.2369
   -55.2354 -55.2304 -55.2181 -55.2151 -54.8547 -54.7690 -54.4118 -54.4116
   -31.8018 -31.7911 -31.7421 -31.7412 -31.7268 -31.7198 -31.7187 -31.7027
   -31.6874 -31.6462 -31.6388 -31.6335 -31.6238 -31.6054 -31.5695 -31.5591
   -31.5546 -31.5544 -31.5519 -31.5460 -31.5457 -31.5448 -31.5419 -31.5025
   -31.4816 -31.4759 -31.4646 -31.4509 -31.4457 -31.4417 -31.4401 -31.4396
   -31.4326 -31.4294 -31.4105 -31.4051 -31.2507 -31.1919 -31.0687 -31.0416
   -31.0250 -30.9641 -30.7374 -30.7372 -30.6491 -30.6489 -30.6098 -30.6097
   -19.0619 -16.4455 -15.6899 -15.5606 -15.4317 -15.3743 -15.3687 -15.3102
   -15.3061 -15.1930 -15.1829 -15.1546 -15.1297 -15.1129 -15.0848 -15.0655
   -15.0034 -14.9828 -14.9794 -14.9493 -14.9200 -14.9072 -14.9023 -14.8875
   -14.8838 -14.8296 -14.7735 -14.7703 -14.6593 -14.5562 -14.1875 -12.9166
   -12.9164  -9.0363  -6.8559  -6.7082  -4.2588  -3.2367  -2.9741  -2.7930
    -2.6871  -2.6313  -2.5679  -2.5490  -2.3828  -2.3678  -2.3580  -2.3209
    -2.3047  -2.2834  -2.2728  -2.2681  -2.2418  -2.2300  -2.2119  -2.1802
    -2.1472  -2.1290  -2.1210  -2.1145  -2.0983  -2.0796  -2.0566  -2.0354
    -2.0314  -2.0043  -1.9643  -1.9409  -1.8810  -1.7461  -1.7086  -1.6681
    -1.5980  -1.5914  -1.5378  -1.5217  -1.4947  -1.4670  -1.4038  -1.3806
    -1.2314  -1.1677  -1.1515  -1.1351  -1.1210  -0.9996  -0.9588  -0.8900
    -0.8637  -0.7943  -0.7640  -0.7520  -0.7055  -0.6039  -0.5910  -0.5392
    -0.5277  -0.4307  -0.4079  -0.3969  -0.3620  -0.3175  -0.2494  -0.2082
    -0.1935  -0.1840  -0.1502  -0.1435  -0.1032   0.0170   0.0771   0.1386
     0.2110   0.3158   0.4257   0.4375   0.5856   0.6122   0.6263   0.7319
     0.8186   0.8487   0.8686   0.8982   0.8996   1.0235   1.0713   1.0811
     1.0825   1.2332   1.9556   1.9569   2.0313   2.0317   3.7363   3.9366
     3.9578   3.9999   4.0463   4.1779   4.1868   4.2211   4.2223   4.3066
     4.3407

     the Fermi energy is     3.6879 ev

!    total energy              =   -2953.88251578 Ry
     estimated scf accuracy    <       0.00000006 Ry
     smearing contrib. (-TS)   =      -0.03290191 Ry
     internal energy E=F+TS    =   -2953.84961386 Ry

     The total energy is F=E-TS. E is the sum of the following terms:
     one-electron contribution =  -24258.98447054 Ry
     hartree contribution      =   12223.04550166 Ry
     xc contribution           =    -488.84628729 Ry
     ewald contribution        =    9570.93247782 Ry
     electric field correction =       0.00316449 Ry

     convergence has been achieved in  76 iterations

     Forces acting on atoms (cartesian axes, Ry/au):

     atom    1 type  1   force =     0.00020952   -0.00019908    0.09613279
     atom    2 type  1   force =    -0.00011515   -0.00027496   -0.17606071
     atom    3 type  2   force =     0.00002683    0.00001873   -0.02489044
     atom    4 type  2   force =     0.00003469   -0.00160073    0.05415918
     atom    5 type  2   force =    -0.01177853   -0.00148452    0.00427425
     atom    6 type  2   force =     0.01354320   -0.00070548    0.00348107
     atom    7 type  1   force =    -0.00083943    0.00086983   -0.01028699
     atom    8 type  1   force =     0.00025050    0.01223309    0.02352714
     atom    9 type  2   force =    -0.00035810   -0.00008347   -0.00024305
     atom   10 type  2   force =    -0.00088331   -0.00045019   -0.01484883
     atom   11 type  2   force =     0.00042182    0.00008320    0.00018173
     atom   12 type  2   force =    -0.00040589   -0.00007138    0.00003109
     atom   13 type  1   force =    -0.00066595   -0.00007380   -0.00154171
     atom   14 type  1   force =     0.00059104    0.00018653    0.00033005
     atom   15 type  2   force =     0.00056771    0.00038474    0.00001845
     atom   16 type  2   force =    -0.00028747    0.00005995    0.00037487
     atom   17 type  2   force =    -0.00024335   -0.00030935   -0.00046285
     atom   18 type  2   force =     0.00007964   -0.00008321    0.00001671
     atom   19 type  1   force =     0.00090147    0.00005506    0.00053065
     atom   20 type  1   force =    -0.00061143   -0.00042035    0.00010378
     atom   21 type  2   force =     0.00006117    0.00004461    0.10335717
     atom   22 type  2   force =     0.00040764    0.00083098   -0.00021207
     atom   23 type  2   force =    -0.07129078   -0.00008009   -0.02763507
     atom   24 type  2   force =     0.07124847    0.00035912   -0.02767455
     atom   25 type  1   force =    -0.00006562   -0.00014313    0.09564971
     atom   26 type  1   force =    -0.00020038   -0.00030555   -0.17600701
     atom   27 type  2   force =     0.00012321   -0.00040032   -0.02389604
     atom   28 type  2   force =     0.00009652   -0.00126505    0.05362660
     atom   29 type  2   force =    -0.01200940    0.00045295    0.00379946
     atom   30 type  2   force =     0.01365534    0.00069723    0.00308145
     atom   31 type  1   force =    -0.00061137    0.00369570   -0.01332814
     atom   32 type  1   force =     0.00020653   -0.01325425    0.02339271
     atom   33 type  2   force =    -0.00007737   -0.00005524   -0.00029837
     atom   34 type  2   force =    -0.00008605    0.00021952   -0.01832211
     atom   35 type  2   force =     0.00034530   -0.00048889    0.00025345
     atom   36 type  2   force =    -0.00031702   -0.00016508    0.00011419
     atom   37 type  1   force =    -0.00083837   -0.00023505   -0.00005291
     atom   38 type  1   force =     0.00048261    0.00009157    0.00065031
     atom   39 type  2   force =     0.00000544    0.00081905   -0.00008926
     atom   40 type  2   force =    -0.00023404   -0.00018401   -0.00062352
     atom   41 type  2   force =     0.00027613    0.00047391    0.00003988
     atom   42 type  2   force =    -0.00080244    0.00015950    0.00010731
     atom   43 type  1   force =     0.00086552    0.00014204   -0.00007972
     atom   44 type  1   force =    -0.00046525   -0.00108053    0.00048466
     atom   45 type  2   force =     0.00006003    0.00003841    0.10330792
     atom   46 type  2   force =    -0.07127663   -0.00001825   -0.02760625
     atom   47 type  2   force =     0.07122241    0.00040768   -0.02762686
     atom   48 type  3   force =     0.00077922    0.00069111   -0.00006976
     atom   49 type  4   force =    -0.00526683    0.00169139   -0.00510835
     atom   50 type  5   force =     0.00490703   -0.00052900    0.00520295
     atom   51 type  5   force =     0.00065966    0.00033363    0.00003545
     atom   52 type  5   force =    -0.00007160    0.00018986    0.00042214
     atom   53 type  2   force =    -0.00148920   -0.00112684   -0.00067137
     atom   54 type  5   force =    -0.00072013    0.00081240    0.00048161
     atom   55 type  5   force =    -0.00001759   -0.00095402    0.00046725

     Total force =     0.367718     Total SCF correction =     0.000701
  @ DRIVER MODE: Message from server: STATUS
  @ DRIVER MODE: Message from server: GETFORCE
  @ DRIVER MODE: Returning v,forces,stress,ensemble

     Writing output data file ./calc.save/
  @ DRIVER MODE: Message from server: EXIT
  @ DRIVE MODE: Exiting

     General routines

     Parallel routines

   This run was terminated on:  21:26:19  15Sep2021

   JOB DONE.