     Program PWSCF v.6.7GPU starts on 27Sep2021 at  3:12:35

     R & G space division:  proc/nbgrp/npool/nimage =       8
     Reading input from /storage/home/hcoda1/3/ntian30/research/carbon/CxH_vib/CH_calc/ads_slab/CHONHNH2_b/out_0037/pw.inp
Warning: card &CELL ignored
Warning: card   CELL_DYNAMICS='IPI', ignored
Warning: card / ignored

     Current dimensions of program PWSCF are:
     Max number of different atomic species (ntypx) = 10
     Max number of k-points (npk) =  40000
     Max angular momentum in pseudopotentials (lmaxx) =  3
     Presently no symmetry can be used with electric field

     Message from routine cell_base_init:
     DEPRECATED: use true lattice parameter, not A to a.u. conversion factor

     IMPORTANT: XC functional enforced from input :
     Exchange-correlation= BEEF-VDW
                           (   1   4  43  14   2   0   0)
     Any further DFT definition will be discarded
     Please, verify this is what you really want

  @ DRIVER MODE: Connecting to
 qe_1139763_2982672.sched-torque.pace.gatech.edunqsgswnv_scratch
  using UNIX socket
  @ DRIVER MODE: Message from server: STATUS
  @ DRIVER MODE: Message from server: INIT
  @ DRIVER MODE: Receiving replica           0          -1
  @ DRIVER MODE: Receiving encoded integer          25
  @ DRIVER MODE:  SCF:  T  FORCE:  T  STRESS:  F  VC:  F  ENSEMBLE:  F
  @ DRIVER MODE:  SCF:  T  FORCE:  T  STRESS:  F  VC:  F  ENSEMBLE:  F

     Using Slab Decomposition

     bravais-lattice index     =            0
     lattice parameter (alat)  =       1.8897  a.u.
     unit-cell volume          =    6658.9804 (a.u.)^3
     number of atoms/cell      =           55
     number of atomic types    =            5
     number of electrons       =       402.00
     number of Kohn-Sham states=          211
     kinetic-energy cutoff     =      29.3995  Ry
     charge density cutoff     =     293.9946  Ry
     scf convergence threshold =      7.3E-08
     mixing beta               =       0.0500
     number of iterations used =            8  plain     mixing
     Exchange-correlation= BEEF-VDW
                           (   1   4  43  14   2   0   0)

     celldm(1)=   1.889726  celldm(2)=   0.000000  celldm(3)=   0.000000
     celldm(4)=   0.000000  celldm(5)=   0.000000  celldm(6)=   0.000000

     crystal axes: (cart. coord. in units of alat)
               a(1) = (   6.579727   0.000000   0.000000 )
               a(2) = (  -0.000775   5.961596   0.000000 )
               a(3) = (   0.000000   0.000000  25.155947 )

     reciprocal axes: (cart. coord. in units 2 pi/alat)
               b(1) = (  0.151982  0.000020  0.000000 )
               b(2) = (  0.000000  0.167740  0.000000 )
               b(3) = (  0.000000  0.000000  0.039752 )

     PseudoPot. # 1 for O  read from file:
     /storage/coda1/p-amedford6/0/shared/rich_project_chbe-medford/medford-share/data/pseudos_module/espresso/nninc/pbe/van/O.UPF
     MD5 check sum: 78c19812648e8988a0fe644b0f25305e
     Pseudo is Ultrasoft, Zval =  6.0
     Generated by new atomic code, or converted to UPF format
     Using radial grid of  737 points,  4 beta functions with:
                l(1) =   0
                l(2) =   0
                l(3) =   1
                l(4) =   1
     Q(r) pseudized with  8 coefficients,  rinner =    0.800   0.800   0.800

     PseudoPot. # 2 for Ti read from file:
     /storage/coda1/p-amedford6/0/shared/rich_project_chbe-medford/medford-share/data/pseudos_module/espresso/nninc/pbe/van/Ti.UPF
     MD5 check sum: 8e4df49b7f0d34bbd5052bf3f5ea0213
     Pseudo is Ultrasoft, Zval = 12.0
     Generated by new atomic code, or converted to UPF format
     Using radial grid of  851 points,  6 beta functions with:
                l(1) =   0
                l(2) =   0
                l(3) =   1
                l(4) =   1
                l(5) =   2
                l(6) =   2
     Q(r) pseudized with  8 coefficients,  rinner =    1.000   1.000   1.000
                                                       1.000   1.000

     PseudoPot. # 3 for N  read from file:
     /storage/coda1/p-amedford6/0/shared/rich_project_chbe-medford/medford-share/data/pseudos_module/espresso/nninc/pbe/van/N.UPF
     MD5 check sum: 90d10febe142ad51ac9d5be1deb811c4
     Pseudo is Ultrasoft, Zval =  5.0
     Generated by new atomic code, or converted to UPF format
     Using radial grid of  729 points,  4 beta functions with:
                l(1) =   0
                l(2) =   0
                l(3) =   1
                l(4) =   1
     Q(r) pseudized with  8 coefficients,  rinner =    0.800   0.800   0.800

     PseudoPot. # 4 for H  read from file:
     /storage/coda1/p-amedford6/0/shared/rich_project_chbe-medford/medford-share/data/pseudos_module/espresso/nninc/pbe/van/H.UPF
     MD5 check sum: b5ee9d7bfd3a09ee7748110bda690ff7
     Pseudo is Ultrasoft, Zval =  1.0
     Generated by new atomic code, or converted to UPF format
     Using radial grid of  615 points,  1 beta functions with:
                l(1) =   0
     Q(r) pseudized with  8 coefficients,  rinner =    0.800

     PseudoPot. # 5 for C  read from file:
     /storage/coda1/p-amedford6/0/shared/rich_project_chbe-medford/medford-share/data/pseudos_module/espresso/nninc/pbe/van/C.UPF
     MD5 check sum: 1a69bf6b8db32088f5b2163dbdb77a27
     Pseudo is Ultrasoft, Zval =  4.0
     Generated by new atomic code, or converted to UPF format
     Using radial grid of  721 points,  4 beta functions with:
                l(1) =   0
                l(2) =   0
                l(3) =   1
                l(4) =   1
     Q(r) pseudized with  8 coefficients,  rinner =    0.800   0.800   0.800

     atomic species   valence    mass     pseudopotential
        O1             6.00    15.99900     O ( 1.00)
        Ti1           12.00    47.86700     Ti( 1.00)
        N1             5.00    14.00700     N ( 1.00)
        H1             1.00     1.00800     H ( 1.00)
        C1             4.00    12.01100     C ( 1.00)

     No symmetry found

   Cartesian axes

     site n.     atom                  positions (alat units)
         1           O1  tau(   1) = (   3.2904802   0.0005063   4.7018136  )
         2           O1  tau(   2) = (   3.2900926   2.9813045   4.7018136  )
         3           Ti1 tau(   3) = (   0.0004258   2.9801865   6.0000000  )
         4           Ti1 tau(   4) = (   0.0000382   5.9609847   6.0000000  )
         5           Ti1 tau(   5) = (   3.2906075   1.4906267   6.0002472  )
         6           Ti1 tau(   6) = (   3.2902200   4.4714249   6.0002472  )
         7           O1  tau(   7) = (   1.3043587   1.4918075   6.0039043  )
         8           O1  tau(   8) = (   1.3039711   4.4726057   6.0039043  )
         9           O1  tau(   9) = (   5.2767064   1.4903225   6.0039473  )
        10           O1  tau(  10) = (   5.2763189   4.4711207   6.0039473  )
        11           O1  tau(  11) = (   3.2906025   0.0005020   7.3038282  )
        12           O1  tau(  12) = (   3.2902150   2.9813002   7.3038282  )
        13           O1  tau(  13) = (   0.0006271   0.0005054   7.9858123  )
        14           O1  tau(  14) = (   0.0002396   2.9813036   7.9858123  )
        15           Ti1 tau(  15) = (   3.2907910   2.8959150   9.1758416  )
        16           Ti1 tau(  16) = (   3.2891106   5.8743827   9.1763621  )
        17           Ti1 tau(  17) = (   0.0015273   1.4827037   9.2680791  )
        18           Ti1 tau(  18) = (   0.0006254   4.4649316   9.2693709  )
        19           O1  tau(  19) = (   4.5942328   1.4918067   9.2879030  )
        20           O1  tau(  20) = (   4.5938453   4.4726049   9.2879030  )
        21           O1  tau(  21) = (   1.9868534   1.4903216   9.2879459  )
        22           O1  tau(  22) = (   1.9864658   4.4711199   9.2879459  )
        23           O1  tau(  23) = (   0.0116148   5.9584955  10.6183126  )
        24           O1  tau(  24) = (   0.0092240   2.9805883  10.6323155  )
        25           O1  tau(  25) = (   3.2729272   2.9749101  11.3358637  )
        26           O1  tau(  26) = (   3.2774458   5.9577983  11.3358029  )
        27           Ti1 tau(  27) = (   6.5123228   0.0223980  12.5466522  )
        28           Ti1 tau(  28) = (   6.5139447   2.9993280  12.6164542  )
        29           Ti1 tau(  29) = (   3.1950650   4.4673527  12.4897579  )
        30           Ti1 tau(  30) = (   3.1950454   1.4921031  12.4944583  )
        31           O1  tau(  31) = (   5.2839716   4.4726476  12.6140382  )
        32           O1  tau(  32) = (   1.2968206   4.4781603  12.6268461  )
        33           O1  tau(  33) = (   5.2856119   1.4917077  12.6233973  )
        34           O1  tau(  34) = (   1.2888650   1.4770595  12.6372879  )
        35           O1  tau(  35) = (   3.2788258   2.9629383  13.9230881  )
        36           O1  tau(  36) = (   3.2980453   5.9500611  13.9147740  )
        37           O1  tau(  37) = (   6.5334376   5.9389224  14.6738689  )
        38           O1  tau(  38) = (   6.5776160   3.0156023  14.6540868  )
        39           Ti1 tau(  39) = (   3.2542760   2.9504115  15.7371360  )
        40           Ti1 tau(  40) = (   3.3062714   5.9309079  15.7116640  )
        41           Ti1 tau(  41) = (   6.5650095   1.2976281  16.1142359  )
        42           Ti1 tau(  42) = (   0.0079766   4.4268374  15.8391656  )
        43           O1  tau(  43) = (   2.0280489   1.4492115  16.0660627  )
        44           O1  tau(  44) = (   4.5116609   1.4624326  16.0993158  )
        45           O1  tau(  45) = (   2.0244938   4.4513709  16.0356871  )
        46           O1  tau(  46) = (   4.5113612   4.4342832  16.0730653  )
        47           O1  tau(  47) = (   6.5716746   5.9215154  17.2308814  )
        48           N1  tau(  48) = (   5.9800345   2.9984367  18.5879729  )
        49           H1  tau(  49) = (   4.9797160   2.8240766  18.4383897  )
        50           H1  tau(  50) = (   1.6245422   1.3425840  19.0439533  )
        51           H1  tau(  51) = (   6.0578502   3.9810051  18.8619266  )
        52           N1  tau(  52) = (   2.1403542   1.9713023  19.6616680  )
        53           C1  tau(  53) = (   2.8938676   2.8537551  19.2737185  )
        54           H1  tau(  54) = (   3.3692091   3.5764479  19.9483559  )
        55           O1  tau(  55) = (   6.5521836   2.9666373  17.2729174  )

     number of k points=    10  Fermi-Dirac smearing, width (Ry)=  0.0073
                       cart. coord. in units 2pi/alat
        k(    1) = (   0.0000000   0.0000000   0.0000000), wk =   0.1250000
        k(    2) = (   0.0000000   0.0419351   0.0000000), wk =   0.2500000
        k(    3) = (   0.0000000  -0.0838702   0.0000000), wk =   0.1250000
        k(    4) = (   0.0379955   0.0000049   0.0000000), wk =   0.2500000
        k(    5) = (   0.0379955   0.0419400   0.0000000), wk =   0.2500000
        k(    6) = (   0.0379955  -0.0838652   0.0000000), wk =   0.2500000
        k(    7) = (   0.0379955  -0.0419301   0.0000000), wk =   0.2500000
        k(    8) = (  -0.0759910  -0.0000099   0.0000000), wk =   0.1250000
        k(    9) = (  -0.0759910   0.0419252   0.0000000), wk =   0.2500000
        k(   10) = (  -0.0759910  -0.0838800   0.0000000), wk =   0.1250000

     Initial potential from superposition of free atoms

     starting charge  385.99915, renormalised to  402.00000

     negative rho (up, down):  1.542E-02 0.000E+00

     %%%%%%%%%%%%%%%%%%%%%%%%%%%%%%%%%%%%%%%%%%%%%%%%%%%%%%%%%%%%%%%%%%%%%%%%
     %                                                                      %
     % You are using vdW-DF, which was implemented by the Thonhauser group. %
     % Please cite the following two papers that made this development      %
     % possible and the two reviews that describe the various versions:     %
     %                                                                      %
     %   T. Thonhauser et al., PRL 115, 136402 (2015).                      %
     %   T. Thonhauser et al., PRB 76, 125112 (2007).                       %
     %   K. Berland et al., Rep. Prog. Phys. 78, 066501 (2015).             %
     %   D.C. Langreth et al., J. Phys.: Condens. Matter 21, 084203 (2009). %
     %                                                                      %
     %                                                                      %
     % If you are calculating the stress with vdW-DF, please also cite:     %
     %                                                                      %
     %   R. Sabatini et al., J. Phys.: Condens. Matter 24, 424209 (2012).   %
     %                                                                      %
     %%%%%%%%%%%%%%%%%%%%%%%%%%%%%%%%%%%%%%%%%%%%%%%%%%%%%%%%%%%%%%%%%%%%%%%%

     Adding external electric field

     Computed dipole along edir(3) :
        Dipole              -12.8629 Ry au,        -32.6941 Debye
        Dipole field         -0.0243 Ry au,

        Potential amp.        2.2502 Ry
        Total length         46.3494 bohr

     Starting wfcs are  304 atomic wfcs
  @ DRIVER MODE: Message from server: STATUS
  @ DRIVER MODE: Message from server: POSDATA
  @ DRIVER MODE: Reading and sharing cell
  @ DRIVER MODE: Reading and sharing positions
  @ DRIVER MODE: Received positions

     Self-consistent Calculation

     iteration #  1     ecut=    29.40 Ry     beta= 0.05
     Davidson diagonalization with overlap
     c_bands:  5 eigenvalues not converged
     c_bands:  2 eigenvalues not converged
     c_bands:  2 eigenvalues not converged
     c_bands:  5 eigenvalues not converged
     c_bands:  3 eigenvalues not converged
     c_bands:  3 eigenvalues not converged
     c_bands:  2 eigenvalues not converged
     c_bands:  3 eigenvalues not converged
     c_bands:  1 eigenvalues not converged
     ethr =  1.00E-05,  avg # of iterations = 21.5

[...]

     total energy              =   -2369.73844557 Ry
     estimated scf accuracy    <    6837.13305965 Ry

     iteration #  2     ecut=    29.40 Ry     beta= 0.05
     Davidson diagonalization with overlap
     ethr =  1.00E-02,  avg # of iterations = 23.4

[...]

     iteration # 52     ecut=    29.40 Ry     beta= 0.05
     Davidson diagonalization with overlap
     c_bands:  2 eigenvalues not converged
     ethr =  2.28E-08,  avg # of iterations = 11.9

[...]

     total energy              =   -2972.58421484 Ry
     estimated scf accuracy    <       0.00000041 Ry

     iteration # 69     ecut=    29.40 Ry     beta= 0.05
     Davidson diagonalization with overlap
     ethr =  1.03E-10,  avg # of iterations = 11.7

     negative rho (up, down):  1.521E-02 0.000E+00

     Adding external electric field

     Computed dipole along edir(3) :
        Dipole                0.4776 Ry au,          1.2140 Debye
        Dipole field          0.0009 Ry au,

        Potential amp.       -0.0836 Ry
        Total length         46.3494 bohr

     End of self-consistent calculation

          k = 0.0000 0.0000 0.0000 ( 18029 PWs)   bands (ev):

   -55.8920 -55.8723 -55.8579 -55.8342 -55.7528 -55.7327 -55.7176 -55.7035
   -55.6909 -55.6694 -55.6681 -55.6341 -55.5208 -55.3070 -54.8709 -54.8369
   -32.4175 -32.3746 -32.2511 -32.2024 -32.1924 -32.1847 -32.1686 -32.1583
   -32.1354 -32.1027 -32.0571 -32.0468 -32.0442 -32.0416 -32.0262 -32.0054
   -31.9966 -31.9965 -31.9855 -31.9725 -31.9619 -31.9507 -31.9492 -31.9069
   -31.8998 -31.8946 -31.8927 -31.8828 -31.8722 -31.8682 -31.8639 -31.8439
   -31.8343 -31.8212 -31.8102 -31.8000 -31.7801 -31.7578 -31.7264 -31.5771
   -31.5389 -31.5213 -31.2780 -31.1896 -31.1672 -31.0948 -31.0083 -30.8971
   -18.6559 -16.6130 -16.3626 -16.1200 -16.0394 -16.0045 -15.8823 -15.8526
   -15.7304 -15.6197 -15.5249 -15.4494 -15.4299 -15.4289 -15.3892 -15.3771
   -15.3511 -15.3366 -15.3273 -15.3106 -15.2857 -15.2500 -15.2345 -15.2275
   -15.1365 -15.0599 -15.0266 -14.9787 -14.9733 -14.9495 -14.5609 -13.3731
   -13.2566 -12.2288  -8.1583  -5.3108  -4.9558  -4.5222  -3.9872  -3.8484
    -3.7981  -3.7301  -3.6864  -3.5111  -3.4008  -3.1457  -3.0719  -3.0519
    -3.0289  -2.9819  -2.8775  -2.8004  -2.7035  -2.6977  -2.6955  -2.6621
    -2.6526  -2.6356  -2.5933  -2.5733  -2.5057  -2.4343  -2.3971  -2.2910
    -2.2827  -2.2474  -2.2048  -2.1952  -2.1513  -2.1302  -2.1149  -2.1090
    -2.0959  -2.0574  -2.0241  -1.9150  -1.8792  -1.7970  -1.6847  -1.6087
    -1.5009  -1.4842  -1.3654  -1.3576  -1.3313  -1.3188  -1.2847  -1.2347
    -1.1802  -1.0764  -1.0483  -1.0163  -1.0115  -0.9118  -0.8522  -0.8276
    -0.7633  -0.6902  -0.6639  -0.6514  -0.6410  -0.6081  -0.3914  -0.3493
    -0.3297  -0.2978  -0.2510  -0.1969  -0.1596  -0.1121  -0.0724  -0.0065
     0.0027   0.0542   0.0784   0.0918   0.1078   0.1187   0.1351   0.2327
     0.3225   0.3608   0.3821   0.4579   0.4629   0.6351   0.7020   0.7640
     0.8759   1.0776   1.1515   1.2361   1.3434   1.7226   1.7613   1.7684
     3.2364   3.2385   3.3297   3.3720   3.3807   3.4811   3.5335   3.6935
     3.7267   3.7593   3.7963

[...]

          k = 0.0380-0.0419 0.0000 ( 17876 PWs)   bands (ev):

[...]

          k =-0.0760-0.0000 0.0000 ( 17886 PWs)   bands (ev):

[...]

          k =-0.0760-0.0839 0.0000 ( 17948 PWs)   bands (ev):

   -55.8753 -55.8745 -55.8597 -55.8467 -55.7389 -55.7314 -55.7235 -55.6999
   -55.6874 -55.6850 -55.6537 -55.6487 -55.5194 -55.3083 -54.8539 -54.8538
   -32.2279 -32.2147 -32.1902 -32.1897 -32.1705 -32.1697 -32.1210 -32.1126
   -32.0952 -32.0860 -32.0477 -32.0388 -32.0189 -32.0110 -32.0073 -32.0058
   -31.9998 -31.9949 -31.9940 -31.9916 -31.9879 -31.9847 -31.9501 -31.9480
   -31.9419 -31.9254 -31.9184 -31.9093 -31.8877 -31.8865 -31.8841 -31.8831
   -31.8782 -31.8681 -31.8647 -31.8625 -31.8567 -31.7554 -31.7296 -31.6478
   -31.5683 -31.5286 -31.1799 -31.1798 -31.0908 -31.0907 -31.0516 -31.0515
   -18.6407 -16.0317 -16.0105 -15.8839 -15.8475 -15.8110 -15.7712 -15.7593
   -15.6832 -15.6028 -15.5824 -15.5777 -15.4956 -15.4769 -15.4638 -15.4289
   -15.4157 -15.4052 -15.3994 -15.3601 -15.3492 -15.3401 -15.3318 -15.3242
   -15.2469 -15.2112 -15.2064 -15.1909 -15.0808 -14.9549 -14.7372 -13.3585
   -13.3583 -12.2414  -8.1587  -5.3065  -4.9619  -4.4468  -3.3183  -3.2857
    -3.1047  -3.0214  -3.0059  -2.9882  -2.8769  -2.8015  -2.7954  -2.7593
    -2.7283  -2.7209  -2.7109  -2.7081  -2.6843  -2.6739  -2.6234  -2.6024
    -2.5887  -2.5636  -2.5508  -2.5485  -2.5179  -2.5044  -2.4665  -2.4458
    -2.4257  -2.4143  -2.3927  -2.3241  -2.2073  -2.1251  -2.0934  -2.0343
    -2.0239  -1.9929  -1.9594  -1.9454  -1.9217  -1.8888  -1.8590  -1.7458
    -1.6377  -1.5826  -1.5806  -1.5045  -1.4677  -1.4246  -1.3778  -1.3241
    -1.2907  -1.2796  -1.2306  -1.1685  -1.1505  -1.0763  -1.0331  -1.0028
    -0.9598  -0.9369  -0.8648  -0.8524  -0.8498  -0.8158  -0.7274  -0.7077
    -0.6541  -0.6474  -0.6205  -0.5646  -0.5459  -0.5147  -0.3912  -0.3682
    -0.2427  -0.1761  -0.0861   0.0623   0.0847   0.1786   0.2182   0.2448
     0.3025   0.4045   0.4219   0.4347   0.4538   0.4851   0.5150   0.6378
     0.6518   0.6865   0.8065   1.5151   1.5156   1.5878   1.5884   1.6074
     3.2235   3.5691   3.5758   3.5960   3.6233   3.7557   3.7577   3.7757
     3.7771   3.9112   3.9345

     the Fermi energy is     3.2403 ev

!    total energy              =   -2972.58424687 Ry
     estimated scf accuracy    <       0.00000007 Ry
     smearing contrib. (-TS)   =      -0.03079129 Ry
     internal energy E=F+TS    =   -2972.55345558 Ry

     The total energy is F=E-TS. E is the sum of the following terms:
     one-electron contribution =  -23745.00406504 Ry
     hartree contribution      =   11963.80115528 Ry
     xc contribution           =    -493.07480333 Ry
     ewald contribution        =    9301.72382697 Ry
     electric field correction =       0.00043053 Ry

     convergence has been achieved in  69 iterations

     Forces acting on atoms (cartesian axes, Ry/au):

     atom    1 type  1   force =     0.00004479   -0.00002847    0.10326865
     atom    2 type  1   force =     0.00004914   -0.00004502    0.10331050
     atom    3 type  2   force =     0.00007440   -0.00023011    0.09626527
     atom    4 type  2   force =    -0.00001420   -0.00030151    0.09605975
     atom    5 type  2   force =     0.00002993   -0.00063801   -0.17555261
     atom    6 type  2   force =    -0.00001797   -0.00024021   -0.17551601
     atom    7 type  1   force =    -0.07154917   -0.00014557   -0.02768563
     atom    8 type  1   force =    -0.07153491   -0.00012497   -0.02766038
     atom    9 type  1   force =     0.07139683    0.00028314   -0.02775631
     atom   10 type  1   force =     0.07138183    0.00031491   -0.02771819
     atom   11 type  1   force =    -0.00005799   -0.00145029    0.05287282
     atom   12 type  1   force =    -0.00002682   -0.00126006    0.05322207
     atom   13 type  1   force =     0.00000531   -0.00000748   -0.02440634
     atom   14 type  1   force =     0.00009797   -0.00022743   -0.02343062
     atom   15 type  2   force =     0.00002472    0.00048852   -0.01063210
     atom   16 type  2   force =     0.00014388    0.00349442   -0.00997096
     atom   17 type  2   force =     0.00069707    0.01060888    0.02596054
     atom   18 type  2   force =     0.00083870   -0.01139178    0.02627084
     atom   19 type  1   force =    -0.01197321   -0.00051755    0.00382553
     atom   20 type  1   force =    -0.01231693   -0.00008503    0.00373852
     atom   21 type  1   force =     0.01293497   -0.00008629    0.00216441
     atom   22 type  1   force =     0.01317841    0.00048218    0.00212204
     atom   23 type  1   force =    -0.00431793    0.00132726   -0.01322415
     atom   24 type  1   force =    -0.00236711    0.00055303   -0.02181958
     atom   25 type  1   force =     0.00023712   -0.00090270    0.00016094
     atom   26 type  1   force =     0.00001513    0.00043771    0.00080206
     atom   27 type  2   force =    -0.00042566    0.00040113   -0.00001352
     atom   28 type  2   force =    -0.00068341   -0.00052112    0.00001863
     atom   29 type  2   force =     0.00097928    0.00002889   -0.00018583
     atom   30 type  2   force =     0.00036034   -0.00074231   -0.00017903
     atom   31 type  1   force =     0.00085150    0.00012434    0.00023369
     atom   32 type  1   force =    -0.00044716   -0.00001761    0.00011804
     atom   33 type  1   force =     0.00041963   -0.00037443   -0.00002174
     atom   34 type  1   force =     0.00126738   -0.00021928   -0.00000789
     atom   35 type  1   force =     0.00030186   -0.00029679    0.00012596
     atom   36 type  1   force =     0.00026577    0.00025514   -0.00044177
     atom   37 type  1   force =     0.00019785   -0.00009153   -0.00066463
     atom   38 type  1   force =     0.00019742    0.00013403   -0.00020213
     atom   39 type  2   force =    -0.00078659    0.00021200   -0.00035929
     atom   40 type  2   force =    -0.00070900    0.00006408    0.00054208
     atom   41 type  2   force =     0.00022209   -0.00022713   -0.00035731
     atom   42 type  2   force =     0.00075859   -0.00010499    0.00027895
     atom   43 type  1   force =     0.00033687    0.00026653   -0.00036531
     atom   44 type  1   force =     0.00022626   -0.00002818   -0.00015031
     atom   45 type  1   force =     0.00039366    0.00020522    0.00002111
     atom   46 type  1   force =     0.00007485    0.00047702    0.00013882
     atom   47 type  1   force =     0.00008888   -0.00002705   -0.00021235
     atom   48 type  3   force =    -0.00067313    0.00000329   -0.00098008
     atom   49 type  4   force =     0.00077101    0.00049439    0.00027077
     atom   50 type  4   force =     0.00031630   -0.00069507   -0.00052150
     atom   51 type  4   force =    -0.00028041    0.00069692   -0.00017426
     atom   52 type  3   force =    -0.00177293   -0.00160080   -0.00046727
     atom   53 type  5   force =    -0.00143615   -0.00096573   -0.00184332
     atom   54 type  4   force =     0.00231307    0.00243110    0.00145859
     atom   55 type  1   force =    -0.00010213   -0.00018964   -0.00073016

     Total force =     0.367369     Total SCF correction =     0.000557
  @ DRIVER MODE: Message from server: STATUS
  @ DRIVER MODE: Message from server: GETFORCE
  @ DRIVER MODE: Returning v,forces,stress,ensemble

     Writing output data file ./calc.save/
  @ DRIVER MODE: Message from server: EXIT
  @ DRIVE MODE: Exiting

     General routines

     Parallel routines

   This run was terminated on:   3:36:18  27Sep2021

   JOB DONE.