     Program PWSCF v.6.7GPU starts on 23Aug2021 at 23:50:23

     R & G space division:  proc/nbgrp/npool/nimage =       6
     Reading input from /storage/home/hcoda1/3/ntian30/research/carbon/CH_vib/ads_slab/CHNNHH_a/out_0021/pw.inp
Warning: card &CELL ignored
Warning: card   CELL_DYNAMICS='IPI', ignored
Warning: card / ignored

     Current dimensions of program PWSCF are:
     Max number of different atomic species (ntypx) = 10
     Max number of k-points (npk) =  40000
     Max angular momentum in pseudopotentials (lmaxx) =  3
     Presently no symmetry can be used with electric field

     Message from routine cell_base_init:
     DEPRECATED: use true lattice parameter, not A to a.u. conversion factor

     IMPORTANT: XC functional enforced from input :
     Exchange-correlation= BEEF-VDW
                           (   1   4  43  14   2   0   0)
     Any further DFT definition will be discarded
     Please, verify this is what you really want

  @ DRIVER MODE: Connecting to
 qe_1139763_2632796.sched-torque.pace.gatech.edu89jsejir_scratch
  using UNIX socket
  @ DRIVER MODE: Message from server: STATUS
  @ DRIVER MODE: Message from server: INIT
  @ DRIVER MODE: Receiving replica           0          -1
  @ DRIVER MODE: Receiving encoded integer          25
  @ DRIVER MODE:  SCF:  T  FORCE:  T  STRESS:  F  VC:  F  ENSEMBLE:  F
  @ DRIVER MODE:  SCF:  T  FORCE:  T  STRESS:  F  VC:  F  ENSEMBLE:  F

     Using Slab Decomposition

     bravais-lattice index     =            0
     lattice parameter (alat)  =       1.8897  a.u.
     unit-cell volume          =    6658.9804 (a.u.)^3
     number of atoms/cell      =           53
     number of atomic types    =            5
     number of electrons       =       395.00
     number of Kohn-Sham states=          207
     kinetic-energy cutoff     =      29.3995  Ry
     charge density cutoff     =     293.9946  Ry
     scf convergence threshold =      7.3E-08
     mixing beta               =       0.0500
     number of iterations used =            8  plain     mixing
     Exchange-correlation= BEEF-VDW
                           (   1   4  43  14   2   0   0)

     celldm(1)=   1.889726  celldm(2)=   0.000000  celldm(3)=   0.000000
     celldm(4)=   0.000000  celldm(5)=   0.000000  celldm(6)=   0.000000

     crystal axes: (cart. coord. in units of alat)
               a(1) = (   6.579727   0.000000   0.000000 )
               a(2) = (  -0.000775   5.961596   0.000000 )
               a(3) = (   0.000000   0.000000  25.155947 )

     reciprocal axes: (cart. coord. in units 2 pi/alat)
               b(1) = (  0.151982  0.000020  0.000000 )
               b(2) = (  0.000000  0.167740  0.000000 )
               b(3) = (  0.000000  0.000000  0.039752 )

     PseudoPot. # 1 for Ti read from file:
     /storage/coda1/p-amedford6/0/shared/rich_project_chbe-medford/medford-share/data/pseudos_module/espresso/nninc/pbe/van/Ti.UPF
     MD5 check sum: 8e4df49b7f0d34bbd5052bf3f5ea0213
     Pseudo is Ultrasoft, Zval = 12.0
     Generated by new atomic code, or converted to UPF format
     Using radial grid of  851 points,  6 beta functions with:
                l(1) =   0
                l(2) =   0
                l(3) =   1
                l(4) =   1
                l(5) =   2
                l(6) =   2
     Q(r) pseudized with  8 coefficients,  rinner =    1.000   1.000   1.000
                                                       1.000   1.000

     PseudoPot. # 2 for O  read from file:
     /storage/coda1/p-amedford6/0/shared/rich_project_chbe-medford/medford-share/data/pseudos_module/espresso/nninc/pbe/van/O.UPF
     MD5 check sum: 78c19812648e8988a0fe644b0f25305e
     Pseudo is Ultrasoft, Zval =  6.0
     Generated by new atomic code, or converted to UPF format
     Using radial grid of  737 points,  4 beta functions with:
                l(1) =   0
                l(2) =   0
                l(3) =   1
                l(4) =   1
     Q(r) pseudized with  8 coefficients,  rinner =    0.800   0.800   0.800

     PseudoPot. # 3 for N  read from file:
     /storage/coda1/p-amedford6/0/shared/rich_project_chbe-medford/medford-share/data/pseudos_module/espresso/nninc/pbe/van/N.UPF
     MD5 check sum: 90d10febe142ad51ac9d5be1deb811c4
     Pseudo is Ultrasoft, Zval =  5.0
     Generated by new atomic code, or converted to UPF format
     Using radial grid of  729 points,  4 beta functions with:
                l(1) =   0
                l(2) =   0
                l(3) =   1
                l(4) =   1
     Q(r) pseudized with  8 coefficients,  rinner =    0.800   0.800   0.800

     PseudoPot. # 4 for C  read from file:
     /storage/coda1/p-amedford6/0/shared/rich_project_chbe-medford/medford-share/data/pseudos_module/espresso/nninc/pbe/van/C.UPF
     MD5 check sum: 1a69bf6b8db32088f5b2163dbdb77a27
     Pseudo is Ultrasoft, Zval =  4.0
     Generated by new atomic code, or converted to UPF format
     Using radial grid of  721 points,  4 beta functions with:
                l(1) =   0
                l(2) =   0
                l(3) =   1
                l(4) =   1
     Q(r) pseudized with  8 coefficients,  rinner =    0.800   0.800   0.800

     PseudoPot. # 5 for H  read from file:
     /storage/coda1/p-amedford6/0/shared/rich_project_chbe-medford/medford-share/data/pseudos_module/espresso/nninc/pbe/van/H.UPF
     MD5 check sum: b5ee9d7bfd3a09ee7748110bda690ff7
     Pseudo is Ultrasoft, Zval =  1.0
     Generated by new atomic code, or converted to UPF format
     Using radial grid of  615 points,  1 beta functions with:
                l(1) =   0
     Q(r) pseudized with  8 coefficients,  rinner =    0.800

     atomic species   valence    mass     pseudopotential
        Ti1           12.00    47.86700     Ti( 1.00)
        O1             6.00    15.99900     O ( 1.00)
        N1             5.00    14.00700     N ( 1.00)
        C1             4.00    12.01100     C ( 1.00)
        H1             1.00     1.00800     H ( 1.00)

     No symmetry found

   Cartesian axes

     site n.     atom                  positions (alat units)
         1           Ti1 tau(   1) = (   0.0004258   2.9801865   6.0000000  )
         2           Ti1 tau(   2) = (   3.2906075   1.4906267   6.0002472  )
         3           O1  tau(   3) = (   0.0006271   0.0005054   7.9858123  )
         4           O1  tau(   4) = (   3.2906025   0.0005020   7.3038282  )
         5           O1  tau(   5) = (   4.5942328   1.4918067   9.2879030  )
         6           O1  tau(   6) = (   1.9868534   1.4903216   9.2879459  )
         7           Ti1 tau(   7) = (   3.2907910   2.8959150   9.1758416  )
         8           Ti1 tau(   8) = (   0.0015273   1.4827037   9.2680791  )
         9           O1  tau(   9) = (   3.2912281   5.9459940  11.3193265  )
        10           O1  tau(  10) = (   0.0116148   5.9584955  10.6183126  )
        11           O1  tau(  11) = (   1.3103257   1.4650607  12.6442557  )
        12           O1  tau(  12) = (   5.3047449   1.4806448  12.6312737  )
        13           Ti1 tau(  13) = (   6.5337005   3.0128982  12.6900614  )
        14           Ti1 tau(  14) = (   3.2207025   1.4698770  12.4715817  )
        15           O1  tau(  15) = (   6.5518216   5.9146589  14.6704082  )
        16           O1  tau(  16) = (   3.3240203   5.9583723  13.8895330  )
        17           O1  tau(  17) = (   4.5456974   1.5225049  16.1264218  )
        18           O1  tau(  18) = (   2.0489736   1.4727210  15.9535721  )
        19           Ti1 tau(  19) = (   3.2591190   2.9927146  15.6788090  )
        20           Ti1 tau(  20) = (   0.0289511   1.3544711  15.7732889  )
        21           O1  tau(  21) = (   3.2904802   0.0005063   4.7018136  )
        22           O1  tau(  22) = (   0.0559926   0.0451390  17.2112278  )
        23           O1  tau(  23) = (   1.3043587   1.4918075   6.0039043  )
        24           O1  tau(  24) = (   5.2767064   1.4903225   6.0039473  )
        25           Ti1 tau(  25) = (   0.0000382   5.9609847   6.0000000  )
        26           Ti1 tau(  26) = (   3.2902200   4.4714249   6.0002472  )
        27           O1  tau(  27) = (   0.0002396   2.9813036   7.9858123  )
        28           O1  tau(  28) = (   3.2902150   2.9813002   7.3038282  )
        29           O1  tau(  29) = (   4.5938453   4.4726049   9.2879030  )
        30           O1  tau(  30) = (   1.9864658   4.4711199   9.2879459  )
        31           Ti1 tau(  31) = (   3.2891106   5.8743827   9.1763621  )
        32           Ti1 tau(  32) = (   0.0006254   4.4649316   9.2693709  )
        33           O1  tau(  33) = (   3.2889932   2.9698301  11.3211337  )
        34           O1  tau(  34) = (   0.0092240   2.9805883  10.6323155  )
        35           O1  tau(  35) = (   1.3069247   4.4567274  12.6410950  )
        36           O1  tau(  36) = (   5.3013738   4.4587240  12.6283471  )
        37           Ti1 tau(  37) = (   6.5339814   0.0202798  12.5235249  )
        38           Ti1 tau(  38) = (   3.2191325   4.4512509  12.4750946  )
        39           O1  tau(  39) = (   6.5688456   2.9522374  14.7547250  )
        40           O1  tau(  40) = (   3.3031296   2.9710333  13.8824388  )
        41           O1  tau(  41) = (   4.5425837   4.4734130  15.9989242  )
        42           O1  tau(  42) = (   2.0771424   4.4889556  16.0364895  )
        43           Ti1 tau(  43) = (   3.3121389   0.0026565  15.6888161  )
        44           Ti1 tau(  44) = (   6.5128106   4.4989306  16.3061806  )
        45           O1  tau(  45) = (   3.2900926   2.9813045   4.7018136  )
        46           O1  tau(  46) = (   1.3039711   4.4726057   6.0039043  )
        47           O1  tau(  47) = (   5.2763189   4.4711207   6.0039473  )
        48           N1  tau(  48) = (   0.4628824   2.9849886  17.7976856  )
        49           C1  tau(  49) = (   1.4182946   2.9518240  18.6700831  )
        50           H1  tau(  50) = (   2.3503500   2.6458988  18.1556329  )
        51           N1  tau(  51) = (   5.7893717   3.5382605  18.2279111  )
        52           H1  tau(  52) = (   5.8942619   4.0012392  19.1365464  )
        53           H1  tau(  53) = (   5.0734348   2.8266848  18.2415795  )

     number of k points=    10  Fermi-Dirac smearing, width (Ry)=  0.0073
                       cart. coord. in units 2pi/alat
        k(    1) = (   0.0000000   0.0000000   0.0000000), wk =   0.1250000
        k(    2) = (   0.0000000   0.0419351   0.0000000), wk =   0.2500000
        k(    3) = (   0.0000000  -0.0838702   0.0000000), wk =   0.1250000
        k(    4) = (   0.0379955   0.0000049   0.0000000), wk =   0.2500000
        k(    5) = (   0.0379955   0.0419400   0.0000000), wk =   0.2500000
        k(    6) = (   0.0379955  -0.0838652   0.0000000), wk =   0.2500000
        k(    7) = (   0.0379955  -0.0419301   0.0000000), wk =   0.2500000
        k(    8) = (  -0.0759910  -0.0000099   0.0000000), wk =   0.1250000
        k(    9) = (  -0.0759910   0.0419252   0.0000000), wk =   0.2500000
        k(   10) = (  -0.0759910  -0.0838800   0.0000000), wk =   0.1250000

     Initial potential from superposition of free atoms

     starting charge  378.99916, renormalised to  395.00000

     negative rho (up, down):  1.775E-02 0.000E+00

     %%%%%%%%%%%%%%%%%%%%%%%%%%%%%%%%%%%%%%%%%%%%%%%%%%%%%%%%%%%%%%%%%%%%%%%%
     %                                                                      %
     % You are using vdW-DF, which was implemented by the Thonhauser group. %
     % Please cite the following two papers that made this development      %
     % possible and the two reviews that describe the various versions:     %
     %                                                                      %
     %   T. Thonhauser et al., PRL 115, 136402 (2015).                      %
     %   T. Thonhauser et al., PRB 76, 125112 (2007).                       %
     %   K. Berland et al., Rep. Prog. Phys. 78, 066501 (2015).             %
     %   D.C. Langreth et al., J. Phys.: Condens. Matter 21, 084203 (2009). %
     %                                                                      %
     %                                                                      %
     % If you are calculating the stress with vdW-DF, please also cite:     %
     %                                                                      %
     %   R. Sabatini et al., J. Phys.: Condens. Matter 24, 424209 (2012).   %
     %                                                                      %
     %%%%%%%%%%%%%%%%%%%%%%%%%%%%%%%%%%%%%%%%%%%%%%%%%%%%%%%%%%%%%%%%%%%%%%%%

     Adding external electric field

     Computed dipole along edir(3) :
        Dipole               -8.0620 Ry au,        -20.4914 Debye
        Dipole field         -0.0152 Ry au,

        Potential amp.        1.4103 Ry
        Total length         46.3494 bohr

     Starting wfcs are  299 atomic wfcs
  @ DRIVER MODE: Message from server: STATUS
  @ DRIVER MODE: Message from server: POSDATA
  @ DRIVER MODE: Reading and sharing cell
  @ DRIVER MODE: Reading and sharing positions
  @ DRIVER MODE: Received positions

     Self-consistent Calculation

     iteration #  1     ecut=    29.40 Ry     beta= 0.05
     Davidson diagonalization with overlap
     c_bands:  1 eigenvalues not converged
     c_bands:  1 eigenvalues not converged
     c_bands:  2 eigenvalues not converged
     c_bands:  3 eigenvalues not converged
     c_bands:  3 eigenvalues not converged
     c_bands:  2 eigenvalues not converged
     c_bands:  1 eigenvalues not converged
     ethr =  1.00E-05,  avg # of iterations = 19.3

[...]

     total energy              =   -2614.85894628 Ry
     estimated scf accuracy    <    3583.92131837 Ry

[...]

     iteration #  3     ecut=    29.40 Ry     beta= 0.05
     Davidson diagonalization with overlap
     ethr =  1.00E-02,  avg # of iterations = 14.4

[...]

     iteration # 63     ecut=    29.40 Ry     beta= 0.05
     Davidson diagonalization with overlap
     c_bands:  1 eigenvalues not converged
     ethr =  7.56E-11,  avg # of iterations = 10.7

[...]

     total energy              =   -2939.00591997 Ry
     estimated scf accuracy    <       0.00000010 Ry

     iteration # 66     ecut=    29.40 Ry     beta= 0.05
     Davidson diagonalization with overlap
     ethr =  2.43E-11,  avg # of iterations =  4.2

     negative rho (up, down):  1.648E-02 0.000E+00

     Adding external electric field

     Computed dipole along edir(3) :
        Dipole                0.3042 Ry au,          0.7732 Debye
        Dipole field          0.0006 Ry au,

        Potential amp.       -0.0532 Ry
        Total length         46.3494 bohr

     End of self-consistent calculation

          k = 0.0000 0.0000 0.0000 ( 18029 PWs)   bands (ev):

   -56.1069 -56.1042 -56.0728 -56.0679 -55.9945 -55.9599 -55.9543 -55.9189
   -55.9038 -55.8696 -55.8679 -55.8336 -55.6462 -55.5855 -55.0764 -55.0423
   -32.6633 -32.5882 -32.4862 -32.4257 -32.4117 -32.4077 -32.3991 -32.3590
   -32.3466 -32.3319 -32.3059 -32.2847 -32.2782 -32.2592 -32.2518 -32.2451
   -32.2102 -32.1961 -32.1937 -32.1892 -32.1849 -32.1643 -32.1576 -32.1417
   -32.1164 -32.1023 -32.1012 -32.1000 -32.0951 -32.0917 -32.0701 -32.0434
   -32.0433 -32.0284 -32.0210 -32.0018 -31.9799 -31.9524 -31.8741 -31.8450
   -31.8012 -31.7371 -31.4830 -31.3958 -31.3733 -31.3000 -31.2135 -31.1023
   -18.0071 -16.8725 -16.5828 -16.3677 -16.2619 -16.2464 -16.1400 -15.9547
   -15.8214 -15.7932 -15.6865 -15.6800 -15.6391 -15.6267 -15.5974 -15.5740
   -15.5655 -15.5390 -15.5364 -15.5204 -15.4759 -15.4525 -15.4332 -15.3377
   -15.2974 -15.2370 -15.2148 -15.1535 -15.0313 -14.7973 -13.5786 -13.4623
   -13.3165  -8.0681  -6.3916  -4.3664  -4.2466  -4.0700  -4.0094  -3.9678
    -3.9611  -3.7190  -3.6861  -3.3273  -3.2948  -3.2755  -3.2647  -3.2534
    -3.1427  -3.0185  -2.9627  -2.9210  -2.9106  -2.8999  -2.8926  -2.8798
    -2.8539  -2.8317  -2.7277  -2.6847  -2.6531  -2.5435  -2.5245  -2.4384
    -2.4167  -2.4054  -2.3713  -2.3511  -2.3417  -2.3157  -2.3045  -2.2797
    -2.1917  -2.1446  -2.0290  -1.9628  -1.8863  -1.8504  -1.7029  -1.6593
    -1.5705  -1.5628  -1.5462  -1.5242  -1.4912  -1.4051  -1.3301  -1.2416
    -1.1993  -1.1618  -1.1258  -1.0825  -1.0004  -0.9821  -0.9646  -0.8685
    -0.8645  -0.8554  -0.8127  -0.6101  -0.5865  -0.5520  -0.5394  -0.4623
    -0.4036  -0.3843  -0.3657  -0.3177  -0.2579  -0.1944  -0.1489  -0.1338
    -0.1224  -0.1192  -0.0848  -0.0588   0.0840   0.0947   0.1890   0.2007
     0.2245   0.3500   0.5255   0.5627   0.5897   0.7091   0.8767   0.9460
     1.0481   1.1390   1.5162   1.5614   2.4084   3.0311   3.1173   3.1512
     3.1707   3.2762   3.3094   3.4785   3.4941   3.5292   3.5486

[...]

          k = 0.0380-0.0419 0.0000 ( 17876 PWs)   bands (ev):

[...]

          k =-0.0760-0.0000 0.0000 ( 17886 PWs)   bands (ev):

[...]

          k =-0.0760-0.0839 0.0000 ( 17948 PWs)   bands (ev):

   -56.0909 -56.0887 -56.0879 -56.0840 -55.9853 -55.9634 -55.9503 -55.9284
   -55.8887 -55.8842 -55.8542 -55.8475 -55.6429 -55.5887 -55.0594 -55.0591
   -32.4667 -32.4623 -32.4041 -32.4029 -32.3855 -32.3839 -32.3654 -32.3531
   -32.3342 -32.3148 -32.2912 -32.2747 -32.2490 -32.2393 -32.2384 -32.2199
   -32.2197 -32.2106 -32.2083 -32.2022 -32.2010 -32.1928 -32.1870 -32.1732
   -32.1683 -32.1498 -32.1336 -32.1309 -32.0880 -32.0860 -32.0843 -32.0802
   -32.0716 -32.0691 -32.0657 -32.0639 -32.0601 -31.9705 -31.8856 -31.8383
   -31.8045 -31.7933 -31.3862 -31.3859 -31.2960 -31.2957 -31.2569 -31.2567
   -17.9975 -16.3082 -16.2924 -16.0759 -16.0312 -16.0271 -16.0063 -15.9180
   -15.8277 -15.8086 -15.7945 -15.7769 -15.7618 -15.6818 -15.6561 -15.6338
   -15.6300 -15.6173 -15.5623 -15.5566 -15.5534 -15.5485 -15.5284 -15.4952
   -15.4127 -15.4078 -15.3972 -15.1592 -15.0939 -15.0217 -13.5644 -13.5640
   -13.3297  -8.0239  -6.3340  -4.3810  -3.6013  -3.5824  -3.3573  -3.3154
    -3.2837  -3.2745  -3.1594  -3.0572  -3.0267  -3.0142  -2.9757  -2.9574
    -2.9452  -2.9327  -2.9198  -2.9005  -2.8748  -2.8407  -2.8360  -2.7900
    -2.7729  -2.7519  -2.7346  -2.7131  -2.7119  -2.6715  -2.6660  -2.6267
    -2.5884  -2.5442  -2.4355  -2.3798  -2.3400  -2.2913  -2.2353  -2.2247
    -2.2155  -2.1617  -2.1566  -2.1228  -2.0373  -1.9621  -1.8264  -1.8046
    -1.7717  -1.7315  -1.6973  -1.5966  -1.5561  -1.5076  -1.4550  -1.3992
    -1.3882  -1.3446  -1.3079  -1.2417  -1.2249  -1.1847  -1.1629  -1.1015
    -1.0601  -1.0559  -0.9924  -0.9249  -0.8672  -0.8641  -0.8436  -0.8279
    -0.7707  -0.7228  -0.6562  -0.6070  -0.5653  -0.4679  -0.4112  -0.2956
    -0.1868  -0.0679   0.0033   0.0078   0.0627   0.1403   0.1858   0.2203
     0.2315   0.2495   0.3408   0.4134   0.4317   0.4466   0.5225   0.6982
     1.3107   1.3119   1.3807   1.3816   2.4055   3.3196   3.3578   3.3720
     3.4032   3.5481   3.5508   3.5628   3.5665   3.6852   3.7287

     the Fermi energy is     3.0284 ev

!    total energy              =   -2939.00594706 Ry
     estimated scf accuracy    <       0.00000006 Ry
     smearing contrib. (-TS)   =      -0.02200598 Ry
     internal energy E=F+TS    =   -2938.98394108 Ry

     The total energy is F=E-TS. E is the sum of the following terms:
     one-electron contribution =  -24452.76075067 Ry
     hartree contribution      =   12311.44148891 Ry
     xc contribution           =    -485.13355243 Ry
     ewald contribution        =    9687.46869850 Ry
     electric field correction =       0.00017461 Ry

     convergence has been achieved in  66 iterations

     Forces acting on atoms (cartesian axes, Ry/au):

     atom    1 type  1   force =     0.00018925   -0.00029105    0.09692899
     atom    2 type  1   force =     0.00006574   -0.00078693   -0.17496692
     atom    3 type  2   force =     0.00014776   -0.00008649   -0.02554642
     atom    4 type  2   force =    -0.00003152   -0.00142810    0.05150959
     atom    5 type  2   force =    -0.01203456   -0.00173239    0.00279002
     atom    6 type  2   force =     0.01345915   -0.00133710    0.00223364
     atom    7 type  1   force =     0.00040355    0.00015780   -0.01207067
     atom    8 type  1   force =     0.00018654    0.02419620    0.02897756
     atom    9 type  2   force =    -0.00004193    0.00052095   -0.00007593
     atom   10 type  2   force =    -0.00266505    0.00014558   -0.01164823
     atom   11 type  2   force =    -0.00002990    0.00027099    0.00003776
     atom   12 type  2   force =    -0.00023698   -0.00001720    0.00013312
     atom   13 type  1   force =    -0.00012919    0.00114566   -0.00015530
     atom   14 type  1   force =    -0.00000620    0.00050266    0.00004980
     atom   15 type  2   force =     0.00012153   -0.00019343   -0.00000469
     atom   16 type  2   force =    -0.00020979    0.00022885   -0.00030654
     atom   17 type  2   force =     0.00034797    0.00015783   -0.00039128
     atom   18 type  2   force =    -0.00022550    0.00007984   -0.00014758
     atom   19 type  1   force =    -0.00021718   -0.00017696   -0.00052373
     atom   20 type  1   force =     0.00024370    0.00012671   -0.00022883
     atom   21 type  2   force =     0.00006702   -0.00007031    0.10296217
     atom   22 type  2   force =    -0.00021639   -0.00061222   -0.00015042
     atom   23 type  2   force =    -0.07171011   -0.00016723   -0.02788437
     atom   24 type  2   force =     0.07161499    0.00028421   -0.02792481
     atom   25 type  1   force =     0.00003046   -0.00024811    0.09681749
     atom   26 type  1   force =    -0.00001354   -0.00018447   -0.17511369
     atom   27 type  2   force =     0.00015723   -0.00026773   -0.02420223
     atom   28 type  2   force =     0.00001540   -0.00117786    0.05206210
     atom   29 type  2   force =    -0.01219389    0.00078162    0.00246776
     atom   30 type  2   force =     0.01350127    0.00126609    0.00188193
     atom   31 type  1   force =     0.00044629    0.00286558   -0.01396020
     atom   32 type  1   force =     0.00039192   -0.02519364    0.03047268
     atom   33 type  2   force =     0.00004191   -0.00008682   -0.00017702
     atom   34 type  2   force =    -0.00184013   -0.00050288   -0.02072705
     atom   35 type  2   force =    -0.00000644    0.00022304   -0.00006320
     atom   36 type  2   force =     0.00018183    0.00033224    0.00015296
     atom   37 type  1   force =    -0.00021142   -0.00086159   -0.00005466
     atom   38 type  1   force =     0.00007328    0.00012556   -0.00020982
     atom   39 type  2   force =     0.00006997    0.00029996   -0.00019227
     atom   40 type  2   force =    -0.00006419    0.00008363    0.00041836
     atom   41 type  2   force =     0.00048087    0.00007898    0.00002248
     atom   42 type  2   force =    -0.00024399   -0.00004181   -0.00026767
     atom   43 type  1   force =    -0.00038230    0.00031858    0.00006112
     atom   44 type  1   force =     0.00004562   -0.00047719    0.00024203
     atom   45 type  2   force =     0.00005425   -0.00007250    0.10297760
     atom   46 type  2   force =    -0.07174273   -0.00011814   -0.02788314
     atom   47 type  2   force =     0.07163125    0.00025707   -0.02790717
     atom   48 type  3   force =     0.00055777   -0.00240677   -0.00121365
     atom   49 type  4   force =     0.00018731   -0.00033822    0.00037455
     atom   50 type  5   force =     0.00046247    0.00111039   -0.00035764
     atom   51 type  3   force =     0.00743577    0.01637887    0.00662371
     atom   52 type  5   force =    -0.00129395   -0.00387405   -0.00596295
     atom   53 type  5   force =    -0.00686517   -0.00918768    0.00012063

     Total force =     0.369715     Total SCF correction =     0.000712
  @ DRIVER MODE: Message from server: STATUS
  @ DRIVER MODE: Message from server: GETFORCE
  @ DRIVER MODE: Returning v,forces,stress,ensemble

     Writing output data file ./calc.save/
  @ DRIVER MODE: Message from server: EXIT
  @ DRIVE MODE: Exiting

     General routines

     Parallel routines

   This run was terminated on:   0:21:36  24Aug2021

   JOB DONE.