     Program PWSCF v.6.7GPU starts on 22Sep2021 at 22:25:51

     R & G space division:  proc/nbgrp/npool/nimage =      10
     Reading input from /storage/home/hcoda1/3/ntian30/research/carbon/CxH_vib/H2O_calc/ads_slab/CH3NHO_a/out_0020/pw.inp
Warning: card &CELL ignored
Warning: card   CELL_DYNAMICS='IPI', ignored
Warning: card / ignored

     Current dimensions of program PWSCF are:
     Max number of different atomic species (ntypx) = 10
     Max number of k-points (npk) =  40000
     Max angular momentum in pseudopotentials (lmaxx) =  3
     Presently no symmetry can be used with electric field

     Message from routine cell_base_init:
     DEPRECATED: use true lattice parameter, not A to a.u. conversion factor

     IMPORTANT: XC functional enforced from input :
     Exchange-correlation= BEEF-VDW
                           (   1   4  43  14   2   0   0)
     Any further DFT definition will be discarded
     Please, verify this is what you really want

  @ DRIVER MODE: Connecting to
 qe_1139763_2937319.sched-torque.pace.gatech.eduj0f2tbzf_scratch
  using UNIX socket
  @ DRIVER MODE: Message from server: STATUS
  @ DRIVER MODE: Message from server: INIT
  @ DRIVER MODE: Receiving replica           0          -1
  @ DRIVER MODE: Receiving encoded integer          25
  @ DRIVER MODE:  SCF:  T  FORCE:  T  STRESS:  F  VC:  F  ENSEMBLE:  F
  @ DRIVER MODE:  SCF:  T  FORCE:  T  STRESS:  F  VC:  F  ENSEMBLE:  F

     Using Slab Decomposition

     bravais-lattice index     =            0
     lattice parameter (alat)  =       1.8897  a.u.
     unit-cell volume          =    6658.9804 (a.u.)^3
     number of atoms/cell      =           54
     number of atomic types    =            5
     number of electrons       =       397.00
     number of Kohn-Sham states=          208
     kinetic-energy cutoff     =      29.3995  Ry
     charge density cutoff     =     293.9946  Ry
     scf convergence threshold =      7.3E-08
     mixing beta               =       0.0500
     number of iterations used =            8  plain     mixing
     Exchange-correlation= BEEF-VDW
                           (   1   4  43  14   2   0   0)

     celldm(1)=   1.889726  celldm(2)=   0.000000  celldm(3)=   0.000000
     celldm(4)=   0.000000  celldm(5)=   0.000000  celldm(6)=   0.000000

     crystal axes: (cart. coord. in units of alat)
               a(1) = (   6.579727   0.000000   0.000000 )
               a(2) = (  -0.000775   5.961596   0.000000 )
               a(3) = (   0.000000   0.000000  25.155947 )

     reciprocal axes: (cart. coord. in units 2 pi/alat)
               b(1) = (  0.151982  0.000020  0.000000 )
               b(2) = (  0.000000  0.167740  0.000000 )
               b(3) = (  0.000000  0.000000  0.039752 )

     PseudoPot. # 1 for Ti read from file:
     /storage/coda1/p-amedford6/0/shared/rich_project_chbe-medford/medford-share/data/pseudos_module/espresso/nninc/pbe/van/Ti.UPF
     MD5 check sum: 8e4df49b7f0d34bbd5052bf3f5ea0213
     Pseudo is Ultrasoft, Zval = 12.0
     Generated by new atomic code, or converted to UPF format
     Using radial grid of  851 points,  6 beta functions with:
                l(1) =   0
                l(2) =   0
                l(3) =   1
                l(4) =   1
                l(5) =   2
                l(6) =   2
     Q(r) pseudized with  8 coefficients,  rinner =    1.000   1.000   1.000
                                                       1.000   1.000

     PseudoPot. # 2 for O  read from file:
     /storage/coda1/p-amedford6/0/shared/rich_project_chbe-medford/medford-share/data/pseudos_module/espresso/nninc/pbe/van/O.UPF
     MD5 check sum: 78c19812648e8988a0fe644b0f25305e
     Pseudo is Ultrasoft, Zval =  6.0
     Generated by new atomic code, or converted to UPF format
     Using radial grid of  737 points,  4 beta functions with:
                l(1) =   0
                l(2) =   0
                l(3) =   1
                l(4) =   1
     Q(r) pseudized with  8 coefficients,  rinner =    0.800   0.800   0.800

     PseudoPot. # 3 for N  read from file:
     /storage/coda1/p-amedford6/0/shared/rich_project_chbe-medford/medford-share/data/pseudos_module/espresso/nninc/pbe/van/N.UPF
     MD5 check sum: 90d10febe142ad51ac9d5be1deb811c4
     Pseudo is Ultrasoft, Zval =  5.0
     Generated by new atomic code, or converted to UPF format
     Using radial grid of  729 points,  4 beta functions with:
                l(1) =   0
                l(2) =   0
                l(3) =   1
                l(4) =   1
     Q(r) pseudized with  8 coefficients,  rinner =    0.800   0.800   0.800

     PseudoPot. # 4 for C  read from file:
     /storage/coda1/p-amedford6/0/shared/rich_project_chbe-medford/medford-share/data/pseudos_module/espresso/nninc/pbe/van/C.UPF
     MD5 check sum: 1a69bf6b8db32088f5b2163dbdb77a27
     Pseudo is Ultrasoft, Zval =  4.0
     Generated by new atomic code, or converted to UPF format
     Using radial grid of  721 points,  4 beta functions with:
                l(1) =   0
                l(2) =   0
                l(3) =   1
                l(4) =   1
     Q(r) pseudized with  8 coefficients,  rinner =    0.800   0.800   0.800

     PseudoPot. # 5 for H  read from file:
     /storage/coda1/p-amedford6/0/shared/rich_project_chbe-medford/medford-share/data/pseudos_module/espresso/nninc/pbe/van/H.UPF
     MD5 check sum: b5ee9d7bfd3a09ee7748110bda690ff7
     Pseudo is Ultrasoft, Zval =  1.0
     Generated by new atomic code, or converted to UPF format
     Using radial grid of  615 points,  1 beta functions with:
                l(1) =   0
     Q(r) pseudized with  8 coefficients,  rinner =    0.800

     atomic species   valence    mass     pseudopotential
        Ti1           12.00    47.86700     Ti( 1.00)
        O1             6.00    15.99900     O ( 1.00)
        N1             5.00    14.00700     N ( 1.00)
        C1             4.00    12.01100     C ( 1.00)
        H1             1.00     1.00800     H ( 1.00)

     No symmetry found

   Cartesian axes

     site n.     atom                  positions (alat units)
         1           Ti1 tau(   1) = (   0.0004258   2.9801865   6.0000000  )
         2           Ti1 tau(   2) = (   3.2906075   1.4906267   6.0002472  )
         3           O1  tau(   3) = (   0.0006271   0.0005054   7.9858123  )
         4           O1  tau(   4) = (   3.2906025   0.0005020   7.3038282  )
         5           O1  tau(   5) = (   4.5942328   1.4918067   9.2879030  )
         6           O1  tau(   6) = (   1.9868534   1.4903216   9.2879459  )
         7           Ti1 tau(   7) = (   3.2907910   2.8959150   9.1758416  )
         8           Ti1 tau(   8) = (   0.0015273   1.4827037   9.2680791  )
         9           O1  tau(   9) = (   3.2880966   5.9442215  11.2779904  )
        10           O1  tau(  10) = (   0.0116148   5.9584955  10.6183126  )
        11           O1  tau(  11) = (   1.2901275   1.4920942  12.6240107  )
        12           O1  tau(  12) = (   5.2966278   1.4852543  12.6143030  )
        13           Ti1 tau(  13) = (   0.0031916   3.1007002  12.7073671  )
        14           Ti1 tau(  14) = (   3.2978183   1.3116672  12.6600973  )
        15           O1  tau(  15) = (   6.5743189   0.0224225  14.6379036  )
        16           O1  tau(  16) = (   3.2931419   0.0435670  13.8892854  )
        17           O1  tau(  17) = (   4.5409235   1.5821231  16.0748620  )
        18           O1  tau(  18) = (   2.0417342   1.5698890  16.0900686  )
        19           Ti1 tau(  19) = (   3.2746960   3.0378214  15.6558348  )
        20           Ti1 tau(  20) = (   6.4705883   1.5381531  15.9030332  )
        21           O1  tau(  21) = (   3.2904802   0.0005063   4.7018136  )
        22           O1  tau(  22) = (   6.5584422   0.0457650  17.1906971  )
        23           O1  tau(  23) = (   1.3043587   1.4918075   6.0039043  )
        24           O1  tau(  24) = (   5.2767064   1.4903225   6.0039473  )
        25           Ti1 tau(  25) = (   0.0000382   5.9609847   6.0000000  )
        26           Ti1 tau(  26) = (   3.2902200   4.4714249   6.0002472  )
        27           O1  tau(  27) = (   0.0002396   2.9813036   7.9858123  )
        28           O1  tau(  28) = (   3.2902150   2.9813002   7.3038282  )
        29           O1  tau(  29) = (   4.5938453   4.4726049   9.2879030  )
        30           O1  tau(  30) = (   1.9864658   4.4711199   9.2879459  )
        31           Ti1 tau(  31) = (   3.2891106   5.8743827   9.1763621  )
        32           Ti1 tau(  32) = (   0.0006254   4.4649316   9.2693709  )
        33           O1  tau(  33) = (   3.2918970   3.0256722  11.2465752  )
        34           O1  tau(  34) = (   0.0092240   2.9805883  10.6323155  )
        35           O1  tau(  35) = (   1.2932338   4.4650182  12.6342030  )
        36           O1  tau(  36) = (   5.2897350   4.4662865  12.6224893  )
        37           Ti1 tau(  37) = (   0.0112454   0.1207271  12.6557084  )
        38           Ti1 tau(  38) = (   3.2993242   4.4067673  12.4119285  )
        39           O1  tau(  39) = (   6.5542949   2.9732608  14.6543823  )
        40           O1  tau(  40) = (   3.2957262   2.9928748  13.8751945  )
        41           O1  tau(  41) = (   4.5169628   4.4726675  16.1294972  )
        42           O1  tau(  42) = (   2.0179035   4.4711894  16.0655614  )
        43           Ti1 tau(  43) = (   3.1791666   0.0518155  16.3463265  )
        44           Ti1 tau(  44) = (   6.5235282   4.6410908  16.0777984  )
        45           O1  tau(  45) = (   3.2900926   2.9813045   4.7018136  )
        46           O1  tau(  46) = (   1.3039711   4.4726057   6.0039043  )
        47           O1  tau(  47) = (   5.2763189   4.4711207   6.0039473  )
        48           N1  tau(  48) = (   0.0679940   2.9882472  17.3287890  )
        49           C1  tau(  49) = (   0.3445104   2.8919884  18.7043053  )
        50           H1  tau(  50) = (   0.5935414   3.8503421  19.1719745  )
        51           H1  tau(  51) = (   6.0479261   2.4644003  19.2136804  )
        52           H1  tau(  52) = (   1.1315070   2.1426081  18.8955932  )
        53           O1  tau(  53) = (   3.2362511   0.0690349  18.1809703  )
        54           H1  tau(  54) = (   3.8186072   5.4079590  18.6400750  )

     number of k points=    10  Fermi-Dirac smearing, width (Ry)=  0.0073
                       cart. coord. in units 2pi/alat
        k(    1) = (   0.0000000   0.0000000   0.0000000), wk =   0.1250000
        k(    2) = (   0.0000000   0.0419351   0.0000000), wk =   0.2500000
        k(    3) = (   0.0000000  -0.0838702   0.0000000), wk =   0.1250000
        k(    4) = (   0.0379955   0.0000049   0.0000000), wk =   0.2500000
        k(    5) = (   0.0379955   0.0419400   0.0000000), wk =   0.2500000
        k(    6) = (   0.0379955  -0.0838652   0.0000000), wk =   0.2500000
        k(    7) = (   0.0379955  -0.0419301   0.0000000), wk =   0.2500000
        k(    8) = (  -0.0759910  -0.0000099   0.0000000), wk =   0.1250000
        k(    9) = (  -0.0759910   0.0419252   0.0000000), wk =   0.2500000
        k(   10) = (  -0.0759910  -0.0838800   0.0000000), wk =   0.1250000

     Initial potential from superposition of free atoms

     starting charge  380.99916, renormalised to  397.00000

     negative rho (up, down):  1.676E-02 0.000E+00

     %%%%%%%%%%%%%%%%%%%%%%%%%%%%%%%%%%%%%%%%%%%%%%%%%%%%%%%%%%%%%%%%%%%%%%%%
     %                                                                      %
     % You are using vdW-DF, which was implemented by the Thonhauser group. %
     % Please cite the following two papers that made this development      %
     % possible and the two reviews that describe the various versions:     %
     %                                                                      %
     %   T. Thonhauser et al., PRL 115, 136402 (2015).                      %
     %   T. Thonhauser et al., PRB 76, 125112 (2007).                       %
     %   K. Berland et al., Rep. Prog. Phys. 78, 066501 (2015).             %
     %   D.C. Langreth et al., J. Phys.: Condens. Matter 21, 084203 (2009). %
     %                                                                      %
     %                                                                      %
     % If you are calculating the stress with vdW-DF, please also cite:     %
     %                                                                      %
     %   R. Sabatini et al., J. Phys.: Condens. Matter 24, 424209 (2012).   %
     %                                                                      %
     %%%%%%%%%%%%%%%%%%%%%%%%%%%%%%%%%%%%%%%%%%%%%%%%%%%%%%%%%%%%%%%%%%%%%%%%

     Adding external electric field

     Computed dipole along edir(3) :
        Dipole               -8.2921 Ry au,        -21.0764 Debye
        Dipole field         -0.0156 Ry au,

        Potential amp.        1.4506 Ry
        Total length         46.3494 bohr

     Starting wfcs are  300 atomic wfcs
  @ DRIVER MODE: Message from server: STATUS
  @ DRIVER MODE: Message from server: POSDATA
  @ DRIVER MODE: Reading and sharing cell
  @ DRIVER MODE: Reading and sharing positions
  @ DRIVER MODE: Received positions

     Self-consistent Calculation

     iteration #  1     ecut=    29.40 Ry     beta= 0.05
     Davidson diagonalization with overlap
     c_bands:  1 eigenvalues not converged
     c_bands:  1 eigenvalues not converged
     c_bands:  1 eigenvalues not converged
     c_bands:  3 eigenvalues not converged
     c_bands:  2 eigenvalues not converged
     c_bands:  1 eigenvalues not converged
     c_bands:  1 eigenvalues not converged
     ethr =  1.00E-05,  avg # of iterations = 19.2

[...]

     total energy              =   -2606.67746839 Ry
     estimated scf accuracy    <    3818.30772546 Ry

     iteration #  2     ecut=    29.40 Ry     beta= 0.05
     Davidson diagonalization with overlap
     ethr =  1.00E-02,  avg # of iterations = 24.1

[...]

     iteration # 64     ecut=    29.40 Ry     beta= 0.05
     Davidson diagonalization with overlap
     c_bands:  2 eigenvalues not converged
     ethr =  3.42E-09,  avg # of iterations =  6.5

[...]

     total energy              =   -2952.64742416 Ry
     estimated scf accuracy    <       0.00000020 Ry

     iteration # 78     ecut=    29.40 Ry     beta= 0.05
     Davidson diagonalization with overlap
     ethr =  5.08E-11,  avg # of iterations =  5.2

     negative rho (up, down):  1.697E-02 0.000E+00

     Adding external electric field

     Computed dipole along edir(3) :
        Dipole                0.3612 Ry au,          0.9182 Debye
        Dipole field          0.0007 Ry au,

        Potential amp.       -0.0632 Ry
        Total length         46.3494 bohr

     End of self-consistent calculation

          k = 0.0000 0.0000 0.0000 ( 18029 PWs)   bands (ev):

   -56.8756 -56.8421 -55.9458 -55.9102 -55.7353 -55.6706 -55.5486 -55.4274
   -55.3935 -55.3132 -55.3107 -55.2401 -55.2184 -55.1154 -55.0462 -54.9195
   -33.2943 -33.1460 -33.1179 -33.0554 -32.9652 -32.9214 -32.4270 -32.2106
   -32.1660 -32.1457 -32.0903 -32.0819 -32.0563 -31.9692 -31.9477 -31.9056
   -31.8901 -31.8732 -31.8328 -31.8052 -31.7946 -31.7930 -31.7799 -31.7744
   -31.7499 -31.7296 -31.6648 -31.6315 -31.5909 -31.5817 -31.5512 -31.5282
   -31.5156 -31.5076 -31.4742 -31.4653 -31.4398 -31.4299 -31.4078 -31.3934
   -31.3561 -31.3050 -31.2986 -31.2818 -31.2499 -31.1914 -31.1560 -31.1027
   -16.9785 -16.4629 -16.4165 -16.1920 -16.0695 -16.0637 -16.0183 -15.9561
   -15.7831 -15.7289 -15.6892 -15.6257 -15.4744 -15.3641 -15.2671 -15.0714
   -15.0360 -15.0045 -15.0025 -14.9890 -14.9582 -14.9458 -14.8704 -14.8193
   -14.7885 -14.7067 -14.6998 -14.5385 -14.3100 -14.2863 -13.9247 -13.8177
   -13.7985  -8.0539  -4.5543  -4.0900  -3.8850  -3.7099  -3.5604  -3.5005
    -3.4615  -3.3943  -3.3802  -3.2478  -3.2351  -3.2300  -3.2224  -3.1381
    -3.0746  -3.0154  -2.9262  -2.9106  -2.8200  -2.7694  -2.6104  -2.5757
    -2.4881  -2.4096  -2.4040  -2.3377  -2.3185  -2.2768  -2.2419  -2.2104
    -2.1809  -2.1379  -2.0831  -2.0734  -1.9785  -1.9719  -1.8901  -1.8742
    -1.8686  -1.7466  -1.7078  -1.6481  -1.5085  -1.4870  -1.4698  -1.4387
    -1.4002  -1.3400  -1.2355  -1.1777  -1.1486  -1.0950  -1.0251  -0.9683
    -0.9480  -0.8742  -0.8477  -0.7733  -0.7292  -0.7143  -0.6943  -0.6692
    -0.5311  -0.4491  -0.4142  -0.3618  -0.3468  -0.3078  -0.2828  -0.2280
    -0.1695  -0.1479  -0.0498  -0.0468   0.0898   0.1577   0.1601   0.2587
     0.3032   0.3095   0.3663   0.4350   0.4467   0.5104   0.5306   0.5887
     0.5940   0.6369   0.7205   0.7975   0.8408   0.8705   0.9110   0.9314
     1.0432   1.0685   1.1315   1.1879   1.4977   1.5705   2.1779   2.4188
     2.5908   2.8682   3.0637   3.3633   3.4049   3.4230   3.4231   3.7332

[...]

          k = 0.0380-0.0419 0.0000 ( 17876 PWs)   bands (ev):

[...]

          k =-0.0760-0.0000 0.0000 ( 17886 PWs)   bands (ev):

[...]

          k =-0.0760-0.0839 0.0000 ( 17948 PWs)   bands (ev):

   -56.8595 -56.8581 -55.9338 -55.9220 -55.7305 -55.6753 -55.5478 -55.4110
   -55.4098 -55.3138 -55.3062 -55.2443 -55.2169 -55.1139 -55.0477 -54.9208
   -33.1325 -33.1310 -33.1123 -33.1109 -33.0095 -33.0083 -32.2520 -32.2418
   -32.1284 -32.1242 -32.1163 -32.1153 -32.0287 -31.9881 -31.9624 -31.9485
   -31.9009 -31.8994 -31.8337 -31.7912 -31.7710 -31.7634 -31.7626 -31.6859
   -31.6357 -31.6312 -31.6298 -31.6045 -31.5942 -31.5911 -31.5899 -31.5835
   -31.5349 -31.5273 -31.5105 -31.4850 -31.4797 -31.4641 -31.4345 -31.4098
   -31.3928 -31.3589 -31.3070 -31.2928 -31.2599 -31.2557 -31.1584 -31.1405
   -16.4522 -16.3363 -16.3345 -16.2919 -16.2904 -16.0268 -16.0224 -15.7742
   -15.7452 -15.5693 -15.4575 -15.4354 -15.3937 -15.3532 -15.2758 -15.2247
   -15.2115 -15.1835 -15.1570 -15.0848 -15.0510 -14.9496 -14.9140 -14.8523
   -14.8177 -14.7442 -14.7040 -14.6754 -14.4809 -14.4192 -13.9224 -13.9215
   -13.8218  -8.0528  -4.0937  -3.4837  -3.4133  -3.4090  -3.3737  -3.3665
    -3.2915  -3.1621  -3.1588  -3.0461  -2.9579  -2.9311  -2.9014  -2.8473
    -2.8338  -2.7375  -2.6878  -2.6829  -2.6675  -2.6331  -2.6020  -2.5949
    -2.5372  -2.4106  -2.3662  -2.3289  -2.2887  -2.2207  -2.1897  -2.1818
    -2.1493  -2.1098  -2.0914  -2.0625  -2.0499  -2.0432  -2.0327  -1.9457
    -1.7986  -1.7718  -1.6785  -1.6757  -1.6657  -1.6259  -1.5962  -1.5821
    -1.5620  -1.5283  -1.4517  -1.4258  -1.3617  -1.2264  -1.2128  -1.1783
    -1.1247  -1.0220  -1.0070  -0.9112  -0.8934  -0.8834  -0.8194  -0.7969
    -0.7801  -0.7180  -0.6804  -0.5602  -0.4888  -0.4803  -0.4625  -0.4534
    -0.4030  -0.3557  -0.2827  -0.2790  -0.2624  -0.1542  -0.0583   0.0357
     0.0420   0.1105   0.1262   0.1809   0.3384   0.3489   0.3908   0.4522
     0.5685   0.6603   0.7141   0.8136   0.8464   0.9524   0.9710   0.9762
     0.9953   1.0042   1.0479   1.1037   1.1672   1.4798   1.9772   3.0115
     3.0147   3.0731   3.0787   3.3899   3.3921   3.5043   3.5092   3.8297

     the Fermi energy is     2.0753 ev

!    total energy              =   -2952.64743298 Ry
     estimated scf accuracy    <       0.00000004 Ry
     smearing contrib. (-TS)   =      -0.01068346 Ry
     internal energy E=F+TS    =   -2952.63674952 Ry

     The total energy is F=E-TS. E is the sum of the following terms:
     one-electron contribution =  -24061.27052053 Ry
     hartree contribution      =   12121.09492804 Ry
     xc contribution           =    -487.78248586 Ry
     ewald contribution        =    9475.32108256 Ry
     electric field correction =       0.00024627 Ry

     convergence has been achieved in  78 iterations

     Forces acting on atoms (cartesian axes, Ry/au):

     atom    1 type  1   force =     0.00005985   -0.00037024    0.12634961
     atom    2 type  1   force =    -0.00005980    0.00039981   -0.15473262
     atom    3 type  2   force =     0.00003805    0.00023080   -0.06866988
     atom    4 type  2   force =     0.00004324    0.00001397    0.01724653
     atom    5 type  2   force =    -0.00541374   -0.00183320   -0.01283215
     atom    6 type  2   force =     0.00699613   -0.00107186   -0.01373357
     atom    7 type  1   force =    -0.00029799   -0.00640810    0.05894679
     atom    8 type  1   force =     0.00058359    0.00674944    0.10096869
     atom    9 type  2   force =     0.00031863    0.00037080    0.00012426
     atom   10 type  2   force =    -0.00198421    0.00132401   -0.06337372
     atom   11 type  2   force =    -0.00015691   -0.00065960    0.00023529
     atom   12 type  2   force =    -0.00037642   -0.00040783    0.00005571
     atom   13 type  1   force =     0.00057610   -0.00074345    0.00026900
     atom   14 type  1   force =    -0.00003415   -0.00055869    0.00120296
     atom   15 type  2   force =    -0.00000488   -0.00000922    0.00026235
     atom   16 type  2   force =     0.00006009   -0.00020124   -0.00085091
     atom   17 type  2   force =    -0.00041135   -0.00055284   -0.00044853
     atom   18 type  2   force =    -0.00042000   -0.00059851   -0.00061934
     atom   19 type  1   force =     0.00122342    0.00038818   -0.00081075
     atom   20 type  1   force =    -0.00079911    0.00092037   -0.00067999
     atom   21 type  2   force =     0.00009582    0.00014892    0.09785347
     atom   22 type  2   force =    -0.00011273   -0.00004460   -0.00029371
     atom   23 type  2   force =    -0.08274391    0.00003470   -0.03316416
     atom   24 type  2   force =     0.08271441    0.00046547   -0.03322478
     atom   25 type  1   force =     0.00005011   -0.00039921    0.12671452
     atom   26 type  1   force =    -0.00004550   -0.00140707   -0.15489003
     atom   27 type  2   force =     0.00012145   -0.00037049   -0.06707398
     atom   28 type  2   force =     0.00007145    0.00176834    0.01245918
     atom   29 type  2   force =    -0.00383600    0.00476759   -0.01597765
     atom   30 type  2   force =     0.00536460    0.00500745   -0.01690663
     atom   31 type  1   force =    -0.00028785    0.00187658    0.04203645
     atom   32 type  1   force =     0.00074962   -0.00886486    0.10189662
     atom   33 type  2   force =    -0.00004786   -0.00034997   -0.00058865
     atom   34 type  2   force =    -0.00187748    0.00205783   -0.07569630
     atom   35 type  2   force =     0.00014197   -0.00013042   -0.00047303
     atom   36 type  2   force =    -0.00031344    0.00006651   -0.00019566
     atom   37 type  1   force =     0.00046918    0.00055429    0.00036632
     atom   38 type  1   force =    -0.00035206   -0.00073865   -0.00036805
     atom   39 type  2   force =     0.00001837   -0.00050062    0.00061212
     atom   40 type  2   force =    -0.00008731   -0.00057264   -0.00045239
     atom   41 type  2   force =     0.00048728   -0.00036252   -0.00063704
     atom   42 type  2   force =    -0.00132338    0.00021423   -0.00007929
     atom   43 type  1   force =     0.00078413   -0.00066505   -0.00069696
     atom   44 type  1   force =    -0.00107430   -0.00068865   -0.00012092
     atom   45 type  2   force =     0.00008140   -0.00002912    0.09772293
     atom   46 type  2   force =    -0.08278057    0.00001573   -0.03317376
     atom   47 type  2   force =     0.08274533    0.00042877   -0.03321928
     atom   48 type  3   force =     0.00011889   -0.00089625   -0.00085570
     atom   49 type  4   force =     0.00615892    0.00246511   -0.00336944
     atom   50 type  5   force =     0.00010722   -0.00003316    0.00060523
     atom   51 type  5   force =    -0.00712882   -0.00296919    0.00329953
     atom   52 type  5   force =     0.00023557    0.00096296   -0.00023968
     atom   53 type  2   force =     0.00034149    0.00027627   -0.00086006
     atom   54 type  5   force =     0.00121349    0.00092910    0.00008101

     Total force =     0.421328     Total SCF correction =     0.000415
  @ DRIVER MODE: Message from server: STATUS
  @ DRIVER MODE: Message from server: GETFORCE
  @ DRIVER MODE: Returning v,forces,stress,ensemble

     Writing output data file ./calc.save/
  @ DRIVER MODE: Message from server: EXIT
  @ DRIVE MODE: Exiting

     General routines

     Parallel routines

   This run was terminated on:  22:44:33  22Sep2021

   JOB DONE.