     Program PWSCF v.6.7GPU starts on 20Jul2021 at 14:22:23

     R & G space division:  proc/nbgrp/npool/nimage =      16
     Reading input from /storage/home/hcoda1/3/ntian30/research/carbon/15Jul_vib/ads_slab/CH3NHH_a/out_0011/pw.inp
Warning: card &CELL ignored
Warning: card   CELL_DYNAMICS='IPI', ignored
Warning: card / ignored

     Current dimensions of program PWSCF are:
     Max number of different atomic species (ntypx) = 10
     Max number of k-points (npk) =  40000
     Max angular momentum in pseudopotentials (lmaxx) =  3
     Presently no symmetry can be used with electric field

     Message from routine cell_base_init:
     DEPRECATED: use true lattice parameter, not A to a.u. conversion factor

     IMPORTANT: XC functional enforced from input :
     Exchange-correlation= BEEF-VDW
                           (   1   4  43  14   2   0   0)
     Any further DFT definition will be discarded
     Please, verify this is what you really want

  @ DRIVER MODE: Connecting to
 qe_1139763_2382402.sched-torque.pace.gatech.edussgo7bwn_scratch
  using UNIX socket
  @ DRIVER MODE: Message from server: STATUS
  @ DRIVER MODE: Message from server: INIT
  @ DRIVER MODE: Receiving replica           0          -1
  @ DRIVER MODE: Receiving encoded integer          25
  @ DRIVER MODE:  SCF:  T  FORCE:  T  STRESS:  F  VC:  F  ENSEMBLE:  F
  @ DRIVER MODE:  SCF:  T  FORCE:  T  STRESS:  F  VC:  F  ENSEMBLE:  F

     Using Slab Decomposition

     bravais-lattice index     =            0
     lattice parameter (alat)  =       1.8897  a.u.
     unit-cell volume          =    6658.9804 (a.u.)^3
     number of atoms/cell      =           54
     number of atomic types    =            5
     number of electrons       =       392.00
     number of Kohn-Sham states=          206
     kinetic-energy cutoff     =      29.3995  Ry
     charge density cutoff     =     293.9946  Ry
     scf convergence threshold =      7.3E-08
     mixing beta               =       0.0500
     number of iterations used =            8  plain     mixing
     Exchange-correlation= BEEF-VDW
                           (   1   4  43  14   2   0   0)

     celldm(1)=   1.889726  celldm(2)=   0.000000  celldm(3)=   0.000000
     celldm(4)=   0.000000  celldm(5)=   0.000000  celldm(6)=   0.000000

     crystal axes: (cart. coord. in units of alat)
               a(1) = (   6.579727   0.000000   0.000000 )
               a(2) = (  -0.000775   5.961596   0.000000 )
               a(3) = (   0.000000   0.000000  25.155947 )

     reciprocal axes: (cart. coord. in units 2 pi/alat)
               b(1) = (  0.151982  0.000020  0.000000 )
               b(2) = (  0.000000  0.167740  0.000000 )
               b(3) = (  0.000000  0.000000  0.039752 )

     PseudoPot. # 1 for Ti read from file:
     /storage/coda1/p-amedford6/0/shared/rich_project_chbe-medford/medford-share/data/pseudos_module/espresso/nninc/pbe/van/Ti.UPF
     MD5 check sum: 8e4df49b7f0d34bbd5052bf3f5ea0213
     Pseudo is Ultrasoft, Zval = 12.0
     Generated by new atomic code, or converted to UPF format
     Using radial grid of  851 points,  6 beta functions with:
                l(1) =   0
                l(2) =   0
                l(3) =   1
                l(4) =   1
                l(5) =   2
                l(6) =   2
     Q(r) pseudized with  8 coefficients,  rinner =    1.000   1.000   1.000
                                                       1.000   1.000

     PseudoPot. # 2 for O  read from file:
     /storage/coda1/p-amedford6/0/shared/rich_project_chbe-medford/medford-share/data/pseudos_module/espresso/nninc/pbe/van/O.UPF
     MD5 check sum: 78c19812648e8988a0fe644b0f25305e
     Pseudo is Ultrasoft, Zval =  6.0
     Generated by new atomic code, or converted to UPF format
     Using radial grid of  737 points,  4 beta functions with:
                l(1) =   0
                l(2) =   0
                l(3) =   1
                l(4) =   1
     Q(r) pseudized with  8 coefficients,  rinner =    0.800   0.800   0.800

     PseudoPot. # 3 for N  read from file:
     /storage/coda1/p-amedford6/0/shared/rich_project_chbe-medford/medford-share/data/pseudos_module/espresso/nninc/pbe/van/N.UPF
     MD5 check sum: 90d10febe142ad51ac9d5be1deb811c4
     Pseudo is Ultrasoft, Zval =  5.0
     Generated by new atomic code, or converted to UPF format
     Using radial grid of  729 points,  4 beta functions with:
                l(1) =   0
                l(2) =   0
                l(3) =   1
                l(4) =   1
     Q(r) pseudized with  8 coefficients,  rinner =    0.800   0.800   0.800

     PseudoPot. # 4 for C  read from file:
     /storage/coda1/p-amedford6/0/shared/rich_project_chbe-medford/medford-share/data/pseudos_module/espresso/nninc/pbe/van/C.UPF
     MD5 check sum: 1a69bf6b8db32088f5b2163dbdb77a27
     Pseudo is Ultrasoft, Zval =  4.0
     Generated by new atomic code, or converted to UPF format
     Using radial grid of  721 points,  4 beta functions with:
                l(1) =   0
                l(2) =   0
                l(3) =   1
                l(4) =   1
     Q(r) pseudized with  8 coefficients,  rinner =    0.800   0.800   0.800

     PseudoPot. # 5 for H  read from file:
     /storage/coda1/p-amedford6/0/shared/rich_project_chbe-medford/medford-share/data/pseudos_module/espresso/nninc/pbe/van/H.UPF
     MD5 check sum: b5ee9d7bfd3a09ee7748110bda690ff7
     Pseudo is Ultrasoft, Zval =  1.0
     Generated by new atomic code, or converted to UPF format
     Using radial grid of  615 points,  1 beta functions with:
                l(1) =   0
     Q(r) pseudized with  8 coefficients,  rinner =    0.800

     atomic species   valence    mass     pseudopotential
        Ti1           12.00    47.86700     Ti( 1.00)
        O1             6.00    15.99900     O ( 1.00)
        N1             5.00    14.00700     N ( 1.00)
        C1             4.00    12.01100     C ( 1.00)
        H1             1.00     1.00800     H ( 1.00)

     Starting magnetic structure
     atomic species   magnetization
        Ti1          0.000
        O1           0.000
        N1           0.000
        C1           0.025
        H1           0.000

     No symmetry found

   Cartesian axes

     site n.     atom                  positions (alat units)
         1           Ti1 tau(   1) = (   0.0004258   2.9801865   6.0000000  )
         2           Ti1 tau(   2) = (   3.2906075   1.4906267   6.0002472  )
         3           O1  tau(   3) = (   0.0006271   0.0005054   7.9858123  )
         4           O1  tau(   4) = (   3.2906025   0.0005020   7.3038282  )
         5           O1  tau(   5) = (   4.5942328   1.4918067   9.2879030  )
         6           O1  tau(   6) = (   1.9868534   1.4903216   9.2879459  )
         7           Ti1 tau(   7) = (   3.2907910   2.8959150   9.1758416  )
         8           Ti1 tau(   8) = (   0.0015273   1.4827037   9.2680791  )
         9           O1  tau(   9) = (   3.2893523   5.9576907  11.3759447  )
        10           O1  tau(  10) = (   0.0116148   5.9584955  10.6183126  )
        11           O1  tau(  11) = (   1.2892553   1.4862333  12.6941169  )
        12           O1  tau(  12) = (   5.2958346   1.4833122  12.6807028  )
        13           Ti1 tau(  13) = (   0.0095698   2.9692159  12.5083673  )
        14           Ti1 tau(  14) = (   3.3108451   1.4743585  12.5306019  )
        15           O1  tau(  15) = (   6.5736105   5.8801748  14.6991865  )
        16           O1  tau(  16) = (   3.2979610   5.9450902  14.0010558  )
        17           O1  tau(  17) = (   4.5273680   1.5185660  16.1654609  )
        18           O1  tau(  18) = (   2.0122787   1.5163527  16.1384539  )
        19           Ti1 tau(  19) = (   3.2802752   2.9921964  15.7561315  )
        20           Ti1 tau(  20) = (   0.0093588   1.3049760  15.8672178  )
        21           O1  tau(  21) = (   3.2904802   0.0005063   4.7018136  )
        22           O1  tau(  22) = (   6.5538635   0.1342075  17.2452287  )
        23           O1  tau(  23) = (   1.3043587   1.4918075   6.0039043  )
        24           O1  tau(  24) = (   5.2767064   1.4903225   6.0039473  )
        25           Ti1 tau(  25) = (   0.0000382   5.9609847   6.0000000  )
        26           Ti1 tau(  26) = (   3.2902200   4.4714249   6.0002472  )
        27           O1  tau(  27) = (   0.0002396   2.9813036   7.9858123  )
        28           O1  tau(  28) = (   3.2902150   2.9813002   7.3038282  )
        29           O1  tau(  29) = (   4.5938453   4.4726049   9.2879030  )
        30           O1  tau(  30) = (   1.9864658   4.4711199   9.2879459  )
        31           Ti1 tau(  31) = (   3.2891106   5.8743827   9.1763621  )
        32           Ti1 tau(  32) = (   0.0006254   4.4649316   9.2693709  )
        33           O1  tau(  33) = (   3.2933707   2.9638296  11.3700534  )
        34           O1  tau(  34) = (   0.0092240   2.9805883  10.6323155  )
        35           O1  tau(  35) = (   1.2923283   4.4540072  12.6594629  )
        36           O1  tau(  36) = (   5.2938616   4.4568750  12.6477176  )
        37           Ti1 tau(  37) = (   0.0202681   5.9396231  12.5027719  )
        38           Ti1 tau(  38) = (   3.3116628   4.4527548  12.5215617  )
        39           O1  tau(  39) = (   6.5466975   3.0260875  14.9671898  )
        40           O1  tau(  40) = (   3.2966604   2.9917109  13.9679302  )
        41           O1  tau(  41) = (   4.5116687   4.4737236  16.2360857  )
        42           O1  tau(  42) = (   2.0028912   4.4646324  16.2202640  )
        43           Ti1 tau(  43) = (   3.2937213   0.0113368  15.7972781  )
        44           Ti1 tau(  44) = (   0.0208052   4.5175143  16.0574476  )
        45           O1  tau(  45) = (   3.2900926   2.9813045   4.7018136  )
        46           O1  tau(  46) = (   1.3039711   4.4726057   6.0039043  )
        47           O1  tau(  47) = (   5.2763189   4.4711207   6.0039473  )
        48           N1  tau(  48) = (   6.3337458   3.3624127  18.1270434  )
        49           C1  tau(  49) = (   0.8795605   3.2639204  19.0699812  )
        50           H1  tau(  50) = (   1.4196110   4.2071110  19.0760701  )
        51           H1  tau(  51) = (   0.5395241   3.0459488  20.0957609  )
        52           H1  tau(  52) = (   1.5475163   2.4696122  18.7548312  )
        53           H1  tau(  53) = (   5.6940081   4.0973896  18.4182617  )
        54           H1  tau(  54) = (   5.7906660   2.4998151  18.1411682  )

     number of k points=    10  Fermi-Dirac smearing, width (Ry)=  0.0073
                       cart. coord. in units 2pi/alat
        k(    1) = (   0.0000000   0.0000000   0.0000000), wk =   0.0625000
        k(    2) = (   0.0000000   0.0419351   0.0000000), wk =   0.1250000
        k(    3) = (   0.0000000  -0.0838702   0.0000000), wk =   0.0625000
        k(    4) = (   0.0379955   0.0000049   0.0000000), wk =   0.1250000
        k(    5) = (   0.0379955   0.0419400   0.0000000), wk =   0.1250000
        k(    6) = (   0.0379955  -0.0838652   0.0000000), wk =   0.1250000
        k(    7) = (   0.0379955  -0.0419301   0.0000000), wk =   0.1250000
[...]
        k(    9) = (  -0.0759910   0.0419252   0.0000000), wk =   0.1250000
        k(   10) = (  -0.0759910  -0.0838800   0.0000000), wk =   0.0625000

     Initial potential from superposition of free atoms

     starting charge  375.99915, renormalised to  392.00000

     negative rho (up, down):  8.114E-03 8.120E-03

     %%%%%%%%%%%%%%%%%%%%%%%%%%%%%%%%%%%%%%%%%%%%%%%%%%%%%%%%%%%%%%%%%%%%%%%%
     %                                                                      %
     % You are using vdW-DF, which was implemented by the Thonhauser group. %
     % Please cite the following two papers that made this development      %
     % possible and the two reviews that describe the various versions:     %
     %                                                                      %
     %   T. Thonhauser et al., PRL 115, 136402 (2015).                      %
     %   T. Thonhauser et al., PRB 76, 125112 (2007).                       %
     %   K. Berland et al., Rep. Prog. Phys. 78, 066501 (2015).             %
     %   D.C. Langreth et al., J. Phys.: Condens. Matter 21, 084203 (2009). %
     %                                                                      %
     %                                                                      %
     % If you are calculating the stress with vdW-DF, please also cite:     %
     %                                                                      %
     %   R. Sabatini et al., J. Phys.: Condens. Matter 24, 424209 (2012).   %
     %                                                                      %
     %%%%%%%%%%%%%%%%%%%%%%%%%%%%%%%%%%%%%%%%%%%%%%%%%%%%%%%%%%%%%%%%%%%%%%%%

     Adding external electric field

     Computed dipole along edir(3) :
        Dipole               -7.5439 Ry au,        -19.1746 Debye
        Dipole field         -0.0142 Ry au,

        Potential amp.        1.3197 Ry
        Total length         46.3494 bohr

[...]

     Starting wfcs are  297 atomic wfcs
  @ DRIVER MODE: Message from server: STATUS
  @ DRIVER MODE: Message from server: POSDATA
  @ DRIVER MODE: Reading and sharing cell
  @ DRIVER MODE: Reading and sharing positions
  @ DRIVER MODE: Received positions

     Self-consistent Calculation

     iteration #  1     ecut=    29.40 Ry     beta= 0.05
     Davidson diagonalization with overlap
     c_bands:  1 eigenvalues not converged
     c_bands:  2 eigenvalues not converged
     c_bands:  1 eigenvalues not converged
     c_bands:  1 eigenvalues not converged
     c_bands:  1 eigenvalues not converged
     c_bands:  1 eigenvalues not converged
     c_bands:  1 eigenvalues not converged
     c_bands:  2 eigenvalues not converged
     c_bands:  1 eigenvalues not converged
     c_bands:  1 eigenvalues not converged
     c_bands:  1 eigenvalues not converged
     c_bands:  1 eigenvalues not converged
     ethr =  1.00E-05,  avg # of iterations = 19.6

[...]

     total energy              =   -2679.37973212 Ry
     estimated scf accuracy    <    2680.77593496 Ry

     total magnetization       =     0.00 Bohr mag/cell
     absolute magnetization    =     0.01 Bohr mag/cell

[...]

     iteration #  3     ecut=    29.40 Ry     beta= 0.05
     Davidson diagonalization with overlap
     ethr =  1.00E-02,  avg # of iterations = 15.2

[...]

     iteration # 71     ecut=    29.40 Ry     beta= 0.05
     Davidson diagonalization with overlap
     c_bands:  1 eigenvalues not converged
     ethr =  5.94E-11,  avg # of iterations = 13.8

[...]

     total energy              =   -2921.63310372 Ry
     estimated scf accuracy    <       0.00000010 Ry

[...]

     iteration # 74     ecut=    29.40 Ry     beta= 0.05
     Davidson diagonalization with overlap
     ethr =  2.49E-11,  avg # of iterations =  5.7

     negative rho (up, down):  8.568E-03 8.570E-03

[...]

     Adding external electric field

     Computed dipole along edir(3) :
        Dipole                1.2923 Ry au,          3.2846 Debye
        Dipole field          0.0024 Ry au,

        Potential amp.       -0.2261 Ry
        Total length         46.3494 bohr

     Magnetic moment per site  (integrated on atomic sphere of radius R)
     atom   1 (R=0.738)  charge=  8.0426  magn=  0.0004
     atom   2 (R=0.738)  charge=  8.0243  magn=  0.0001
     atom   3 (R=0.738)  charge=  5.0120  magn= -0.0003
     atom   4 (R=0.738)  charge=  5.0490  magn=  0.0000
     atom   5 (R=0.738)  charge=  5.0183  magn= -0.0001
     atom   6 (R=0.738)  charge=  5.0186  magn= -0.0001
     atom   7 (R=0.738)  charge=  8.0244  magn=  0.0002
     atom   8 (R=0.738)  charge=  8.0256  magn=  0.0032
     atom   9 (R=0.738)  charge=  5.0260  magn=  0.0000
     atom  10 (R=0.738)  charge=  5.0261  magn= -0.0002
     atom  11 (R=0.738)  charge=  5.0131  magn=  0.0000
     atom  12 (R=0.738)  charge=  5.0142  magn=  0.0000
     atom  13 (R=0.738)  charge=  8.0323  magn=  0.0004
     atom  14 (R=0.738)  charge=  8.0300  magn= -0.0003
     atom  15 (R=0.738)  charge=  5.0263  magn= -0.0000
     atom  16 (R=0.738)  charge=  5.0222  magn=  0.0001
     atom  17 (R=0.738)  charge=  4.9995  magn=  0.0001
     atom  18 (R=0.738)  charge=  5.0035  magn=  0.0001
     atom  19 (R=0.738)  charge=  8.0638  magn= -0.0013
     atom  20 (R=0.738)  charge=  8.0765  magn= -0.0002
     atom  21 (R=0.738)  charge=  4.8972  magn=  0.0002
     atom  22 (R=0.738)  charge=  4.9759  magn=  0.0001
     atom  23 (R=0.738)  charge=  5.0093  magn=  0.0001
     atom  24 (R=0.738)  charge=  5.0095  magn=  0.0000
     atom  25 (R=0.738)  charge=  8.0426  magn=  0.0004
     atom  26 (R=0.738)  charge=  8.0243  magn=  0.0001
     atom  27 (R=0.738)  charge=  5.0118  magn= -0.0003
     atom  28 (R=0.738)  charge=  5.0493  magn=  0.0000
     atom  29 (R=0.738)  charge=  5.0191  magn= -0.0001
     atom  30 (R=0.738)  charge=  5.0194  magn= -0.0001
     atom  31 (R=0.738)  charge=  8.0246  magn=  0.0002
     atom  32 (R=0.738)  charge=  8.0257  magn=  0.0032
     atom  33 (R=0.738)  charge=  5.0254  magn=  0.0000
     atom  34 (R=0.738)  charge=  5.0228  magn= -0.0002
     atom  35 (R=0.738)  charge=  5.0162  magn=  0.0000
     atom  36 (R=0.738)  charge=  5.0179  magn=  0.0000
     atom  37 (R=0.738)  charge=  8.0280  magn=  0.0004
     atom  38 (R=0.738)  charge=  8.0303  magn= -0.0003
     atom  39 (R=0.738)  charge=  5.0062  magn=  0.0000
     atom  40 (R=0.738)  charge=  5.0343  magn=  0.0001
     atom  41 (R=0.738)  charge=  4.9975  magn=  0.0001
     atom  42 (R=0.738)  charge=  5.0021  magn=  0.0001
     atom  43 (R=0.738)  charge=  8.0613  magn= -0.0014
     atom  44 (R=0.738)  charge=  8.0415  magn= -0.0003
     atom  45 (R=0.738)  charge=  4.8972  magn= -0.0005
     atom  46 (R=0.738)  charge=  5.0093  magn=  0.0001
     atom  47 (R=0.738)  charge=  5.0095  magn=  0.0001
     atom  48 (R=0.420)  charge=  1.3394  magn= -0.0000
     atom  49 (R=0.447)  charge=  0.8397  magn=  0.0000
     atom  50 (R=0.420)  charge=  0.4444  magn= -0.0000
     atom  51 (R=0.420)  charge=  0.4403  magn= -0.0000
     atom  52 (R=0.420)  charge=  0.4459  magn= -0.0000
     atom  53 (R=0.420)  charge=  0.4503  magn=  0.0000
     atom  54 (R=0.420)  charge=  0.4501  magn=  0.0000

     End of self-consistent calculation

 ------ SPIN UP ------------

          k = 0.0000 0.0000 0.0000 ( 18029 PWs)   bands (ev):

   -55.4357 -55.3992 -55.3866 -55.3590 -55.3525 -55.3181 -55.3148 -55.2803
   -55.2557 -55.2390 -55.2213 -55.2205 -55.1869 -55.1185 -54.4162 -54.3821
   -32.0046 -31.8908 -31.8790 -31.8030 -31.7513 -31.7453 -31.7433 -31.7261
   -31.6767 -31.6756 -31.6464 -31.6446 -31.6317 -31.6210 -31.6054 -31.6013
   -31.5913 -31.5794 -31.5736 -31.5528 -31.5389 -31.5353 -31.5085 -31.5003
   -31.4921 -31.4884 -31.4863 -31.4582 -31.4454 -31.4435 -31.4375 -31.4203
   -31.4172 -31.4136 -31.4059 -31.4030 -31.3695 -31.3599 -31.3496 -31.3318
   -31.3247 -31.3018 -30.8254 -30.7311 -30.7090 -30.6417 -30.5549 -30.4441
   -16.3022 -16.1884 -15.9829 -15.8368 -15.7525 -15.6350 -15.5198 -15.5032
   -15.3670 -15.2849 -15.1659 -15.1409 -15.1216 -15.0988 -15.0875 -15.0712
   -14.9802 -14.9746 -14.9605 -14.9295 -14.9269 -14.8821 -14.8742 -14.8328
   -14.8129 -14.8102 -14.6865 -14.5950 -14.5224 -14.2839 -12.9183 -12.8008
   -10.2214  -6.3056  -4.8446  -3.9716  -3.6106  -3.4565  -3.3664  -3.3392
    -3.3275  -3.1928  -3.0468  -2.9015  -2.8493  -2.8411  -2.7235  -2.6502
    -2.6404  -2.6205  -2.4657  -2.4341  -2.3912  -2.3440  -2.3002  -2.2455
    -2.2265  -2.2201  -2.2055  -2.1831  -2.1730  -2.0564  -2.0033  -1.9196
    -1.8624  -1.8395  -1.7893  -1.7681  -1.7453  -1.7254  -1.7161  -1.6715
    -1.6606  -1.6304  -1.5743  -1.4644  -1.3649  -1.3117  -1.1943  -1.0729
    -1.0328  -1.0201  -0.9780  -0.9372  -0.9217  -0.8565  -0.8128  -0.7822
    -0.7067  -0.6638  -0.6026  -0.5552  -0.4847  -0.4696  -0.4228  -0.3692
    -0.2555  -0.2182  -0.2034  -0.1770  -0.0843  -0.0481  -0.0034   0.0796
     0.0900   0.1056   0.2065   0.2196   0.2893   0.3354   0.3530   0.4455
     0.4838   0.4933   0.4988   0.5227   0.5491   0.6006   0.6385   0.6666
     0.7369   0.8623   1.0781   1.1523   1.1770   1.5032   1.5126   1.6072
     1.7902   2.1831   2.2313   3.6589   3.7323   3.8078   3.8127   3.8321
     3.8986   4.1367   4.1594   4.1666   4.1731   4.1951

[...]

          k =-0.0760-0.0000 0.0000 ( 17886 PWs)   bands (ev):

[...]

 ------ SPIN DOWN ----------

[...]

          k = 0.0380-0.0419 0.0000 ( 17876 PWs)   bands (ev):

[...]

          k =-0.0760-0.0839 0.0000 ( 17948 PWs)   bands (ev):

   -55.4213 -55.4148 -55.3696 -55.3690 -55.3580 -55.3169 -55.2986 -55.2951
   -55.2450 -55.2397 -55.2359 -55.1981 -55.1974 -55.1201 -54.3989 -54.3987
   -31.8114 -31.8089 -31.8066 -31.7224 -31.6973 -31.6942 -31.6937 -31.6603
   -31.6600 -31.6454 -31.6380 -31.6358 -31.6305 -31.6021 -31.5949 -31.5746
   -31.5725 -31.5684 -31.5666 -31.5656 -31.5621 -31.5580 -31.5193 -31.5173
   -31.5109 -31.5083 -31.5067 -31.4915 -31.4893 -31.4889 -31.4872 -31.4728
   -31.4691 -31.4526 -31.4489 -31.4343 -31.4324 -31.4296 -31.3823 -31.3780
   -31.3765 -31.3303 -30.7216 -30.7213 -30.6377 -30.6374 -30.5982 -30.5980
   -16.1708 -15.7819 -15.6898 -15.6424 -15.4691 -15.4399 -15.4233 -15.4081
   -15.2759 -15.2579 -15.2338 -15.2058 -15.1840 -15.1490 -15.1394 -15.1369
   -15.0573 -15.0431 -15.0361 -15.0202 -14.9542 -14.9445 -14.9421 -14.9348
   -14.8844 -14.8809 -14.8180 -14.7881 -14.7851 -14.5743 -12.9036 -12.9023
   -10.2246  -6.2765  -4.8397  -3.9357  -2.9612  -2.9391  -2.8970  -2.8924
    -2.6840  -2.6432  -2.6078  -2.5818  -2.4920  -2.4525  -2.4377  -2.4293
    -2.3579  -2.3414  -2.3232  -2.2782  -2.2721  -2.2585  -2.2364  -2.2065
    -2.1840  -2.1649  -2.1554  -2.1370  -2.0908  -2.0793  -2.0541  -2.0393
    -2.0367  -2.0182  -1.9901  -1.9439  -1.8172  -1.8091  -1.7422  -1.6426
    -1.6378  -1.5610  -1.5474  -1.5112  -1.4874  -1.4681  -1.4245  -1.2525
    -1.2089  -1.1822  -1.1727  -1.1125  -1.0507  -1.0278  -0.9574  -0.9420
    -0.9233  -0.8198  -0.7750  -0.7601  -0.6695  -0.6581  -0.5798  -0.5095
    -0.4710  -0.4439  -0.3928  -0.3897  -0.3883  -0.3417  -0.3345  -0.2534
    -0.2064  -0.1699  -0.1556  -0.1261   0.0710   0.0821   0.1080   0.2482
     0.2776   0.4005   0.4345   0.4866   0.5618   0.5944   0.6758   0.7113
     0.8408   0.8701   0.8717   0.9440   0.9553   1.0174   1.0269   1.9630
     1.9636   2.0501   2.0518   3.8171   3.8960   3.9235   3.9655   4.0772
     4.1522   4.1781   4.1986   4.2475   4.2500   4.3125

     the Fermi energy is     3.7257 ev

!    total energy              =   -2921.63311777 Ry
     estimated scf accuracy    <       0.00000006 Ry
     smearing contrib. (-TS)   =      -0.03709145 Ry
     internal energy E=F+TS    =   -2921.59602631 Ry

     The total energy is F=E-TS. E is the sum of the following terms:
     one-electron contribution =  -24030.40558928 Ry
     hartree contribution      =   12104.25923477 Ry
     xc contribution           =    -481.75108600 Ry
     ewald contribution        =    9486.29826275 Ry
     electric field correction =       0.00315145 Ry

     total magnetization       =     0.01 Bohr mag/cell
     absolute magnetization    =     0.02 Bohr mag/cell

     convergence has been achieved in  74 iterations

     Forces acting on atoms (cartesian axes, Ry/au):

     atom    1 type  1   force =     0.00003229   -0.00021767    0.09331738
     atom    2 type  1   force =    -0.00018734   -0.00036124   -0.17830570
     atom    3 type  2   force =     0.00002774   -0.00039810   -0.02022417
     atom    4 type  2   force =    -0.00002718   -0.00194975    0.05877542
     atom    5 type  2   force =    -0.01020054   -0.00112185    0.00776635
     atom    6 type  2   force =     0.01167638   -0.00040358    0.00693221
     atom    7 type  1   force =    -0.00049224    0.00211046   -0.01457730
     atom    8 type  1   force =     0.00024404   -0.00050422   -0.00480083
     atom    9 type  2   force =     0.00015140    0.00011667   -0.00006784
     atom   10 type  2   force =    -0.00113694    0.00137686    0.00052319
     atom   11 type  2   force =    -0.00011261    0.00015799    0.00005723
     atom   12 type  2   force =    -0.00002538    0.00036526    0.00023020
     atom   13 type  1   force =    -0.00004787   -0.00018479   -0.00018210
     atom   14 type  1   force =    -0.00015170    0.00011878    0.00028971
     atom   15 type  2   force =    -0.00021286   -0.00027307    0.00007234
     atom   16 type  2   force =    -0.00022118    0.00019501    0.00017091
     atom   17 type  2   force =     0.00014049   -0.00010282    0.00009975
     atom   18 type  2   force =    -0.00005083   -0.00020710    0.00015386
     atom   19 type  1   force =    -0.00030786    0.00031791    0.00041946
     atom   20 type  1   force =    -0.00003013   -0.00009089   -0.00043053
     atom   21 type  2   force =     0.00002855   -0.00006083    0.10393506
     atom   22 type  2   force =     0.00025463    0.00034675    0.00007458
     atom   23 type  2   force =    -0.07043341   -0.00015050   -0.02694161
     atom   24 type  2   force =     0.07026989    0.00028756   -0.02698597
     atom   25 type  1   force =    -0.00001515   -0.00015238    0.09283524
     atom   26 type  1   force =    -0.00020785   -0.00048376   -0.17832145
     atom   27 type  2   force =     0.00008653   -0.00026826   -0.01929047
     atom   28 type  2   force =     0.00004377   -0.00171750    0.05811657
     atom   29 type  2   force =    -0.01072299   -0.00111523    0.00832762
     atom   30 type  2   force =     0.01206839   -0.00084069    0.00745044
     atom   31 type  1   force =    -0.00039870    0.00596230   -0.01544131
     atom   32 type  1   force =     0.00022379   -0.00003794   -0.00517446
     atom   33 type  2   force =    -0.00007716    0.00001215    0.00008109
     atom   34 type  2   force =    -0.00101414   -0.00248452   -0.00002103
     atom   35 type  2   force =    -0.00006460    0.00023733   -0.00006410
     atom   36 type  2   force =    -0.00011791    0.00009308   -0.00000024
     atom   37 type  1   force =    -0.00002793    0.00006844   -0.00020438
     atom   38 type  1   force =    -0.00007296    0.00000279    0.00010985
     atom   39 type  2   force =     0.00022541   -0.00003783    0.00015332
     atom   40 type  2   force =    -0.00030157    0.00024301   -0.00004880
     atom   41 type  2   force =     0.00016964    0.00044991    0.00011539
     atom   42 type  2   force =    -0.00010229    0.00011329    0.00031160
     atom   43 type  1   force =    -0.00033982    0.00027780    0.00010057
     atom   44 type  1   force =    -0.00015437   -0.00023407   -0.00013025
     atom   45 type  2   force =     0.00001788   -0.00007328    0.10391540
     atom   46 type  2   force =    -0.07040221   -0.00010071   -0.02688611
     atom   47 type  2   force =     0.07025065    0.00032425   -0.02693713
     atom   48 type  3   force =    -0.00307673   -0.00121844   -0.00505806
     atom   49 type  4   force =    -0.00228621    0.00017910    0.01860508
     atom   50 type  5   force =     0.00073953    0.00100395   -0.00186448
     atom   51 type  5   force =     0.00319650    0.00183098   -0.00967352
     atom   52 type  5   force =     0.00195334   -0.00262471   -0.00277569
     atom   53 type  5   force =     0.00046607    0.00080107    0.00169259
     atom   54 type  5   force =     0.00075372    0.00042308   -0.00022485

     Total force =     0.366944     Total SCF correction =     0.000460
  @ DRIVER MODE: Message from server: STATUS
  @ DRIVER MODE: Message from server: GETFORCE
  @ DRIVER MODE: Returning v,forces,stress,ensemble

     Writing output data file ./calc.save/
  @ DRIVER MODE: Message from server: EXIT
  @ DRIVE MODE: Exiting

     General routines

     Parallel routines

   This run was terminated on:  14:55:57  20Jul2021

   JOB DONE.