     Program PWSCF v.6.7GPU starts on  9Sep2021 at  4:32:51

     R & G space division:  proc/nbgrp/npool/nimage =      10
     Reading input from /storage/home/hcoda1/3/ntian30/research/carbon/CxH_vib/CH2_calc/ads_slab/CH2NNHH_a/out_0020/pw.inp
Warning: card &CELL ignored
Warning: card   CELL_DYNAMICS='IPI', ignored
Warning: card / ignored

     Current dimensions of program PWSCF are:
     Max number of different atomic species (ntypx) = 10
     Max number of k-points (npk) =  40000
     Max angular momentum in pseudopotentials (lmaxx) =  3
     Presently no symmetry can be used with electric field

     Message from routine cell_base_init:
     DEPRECATED: use true lattice parameter, not A to a.u. conversion factor

     IMPORTANT: XC functional enforced from input :
     Exchange-correlation= BEEF-VDW
                           (   1   4  43  14   2   0   0)
     Any further DFT definition will be discarded
     Please, verify this is what you really want

  @ DRIVER MODE: Connecting to
 qe_1139763_2767391.sched-torque.pace.gatech.edutef4wpn5_scratch
  using UNIX socket
  @ DRIVER MODE: Message from server: STATUS
  @ DRIVER MODE: Message from server: INIT
  @ DRIVER MODE: Receiving replica           0          -1
  @ DRIVER MODE: Receiving encoded integer          25
  @ DRIVER MODE:  SCF:  T  FORCE:  T  STRESS:  F  VC:  F  ENSEMBLE:  F
  @ DRIVER MODE:  SCF:  T  FORCE:  T  STRESS:  F  VC:  F  ENSEMBLE:  F

     Using Slab Decomposition

     bravais-lattice index     =            0
     lattice parameter (alat)  =       1.8897  a.u.
     unit-cell volume          =    6658.9804 (a.u.)^3
     number of atoms/cell      =           54
     number of atomic types    =            5
     number of electrons       =       396.00
     number of Kohn-Sham states=          208
     kinetic-energy cutoff     =      29.3995  Ry
     charge density cutoff     =     293.9946  Ry
     scf convergence threshold =      7.3E-08
     mixing beta               =       0.0500
     number of iterations used =            8  plain     mixing
     Exchange-correlation= BEEF-VDW
                           (   1   4  43  14   2   0   0)

     celldm(1)=   1.889726  celldm(2)=   0.000000  celldm(3)=   0.000000
     celldm(4)=   0.000000  celldm(5)=   0.000000  celldm(6)=   0.000000

     crystal axes: (cart. coord. in units of alat)
               a(1) = (   6.579727   0.000000   0.000000 )
               a(2) = (  -0.000775   5.961596   0.000000 )
               a(3) = (   0.000000   0.000000  25.155947 )

     reciprocal axes: (cart. coord. in units 2 pi/alat)
               b(1) = (  0.151982  0.000020  0.000000 )
               b(2) = (  0.000000  0.167740  0.000000 )
               b(3) = (  0.000000  0.000000  0.039752 )

     PseudoPot. # 1 for Ti read from file:
     /storage/coda1/p-amedford6/0/shared/rich_project_chbe-medford/medford-share/data/pseudos_module/espresso/nninc/pbe/van/Ti.UPF
     MD5 check sum: 8e4df49b7f0d34bbd5052bf3f5ea0213
     Pseudo is Ultrasoft, Zval = 12.0
     Generated by new atomic code, or converted to UPF format
     Using radial grid of  851 points,  6 beta functions with:
                l(1) =   0
                l(2) =   0
                l(3) =   1
                l(4) =   1
                l(5) =   2
                l(6) =   2
     Q(r) pseudized with  8 coefficients,  rinner =    1.000   1.000   1.000
                                                       1.000   1.000

     PseudoPot. # 2 for O  read from file:
     /storage/coda1/p-amedford6/0/shared/rich_project_chbe-medford/medford-share/data/pseudos_module/espresso/nninc/pbe/van/O.UPF
     MD5 check sum: 78c19812648e8988a0fe644b0f25305e
     Pseudo is Ultrasoft, Zval =  6.0
     Generated by new atomic code, or converted to UPF format
     Using radial grid of  737 points,  4 beta functions with:
                l(1) =   0
                l(2) =   0
                l(3) =   1
                l(4) =   1
     Q(r) pseudized with  8 coefficients,  rinner =    0.800   0.800   0.800

     PseudoPot. # 3 for N  read from file:
     /storage/coda1/p-amedford6/0/shared/rich_project_chbe-medford/medford-share/data/pseudos_module/espresso/nninc/pbe/van/N.UPF
     MD5 check sum: 90d10febe142ad51ac9d5be1deb811c4
     Pseudo is Ultrasoft, Zval =  5.0
     Generated by new atomic code, or converted to UPF format
     Using radial grid of  729 points,  4 beta functions with:
                l(1) =   0
                l(2) =   0
                l(3) =   1
                l(4) =   1
     Q(r) pseudized with  8 coefficients,  rinner =    0.800   0.800   0.800

     PseudoPot. # 4 for C  read from file:
     /storage/coda1/p-amedford6/0/shared/rich_project_chbe-medford/medford-share/data/pseudos_module/espresso/nninc/pbe/van/C.UPF
     MD5 check sum: 1a69bf6b8db32088f5b2163dbdb77a27
     Pseudo is Ultrasoft, Zval =  4.0
     Generated by new atomic code, or converted to UPF format
     Using radial grid of  721 points,  4 beta functions with:
                l(1) =   0
                l(2) =   0
                l(3) =   1
                l(4) =   1
     Q(r) pseudized with  8 coefficients,  rinner =    0.800   0.800   0.800

     PseudoPot. # 5 for H  read from file:
     /storage/coda1/p-amedford6/0/shared/rich_project_chbe-medford/medford-share/data/pseudos_module/espresso/nninc/pbe/van/H.UPF
     MD5 check sum: b5ee9d7bfd3a09ee7748110bda690ff7
     Pseudo is Ultrasoft, Zval =  1.0
     Generated by new atomic code, or converted to UPF format
     Using radial grid of  615 points,  1 beta functions with:
                l(1) =   0
     Q(r) pseudized with  8 coefficients,  rinner =    0.800

     atomic species   valence    mass     pseudopotential
        Ti1           12.00    47.86700     Ti( 1.00)
        O1             6.00    15.99900     O ( 1.00)
        N1             5.00    14.00700     N ( 1.00)
        C1             4.00    12.01100     C ( 1.00)
        H1             1.00     1.00800     H ( 1.00)

     No symmetry found

   Cartesian axes

     site n.     atom                  positions (alat units)
         1           Ti1 tau(   1) = (   0.0004258   2.9801865   6.0000000  )
         2           Ti1 tau(   2) = (   3.2906075   1.4906267   6.0002472  )
         3           O1  tau(   3) = (   0.0006271   0.0005054   7.9858123  )
         4           O1  tau(   4) = (   3.2906025   0.0005020   7.3038282  )
         5           O1  tau(   5) = (   4.5942328   1.4918067   9.2879030  )
         6           O1  tau(   6) = (   1.9868534   1.4903216   9.2879459  )
         7           Ti1 tau(   7) = (   3.2907910   2.8959150   9.1758416  )
         8           Ti1 tau(   8) = (   0.0015273   1.4827037   9.2680791  )
         9           O1  tau(   9) = (   3.2741875   5.9357071  11.3735532  )
        10           O1  tau(  10) = (   0.0116148   5.9584955  10.6183126  )
        11           O1  tau(  11) = (   1.2759687   1.4857368  12.6615302  )
        12           O1  tau(  12) = (   5.2764777   1.4850508  12.6403612  )
        13           Ti1 tau(  13) = (   6.5724762   2.9646551  12.5117882  )
        14           Ti1 tau(  14) = (   3.2886223   1.4652571  12.5194246  )
        15           O1  tau(  15) = (   6.5416971   0.0664024  14.6986244  )
        16           O1  tau(  16) = (   3.2828258   5.9593040  13.9967703  )
        17           O1  tau(  17) = (   4.5136565   1.4796660  16.2299008  )
        18           O1  tau(  18) = (   2.0038615   1.4742267  16.2123189  )
        19           Ti1 tau(  19) = (   3.2480181   2.9445974  15.7466143  )
        20           Ti1 tau(  20) = (   6.5118905   1.3801257  16.1190456  )
        21           O1  tau(  21) = (   3.2904802   0.0005063   4.7018136  )
        22           O1  tau(  22) = (   6.5538845   5.8109167  17.2256470  )
        23           O1  tau(  23) = (   1.3043587   1.4918075   6.0039043  )
        24           O1  tau(  24) = (   5.2767064   1.4903225   6.0039473  )
        25           Ti1 tau(  25) = (   0.0000382   5.9609847   6.0000000  )
        26           Ti1 tau(  26) = (   3.2902200   4.4714249   6.0002472  )
        27           O1  tau(  27) = (   0.0002396   2.9813036   7.9858123  )
        28           O1  tau(  28) = (   3.2902150   2.9813002   7.3038282  )
        29           O1  tau(  29) = (   4.5938453   4.4726049   9.2879030  )
        30           O1  tau(  30) = (   1.9864658   4.4711199   9.2879459  )
        31           Ti1 tau(  31) = (   3.2891106   5.8743827   9.1763621  )
        32           Ti1 tau(  32) = (   0.0006254   4.4649316   9.2693709  )
        33           O1  tau(  33) = (   3.2754078   2.9701464  11.3677572  )
        34           O1  tau(  34) = (   0.0092240   2.9805883  10.6323155  )
        35           O1  tau(  35) = (   1.2711598   4.4556272  12.7031535  )
        36           O1  tau(  36) = (   5.2783420   4.4558858  12.6781970  )
        37           Ti1 tau(  37) = (   0.0002938   5.9583472  12.5066983  )
        38           Ti1 tau(  38) = (   3.2916940   4.4447674  12.5292973  )
        39           O1  tau(  39) = (   6.5347695   2.9176514  14.9891124  )
        40           O1  tau(  40) = (   3.2818703   2.9467213  13.9608579  )
        41           O1  tau(  41) = (   4.5039121   4.4250859  16.1805084  )
        42           O1  tau(  42) = (   2.0002864   4.4376668  16.1101511  )
        43           Ti1 tau(  43) = (   3.2613398   5.9375382  15.7939200  )
        44           Ti1 tau(  44) = (   0.0097882   4.6113729  15.8292928  )
        45           O1  tau(  45) = (   3.2900926   2.9813045   4.7018136  )
        46           O1  tau(  46) = (   1.3039711   4.4726057   6.0039043  )
        47           O1  tau(  47) = (   5.2763189   4.4711207   6.0039473  )
        48           N1  tau(  48) = (   6.5527080   2.6566917  18.2311642  )
        49           C1  tau(  49) = (   0.9950107   2.5313988  18.9921798  )
        50           H1  tau(  50) = (   0.9966315   2.9146593  20.0110098  )
        51           H1  tau(  51) = (   1.8722571   2.0164067  18.6108951  )
        52           N1  tau(  52) = (   5.4094651   3.2293427  18.7544413  )
        53           H1  tau(  53) = (   5.6216840   3.8708726  19.5154782  )
        54           H1  tau(  54) = (   4.9168071   3.7283298  18.0160565  )

     number of k points=    10  Fermi-Dirac smearing, width (Ry)=  0.0073
                       cart. coord. in units 2pi/alat
        k(    1) = (   0.0000000   0.0000000   0.0000000), wk =   0.1250000
        k(    2) = (   0.0000000   0.0419351   0.0000000), wk =   0.2500000
        k(    3) = (   0.0000000  -0.0838702   0.0000000), wk =   0.1250000
        k(    4) = (   0.0379955   0.0000049   0.0000000), wk =   0.2500000
        k(    5) = (   0.0379955   0.0419400   0.0000000), wk =   0.2500000
        k(    6) = (   0.0379955  -0.0838652   0.0000000), wk =   0.2500000
        k(    7) = (   0.0379955  -0.0419301   0.0000000), wk =   0.2500000
        k(    8) = (  -0.0759910  -0.0000099   0.0000000), wk =   0.1250000
        k(    9) = (  -0.0759910   0.0419252   0.0000000), wk =   0.2500000
        k(   10) = (  -0.0759910  -0.0838800   0.0000000), wk =   0.1250000

     Initial potential from superposition of free atoms

     starting charge  379.99915, renormalised to  396.00000

     negative rho (up, down):  1.580E-02 0.000E+00

     %%%%%%%%%%%%%%%%%%%%%%%%%%%%%%%%%%%%%%%%%%%%%%%%%%%%%%%%%%%%%%%%%%%%%%%%
     %                                                                      %
     % You are using vdW-DF, which was implemented by the Thonhauser group. %
     % Please cite the following two papers that made this development      %
     % possible and the two reviews that describe the various versions:     %
     %                                                                      %
     %   T. Thonhauser et al., PRL 115, 136402 (2015).                      %
     %   T. Thonhauser et al., PRB 76, 125112 (2007).                       %
     %   K. Berland et al., Rep. Prog. Phys. 78, 066501 (2015).             %
     %   D.C. Langreth et al., J. Phys.: Condens. Matter 21, 084203 (2009). %
     %                                                                      %
     %                                                                      %
     % If you are calculating the stress with vdW-DF, please also cite:     %
     %                                                                      %
     %   R. Sabatini et al., J. Phys.: Condens. Matter 24, 424209 (2012).   %
     %                                                                      %
     %%%%%%%%%%%%%%%%%%%%%%%%%%%%%%%%%%%%%%%%%%%%%%%%%%%%%%%%%%%%%%%%%%%%%%%%

     Adding external electric field

     Computed dipole along edir(3) :
        Dipole               -9.9798 Ry au,        -25.3661 Debye
        Dipole field         -0.0188 Ry au,

        Potential amp.        1.7458 Ry
        Total length         46.3494 bohr

     Starting wfcs are  300 atomic wfcs
  @ DRIVER MODE: Message from server: STATUS
  @ DRIVER MODE: Message from server: POSDATA
  @ DRIVER MODE: Reading and sharing cell
  @ DRIVER MODE: Reading and sharing positions
  @ DRIVER MODE: Received positions

     Self-consistent Calculation

     iteration #  1     ecut=    29.40 Ry     beta= 0.05
     Davidson diagonalization with overlap
     c_bands:  1 eigenvalues not converged
     c_bands:  2 eigenvalues not converged
     c_bands:  2 eigenvalues not converged
     c_bands:  1 eigenvalues not converged
     c_bands:  3 eigenvalues not converged
     c_bands:  2 eigenvalues not converged
     c_bands:  3 eigenvalues not converged
     c_bands:  2 eigenvalues not converged
     c_bands:  1 eigenvalues not converged
     c_bands:  1 eigenvalues not converged
     ethr =  1.00E-05,  avg # of iterations = 20.0

[...]

     total energy              =   -2515.80376367 Ry
     estimated scf accuracy    <    4741.17015426 Ry

     iteration #  2     ecut=    29.40 Ry     beta= 0.05
     Davidson diagonalization with overlap
     ethr =  1.00E-02,  avg # of iterations = 23.3

[...]

     iteration # 84     ecut=    29.40 Ry     beta= 0.05
     Davidson diagonalization with overlap
     c_bands:  1 eigenvalues not converged
     ethr =  5.91E-11,  avg # of iterations =  8.5

[...]

     total energy              =   -2940.36660819 Ry
     estimated scf accuracy    <       0.00000010 Ry

     iteration # 89     ecut=    29.40 Ry     beta= 0.05
     Davidson diagonalization with overlap
     ethr =  2.64E-11,  avg # of iterations =  8.3

     negative rho (up, down):  1.643E-02 0.000E+00

     Adding external electric field

     Computed dipole along edir(3) :
        Dipole                1.2629 Ry au,          3.2100 Debye
        Dipole field          0.0024 Ry au,

        Potential amp.       -0.2209 Ry
        Total length         46.3494 bohr

     End of self-consistent calculation

          k = 0.0000 0.0000 0.0000 ( 18029 PWs)   bands (ev):

   -55.4181 -55.3813 -55.3698 -55.3357 -55.2973 -55.2935 -55.2877 -55.2627
   -55.2359 -55.2196 -55.2015 -55.2012 -55.1677 -55.0510 -54.3977 -54.3637
   -31.9872 -31.8622 -31.8196 -31.7855 -31.7315 -31.7255 -31.7207 -31.7068
   -31.6590 -31.6516 -31.6283 -31.6272 -31.6149 -31.5882 -31.5731 -31.5681
   -31.5556 -31.5548 -31.5335 -31.5280 -31.5222 -31.5124 -31.4836 -31.4747
   -31.4666 -31.4640 -31.4383 -31.4282 -31.4269 -31.4212 -31.4188 -31.4000
   -31.3992 -31.3938 -31.3865 -31.3840 -31.3499 -31.3367 -31.3296 -31.3126
   -31.2725 -31.2154 -30.8070 -30.7131 -30.6910 -30.6235 -30.5367 -30.4257
   -18.5939 -16.2498 -15.9811 -15.8386 -15.7143 -15.6152 -15.4906 -15.4686
   -15.3411 -15.2561 -15.1427 -15.0986 -15.0870 -15.0837 -15.0508 -15.0239
   -14.9595 -14.9549 -14.9373 -14.9108 -14.9002 -14.8572 -14.8539 -14.8125
   -14.7919 -14.7899 -14.6637 -14.5747 -14.5043 -14.1813 -13.6692 -12.9002
   -12.7828  -8.7397  -6.4734  -6.0575  -3.9765  -3.5907  -3.4347  -3.3783
    -3.3367  -3.3098  -3.2015  -3.1631  -3.0232  -2.8265  -2.7777  -2.6876
    -2.6255  -2.6171  -2.5981  -2.4171  -2.4097  -2.3531  -2.3028  -2.2609
    -2.2386  -2.2244  -2.2053  -2.1801  -2.1696  -2.1593  -1.9861  -1.9705
    -1.8994  -1.8256  -1.8158  -1.7653  -1.7445  -1.7138  -1.7057  -1.6976
    -1.6525  -1.6330  -1.6028  -1.5547  -1.4293  -1.3382  -1.3063  -1.2257
    -1.0986  -1.0534  -1.0013  -0.9982  -0.9054  -0.9016  -0.8806  -0.7953
    -0.7620  -0.7121  -0.6401  -0.5715  -0.5151  -0.4564  -0.4092  -0.3990
    -0.3441  -0.2271  -0.2014  -0.1825  -0.1606  -0.0399  -0.0214   0.0189
     0.0933   0.1235   0.1244   0.2412   0.2671   0.3250   0.3296   0.4060
     0.4669   0.5114   0.5205   0.5393   0.5684   0.5715   0.6462   0.6593
     0.6896   0.7597   0.8283   0.9178   1.1474   1.1836   1.1968   1.5298
     1.5318   1.6252   1.8089   2.2009   2.2490   3.6812   3.7511   3.8258
     3.8321   3.8503   3.9188   4.1553   4.1734   4.1814   4.1869   4.2298

[...]

          k = 0.0380-0.0419 0.0000 ( 17876 PWs)   bands (ev):

[...]

          k =-0.0760-0.0000 0.0000 ( 17886 PWs)   bands (ev):

[...]

          k =-0.0760-0.0839 0.0000 ( 17948 PWs)   bands (ev):

   -55.4034 -55.3958 -55.3528 -55.3526 -55.2883 -55.2873 -55.2817 -55.2783
   -55.2238 -55.2203 -55.2165 -55.1849 -55.1844 -55.0523 -54.3807 -54.3806
   -31.7935 -31.7879 -31.7467 -31.6942 -31.6805 -31.6774 -31.6772 -31.6443
   -31.6443 -31.6282 -31.6192 -31.6144 -31.6099 -31.5631 -31.5557 -31.5535
   -31.5513 -31.5493 -31.5440 -31.5387 -31.5235 -31.5107 -31.4939 -31.4936
   -31.4895 -31.4753 -31.4737 -31.4724 -31.4721 -31.4705 -31.4535 -31.4494
   -31.4435 -31.4334 -31.4300 -31.4152 -31.4142 -31.4106 -31.3654 -31.3652
   -31.2937 -31.2761 -30.7037 -30.7037 -30.6195 -30.6194 -30.5802 -30.5801
   -18.5914 -15.7120 -15.6790 -15.6216 -15.4412 -15.4135 -15.4068 -15.3877
   -15.2576 -15.2411 -15.2102 -15.1808 -15.1497 -15.1244 -15.1202 -15.1023
   -15.0324 -15.0216 -15.0134 -14.9959 -14.9304 -14.9264 -14.9176 -14.9129
   -14.8660 -14.8632 -14.7679 -14.7664 -14.6662 -14.5502 -13.6749 -12.8843
   -12.8842  -8.7214  -6.4466  -6.0720  -3.9846  -3.2638  -2.9451  -2.8785
    -2.8500  -2.6530  -2.6294  -2.5867  -2.5314  -2.4513  -2.4253  -2.4186
    -2.4098  -2.3387  -2.3273  -2.2775  -2.2684  -2.2493  -2.2340  -2.2235
    -2.1940  -2.1681  -2.1441  -2.1352  -2.1237  -2.0700  -2.0593  -2.0418
    -2.0114  -1.9915  -1.9825  -1.9657  -1.8664  -1.7823  -1.7528  -1.7256
    -1.6216  -1.6172  -1.5370  -1.5210  -1.4897  -1.4488  -1.4359  -1.4156
    -1.2336  -1.2046  -1.1725  -1.1597  -1.1513  -1.0121  -0.9982  -0.9422
    -0.9012  -0.8952  -0.7862  -0.7622  -0.7372  -0.6610  -0.6253  -0.5916
    -0.5396  -0.4347  -0.4170  -0.4058  -0.3730  -0.3689  -0.3130  -0.3009
    -0.2258  -0.1836  -0.1507  -0.1368  -0.0940   0.0941   0.1174   0.1322
     0.2756   0.3310   0.4246   0.5245   0.5347   0.5904   0.6292   0.6957
     0.7568   0.8187   0.8703   0.8915   0.8928   0.9713   0.9890   1.0425
     1.0444   1.9820   1.9827   2.0689   2.0693   3.8237   3.9323   3.9435
     3.9840   4.0660   4.1246   4.1975   4.2259   4.2648   4.2672   4.3383

     the Fermi energy is     3.7431 ev

!    total energy              =   -2940.36661362 Ry
     estimated scf accuracy    <       0.00000005 Ry
     smearing contrib. (-TS)   =      -0.03728407 Ry
     internal energy E=F+TS    =   -2940.32932955 Ry

     The total energy is F=E-TS. E is the sum of the following terms:
     one-electron contribution =  -23758.95611409 Ry
     hartree contribution      =   11970.81951694 Ry
     xc contribution           =    -486.11106430 Ry
     ewald contribution        =    9333.91532196 Ry
     electric field correction =       0.00300994 Ry

     convergence has been achieved in  89 iterations

     Forces acting on atoms (cartesian axes, Ry/au):

     atom    1 type  1   force =     0.00006867   -0.00013432    0.09327066
     atom    2 type  1   force =    -0.00005334   -0.00026170   -0.17807770
     atom    3 type  2   force =     0.00002264   -0.00015231   -0.02025108
     atom    4 type  2   force =     0.00000997   -0.00195830    0.05852291
     atom    5 type  2   force =    -0.01065497   -0.00127177    0.00869919
     atom    6 type  2   force =     0.01175096   -0.00061757    0.00681965
     atom    7 type  1   force =    -0.00091689    0.00298531   -0.01443158
     atom    8 type  1   force =     0.00063880   -0.00048247   -0.00370615
     atom    9 type  2   force =     0.00014391    0.00010423    0.00007552
     atom   10 type  2   force =    -0.00209403   -0.00121472    0.00063070
     atom   11 type  2   force =     0.00006996    0.00021745   -0.00013061
     atom   12 type  2   force =     0.00058238    0.00028671   -0.00007961
     atom   13 type  1   force =    -0.00013995    0.00029080    0.00008791
     atom   14 type  1   force =     0.00013255    0.00046657   -0.00039214
     atom   15 type  2   force =     0.00001646    0.00043950   -0.00008993
     atom   16 type  2   force =     0.00042105    0.00016946   -0.00034403
     atom   17 type  2   force =     0.00027337   -0.00034982   -0.00035805
     atom   18 type  2   force =     0.00019707   -0.00054963    0.00004307
     atom   19 type  1   force =    -0.00094051   -0.00008484    0.00020047
     atom   20 type  1   force =     0.00025716   -0.00005406   -0.00017042
     atom   21 type  2   force =     0.00009777    0.00000452    0.10396312
     atom   22 type  2   force =    -0.00021873    0.00008477    0.00016505
     atom   23 type  2   force =    -0.07041504   -0.00012140   -0.02690017
     atom   24 type  2   force =     0.07034865    0.00033435   -0.02693616
     atom   25 type  1   force =     0.00008724   -0.00022551    0.09281743
     atom   26 type  1   force =    -0.00005166   -0.00033718   -0.17806929
     atom   27 type  2   force =     0.00011200   -0.00037110   -0.01931400
     atom   28 type  2   force =     0.00004189   -0.00165433    0.05794492
     atom   29 type  2   force =    -0.01064661   -0.00127787    0.00802492
     atom   30 type  2   force =     0.01165193   -0.00088614    0.00608545
     atom   31 type  1   force =    -0.00089699    0.00488960   -0.01541767
     atom   32 type  1   force =     0.00083127    0.00018185   -0.00391363
     atom   33 type  2   force =     0.00010292    0.00046434    0.00020505
     atom   34 type  2   force =    -0.00177135    0.00109191    0.00069657
     atom   35 type  2   force =     0.00030535    0.00006594    0.00007053
     atom   36 type  2   force =     0.00027552   -0.00024714    0.00017970
     atom   37 type  1   force =    -0.00035517    0.00002191   -0.00009769
     atom   38 type  1   force =    -0.00023783    0.00050110   -0.00015717
     atom   39 type  2   force =     0.00048801   -0.00072932   -0.00008161
     atom   40 type  2   force =    -0.00015394    0.00007226   -0.00003408
     atom   41 type  2   force =     0.00011011   -0.00010728   -0.00015182
     atom   42 type  2   force =     0.00016914    0.00010853   -0.00002134
     atom   43 type  1   force =    -0.00026355   -0.00012173    0.00012091
     atom   44 type  1   force =     0.00013155    0.00008549   -0.00015366
     atom   45 type  2   force =     0.00010869   -0.00003204    0.10392759
     atom   46 type  2   force =    -0.07043098   -0.00005175   -0.02689814
     atom   47 type  2   force =     0.07038444    0.00037435   -0.02690645
     atom   48 type  3   force =     0.00028274   -0.00020490   -0.00092739
     atom   49 type  4   force =     0.00946589   -0.00453848   -0.00278347
     atom   50 type  5   force =     0.00036197   -0.00010725    0.00056324
     atom   51 type  5   force =    -0.00955468    0.00456143    0.00259587
     atom   52 type  3   force =     0.00031037    0.00069138    0.00038103
     atom   53 type  5   force =    -0.00025312   -0.00031849    0.00101025
     atom   54 type  5   force =    -0.00020306   -0.00003034   -0.00030670

     Total force =     0.366240     Total SCF correction =     0.000931
  @ DRIVER MODE: Message from server: STATUS
  @ DRIVER MODE: Message from server: GETFORCE
  @ DRIVER MODE: Returning v,forces,stress,ensemble

     Writing output data file ./calc.save/
  @ DRIVER MODE: Message from server: EXIT
  @ DRIVE MODE: Exiting

     General routines

     Parallel routines

   This run was terminated on:   4:55:31   9Sep2021

   JOB DONE.