     Program PWSCF v.6.7GPU starts on 12Oct2021 at 14: 3:43

     R & G space division:  proc/nbgrp/npool/nimage =       8
     Reading input from /storage/home/hcoda1/3/ntian30/research/carbon/ACS_vib/ads_slab/N2H/out_0013/pw.inp
Warning: card &CELL ignored
Warning: card   CELL_DYNAMICS='IPI', ignored
Warning: card / ignored

     Current dimensions of program PWSCF are:
     Max number of different atomic species (ntypx) = 10
     Max number of k-points (npk) =  40000
     Max angular momentum in pseudopotentials (lmaxx) =  3
     Presently no symmetry can be used with electric field

     Message from routine cell_base_init:
     DEPRECATED: use true lattice parameter, not A to a.u. conversion factor

     IMPORTANT: XC functional enforced from input :
     Exchange-correlation= BEEF-VDW
                           (   1   4  43  14   2   0   0)
     Any further DFT definition will be discarded
     Please, verify this is what you really want

  @ DRIVER MODE: Connecting to
 qe_1139763_3181314.sched-torque.pace.gatech.edunup5i9sc_scratch
  using UNIX socket
  @ DRIVER MODE: Message from server: STATUS
  @ DRIVER MODE: Message from server: INIT
  @ DRIVER MODE: Receiving replica           0          -1
  @ DRIVER MODE: Receiving encoded integer          25
  @ DRIVER MODE:  SCF:  T  FORCE:  T  STRESS:  F  VC:  F  ENSEMBLE:  F
  @ DRIVER MODE:  SCF:  T  FORCE:  T  STRESS:  F  VC:  F  ENSEMBLE:  F

     Using Slab Decomposition

     bravais-lattice index     =            0
     lattice parameter (alat)  =       1.8897  a.u.
     unit-cell volume          =    6658.9804 (a.u.)^3
     number of atoms/cell      =           50
     number of atomic types    =            4
     number of electrons       =       389.00
     number of Kohn-Sham states=          204
     kinetic-energy cutoff     =      29.3995  Ry
     charge density cutoff     =     293.9946  Ry
     scf convergence threshold =      7.3E-08
     mixing beta               =       0.0500
     number of iterations used =            8  plain     mixing
     Exchange-correlation= BEEF-VDW
                           (   1   4  43  14   2   0   0)

     celldm(1)=   1.889726  celldm(2)=   0.000000  celldm(3)=   0.000000
     celldm(4)=   0.000000  celldm(5)=   0.000000  celldm(6)=   0.000000

     crystal axes: (cart. coord. in units of alat)
               a(1) = (   6.579727   0.000000   0.000000 )
               a(2) = (  -0.000775   5.961596   0.000000 )
               a(3) = (   0.000000   0.000000  25.155947 )

     reciprocal axes: (cart. coord. in units 2 pi/alat)
               b(1) = (  0.151982  0.000020  0.000000 )
               b(2) = (  0.000000  0.167740  0.000000 )
               b(3) = (  0.000000  0.000000  0.039752 )

     PseudoPot. # 1 for Ti read from file:
     /storage/coda1/p-amedford6/0/shared/rich_project_chbe-medford/medford-share/data/pseudos_module/espresso/nninc/pbe/van/Ti.UPF
     MD5 check sum: 8e4df49b7f0d34bbd5052bf3f5ea0213
     Pseudo is Ultrasoft, Zval = 12.0
     Generated by new atomic code, or converted to UPF format
     Using radial grid of  851 points,  6 beta functions with:
                l(1) =   0
                l(2) =   0
                l(3) =   1
                l(4) =   1
                l(5) =   2
                l(6) =   2
     Q(r) pseudized with  8 coefficients,  rinner =    1.000   1.000   1.000
                                                       1.000   1.000

     PseudoPot. # 2 for O  read from file:
     /storage/coda1/p-amedford6/0/shared/rich_project_chbe-medford/medford-share/data/pseudos_module/espresso/nninc/pbe/van/O.UPF
     MD5 check sum: 78c19812648e8988a0fe644b0f25305e
     Pseudo is Ultrasoft, Zval =  6.0
     Generated by new atomic code, or converted to UPF format
     Using radial grid of  737 points,  4 beta functions with:
                l(1) =   0
                l(2) =   0
                l(3) =   1
                l(4) =   1
     Q(r) pseudized with  8 coefficients,  rinner =    0.800   0.800   0.800

     PseudoPot. # 3 for N  read from file:
     /storage/coda1/p-amedford6/0/shared/rich_project_chbe-medford/medford-share/data/pseudos_module/espresso/nninc/pbe/van/N.UPF
     MD5 check sum: 90d10febe142ad51ac9d5be1deb811c4
     Pseudo is Ultrasoft, Zval =  5.0
     Generated by new atomic code, or converted to UPF format
     Using radial grid of  729 points,  4 beta functions with:
                l(1) =   0
                l(2) =   0
                l(3) =   1
                l(4) =   1
     Q(r) pseudized with  8 coefficients,  rinner =    0.800   0.800   0.800

     PseudoPot. # 4 for H  read from file:
     /storage/coda1/p-amedford6/0/shared/rich_project_chbe-medford/medford-share/data/pseudos_module/espresso/nninc/pbe/van/H.UPF
     MD5 check sum: b5ee9d7bfd3a09ee7748110bda690ff7
     Pseudo is Ultrasoft, Zval =  1.0
     Generated by new atomic code, or converted to UPF format
     Using radial grid of  615 points,  1 beta functions with:
                l(1) =   0
     Q(r) pseudized with  8 coefficients,  rinner =    0.800

     atomic species   valence    mass     pseudopotential
        Ti1           12.00    47.86700     Ti( 1.00)
        O1             6.00    15.99900     O ( 1.00)
        N1             5.00    14.00700     N ( 1.00)
        H1             1.00     1.00800     H ( 1.00)

     No symmetry found

   Cartesian axes

     site n.     atom                  positions (alat units)
         1           Ti1 tau(   1) = (   0.0004258   2.9801865   6.0000000  )
         2           Ti1 tau(   2) = (   3.2906075   1.4906267   6.0002472  )
         3           O1  tau(   3) = (   0.0006271   0.0005054   7.9858123  )
         4           O1  tau(   4) = (   3.2906025   0.0005020   7.3038282  )
         5           O1  tau(   5) = (   4.5942328   1.4918067   9.2879030  )
         6           O1  tau(   6) = (   1.9868534   1.4903216   9.2879459  )
         7           Ti1 tau(   7) = (   3.2913060   3.0378612   9.1552972  )
         8           Ti1 tau(   8) = (   0.0009381   1.5839581   9.3521326  )
         9           O1  tau(   9) = (   3.2925928   0.0151421  11.3436145  )
        10           O1  tau(  10) = (   0.0015930   0.0098544  10.5931849  )
        11           O1  tau(  11) = (   1.2954366   1.5088831  12.6205452  )
        12           O1  tau(  12) = (   5.2873992   1.5081763  12.6209847  )
        13           Ti1 tau(  13) = (   0.0062007   3.0223002  12.7522649  )
        14           Ti1 tau(  14) = (   3.2997597   1.5103467  12.4821987  )
        15           O1  tau(  15) = (   0.0040346   0.0184607  14.6317695  )
        16           O1  tau(  16) = (   3.2910281   0.0168284  13.9441510  )
        17           O1  tau(  17) = (   4.5375602   1.5179921  16.0890948  )
        18           O1  tau(  18) = (   2.0457139   1.5162684  16.0851288  )
        19           Ti1 tau(  19) = (   3.2874297   2.9968575  15.7108406  )
        20           Ti1 tau(  20) = (   6.5695515   1.3443907  16.0039228  )
        21           O1  tau(  21) = (   3.2904802   0.0005063   4.7018136  )
        22           O1  tau(  22) = (   0.0014600   0.0364584  17.1914435  )
        23           O1  tau(  23) = (   1.3043587   1.4918075   6.0039043  )
        24           O1  tau(  24) = (   5.2767064   1.4903225   6.0039473  )
        25           Ti1 tau(  25) = (   0.0000382   5.9609847   6.0000000  )
        26           Ti1 tau(  26) = (   3.2902200   4.4714249   6.0002472  )
        27           O1  tau(  27) = (   0.0002396   2.9813036   7.9858123  )
        28           O1  tau(  28) = (   3.2902150   2.9813002   7.3038282  )
        29           O1  tau(  29) = (   4.5938453   4.4726049   9.2879030  )
        30           O1  tau(  30) = (   1.9864658   4.4711199   9.2879459  )
        31           Ti1 tau(  31) = (   3.2910671   0.0593156   9.1538314  )
        32           Ti1 tau(  32) = (   0.0005551   4.5317022   9.3016378  )
        33           O1  tau(  33) = (   3.2922260   2.9941798  11.3385902  )
        34           O1  tau(  34) = (   0.0008704   2.9922752  10.5694424  )
        35           O1  tau(  35) = (   1.2972379   4.4863578  12.6167950  )
        36           O1  tau(  36) = (   5.2846861   4.4861696  12.6173214  )
        37           Ti1 tau(  37) = (   0.0087596   0.0398615  12.5729301  )
        38           Ti1 tau(  38) = (   3.2994502   4.4862820  12.4776038  )
        39           O1  tau(  39) = (   0.0007913   3.0275094  14.6627896  )
        40           O1  tau(  40) = (   3.2912693   2.9957722  13.9146565  )
        41           O1  tau(  41) = (   4.5447272   4.4665429  16.0834370  )
        42           O1  tau(  42) = (   2.0408322   4.4687941  16.0798044  )
        43           Ti1 tau(  43) = (   3.2813896   0.0196903  15.7368506  )
        44           Ti1 tau(  44) = (   6.5682818   4.5002177  15.9516634  )
        45           O1  tau(  45) = (   3.2900926   2.9813045   4.7018136  )
        46           O1  tau(  46) = (   1.3039711   4.4726057   6.0039043  )
        47           O1  tau(  47) = (   5.2763189   4.4711207   6.0039473  )
        48           N1  tau(  48) = (   0.0702777   2.9930733  18.6664031  )
        49           N1  tau(  49) = (   0.0230277   3.0528524  17.4426018  )
        50           H1  tau(  50) = (   0.0765168   1.9966355  18.9942200  )

     number of k points=    10  Fermi-Dirac smearing, width (Ry)=  0.0073
                       cart. coord. in units 2pi/alat
        k(    1) = (   0.0000000   0.0000000   0.0000000), wk =   0.1250000
        k(    2) = (   0.0000000   0.0419351   0.0000000), wk =   0.2500000
        k(    3) = (   0.0000000  -0.0838702   0.0000000), wk =   0.1250000
        k(    4) = (   0.0379955   0.0000049   0.0000000), wk =   0.2500000
        k(    5) = (   0.0379955   0.0419400   0.0000000), wk =   0.2500000
        k(    6) = (   0.0379955  -0.0838652   0.0000000), wk =   0.2500000
        k(    7) = (   0.0379955  -0.0419301   0.0000000), wk =   0.2500000
        k(    8) = (  -0.0759910  -0.0000099   0.0000000), wk =   0.1250000
        k(    9) = (  -0.0759910   0.0419252   0.0000000), wk =   0.2500000
        k(   10) = (  -0.0759910  -0.0838800   0.0000000), wk =   0.1250000

     Initial potential from superposition of free atoms

     starting charge  372.99922, renormalised to  389.00000

     negative rho (up, down):  2.004E-02 0.000E+00

     %%%%%%%%%%%%%%%%%%%%%%%%%%%%%%%%%%%%%%%%%%%%%%%%%%%%%%%%%%%%%%%%%%%%%%%%
     %                                                                      %
     % You are using vdW-DF, which was implemented by the Thonhauser group. %
     % Please cite the following two papers that made this development      %
     % possible and the two reviews that describe the various versions:     %
     %                                                                      %
     %   T. Thonhauser et al., PRL 115, 136402 (2015).                      %
     %   T. Thonhauser et al., PRB 76, 125112 (2007).                       %
     %   K. Berland et al., Rep. Prog. Phys. 78, 066501 (2015).             %
     %   D.C. Langreth et al., J. Phys.: Condens. Matter 21, 084203 (2009). %
     %                                                                      %
     %                                                                      %
     % If you are calculating the stress with vdW-DF, please also cite:     %
     %                                                                      %
     %   R. Sabatini et al., J. Phys.: Condens. Matter 24, 424209 (2012).   %
     %                                                                      %
     %%%%%%%%%%%%%%%%%%%%%%%%%%%%%%%%%%%%%%%%%%%%%%%%%%%%%%%%%%%%%%%%%%%%%%%%

     Adding external electric field

     Computed dipole along edir(3) :
        Dipole               -4.3819 Ry au,        -11.1376 Debye
        Dipole field         -0.0083 Ry au,

        Potential amp.        0.7665 Ry
        Total length         46.3494 bohr

     Starting wfcs are  293 atomic wfcs
  @ DRIVER MODE: Message from server: STATUS
  @ DRIVER MODE: Message from server: POSDATA
  @ DRIVER MODE: Reading and sharing cell
  @ DRIVER MODE: Reading and sharing positions
  @ DRIVER MODE: Received positions

     Self-consistent Calculation

     iteration #  1     ecut=    29.40 Ry     beta= 0.05
     Davidson diagonalization with overlap
     c_bands:  2 eigenvalues not converged
     c_bands:  3 eigenvalues not converged
     c_bands:  5 eigenvalues not converged
     c_bands:  1 eigenvalues not converged
     c_bands:  3 eigenvalues not converged
     c_bands:  4 eigenvalues not converged
     c_bands:  3 eigenvalues not converged
     c_bands:  1 eigenvalues not converged
     c_bands:  3 eigenvalues not converged
     c_bands:  2 eigenvalues not converged
     ethr =  1.00E-05,  avg # of iterations = 20.0

[...]

     total energy              =   -2891.78925907 Ry
     estimated scf accuracy    <     400.62661213 Ry

     iteration #  2     ecut=    29.40 Ry     beta= 0.05
     Davidson diagonalization with overlap
     ethr =  1.00E-02,  avg # of iterations = 13.6

[...]

     iteration # 80     ecut=    29.40 Ry     beta= 0.05
     Davidson diagonalization with overlap
     c_bands:  2 eigenvalues not converged
     ethr =  1.71E-10,  avg # of iterations =  9.0

[...]

     total energy              =   -2925.19967594 Ry
     estimated scf accuracy    <       0.00000017 Ry

     iteration # 86     ecut=    29.40 Ry     beta= 0.05
     Davidson diagonalization with overlap
     ethr =  4.25E-11,  avg # of iterations =  8.6

     negative rho (up, down):  1.932E-02 0.000E+00

     Adding external electric field

     Computed dipole along edir(3) :
        Dipole                0.3735 Ry au,          0.9493 Debye
        Dipole field          0.0007 Ry au,

        Potential amp.       -0.0653 Ry
        Total length         46.3494 bohr

     End of self-consistent calculation

          k = 0.0000 0.0000 0.0000 ( 18029 PWs)   bands (ev):

   -56.2557 -56.2202 -56.2200 -56.1836 -56.1339 -56.0905 -56.0467 -56.0248
   -55.9918 -55.9755 -55.9419 -55.9099 -55.7785 -55.6025 -55.2497 -55.2157
   -32.7857 -32.7177 -32.5671 -32.5593 -32.5407 -32.5390 -32.5162 -32.4668
   -32.4636 -32.4540 -32.4252 -32.4198 -32.4012 -32.3935 -32.3660 -32.3572
   -32.3507 -32.3406 -32.3252 -32.3002 -32.2951 -32.2785 -32.2592 -32.2329
   -32.2308 -32.2300 -32.2165 -32.2100 -32.2017 -32.1904 -32.1639 -32.1487
   -32.1192 -32.1164 -32.0897 -32.0869 -32.0728 -32.0392 -31.9401 -31.8469
   -31.8443 -31.8020 -31.6588 -31.5631 -31.5406 -31.4758 -31.3899 -31.2784
   -18.7009 -16.9600 -16.6630 -16.5074 -16.3682 -16.3389 -16.2290 -16.0123
   -15.9036 -15.8331 -15.8123 -15.7906 -15.7711 -15.7594 -15.7459 -15.7419
   -15.7164 -15.6791 -15.6430 -15.6380 -15.6312 -15.5903 -15.4950 -15.4456
   -15.4131 -15.3627 -15.3527 -15.2551 -15.2120 -15.0040 -13.7497 -13.6317
    -9.0900  -5.3002  -4.3222  -4.1523  -4.1237  -4.0492  -4.0220  -3.7743
    -3.7657  -3.4801  -3.4195  -3.3635  -3.3522  -3.3313  -3.2442  -3.2203
    -3.0904  -3.0627  -3.0398  -3.0057  -2.9976  -2.9803  -2.9681  -2.9534
    -2.9334  -2.8754  -2.7557  -2.6859  -2.6346  -2.6224  -2.5669  -2.5430
    -2.4961  -2.4713  -2.4669  -2.4501  -2.4397  -2.4152  -2.3675  -2.2493
    -2.1959  -2.1322  -2.0341  -2.0138  -1.9303  -1.7783  -1.7208  -1.6574
    -1.6389  -1.6214  -1.5572  -1.5468  -1.4419  -1.4089  -1.4036  -1.3306
    -1.2360  -1.2173  -1.1208  -1.0699  -0.9952  -0.9769  -0.9555  -0.9425
    -0.9175  -0.7242  -0.6909  -0.6671  -0.6289  -0.5951  -0.5237  -0.5049
    -0.4177  -0.4081  -0.3804  -0.3293  -0.3225  -0.2542  -0.2315  -0.2298
    -0.1683  -0.1428   0.0078   0.0281   0.0393   0.1379   0.1460   0.3235
     0.3411   0.4253   0.5371   0.6818   0.7751   0.8814   0.9472   1.3663
     1.4293   2.1966   2.9454   2.9661   2.9981   3.1043   3.1282   3.2203
     3.2660   3.3941   3.4086   3.4501

[...]

          k = 0.0380-0.0419 0.0000 ( 17876 PWs)   bands (ev):

[...]

          k =-0.0760-0.0000 0.0000 ( 17886 PWs)   bands (ev):

[...]

          k =-0.0760-0.0839 0.0000 ( 17948 PWs)   bands (ev):

   -56.2431 -56.2326 -56.2039 -56.1995 -56.1310 -56.0827 -56.0544 -56.0275
   -55.9875 -55.9607 -55.9569 -55.9137 -55.7769 -55.6040 -55.2329 -55.2323
   -32.5891 -32.5849 -32.5390 -32.5309 -32.5284 -32.5145 -32.5125 -32.4700
   -32.4258 -32.4233 -32.4173 -32.4036 -32.3743 -32.3739 -32.3665 -32.3408
   -32.3339 -32.3300 -32.3239 -32.3221 -32.2903 -32.2895 -32.2824 -32.2773
   -32.2634 -32.2609 -32.2356 -32.2303 -32.2156 -32.2140 -32.1923 -32.1916
   -32.1664 -32.1642 -32.1584 -32.1336 -32.1023 -32.0425 -31.9345 -31.9098
   -31.8473 -31.8375 -31.5536 -31.5530 -31.4721 -31.4717 -31.4331 -31.4326
   -18.6959 -16.4007 -16.3695 -16.1480 -16.1287 -16.1263 -16.0499 -15.9516
   -15.9488 -15.9455 -15.9412 -15.8810 -15.8526 -15.8390 -15.7986 -15.7434
   -15.7351 -15.7250 -15.7242 -15.6748 -15.6739 -15.6195 -15.5589 -15.5464
   -15.5441 -15.5422 -15.5287 -15.4485 -15.4157 -15.1587 -13.7338 -13.7322
    -9.0907  -5.2487  -3.6982  -3.6590  -3.3801  -3.3701  -3.3620  -3.3365
    -3.2483  -3.1566  -3.1331  -3.0992  -3.0704  -3.0637  -3.0616  -3.0243
    -3.0184  -2.9817  -2.9684  -2.9507  -2.9337  -2.8884  -2.8632  -2.8531
    -2.8418  -2.8321  -2.8238  -2.7924  -2.7795  -2.7665  -2.7462  -2.7427
    -2.5885  -2.5308  -2.4504  -2.4500  -2.3390  -2.3300  -2.3219  -2.3118
    -2.2848  -2.2771  -2.2443  -2.1075  -2.0427  -1.9415  -1.9290  -1.9215
    -1.8291  -1.7736  -1.6498  -1.6045  -1.5872  -1.5408  -1.4778  -1.4707
    -1.4402  -1.4336  -1.3249  -1.3014  -1.2749  -1.1989  -1.1906  -1.1849
    -1.0867  -1.0536  -1.0135  -0.9787  -0.9476  -0.9058  -0.8516  -0.8076
    -0.7822  -0.7465  -0.7387  -0.6563  -0.5838  -0.5280  -0.2640  -0.2084
    -0.1953  -0.1272  -0.0331   0.0314   0.0480   0.0971   0.1538   0.2126
     0.2631   0.3216   0.3242   0.3686   0.4150   1.1378   1.1389   1.2286
     1.2350   2.1440   3.0840   3.1920   3.2029   3.2516   3.3257   3.4175
     3.4280   3.4289   3.4317   3.6093

     the Fermi energy is     2.9025 ev

!    total energy              =   -2925.19967916 Ry
     estimated scf accuracy    <       0.00000006 Ry
     smearing contrib. (-TS)   =      -0.02326755 Ry
     internal energy E=F+TS    =   -2925.17641161 Ry

     The total energy is F=E-TS. E is the sum of the following terms:
     one-electron contribution =  -24764.15792080 Ry
     hartree contribution      =   12463.21747075 Ry
     xc contribution           =    -479.96336548 Ry
     ewald contribution        =    9855.72714070 Ry
     electric field correction =       0.00026323 Ry

     convergence has been achieved in  86 iterations

     Forces acting on atoms (cartesian axes, Ry/au):

     atom    1 type  1   force =     0.00007385   -0.00095795    0.11385887
     atom    2 type  1   force =    -0.00009264    0.00025244   -0.17943782
     atom    3 type  2   force =    -0.00000029   -0.00523559   -0.03559848
     atom    4 type  2   force =     0.00003530    0.00060779    0.04439236
     atom    5 type  2   force =    -0.02017520   -0.00082061    0.00350335
     atom    6 type  2   force =     0.02026463   -0.00039071    0.00351378
     atom    7 type  1   force =    -0.00022669    0.00019187    0.00019705
     atom    8 type  1   force =     0.00022383    0.00173728   -0.00007968
     atom    9 type  2   force =    -0.00005727    0.00027155   -0.00035198
     atom   10 type  2   force =    -0.00001084    0.00011620    0.00035114
     atom   11 type  2   force =    -0.00018697   -0.00002458    0.00029404
     atom   12 type  2   force =    -0.00009021   -0.00005211    0.00030463
     atom   13 type  1   force =     0.00033145    0.00056507    0.00079247
     atom   14 type  1   force =     0.00030195   -0.00005386    0.00120239
     atom   15 type  2   force =     0.00011948   -0.00027804   -0.00057315
     atom   16 type  2   force =     0.00001337   -0.00038824   -0.00101212
     atom   17 type  2   force =     0.00114794   -0.00027355   -0.00051599
     atom   18 type  2   force =    -0.00085263   -0.00027074   -0.00048254
     atom   19 type  1   force =    -0.00021045    0.00001483    0.00055130
     atom   20 type  1   force =    -0.00016322   -0.00013001    0.00041947
     atom   21 type  2   force =     0.00003877    0.00008282    0.10411423
     atom   22 type  2   force =    -0.00008779   -0.00018252    0.00054536
     atom   23 type  2   force =    -0.06901823    0.00033874   -0.03030614
     atom   24 type  2   force =     0.06888810    0.00077427   -0.03034725
     atom   25 type  1   force =     0.00016024    0.00086494    0.12102110
     atom   26 type  1   force =    -0.00010252    0.00041317   -0.17938554
     atom   27 type  2   force =     0.00002572    0.00096791   -0.03233208
     atom   28 type  2   force =     0.00003936    0.00070820    0.04484796
     atom   29 type  2   force =    -0.01920037    0.00046123    0.00325206
     atom   30 type  2   force =     0.01932818    0.00087458    0.00324980
     atom   31 type  1   force =    -0.00045934    0.00024688    0.00031092
     atom   32 type  1   force =     0.00023266    0.00062269   -0.00090882
     atom   33 type  2   force =    -0.00001417   -0.00008975   -0.00066727
     atom   34 type  2   force =    -0.00005698    0.00026144   -0.00016644
     atom   35 type  2   force =    -0.00034125    0.00016838   -0.00004972
     atom   36 type  2   force =     0.00002726    0.00014640   -0.00005686
     atom   37 type  1   force =     0.00044520    0.00017773   -0.00136446
     atom   38 type  1   force =     0.00034087    0.00038732    0.00128790
     atom   39 type  2   force =     0.00010173   -0.00005217    0.00017678
     atom   40 type  2   force =     0.00000736    0.00003615   -0.00035749
     atom   41 type  2   force =     0.00094725   -0.00033976    0.00014158
     atom   42 type  2   force =    -0.00022731   -0.00030506   -0.00007669
     atom   43 type  1   force =    -0.00060815   -0.00012625    0.00063475
     atom   44 type  1   force =    -0.00034490   -0.00021123    0.00098578
     atom   45 type  2   force =     0.00004121    0.00006021    0.10416472
     atom   46 type  2   force =    -0.06881650   -0.00102234   -0.03035541
     atom   47 type  2   force =     0.06869479   -0.00058089   -0.03039779
     atom   48 type  3   force =    -0.00069447   -0.00144627    0.00034007
     atom   49 type  3   force =     0.00011932    0.00026913   -0.00024366
     atom   50 type  4   force =     0.00008860    0.00161302    0.00061352

     Total force =     0.379853     Total SCF correction =     0.000763
  @ DRIVER MODE: Message from server: STATUS
  @ DRIVER MODE: Message from server: GETFORCE
  @ DRIVER MODE: Returning v,forces,stress,ensemble

     Writing output data file ./calc.save/
  @ DRIVER MODE: Message from server: EXIT
  @ DRIVE MODE: Exiting

     General routines

     Parallel routines

   This run was terminated on:  14:29:23  12Oct2021

   JOB DONE.