     Program PWSCF v.6.7GPU starts on 10Sep2021 at  4:38:33

     R & G space division:  proc/nbgrp/npool/nimage =      10
     Reading input from /storage/home/hcoda1/3/ntian30/research/carbon/CxH_vib/CH3_calc/ads_slab/CH3N2OH_l/out_0024/pw.inp
Warning: card &CELL ignored
Warning: card   CELL_DYNAMICS='IPI', ignored
Warning: card / ignored

     Current dimensions of program PWSCF are:
     Max number of different atomic species (ntypx) = 10
     Max number of k-points (npk) =  40000
     Max angular momentum in pseudopotentials (lmaxx) =  3
     Presently no symmetry can be used with electric field

     Message from routine cell_base_init:
     DEPRECATED: use true lattice parameter, not A to a.u. conversion factor

     IMPORTANT: XC functional enforced from input :
     Exchange-correlation= BEEF-VDW
                           (   1   4  43  14   2   0   0)
     Any further DFT definition will be discarded
     Please, verify this is what you really want

  @ DRIVER MODE: Connecting to
 qe_1139763_2779712.sched-torque.pace.gatech.eduknrg_crk_scratch
  using UNIX socket
  @ DRIVER MODE: Message from server: STATUS
  @ DRIVER MODE: Message from server: INIT
  @ DRIVER MODE: Receiving replica           0          -1
  @ DRIVER MODE: Receiving encoded integer          25
  @ DRIVER MODE:  SCF:  T  FORCE:  T  STRESS:  F  VC:  F  ENSEMBLE:  F
  @ DRIVER MODE:  SCF:  T  FORCE:  T  STRESS:  F  VC:  F  ENSEMBLE:  F

     Using Slab Decomposition

     bravais-lattice index     =            0
     lattice parameter (alat)  =       1.8897  a.u.
     unit-cell volume          =    6658.9804 (a.u.)^3
     number of atoms/cell      =           55
     number of atomic types    =            5
     number of electrons       =       402.00
     number of Kohn-Sham states=          211
     kinetic-energy cutoff     =      29.3995  Ry
     charge density cutoff     =     293.9946  Ry
     scf convergence threshold =      7.3E-08
     mixing beta               =       0.0500
     number of iterations used =            8  plain     mixing
     Exchange-correlation= BEEF-VDW
                           (   1   4  43  14   2   0   0)

     celldm(1)=   1.889726  celldm(2)=   0.000000  celldm(3)=   0.000000
     celldm(4)=   0.000000  celldm(5)=   0.000000  celldm(6)=   0.000000

     crystal axes: (cart. coord. in units of alat)
               a(1) = (   6.579727   0.000000   0.000000 )
               a(2) = (  -0.000775   5.961596   0.000000 )
               a(3) = (   0.000000   0.000000  25.155947 )

     reciprocal axes: (cart. coord. in units 2 pi/alat)
               b(1) = (  0.151982  0.000020  0.000000 )
               b(2) = (  0.000000  0.167740  0.000000 )
               b(3) = (  0.000000  0.000000  0.039752 )

     PseudoPot. # 1 for Ti read from file:
     /storage/coda1/p-amedford6/0/shared/rich_project_chbe-medford/medford-share/data/pseudos_module/espresso/nninc/pbe/van/Ti.UPF
     MD5 check sum: 8e4df49b7f0d34bbd5052bf3f5ea0213
     Pseudo is Ultrasoft, Zval = 12.0
     Generated by new atomic code, or converted to UPF format
     Using radial grid of  851 points,  6 beta functions with:
                l(1) =   0
                l(2) =   0
                l(3) =   1
                l(4) =   1
                l(5) =   2
                l(6) =   2
     Q(r) pseudized with  8 coefficients,  rinner =    1.000   1.000   1.000
                                                       1.000   1.000

     PseudoPot. # 2 for O  read from file:
     /storage/coda1/p-amedford6/0/shared/rich_project_chbe-medford/medford-share/data/pseudos_module/espresso/nninc/pbe/van/O.UPF
     MD5 check sum: 78c19812648e8988a0fe644b0f25305e
     Pseudo is Ultrasoft, Zval =  6.0
     Generated by new atomic code, or converted to UPF format
     Using radial grid of  737 points,  4 beta functions with:
                l(1) =   0
                l(2) =   0
                l(3) =   1
                l(4) =   1
     Q(r) pseudized with  8 coefficients,  rinner =    0.800   0.800   0.800

     PseudoPot. # 3 for N  read from file:
     /storage/coda1/p-amedford6/0/shared/rich_project_chbe-medford/medford-share/data/pseudos_module/espresso/nninc/pbe/van/N.UPF
     MD5 check sum: 90d10febe142ad51ac9d5be1deb811c4
     Pseudo is Ultrasoft, Zval =  5.0
     Generated by new atomic code, or converted to UPF format
     Using radial grid of  729 points,  4 beta functions with:
                l(1) =   0
                l(2) =   0
                l(3) =   1
                l(4) =   1
     Q(r) pseudized with  8 coefficients,  rinner =    0.800   0.800   0.800

     PseudoPot. # 4 for C  read from file:
     /storage/coda1/p-amedford6/0/shared/rich_project_chbe-medford/medford-share/data/pseudos_module/espresso/nninc/pbe/van/C.UPF
     MD5 check sum: 1a69bf6b8db32088f5b2163dbdb77a27
     Pseudo is Ultrasoft, Zval =  4.0
     Generated by new atomic code, or converted to UPF format
     Using radial grid of  721 points,  4 beta functions with:
                l(1) =   0
                l(2) =   0
                l(3) =   1
                l(4) =   1
     Q(r) pseudized with  8 coefficients,  rinner =    0.800   0.800   0.800

     PseudoPot. # 5 for H  read from file:
     /storage/coda1/p-amedford6/0/shared/rich_project_chbe-medford/medford-share/data/pseudos_module/espresso/nninc/pbe/van/H.UPF
     MD5 check sum: b5ee9d7bfd3a09ee7748110bda690ff7
     Pseudo is Ultrasoft, Zval =  1.0
     Generated by new atomic code, or converted to UPF format
     Using radial grid of  615 points,  1 beta functions with:
                l(1) =   0
     Q(r) pseudized with  8 coefficients,  rinner =    0.800

     atomic species   valence    mass     pseudopotential
        Ti1           12.00    47.86700     Ti( 1.00)
        O1             6.00    15.99900     O ( 1.00)
        N1             5.00    14.00700     N ( 1.00)
        C1             4.00    12.01100     C ( 1.00)
        H1             1.00     1.00800     H ( 1.00)

     No symmetry found

   Cartesian axes

     site n.     atom                  positions (alat units)
         1           Ti1 tau(   1) = (   0.0004258   2.9801865   6.0000000  )
         2           Ti1 tau(   2) = (   3.2906075   1.4906267   6.0002472  )
         3           O1  tau(   3) = (   0.0006271   0.0005054   7.9858123  )
         4           O1  tau(   4) = (   3.2906025   0.0005020   7.3038282  )
         5           O1  tau(   5) = (   4.5942328   1.4918067   9.2879030  )
         6           O1  tau(   6) = (   1.9868534   1.4903216   9.2879459  )
         7           Ti1 tau(   7) = (   3.2907910   2.8959150   9.1758416  )
         8           Ti1 tau(   8) = (   0.0015273   1.4827037   9.2680791  )
         9           O1  tau(   9) = (   3.3074573   5.9346435  11.2963613  )
        10           O1  tau(  10) = (   0.0116148   5.9584955  10.6183126  )
        11           O1  tau(  11) = (   1.3055178   1.4819292  12.6272398  )
        12           O1  tau(  12) = (   5.3158762   1.4804127  12.6185516  )
        13           Ti1 tau(  13) = (   0.0186029   2.8424156  12.6464711  )
        14           Ti1 tau(  14) = (   3.3167612   1.2924093  12.6669032  )
        15           O1  tau(  15) = (   0.0012442   5.9356390  14.6370070  )
        16           O1  tau(  16) = (   3.3127944   0.0275565  13.9018093  )
        17           O1  tau(  17) = (   4.5765900   1.5157235  16.0894388  )
        18           O1  tau(  18) = (   2.0422450   1.5317946  16.0210879  )
        19           Ti1 tau(  19) = (   3.3088329   2.9810726  15.6636066  )
        20           Ti1 tau(  20) = (   0.0236821   1.4688588  15.8133175  )
        21           O1  tau(  21) = (   3.2904802   0.0005063   4.7018136  )
        22           O1  tau(  22) = (   0.0676014   5.9495730  17.1734943  )
        23           O1  tau(  23) = (   1.3043587   1.4918075   6.0039043  )
        24           O1  tau(  24) = (   5.2767064   1.4903225   6.0039473  )
        25           Ti1 tau(  25) = (   0.0000382   5.9609847   6.0000000  )
        26           Ti1 tau(  26) = (   3.2902200   4.4714249   6.0002472  )
        27           O1  tau(  27) = (   0.0002396   2.9813036   7.9858123  )
        28           O1  tau(  28) = (   3.2902150   2.9813002   7.3038282  )
        29           O1  tau(  29) = (   4.5938453   4.4726049   9.2879030  )
        30           O1  tau(  30) = (   1.9864658   4.4711199   9.2879459  )
        31           Ti1 tau(  31) = (   3.2891106   5.8743827   9.1763621  )
        32           Ti1 tau(  32) = (   0.0006254   4.4649316   9.2693709  )
        33           O1  tau(  33) = (   3.3041982   3.0170362  11.2630756  )
        34           O1  tau(  34) = (   0.0092240   2.9805883  10.6323155  )
        35           O1  tau(  35) = (   1.3098214   4.4601496  12.6289764  )
        36           O1  tau(  36) = (   5.3139316   4.4642116  12.6209765  )
        37           Ti1 tau(  37) = (   0.0286784   5.8202107  12.5681754  )
        38           Ti1 tau(  38) = (   3.3194384   4.3879401  12.4232525  )
        39           O1  tau(  39) = (   6.5763552   2.9401740  14.6754030  )
        40           O1  tau(  40) = (   3.3328261   2.9762691  13.8808942  )
        41           O1  tau(  41) = (   4.5658580   4.4380642  16.1332302  )
        42           O1  tau(  42) = (   2.0359873   4.4031365  16.0422930  )
        43           Ti1 tau(  43) = (   3.3255947   5.9578944  16.3175027  )
        44           Ti1 tau(  44) = (   0.0374668   4.6230282  16.0307208  )
        45           O1  tau(  45) = (   3.2900926   2.9813045   4.7018136  )
        46           O1  tau(  46) = (   1.3039711   4.4726057   6.0039043  )
        47           O1  tau(  47) = (   5.2763189   4.4711207   6.0039473  )
        48           N1  tau(  48) = (   0.1245995   2.6662279  18.6673576  )
        49           N1  tau(  49) = (   0.0476076   2.8693738  17.4835824  )
        50           C1  tau(  50) = (   0.1295945   3.7926219  19.6405614  )
        51           H1  tau(  51) = (   6.3015398   4.7065717  19.2218634  )
        52           H1  tau(  52) = (   6.1525190   3.4626129  20.5140504  )
        53           H1  tau(  53) = (   1.1733748   3.9370966  19.9287387  )
        54           O1  tau(  54) = (   3.0981659   0.0197753  18.1302257  )
        55           H1  tau(  55) = (   2.1972620   0.2293568  18.4309947  )

     number of k points=    10  Fermi-Dirac smearing, width (Ry)=  0.0073
                       cart. coord. in units 2pi/alat
        k(    1) = (   0.0000000   0.0000000   0.0000000), wk =   0.1250000
        k(    2) = (   0.0000000   0.0419351   0.0000000), wk =   0.2500000
        k(    3) = (   0.0000000  -0.0838702   0.0000000), wk =   0.1250000
        k(    4) = (   0.0379955   0.0000049   0.0000000), wk =   0.2500000
        k(    5) = (   0.0379955   0.0419400   0.0000000), wk =   0.2500000
        k(    6) = (   0.0379955  -0.0838652   0.0000000), wk =   0.2500000
        k(    7) = (   0.0379955  -0.0419301   0.0000000), wk =   0.2500000
        k(    8) = (  -0.0759910  -0.0000099   0.0000000), wk =   0.1250000
        k(    9) = (  -0.0759910   0.0419252   0.0000000), wk =   0.2500000
        k(   10) = (  -0.0759910  -0.0838800   0.0000000), wk =   0.1250000

     Initial potential from superposition of free atoms

     starting charge  385.99915, renormalised to  402.00000

     negative rho (up, down):  1.432E-02 0.000E+00

     %%%%%%%%%%%%%%%%%%%%%%%%%%%%%%%%%%%%%%%%%%%%%%%%%%%%%%%%%%%%%%%%%%%%%%%%
     %                                                                      %
     % You are using vdW-DF, which was implemented by the Thonhauser group. %
     % Please cite the following two papers that made this development      %
     % possible and the two reviews that describe the various versions:     %
     %                                                                      %
     %   T. Thonhauser et al., PRL 115, 136402 (2015).                      %
     %   T. Thonhauser et al., PRB 76, 125112 (2007).                       %
     %   K. Berland et al., Rep. Prog. Phys. 78, 066501 (2015).             %
     %   D.C. Langreth et al., J. Phys.: Condens. Matter 21, 084203 (2009). %
     %                                                                      %
     %                                                                      %
     % If you are calculating the stress with vdW-DF, please also cite:     %
     %                                                                      %
     %   R. Sabatini et al., J. Phys.: Condens. Matter 24, 424209 (2012).   %
     %                                                                      %
     %%%%%%%%%%%%%%%%%%%%%%%%%%%%%%%%%%%%%%%%%%%%%%%%%%%%%%%%%%%%%%%%%%%%%%%%

     Adding external electric field

     Computed dipole along edir(3) :
        Dipole              -11.9931 Ry au,        -30.4835 Debye
        Dipole field         -0.0226 Ry au,

        Potential amp.        2.0980 Ry
        Total length         46.3494 bohr

     Starting wfcs are  304 atomic wfcs
  @ DRIVER MODE: Message from server: STATUS
  @ DRIVER MODE: Message from server: POSDATA
  @ DRIVER MODE: Reading and sharing cell
  @ DRIVER MODE: Reading and sharing positions
  @ DRIVER MODE: Received positions

     Self-consistent Calculation

     iteration #  1     ecut=    29.40 Ry     beta= 0.05
     Davidson diagonalization with overlap
     c_bands:  3 eigenvalues not converged
     c_bands:  5 eigenvalues not converged
     c_bands:  5 eigenvalues not converged
     c_bands:  4 eigenvalues not converged
     c_bands:  1 eigenvalues not converged
     c_bands:  4 eigenvalues not converged
     c_bands:  2 eigenvalues not converged
     c_bands:  5 eigenvalues not converged
     c_bands:  4 eigenvalues not converged
     ethr =  1.00E-05,  avg # of iterations = 23.8

[...]

     total energy              =   -2400.48558714 Ry
     estimated scf accuracy    <    6448.61132111 Ry

     iteration #  2     ecut=    29.40 Ry     beta= 0.05
     Davidson diagonalization with overlap
     ethr =  1.00E-02,  avg # of iterations = 22.4

[...]

     iteration # 63     ecut=    29.40 Ry     beta= 0.05
     Davidson diagonalization with overlap
     c_bands:  1 eigenvalues not converged
     ethr =  2.61E-08,  avg # of iterations =  5.2

[...]

     total energy              =   -2972.75614240 Ry
     estimated scf accuracy    <       0.00000012 Ry

     iteration # 78     ecut=    29.40 Ry     beta= 0.05
     Davidson diagonalization with overlap
     ethr =  2.94E-11,  avg # of iterations =  5.8

     negative rho (up, down):  1.507E-02 0.000E+00

     Adding external electric field

     Computed dipole along edir(3) :
        Dipole                0.5641 Ry au,          1.4339 Debye
        Dipole field          0.0011 Ry au,

        Potential amp.       -0.0987 Ry
        Total length         46.3494 bohr

     End of self-consistent calculation

          k = 0.0000 0.0000 0.0000 ( 18029 PWs)   bands (ev):

   -56.2735 -56.2397 -55.8669 -55.8319 -55.6107 -55.5954 -55.5529 -55.4032
   -55.3554 -55.3456 -55.2322 -55.1814 -55.0710 -55.0424 -55.0397 -55.0058
   -32.7237 -32.5660 -32.5392 -32.4318 -32.3479 -32.3464 -32.3393 -32.0925
   -32.0861 -32.0621 -32.0114 -32.0059 -31.9766 -31.9033 -31.8963 -31.8581
   -31.8335 -31.8315 -31.8196 -31.7754 -31.7564 -31.7489 -31.7156 -31.7154
   -31.6860 -31.6739 -31.6156 -31.5628 -31.5571 -31.5446 -31.5413 -31.5127
   -31.4914 -31.4358 -31.4311 -31.4157 -31.3908 -31.3734 -31.3497 -31.3291
   -31.3043 -31.2814 -31.2802 -31.2729 -31.2580 -31.2548 -31.1703 -31.0582
   -18.9012 -16.5656 -16.3778 -16.2262 -15.9919 -15.8441 -15.7596 -15.7033
   -15.7018 -15.5822 -15.5461 -15.4529 -15.3641 -15.2953 -15.2635 -15.2594
   -15.1665 -15.1044 -15.0554 -15.0324 -15.0016 -14.9815 -14.9677 -14.8887
   -14.8800 -14.8559 -14.8114 -14.6910 -14.6280 -14.3286 -14.3090 -13.5373
   -13.4252 -11.5279  -6.9699  -4.4352  -4.1116  -4.0747  -4.0193  -3.8855
    -3.7775  -3.5700  -3.4529  -3.2675  -3.2502  -3.1507  -2.9850  -2.9768
    -2.9235  -2.8530  -2.7743  -2.7050  -2.6614  -2.6501  -2.5563  -2.4994
    -2.4973  -2.4850  -2.4445  -2.4084  -2.3200  -2.2779  -2.2645  -2.2262
    -2.1826  -2.1334  -2.1297  -2.0837  -2.0585  -1.9983  -1.9340  -1.8969
    -1.8699  -1.8084  -1.7477  -1.7075  -1.6395  -1.5932  -1.5818  -1.5766
    -1.5232  -1.3285  -1.2883  -1.2618  -1.2419  -1.0994  -1.0559  -1.0208
    -0.9569  -0.9397  -0.8503  -0.8246  -0.8072  -0.7822  -0.7113  -0.6982
    -0.6627  -0.6339  -0.4472  -0.4123  -0.3407  -0.3319  -0.2639  -0.2314
    -0.1983  -0.1584  -0.1266  -0.0732  -0.0608  -0.0072   0.0392   0.0674
     0.2086   0.2398   0.3227   0.3306   0.3338   0.3562   0.4334   0.4677
     0.5401   0.5922   0.5982   0.6502   0.7380   0.7774   0.8928   0.9618
     0.9850   1.0069   1.0421   1.0955   1.2153   1.5068   1.5318   1.5706
     2.7046   2.9523   3.0827   3.2295   3.3840   3.4878   3.7965   3.8139
     3.8508   3.8967   3.9435

[...]

          k = 0.0380-0.0419 0.0000 ( 17876 PWs)   bands (ev):

[...]

          k =-0.0760-0.0000 0.0000 ( 17886 PWs)   bands (ev):

[...]

          k =-0.0760-0.0839 0.0000 ( 17948 PWs)   bands (ev):

   -56.2566 -56.2565 -55.8543 -55.8443 -55.6052 -55.5946 -55.5584 -55.3958
   -55.3626 -55.3462 -55.2305 -55.1793 -55.0726 -55.0443 -55.0232 -55.0222
   -32.5516 -32.5514 -32.5398 -32.5397 -32.3839 -32.3836 -32.1735 -32.1644
   -32.0479 -32.0396 -32.0377 -32.0333 -31.9138 -31.8768 -31.8612 -31.8303
   -31.8275 -31.8260 -31.8180 -31.7856 -31.7725 -31.7261 -31.7133 -31.6985
   -31.6358 -31.6335 -31.6281 -31.6019 -31.5973 -31.5946 -31.5546 -31.5490
   -31.4833 -31.4371 -31.4197 -31.4180 -31.3906 -31.3630 -31.3623 -31.3429
   -31.3327 -31.2896 -31.2849 -31.2768 -31.2513 -31.2500 -31.2131 -31.2123
   -18.8983 -16.3625 -15.9763 -15.9681 -15.8372 -15.8318 -15.6589 -15.6470
   -15.6015 -15.5536 -15.5222 -15.4884 -15.3608 -15.3354 -15.2652 -15.2400
   -15.2056 -15.1807 -15.1566 -15.1513 -15.1149 -15.0727 -15.0230 -15.0180
   -14.9691 -14.9675 -14.8427 -14.7662 -14.6888 -14.5090 -14.4640 -13.5285
   -13.5280 -11.5259  -6.9844  -4.3834  -4.0832  -4.0530  -3.8534  -3.1403
    -3.0985  -2.9730  -2.9475  -2.8719  -2.8346  -2.7646  -2.7062  -2.6840
    -2.6711  -2.6601  -2.5953  -2.5663  -2.5605  -2.5191  -2.5038  -2.4969
    -2.4603  -2.4106  -2.3852  -2.3628  -2.3578  -2.3514  -2.2727  -2.2024
    -2.2002  -2.1810  -2.1474  -2.1152  -2.0354  -2.0281  -1.9870  -1.9530
    -1.9219  -1.8305  -1.7897  -1.7418  -1.6964  -1.6613  -1.5852  -1.5825
    -1.5144  -1.4677  -1.3551  -1.3320  -1.3128  -1.2707  -1.2329  -1.1946
    -1.1273  -1.1052  -1.0508  -1.0468  -1.0334  -1.0100  -0.8984  -0.8583
    -0.7655  -0.7249  -0.7019  -0.6780  -0.6354  -0.6283  -0.5574  -0.5345
    -0.4960  -0.4709  -0.4048  -0.3995  -0.3650  -0.2999  -0.1937  -0.0353
     0.0601   0.1023   0.1247   0.1437   0.1888   0.2978   0.3037   0.3785
     0.4503   0.4633   0.4810   0.5098   0.6559   0.7333   0.8409   0.8630
     0.9114   0.9597   1.0194   1.0875   1.3761   1.3836   1.3869   1.3875
     2.7168   3.5032   3.5056   3.5339   3.5451   3.7309   3.7335   3.7512
     3.8966   3.9254   4.1511

     the Fermi energy is     2.8883 ev

!    total energy              =   -2972.75615299 Ry
     estimated scf accuracy    <       0.00000007 Ry
     smearing contrib. (-TS)   =      -0.01286852 Ry
     internal energy E=F+TS    =   -2972.74328447 Ry

     The total energy is F=E-TS. E is the sum of the following terms:
     one-electron contribution =  -23636.16169356 Ry
     hartree contribution      =   11911.11203396 Ry
     xc contribution           =    -493.08431323 Ry
     ewald contribution        =    9245.39008780 Ry
     electric field correction =       0.00060057 Ry

     convergence has been achieved in  78 iterations

     Forces acting on atoms (cartesian axes, Ry/au):

     atom    1 type  1   force =    -0.00001445   -0.00036165    0.10683098
     atom    2 type  1   force =    -0.00005085    0.00020143   -0.16490060
     atom    3 type  2   force =     0.00005535    0.00001882   -0.03815559
     atom    4 type  2   force =     0.00006568   -0.00064134    0.03453228
     atom    5 type  2   force =    -0.00366903   -0.00218735   -0.00718068
     atom    6 type  2   force =     0.00569386   -0.00177205   -0.00685425
     atom    7 type  1   force =     0.00025237   -0.00516999    0.03711960
     atom    8 type  1   force =    -0.00002219    0.01089801    0.05883143
     atom    9 type  2   force =    -0.00043722    0.00029835   -0.00085615
     atom   10 type  2   force =    -0.00076472   -0.00040009   -0.04430837
     atom   11 type  2   force =     0.00030565   -0.00021885    0.00031679
     atom   12 type  2   force =    -0.00064986   -0.00055605   -0.00003895
     atom   13 type  1   force =     0.00004863    0.00033812    0.00057613
     atom   14 type  1   force =    -0.00024995   -0.00007657    0.00053788
     atom   15 type  2   force =    -0.00018756   -0.00034302   -0.00114486
     atom   16 type  2   force =     0.00032559    0.00006535    0.00051337
     atom   17 type  2   force =     0.00005429    0.00039996    0.00015499
     atom   18 type  2   force =     0.00029940    0.00050894   -0.00047767
     atom   19 type  1   force =    -0.00046868   -0.00051829   -0.00037400
     atom   20 type  1   force =     0.00011815   -0.00027480    0.00071377
     atom   21 type  2   force =     0.00004288    0.00020872    0.10033982
     atom   22 type  2   force =     0.00002195   -0.00083958   -0.00001590
     atom   23 type  2   force =    -0.07693508   -0.00000506   -0.02999940
     atom   24 type  2   force =     0.07680213    0.00042214   -0.03005700
     atom   25 type  1   force =     0.00005524   -0.00042341    0.10687996
     atom   26 type  1   force =    -0.00017444   -0.00137939   -0.16526023
     atom   27 type  2   force =     0.00012598   -0.00063674   -0.03660094
     atom   28 type  2   force =     0.00003865    0.00111874    0.03011375
     atom   29 type  2   force =    -0.00205298    0.00417905   -0.01015405
     atom   30 type  2   force =     0.00411886    0.00462674   -0.00973085
     atom   31 type  1   force =     0.00023485    0.00322496    0.02266789
     atom   32 type  1   force =    -0.00015735   -0.01397352    0.05887314
     atom   33 type  2   force =    -0.00014017   -0.00120342   -0.00032277
     atom   34 type  2   force =    -0.00070584   -0.00007431   -0.05477287
     atom   35 type  2   force =    -0.00104840    0.00020301    0.00020444
     atom   36 type  2   force =     0.00050246   -0.00001568   -0.00022065
     atom   37 type  1   force =    -0.00013549   -0.00078630    0.00005566
     atom   38 type  1   force =    -0.00057437    0.00002659    0.00007735
     atom   39 type  2   force =    -0.00031246    0.00054553   -0.00007703
     atom   40 type  2   force =    -0.00024394   -0.00046815    0.00016011
     atom   41 type  2   force =    -0.00091210    0.00003955   -0.00010964
     atom   42 type  2   force =    -0.00018708    0.00010146    0.00060569
     atom   43 type  1   force =     0.00078906    0.00100679   -0.00007782
     atom   44 type  1   force =    -0.00017904    0.00168364    0.00082833
     atom   45 type  2   force =     0.00003696    0.00000369    0.10014109
     atom   46 type  2   force =    -0.07696942    0.00003128   -0.03002832
     atom   47 type  2   force =     0.07685931    0.00045612   -0.03009315
     atom   48 type  3   force =    -0.00015500    0.00008450    0.00111664
     atom   49 type  3   force =     0.00000954    0.00085155   -0.00086751
     atom   50 type  4   force =     0.00184926   -0.00197601    0.00321094
     atom   51 type  5   force =    -0.00204814    0.00316778   -0.00326653
     atom   52 type  5   force =     0.00003728   -0.00083754   -0.00001593
     atom   53 type  5   force =    -0.00000084   -0.00005431    0.00057248
     atom   54 type  2   force =     0.00107213   -0.00041368   -0.00118018
     atom   55 type  5   force =    -0.00036886    0.00089634    0.00116736

     Total force =     0.379750     Total SCF correction =     0.000739
  @ DRIVER MODE: Message from server: STATUS
  @ DRIVER MODE: Message from server: GETFORCE
  @ DRIVER MODE: Returning v,forces,stress,ensemble

     Writing output data file ./calc.save/
  @ DRIVER MODE: Message from server: EXIT
  @ DRIVE MODE: Exiting

     General routines

     Parallel routines

   This run was terminated on:   5: 1:45  10Sep2021

   JOB DONE.