     Program PWSCF v.6.7GPU starts on 16Sep2021 at  1: 2:45

     R & G space division:  proc/nbgrp/npool/nimage =      10
     Reading input from /storage/home/hcoda1/3/ntian30/research/carbon/CxH_vib/H2O_calc/ads_slab/CH3NH2O_a/out_0031/pw.inp
Warning: card &CELL ignored
Warning: card   CELL_DYNAMICS='IPI', ignored
Warning: card / ignored

     Current dimensions of program PWSCF are:
     Max number of different atomic species (ntypx) = 10
     Max number of k-points (npk) =  40000
     Max angular momentum in pseudopotentials (lmaxx) =  3
     Presently no symmetry can be used with electric field

     Message from routine cell_base_init:
     DEPRECATED: use true lattice parameter, not A to a.u. conversion factor

     IMPORTANT: XC functional enforced from input :
     Exchange-correlation= BEEF-VDW
                           (   1   4  43  14   2   0   0)
     Any further DFT definition will be discarded
     Please, verify this is what you really want

  @ DRIVER MODE: Connecting to
 qe_1139763_2852618.sched-torque.pace.gatech.edu4ueqpmfw_scratch
  using UNIX socket
  @ DRIVER MODE: Message from server: STATUS
  @ DRIVER MODE: Message from server: INIT
  @ DRIVER MODE: Receiving replica           0          -1
  @ DRIVER MODE: Receiving encoded integer          25
  @ DRIVER MODE:  SCF:  T  FORCE:  T  STRESS:  F  VC:  F  ENSEMBLE:  F
  @ DRIVER MODE:  SCF:  T  FORCE:  T  STRESS:  F  VC:  F  ENSEMBLE:  F

     Using Slab Decomposition

     bravais-lattice index     =            0
     lattice parameter (alat)  =       1.8897  a.u.
     unit-cell volume          =    6658.9804 (a.u.)^3
     number of atoms/cell      =           55
     number of atomic types    =            5
     number of electrons       =       398.00
     number of Kohn-Sham states=          209
     kinetic-energy cutoff     =      29.3995  Ry
     charge density cutoff     =     293.9946  Ry
     scf convergence threshold =      7.3E-08
     mixing beta               =       0.0500
     number of iterations used =            8  plain     mixing
     Exchange-correlation= BEEF-VDW
                           (   1   4  43  14   2   0   0)

     celldm(1)=   1.889726  celldm(2)=   0.000000  celldm(3)=   0.000000
     celldm(4)=   0.000000  celldm(5)=   0.000000  celldm(6)=   0.000000

     crystal axes: (cart. coord. in units of alat)
               a(1) = (   6.579727   0.000000   0.000000 )
               a(2) = (  -0.000775   5.961596   0.000000 )
               a(3) = (   0.000000   0.000000  25.155947 )

     reciprocal axes: (cart. coord. in units 2 pi/alat)
               b(1) = (  0.151982  0.000020  0.000000 )
               b(2) = (  0.000000  0.167740  0.000000 )
               b(3) = (  0.000000  0.000000  0.039752 )

     PseudoPot. # 1 for Ti read from file:
     /storage/coda1/p-amedford6/0/shared/rich_project_chbe-medford/medford-share/data/pseudos_module/espresso/nninc/pbe/van/Ti.UPF
     MD5 check sum: 8e4df49b7f0d34bbd5052bf3f5ea0213
     Pseudo is Ultrasoft, Zval = 12.0
     Generated by new atomic code, or converted to UPF format
     Using radial grid of  851 points,  6 beta functions with:
                l(1) =   0
                l(2) =   0
                l(3) =   1
                l(4) =   1
                l(5) =   2
                l(6) =   2
     Q(r) pseudized with  8 coefficients,  rinner =    1.000   1.000   1.000
                                                       1.000   1.000

     PseudoPot. # 2 for O  read from file:
     /storage/coda1/p-amedford6/0/shared/rich_project_chbe-medford/medford-share/data/pseudos_module/espresso/nninc/pbe/van/O.UPF
     MD5 check sum: 78c19812648e8988a0fe644b0f25305e
     Pseudo is Ultrasoft, Zval =  6.0
     Generated by new atomic code, or converted to UPF format
     Using radial grid of  737 points,  4 beta functions with:
                l(1) =   0
                l(2) =   0
                l(3) =   1
                l(4) =   1
     Q(r) pseudized with  8 coefficients,  rinner =    0.800   0.800   0.800

     PseudoPot. # 3 for N  read from file:
     /storage/coda1/p-amedford6/0/shared/rich_project_chbe-medford/medford-share/data/pseudos_module/espresso/nninc/pbe/van/N.UPF
     MD5 check sum: 90d10febe142ad51ac9d5be1deb811c4
     Pseudo is Ultrasoft, Zval =  5.0
     Generated by new atomic code, or converted to UPF format
     Using radial grid of  729 points,  4 beta functions with:
                l(1) =   0
                l(2) =   0
                l(3) =   1
                l(4) =   1
     Q(r) pseudized with  8 coefficients,  rinner =    0.800   0.800   0.800

     PseudoPot. # 4 for C  read from file:
     /storage/coda1/p-amedford6/0/shared/rich_project_chbe-medford/medford-share/data/pseudos_module/espresso/nninc/pbe/van/C.UPF
     MD5 check sum: 1a69bf6b8db32088f5b2163dbdb77a27
     Pseudo is Ultrasoft, Zval =  4.0
     Generated by new atomic code, or converted to UPF format
     Using radial grid of  721 points,  4 beta functions with:
                l(1) =   0
                l(2) =   0
                l(3) =   1
                l(4) =   1
     Q(r) pseudized with  8 coefficients,  rinner =    0.800   0.800   0.800

     PseudoPot. # 5 for H  read from file:
     /storage/coda1/p-amedford6/0/shared/rich_project_chbe-medford/medford-share/data/pseudos_module/espresso/nninc/pbe/van/H.UPF
     MD5 check sum: b5ee9d7bfd3a09ee7748110bda690ff7
     Pseudo is Ultrasoft, Zval =  1.0
     Generated by new atomic code, or converted to UPF format
     Using radial grid of  615 points,  1 beta functions with:
                l(1) =   0
     Q(r) pseudized with  8 coefficients,  rinner =    0.800

     atomic species   valence    mass     pseudopotential
        Ti1           12.00    47.86700     Ti( 1.00)
        O1             6.00    15.99900     O ( 1.00)
        N1             5.00    14.00700     N ( 1.00)
        C1             4.00    12.01100     C ( 1.00)
        H1             1.00     1.00800     H ( 1.00)

     No symmetry found

   Cartesian axes

     site n.     atom                  positions (alat units)
         1           Ti1 tau(   1) = (   0.0004258   2.9801865   6.0000000  )
         2           Ti1 tau(   2) = (   3.2906075   1.4906267   6.0002472  )
         3           O1  tau(   3) = (   0.0006271   0.0005054   7.9858123  )
         4           O1  tau(   4) = (   3.2906025   0.0005020   7.3038282  )
         5           O1  tau(   5) = (   4.5942328   1.4918067   9.2879030  )
         6           O1  tau(   6) = (   1.9868534   1.4903216   9.2879459  )
         7           Ti1 tau(   7) = (   3.2907910   2.8959150   9.1758416  )
         8           Ti1 tau(   8) = (   0.0015273   1.4827037   9.2680791  )
         9           O1  tau(   9) = (   3.2951577   0.0167633  11.2896499  )
        10           O1  tau(  10) = (   0.0116148   5.9584955  10.6183126  )
        11           O1  tau(  11) = (   1.3222759   1.5071707  12.6129440  )
        12           O1  tau(  12) = (   5.3060066   1.5095485  12.6267335  )
        13           Ti1 tau(  13) = (   6.4824898   3.0013615  12.7357613  )
        14           Ti1 tau(  14) = (   3.1735365   1.4973312  12.4739500  )
        15           O1  tau(  15) = (   0.0245190   0.0017265  14.5963640  )
        16           O1  tau(  16) = (   3.2983568   0.0259644  13.8884976  )
        17           O1  tau(  17) = (   4.5535709   1.5599051  15.9919625  )
        18           O1  tau(  18) = (   2.0723989   1.5598234  15.9883263  )
        19           Ti1 tau(  19) = (   3.3263631   3.0313633  15.6478355  )
        20           Ti1 tau(  20) = (   0.0083359   1.6222165  16.0589653  )
        21           O1  tau(  21) = (   3.2904802   0.0005063   4.7018136  )
        22           O1  tau(  22) = (   0.0206953   0.0548308  17.2083480  )
        23           O1  tau(  23) = (   1.3043587   1.4918075   6.0039043  )
        24           O1  tau(  24) = (   5.2767064   1.4903225   6.0039473  )
        25           Ti1 tau(  25) = (   0.0000382   5.9609847   6.0000000  )
        26           Ti1 tau(  26) = (   3.2902200   4.4714249   6.0002472  )
        27           O1  tau(  27) = (   0.0002396   2.9813036   7.9858123  )
        28           O1  tau(  28) = (   3.2902150   2.9813002   7.3038282  )
        29           O1  tau(  29) = (   4.5938453   4.4726049   9.2879030  )
        30           O1  tau(  30) = (   1.9864658   4.4711199   9.2879459  )
        31           Ti1 tau(  31) = (   3.2891106   5.8743827   9.1763621  )
        32           Ti1 tau(  32) = (   0.0006254   4.4649316   9.2693709  )
        33           O1  tau(  33) = (   3.2909539   2.9954008  11.2901670  )
        34           O1  tau(  34) = (   0.0092240   2.9805883  10.6323155  )
        35           O1  tau(  35) = (   1.3211080   4.4795309  12.6092917  )
        36           O1  tau(  36) = (   5.3058445   4.4798052  12.6251394  )
        37           Ti1 tau(  37) = (   6.5140999   0.0198189  12.7603067  )
        38           Ti1 tau(  38) = (   3.1705570   4.4938763  12.4677136  )
        39           O1  tau(  39) = (   0.0016069   2.9863809  14.6467327  )
        40           O1  tau(  40) = (   3.3112668   3.0122049  13.8485686  )
        41           O1  tau(  41) = (   4.5534170   4.5051619  16.0179686  )
        42           O1  tau(  42) = (   2.0797414   4.5084034  16.0201905  )
        43           Ti1 tau(  43) = (   3.2815144   0.0627375  15.7417980  )
        44           Ti1 tau(  44) = (   0.0076503   4.5954094  16.1032789  )
        45           O1  tau(  45) = (   3.2900926   2.9813045   4.7018136  )
        46           O1  tau(  46) = (   1.3039711   4.4726057   6.0039043  )
        47           O1  tau(  47) = (   5.2763189   4.4711207   6.0039473  )
        48           N1  tau(  48) = (   0.0651939   3.0276870  17.3150544  )
        49           C1  tau(  49) = (   0.3375872   3.0185870  18.7284822  )
        50           H1  tau(  50) = (   0.4544735   4.0311245  19.1352477  )
        51           H1  tau(  51) = (   6.1015407   2.5302758  19.2785169  )
        52           H1  tau(  52) = (   1.2508204   2.4494767  18.9518403  )
        53           O1  tau(  53) = (   3.3257083   0.1159715  18.1615364  )
        54           H1  tau(  54) = (   4.1514219   5.6051498  18.3929375  )
        55           H1  tau(  55) = (   2.5926282   5.5337384  18.4710493  )

     number of k points=    10  Fermi-Dirac smearing, width (Ry)=  0.0073
                       cart. coord. in units 2pi/alat
        k(    1) = (   0.0000000   0.0000000   0.0000000), wk =   0.1250000
        k(    2) = (   0.0000000   0.0419351   0.0000000), wk =   0.2500000
        k(    3) = (   0.0000000  -0.0838702   0.0000000), wk =   0.1250000
        k(    4) = (   0.0379955   0.0000049   0.0000000), wk =   0.2500000
        k(    5) = (   0.0379955   0.0419400   0.0000000), wk =   0.2500000
        k(    6) = (   0.0379955  -0.0838652   0.0000000), wk =   0.2500000
        k(    7) = (   0.0379955  -0.0419301   0.0000000), wk =   0.2500000
        k(    8) = (  -0.0759910  -0.0000099   0.0000000), wk =   0.1250000
        k(    9) = (  -0.0759910   0.0419252   0.0000000), wk =   0.2500000
        k(   10) = (  -0.0759910  -0.0838800   0.0000000), wk =   0.1250000

     Initial potential from superposition of free atoms

     starting charge  381.99915, renormalised to  398.00000

     negative rho (up, down):  1.656E-02 0.000E+00

     %%%%%%%%%%%%%%%%%%%%%%%%%%%%%%%%%%%%%%%%%%%%%%%%%%%%%%%%%%%%%%%%%%%%%%%%
     %                                                                      %
     % You are using vdW-DF, which was implemented by the Thonhauser group. %
     % Please cite the following two papers that made this development      %
     % possible and the two reviews that describe the various versions:     %
     %                                                                      %
     %   T. Thonhauser et al., PRL 115, 136402 (2015).                      %
     %   T. Thonhauser et al., PRB 76, 125112 (2007).                       %
     %   K. Berland et al., Rep. Prog. Phys. 78, 066501 (2015).             %
     %   D.C. Langreth et al., J. Phys.: Condens. Matter 21, 084203 (2009). %
     %                                                                      %
     %                                                                      %
     % If you are calculating the stress with vdW-DF, please also cite:     %
     %                                                                      %
     %   R. Sabatini et al., J. Phys.: Condens. Matter 24, 424209 (2012).   %
     %                                                                      %
     %%%%%%%%%%%%%%%%%%%%%%%%%%%%%%%%%%%%%%%%%%%%%%%%%%%%%%%%%%%%%%%%%%%%%%%%

     Adding external electric field

     Computed dipole along edir(3) :
        Dipole               -9.1079 Ry au,        -23.1500 Debye
        Dipole field         -0.0172 Ry au,

        Potential amp.        1.5933 Ry
        Total length         46.3494 bohr

     Starting wfcs are  301 atomic wfcs
  @ DRIVER MODE: Message from server: STATUS
  @ DRIVER MODE: Message from server: POSDATA
  @ DRIVER MODE: Reading and sharing cell
  @ DRIVER MODE: Reading and sharing positions
  @ DRIVER MODE: Received positions

     Self-consistent Calculation

     iteration #  1     ecut=    29.40 Ry     beta= 0.05
     Davidson diagonalization with overlap
     c_bands:  1 eigenvalues not converged
     c_bands:  1 eigenvalues not converged
     c_bands:  1 eigenvalues not converged
     c_bands:  1 eigenvalues not converged
     c_bands:  1 eigenvalues not converged
     c_bands:  1 eigenvalues not converged
     c_bands:  1 eigenvalues not converged
     c_bands:  2 eigenvalues not converged
     ethr =  1.00E-05,  avg # of iterations = 19.6

[...]

     total energy              =   -2564.52322582 Ry
     estimated scf accuracy    <    4317.20121891 Ry

     iteration #  2     ecut=    29.40 Ry     beta= 0.05
     Davidson diagonalization with overlap
     ethr =  1.00E-02,  avg # of iterations = 23.6

[...]

     iteration # 49     ecut=    29.40 Ry     beta= 0.05
     Davidson diagonalization with overlap
     c_bands:  1 eigenvalues not converged
     ethr =  1.75E-06,  avg # of iterations = 14.5

[...]

     total energy              =   -2953.97086339 Ry
     estimated scf accuracy    <       0.00000017 Ry

     iteration # 77     ecut=    29.40 Ry     beta= 0.05
     Davidson diagonalization with overlap
     ethr =  3.96E-11,  avg # of iterations =  5.0

     negative rho (up, down):  1.668E-02 0.000E+00

     Adding external electric field

     Computed dipole along edir(3) :
        Dipole                0.5302 Ry au,          1.3477 Debye
        Dipole field          0.0010 Ry au,

        Potential amp.       -0.0928 Ry
        Total length         46.3494 bohr

     End of self-consistent calculation

          k = 0.0000 0.0000 0.0000 ( 18029 PWs)   bands (ev):

   -56.5939 -56.5603 -55.7119 -55.6779 -55.6675 -55.6327 -55.4913 -55.4552
   -55.3608 -55.2423 -55.2292 -55.2270 -55.2084 -55.1317 -54.7250 -54.6755
   -33.0206 -32.8683 -32.8402 -32.7703 -32.6794 -32.6468 -32.1798 -32.1501
   -32.0270 -31.9767 -31.9289 -31.9096 -31.8806 -31.8701 -31.8428 -31.8366
   -31.8174 -31.8127 -31.7902 -31.7743 -31.7672 -31.7109 -31.7064 -31.6690
   -31.6554 -31.6333 -31.6258 -31.6176 -31.5944 -31.5859 -31.5820 -31.5578
   -31.4650 -31.4523 -31.4188 -31.4054 -31.3788 -31.3692 -31.3558 -31.3369
   -31.3090 -31.2583 -31.2399 -30.9687 -30.9472 -30.9178 -30.8938 -30.7846
   -18.7840 -16.7494 -16.2857 -16.0447 -15.9501 -15.8679 -15.8281 -15.7848
   -15.6375 -15.5644 -15.5444 -15.5419 -15.4742 -15.3300 -15.2758 -15.1779
   -15.0920 -14.9508 -14.9393 -14.8990 -14.8854 -14.8494 -14.8454 -14.7949
   -14.6262 -14.5904 -14.5445 -14.4859 -14.3939 -14.1733 -13.7405 -13.6308
   -12.9711  -7.7732  -6.5732  -4.3165  -3.7842  -3.5193  -3.4870  -3.3587
    -3.3545  -3.3113  -3.1742  -3.1634  -3.0882  -3.0630  -3.0203  -2.9490
    -2.9035  -2.8688  -2.7784  -2.7646  -2.7451  -2.7362  -2.7160  -2.5990
    -2.5548  -2.5045  -2.4013  -2.2911  -2.2487  -2.2216  -2.1755  -2.1423
    -2.0911  -2.0799  -2.0677  -2.0558  -1.9521  -1.8300  -1.8051  -1.7819
    -1.7355  -1.7211  -1.7125  -1.6891  -1.6041  -1.4962  -1.4027  -1.3350
    -1.3282  -1.2525  -1.2442  -1.1865  -1.0751  -1.0126  -1.0102  -0.9882
    -0.8842  -0.8593  -0.7879  -0.7256  -0.6662  -0.6132  -0.5505  -0.4983
    -0.4752  -0.4659  -0.3678  -0.2983  -0.2736  -0.2182  -0.2098  -0.2044
    -0.1779  -0.0831  -0.0475   0.0291   0.0648   0.1126   0.1472   0.2267
     0.2863   0.3525   0.3994   0.4213   0.4866   0.5423   0.5977   0.6886
     0.7459   0.7519   0.7795   0.8380   0.8515   0.9256   1.0078   1.0279
     1.0942   1.1655   1.3292   1.3682   1.6144   1.6877   2.3122   2.6834
     2.8444   3.1396   3.3293   3.4675   3.6626   3.6730   3.6801   3.9013
     3.9299

[...]

          k = 0.0380-0.0419 0.0000 ( 17876 PWs)   bands (ev):

[...]

          k =-0.0760-0.0000 0.0000 ( 17886 PWs)   bands (ev):

[...]

          k =-0.0760-0.0839 0.0000 ( 17948 PWs)   bands (ev):

   -56.5773 -56.5768 -55.6969 -55.6925 -55.6547 -55.6457 -55.4773 -55.4690
   -55.3585 -55.2314 -55.2253 -55.2252 -55.2237 -55.1349 -54.7179 -54.6826
   -32.8542 -32.8538 -32.8376 -32.8374 -32.7235 -32.7231 -32.0034 -31.9976
   -31.9859 -31.9789 -31.9026 -31.8880 -31.8871 -31.8827 -31.8760 -31.8744
   -31.8668 -31.8588 -31.8327 -31.8157 -31.7224 -31.7159 -31.6843 -31.6765
   -31.6532 -31.6177 -31.5857 -31.5708 -31.5707 -31.5693 -31.5478 -31.5302
   -31.4790 -31.4501 -31.4499 -31.4461 -31.4305 -31.4110 -31.4109 -31.4002
   -31.3738 -31.3384 -31.1008 -31.0383 -30.9447 -30.9190 -30.9035 -30.8565
   -18.7831 -16.1001 -16.0981 -16.0627 -16.0620 -15.7955 -15.7921 -15.7025
   -15.6969 -15.5653 -15.4448 -15.3404 -15.3278 -15.2939 -15.2674 -15.1572
   -15.1363 -15.1249 -15.1147 -15.0070 -14.9875 -14.9402 -14.9257 -14.9101
   -14.9024 -14.6078 -14.5914 -14.4913 -14.4653 -14.3258 -13.7344 -13.7344
   -12.9896  -7.7667  -6.5663  -3.1968  -3.1900  -3.1523  -3.1354  -3.1346
    -3.0754  -2.9771  -2.9297  -2.9278  -2.9267  -2.8448  -2.7818  -2.7740
    -2.7000  -2.6670  -2.6498  -2.5928  -2.5779  -2.5142  -2.4877  -2.4796
    -2.4618  -2.4381  -2.4368  -2.3431  -2.2771  -2.2312  -2.2260  -2.1663
    -2.1375  -2.0775  -2.0548  -2.0437  -2.0113  -1.9697  -1.9577  -1.9192
    -1.8772  -1.8425  -1.7794  -1.6130  -1.6038  -1.5949  -1.5746  -1.4530
    -1.4448  -1.4103  -1.3789  -1.3734  -1.3026  -1.2529  -1.2151  -1.1638
    -1.0762  -1.0547  -0.9504  -0.8981  -0.8549  -0.7989  -0.6941  -0.6734
    -0.6662  -0.6547  -0.6244  -0.5547  -0.5209  -0.5164  -0.3936  -0.3696
    -0.3303  -0.3014  -0.2439  -0.2145  -0.1558  -0.1237  -0.0535  -0.0395
     0.0000   0.0772   0.1523   0.1866   0.2374   0.2438   0.5181   0.5917
     0.7211   0.7840   0.8464   0.9148   0.9800   1.0083   1.0376   1.1633
     1.1676   1.1770   1.1775   1.2478   1.2530   1.5930   2.1904   3.2594
     3.2597   3.3259   3.3265   3.6476   3.6538   3.7608   3.7710   3.9315
     3.9460

     the Fermi energy is     2.5104 ev

!    total energy              =   -2953.97087888 Ry
     estimated scf accuracy    <       0.00000006 Ry
     smearing contrib. (-TS)   =      -0.00443280 Ry
     internal energy E=F+TS    =   -2953.96644608 Ry

     The total energy is F=E-TS. E is the sum of the following terms:
     one-electron contribution =  -24343.95636200 Ry
     hartree contribution      =   12263.87553208 Ry
     xc contribution           =    -488.77044612 Ry
     ewald contribution        =    9614.88429942 Ry
     electric field correction =       0.00053055 Ry

     convergence has been achieved in  77 iterations

     Forces acting on atoms (cartesian axes, Ry/au):

     atom    1 type  1   force =    -0.00002370   -0.00048016    0.12442323
     atom    2 type  1   force =    -0.00004026   -0.00049210   -0.15978592
     atom    3 type  2   force =     0.00019997   -0.00023704   -0.06783445
     atom    4 type  2   force =    -0.00000065   -0.00009007    0.02613508
     atom    5 type  2   force =    -0.01437463    0.00191224   -0.00991373
     atom    6 type  2   force =     0.01615678    0.00232430   -0.01028733
     atom    7 type  1   force =     0.00071839   -0.00389769    0.02847595
     atom    8 type  1   force =    -0.00034359   -0.00435385    0.10936155
     atom    9 type  2   force =     0.00002329    0.00001633    0.00005655
     atom   10 type  2   force =    -0.00225559    0.00266715   -0.07362827
     atom   11 type  2   force =     0.00079569   -0.00002930   -0.00024032
     atom   12 type  2   force =    -0.00043695    0.00004705   -0.00020461
     atom   13 type  1   force =     0.00000231    0.00013626   -0.00010826
     atom   14 type  1   force =    -0.00034841    0.00048283   -0.00040924
     atom   15 type  2   force =     0.00001504   -0.00066596   -0.00022641
     atom   16 type  2   force =    -0.00018394   -0.00000589    0.00041043
     atom   17 type  2   force =    -0.00069218   -0.00046972   -0.00010846
     atom   18 type  2   force =     0.00026547   -0.00005084   -0.00010410
     atom   19 type  1   force =     0.00024966   -0.00001109   -0.00024968
     atom   20 type  1   force =    -0.00009809   -0.00062360   -0.00082736
     atom   21 type  2   force =     0.00006601   -0.00003743    0.09951884
     atom   22 type  2   force =    -0.00007163   -0.00049811    0.00027115
     atom   23 type  2   force =    -0.07969873   -0.00006338   -0.03246096
     atom   24 type  2   force =     0.07957044    0.00037709   -0.03251730
     atom   25 type  1   force =    -0.00000070   -0.00057469    0.12405896
     atom   26 type  1   force =    -0.00010500   -0.00063176   -0.15991308
     atom   27 type  2   force =     0.00033321   -0.00035694   -0.06690636
     atom   28 type  2   force =    -0.00002508    0.00017995    0.02515604
     atom   29 type  2   force =    -0.01496458    0.00189445   -0.00988949
     atom   30 type  2   force =     0.01664972    0.00242139   -0.01022282
     atom   31 type  1   force =     0.00078279   -0.00077261    0.02375570
     atom   32 type  1   force =    -0.00023679    0.00200191    0.10999831
     atom   33 type  2   force =     0.00004401   -0.00027007    0.00032012
     atom   34 type  2   force =    -0.00212382    0.00207140   -0.07174551
     atom   35 type  2   force =     0.00022080   -0.00012382   -0.00009365
     atom   36 type  2   force =    -0.00016707   -0.00024541   -0.00016175
     atom   37 type  1   force =     0.00043359   -0.00001895    0.00036457
     atom   38 type  1   force =     0.00001221   -0.00055972   -0.00018239
     atom   39 type  2   force =     0.00004021    0.00019942    0.00062936
     atom   40 type  2   force =    -0.00007111   -0.00023839    0.00027102
     atom   41 type  2   force =     0.00068435   -0.00020217    0.00028181
     atom   42 type  2   force =    -0.00099782   -0.00054196    0.00042293
     atom   43 type  1   force =    -0.00036546   -0.00037060    0.00007838
     atom   44 type  1   force =    -0.00016831   -0.00000635   -0.00094374
     atom   45 type  2   force =     0.00005098   -0.00004827    0.09949065
     atom   46 type  2   force =    -0.07970741    0.00000021   -0.03247908
     atom   47 type  2   force =     0.07958628    0.00042901   -0.03250495
     atom   48 type  3   force =    -0.00050760   -0.00011695   -0.00040452
     atom   49 type  4   force =    -0.00029871    0.00015151    0.00021071
     atom   50 type  5   force =    -0.00048530    0.00000253    0.00016305
     atom   51 type  5   force =    -0.00013869   -0.00064932    0.00056385
     atom   52 type  5   force =     0.00053988    0.00011798    0.00019430
     atom   53 type  2   force =     0.02516411    0.00078894   -0.00177214
     atom   54 type  5   force =    -0.01246718    0.00811717   -0.00298213
     atom   55 type  5   force =    -0.01120620   -0.00860495    0.00449546

     Total force =     0.424645     Total SCF correction =     0.000489
  @ DRIVER MODE: Message from server: STATUS
  @ DRIVER MODE: Message from server: GETFORCE
  @ DRIVER MODE: Returning v,forces,stress,ensemble

     Writing output data file ./calc.save/
  @ DRIVER MODE: Message from server: EXIT
  @ DRIVE MODE: Exiting

     General routines

     Parallel routines

   This run was terminated on:   1:21:52  16Sep2021

   JOB DONE.