     Program PWSCF v.6.7GPU starts on  3Aug2021 at 11:48:40

     R & G space division:  proc/nbgrp/npool/nimage =      16
     Reading input from /storage/home/hcoda1/3/ntian30/research/carbon/02Aug_vib_paired/ads_slab/CH3NN_b/out_0009/pw.inp
Warning: card &CELL ignored
Warning: card   CELL_DYNAMICS='IPI', ignored
Warning: card / ignored

     Current dimensions of program PWSCF are:
     Max number of different atomic species (ntypx) = 10
     Max number of k-points (npk) =  40000
     Max angular momentum in pseudopotentials (lmaxx) =  3
     Presently no symmetry can be used with electric field

     Message from routine cell_base_init:
     DEPRECATED: use true lattice parameter, not A to a.u. conversion factor

     IMPORTANT: XC functional enforced from input :
     Exchange-correlation= BEEF-VDW
                           (   1   4  43  14   2   0   0)
     Any further DFT definition will be discarded
     Please, verify this is what you really want

  @ DRIVER MODE: Connecting to
 qe_1139763_2490222.sched-torque.pace.gatech.edudaqbo6uv_scratch
  using UNIX socket
  @ DRIVER MODE: Message from server: STATUS
  @ DRIVER MODE: Message from server: INIT
  @ DRIVER MODE: Receiving replica           0          -1
  @ DRIVER MODE: Receiving encoded integer          25
  @ DRIVER MODE:  SCF:  T  FORCE:  T  STRESS:  F  VC:  F  ENSEMBLE:  F
  @ DRIVER MODE:  SCF:  T  FORCE:  T  STRESS:  F  VC:  F  ENSEMBLE:  F

     Using Slab Decomposition

     bravais-lattice index     =            0
     lattice parameter (alat)  =       1.8897  a.u.
     unit-cell volume          =    6658.9804 (a.u.)^3
     number of atoms/cell      =           53
     number of atomic types    =            5
     number of electrons       =       395.00
     number of Kohn-Sham states=          207
     kinetic-energy cutoff     =      29.3995  Ry
     charge density cutoff     =     293.9946  Ry
     scf convergence threshold =      7.3E-08
     mixing beta               =       0.0500
     number of iterations used =            8  plain     mixing
     Exchange-correlation= BEEF-VDW
                           (   1   4  43  14   2   0   0)

     celldm(1)=   1.889726  celldm(2)=   0.000000  celldm(3)=   0.000000
     celldm(4)=   0.000000  celldm(5)=   0.000000  celldm(6)=   0.000000

     crystal axes: (cart. coord. in units of alat)
               a(1) = (   6.579727   0.000000   0.000000 )
               a(2) = (  -0.000775   5.961596   0.000000 )
               a(3) = (   0.000000   0.000000  25.155947 )

     reciprocal axes: (cart. coord. in units 2 pi/alat)
               b(1) = (  0.151982  0.000020  0.000000 )
               b(2) = (  0.000000  0.167740  0.000000 )
               b(3) = (  0.000000  0.000000  0.039752 )

     PseudoPot. # 1 for Ti read from file:
     /storage/coda1/p-amedford6/0/shared/rich_project_chbe-medford/medford-share/data/pseudos_module/espresso/nninc/pbe/van/Ti.UPF
     MD5 check sum: 8e4df49b7f0d34bbd5052bf3f5ea0213
     Pseudo is Ultrasoft, Zval = 12.0
     Generated by new atomic code, or converted to UPF format
     Using radial grid of  851 points,  6 beta functions with:
                l(1) =   0
                l(2) =   0
                l(3) =   1
                l(4) =   1
                l(5) =   2
                l(6) =   2
     Q(r) pseudized with  8 coefficients,  rinner =    1.000   1.000   1.000
                                                       1.000   1.000

     PseudoPot. # 2 for O  read from file:
     /storage/coda1/p-amedford6/0/shared/rich_project_chbe-medford/medford-share/data/pseudos_module/espresso/nninc/pbe/van/O.UPF
     MD5 check sum: 78c19812648e8988a0fe644b0f25305e
     Pseudo is Ultrasoft, Zval =  6.0
     Generated by new atomic code, or converted to UPF format
     Using radial grid of  737 points,  4 beta functions with:
                l(1) =   0
                l(2) =   0
                l(3) =   1
                l(4) =   1
     Q(r) pseudized with  8 coefficients,  rinner =    0.800   0.800   0.800

     PseudoPot. # 3 for N  read from file:
     /storage/coda1/p-amedford6/0/shared/rich_project_chbe-medford/medford-share/data/pseudos_module/espresso/nninc/pbe/van/N.UPF
     MD5 check sum: 90d10febe142ad51ac9d5be1deb811c4
     Pseudo is Ultrasoft, Zval =  5.0
     Generated by new atomic code, or converted to UPF format
     Using radial grid of  729 points,  4 beta functions with:
                l(1) =   0
                l(2) =   0
                l(3) =   1
                l(4) =   1
     Q(r) pseudized with  8 coefficients,  rinner =    0.800   0.800   0.800

     PseudoPot. # 4 for C  read from file:
     /storage/coda1/p-amedford6/0/shared/rich_project_chbe-medford/medford-share/data/pseudos_module/espresso/nninc/pbe/van/C.UPF
     MD5 check sum: 1a69bf6b8db32088f5b2163dbdb77a27
     Pseudo is Ultrasoft, Zval =  4.0
     Generated by new atomic code, or converted to UPF format
     Using radial grid of  721 points,  4 beta functions with:
                l(1) =   0
                l(2) =   0
                l(3) =   1
                l(4) =   1
     Q(r) pseudized with  8 coefficients,  rinner =    0.800   0.800   0.800

     PseudoPot. # 5 for H  read from file:
     /storage/coda1/p-amedford6/0/shared/rich_project_chbe-medford/medford-share/data/pseudos_module/espresso/nninc/pbe/van/H.UPF
     MD5 check sum: b5ee9d7bfd3a09ee7748110bda690ff7
     Pseudo is Ultrasoft, Zval =  1.0
     Generated by new atomic code, or converted to UPF format
     Using radial grid of  615 points,  1 beta functions with:
                l(1) =   0
     Q(r) pseudized with  8 coefficients,  rinner =    0.800

     atomic species   valence    mass     pseudopotential
        Ti1           12.00    47.86700     Ti( 1.00)
        O1             6.00    15.99900     O ( 1.00)
        N1             5.00    14.00700     N ( 1.00)
        C1             4.00    12.01100     C ( 1.00)
        H1             1.00     1.00800     H ( 1.00)

     No symmetry found

   Cartesian axes

     site n.     atom                  positions (alat units)
         1           Ti1 tau(   1) = (   0.0004258   2.9801865   6.0000000  )
         2           Ti1 tau(   2) = (   3.2906075   1.4906267   6.0002472  )
         3           O1  tau(   3) = (   0.0006271   0.0005054   7.9858123  )
         4           O1  tau(   4) = (   3.2906025   0.0005020   7.3038282  )
         5           O1  tau(   5) = (   4.5942328   1.4918067   9.2879030  )
         6           O1  tau(   6) = (   1.9868534   1.4903216   9.2879459  )
         7           Ti1 tau(   7) = (   3.2907910   2.8959150   9.1758416  )
         8           Ti1 tau(   8) = (   0.0015273   1.4827037   9.2680791  )
         9           O1  tau(   9) = (   3.2846693   5.9452209  11.3340492  )
        10           O1  tau(  10) = (   0.0116148   5.9584955  10.6183126  )
        11           O1  tau(  11) = (   1.2834543   1.4847615  12.6293855  )
        12           O1  tau(  12) = (   5.2674731   1.4768263  12.6150299  )
        13           Ti1 tau(  13) = (   0.0515077   3.0114797  12.6524288  )
        14           Ti1 tau(  14) = (   3.3730355   1.4714245  12.4820590  )
        15           O1  tau(  15) = (   6.5599962   0.0037305  14.6029173  )
        16           O1  tau(  16) = (   3.2800597   5.9387738  13.9271036  )
        17           O1  tau(  17) = (   4.5186125   1.4654914  16.0451899  )
        18           O1  tau(  18) = (   2.0258539   1.4687252  16.0523685  )
        19           Ti1 tau(  19) = (   3.2649076   2.9492218  15.6988400  )
        20           Ti1 tau(  20) = (   6.5508048   1.3556675  15.8025096  )
        21           O1  tau(  21) = (   3.2904802   0.0005063   4.7018136  )
        22           O1  tau(  22) = (   6.5741700   5.9536011  17.1303138  )
        23           O1  tau(  23) = (   1.3043587   1.4918075   6.0039043  )
        24           O1  tau(  24) = (   5.2767064   1.4903225   6.0039473  )
        25           Ti1 tau(  25) = (   0.0000382   5.9609847   6.0000000  )
        26           Ti1 tau(  26) = (   3.2902200   4.4714249   6.0002472  )
        27           O1  tau(  27) = (   0.0002396   2.9813036   7.9858123  )
        28           O1  tau(  28) = (   3.2902150   2.9813002   7.3038282  )
        29           O1  tau(  29) = (   4.5938453   4.4726049   9.2879030  )
        30           O1  tau(  30) = (   1.9864658   4.4711199   9.2879459  )
        31           Ti1 tau(  31) = (   3.2891106   5.8743827   9.1763621  )
        32           Ti1 tau(  32) = (   0.0006254   4.4649316   9.2693709  )
        33           O1  tau(  33) = (   3.2861826   2.9668924  11.3320306  )
        34           O1  tau(  34) = (   0.0092240   2.9805883  10.6323155  )
        35           O1  tau(  35) = (   1.2809698   4.4658153  12.6346578  )
        36           O1  tau(  36) = (   5.2715881   4.4563464  12.6201172  )
        37           Ti1 tau(  37) = (   0.0635592   0.0233401  12.5351680  )
        38           Ti1 tau(  38) = (   3.3726470   4.4512063  12.4842852  )
        39           O1  tau(  39) = (   6.5700678   2.9603531  14.7052597  )
        40           O1  tau(  40) = (   3.2800127   2.9650284  13.9044324  )
        41           O1  tau(  41) = (   4.5221929   4.4260918  16.0817388  )
        42           O1  tau(  42) = (   2.0277389   4.4301665  16.0727494  )
        43           Ti1 tau(  43) = (   3.2617617   5.9330256  15.7261539  )
        44           Ti1 tau(  44) = (   6.5423007   4.4542687  16.1498850  )
        45           O1  tau(  45) = (   3.2900926   2.9813045   4.7018136  )
        46           O1  tau(  46) = (   1.3039711   4.4726057   6.0039043  )
        47           O1  tau(  47) = (   5.2763189   4.4711207   6.0039473  )
        48           N1  tau(  48) = (   2.8794700   5.9070534  18.9683957  )
        49           C1  tau(  49) = (   6.5502552   3.0356858  17.8350167  )
        50           H1  tau(  50) = (   5.8927902   3.7356694  18.3776660  )
        51           H1  tau(  51) = (   6.1439290   2.0579341  18.0513002  )
        52           H1  tau(  52) = (   0.9604482   3.1013269  18.2919552  )
        53           N1  tau(  53) = (   2.0963344   5.7764004  19.7355773  )

     number of k points=    10  Fermi-Dirac smearing, width (Ry)=  0.0073
                       cart. coord. in units 2pi/alat
        k(    1) = (   0.0000000   0.0000000   0.0000000), wk =   0.1250000
        k(    2) = (   0.0000000   0.0419351   0.0000000), wk =   0.2500000
        k(    3) = (   0.0000000  -0.0838702   0.0000000), wk =   0.1250000
        k(    4) = (   0.0379955   0.0000049   0.0000000), wk =   0.2500000
        k(    5) = (   0.0379955   0.0419400   0.0000000), wk =   0.2500000
        k(    6) = (   0.0379955  -0.0838652   0.0000000), wk =   0.2500000
        k(    7) = (   0.0379955  -0.0419301   0.0000000), wk =   0.2500000
        k(    8) = (  -0.0759910  -0.0000099   0.0000000), wk =   0.1250000
        k(    9) = (  -0.0759910   0.0419252   0.0000000), wk =   0.2500000
        k(   10) = (  -0.0759910  -0.0838800   0.0000000), wk =   0.1250000

     Initial potential from superposition of free atoms

[...]
     MD5 check sum: 90d10febe142ad51ac9d5be1deb811c4
     Pseudo is Ultrasoft, Zval =  5.0
     Generated by new atomic code, or converted to UPF format
     Using radial grid of  729 points,  4 beta functions with:
                l(1) =   0
                l(2) =   0
                l(3) =   1
                l(4) =   1
     Q(r) pseudized with  8 coefficients,  rinner =    0.800   0.800   0.800

     PseudoPot. # 4 for C  read from file:
     /storage/coda1/p-amedford6/0/shared/rich_project_chbe-medford/medford-share/data/pseudos_module/espresso/nninc/pbe/van/C.UPF
     MD5 check sum: 1a69bf6b8db32088f5b2163dbdb77a27
     Pseudo is Ultrasoft, Zval =  4.0
     Generated by new atomic code, or converted to UPF format
     Using radial grid of  721 points,  4 beta functions with:
                l(1) =   0
                l(2) =   0
                l(3) =   1
                l(4) =   1
     Q(r) pseudized with  8 coefficients,  rinner =    0.800   0.800   0.800

     PseudoPot. # 5 for H  read from file:
     /storage/coda1/p-amedford6/0/shared/rich_project_chbe-medford/medford-share/data/pseudos_module/espresso/nninc/pbe/van/H.UPF
     MD5 check sum: b5ee9d7bfd3a09ee7748110bda690ff7
     Pseudo is Ultrasoft, Zval =  1.0
     Generated by new atomic code, or converted to UPF format
     Using radial grid of  615 points,  1 beta functions with:
                l(1) =   0
     Q(r) pseudized with  8 coefficients,  rinner =    0.800

     atomic species   valence    mass     pseudopotential
        Ti1           12.00    47.86700     Ti( 1.00)
        O1             6.00    15.99900     O ( 1.00)
        N1             5.00    14.00700     N ( 1.00)
        C1             4.00    12.01100     C ( 1.00)
        H1             1.00     1.00800     H ( 1.00)

     No symmetry found

   Cartesian axes

     site n.     atom                  positions (alat units)
         1           Ti1 tau(   1) = (   0.0004258   2.9801865   6.0000000  )
         2           Ti1 tau(   2) = (   3.2906075   1.4906267   6.0002472  )
         3           O1  tau(   3) = (   0.0006271   0.0005054   7.9858123  )
         4           O1  tau(   4) = (   3.2906025   0.0005020   7.3038282  )
         5           O1  tau(   5) = (   4.5942328   1.4918067   9.2879030  )
         6           O1  tau(   6) = (   1.9868534   1.4903216   9.2879459  )
         7           Ti1 tau(   7) = (   3.2907910   2.8959150   9.1758416  )
         8           Ti1 tau(   8) = (   0.0015273   1.4827037   9.2680791  )
         9           O1  tau(   9) = (   3.2846693   5.9452209  11.3340492  )
        10           O1  tau(  10) = (   0.0116148   5.9584955  10.6183126  )
        11           O1  tau(  11) = (   1.2834543   1.4847615  12.6293855  )
        12           O1  tau(  12) = (   5.2674731   1.4768263  12.6150299  )
        13           Ti1 tau(  13) = (   0.0515077   3.0114797  12.6524288  )
        14           Ti1 tau(  14) = (   3.3730355   1.4714245  12.4820590  )
        15           O1  tau(  15) = (   6.5599962   0.0037305  14.6029173  )
        16           O1  tau(  16) = (   3.2800597   5.9387738  13.9271036  )
        17           O1  tau(  17) = (   4.5186125   1.4654914  16.0451899  )
        18           O1  tau(  18) = (   2.0258539   1.4687252  16.0523685  )
        19           Ti1 tau(  19) = (   3.2649076   2.9492218  15.6988400  )
        20           Ti1 tau(  20) = (   6.5508048   1.3556675  15.8025096  )
        21           O1  tau(  21) = (   3.2904802   0.0005063   4.7018136  )
        22           O1  tau(  22) = (   6.5741700   5.9536011  17.1303138  )
        23           O1  tau(  23) = (   1.3043587   1.4918075   6.0039043  )
        24           O1  tau(  24) = (   5.2767064   1.4903225   6.0039473  )
        25           Ti1 tau(  25) = (   0.0000382   5.9609847   6.0000000  )
        26           Ti1 tau(  26) = (   3.2902200   4.4714249   6.0002472  )
        27           O1  tau(  27) = (   0.0002396   2.9813036   7.9858123  )
        28           O1  tau(  28) = (   3.2902150   2.9813002   7.3038282  )
        29           O1  tau(  29) = (   4.5938453   4.4726049   9.2879030  )
        30           O1  tau(  30) = (   1.9864658   4.4711199   9.2879459  )
        31           Ti1 tau(  31) = (   3.2891106   5.8743827   9.1763621  )
        32           Ti1 tau(  32) = (   0.0006254   4.4649316   9.2693709  )
        33           O1  tau(  33) = (   3.2861826   2.9668924  11.3320306  )
        34           O1  tau(  34) = (   0.0092240   2.9805883  10.6323155  )
        35           O1  tau(  35) = (   1.2809698   4.4658153  12.6346578  )
        36           O1  tau(  36) = (   5.2715881   4.4563464  12.6201172  )
        37           Ti1 tau(  37) = (   0.0635592   0.0233401  12.5351680  )
        38           Ti1 tau(  38) = (   3.3726470   4.4512063  12.4842852  )
        39           O1  tau(  39) = (   6.5700678   2.9603531  14.7052597  )
        40           O1  tau(  40) = (   3.2800127   2.9650284  13.9044324  )
        41           O1  tau(  41) = (   4.5221929   4.4260918  16.0817388  )
        42           O1  tau(  42) = (   2.0277389   4.4301665  16.0727494  )
        43           Ti1 tau(  43) = (   3.2617617   5.9330256  15.7261539  )
        44           Ti1 tau(  44) = (   6.5423007   4.4542687  16.1498850  )
        45           O1  tau(  45) = (   3.2900926   2.9813045   4.7018136  )
        46           O1  tau(  46) = (   1.3039711   4.4726057   6.0039043  )
        47           O1  tau(  47) = (   5.2763189   4.4711207   6.0039473  )
        48           N1  tau(  48) = (   2.8794700   5.9070534  18.9683957  )
        49           C1  tau(  49) = (   6.5502552   3.0456858  17.8350167  )
        50           H1  tau(  50) = (   5.8927902   3.7356694  18.3776660  )
        51           H1  tau(  51) = (   6.1339290   2.0579341  18.0513002  )
        52           H1  tau(  52) = (   0.9604482   3.1013269  18.2919552  )
        53           N1  tau(  53) = (   2.0963344   5.7764004  19.7355773  )

     number of k points=    10  Fermi-Dirac smearing, width (Ry)=  0.0073
                       cart. coord. in units 2pi/alat
        k(    1) = (   0.0000000   0.0000000   0.0000000), wk =   0.1250000
        k(    2) = (   0.0000000   0.0419351   0.0000000), wk =   0.2500000
        k(    3) = (   0.0000000  -0.0838702   0.0000000), wk =   0.1250000
        k(    4) = (   0.0379955   0.0000049   0.0000000), wk =   0.2500000
        k(    5) = (   0.0379955   0.0419400   0.0000000), wk =   0.2500000
        k(    6) = (   0.0379955  -0.0838652   0.0000000), wk =   0.2500000
        k(    7) = (   0.0379955  -0.0419301   0.0000000), wk =   0.2500000
        k(    8) = (  -0.0759910  -0.0000099   0.0000000), wk =   0.1250000
        k(    9) = (  -0.0759910   0.0419252   0.0000000), wk =   0.2500000
        k(   10) = (  -0.0759910  -0.0838800   0.0000000), wk =   0.1250000

     Initial potential from superposition of free atoms

     starting charge  378.99916, renormalised to  395.00000

[...]

     %%%%%%%%%%%%%%%%%%%%%%%%%%%%%%%%%%%%%%%%%%%%%%%%%%%%%%%%%%%%%%%%%%%%%%%%
     %                                                                      %
     % You are using vdW-DF, which was implemented by the Thonhauser group. %
     % Please cite the following two papers that made this development      %
     % possible and the two reviews that describe the various versions:     %
     %                                                                      %
     %   T. Thonhauser et al., PRL 115, 136402 (2015).                      %
     %   T. Thonhauser et al., PRB 76, 125112 (2007).                       %
     %   K. Berland et al., Rep. Prog. Phys. 78, 066501 (2015).             %
     %   D.C. Langreth et al., J. Phys.: Condens. Matter 21, 084203 (2009). %
     %                                                                      %
     %                                                                      %
     % If you are calculating the stress with vdW-DF, please also cite:     %
     %                                                                      %
     %   R. Sabatini et al., J. Phys.: Condens. Matter 24, 424209 (2012).   %
     %                                                                      %
     %%%%%%%%%%%%%%%%%%%%%%%%%%%%%%%%%%%%%%%%%%%%%%%%%%%%%%%%%%%%%%%%%%%%%%%%

[...]

     Starting wfcs are  299 atomic wfcs
  @ DRIVER MODE: Message from server: STATUS
  @ DRIVER MODE: Message from server: POSDATA
  @ DRIVER MODE: Reading and sharing cell
  @ DRIVER MODE: Reading and sharing positions
  @ DRIVER MODE: Received positions

     Self-consistent Calculation

[...]

     iteration # 51     ecut=    29.40 Ry     beta= 0.05
     Davidson diagonalization with overlap
     c_bands:  1 eigenvalues not converged
     ethr =  5.66E-09,  avg # of iterations =  3.8

[...]

     total energy              =   -2939.21027561 Ry
     estimated scf accuracy    <       0.00000015 Ry

     iteration # 63     ecut=    29.40 Ry     beta= 0.05
     Davidson diagonalization with overlap
     ethr =  3.84E-11,  avg # of iterations = 11.1

     negative rho (up, down):  1.664E-02 0.000E+00

     Adding external electric field

     Computed dipole along edir(3) :
        Dipole                0.4586 Ry au,          1.1656 Debye
        Dipole field          0.0009 Ry au,

        Potential amp.       -0.0802 Ry
        Total length         46.3494 bohr

     End of self-consistent calculation

[...]

          k = 0.0380-0.0419 0.0000 ( 17876 PWs)   bands (ev):

[...]

          k =-0.0760-0.0839 0.0000 ( 17948 PWs)   bands (ev):

   -56.0222 -56.0208 -56.0132 -56.0072 -55.9236 -55.8870 -55.8792 -55.8595
   -55.8287 -55.8259 -55.7960 -55.7932 -55.6043 -55.4880 -54.9989 -54.9987
   -32.3896 -32.3837 -32.3366 -32.3358 -32.3174 -32.3163 -32.3042 -32.2923
   -32.2471 -32.2309 -32.2288 -32.2265 -32.1928 -32.1705 -32.1683 -32.1569
   -32.1498 -32.1417 -32.1403 -32.1401 -32.1341 -32.1309 -32.1214 -32.1052
   -32.0772 -32.0763 -32.0737 -32.0471 -32.0288 -32.0276 -32.0262 -32.0247
   -32.0101 -32.0089 -32.0061 -31.9997 -31.9712 -31.8766 -31.8204 -31.7689
   -31.7412 -31.6440 -31.3251 -31.3248 -31.2359 -31.2356 -31.1966 -31.1964
   -20.9793 -16.2230 -16.1917 -16.0002 -15.9529 -15.9479 -15.9365 -15.8465
   -15.7388 -15.7335 -15.7323 -15.6617 -15.6392 -15.6313 -15.5788 -15.5760
   -15.5656 -15.5544 -15.5494 -15.5007 -15.4929 -15.4765 -15.4671 -15.4100
   -15.3547 -15.3504 -15.3412 -15.1434 -15.0283 -14.9625 -13.5040 -13.5036
    -9.1565  -6.2290  -4.1451  -4.1209  -3.5160  -3.4761  -3.2643  -3.1989
    -3.1849  -3.1127  -2.9793  -2.9652  -2.9371  -2.9311  -2.9162  -2.8853
    -2.8713  -2.8524  -2.8456  -2.8310  -2.8148  -2.7895  -2.7520  -2.7448
    -2.7355  -2.7076  -2.6905  -2.6674  -2.6569  -2.6377  -2.6300  -2.5980
    -2.5743  -2.5539  -2.5459  -2.4203  -2.2814  -2.2358  -2.1837  -2.1666
    -2.1651  -2.1301  -2.1008  -2.0904  -2.0658  -2.0215  -1.8690  -1.7658
    -1.7410  -1.7118  -1.6675  -1.6280  -1.5708  -1.4386  -1.4246  -1.3968
    -1.3406  -1.3270  -1.2793  -1.2645  -1.2489  -1.1689  -1.1364  -1.0824
    -1.0103  -0.9996  -0.9926  -0.9370  -0.8827  -0.8080  -0.7991  -0.7594
    -0.7179  -0.6788  -0.6457  -0.6187  -0.5506  -0.5150  -0.3993  -0.3457
    -0.1134  -0.0722   0.0097   0.0536   0.1073   0.1507   0.1610   0.2792
     0.2817   0.3029   0.3874   0.3972   0.4891   0.5081   0.5193   0.7188
     1.2182   1.3699   1.3708   1.4425   1.4431   3.3830   3.3960   3.4217
     3.4674   3.6015   3.6102   3.6289   3.6307   3.7568   3.7769

     the Fermi energy is     3.0967 ev

!    total energy              =   -2939.21030335 Ry
     estimated scf accuracy    <       0.00000007 Ry
     smearing contrib. (-TS)   =      -0.02183372 Ry
     internal energy E=F+TS    =   -2939.18846963 Ry

     The total energy is F=E-TS. E is the sum of the following terms:
     one-electron contribution =  -24056.66472269 Ry
     hartree contribution      =   12113.89204627 Ry
     xc contribution           =    -484.93798551 Ry
     ewald contribution        =    9488.52179546 Ry
     electric field correction =       0.00039684 Ry

     convergence has been achieved in  63 iterations

     Forces acting on atoms (cartesian axes, Ry/au):

     atom    1 type  1   force =     0.00024501   -0.00019168    0.09665645
     atom    2 type  1   force =    -0.00017503   -0.00056127   -0.17530131
     atom    3 type  2   force =    -0.00000825   -0.00004583   -0.02514485
     atom    4 type  2   force =     0.00006847   -0.00152360    0.05288105
     atom    5 type  2   force =    -0.01232185   -0.00156013    0.00380431
     atom    6 type  2   force =     0.01380137   -0.00083464    0.00223070
     atom    7 type  1   force =    -0.00114431    0.00042593   -0.01133211
     atom    8 type  1   force =     0.00079521    0.01676849    0.02866159
     atom    9 type  2   force =     0.00010864   -0.00021128   -0.00001813
     atom   10 type  2   force =    -0.00174323    0.00057523   -0.01859250
     atom   11 type  2   force =    -0.00019805   -0.00003962   -0.00014652
     atom   12 type  2   force =    -0.00000004    0.00000808   -0.00002230
     atom   13 type  1   force =     0.00013128   -0.00028752   -0.00020800
     atom   14 type  1   force =    -0.00009579    0.00033323    0.00026957
     atom   15 type  2   force =    -0.00023216   -0.00000644   -0.00105194
     atom   16 type  2   force =     0.00000117   -0.00022871   -0.00032057
     atom   17 type  2   force =     0.00033938    0.00031099    0.00031199
     atom   18 type  2   force =    -0.00046970    0.00001231   -0.00009514
     atom   19 type  1   force =    -0.00044115   -0.00009555   -0.00008562
     atom   20 type  1   force =    -0.00000228    0.00081354    0.00031678
     atom   21 type  2   force =     0.00013201    0.00000913    0.10320522
     atom   22 type  2   force =     0.00010342   -0.00049963   -0.00019614
     atom   23 type  2   force =    -0.07149822   -0.00012188   -0.02774543
     atom   24 type  2   force =     0.07149202    0.00030398   -0.02772523
     atom   25 type  1   force =     0.00011935   -0.00017536    0.09646212
     atom   26 type  1   force =    -0.00007613   -0.00019798   -0.17538435
     atom   27 type  2   force =     0.00008960   -0.00016872   -0.02393212
     atom   28 type  2   force =     0.00008796   -0.00126260    0.05295280
     atom   29 type  2   force =    -0.01251256    0.00044413    0.00364492
     atom   30 type  2   force =     0.01394473    0.00085033    0.00205421
     atom   31 type  1   force =    -0.00129215    0.00339389   -0.01269930
     atom   32 type  1   force =     0.00074746   -0.01753991    0.02978362
     atom   33 type  2   force =     0.00017294    0.00017341   -0.00007937
     atom   34 type  2   force =    -0.00105245    0.00009196   -0.02245589
     atom   35 type  2   force =     0.00009782    0.00021003    0.00005488
     atom   36 type  2   force =     0.00009213    0.00009023    0.00019589
     atom   37 type  1   force =    -0.00012615    0.00038003   -0.00019611
     atom   38 type  1   force =    -0.00017655    0.00026675    0.00030610
     atom   39 type  2   force =     0.00007217    0.00021319    0.00044032
     atom   40 type  2   force =    -0.00003033   -0.00000464    0.00000661
     atom   41 type  2   force =     0.00030601   -0.00023745    0.00007408
     atom   42 type  2   force =     0.00013801   -0.00023814    0.00019607
     atom   43 type  1   force =    -0.00005011   -0.00025554    0.00020537
     atom   44 type  1   force =    -0.00006473   -0.00001636    0.00037481
     atom   45 type  2   force =     0.00010952   -0.00001257    0.10321800
     atom   46 type  2   force =    -0.07148763   -0.00011270   -0.02771716
     atom   47 type  2   force =     0.07149944    0.00036818   -0.02774132
     atom   48 type  3   force =    -0.00141731    0.00014981   -0.00080525
     atom   49 type  4   force =    -0.00310837   -0.00371867    0.00037120
     atom   50 type  5   force =    -0.00007538    0.00081517    0.00030901
     atom   51 type  5   force =     0.00287349    0.00343053   -0.00067823
     atom   52 type  5   force =     0.00032878   -0.00084143    0.00009339
     atom   53 type  3   force =     0.00190250    0.00055132    0.00059382

     Total force =     0.368815     Total SCF correction =     0.000585
  @ DRIVER MODE: Message from server: STATUS
  @ DRIVER MODE: Message from server: GETFORCE
  @ DRIVER MODE: Returning v,forces,stress,ensemble

     Writing output data file ./calc.save/
  @ DRIVER MODE: Message from server: EXIT
  @ DRIVE MODE: Exiting

     General routines

     Parallel routines

   This run was terminated on:   5:27:30   4Aug2021

   JOB DONE.