     Program PWSCF v.6.7GPU starts on 15Sep2021 at 15:34:19

     R & G space division:  proc/nbgrp/npool/nimage =      10
     Reading input from /storage/home/hcoda1/3/ntian30/research/carbon/CxH_vib/H2O_calc/ads_slab/CH2OH2O_a/out_0000/pw.inp
Warning: card &CELL ignored
Warning: card   CELL_DYNAMICS='IPI', ignored
Warning: card / ignored

     Current dimensions of program PWSCF are:
     Max number of different atomic species (ntypx) = 10
     Max number of k-points (npk) =  40000
     Max angular momentum in pseudopotentials (lmaxx) =  3
     Presently no symmetry can be used with electric field

     Message from routine cell_base_init:
     DEPRECATED: use true lattice parameter, not A to a.u. conversion factor

     IMPORTANT: XC functional enforced from input :
     Exchange-correlation= BEEF-VDW
                           (   1   4  43  14   2   0   0)
     Any further DFT definition will be discarded
     Please, verify this is what you really want

  @ DRIVER MODE: Connecting to
 qe_1139763_2852613.sched-torque.pace.gatech.eduzjb9jfkj_scratch
  using UNIX socket
  @ DRIVER MODE: Message from server: STATUS
  @ DRIVER MODE: Message from server: INIT
  @ DRIVER MODE: Receiving replica           0          -1
  @ DRIVER MODE: Receiving encoded integer          25
  @ DRIVER MODE:  SCF:  T  FORCE:  T  STRESS:  F  VC:  F  ENSEMBLE:  F
  @ DRIVER MODE:  SCF:  T  FORCE:  T  STRESS:  F  VC:  F  ENSEMBLE:  F

     Using Slab Decomposition

     bravais-lattice index     =            0
     lattice parameter (alat)  =       1.8897  a.u.
     unit-cell volume          =    6658.9804 (a.u.)^3
     number of atoms/cell      =           54
     number of atomic types    =            4
     number of electrons       =       398.00
     number of Kohn-Sham states=          209
     kinetic-energy cutoff     =      29.3995  Ry
     charge density cutoff     =     293.9946  Ry
     scf convergence threshold =      7.3E-08
     mixing beta               =       0.0500
     number of iterations used =            8  plain     mixing
     Exchange-correlation= BEEF-VDW
                           (   1   4  43  14   2   0   0)

     celldm(1)=   1.889726  celldm(2)=   0.000000  celldm(3)=   0.000000
     celldm(4)=   0.000000  celldm(5)=   0.000000  celldm(6)=   0.000000

     crystal axes: (cart. coord. in units of alat)
               a(1) = (   6.579727   0.000000   0.000000 )
               a(2) = (  -0.000775   5.961596   0.000000 )
               a(3) = (   0.000000   0.000000  25.155947 )

     reciprocal axes: (cart. coord. in units 2 pi/alat)
               b(1) = (  0.151982  0.000020  0.000000 )
               b(2) = (  0.000000  0.167740  0.000000 )
               b(3) = (  0.000000  0.000000  0.039752 )

     PseudoPot. # 1 for O  read from file:
     /storage/coda1/p-amedford6/0/shared/rich_project_chbe-medford/medford-share/data/pseudos_module/espresso/nninc/pbe/van/O.UPF
     MD5 check sum: 78c19812648e8988a0fe644b0f25305e
     Pseudo is Ultrasoft, Zval =  6.0
     Generated by new atomic code, or converted to UPF format
     Using radial grid of  737 points,  4 beta functions with:
                l(1) =   0
                l(2) =   0
                l(3) =   1
                l(4) =   1
     Q(r) pseudized with  8 coefficients,  rinner =    0.800   0.800   0.800

     PseudoPot. # 2 for Ti read from file:
     /storage/coda1/p-amedford6/0/shared/rich_project_chbe-medford/medford-share/data/pseudos_module/espresso/nninc/pbe/van/Ti.UPF
     MD5 check sum: 8e4df49b7f0d34bbd5052bf3f5ea0213
     Pseudo is Ultrasoft, Zval = 12.0
     Generated by new atomic code, or converted to UPF format
     Using radial grid of  851 points,  6 beta functions with:
                l(1) =   0
                l(2) =   0
                l(3) =   1
                l(4) =   1
                l(5) =   2
                l(6) =   2
     Q(r) pseudized with  8 coefficients,  rinner =    1.000   1.000   1.000
                                                       1.000   1.000

     PseudoPot. # 3 for C  read from file:
     /storage/coda1/p-amedford6/0/shared/rich_project_chbe-medford/medford-share/data/pseudos_module/espresso/nninc/pbe/van/C.UPF
     MD5 check sum: 1a69bf6b8db32088f5b2163dbdb77a27
     Pseudo is Ultrasoft, Zval =  4.0
     Generated by new atomic code, or converted to UPF format
     Using radial grid of  721 points,  4 beta functions with:
                l(1) =   0
                l(2) =   0
                l(3) =   1
                l(4) =   1
     Q(r) pseudized with  8 coefficients,  rinner =    0.800   0.800   0.800

     PseudoPot. # 4 for H  read from file:
     /storage/coda1/p-amedford6/0/shared/rich_project_chbe-medford/medford-share/data/pseudos_module/espresso/nninc/pbe/van/H.UPF
     MD5 check sum: b5ee9d7bfd3a09ee7748110bda690ff7
     Pseudo is Ultrasoft, Zval =  1.0
     Generated by new atomic code, or converted to UPF format
     Using radial grid of  615 points,  1 beta functions with:
                l(1) =   0
     Q(r) pseudized with  8 coefficients,  rinner =    0.800

     atomic species   valence    mass     pseudopotential
        O1             6.00    15.99900     O ( 1.00)
        Ti1           12.00    47.86700     Ti( 1.00)
        C1             4.00    12.01100     C ( 1.00)
        H1             1.00     1.00800     H ( 1.00)

     No symmetry found

   Cartesian axes

     site n.     atom                  positions (alat units)
         1           O1  tau(   1) = (   3.2904802   0.0005063   4.7018136  )
         2           O1  tau(   2) = (   3.2900926   2.9813045   4.7018136  )
         3           Ti1 tau(   3) = (   0.0004258   2.9801865   6.0000000  )
         4           Ti1 tau(   4) = (   0.0000382   5.9609847   6.0000000  )
         5           Ti1 tau(   5) = (   3.2906075   1.4906267   6.0002472  )
         6           Ti1 tau(   6) = (   3.2902200   4.4714249   6.0002472  )
         7           O1  tau(   7) = (   1.3043587   1.4918075   6.0039043  )
         8           O1  tau(   8) = (   1.3039711   4.4726057   6.0039043  )
         9           O1  tau(   9) = (   5.2767064   1.4903225   6.0039473  )
        10           O1  tau(  10) = (   5.2763189   4.4711207   6.0039473  )
        11           O1  tau(  11) = (   3.2906025   0.0005020   7.3038282  )
        12           O1  tau(  12) = (   3.2902150   2.9813002   7.3038282  )
        13           O1  tau(  13) = (   0.0006271   0.0005054   7.9858123  )
        14           O1  tau(  14) = (   0.0002396   2.9813036   7.9858123  )
        15           Ti1 tau(  15) = (   3.3036605   0.0548493   9.1550340  )
        16           Ti1 tau(  16) = (   3.3179312   3.0323762   9.1622521  )
        17           Ti1 tau(  17) = (   0.0293130   4.5303424   9.2586280  )
        18           Ti1 tau(  18) = (   0.0255512   1.6071936   9.3606264  )
        19           O1  tau(  19) = (   4.5942328   1.4918067   9.2879030  )
        20           O1  tau(  20) = (   4.5938453   4.4726049   9.2879030  )
        21           O1  tau(  21) = (   1.9868534   1.4903216   9.2879459  )
        22           O1  tau(  22) = (   1.9864658   4.4711199   9.2879459  )
        23           O1  tau(  23) = (   0.0067149   0.0090568  10.6008527  )
        24           O1  tau(  24) = (   0.0066098   2.9904127  10.5810825  )
        25           O1  tau(  25) = (   3.3023248   2.9935247  11.3558429  )
        26           O1  tau(  26) = (   3.3019398   0.0103095  11.3581380  )
        27           Ti1 tau(  27) = (   0.0322082   0.0188897  12.5014682  )
        28           Ti1 tau(  28) = (   3.3323403   4.4947089  12.5096490  )
        29           Ti1 tau(  29) = (   3.3327227   1.5059056  12.5040540  )
        30           Ti1 tau(  30) = (   0.0321551   3.0004163  12.7750784  )
        31           O1  tau(  31) = (   1.2963378   4.4834263  12.6382484  )
        32           O1  tau(  32) = (   1.2968596   1.4996660  12.6342602  )
        33           O1  tau(  33) = (   5.3004736   4.4821179  12.6410582  )
        34           O1  tau(  34) = (   5.3007909   1.4998706  12.6367838  )
        35           O1  tau(  35) = (   3.3017874   2.9879694  13.9086975  )
        36           O1  tau(  36) = (   3.3040514   0.0100701  13.9766235  )
        37           O1  tau(  37) = (   0.0177811   0.0165449  14.6846256  )
        38           O1  tau(  38) = (   0.0218693   2.9952767  14.7100221  )
        39           Ti1 tau(  39) = (   3.3083447   2.9915206  15.7010863  )
        40           Ti1 tau(  40) = (   3.3165693   0.0114089  15.8055842  )
        41           Ti1 tau(  41) = (   0.0300915   4.5703342  15.9344200  )
        42           Ti1 tau(  42) = (   0.0294271   1.3911826  15.9958598  )
        43           O1  tau(  43) = (   4.5666857   4.4545776  16.0545193  )
        44           O1  tau(  44) = (   4.5654216   1.5273373  16.0688375  )
        45           O1  tau(  45) = (   2.0398213   1.5345912  16.0698912  )
        46           O1  tau(  46) = (   2.0372649   4.4468515  16.0554978  )
        47           O1  tau(  47) = (   0.0160947   0.0056016  17.2166677  )
        48           O1  tau(  48) = (   6.5639191   3.0028441  17.4181802  )
        49           C1  tau(  49) = (   6.3909186   3.0704891  18.6902598  )
        50           H1  tau(  50) = (   6.3116585   4.0479728  19.1570877  )
        51           H1  tau(  51) = (   6.3127454   2.1532251  19.2664540  )
        52           O1  tau(  52) = (   3.2659488   5.9319982  18.2141537  )
        53           H1  tau(  53) = (   4.0486762   5.9278262  18.7801078  )
        54           H1  tau(  54) = (   2.4667005   5.9275743  18.7583984  )

     number of k points=    10  Fermi-Dirac smearing, width (Ry)=  0.0073
                       cart. coord. in units 2pi/alat
        k(    1) = (   0.0000000   0.0000000   0.0000000), wk =   0.1250000
        k(    2) = (   0.0000000   0.0419351   0.0000000), wk =   0.2500000
        k(    3) = (   0.0000000  -0.0838702   0.0000000), wk =   0.1250000
        k(    4) = (   0.0379955   0.0000049   0.0000000), wk =   0.2500000
        k(    5) = (   0.0379955   0.0419400   0.0000000), wk =   0.2500000
        k(    6) = (   0.0379955  -0.0838652   0.0000000), wk =   0.2500000
        k(    7) = (   0.0379955  -0.0419301   0.0000000), wk =   0.2500000
        k(    8) = (  -0.0759910  -0.0000099   0.0000000), wk =   0.1250000
        k(    9) = (  -0.0759910   0.0419252   0.0000000), wk =   0.2500000
        k(   10) = (  -0.0759910  -0.0838800   0.0000000), wk =   0.1250000

     Initial potential from superposition of free atoms

     starting charge  381.99917, renormalised to  398.00000

     negative rho (up, down):  1.686E-02 0.000E+00

     %%%%%%%%%%%%%%%%%%%%%%%%%%%%%%%%%%%%%%%%%%%%%%%%%%%%%%%%%%%%%%%%%%%%%%%%
     %                                                                      %
     % You are using vdW-DF, which was implemented by the Thonhauser group. %
     % Please cite the following two papers that made this development      %
     % possible and the two reviews that describe the various versions:     %
     %                                                                      %
     %   T. Thonhauser et al., PRL 115, 136402 (2015).                      %
     %   T. Thonhauser et al., PRB 76, 125112 (2007).                       %
     %   K. Berland et al., Rep. Prog. Phys. 78, 066501 (2015).             %
     %   D.C. Langreth et al., J. Phys.: Condens. Matter 21, 084203 (2009). %
     %                                                                      %
     %                                                                      %
     % If you are calculating the stress with vdW-DF, please also cite:     %
     %                                                                      %
     %   R. Sabatini et al., J. Phys.: Condens. Matter 24, 424209 (2012).   %
     %                                                                      %
     %%%%%%%%%%%%%%%%%%%%%%%%%%%%%%%%%%%%%%%%%%%%%%%%%%%%%%%%%%%%%%%%%%%%%%%%

     Adding external electric field

     Computed dipole along edir(3) :
        Dipole               -9.6373 Ry au,        -24.4955 Debye
        Dipole field         -0.0182 Ry au,

        Potential amp.        1.6859 Ry
        Total length         46.3494 bohr

     Starting wfcs are  300 atomic wfcs
  @ DRIVER MODE: Message from server: STATUS
  @ DRIVER MODE: Message from server: POSDATA
  @ DRIVER MODE: Reading and sharing cell
  @ DRIVER MODE: Reading and sharing positions
  @ DRIVER MODE: Received positions

     Self-consistent Calculation

     iteration #  1     ecut=    29.40 Ry     beta= 0.05
     Davidson diagonalization with overlap
     ethr =  1.00E-02,  avg # of iterations =  2.4

[...]

     total energy              =   -2539.76153725 Ry
     estimated scf accuracy    <    4735.12316762 Ry

[...]

     iteration #  4     ecut=    29.40 Ry     beta= 0.05
     Davidson diagonalization with overlap
     c_bands:  2 eigenvalues not converged
     c_bands:  4 eigenvalues not converged
     c_bands:  3 eigenvalues not converged
     ethr =  1.00E-02,  avg # of iterations = 16.2

[...]

     iteration # 79     ecut=    29.40 Ry     beta= 0.05
     Davidson diagonalization with overlap
     c_bands:  1 eigenvalues not converged
     ethr =  3.02E-11,  avg # of iterations = 11.9

[...]

     total energy              =   -2964.99537194 Ry
     estimated scf accuracy    <       0.00000013 Ry

     iteration # 81     ecut=    29.40 Ry     beta= 0.05
     Davidson diagonalization with overlap
     ethr =  2.54E-11,  avg # of iterations = 10.0

     negative rho (up, down):  1.528E-02 0.000E+00

     Adding external electric field

     Computed dipole along edir(3) :
        Dipole                1.2217 Ry au,          3.1053 Debye
        Dipole field          0.0023 Ry au,

        Potential amp.       -0.2137 Ry
        Total length         46.3494 bohr

     End of self-consistent calculation

          k = 0.0000 0.0000 0.0000 ( 18029 PWs)   bands (ev):

   -55.5395 -55.5028 -55.5021 -55.4660 -55.4629 -55.4184 -55.3820 -55.3151
   -55.3021 -55.2794 -55.2687 -55.2595 -55.2181 -55.2098 -54.5506 -54.5165
   -32.0577 -32.0098 -31.8961 -31.8533 -31.8515 -31.8337 -31.8134 -31.8048
   -31.7811 -31.7695 -31.7359 -31.7258 -31.6983 -31.6859 -31.6835 -31.6495
   -31.6461 -31.6398 -31.6350 -31.6318 -31.6030 -31.5977 -31.5901 -31.5859
   -31.5586 -31.5543 -31.5507 -31.5304 -31.5233 -31.5215 -31.4761 -31.4749
   -31.4488 -31.4468 -31.4335 -31.4282 -31.4223 -31.4080 -31.3966 -31.3951
   -31.3920 -31.3756 -30.9601 -30.8639 -30.8415 -30.7766 -30.6905 -30.5795
   -19.3639 -19.1359 -16.2547 -15.9920 -15.8203 -15.7092 -15.6622 -15.4601
   -15.3671 -15.2865 -15.2227 -15.1453 -15.1285 -15.0909 -15.0649 -15.0592
   -15.0541 -15.0054 -14.9963 -14.9569 -14.9450 -14.9437 -14.9249 -14.9062
   -14.8243 -14.7219 -14.6785 -14.6603 -14.6015 -14.5450 -14.5315 -13.0513
   -12.9332  -9.0163  -7.1499  -5.2207  -5.1816  -3.7753  -3.5758  -3.4584
    -3.4238  -3.3881  -3.3193  -3.1381  -3.1296  -3.0368  -2.7995  -2.7091
    -2.6758  -2.6181  -2.6080  -2.5084  -2.4674  -2.3611  -2.3522  -2.3479
    -2.3317  -2.3059  -2.2729  -2.2308  -2.2064  -2.1945  -2.0667  -2.0556
    -1.9274  -1.9215  -1.8981  -1.8433  -1.8384  -1.7963  -1.7834  -1.7798
    -1.7670  -1.7187  -1.7070  -1.5939  -1.5201  -1.4570  -1.3700  -1.2317
    -1.1701  -1.0977  -1.0439  -1.0092  -0.9466  -0.9435  -0.8892  -0.8486
    -0.7902  -0.7786  -0.7715  -0.6749  -0.5761  -0.5542  -0.5240  -0.4457
    -0.3673  -0.2809  -0.2617  -0.2596  -0.2583  -0.2372  -0.0997  -0.0161
     0.0412   0.0462   0.1424   0.1755   0.2108   0.2248   0.2570   0.2777
     0.3337   0.4086   0.4202   0.4335   0.4591   0.5050   0.5105   0.6231
     0.6993   0.7008   0.7371   0.7698   0.9452   0.9802   1.1072   1.2143
     1.3807   1.4737   1.5456   1.6467   2.0598   2.1174   3.6337   3.6755
     3.6905   3.7329   3.7825   3.8091   3.8768   4.0759   4.0922   4.1019
     4.1414

[...]

          k = 0.0380-0.0419 0.0000 ( 17876 PWs)   bands (ev):

[...]

          k =-0.0760-0.0000 0.0000 ( 17886 PWs)   bands (ev):

[...]

          k =-0.0760-0.0839 0.0000 ( 17948 PWs)   bands (ev):

   -55.5281 -55.5141 -55.4853 -55.4825 -55.4613 -55.4082 -55.3922 -55.3116
   -55.2869 -55.2844 -55.2739 -55.2610 -55.2234 -55.2126 -54.5340 -54.5329
   -31.8684 -31.8536 -31.8339 -31.8212 -31.8185 -31.7990 -31.7741 -31.7564
   -31.7434 -31.7386 -31.7381 -31.7303 -31.6969 -31.6630 -31.6567 -31.6528
   -31.6438 -31.6409 -31.6378 -31.6352 -31.6293 -31.6105 -31.6095 -31.6085
   -31.6036 -31.5891 -31.5681 -31.5530 -31.5399 -31.5383 -31.5314 -31.5144
   -31.4968 -31.4922 -31.4854 -31.4838 -31.4658 -31.4475 -31.4424 -31.4369
   -31.4065 -31.4000 -30.8549 -30.8535 -30.7735 -30.7726 -30.7341 -30.7331
   -19.3550 -19.1356 -15.7060 -15.5969 -15.5627 -15.4157 -15.4115 -15.3605
   -15.3521 -15.3164 -15.2364 -15.2329 -15.1831 -15.1639 -15.1293 -15.1057
   -15.0939 -15.0484 -15.0461 -15.0273 -15.0034 -14.9849 -14.9684 -14.9409
   -14.9168 -14.9096 -14.8717 -14.8633 -14.7988 -14.7444 -14.7232 -13.0357
   -13.0334  -9.0171  -7.1473  -5.1976  -5.1585  -3.7315  -3.1566  -2.9900
    -2.8028  -2.7871  -2.6549  -2.6200  -2.6020  -2.5116  -2.4782  -2.4446
    -2.3815  -2.3707  -2.3641  -2.3425  -2.3375  -2.3238  -2.3028  -2.2656
    -2.2557  -2.2241  -2.1943  -2.1804  -2.1598  -2.1500  -2.1215  -2.1020
    -2.0893  -2.0858  -2.0238  -1.9959  -1.9107  -1.8446  -1.7635  -1.7111
    -1.6797  -1.6774  -1.6412  -1.6026  -1.5949  -1.5797  -1.4337  -1.3844
    -1.2617  -1.2483  -1.2291  -1.1529  -1.1372  -1.1032  -1.0976  -1.0313
    -0.9445  -0.9401  -0.9177  -0.8892  -0.8018  -0.7336  -0.6926  -0.6567
    -0.6128  -0.5828  -0.5090  -0.4954  -0.4846  -0.4222  -0.3818  -0.2967
    -0.2830  -0.2639  -0.2128  -0.1837  -0.1489  -0.0801  -0.0621  -0.0391
     0.0417   0.1079   0.1141   0.3240   0.4864   0.5154   0.5319   0.6167
     0.6634   0.7724   0.7953   0.8048   0.8470   0.8924   0.9799   1.0059
     1.0077   1.0852   1.8341   1.8348   1.9222   1.9328   3.5654   3.8793
     3.9437   3.9670   3.9920   4.1073   4.1099   4.1291   4.1377   4.2798
     4.2934

     the Fermi energy is     3.6119 ev

!    total energy              =   -2964.99538206 Ry
     estimated scf accuracy    <       0.00000002 Ry
     smearing contrib. (-TS)   =      -0.03111111 Ry
     internal energy E=F+TS    =   -2964.96427095 Ry

     The total energy is F=E-TS. E is the sum of the following terms:
     one-electron contribution =  -24342.46524709 Ry
     hartree contribution      =   12264.29121668 Ry
     xc contribution           =    -490.10253242 Ry
     ewald contribution        =    9603.30947514 Ry
     electric field correction =       0.00281674 Ry

     convergence has been achieved in  81 iterations

     Forces acting on atoms (cartesian axes, Ry/au):

     atom    1 type  1   force =    -0.00009703    0.00006767    0.10410543
     atom    2 type  1   force =    -0.00008886    0.00006284    0.10411840
     atom    3 type  2   force =    -0.00029624   -0.00188391    0.10331266
     atom    4 type  2   force =    -0.00015979    0.00151545    0.11463201
     atom    5 type  2   force =    -0.00037771    0.00124586   -0.17934627
     atom    6 type  2   force =    -0.00016885   -0.00076653   -0.17973089
     atom    7 type  1   force =    -0.06941577    0.00065420   -0.02930086
     atom    8 type  1   force =    -0.06896081   -0.00122598   -0.02934405
     atom    9 type  1   force =     0.06905831    0.00114688   -0.02936038
     atom   10 type  1   force =     0.06868978   -0.00080859   -0.02941431
     atom   11 type  1   force =     0.00041906    0.00056957    0.04680472
     atom   12 type  1   force =     0.00063157    0.00080664    0.04851165
     atom   13 type  1   force =     0.00026777   -0.00568322   -0.03325407
     atom   14 type  1   force =     0.00033174    0.00339436   -0.02638759
     atom   15 type  2   force =    -0.00010017   -0.00001995    0.00038861
     atom   16 type  2   force =     0.00001863    0.00003015    0.00050523
     atom   17 type  2   force =    -0.00002538    0.00012652    0.00042448
     atom   18 type  2   force =    -0.00006431   -0.00032646    0.00008326
     atom   19 type  1   force =    -0.01806148   -0.00015582    0.00403095
     atom   20 type  1   force =    -0.01683686    0.00147766    0.00328193
     atom   21 type  1   force =     0.01933102   -0.00136794    0.00447793
     atom   22 type  1   force =     0.01789866    0.00116306    0.00355331
     atom   23 type  1   force =     0.00001829    0.00003498   -0.00013297
     atom   24 type  1   force =    -0.00005355   -0.00001410   -0.00008775
     atom   25 type  1   force =    -0.00004846    0.00000512   -0.00058693
     atom   26 type  1   force =    -0.00022966    0.00014484   -0.00066441
     atom   27 type  2   force =     0.00003955    0.00013842   -0.00043749
     atom   28 type  2   force =     0.00022797    0.00002489   -0.00009704
     atom   29 type  2   force =     0.00021765    0.00000672   -0.00021981
     atom   30 type  2   force =    -0.00008911    0.00020090    0.00019087
     atom   31 type  1   force =    -0.00064850   -0.00024252    0.00053258
     atom   32 type  1   force =    -0.00055941    0.00032651    0.00056266
     atom   33 type  1   force =     0.00040520   -0.00014201    0.00034929
     atom   34 type  1   force =     0.00032616    0.00019267    0.00037894
     atom   35 type  1   force =    -0.00014721    0.00000946    0.00022142
     atom   36 type  1   force =    -0.00008843    0.00000911   -0.00019662
     atom   37 type  1   force =    -0.00036625    0.00001228   -0.00019593
     atom   38 type  1   force =    -0.00051422    0.00026551   -0.00003604
     atom   39 type  2   force =    -0.00016489   -0.00008320    0.00130996
     atom   40 type  2   force =     0.00008989    0.00021448   -0.00132560
     atom   41 type  2   force =    -0.00031437   -0.00093094   -0.00059708
     atom   42 type  2   force =    -0.00028580    0.00092780   -0.00046368
     atom   43 type  1   force =    -0.00001968    0.00022497    0.00030281
     atom   44 type  1   force =    -0.00007774   -0.00009449    0.00009617
     atom   45 type  1   force =    -0.00040931   -0.00025861   -0.00001267
     atom   46 type  1   force =    -0.00046094    0.00042502    0.00013835
     atom   47 type  1   force =    -0.00004963   -0.00019363    0.00020162
     atom   48 type  1   force =    -0.00021920    0.00012066    0.00066316
     atom   49 type  3   force =     0.00021268   -0.00055362    0.00018148
     atom   50 type  4   force =     0.00047839   -0.00115227    0.00044493
     atom   51 type  4   force =     0.00037008   -0.00027784   -0.00062341
     atom   52 type  1   force =     0.00048249    0.00065741   -0.00058852
     atom   53 type  4   force =     0.00035469   -0.00000627    0.00023854
     atom   54 type  4   force =    -0.00046996   -0.00001469   -0.00163895

     Total force =     0.374514     Total SCF correction =     0.000344
  @ DRIVER MODE: Message from server: STATUS
  @ DRIVER MODE: Message from server: GETFORCE
  @ DRIVER MODE: Returning v,forces,stress,ensemble

     Writing output data file ./calc.save/
  @ DRIVER MODE: Message from server: EXIT
  @ DRIVE MODE: Exiting

     General routines

     Parallel routines

   This run was terminated on:  15:56:10  15Sep2021

   JOB DONE.