     Program PWSCF v.6.7GPU starts on 26Sep2021 at  1:26:14

     R & G space division:  proc/nbgrp/npool/nimage =       8
     Reading input from /storage/home/hcoda1/3/ntian30/research/carbon/CxH_vib/H2O_calc/ads_slab/CH3ON2H2O_a/out_0022/pw.inp
Warning: card &CELL ignored
Warning: card   CELL_DYNAMICS='IPI', ignored
Warning: card / ignored

     Current dimensions of program PWSCF are:
     Max number of different atomic species (ntypx) = 10
     Max number of k-points (npk) =  40000
     Max angular momentum in pseudopotentials (lmaxx) =  3
     Presently no symmetry can be used with electric field

     Message from routine cell_base_init:
     DEPRECATED: use true lattice parameter, not A to a.u. conversion factor

     IMPORTANT: XC functional enforced from input :
     Exchange-correlation= BEEF-VDW
                           (   1   4  43  14   2   0   0)
     Any further DFT definition will be discarded
     Please, verify this is what you really want

  @ DRIVER MODE: Connecting to
 qe_1139763_2971672.sched-torque.pace.gatech.edurpcwqf4__scratch
  using UNIX socket
  @ DRIVER MODE: Message from server: STATUS
  @ DRIVER MODE: Message from server: INIT
  @ DRIVER MODE: Receiving replica           0          -1
  @ DRIVER MODE: Receiving encoded integer          25
  @ DRIVER MODE:  SCF:  T  FORCE:  T  STRESS:  F  VC:  F  ENSEMBLE:  F
  @ DRIVER MODE:  SCF:  T  FORCE:  T  STRESS:  F  VC:  F  ENSEMBLE:  F

     Using Slab Decomposition

     bravais-lattice index     =            0
     lattice parameter (alat)  =       1.8897  a.u.
     unit-cell volume          =    6658.9804 (a.u.)^3
     number of atoms/cell      =           57
     number of atomic types    =            5
     number of electrons       =       409.00
     number of Kohn-Sham states=          214
     kinetic-energy cutoff     =      29.3995  Ry
     charge density cutoff     =     293.9946  Ry
     scf convergence threshold =      7.3E-08
     mixing beta               =       0.0500
     number of iterations used =            8  plain     mixing
     Exchange-correlation= BEEF-VDW
                           (   1   4  43  14   2   0   0)

     celldm(1)=   1.889726  celldm(2)=   0.000000  celldm(3)=   0.000000
     celldm(4)=   0.000000  celldm(5)=   0.000000  celldm(6)=   0.000000

     crystal axes: (cart. coord. in units of alat)
               a(1) = (   6.579727   0.000000   0.000000 )
               a(2) = (  -0.000775   5.961596   0.000000 )
               a(3) = (   0.000000   0.000000  25.155947 )

     reciprocal axes: (cart. coord. in units 2 pi/alat)
               b(1) = (  0.151982  0.000020  0.000000 )
               b(2) = (  0.000000  0.167740  0.000000 )
               b(3) = (  0.000000  0.000000  0.039752 )

     PseudoPot. # 1 for Ti read from file:
     /storage/coda1/p-amedford6/0/shared/rich_project_chbe-medford/medford-share/data/pseudos_module/espresso/nninc/pbe/van/Ti.UPF
     MD5 check sum: 8e4df49b7f0d34bbd5052bf3f5ea0213
     Pseudo is Ultrasoft, Zval = 12.0
     Generated by new atomic code, or converted to UPF format
     Using radial grid of  851 points,  6 beta functions with:
                l(1) =   0
                l(2) =   0
                l(3) =   1
                l(4) =   1
                l(5) =   2
                l(6) =   2
     Q(r) pseudized with  8 coefficients,  rinner =    1.000   1.000   1.000
                                                       1.000   1.000

     PseudoPot. # 2 for O  read from file:
     /storage/coda1/p-amedford6/0/shared/rich_project_chbe-medford/medford-share/data/pseudos_module/espresso/nninc/pbe/van/O.UPF
     MD5 check sum: 78c19812648e8988a0fe644b0f25305e
     Pseudo is Ultrasoft, Zval =  6.0
     Generated by new atomic code, or converted to UPF format
     Using radial grid of  737 points,  4 beta functions with:
                l(1) =   0
                l(2) =   0
                l(3) =   1
                l(4) =   1
     Q(r) pseudized with  8 coefficients,  rinner =    0.800   0.800   0.800

     PseudoPot. # 3 for C  read from file:
     /storage/coda1/p-amedford6/0/shared/rich_project_chbe-medford/medford-share/data/pseudos_module/espresso/nninc/pbe/van/C.UPF
     MD5 check sum: 1a69bf6b8db32088f5b2163dbdb77a27
     Pseudo is Ultrasoft, Zval =  4.0
     Generated by new atomic code, or converted to UPF format
     Using radial grid of  721 points,  4 beta functions with:
                l(1) =   0
                l(2) =   0
                l(3) =   1
                l(4) =   1
     Q(r) pseudized with  8 coefficients,  rinner =    0.800   0.800   0.800

     PseudoPot. # 4 for H  read from file:
     /storage/coda1/p-amedford6/0/shared/rich_project_chbe-medford/medford-share/data/pseudos_module/espresso/nninc/pbe/van/H.UPF
     MD5 check sum: b5ee9d7bfd3a09ee7748110bda690ff7
     Pseudo is Ultrasoft, Zval =  1.0
     Generated by new atomic code, or converted to UPF format
     Using radial grid of  615 points,  1 beta functions with:
                l(1) =   0
     Q(r) pseudized with  8 coefficients,  rinner =    0.800

     PseudoPot. # 5 for N  read from file:
     /storage/coda1/p-amedford6/0/shared/rich_project_chbe-medford/medford-share/data/pseudos_module/espresso/nninc/pbe/van/N.UPF
     MD5 check sum: 90d10febe142ad51ac9d5be1deb811c4
     Pseudo is Ultrasoft, Zval =  5.0
     Generated by new atomic code, or converted to UPF format
     Using radial grid of  729 points,  4 beta functions with:
                l(1) =   0
                l(2) =   0
                l(3) =   1
                l(4) =   1
     Q(r) pseudized with  8 coefficients,  rinner =    0.800   0.800   0.800

     atomic species   valence    mass     pseudopotential
        Ti1           12.00    47.86700     Ti( 1.00)
        O1             6.00    15.99900     O ( 1.00)
        C1             4.00    12.01100     C ( 1.00)
        H1             1.00     1.00800     H ( 1.00)
        N1             5.00    14.00700     N ( 1.00)

     No symmetry found

   Cartesian axes

     site n.     atom                  positions (alat units)
         1           Ti1 tau(   1) = (   0.0004258   2.9801865   6.0000000  )
         2           Ti1 tau(   2) = (   3.2906075   1.4906267   6.0002472  )
         3           O1  tau(   3) = (   0.0006271   0.0005054   7.9858123  )
         4           O1  tau(   4) = (   3.2906025   0.0005020   7.3038282  )
         5           O1  tau(   5) = (   4.5942328   1.4918067   9.2879030  )
         6           O1  tau(   6) = (   1.9868534   1.4903216   9.2879459  )
         7           Ti1 tau(   7) = (   3.3113259   3.0354369   9.1618307  )
         8           Ti1 tau(   8) = (   0.0141821   1.6139659   9.3625064  )
         9           O1  tau(   9) = (   3.2964399   0.0287090  11.3517035  )
        10           O1  tau(  10) = (   0.0046459   0.0167322  10.6079620  )
        11           O1  tau(  11) = (   1.2916403   1.5142126  12.6509924  )
        12           O1  tau(  12) = (   5.2954765   1.5212855  12.6445515  )
        13           Ti1 tau(  13) = (   0.0303381   3.0181167  12.7741416  )
        14           Ti1 tau(  14) = (   3.3376880   1.5190318  12.5019279  )
        15           O1  tau(  15) = (   6.5702980   0.0162101  14.7136675  )
        16           O1  tau(  16) = (   3.3118210   0.0215951  13.9605728  )
        17           O1  tau(  17) = (   4.5586303   1.5408398  16.0643691  )
        18           O1  tau(  18) = (   2.0376984   1.5397913  16.0346728  )
        19           Ti1 tau(  19) = (   3.2806018   3.0126274  15.6982083  )
        20           Ti1 tau(  20) = (   0.0204579   1.3876160  16.0921805  )
        21           O1  tau(  21) = (   3.2904802   0.0005063   4.7018136  )
        22           O1  tau(  22) = (   0.0362274   0.0182013  17.2505027  )
        23           O1  tau(  23) = (   1.3043587   1.4918075   6.0039043  )
        24           O1  tau(  24) = (   5.2767064   1.4903225   6.0039473  )
        25           Ti1 tau(  25) = (   0.0000382   5.9609847   6.0000000  )
        26           Ti1 tau(  26) = (   3.2902200   4.4714249   6.0002472  )
        27           O1  tau(  27) = (   0.0002396   2.9813036   7.9858123  )
        28           O1  tau(  28) = (   3.2902150   2.9813002   7.3038282  )
        29           O1  tau(  29) = (   4.5938453   4.4726049   9.2879030  )
        30           O1  tau(  30) = (   1.9864658   4.4711199   9.2879459  )
        31           Ti1 tau(  31) = (   3.2918133   0.0584897   9.1554610  )
        32           Ti1 tau(  32) = (   0.0176696   4.5429683   9.2683582  )
        33           O1  tau(  33) = (   3.2944385   3.0046939  11.3531965  )
        34           O1  tau(  34) = (   0.0071923   2.9964285  10.5824339  )
        35           O1  tau(  35) = (   1.2923070   4.5060354  12.6395470  )
        36           O1  tau(  36) = (   5.2930342   4.4972821  12.6335129  )
        37           Ti1 tau(  37) = (   0.0360028   0.0369787  12.5252624  )
        38           Ti1 tau(  38) = (   3.3378333   4.5109478  12.5016189  )
        39           O1  tau(  39) = (   0.0182598   3.0415135  14.6926035  )
        40           O1  tau(  40) = (   3.2973286   3.0139918  13.9115332  )
        41           O1  tau(  41) = (   4.5518717   4.4752506  16.0920674  )
        42           O1  tau(  42) = (   2.0385343   4.4722040  16.0556704  )
        43           Ti1 tau(  43) = (   3.3273276   0.0437280  15.7880462  )
        44           Ti1 tau(  44) = (   0.0148993   4.5306414  15.9319406  )
        45           O1  tau(  45) = (   3.2900926   2.9813045   4.7018136  )
        46           O1  tau(  46) = (   1.3039711   4.4726057   6.0039043  )
        47           O1  tau(  47) = (   5.2763189   4.4711207   6.0039473  )
        48           C1  tau(  48) = (   6.0619278   3.0088867  18.6555636  )
        49           O1  tau(  49) = (   6.5788924   2.9994598  17.3400993  )
        50           H1  tau(  50) = (   4.9713474   2.8828304  18.6515055  )
        51           H1  tau(  51) = (   6.4909130   2.1936263  19.2313859  )
        52           H1  tau(  52) = (   6.3070107   3.9563896  19.1453893  )
        53           N1  tau(  53) = (   5.9950546   3.0301018  22.7159517  )
        54           N1  tau(  54) = (   5.2276613   3.1827328  21.9368001  )
        55           O1  tau(  55) = (   3.1818816   0.0591848  18.2205797  )
        56           H1  tau(  56) = (   3.8437189   5.3938241  18.5518935  )
        57           H1  tau(  57) = (   2.3086839   5.6188137  18.3735615  )

     number of k points=    10  Fermi-Dirac smearing, width (Ry)=  0.0073
                       cart. coord. in units 2pi/alat
        k(    1) = (   0.0000000   0.0000000   0.0000000), wk =   0.1250000
        k(    2) = (   0.0000000   0.0419351   0.0000000), wk =   0.2500000
        k(    3) = (   0.0000000  -0.0838702   0.0000000), wk =   0.1250000
        k(    4) = (   0.0379955   0.0000049   0.0000000), wk =   0.2500000
        k(    5) = (   0.0379955   0.0419400   0.0000000), wk =   0.2500000
        k(    6) = (   0.0379955  -0.0838652   0.0000000), wk =   0.2500000
        k(    7) = (   0.0379955  -0.0419301   0.0000000), wk =   0.2500000
        k(    8) = (  -0.0759910  -0.0000099   0.0000000), wk =   0.1250000
        k(    9) = (  -0.0759910   0.0419252   0.0000000), wk =   0.2500000
        k(   10) = (  -0.0759910  -0.0838800   0.0000000), wk =   0.1250000

     Initial potential from superposition of free atoms

     starting charge  392.99914, renormalised to  409.00000

     negative rho (up, down):  9.747E-03 0.000E+00

     %%%%%%%%%%%%%%%%%%%%%%%%%%%%%%%%%%%%%%%%%%%%%%%%%%%%%%%%%%%%%%%%%%%%%%%%
     %                                                                      %
     % You are using vdW-DF, which was implemented by the Thonhauser group. %
     % Please cite the following two papers that made this development      %
     % possible and the two reviews that describe the various versions:     %
     %                                                                      %
     %   T. Thonhauser et al., PRL 115, 136402 (2015).                      %
     %   T. Thonhauser et al., PRB 76, 125112 (2007).                       %
     %   K. Berland et al., Rep. Prog. Phys. 78, 066501 (2015).             %
     %   D.C. Langreth et al., J. Phys.: Condens. Matter 21, 084203 (2009). %
     %                                                                      %
     %                                                                      %
     % If you are calculating the stress with vdW-DF, please also cite:     %
     %                                                                      %
     %   R. Sabatini et al., J. Phys.: Condens. Matter 24, 424209 (2012).   %
     %                                                                      %
     %%%%%%%%%%%%%%%%%%%%%%%%%%%%%%%%%%%%%%%%%%%%%%%%%%%%%%%%%%%%%%%%%%%%%%%%

     Adding external electric field

     Computed dipole along edir(3) :
        Dipole              -18.5715 Ry au,        -47.2041 Debye
        Dipole field         -0.0350 Ry au,

        Potential amp.        3.2488 Ry
        Total length         46.3494 bohr

     Starting wfcs are  309 atomic wfcs
  @ DRIVER MODE: Message from server: STATUS
  @ DRIVER MODE: Message from server: POSDATA
  @ DRIVER MODE: Reading and sharing cell
  @ DRIVER MODE: Reading and sharing positions
  @ DRIVER MODE: Received positions

     Self-consistent Calculation

     iteration #  1     ecut=    29.40 Ry     beta= 0.05
     Davidson diagonalization with overlap
     c_bands:  3 eigenvalues not converged
     c_bands:  2 eigenvalues not converged
     c_bands:  2 eigenvalues not converged
     c_bands:  5 eigenvalues not converged
     c_bands:  5 eigenvalues not converged
     c_bands:  5 eigenvalues not converged
     c_bands:  1 eigenvalues not converged
     c_bands:  3 eigenvalues not converged
     ethr =  1.00E-05,  avg # of iterations = 28.5

[...]

     total energy              =   -2113.09420057 Ry
     estimated scf accuracy    <   10297.62066290 Ry

     iteration #  2     ecut=    29.40 Ry     beta= 0.05
     Davidson diagonalization with overlap
     ethr =  1.00E-02,  avg # of iterations = 30.4

[...]

     iteration # 77     ecut=    29.40 Ry     beta= 0.05
     Davidson diagonalization with overlap
     c_bands:  1 eigenvalues not converged
     ethr =  3.18E-10,  avg # of iterations = 11.8

[...]

     total energy              =   -3006.52126174 Ry
     estimated scf accuracy    <       0.00000031 Ry

     iteration # 81     ecut=    29.40 Ry     beta= 0.05
     Davidson diagonalization with overlap
     ethr =  7.63E-11,  avg # of iterations =  7.5

     negative rho (up, down):  1.094E-02 0.000E+00

     Adding external electric field

     Computed dipole along edir(3) :
        Dipole                0.9984 Ry au,          2.5377 Debye
        Dipole field          0.0019 Ry au,

        Potential amp.       -0.1747 Ry
        Total length         46.3494 bohr

     End of self-consistent calculation

          k = 0.0000 0.0000 0.0000 ( 18029 PWs)   bands (ev):

   -55.2841 -55.2498 -55.2482 -55.2134 -55.1906 -55.1750 -55.1674 -55.1317
   -55.0811 -55.0629 -55.0472 -55.0398 -55.0059 -54.9517 -54.2907 -54.2567
   -31.8068 -31.7533 -31.6762 -31.6444 -31.6230 -31.5760 -31.5586 -31.5552
   -31.5191 -31.5138 -31.4771 -31.4635 -31.4570 -31.4479 -31.4438 -31.4311
   -31.4246 -31.3888 -31.3836 -31.3756 -31.3714 -31.3526 -31.3488 -31.3397
   -31.3318 -31.3259 -31.3100 -31.2888 -31.2783 -31.2725 -31.2693 -31.2619
   -31.2593 -31.2433 -31.2306 -31.2205 -31.2190 -31.1844 -31.1692 -31.1489
   -31.1365 -31.1352 -30.7001 -30.6042 -30.5818 -30.5166 -30.4305 -30.3195
   -21.4285 -18.7339 -17.1963 -15.9988 -15.7283 -15.5680 -15.4370 -15.4018
   -15.2148 -15.0932 -14.9603 -14.9363 -14.8826 -14.8552 -14.8208 -14.8102
   -14.8051 -14.7930 -14.7848 -14.7382 -14.7036 -14.6862 -14.6858 -14.6627
   -14.6138 -14.5604 -14.4951 -14.4301 -14.4014 -14.3598 -14.2906 -14.2828
   -12.7916 -12.6737  -9.1408  -6.6055  -6.5272  -4.5668  -4.5558  -3.9158
    -3.7658  -3.4880  -3.3627  -3.2899  -3.2107  -3.1884  -3.1667  -3.0916
    -2.9811  -2.8444  -2.7490  -2.5097  -2.4543  -2.4115  -2.3800  -2.3509
    -2.1940  -2.1694  -2.1005  -2.0895  -2.0808  -2.0701  -2.0431  -2.0141
    -1.9882  -1.9566  -1.8976  -1.8735  -1.8028  -1.6718  -1.6633  -1.6312
    -1.5848  -1.5686  -1.5669  -1.5403  -1.4962  -1.4773  -1.4530  -1.4475
    -1.3507  -1.2585  -1.2156  -1.1213  -1.0417  -0.9685  -0.8461  -0.8074
    -0.7340  -0.7008  -0.6846  -0.6312  -0.5821  -0.5721  -0.5129  -0.4661
    -0.3584  -0.3169  -0.2739  -0.2363  -0.1856  -0.1414  -0.0707  -0.0372
    -0.0048  -0.0002   0.0208   0.2192   0.2306   0.2817   0.2945   0.3915
     0.4441   0.4787   0.4919   0.5008   0.5390   0.6148   0.6701   0.6788
     0.7106   0.7464   0.7656   0.8119   0.8525   0.9052   0.9346   0.9691
     1.0359   1.0759   1.2301   1.3243   1.3689   1.4849   1.6418   1.7332
     1.8069   1.9072   2.3200   2.3773   3.8974   3.9316   3.9583   3.9766
     4.0445   4.1436   4.2603   4.3511   4.3605   4.3911

[...]

          k = 0.0380-0.0419 0.0000 ( 17876 PWs)   bands (ev):

[...]

          k =-0.0760-0.0000 0.0000 ( 17886 PWs)   bands (ev):

[...]

          k =-0.0760-0.0839 0.0000 ( 17948 PWs)   bands (ev):

   -55.2720 -55.2601 -55.2338 -55.2291 -55.1875 -55.1728 -55.1567 -55.1424
   -55.0837 -55.0599 -55.0494 -55.0252 -55.0207 -54.9543 -54.2742 -54.2731
   -31.6186 -31.6021 -31.5762 -31.5741 -31.5641 -31.5627 -31.5452 -31.5124
   -31.5055 -31.4885 -31.4853 -31.4747 -31.4398 -31.4293 -31.4087 -31.4045
   -31.3997 -31.3978 -31.3961 -31.3901 -31.3872 -31.3838 -31.3722 -31.3637
   -31.3576 -31.3489 -31.3484 -31.3464 -31.3414 -31.3154 -31.2897 -31.2768
   -31.2744 -31.2727 -31.2703 -31.2614 -31.2524 -31.2403 -31.2308 -31.2215
   -31.1797 -31.1459 -30.5951 -30.5938 -30.5135 -30.5126 -30.4741 -30.4732
   -21.4284 -18.7329 -17.1658 -15.4669 -15.3578 -15.2287 -15.1643 -15.1415
   -15.1148 -15.0618 -15.0455 -14.9900 -14.9858 -14.9352 -14.9290 -14.8858
   -14.8790 -14.8251 -14.7969 -14.7879 -14.7589 -14.7263 -14.7103 -14.7091
   -14.6694 -14.6477 -14.6393 -14.6089 -14.6016 -14.5395 -14.5020 -14.4691
   -12.7760 -12.7741  -9.1427  -6.6063  -6.5205  -4.5673  -4.5631  -3.8249
    -3.7243  -3.5153  -3.2763  -3.0023  -2.7524  -2.5697  -2.4783  -2.4095
    -2.3564  -2.3384  -2.2287  -2.2042  -2.1743  -2.1396  -2.1172  -2.1064
    -2.0889  -2.0799  -2.0727  -2.0551  -2.0218  -2.0020  -1.9757  -1.9513
    -1.9363  -1.9126  -1.8949  -1.8875  -1.8627  -1.8348  -1.8281  -1.8252
    -1.7624  -1.7226  -1.5642  -1.5192  -1.4981  -1.4081  -1.3887  -1.3720
    -1.3467  -1.3324  -1.3158  -1.1972  -1.1460  -1.1180  -1.0095  -0.9916
    -0.9656  -0.8272  -0.8029  -0.7710  -0.7426  -0.7007  -0.6311  -0.6075
    -0.5525  -0.5391  -0.4378  -0.4011  -0.3759  -0.3626  -0.2668  -0.2445
    -0.2388  -0.2130  -0.1500  -0.1188  -0.0728  -0.0430  -0.0123   0.0123
     0.0582   0.0781   0.1720   0.1923   0.2286   0.2715   0.3653   0.5326
     0.6251   0.7352   0.7611   0.8081   0.8684   0.9107   0.9599   1.0145
     1.0616   1.0691   1.1311   1.1686   1.2534   1.2672   1.2705   1.3389
     2.0944   2.0948   2.1827   2.1917   4.1389   4.1471   4.2042   4.2238
     4.3631   4.3693   4.3828   4.3905   4.4852   4.5438

     the Fermi energy is     3.8674 ev

!    total energy              =   -3006.52127526 Ry
     estimated scf accuracy    <       0.00000005 Ry
     smearing contrib. (-TS)   =      -0.02294494 Ry
     internal energy E=F+TS    =   -3006.49833032 Ry

     The total energy is F=E-TS. E is the sum of the following terms:
     one-electron contribution =  -22563.18319668 Ry
     hartree contribution      =   11380.94256977 Ry
     xc contribution           =    -501.15108584 Ry
     ewald contribution        =    8676.89150123 Ry
     electric field correction =       0.00188120 Ry

     convergence has been achieved in  81 iterations

     Forces acting on atoms (cartesian axes, Ry/au):

     atom    1 type  1   force =    -0.00014692   -0.00167386    0.10542049
     atom    2 type  1   force =    -0.00021644    0.00113702   -0.17914846
     atom    3 type  2   force =     0.00020513   -0.00553474   -0.03233950
     atom    4 type  2   force =     0.00010315    0.00072100    0.04625581
     atom    5 type  2   force =    -0.01803613    0.00052692    0.00422953
     atom    6 type  2   force =     0.01843516   -0.00044440    0.00409697
     atom    7 type  1   force =     0.00007502    0.00019636    0.00002722
     atom    8 type  1   force =     0.00007166    0.00030531   -0.00013746
     atom    9 type  2   force =     0.00017770    0.00034978   -0.00006307
     atom   10 type  2   force =     0.00017217   -0.00000808    0.00002790
     atom   11 type  2   force =     0.00003883   -0.00034586   -0.00037238
     atom   12 type  2   force =    -0.00005741   -0.00051971   -0.00051207
     atom   13 type  1   force =     0.00047520    0.00024482    0.00008967
     atom   14 type  1   force =    -0.00026322   -0.00047787   -0.00042774
     atom   15 type  2   force =     0.00005089   -0.00054107    0.00032969
     atom   16 type  2   force =    -0.00008640    0.00030417   -0.00023557
     atom   17 type  2   force =    -0.00043888   -0.00061288    0.00007167
     atom   18 type  2   force =     0.00005817   -0.00048676    0.00019380
     atom   19 type  1   force =     0.00042056   -0.00027704   -0.00010126
     atom   20 type  1   force =    -0.00008259   -0.00074001   -0.00078313
     atom   21 type  2   force =    -0.00003449    0.00010157    0.10397658
     atom   22 type  2   force =    -0.00001689   -0.00052047    0.00050018
     atom   23 type  2   force =    -0.06941128    0.00052402   -0.02947314
     atom   24 type  2   force =     0.06916645    0.00098123   -0.02952864
     atom   25 type  1   force =    -0.00003624    0.00156602    0.11482630
     atom   26 type  1   force =    -0.00022717   -0.00047726   -0.17915066
     atom   27 type  2   force =     0.00021550    0.00415214   -0.02604890
     atom   28 type  2   force =     0.00042934    0.00093064    0.04804207
     atom   29 type  2   force =    -0.01630596    0.00162881    0.00384208
     atom   30 type  2   force =     0.01736122    0.00217910    0.00361115
     atom   31 type  1   force =    -0.00014504    0.00010448   -0.00026289
     atom   32 type  1   force =     0.00010648   -0.00008695    0.00023924
     atom   33 type  2   force =     0.00028684   -0.00050763    0.00020760
     atom   34 type  2   force =    -0.00004163   -0.00030561   -0.00027330
     atom   35 type  2   force =    -0.00046845   -0.00013364    0.00002082
     atom   36 type  2   force =     0.00054203    0.00001994    0.00001144
     atom   37 type  1   force =     0.00046795   -0.00073405   -0.00003208
     atom   38 type  1   force =    -0.00037455   -0.00002592   -0.00036796
     atom   39 type  2   force =    -0.00042250   -0.00049567   -0.00048961
     atom   40 type  2   force =     0.00035733   -0.00040738   -0.00025425
     atom   41 type  2   force =    -0.00020136   -0.00003760    0.00005781
     atom   42 type  2   force =    -0.00031629   -0.00022432    0.00005435
     atom   43 type  1   force =     0.00026116    0.00010483    0.00135947
     atom   44 type  1   force =     0.00001022   -0.00036831   -0.00076685
     atom   45 type  2   force =    -0.00003601    0.00007762    0.10401873
     atom   46 type  2   force =    -0.06901635   -0.00107410   -0.02953289
     atom   47 type  2   force =     0.06882914   -0.00063193   -0.02961118
     atom   48 type  3   force =    -0.00328296    0.00737355   -0.00325152
     atom   49 type  2   force =     0.00015267    0.00005297   -0.00097106
     atom   50 type  4   force =    -0.00034543   -0.00017918    0.00012285
     atom   51 type  4   force =     0.00357849   -0.00805967    0.00417424
     atom   52 type  4   force =    -0.00052129    0.00111145   -0.00089812
     atom   53 type  5   force =    -0.00105297   -0.00018173   -0.00109297
     atom   54 type  5   force =     0.00051991    0.00036913    0.00080294
     atom   55 type  2   force =     0.00070610   -0.00004891    0.00041222
     atom   56 type  4   force =    -0.00155356    0.00013346   -0.00066670
     atom   57 type  4   force =    -0.00013606    0.00096628   -0.00022944

     Total force =     0.374752     Total SCF correction =     0.000557
  @ DRIVER MODE: Message from server: STATUS
  @ DRIVER MODE: Message from server: GETFORCE
  @ DRIVER MODE: Returning v,forces,stress,ensemble

     Writing output data file ./calc.save/
  @ DRIVER MODE: Message from server: EXIT
  @ DRIVE MODE: Exiting

     General routines

     Parallel routines

   This run was terminated on:   1:58:42  26Sep2021

   JOB DONE.