     Program PWSCF v.6.7GPU starts on 18Oct2021 at 14:12:24

     R & G space division:  proc/nbgrp/npool/nimage =       8
     Reading input from /storage/home/hcoda1/3/ntian30/research/carbon/CxH_vib/Thiel_calc/ads_slab/NH2NH2HH_perslab/out_0006/pw.inp
Warning: card &CELL ignored
Warning: card   CELL_DYNAMICS='IPI', ignored
Warning: card / ignored

     Current dimensions of program PWSCF are:
     Max number of different atomic species (ntypx) = 10
     Max number of k-points (npk) =  40000
     Max angular momentum in pseudopotentials (lmaxx) =  3
     Presently no symmetry can be used with electric field

     Message from routine cell_base_init:
     DEPRECATED: use true lattice parameter, not A to a.u. conversion factor

     IMPORTANT: XC functional enforced from input :
     Exchange-correlation= BEEF-VDW
                           (   1   4  43  14   2   0   0)
     Any further DFT definition will be discarded
     Please, verify this is what you really want

  @ DRIVER MODE: Connecting to
 qe_1139763_3255137.sched-torque.pace.gatech.eduxlps7lyu_scratch
  using UNIX socket
  @ DRIVER MODE: Message from server: STATUS
  @ DRIVER MODE: Message from server: INIT
  @ DRIVER MODE: Receiving replica           0          -1
  @ DRIVER MODE: Receiving encoded integer          25
  @ DRIVER MODE:  SCF:  T  FORCE:  T  STRESS:  F  VC:  F  ENSEMBLE:  F
  @ DRIVER MODE:  SCF:  T  FORCE:  T  STRESS:  F  VC:  F  ENSEMBLE:  F

     Using Slab Decomposition

     bravais-lattice index     =            0
     lattice parameter (alat)  =       1.8897  a.u.
     unit-cell volume          =    9988.4706 (a.u.)^3
     number of atoms/cell      =           61
     number of atomic types    =            4
     number of electrons       =       442.00
     number of Kohn-Sham states=          231
     kinetic-energy cutoff     =      29.3995  Ry
     charge density cutoff     =     293.9946  Ry
     scf convergence threshold =      7.3E-08
     mixing beta               =       0.0500
     number of iterations used =            8  plain     mixing
     Exchange-correlation= BEEF-VDW
                           (   1   4  43  14   2   0   0)

     celldm(1)=   1.889726  celldm(2)=   0.000000  celldm(3)=   0.000000
     celldm(4)=   0.000000  celldm(5)=   0.000000  celldm(6)=   0.000000

     crystal axes: (cart. coord. in units of alat)
               a(1) = (   6.579727   0.000000   0.000000 )
               a(2) = (  -0.001163   8.942395   0.000000 )
               a(3) = (   0.000000   0.000000  25.155947 )

     reciprocal axes: (cart. coord. in units 2 pi/alat)
               b(1) = (  0.151982  0.000020  0.000000 )
               b(2) = (  0.000000  0.111827  0.000000 )
               b(3) = (  0.000000  0.000000  0.039752 )

     PseudoPot. # 1 for O  read from file:
     /storage/coda1/p-amedford6/0/shared/rich_project_chbe-medford/medford-share/data/pseudos_module/espresso/nninc/pbe/van/O.UPF
     MD5 check sum: 78c19812648e8988a0fe644b0f25305e
     Pseudo is Ultrasoft, Zval =  6.0
     Generated by new atomic code, or converted to UPF format
     Using radial grid of  737 points,  4 beta functions with:
                l(1) =   0
                l(2) =   0
                l(3) =   1
                l(4) =   1
     Q(r) pseudized with  8 coefficients,  rinner =    0.800   0.800   0.800

     PseudoPot. # 2 for Ti read from file:
     /storage/coda1/p-amedford6/0/shared/rich_project_chbe-medford/medford-share/data/pseudos_module/espresso/nninc/pbe/van/Ti.UPF
     MD5 check sum: 8e4df49b7f0d34bbd5052bf3f5ea0213
     Pseudo is Ultrasoft, Zval = 12.0
     Generated by new atomic code, or converted to UPF format
     Using radial grid of  851 points,  6 beta functions with:
                l(1) =   0
                l(2) =   0
                l(3) =   1
                l(4) =   1
                l(5) =   2
                l(6) =   2
     Q(r) pseudized with  8 coefficients,  rinner =    1.000   1.000   1.000
                                                       1.000   1.000

     PseudoPot. # 3 for N  read from file:
     /storage/coda1/p-amedford6/0/shared/rich_project_chbe-medford/medford-share/data/pseudos_module/espresso/nninc/pbe/van/N.UPF
     MD5 check sum: 90d10febe142ad51ac9d5be1deb811c4
     Pseudo is Ultrasoft, Zval =  5.0
     Generated by new atomic code, or converted to UPF format
     Using radial grid of  729 points,  4 beta functions with:
                l(1) =   0
                l(2) =   0
                l(3) =   1
                l(4) =   1
     Q(r) pseudized with  8 coefficients,  rinner =    0.800   0.800   0.800

     PseudoPot. # 4 for H  read from file:
     /storage/coda1/p-amedford6/0/shared/rich_project_chbe-medford/medford-share/data/pseudos_module/espresso/nninc/pbe/van/H.UPF
     MD5 check sum: b5ee9d7bfd3a09ee7748110bda690ff7
     Pseudo is Ultrasoft, Zval =  1.0
     Generated by new atomic code, or converted to UPF format
     Using radial grid of  615 points,  1 beta functions with:
                l(1) =   0
     Q(r) pseudized with  8 coefficients,  rinner =    0.800

     atomic species   valence    mass     pseudopotential
        O1             6.00    15.99900     O ( 1.00)
        Ti1           12.00    47.86700     Ti( 1.00)
        N1             5.00    14.00700     N ( 1.00)
        H1             1.00     1.00800     H ( 1.00)

     No symmetry found

   Cartesian axes

     site n.     atom                  positions (alat units)
         1           O1  tau(   1) = (   0.0007354   0.0005023  10.5931620  )
         2           O1  tau(   2) = (   3.2456387   0.0208629  13.8623892  )
         3           O1  tau(   3) = (   6.5569189   0.0555649  17.3369326  )
         4           O1  tau(   4) = (   0.0006271   0.0005054   7.9858123  )
         5           O1  tau(   5) = (   3.2933513   8.9300833  11.1812556  )
         6           O1  tau(   6) = (   0.0337597   0.0712708  14.6279364  )
         7           O1  tau(   7) = (   1.9868534   1.4903216   9.2879459  )
         8           O1  tau(   8) = (   5.2215124   1.6184176  12.5791628  )
         9           O1  tau(   9) = (   1.9922958   1.5902288  16.0980526  )
        10           Ti1 tau(  10) = (   0.0007404   1.4906270   9.2895810  )
        11           Ti1 tau(  11) = (   3.2860490   1.3455809  12.4359399  )
        12           Ti1 tau(  12) = (   6.5618936   1.3602716  15.8812525  )
        13           O1  tau(  13) = (   4.5942328   1.4918067   9.2879030  )
        14           O1  tau(  14) = (   1.3307156   1.5887400  12.5381291  )
        15           O1  tau(  15) = (   4.5725103   1.6118788  16.0006659  )
        16           Ti1 tau(  16) = (   3.2902859   2.9801868   9.2893338  )
        17           Ti1 tau(  17) = (   0.0046584   2.8227806  12.4510757  )
        18           Ti1 tau(  18) = (   3.2555632   2.8898243  15.6661830  )
        19           O1  tau(  19) = (   0.0003479   2.9813005  10.5931620  )
        20           O1  tau(  20) = (   3.2279248   2.9553539  13.8813459  )
        21           O1  tau(  21) = (   0.0002396   2.9813036   7.9858123  )
        22           O1  tau(  22) = (   3.2889556   2.9859946  11.1941525  )
        23           O1  tau(  23) = (   0.0559812   2.9852445  14.6488683  )
        24           O1  tau(  24) = (   1.9864658   4.4711199   9.2879459  )
        25           O1  tau(  25) = (   5.2314886   4.5920767  12.6107679  )
        26           O1  tau(  26) = (   1.9969377   4.5324570  16.1535429  )
        27           Ti1 tau(  27) = (   0.0003529   4.4714252   9.2895810  )
        28           Ti1 tau(  28) = (   3.2845268   4.3564118  12.5295435  )
        29           Ti1 tau(  29) = (   6.5676402   4.3565080  15.8255799  )
        30           O1  tau(  30) = (   4.5938453   4.4726049   9.2879030  )
        31           O1  tau(  31) = (   1.3315080   4.5776727  12.5731030  )
        32           O1  tau(  32) = (   4.5871741   4.4544688  15.9274438  )
        33           Ti1 tau(  33) = (   3.2898983   5.9609850   9.2893338  )
        34           Ti1 tau(  34) = (   6.5783773   5.8108302  12.4536689  )
        35           Ti1 tau(  35) = (   3.3162440   5.8110762  16.0333210  )
        36           O1  tau(  36) = (  -0.0000397   5.9620987  10.5931620  )
        37           O1  tau(  37) = (   3.2636778   5.9869953  13.9790019  )
        38           O1  tau(  38) = (   6.4104969   6.0475349  17.2872242  )
        39           O1  tau(  39) = (  -0.0001480   5.9621018   7.9858123  )
        40           O1  tau(  40) = (   3.2905218   5.9516507  11.2202175  )
        41           O1  tau(  41) = (   0.0617018   5.9803669  14.6637187  )
        42           O1  tau(  42) = (   1.9860782   7.4519181   9.2879459  )
        43           O1  tau(  43) = (   5.2407037   7.5572870  12.6049163  )
        44           O1  tau(  44) = (   1.9881273   7.5959696  16.0809372  )
        45           Ti1 tau(  45) = (  -0.0000347   7.4522234   9.2895810  )
        46           Ti1 tau(  46) = (   3.2912638   7.2305267  12.6172466  )
        47           Ti1 tau(  47) = (   0.0232661   7.3094817  15.9177444  )
        48           O1  tau(  48) = (   4.5934577   7.4534031   9.2879030  )
        49           O1  tau(  49) = (   1.3287160   7.5404973  12.5734398  )
        50           O1  tau(  50) = (   4.6507959   7.6754627  15.9163669  )
        51           Ti1 tau(  51) = (   3.2895107   8.9417832   9.2893338  )
        52           Ti1 tau(  52) = (   0.0077981   8.7799231  12.4640552  )
        53           Ti1 tau(  53) = (   3.2910717   8.8534038  15.6608489  )
        54           N1  tau(  54) = (   3.7626148   6.0985185  18.0119073  )
        55           H1  tau(  55) = (   3.4663780   5.3841571  18.6619304  )
        56           H1  tau(  56) = (   3.5565419   6.9988739  18.4208443  )
        57           N1  tau(  57) = (   6.5319303   3.0529623  17.4095181  )
        58           H1  tau(  58) = (   5.7013393   3.0140474  17.9904383  )
        59           H1  tau(  59) = (   0.7603229   3.1006543  18.0203722  )
        60           H1  tau(  60) = (   5.4974376   6.0468821  17.7423635  )
        61           H1  tau(  61) = (   0.7324116   0.0679216  17.9402240  )

     number of k points=    10  Fermi-Dirac smearing, width (Ry)=  0.0073
                       cart. coord. in units 2pi/alat
        k(    1) = (   0.0000000   0.0000000   0.0000000), wk =   0.1250000
        k(    2) = (   0.0000000   0.0279567   0.0000000), wk =   0.2500000
        k(    3) = (   0.0000000  -0.0559134   0.0000000), wk =   0.1250000
        k(    4) = (   0.0379955   0.0000049   0.0000000), wk =   0.2500000
        k(    5) = (   0.0379955   0.0279617   0.0000000), wk =   0.2500000
        k(    6) = (   0.0379955  -0.0559085   0.0000000), wk =   0.2500000
        k(    7) = (   0.0379955  -0.0279518   0.0000000), wk =   0.2500000
        k(    8) = (  -0.0759910  -0.0000099   0.0000000), wk =   0.1250000
        k(    9) = (  -0.0759910   0.0279468   0.0000000), wk =   0.2500000
        k(   10) = (  -0.0759910  -0.0559233   0.0000000), wk =   0.1250000

     Initial potential from superposition of free atoms

     starting charge  423.99908, renormalised to  442.00000

     negative rho (up, down):  3.745E-02 0.000E+00

     %%%%%%%%%%%%%%%%%%%%%%%%%%%%%%%%%%%%%%%%%%%%%%%%%%%%%%%%%%%%%%%%%%%%%%%%
     %                                                                      %
     % You are using vdW-DF, which was implemented by the Thonhauser group. %
     % Please cite the following two papers that made this development      %
     % possible and the two reviews that describe the various versions:     %
     %                                                                      %
     %   T. Thonhauser et al., PRL 115, 136402 (2015).                      %
     %   T. Thonhauser et al., PRB 76, 125112 (2007).                       %
     %   K. Berland et al., Rep. Prog. Phys. 78, 066501 (2015).             %
     %   D.C. Langreth et al., J. Phys.: Condens. Matter 21, 084203 (2009). %
     %                                                                      %
     %                                                                      %
     % If you are calculating the stress with vdW-DF, please also cite:     %
     %                                                                      %
     %   R. Sabatini et al., J. Phys.: Condens. Matter 24, 424209 (2012).   %
     %                                                                      %
     %%%%%%%%%%%%%%%%%%%%%%%%%%%%%%%%%%%%%%%%%%%%%%%%%%%%%%%%%%%%%%%%%%%%%%%%

     Adding external electric field

     Computed dipole along edir(3) :
        Dipole               -5.9727 Ry au,        -15.1810 Debye
        Dipole field         -0.0075 Ry au,

        Potential amp.        0.6966 Ry
        Total length         46.3494 bohr

     Starting wfcs are  334 atomic wfcs
  @ DRIVER MODE: Message from server: STATUS
  @ DRIVER MODE: Message from server: POSDATA
  @ DRIVER MODE: Reading and sharing cell
  @ DRIVER MODE: Reading and sharing positions
  @ DRIVER MODE: Received positions

     Self-consistent Calculation

     iteration #  1     ecut=    29.40 Ry     beta= 0.05
     Davidson diagonalization with overlap
     c_bands:  3 eigenvalues not converged
     c_bands:  3 eigenvalues not converged
     c_bands:  5 eigenvalues not converged
     c_bands:  3 eigenvalues not converged
     c_bands:  4 eigenvalues not converged
     c_bands:  4 eigenvalues not converged
     c_bands:  4 eigenvalues not converged
     c_bands:  4 eigenvalues not converged
     c_bands:  4 eigenvalues not converged
     ethr =  1.00E-05,  avg # of iterations = 21.0

[...]

     total energy              =   -3277.90791082 Ry
     estimated scf accuracy    <     239.98100380 Ry

     iteration #  2     ecut=    29.40 Ry     beta= 0.05
     Davidson diagonalization with overlap
     ethr =  1.00E-02,  avg # of iterations = 15.9

[...]

     iteration # 43     ecut=    29.40 Ry     beta= 0.05
     Davidson diagonalization with overlap
     c_bands:  1 eigenvalues not converged
     ethr =  1.78E-10,  avg # of iterations = 13.4

[...]

     total energy              =   -3295.80728796 Ry
     estimated scf accuracy    <       0.00000009 Ry

     iteration # 47     ecut=    29.40 Ry     beta= 0.05
     Davidson diagonalization with overlap
     ethr =  2.07E-11,  avg # of iterations = 10.7

     negative rho (up, down):  3.606E-02 0.000E+00

     Adding external electric field

     Computed dipole along edir(3) :
        Dipole                1.4987 Ry au,          3.8093 Debye
        Dipole field          0.0019 Ry au,

        Potential amp.       -0.1748 Ry
        Total length         46.3494 bohr

     End of self-consistent calculation

          k = 0.0000 0.0000 0.0000 ( 26871 PWs)   bands (ev):

   -57.7314 -57.7058 -57.6954 -57.6682 -57.6600 -57.6253 -57.6159 -57.6051
   -57.5774 -57.5630 -57.5148 -57.4841 -57.4680 -57.4615 -57.4534 -56.7532
   -56.7291 -56.7246 -34.1131 -34.1109 -34.1012 -34.0918 -34.0788 -34.0632
   -34.0615 -34.0486 -34.0354 -34.0246 -33.9946 -33.9772 -33.9564 -33.9502
   -33.9424 -33.9243 -33.9186 -33.9172 -33.8991 -33.8938 -33.8712 -33.8682
   -33.8493 -33.8397 -33.8356 -33.8296 -33.8187 -33.8168 -33.8107 -33.8010
   -33.7904 -33.7883 -33.7740 -33.7388 -33.7286 -33.7251 -33.7098 -33.7096
   -33.7021 -33.7011 -33.6897 -33.6812 -33.6743 -33.6687 -33.6463 -33.0685
   -33.0675 -33.0630 -33.0514 -33.0472 -32.9793 -32.9173 -32.9120 -32.7791
   -19.3055 -18.7620 -18.5315 -18.2332 -18.0229 -17.9803 -17.9472 -17.8259
   -17.7905 -17.7665 -17.6692 -17.6579 -17.5940 -17.5401 -17.5121 -17.4632
   -17.4448 -17.3849 -17.3710 -17.3628 -17.3574 -17.3471 -17.3370 -17.2712
   -17.2440 -17.2172 -17.1774 -17.1617 -17.1552 -17.1476 -17.1249 -16.8526
   -15.5045 -15.2197 -15.1616 -15.1604 -15.0944  -6.9892  -6.8155  -6.6488
    -6.3845  -5.8667  -5.7931  -5.6439  -5.5197  -5.2275  -5.1992  -5.1484
    -5.1208  -5.0926  -5.0283  -5.0083  -4.9954  -4.9397  -4.9224  -4.8501
    -4.8272  -4.7858  -4.7615  -4.7349  -4.6908  -4.6508  -4.6237  -4.6119
    -4.5806  -4.5731  -4.5170  -4.4934  -4.4639  -4.4578  -4.4414  -4.3328
    -4.2999  -4.2422  -4.1737  -4.0970  -4.0458  -4.0373  -3.9803  -3.9590
    -3.9089  -3.8693  -3.8313  -3.8212  -3.7871  -3.7481  -3.6472  -3.6033
    -3.5934  -3.5284  -3.5056  -3.4371  -3.4200  -3.3860  -3.3451  -3.3365
    -3.3025  -3.2043  -3.1698  -3.0886  -3.0308  -2.9782  -2.9391  -2.8964
    -2.8500  -2.8165  -2.7909  -2.7085  -2.6288  -2.5478  -2.4997  -2.4870
    -2.4748  -2.4241  -2.4156  -2.4149  -2.3564  -2.3311  -2.3201  -2.2817
    -2.2304  -2.2093  -2.1472  -2.1009  -2.0670  -1.9990  -1.9835  -1.9030
    -1.8934  -1.8322  -1.7895  -1.7507  -1.6389  -1.6023  -1.5719  -1.5693
    -1.4504  -1.4140  -1.1486  -1.0099  -0.7827  -0.7487  -0.5067  -0.4579
    -0.4551  -0.1922  -0.1888  -0.0606   1.3155   1.5041   1.6381   1.6933
     1.6981   1.7317   1.7984   1.8844   1.9105   1.9570   1.9888

[...]

          k = 0.0380-0.0280 0.0000 ( 26873 PWs)   bands (ev):

[...]

          k =-0.0760-0.0000 0.0000 ( 26902 PWs)   bands (ev):

[...]

          k =-0.0760-0.0559 0.0000 ( 26868 PWs)   bands (ev):

   -57.7279 -57.7135 -57.6912 -57.6670 -57.6600 -57.6259 -57.6173 -57.6048
   -57.5768 -57.5627 -57.5151 -57.4791 -57.4716 -57.4675 -57.4486 -56.7470
   -56.7417 -56.7182 -34.2005 -34.1642 -34.1594 -34.1008 -34.0666 -34.0591
   -34.0484 -34.0456 -34.0083 -33.9744 -33.9422 -33.9266 -33.9218 -33.9204
   -33.9090 -33.9057 -33.8865 -33.8796 -33.8750 -33.8744 -33.8707 -33.8656
   -33.8604 -33.8512 -33.8379 -33.8329 -33.8303 -33.8248 -33.8202 -33.8002
   -33.7995 -33.7769 -33.7702 -33.7627 -33.7569 -33.7389 -33.7314 -33.7271
   -33.7073 -33.7066 -33.7049 -33.7017 -33.6926 -33.6741 -33.6576 -33.1573
   -33.0682 -33.0630 -33.0406 -32.9608 -32.9549 -32.8932 -32.8786 -32.8733
   -19.2919 -18.7357 -18.2783 -18.1417 -17.9701 -17.9284 -17.8541 -17.8414
   -17.8294 -17.8000 -17.7081 -17.6846 -17.6579 -17.5756 -17.5562 -17.5068
   -17.4629 -17.4496 -17.4307 -17.4205 -17.4123 -17.3951 -17.3618 -17.3297
   -17.2967 -17.2447 -17.1840 -17.1640 -17.1157 -17.1011 -17.0704 -16.8864
   -15.4992 -15.2177 -15.2157 -15.0989 -15.0957  -6.9939  -6.8482  -6.6416
    -6.3652  -5.5235  -5.4604  -5.3774  -5.3617  -5.2441  -5.2112  -5.0203
    -5.0108  -4.9957  -4.9638  -4.9319  -4.8954  -4.8686  -4.8447  -4.8312
    -4.8168  -4.7960  -4.7702  -4.7578  -4.7418  -4.6976  -4.6511  -4.6447
    -4.6336  -4.6112  -4.5551  -4.5123  -4.4831  -4.4312  -4.4274  -4.3472
    -4.3244  -4.3063  -4.2323  -4.2238  -4.0902  -3.9543  -3.8932  -3.8734
    -3.8471  -3.8011  -3.7912  -3.7379  -3.7135  -3.6958  -3.5612  -3.4795
    -3.4536  -3.4207  -3.3897  -3.3677  -3.3310  -3.3024  -3.2823  -3.2571
    -3.2412  -3.1875  -3.1716  -3.1284  -3.0853  -3.0045  -2.9603  -2.9001
    -2.8801  -2.8613  -2.8431  -2.8398  -2.8169  -2.7858  -2.7558  -2.6996
    -2.6907  -2.6614  -2.5899  -2.5285  -2.5066  -2.4831  -2.4409  -2.4323
    -2.2790  -2.2584  -2.2255  -2.2142  -2.1395  -2.0963  -2.0051  -1.9794
    -1.9562  -1.8851  -1.8129  -1.7700  -1.7131  -1.5175  -1.5088  -1.3897
    -1.3529  -1.3041  -1.2783  -1.2334  -1.0758  -0.7203  -0.6692  -0.3859
    -0.3747  -0.3488  -0.1934  -0.1871   1.4228   1.4463   1.5316   1.5881
     1.6066   1.6444   1.6572   1.6960   1.7167   1.7733   1.9096

     the Fermi energy is     1.3665 ev

!    total energy              =   -3295.80743503 Ry
     estimated scf accuracy    <       0.00000007 Ry
     smearing contrib. (-TS)   =      -0.03571245 Ry
     internal energy E=F+TS    =   -3295.77172258 Ry

     The total energy is F=E-TS. E is the sum of the following terms:
     one-electron contribution =  -34703.01071222 Ry
     hartree contribution      =   17417.34211484 Ry
     xc contribution           =    -543.86868214 Ry
     ewald contribution        =   14533.76273119 Ry
     electric field correction =       0.00282575 Ry

     convergence has been achieved in  47 iterations

     Forces acting on atoms (cartesian axes, Ry/au):

     atom    1 type  1   force =    -0.00168810    0.00377262    0.05470879
     atom    2 type  1   force =     0.00024539   -0.00250652   -0.00843097
     atom    3 type  1   force =     0.00047965   -0.00345949    0.00018369
     atom    4 type  1   force =     0.00004630   -0.00002993    0.10675615
     atom    5 type  1   force =    -0.00020348    0.00064800    0.00659094
     atom    6 type  1   force =     0.00002396   -0.00446011    0.00367538
     atom    7 type  1   force =     0.06647680    0.00079663   -0.02966383
     atom    8 type  1   force =     0.00658678   -0.02713763    0.00194330
     atom    9 type  1   force =     0.00666151   -0.02254916    0.00508375
     atom   10 type  2   force =    -0.00011669   -0.00450919   -0.18343107
     atom   11 type  2   force =     0.00066754    0.02087886   -0.00412870
     atom   12 type  2   force =    -0.00177112    0.02768121   -0.00644707
     atom   13 type  1   force =    -0.06653521    0.00044720   -0.02980797
     atom   14 type  1   force =    -0.00433234   -0.02771087    0.00252618
     atom   15 type  1   force =    -0.00661037   -0.02334854    0.00498179
     atom   16 type  2   force =     0.00008556    0.00070225    0.06700262
     atom   17 type  2   force =    -0.00237667    0.03350992    0.00352680
     atom   18 type  2   force =     0.00127822    0.02447033   -0.00355772
     atom   19 type  1   force =    -0.00169824    0.00675539    0.05326686
     atom   20 type  1   force =     0.00023752   -0.00115206   -0.00663167
     atom   21 type  1   force =     0.00003404    0.00110077    0.10722718
     atom   22 type  1   force =    -0.00025358   -0.00199011    0.00721433
     atom   23 type  1   force =     0.00071982   -0.00584489    0.00408706
     atom   24 type  1   force =     0.06751167    0.00138096   -0.02906627
     atom   25 type  1   force =     0.00527115   -0.03016085    0.00245061
     atom   26 type  1   force =     0.00694404   -0.02587175   -0.00413420
     atom   27 type  2   force =     0.00012011   -0.00121648   -0.18670954
     atom   28 type  2   force =     0.00008253    0.02383936   -0.00249104
     atom   29 type  2   force =    -0.00111480    0.02219103    0.00102588
     atom   30 type  1   force =    -0.06761518    0.00087719   -0.02891756
     atom   31 type  1   force =    -0.00536791   -0.02962394    0.00279017
     atom   32 type  1   force =    -0.00448970   -0.02212751    0.00278245
     atom   33 type  2   force =    -0.00005103    0.00130931    0.07478091
     atom   34 type  2   force =     0.00094078    0.03693670    0.00411265
     atom   35 type  2   force =    -0.00150721    0.03514142    0.00798740
     atom   36 type  1   force =    -0.00186599    0.00288821    0.05589239
     atom   37 type  1   force =     0.00132508    0.00389472   -0.01098033
     atom   38 type  1   force =     0.00018347   -0.00396015    0.00369022
     atom   39 type  1   force =     0.00002339   -0.00063571    0.10724068
     atom   40 type  1   force =     0.00015635   -0.00140323    0.00715199
     atom   41 type  1   force =    -0.00024483   -0.00399692    0.00173325
     atom   42 type  1   force =     0.06784472   -0.00221596   -0.02970317
     atom   43 type  1   force =     0.00367126   -0.02637658    0.00152450
     atom   44 type  1   force =     0.01017601   -0.01810348    0.00273136
     atom   45 type  2   force =     0.00003301    0.00218339   -0.18328525
     atom   46 type  2   force =    -0.00023964    0.01488381    0.00198622
     atom   47 type  2   force =     0.00296224    0.02629360   -0.00847709
     atom   48 type  1   force =    -0.06791004   -0.00284284   -0.02985547
     atom   49 type  1   force =    -0.00373881   -0.02551541    0.00182370
     atom   50 type  1   force =    -0.00809965   -0.02387030    0.00543621
     atom   51 type  2   force =     0.00045607   -0.00349127    0.06841352
     atom   52 type  2   force =    -0.00010291    0.03120251    0.00598609
     atom   53 type  2   force =    -0.00210403    0.02592253   -0.00048592
     atom   54 type  3   force =     0.00543226   -0.00135119   -0.01673048
     atom   55 type  4   force =    -0.00399858   -0.00537028    0.00710089
     atom   56 type  4   force =    -0.00145300    0.00555175    0.00529653
     atom   57 type  3   force =     0.00132023   -0.00271909   -0.00039434
     atom   58 type  4   force =     0.00051346    0.00106205   -0.00004717
     atom   59 type  4   force =     0.00004929    0.00029463    0.00072961
     atom   60 type  4   force =    -0.00181403    0.00007129    0.00076316
     atom   61 type  4   force =    -0.00125706   -0.00113619    0.00117160

     Total force =     0.460027     Total SCF correction =     0.000734
  @ DRIVER MODE: Message from server: STATUS
  @ DRIVER MODE: Message from server: GETFORCE
  @ DRIVER MODE: Returning v,forces,stress,ensemble

     Writing output data file ./calc.save/
  @ DRIVER MODE: Message from server: EXIT
  @ DRIVE MODE: Exiting

     General routines

     Parallel routines

   This run was terminated on:  14:38:25  18Oct2021

   JOB DONE.