     Program PWSCF v.6.7GPU starts on  9Sep2021 at  1: 4:53

     R & G space division:  proc/nbgrp/npool/nimage =      10
     Reading input from /storage/home/hcoda1/3/ntian30/research/carbon/CxH_vib/CH_calc/ads_slab/CHNHH_a/out_0011/pw.inp
Warning: card &CELL ignored
Warning: card   CELL_DYNAMICS='IPI', ignored
Warning: card / ignored

     Current dimensions of program PWSCF are:
     Max number of different atomic species (ntypx) = 10
     Max number of k-points (npk) =  40000
     Max angular momentum in pseudopotentials (lmaxx) =  3
     Presently no symmetry can be used with electric field

     Message from routine cell_base_init:
     DEPRECATED: use true lattice parameter, not A to a.u. conversion factor

     IMPORTANT: XC functional enforced from input :
     Exchange-correlation= BEEF-VDW
                           (   1   4  43  14   2   0   0)
     Any further DFT definition will be discarded
     Please, verify this is what you really want

  @ DRIVER MODE: Connecting to
 qe_1139763_2767378.sched-torque.pace.gatech.eduoyqjg409_scratch
  using UNIX socket
  @ DRIVER MODE: Message from server: STATUS
  @ DRIVER MODE: Message from server: INIT
  @ DRIVER MODE: Receiving replica           0          -1
  @ DRIVER MODE: Receiving encoded integer          25
  @ DRIVER MODE:  SCF:  T  FORCE:  T  STRESS:  F  VC:  F  ENSEMBLE:  F
  @ DRIVER MODE:  SCF:  T  FORCE:  T  STRESS:  F  VC:  F  ENSEMBLE:  F

     Using Slab Decomposition

     bravais-lattice index     =            0
     lattice parameter (alat)  =       1.8897  a.u.
     unit-cell volume          =    6658.9804 (a.u.)^3
     number of atoms/cell      =           52
     number of atomic types    =            5
     number of electrons       =       390.00
     number of Kohn-Sham states=          205
     kinetic-energy cutoff     =      29.3995  Ry
     charge density cutoff     =     293.9946  Ry
     scf convergence threshold =      7.3E-08
     mixing beta               =       0.0500
     number of iterations used =            8  plain     mixing
     Exchange-correlation= BEEF-VDW
                           (   1   4  43  14   2   0   0)

     celldm(1)=   1.889726  celldm(2)=   0.000000  celldm(3)=   0.000000
     celldm(4)=   0.000000  celldm(5)=   0.000000  celldm(6)=   0.000000

     crystal axes: (cart. coord. in units of alat)
               a(1) = (   6.579727   0.000000   0.000000 )
               a(2) = (  -0.000775   5.961596   0.000000 )
               a(3) = (   0.000000   0.000000  25.155947 )

     reciprocal axes: (cart. coord. in units 2 pi/alat)
               b(1) = (  0.151982  0.000020  0.000000 )
               b(2) = (  0.000000  0.167740  0.000000 )
               b(3) = (  0.000000  0.000000  0.039752 )

     PseudoPot. # 1 for Ti read from file:
     /storage/coda1/p-amedford6/0/shared/rich_project_chbe-medford/medford-share/data/pseudos_module/espresso/nninc/pbe/van/Ti.UPF
     MD5 check sum: 8e4df49b7f0d34bbd5052bf3f5ea0213
     Pseudo is Ultrasoft, Zval = 12.0
     Generated by new atomic code, or converted to UPF format
     Using radial grid of  851 points,  6 beta functions with:
                l(1) =   0
                l(2) =   0
                l(3) =   1
                l(4) =   1
                l(5) =   2
                l(6) =   2
     Q(r) pseudized with  8 coefficients,  rinner =    1.000   1.000   1.000
                                                       1.000   1.000

     PseudoPot. # 2 for O  read from file:
     /storage/coda1/p-amedford6/0/shared/rich_project_chbe-medford/medford-share/data/pseudos_module/espresso/nninc/pbe/van/O.UPF
     MD5 check sum: 78c19812648e8988a0fe644b0f25305e
     Pseudo is Ultrasoft, Zval =  6.0
     Generated by new atomic code, or converted to UPF format
     Using radial grid of  737 points,  4 beta functions with:
                l(1) =   0
                l(2) =   0
                l(3) =   1
                l(4) =   1
     Q(r) pseudized with  8 coefficients,  rinner =    0.800   0.800   0.800

     PseudoPot. # 3 for N  read from file:
     /storage/coda1/p-amedford6/0/shared/rich_project_chbe-medford/medford-share/data/pseudos_module/espresso/nninc/pbe/van/N.UPF
     MD5 check sum: 90d10febe142ad51ac9d5be1deb811c4
     Pseudo is Ultrasoft, Zval =  5.0
     Generated by new atomic code, or converted to UPF format
     Using radial grid of  729 points,  4 beta functions with:
                l(1) =   0
                l(2) =   0
                l(3) =   1
                l(4) =   1
     Q(r) pseudized with  8 coefficients,  rinner =    0.800   0.800   0.800

     PseudoPot. # 4 for C  read from file:
     /storage/coda1/p-amedford6/0/shared/rich_project_chbe-medford/medford-share/data/pseudos_module/espresso/nninc/pbe/van/C.UPF
     MD5 check sum: 1a69bf6b8db32088f5b2163dbdb77a27
     Pseudo is Ultrasoft, Zval =  4.0
     Generated by new atomic code, or converted to UPF format
     Using radial grid of  721 points,  4 beta functions with:
                l(1) =   0
                l(2) =   0
                l(3) =   1
                l(4) =   1
     Q(r) pseudized with  8 coefficients,  rinner =    0.800   0.800   0.800

     PseudoPot. # 5 for H  read from file:
     /storage/coda1/p-amedford6/0/shared/rich_project_chbe-medford/medford-share/data/pseudos_module/espresso/nninc/pbe/van/H.UPF
     MD5 check sum: b5ee9d7bfd3a09ee7748110bda690ff7
     Pseudo is Ultrasoft, Zval =  1.0
     Generated by new atomic code, or converted to UPF format
     Using radial grid of  615 points,  1 beta functions with:
                l(1) =   0
     Q(r) pseudized with  8 coefficients,  rinner =    0.800

     atomic species   valence    mass     pseudopotential
        Ti1           12.00    47.86700     Ti( 1.00)
        O1             6.00    15.99900     O ( 1.00)
        N1             5.00    14.00700     N ( 1.00)
        C1             4.00    12.01100     C ( 1.00)
        H1             1.00     1.00800     H ( 1.00)

     No symmetry found

   Cartesian axes

     site n.     atom                  positions (alat units)
         1           Ti1 tau(   1) = (   0.0004258   2.9801865   6.0000000  )
         2           Ti1 tau(   2) = (   3.2906075   1.4906267   6.0002472  )
         3           O1  tau(   3) = (   0.0006271   0.0005054   7.9858123  )
         4           O1  tau(   4) = (   3.2906025   0.0005020   7.3038282  )
         5           O1  tau(   5) = (   4.5942328   1.4918067   9.2879030  )
         6           O1  tau(   6) = (   1.9868534   1.4903216   9.2879459  )
         7           Ti1 tau(   7) = (   3.2907910   2.8959150   9.1758416  )
         8           Ti1 tau(   8) = (   0.0015273   1.4827037   9.2680791  )
         9           O1  tau(   9) = (   3.2768318   5.9518058  11.3501096  )
        10           O1  tau(  10) = (   0.0116148   5.9584955  10.6183126  )
        11           O1  tau(  11) = (   1.2820894   1.4890407  12.6429483  )
        12           O1  tau(  12) = (   5.2701592   1.4861355  12.6244956  )
        13           Ti1 tau(  13) = (   0.0263608   2.9732685  12.5725065  )
        14           Ti1 tau(  14) = (   3.3311081   1.4825583  12.4934812  )
        15           O1  tau(  15) = (   6.5448050   0.0382128  14.6485099  )
        16           O1  tau(  16) = (   3.2835306   5.9556129  13.9684075  )
        17           O1  tau(  17) = (   4.5065730   1.5084740  16.1486978  )
        18           O1  tau(  18) = (   2.0110176   1.4968469  16.1316129  )
        19           Ti1 tau(  19) = (   3.2365874   2.9692752  15.7101938  )
        20           Ti1 tau(  20) = (   6.5183500   1.5288441  15.9766389  )
        21           O1  tau(  21) = (   3.2904802   0.0005063   4.7018136  )
        22           O1  tau(  22) = (   6.5552815   5.8936090  17.2115513  )
        23           O1  tau(  23) = (   1.3043587   1.4918075   6.0039043  )
        24           O1  tau(  24) = (   5.2767064   1.4903225   6.0039473  )
        25           Ti1 tau(  25) = (   0.0000382   5.9609847   6.0000000  )
        26           Ti1 tau(  26) = (   3.2902200   4.4714249   6.0002472  )
        27           O1  tau(  27) = (   0.0002396   2.9813036   7.9858123  )
        28           O1  tau(  28) = (   3.2902150   2.9813002   7.3038282  )
        29           O1  tau(  29) = (   4.5938453   4.4726049   9.2879030  )
        30           O1  tau(  30) = (   1.9864658   4.4711199   9.2879459  )
        31           Ti1 tau(  31) = (   3.2891106   5.8743827   9.1763621  )
        32           Ti1 tau(  32) = (   0.0006254   4.4649316   9.2693709  )
        33           O1  tau(  33) = (   3.2825058   2.9767457  11.3441782  )
        34           O1  tau(  34) = (   0.0092240   2.9805883  10.6323155  )
        35           O1  tau(  35) = (   1.2778777   4.4660374  12.6604661  )
        36           O1  tau(  36) = (   5.2710664   4.4675109  12.6369154  )
        37           Ti1 tau(  37) = (   0.0243246   5.9574881  12.5203091  )
        38           Ti1 tau(  38) = (   3.3318591   4.4611298  12.5006215  )
        39           O1  tau(  39) = (   6.5359656   2.9584677  14.7835642  )
        40           O1  tau(  40) = (   3.2771955   2.9708399  13.9242642  )
        41           O1  tau(  41) = (   4.4981441   4.4410618  16.1740548  )
        42           O1  tau(  42) = (   2.0042129   4.4512231  16.1075086  )
        43           Ti1 tau(  43) = (   3.2538698   5.9555144  15.7617387  )
        44           Ti1 tau(  44) = (   6.5531130   4.6830099  15.9084494  )
        45           O1  tau(  45) = (   3.2900926   2.9813045   4.7018136  )
        46           O1  tau(  46) = (   1.3039711   4.4726057   6.0039043  )
        47           O1  tau(  47) = (   5.2763189   4.4711207   6.0039473  )
        48           N1  tau(  48) = (   5.6690603   3.2568973  18.6585782  )
        49           C1  tau(  49) = (   0.0091554   2.6844975  17.8968455  )
        50           H1  tau(  50) = (   0.8805123   2.3964943  18.5001670  )
        51           H1  tau(  51) = (   4.8619660   3.6873350  18.2178346  )
        52           H1  tau(  52) = (   5.8095507   3.4768026  19.6356901  )

     number of k points=    10  Fermi-Dirac smearing, width (Ry)=  0.0073
                       cart. coord. in units 2pi/alat
        k(    1) = (   0.0000000   0.0000000   0.0000000), wk =   0.1250000
        k(    2) = (   0.0000000   0.0419351   0.0000000), wk =   0.2500000
        k(    3) = (   0.0000000  -0.0838702   0.0000000), wk =   0.1250000
        k(    4) = (   0.0379955   0.0000049   0.0000000), wk =   0.2500000
        k(    5) = (   0.0379955   0.0419400   0.0000000), wk =   0.2500000
        k(    6) = (   0.0379955  -0.0838652   0.0000000), wk =   0.2500000
        k(    7) = (   0.0379955  -0.0419301   0.0000000), wk =   0.2500000
        k(    8) = (  -0.0759910  -0.0000099   0.0000000), wk =   0.1250000
        k(    9) = (  -0.0759910   0.0419252   0.0000000), wk =   0.2500000
        k(   10) = (  -0.0759910  -0.0838800   0.0000000), wk =   0.1250000

     Initial potential from superposition of free atoms

     starting charge  373.99917, renormalised to  390.00000

     negative rho (up, down):  1.782E-02 0.000E+00

     %%%%%%%%%%%%%%%%%%%%%%%%%%%%%%%%%%%%%%%%%%%%%%%%%%%%%%%%%%%%%%%%%%%%%%%%
     %                                                                      %
     % You are using vdW-DF, which was implemented by the Thonhauser group. %
     % Please cite the following two papers that made this development      %
     % possible and the two reviews that describe the various versions:     %
     %                                                                      %
     %   T. Thonhauser et al., PRL 115, 136402 (2015).                      %
     %   T. Thonhauser et al., PRB 76, 125112 (2007).                       %
     %   K. Berland et al., Rep. Prog. Phys. 78, 066501 (2015).             %
     %   D.C. Langreth et al., J. Phys.: Condens. Matter 21, 084203 (2009). %
     %                                                                      %
     %                                                                      %
     % If you are calculating the stress with vdW-DF, please also cite:     %
     %                                                                      %
     %   R. Sabatini et al., J. Phys.: Condens. Matter 24, 424209 (2012).   %
     %                                                                      %
     %%%%%%%%%%%%%%%%%%%%%%%%%%%%%%%%%%%%%%%%%%%%%%%%%%%%%%%%%%%%%%%%%%%%%%%%

     Adding external electric field

     Computed dipole along edir(3) :
        Dipole               -5.8522 Ry au,        -14.8749 Debye
        Dipole field         -0.0110 Ry au,

        Potential amp.        1.0238 Ry
        Total length         46.3494 bohr

     Starting wfcs are  295 atomic wfcs
  @ DRIVER MODE: Message from server: STATUS
  @ DRIVER MODE: Message from server: POSDATA
  @ DRIVER MODE: Reading and sharing cell
  @ DRIVER MODE: Reading and sharing positions
  @ DRIVER MODE: Received positions

     Self-consistent Calculation

     iteration #  1     ecut=    29.40 Ry     beta= 0.05
     Davidson diagonalization with overlap
     c_bands:  4 eigenvalues not converged
     c_bands:  1 eigenvalues not converged
     c_bands:  1 eigenvalues not converged
     c_bands:  2 eigenvalues not converged
     c_bands:  3 eigenvalues not converged
     c_bands:  3 eigenvalues not converged
     c_bands:  3 eigenvalues not converged
     c_bands:  3 eigenvalues not converged
     c_bands:  3 eigenvalues not converged
     c_bands:  5 eigenvalues not converged
     ethr =  1.00E-05,  avg # of iterations = 20.0

[...]

     total energy              =   -2777.28613312 Ry
     estimated scf accuracy    <    1561.05151465 Ry

[...]

     iteration #  3     ecut=    29.40 Ry     beta= 0.05
     Davidson diagonalization with overlap
     ethr =  1.00E-02,  avg # of iterations = 16.5

[...]

     iteration # 42     ecut=    29.40 Ry     beta= 0.05
     Davidson diagonalization with overlap
     c_bands:  1 eigenvalues not converged
     ethr =  9.89E-08,  avg # of iterations = 12.7

[...]

     total energy              =   -2919.04269843 Ry
     estimated scf accuracy    <       0.00000008 Ry

     iteration # 58     ecut=    29.40 Ry     beta= 0.05
     Davidson diagonalization with overlap
     ethr =  2.03E-11,  avg # of iterations =  4.7

     negative rho (up, down):  1.803E-02 0.000E+00

     Adding external electric field

     Computed dipole along edir(3) :
        Dipole                1.3673 Ry au,          3.4752 Debye
        Dipole field          0.0026 Ry au,

        Potential amp.       -0.2392 Ry
        Total length         46.3494 bohr

     End of self-consistent calculation

          k = 0.0000 0.0000 0.0000 ( 18029 PWs)   bands (ev):

   -55.5209 -55.4954 -55.4845 -55.4613 -55.4337 -55.3888 -55.3471 -55.3384
   -55.3204 -55.3136 -55.2839 -55.2822 -55.0507 -54.9456 -54.4990 -54.4649
   -32.0876 -31.9831 -31.8804 -31.8579 -31.8480 -31.8161 -31.8080 -31.7859
   -31.7747 -31.7393 -31.7348 -31.7293 -31.6973 -31.6721 -31.6623 -31.6585
   -31.6483 -31.6235 -31.6115 -31.6047 -31.5824 -31.5779 -31.5528 -31.5486
   -31.5436 -31.5267 -31.5247 -31.5205 -31.5195 -31.5102 -31.4953 -31.4807
   -31.4692 -31.4686 -31.4465 -31.4352 -31.4198 -31.3556 -31.2885 -31.1886
   -31.1810 -31.0902 -30.9072 -30.8160 -30.7938 -30.7239 -30.6372 -30.5262
   -16.9556 -16.3180 -16.0344 -15.8654 -15.7266 -15.6970 -15.5857 -15.4111
   -15.3285 -15.2563 -15.2381 -15.1590 -15.1372 -15.1212 -15.1062 -15.0501
   -15.0422 -14.9970 -14.9908 -14.9504 -14.9379 -14.9048 -14.8877 -14.8799
   -14.8185 -14.7847 -14.7216 -14.6568 -14.6017 -14.1163 -13.0017 -12.8848
    -9.4123  -7.1796  -4.5324  -3.6763  -3.5069  -3.4247  -3.4173  -3.3888
    -3.2067  -3.1286  -2.8520  -2.7599  -2.7246  -2.7191  -2.6924  -2.6260
    -2.5409  -2.4604  -2.3812  -2.3588  -2.3399  -2.3316  -2.3127  -2.3025
    -2.2947  -2.2663  -2.1852  -2.1254  -2.0585  -1.9800  -1.9052  -1.8878
    -1.8300  -1.8021  -1.7869  -1.7805  -1.7726  -1.7430  -1.7415  -1.6508
    -1.5515  -1.5180  -1.4200  -1.3982  -1.2982  -1.1631  -1.1425  -1.0367
    -1.0298  -0.9754  -0.9427  -0.9072  -0.8517  -0.8483  -0.8248  -0.6868
    -0.6178  -0.5569  -0.4987  -0.4712  -0.4527  -0.3640  -0.2998  -0.2937
    -0.2769  -0.2525  -0.0784  -0.0473  -0.0260  -0.0033   0.0097   0.0988
     0.1302   0.2078   0.2881   0.3005   0.3055   0.3828   0.4061   0.4480
     0.4516   0.4792   0.4845   0.6556   0.6651   0.6920   0.7294   0.8078
     0.8886   1.0968   1.1133   1.1624   1.4388   1.5065   1.5234   1.7110
     2.0968   2.1438   3.5697   3.6752   3.7069   3.7223   3.7505   3.8231
     3.8868   4.0658   4.0727   4.1036   4.1117

[...]

          k = 0.0380-0.0419 0.0000 ( 17876 PWs)   bands (ev):

[...]

          k =-0.0760-0.0000 0.0000 ( 17886 PWs)   bands (ev):

[...]

          k =-0.0760-0.0839 0.0000 ( 17948 PWs)   bands (ev):

   -55.5051 -55.5000 -55.4786 -55.4780 -55.4305 -55.3799 -55.3560 -55.3415
   -55.3016 -55.3004 -55.2996 -55.2983 -55.0478 -54.9484 -54.4819 -54.4818
   -31.8931 -31.8890 -31.8224 -31.7985 -31.7980 -31.7857 -31.7715 -31.7709
   -31.7307 -31.7259 -31.7234 -31.7166 -31.6867 -31.6505 -31.6416 -31.6375
   -31.6364 -31.6346 -31.6297 -31.6288 -31.6191 -31.5984 -31.5978 -31.5843
   -31.5808 -31.5700 -31.5583 -31.5413 -31.5348 -31.5324 -31.5163 -31.5157
   -31.5153 -31.5138 -31.4827 -31.4777 -31.4695 -31.3599 -31.2835 -31.2079
   -31.1838 -31.1741 -30.8065 -30.8064 -30.7199 -30.7198 -30.6806 -30.6806
   -16.9501 -15.7758 -15.7144 -15.5751 -15.4978 -15.4752 -15.4651 -15.4385
   -15.2967 -15.2838 -15.2639 -15.2176 -15.2132 -15.2119 -15.1669 -15.1125
   -15.0823 -15.0798 -15.0719 -15.0429 -15.0115 -15.0062 -14.9719 -14.9635
   -14.9497 -14.8598 -14.8551 -14.8528 -14.6706 -14.3394 -12.9865 -12.9864
    -9.4172  -7.1810  -4.5127  -3.0591  -2.9857  -2.8237  -2.7233  -2.6939
    -2.6619  -2.5155  -2.4825  -2.4717  -2.4537  -2.4145  -2.3930  -2.3783
    -2.3619  -2.3474  -2.3440  -2.3232  -2.3138  -2.3031  -2.2558  -2.2192
    -2.2103  -2.2041  -2.1738  -2.1565  -2.1421  -2.1140  -2.0945  -2.0780
    -2.0643  -2.0104  -1.8420  -1.8122  -1.7079  -1.6929  -1.6833  -1.6553
    -1.5949  -1.5679  -1.5352  -1.4914  -1.4394  -1.3187  -1.2550  -1.2351
    -1.2009  -1.1915  -1.1381  -1.0204  -0.9837  -0.9604  -0.9149  -0.8774
    -0.8293  -0.8229  -0.7033  -0.6935  -0.6516  -0.6082  -0.4965  -0.4816
    -0.4724  -0.4556  -0.4425  -0.3158  -0.3065  -0.2995  -0.2827  -0.2397
    -0.2218  -0.1141  -0.0135  -0.0011   0.1003   0.1560   0.2800   0.3462
     0.4428   0.4865   0.5101   0.6006   0.6336   0.7179   0.7416   0.7914
     0.8032   0.9081   0.9560   0.9717   0.9798   1.0489   1.8834   1.8842
     1.9637   1.9638   3.7293   3.8281   3.8652   3.8869   3.9325   4.0924
     4.1067   4.1544   4.1567   4.1762   4.2528

     the Fermi energy is     3.6275 ev

!    total energy              =   -2919.04275266 Ry
     estimated scf accuracy    <       0.00000004 Ry
     smearing contrib. (-TS)   =      -0.03602743 Ry
     internal energy E=F+TS    =   -2919.00672523 Ry

     The total energy is F=E-TS. E is the sum of the following terms:
     one-electron contribution =  -24481.06889715 Ry
     hartree contribution      =   12328.61866676 Ry
     xc contribution           =    -479.99076938 Ry
     ewald contribution        =    9713.43074674 Ry
     electric field correction =       0.00352780 Ry

     convergence has been achieved in  58 iterations

     Forces acting on atoms (cartesian axes, Ry/au):

     atom    1 type  1   force =     0.00009628   -0.00021098    0.09496038
     atom    2 type  1   force =    -0.00022888   -0.00036805   -0.17674098
     atom    3 type  2   force =    -0.00004668   -0.00007154   -0.02290717
     atom    4 type  2   force =    -0.00004370   -0.00167837    0.05576717
     atom    5 type  2   force =    -0.01135486   -0.00123053    0.00624683
     atom    6 type  2   force =     0.01253175   -0.00034877    0.00441090
     atom    7 type  1   force =    -0.00113770    0.00153194   -0.01374957
     atom    8 type  1   force =     0.00062898    0.00697065    0.01267369
     atom    9 type  2   force =     0.00020004   -0.00005807    0.00011337
     atom   10 type  2   force =    -0.00164454    0.00009303   -0.01007017
     atom   11 type  2   force =    -0.00019764    0.00002367    0.00006460
     atom   12 type  2   force =     0.00019198    0.00010437   -0.00015642
     atom   13 type  1   force =     0.00008169   -0.00001356    0.00074945
     atom   14 type  1   force =     0.00003769   -0.00015008    0.00034900
     atom   15 type  2   force =     0.00003674   -0.00021265   -0.00058864
     atom   16 type  2   force =     0.00025542    0.00028578   -0.00019276
     atom   17 type  2   force =    -0.00050214   -0.00030659   -0.00005974
     atom   18 type  2   force =     0.00082772   -0.00002133   -0.00019228
     atom   19 type  1   force =     0.00036666    0.00002425    0.00035174
     atom   20 type  1   force =     0.00016301   -0.00021809   -0.00051000
     atom   21 type  2   force =     0.00004446   -0.00004328    0.10359256
     atom   22 type  2   force =     0.00005498   -0.00006260   -0.00024257
     atom   23 type  2   force =    -0.07099466   -0.00016599   -0.02733793
     atom   24 type  2   force =     0.07084505    0.00031557   -0.02735475
     atom   25 type  1   force =    -0.00012590   -0.00020277    0.09466141
     atom   26 type  1   force =    -0.00019493   -0.00047177   -0.17688224
     atom   27 type  2   force =     0.00007063   -0.00035437   -0.02193597
     atom   28 type  2   force =     0.00003809   -0.00139126    0.05531926
     atom   29 type  2   force =    -0.01157641   -0.00008845    0.00585633
     atom   30 type  2   force =     0.01264693    0.00013029    0.00407256
     atom   31 type  1   force =    -0.00125065    0.00417589   -0.01461878
     atom   32 type  1   force =     0.00055635   -0.00779340    0.01253324
     atom   33 type  2   force =    -0.00001256    0.00009755    0.00002340
     atom   34 type  2   force =    -0.00128049    0.00082558   -0.00849122
     atom   35 type  2   force =     0.00012586    0.00020796   -0.00010125
     atom   36 type  2   force =     0.00007379    0.00004536    0.00008900
     atom   37 type  1   force =     0.00003651    0.00000671    0.00041400
     atom   38 type  1   force =    -0.00001214   -0.00016318   -0.00003108
     atom   39 type  2   force =    -0.00018520   -0.00004853   -0.00090277
     atom   40 type  2   force =     0.00022812   -0.00002704   -0.00034640
     atom   41 type  2   force =    -0.00014241    0.00004917   -0.00023099
     atom   42 type  2   force =     0.00031785    0.00020495   -0.00062550
     atom   43 type  1   force =    -0.00022500   -0.00002240    0.00059136
     atom   44 type  1   force =     0.00037642   -0.00032303    0.00082572
     atom   45 type  2   force =     0.00003233   -0.00005095    0.10356297
     atom   46 type  2   force =    -0.07099760   -0.00007169   -0.02733004
     atom   47 type  2   force =     0.07085733    0.00032379   -0.02736238
     atom   48 type  3   force =     0.00257899   -0.00208992   -0.00863213
     atom   49 type  4   force =    -0.00037099    0.00272663    0.01477606
     atom   50 type  5   force =    -0.00345520    0.00101930   -0.00544909
     atom   51 type  5   force =     0.00065013   -0.00012289    0.00070448
     atom   52 type  5   force =     0.00102852   -0.00078030    0.00033334

     Total force =     0.366523     Total SCF correction =     0.000428
  @ DRIVER MODE: Message from server: STATUS
  @ DRIVER MODE: Message from server: GETFORCE
  @ DRIVER MODE: Returning v,forces,stress,ensemble

     Writing output data file ./calc.save/
  @ DRIVER MODE: Message from server: EXIT
  @ DRIVE MODE: Exiting

     General routines

     Parallel routines

   This run was terminated on:   1:20: 8   9Sep2021

   JOB DONE.