     Program PWSCF v.6.7GPU starts on 18Oct2021 at 16:14:45

     R & G space division:  proc/nbgrp/npool/nimage =       8
     Reading input from /storage/home/hcoda1/3/ntian30/research/carbon/CxH_vib/Thiel_calc/ads_slab/NH2NH2_perslab/out_0011/pw.inp
Warning: card &CELL ignored
Warning: card   CELL_DYNAMICS='IPI', ignored
Warning: card / ignored

     Current dimensions of program PWSCF are:
     Max number of different atomic species (ntypx) = 10
     Max number of k-points (npk) =  40000
     Max angular momentum in pseudopotentials (lmaxx) =  3
     Presently no symmetry can be used with electric field

     Message from routine cell_base_init:
     DEPRECATED: use true lattice parameter, not A to a.u. conversion factor

     IMPORTANT: XC functional enforced from input :
     Exchange-correlation= BEEF-VDW
                           (   1   4  43  14   2   0   0)
     Any further DFT definition will be discarded
     Please, verify this is what you really want

  @ DRIVER MODE: Connecting to
 qe_1139763_3255136.sched-torque.pace.gatech.edummuptbri_scratch
  using UNIX socket
  @ DRIVER MODE: Message from server: STATUS
  @ DRIVER MODE: Message from server: INIT
  @ DRIVER MODE: Receiving replica           0          -1
  @ DRIVER MODE: Receiving encoded integer          25
  @ DRIVER MODE:  SCF:  T  FORCE:  T  STRESS:  F  VC:  F  ENSEMBLE:  F
  @ DRIVER MODE:  SCF:  T  FORCE:  T  STRESS:  F  VC:  F  ENSEMBLE:  F

     Using Slab Decomposition

     bravais-lattice index     =            0
     lattice parameter (alat)  =       1.8897  a.u.
     unit-cell volume          =    9988.4706 (a.u.)^3
     number of atoms/cell      =           59
     number of atomic types    =            4
     number of electrons       =       440.00
     number of Kohn-Sham states=          230
     kinetic-energy cutoff     =      29.3995  Ry
     charge density cutoff     =     293.9946  Ry
     scf convergence threshold =      7.3E-08
     mixing beta               =       0.0500
     number of iterations used =            8  plain     mixing
     Exchange-correlation= BEEF-VDW
                           (   1   4  43  14   2   0   0)

     celldm(1)=   1.889726  celldm(2)=   0.000000  celldm(3)=   0.000000
     celldm(4)=   0.000000  celldm(5)=   0.000000  celldm(6)=   0.000000

     crystal axes: (cart. coord. in units of alat)
               a(1) = (   6.579727   0.000000   0.000000 )
               a(2) = (  -0.001163   8.942395   0.000000 )
               a(3) = (   0.000000   0.000000  25.155947 )

     reciprocal axes: (cart. coord. in units 2 pi/alat)
               b(1) = (  0.151982  0.000020  0.000000 )
               b(2) = (  0.000000  0.111827  0.000000 )
               b(3) = (  0.000000  0.000000  0.039752 )

     PseudoPot. # 1 for O  read from file:
     /storage/coda1/p-amedford6/0/shared/rich_project_chbe-medford/medford-share/data/pseudos_module/espresso/nninc/pbe/van/O.UPF
     MD5 check sum: 78c19812648e8988a0fe644b0f25305e
     Pseudo is Ultrasoft, Zval =  6.0
     Generated by new atomic code, or converted to UPF format
     Using radial grid of  737 points,  4 beta functions with:
                l(1) =   0
                l(2) =   0
                l(3) =   1
                l(4) =   1
     Q(r) pseudized with  8 coefficients,  rinner =    0.800   0.800   0.800

     PseudoPot. # 2 for Ti read from file:
     /storage/coda1/p-amedford6/0/shared/rich_project_chbe-medford/medford-share/data/pseudos_module/espresso/nninc/pbe/van/Ti.UPF
     MD5 check sum: 8e4df49b7f0d34bbd5052bf3f5ea0213
     Pseudo is Ultrasoft, Zval = 12.0
     Generated by new atomic code, or converted to UPF format
     Using radial grid of  851 points,  6 beta functions with:
                l(1) =   0
                l(2) =   0
                l(3) =   1
                l(4) =   1
                l(5) =   2
                l(6) =   2
     Q(r) pseudized with  8 coefficients,  rinner =    1.000   1.000   1.000
                                                       1.000   1.000

     PseudoPot. # 3 for N  read from file:
     /storage/coda1/p-amedford6/0/shared/rich_project_chbe-medford/medford-share/data/pseudos_module/espresso/nninc/pbe/van/N.UPF
     MD5 check sum: 90d10febe142ad51ac9d5be1deb811c4
     Pseudo is Ultrasoft, Zval =  5.0
     Generated by new atomic code, or converted to UPF format
     Using radial grid of  729 points,  4 beta functions with:
                l(1) =   0
                l(2) =   0
                l(3) =   1
                l(4) =   1
     Q(r) pseudized with  8 coefficients,  rinner =    0.800   0.800   0.800

     PseudoPot. # 4 for H  read from file:
     /storage/coda1/p-amedford6/0/shared/rich_project_chbe-medford/medford-share/data/pseudos_module/espresso/nninc/pbe/van/H.UPF
     MD5 check sum: b5ee9d7bfd3a09ee7748110bda690ff7
     Pseudo is Ultrasoft, Zval =  1.0
     Generated by new atomic code, or converted to UPF format
     Using radial grid of  615 points,  1 beta functions with:
                l(1) =   0
     Q(r) pseudized with  8 coefficients,  rinner =    0.800

     atomic species   valence    mass     pseudopotential
        O1             6.00    15.99900     O ( 1.00)
        Ti1           12.00    47.86700     Ti( 1.00)
        N1             5.00    14.00700     N ( 1.00)
        H1             1.00     1.00800     H ( 1.00)

     No symmetry found

   Cartesian axes

     site n.     atom                  positions (alat units)
         1           O1  tau(   1) = (   0.0007354   0.0005023  10.5931620  )
         2           O1  tau(   2) = (   3.2892726   8.9022636  13.7900476  )
         3           O1  tau(   3) = (  -0.0000012   0.0159539  17.0845323  )
         4           O1  tau(   4) = (   0.0006271   0.0005054   7.9858123  )
         5           O1  tau(   5) = (   3.2903981   0.0001071  11.1466942  )
         6           O1  tau(   6) = (   6.5796972   0.0370899  14.4522764  )
         7           O1  tau(   7) = (   1.9868534   1.4903216   9.2879459  )
         8           O1  tau(   8) = (   5.2071659   1.5879261  12.5336177  )
         9           O1  tau(   9) = (   2.0150580   1.5800225  15.9505780  )
        10           Ti1 tau(  10) = (   0.0007404   1.4906270   9.2895810  )
        11           Ti1 tau(  11) = (   3.2907621   1.2831726  12.4565622  )
        12           Ti1 tau(  12) = (   6.5792216   1.1939559  15.8009323  )
        13           O1  tau(  13) = (   4.5942328   1.4918067   9.2879030  )
        14           O1  tau(  14) = (   1.3733293   1.5875306  12.5337771  )
        15           O1  tau(  15) = (   4.5635363   1.5794237  15.9511286  )
        16           Ti1 tau(  16) = (   3.2902859   2.9801868   9.2893338  )
        17           Ti1 tau(  17) = (   0.0006963   2.7899128  12.4910476  )
        18           Ti1 tau(  18) = (   3.2889055   2.8853182  15.6510148  )
        19           O1  tau(  19) = (   0.0003479   2.9813005  10.5931620  )
        20           O1  tau(  20) = (   3.2901137   2.9323735  13.8075185  )
        21           O1  tau(  21) = (   0.0002396   2.9813036   7.9858123  )
        22           O1  tau(  22) = (   3.2901566   2.9796509  11.1657827  )
        23           O1  tau(  23) = (  -0.0001005   3.0518452  14.6148139  )
        24           O1  tau(  24) = (   1.9864658   4.4711199   9.2879459  )
        25           O1  tau(  25) = (   5.2244327   4.5330399  12.5550231  )
        26           O1  tau(  26) = (   2.0317078   4.4891842  16.0144209  )
        27           Ti1 tau(  27) = (   0.0003529   4.4714252   9.2895810  )
        28           Ti1 tau(  28) = (   3.2908221   4.3047718  12.5439168  )
        29           Ti1 tau(  29) = (   0.0007318   4.2809743  15.9563396  )
        30           O1  tau(  30) = (   4.5938453   4.4726049   9.2879030  )
        31           O1  tau(  31) = (   1.3553747   4.5324408  12.5551093  )
        32           O1  tau(  32) = (   4.5484712   4.4888783  16.0159471  )
        33           Ti1 tau(  33) = (   3.2898983   5.9609850   9.2893338  )
        34           Ti1 tau(  34) = (   0.0004637   5.7541984  12.5654138  )
        35           Ti1 tau(  35) = (   3.2913524   5.8154114  16.2798070  )
        36           O1  tau(  36) = (  -0.0000397   5.9620987  10.5931620  )
        37           O1  tau(  37) = (   3.2897947   5.8994426  13.7907643  )
        38           O1  tau(  38) = (   0.0001798   5.9238570  17.1594641  )
        39           O1  tau(  39) = (  -0.0001480   5.9621018   7.9858123  )
        40           O1  tau(  40) = (   3.2896433   5.9245955  11.1661191  )
        41           O1  tau(  41) = (   0.0000838   5.9808129  14.5563373  )
        42           O1  tau(  42) = (   1.9860782   7.4519181   9.2879459  )
        43           O1  tau(  43) = (   5.2244350   7.5051086  12.5363475  )
        44           O1  tau(  44) = (   2.0177701   7.5673364  15.9764862  )
        45           Ti1 tau(  45) = (  -0.0000347   7.4522234   9.2895810  )
        46           Ti1 tau(  46) = (   3.2896674   7.1828241  12.5854878  )
        47           Ti1 tau(  47) = (   0.0003403   7.2137487  16.0183084  )
        48           O1  tau(  48) = (   4.5934577   7.4534031   9.2879030  )
        49           O1  tau(  49) = (   1.3543201   7.5047529  12.5365769  )
        50           O1  tau(  50) = (   4.5609347   7.5656990  15.9757490  )
        51           Ti1 tau(  51) = (   3.2895107   8.9417832   9.2893338  )
        52           Ti1 tau(  52) = (  -0.0005834   8.7067995  12.4790564  )
        53           Ti1 tau(  53) = (   3.2900135   8.8028796  15.6464995  )
        54           N1  tau(  54) = (   3.2900669   5.9334594  18.1702238  )
        55           H1  tau(  55) = (   3.2900466   5.1481598  18.7981281  )
        56           H1  tau(  56) = (   3.2872703   6.8047138  18.6863891  )
        57           N1  tau(  57) = (   0.0002662   3.1405291  17.5522950  )
        58           H1  tau(  58) = (   0.0007553   2.2326612  18.0099153  )
        59           H1  tau(  59) = (   6.5771877   3.8386968  18.2941669  )

     number of k points=    10  Fermi-Dirac smearing, width (Ry)=  0.0073
                       cart. coord. in units 2pi/alat
        k(    1) = (   0.0000000   0.0000000   0.0000000), wk =   0.1250000
        k(    2) = (   0.0000000   0.0279567   0.0000000), wk =   0.2500000
        k(    3) = (   0.0000000  -0.0559134   0.0000000), wk =   0.1250000
        k(    4) = (   0.0379955   0.0000049   0.0000000), wk =   0.2500000
        k(    5) = (   0.0379955   0.0279617   0.0000000), wk =   0.2500000
        k(    6) = (   0.0379955  -0.0559085   0.0000000), wk =   0.2500000
        k(    7) = (   0.0379955  -0.0279518   0.0000000), wk =   0.2500000
        k(    8) = (  -0.0759910  -0.0000099   0.0000000), wk =   0.1250000
        k(    9) = (  -0.0759910   0.0279468   0.0000000), wk =   0.2500000
        k(   10) = (  -0.0759910  -0.0559233   0.0000000), wk =   0.1250000

     Initial potential from superposition of free atoms

     starting charge  421.99910, renormalised to  440.00000

     negative rho (up, down):  3.742E-02 0.000E+00

     %%%%%%%%%%%%%%%%%%%%%%%%%%%%%%%%%%%%%%%%%%%%%%%%%%%%%%%%%%%%%%%%%%%%%%%%
     %                                                                      %
     % You are using vdW-DF, which was implemented by the Thonhauser group. %
     % Please cite the following two papers that made this development      %
     % possible and the two reviews that describe the various versions:     %
     %                                                                      %
     %   T. Thonhauser et al., PRL 115, 136402 (2015).                      %
     %   T. Thonhauser et al., PRB 76, 125112 (2007).                       %
     %   K. Berland et al., Rep. Prog. Phys. 78, 066501 (2015).             %
     %   D.C. Langreth et al., J. Phys.: Condens. Matter 21, 084203 (2009). %
     %                                                                      %
     %                                                                      %
     % If you are calculating the stress with vdW-DF, please also cite:     %
     %                                                                      %
     %   R. Sabatini et al., J. Phys.: Condens. Matter 24, 424209 (2012).   %
     %                                                                      %
     %%%%%%%%%%%%%%%%%%%%%%%%%%%%%%%%%%%%%%%%%%%%%%%%%%%%%%%%%%%%%%%%%%%%%%%%

     Adding external electric field

     Computed dipole along edir(3) :
        Dipole               -3.9759 Ry au,        -10.1058 Debye
        Dipole field         -0.0050 Ry au,

        Potential amp.        0.4637 Ry
        Total length         46.3494 bohr

     Starting wfcs are  332 atomic wfcs
  @ DRIVER MODE: Message from server: STATUS
  @ DRIVER MODE: Message from server: POSDATA
  @ DRIVER MODE: Reading and sharing cell
  @ DRIVER MODE: Reading and sharing positions
  @ DRIVER MODE: Received positions

     Self-consistent Calculation

     iteration #  1     ecut=    29.40 Ry     beta= 0.05
     Davidson diagonalization with overlap
     c_bands:  1 eigenvalues not converged
     c_bands:  2 eigenvalues not converged
     c_bands:  3 eigenvalues not converged
     c_bands:  4 eigenvalues not converged
     c_bands:  1 eigenvalues not converged
     c_bands:  3 eigenvalues not converged
     c_bands:  3 eigenvalues not converged
     c_bands:  3 eigenvalues not converged
     c_bands:  1 eigenvalues not converged
     ethr =  1.00E-05,  avg # of iterations = 19.2

[...]

     total energy              =   -3293.79851523 Ry
     estimated scf accuracy    <      28.12691308 Ry

     iteration #  2     ecut=    29.40 Ry     beta= 0.05
     Davidson diagonalization with overlap
     ethr =  6.39E-03,  avg # of iterations =  1.5

[...]

     iteration # 21     ecut=    29.40 Ry     beta= 0.05
     Davidson diagonalization with overlap
     c_bands:  1 eigenvalues not converged
     ethr =  7.45E-07,  avg # of iterations =  7.5

[...]

     total energy              =   -3293.29540148 Ry
     estimated scf accuracy    <       0.00000024 Ry

     iteration # 44     ecut=    29.40 Ry     beta= 0.05
     Davidson diagonalization with overlap
     ethr =  2.62E-11,  avg # of iterations =  5.0

     negative rho (up, down):  3.611E-02 0.000E+00

     Adding external electric field

     Computed dipole along edir(3) :
        Dipole                0.9475 Ry au,          2.4083 Debye
        Dipole field          0.0012 Ry au,

        Potential amp.       -0.1105 Ry
        Total length         46.3494 bohr

     End of self-consistent calculation

          k = 0.0000 0.0000 0.0000 ( 26871 PWs)   bands (ev):

   -58.4710 -58.4475 -58.4416 -58.4038 -58.3589 -58.0065 -57.9672 -57.9640
   -57.8802 -57.7605 -57.6873 -57.5723 -57.4766 -57.2247 -57.1436 -57.0736
   -57.0335 -57.0206 -34.8716 -34.8362 -34.8090 -34.7926 -34.7892 -34.7828
   -34.7341 -34.6736 -34.6465 -34.5958 -34.5833 -34.5806 -34.5748 -34.5531
   -34.5079 -34.4081 -34.3724 -34.3468 -34.3235 -34.3188 -34.2745 -34.2415
   -34.2296 -34.2253 -34.1904 -34.1877 -34.1550 -34.0578 -34.0466 -33.9880
   -33.9843 -33.9542 -33.8997 -33.8842 -33.8649 -33.8048 -33.7403 -33.7276
   -33.6861 -33.6734 -33.5832 -33.4624 -33.4491 -33.4180 -33.4163 -33.3814
   -33.3755 -33.3711 -33.3560 -33.3458 -33.2775 -33.2130 -33.1919 -33.0719
   -19.0232 -18.5600 -18.5013 -18.3518 -18.3028 -18.2825 -18.2763 -18.1255
   -17.9088 -17.8634 -17.8491 -17.8279 -17.7450 -17.7249 -17.7090 -17.6873
   -17.6721 -17.6512 -17.5625 -17.5569 -17.5361 -17.5117 -17.4917 -17.4370
   -17.3774 -17.3558 -17.2680 -17.1929 -17.1526 -16.9298 -16.6725 -16.5931
   -15.5395 -15.4983 -15.4898 -15.2757 -15.1692  -6.7551  -6.6327  -6.3580
    -6.1636  -5.9515  -5.8156  -5.6977  -5.6444  -5.5632  -5.4972  -5.4595
    -5.4574  -5.3968  -5.3500  -5.2560  -5.2498  -5.1578  -5.1082  -5.0918
    -5.0626  -5.0137  -4.9676  -4.9223  -4.9066  -4.8455  -4.8018  -4.7916
    -4.7422  -4.6804  -4.6763  -4.6561  -4.6541  -4.6198  -4.5860  -4.4647
    -4.4614  -4.4165  -4.3530  -4.3014  -4.2644  -4.2240  -4.1908  -4.1902
    -4.1736  -4.1276  -4.0934  -3.9191  -3.8681  -3.8311  -3.7989  -3.7198
    -3.6516  -3.5957  -3.5607  -3.5171  -3.4291  -3.3602  -3.3527  -3.3439
    -3.2774  -3.2341  -3.1966  -3.1651  -3.1467  -3.0837  -3.0310  -3.0303
    -2.9894  -2.9728  -2.9585  -2.9130  -2.8584  -2.8347  -2.8325  -2.7930
    -2.7864  -2.7440  -2.6463  -2.6172  -2.5566  -2.5183  -2.4636  -2.4157
    -2.4096  -2.3747  -2.3375  -2.2690  -2.1769  -2.1267  -1.9960  -1.9910
    -1.9133  -1.9030  -1.8366  -1.8082  -1.7919  -1.7449  -1.7176  -1.6036
    -1.5277  -1.4091  -1.1954  -0.9912  -0.8462  -0.7661  -0.7516  -0.7077
    -0.5686  -0.5495  -0.4647  -0.4529   0.8049   0.9405   1.1003   1.1182
     1.3181   1.4469   1.4650   1.5074   1.5643   1.6944

[...]

          k = 0.0380-0.0280 0.0000 ( 26873 PWs)   bands (ev):

[...]

          k =-0.0760-0.0000 0.0000 ( 26902 PWs)   bands (ev):

[...]

          k =-0.0760-0.0559 0.0000 ( 26868 PWs)   bands (ev):

   -58.4652 -58.4590 -58.4358 -58.4037 -58.3591 -58.0064 -57.9673 -57.9640
   -57.8801 -57.7607 -57.6871 -57.5722 -57.4766 -57.2248 -57.1435 -57.0724
   -57.0374 -57.0178 -34.8997 -34.8840 -34.8398 -34.8113 -34.7800 -34.6895
   -34.6729 -34.6246 -34.6181 -34.6060 -34.6035 -34.5924 -34.5779 -34.5564
   -34.5549 -34.4362 -34.3803 -34.3602 -34.3455 -34.3252 -34.2570 -34.2239
   -34.2201 -34.1899 -34.1812 -34.1652 -34.1188 -34.0657 -34.0579 -34.0316
   -33.9918 -33.9745 -33.9045 -33.8986 -33.8772 -33.7897 -33.7401 -33.7057
   -33.6842 -33.6592 -33.5711 -33.4823 -33.4529 -33.4518 -33.4196 -33.4173
   -33.3866 -33.3680 -33.3664 -33.2693 -33.2345 -33.1837 -33.1817 -33.1529
   -18.8100 -18.6615 -18.4160 -18.3173 -18.1542 -18.1069 -18.0538 -18.0436
   -18.0376 -17.9419 -17.9246 -17.8804 -17.8736 -17.8237 -17.7989 -17.7874
   -17.7805 -17.7487 -17.6815 -17.6255 -17.5398 -17.4477 -17.4352 -17.4193
   -17.4128 -17.3337 -17.2352 -17.1898 -17.1525 -16.9527 -16.6821 -16.5551
   -15.5513 -15.5381 -15.4286 -15.2707 -15.1700  -6.7479  -6.6466  -6.1219
    -5.9268  -5.8951  -5.8542  -5.5366  -5.4936  -5.3892  -5.3602  -5.3565
    -5.3293  -5.2851  -5.2467  -5.1915  -5.1562  -5.1385  -5.1299  -5.1123
    -5.0854  -5.0374  -5.0126  -4.9700  -4.9648  -4.9496  -4.9195  -4.8964
    -4.8473  -4.8381  -4.7669  -4.7572  -4.7232  -4.5288  -4.4748  -4.4128
    -4.3635  -4.2974  -4.2480  -4.1906  -4.1900  -4.1079  -4.0974  -4.0390
    -3.9791  -3.8915  -3.8097  -3.8043  -3.7817  -3.7534  -3.7206  -3.6881
    -3.6649  -3.6442  -3.6051  -3.5566  -3.5194  -3.4457  -3.4131  -3.4071
    -3.3663  -3.3470  -3.3358  -3.3316  -3.3151  -3.2114  -3.2039  -3.1442
    -3.1105  -3.1051  -3.0347  -3.0287  -2.9773  -2.9510  -2.8821  -2.8454
    -2.8352  -2.7464  -2.7392  -2.7355  -2.6539  -2.6443  -2.5442  -2.5110
    -2.4264  -2.3015  -2.1814  -2.1797  -2.1703  -2.0487  -2.0468  -2.0350
    -1.9909  -1.9283  -1.9036  -1.7208  -1.7174  -1.6722  -1.6019  -1.5806
    -1.5563  -1.5414  -1.4253  -1.4034  -0.9987  -0.7174  -0.6836  -0.6786
    -0.6462  -0.6163  -0.5829  -0.5740   0.8565   1.0171   1.0950   1.1605
     1.1862   1.2300   1.2617   1.4361   1.4987   1.5052

     the Fermi energy is     0.2173 ev

!    total energy              =   -3293.29559710 Ry
     estimated scf accuracy    <       0.00000004 Ry
     smearing contrib. (-TS)   =      -0.00052577 Ry
     internal energy E=F+TS    =   -3293.29507133 Ry

     The total energy is F=E-TS. E is the sum of the following terms:
     one-electron contribution =  -34586.77494946 Ry
     hartree contribution      =   17355.20899219 Ry
     xc contribution           =    -542.08253743 Ry
     ewald contribution        =   14480.35229387 Ry
     electric field correction =       0.00112949 Ry

     convergence has been achieved in  44 iterations

     Forces acting on atoms (cartesian axes, Ry/au):

     atom    1 type  1   force =    -0.00000702    0.00890937    0.04219731
     atom    2 type  1   force =     0.00002320   -0.00248398   -0.00298709
     atom    3 type  1   force =    -0.00003183   -0.00630085   -0.00115186
     atom    4 type  1   force =     0.00004729    0.00395150    0.10168246
     atom    5 type  1   force =     0.00002115   -0.00058936    0.00718571
     atom    6 type  1   force =    -0.00002341    0.00085692    0.00285308
     atom    7 type  1   force =     0.07636690    0.00119516   -0.03511326
     atom    8 type  1   force =     0.00753545   -0.02412602    0.00123423
     atom    9 type  1   force =     0.00790022   -0.02072370    0.00178069
     atom   10 type  2   force =    -0.00003278   -0.00384893   -0.16973813
     atom   11 type  2   force =    -0.00011700    0.02223230   -0.00321997
     atom   12 type  2   force =    -0.00000138    0.02019609   -0.00568055
     atom   13 type  1   force =    -0.07646028    0.00074274   -0.03506100
     atom   14 type  1   force =    -0.00761714   -0.02400066    0.00122925
     atom   15 type  1   force =    -0.00784745   -0.02080887    0.00178654
     atom   16 type  2   force =     0.00010341    0.00207856    0.07522555
     atom   17 type  2   force =     0.00020735    0.02911205    0.00187653
     atom   18 type  2   force =    -0.00009311    0.02411842    0.00010139
     atom   19 type  1   force =     0.00000433    0.00221976    0.05608962
     atom   20 type  1   force =     0.00000444   -0.00075832   -0.00269796
     atom   21 type  1   force =     0.00004873   -0.00273636    0.10231194
     atom   22 type  1   force =     0.00000935   -0.00166241    0.00634250
     atom   23 type  1   force =    -0.00001739   -0.00391336    0.00178803
     atom   24 type  1   force =     0.07836273   -0.00055854   -0.03678786
     atom   25 type  1   force =     0.00978855   -0.02948974   -0.00096704
     atom   26 type  1   force =     0.01103666   -0.02689311   -0.00652681
     atom   27 type  2   force =    -0.00005843    0.01458830   -0.15614867
     atom   28 type  2   force =    -0.00013516    0.02626305   -0.00046174
     atom   29 type  2   force =     0.00003726    0.02323899    0.00311351
     atom   30 type  1   force =    -0.07845893   -0.00098579   -0.03673562
     atom   31 type  1   force =    -0.00985082   -0.02934630   -0.00096823
     atom   32 type  1   force =    -0.01090772   -0.02695929   -0.00657745
     atom   33 type  2   force =     0.00009800   -0.00382996    0.07804637
     atom   34 type  2   force =     0.00019418    0.03436203    0.00328654
     atom   35 type  2   force =    -0.00012299    0.03190384    0.00657566
     atom   36 type  1   force =     0.00002068    0.00148283    0.05144832
     atom   37 type  1   force =     0.00002314   -0.00165002   -0.00245144
     atom   38 type  1   force =    -0.00002172   -0.00346511    0.00002963
     atom   39 type  1   force =     0.00004975    0.00037368    0.09994377
     atom   40 type  1   force =     0.00001594   -0.00069146    0.00653333
     atom   41 type  1   force =    -0.00002521   -0.00091713    0.00424817
     atom   42 type  1   force =     0.07944146    0.00172194   -0.03467807
     atom   43 type  1   force =     0.00606820   -0.02325038    0.00044438
     atom   44 type  1   force =     0.00712192   -0.02147780    0.00388626
     atom   45 type  2   force =    -0.00005414   -0.01584569   -0.15542327
     atom   46 type  2   force =    -0.00010769    0.01694431    0.00086530
     atom   47 type  2   force =     0.00002404    0.02052559   -0.00089388
     atom   48 type  1   force =    -0.07953368    0.00128263   -0.03462404
     atom   49 type  1   force =    -0.00618237   -0.02313629    0.00043509
     atom   50 type  1   force =    -0.00698557   -0.02150669    0.00388362
     atom   51 type  2   force =     0.00008260   -0.00447147    0.06170920
     atom   52 type  2   force =     0.00020170    0.02906256    0.00061291
     atom   53 type  2   force =    -0.00014279    0.02935760    0.00014941
     atom   54 type  3   force =     0.00001534    0.00971084   -0.00892898
     atom   55 type  4   force =     0.00002562   -0.00802331    0.00773930
     atom   56 type  4   force =    -0.00005345   -0.00085273    0.00028699
     atom   57 type  3   force =    -0.00000312   -0.00118987    0.00118574
     atom   58 type  4   force =     0.00005950    0.00185489   -0.00059448
     atom   59 type  4   force =    -0.00004652   -0.00179250    0.00030912

     Total force =     0.439467     Total SCF correction =     0.000563
  @ DRIVER MODE: Message from server: STATUS
  @ DRIVER MODE: Message from server: GETFORCE
  @ DRIVER MODE: Returning v,forces,stress,ensemble

     Writing output data file ./calc.save/
  @ DRIVER MODE: Message from server: EXIT
  @ DRIVE MODE: Exiting

     General routines

     Parallel routines

   This run was terminated on:  16:37:42  18Oct2021

   JOB DONE.