     Program PWSCF v.6.7GPU starts on 23Sep2021 at  6:11:26

     R & G space division:  proc/nbgrp/npool/nimage =      10
     Reading input from /storage/home/hcoda1/3/ntian30/research/carbon/CxH_vib/H2O_calc/ads_slab/CH3NHHH2O_a/out_0044/pw.inp
Warning: card &CELL ignored
Warning: card   CELL_DYNAMICS='IPI', ignored
Warning: card / ignored

     Current dimensions of program PWSCF are:
     Max number of different atomic species (ntypx) = 10
     Max number of k-points (npk) =  40000
     Max angular momentum in pseudopotentials (lmaxx) =  3
     Presently no symmetry can be used with electric field

     Message from routine cell_base_init:
     DEPRECATED: use true lattice parameter, not A to a.u. conversion factor

     IMPORTANT: XC functional enforced from input :
     Exchange-correlation= BEEF-VDW
                           (   1   4  43  14   2   0   0)
     Any further DFT definition will be discarded
     Please, verify this is what you really want

  @ DRIVER MODE: Connecting to
 qe_1139763_2937309.sched-torque.pace.gatech.eduoi49d1qz_scratch
  using UNIX socket
  @ DRIVER MODE: Message from server: STATUS
  @ DRIVER MODE: Message from server: INIT
  @ DRIVER MODE: Receiving replica           0          -1
  @ DRIVER MODE: Receiving encoded integer          25
  @ DRIVER MODE:  SCF:  T  FORCE:  T  STRESS:  F  VC:  F  ENSEMBLE:  F
  @ DRIVER MODE:  SCF:  T  FORCE:  T  STRESS:  F  VC:  F  ENSEMBLE:  F

     Using Slab Decomposition

     bravais-lattice index     =            0
     lattice parameter (alat)  =       1.8897  a.u.
     unit-cell volume          =    6658.9804 (a.u.)^3
     number of atoms/cell      =           57
     number of atomic types    =            5
     number of electrons       =       400.00
     number of Kohn-Sham states=          210
     kinetic-energy cutoff     =      29.3995  Ry
     charge density cutoff     =     293.9946  Ry
     scf convergence threshold =      7.3E-08
     mixing beta               =       0.0500
     number of iterations used =            8  plain     mixing
     Exchange-correlation= BEEF-VDW
                           (   1   4  43  14   2   0   0)

     celldm(1)=   1.889726  celldm(2)=   0.000000  celldm(3)=   0.000000
     celldm(4)=   0.000000  celldm(5)=   0.000000  celldm(6)=   0.000000

     crystal axes: (cart. coord. in units of alat)
               a(1) = (   6.579727   0.000000   0.000000 )
               a(2) = (  -0.000775   5.961596   0.000000 )
               a(3) = (   0.000000   0.000000  25.155947 )

     reciprocal axes: (cart. coord. in units 2 pi/alat)
               b(1) = (  0.151982  0.000020  0.000000 )
               b(2) = (  0.000000  0.167740  0.000000 )
               b(3) = (  0.000000  0.000000  0.039752 )

     PseudoPot. # 1 for Ti read from file:
     /storage/coda1/p-amedford6/0/shared/rich_project_chbe-medford/medford-share/data/pseudos_module/espresso/nninc/pbe/van/Ti.UPF
     MD5 check sum: 8e4df49b7f0d34bbd5052bf3f5ea0213
     Pseudo is Ultrasoft, Zval = 12.0
     Generated by new atomic code, or converted to UPF format
     Using radial grid of  851 points,  6 beta functions with:
                l(1) =   0
                l(2) =   0
                l(3) =   1
                l(4) =   1
                l(5) =   2
                l(6) =   2
     Q(r) pseudized with  8 coefficients,  rinner =    1.000   1.000   1.000
                                                       1.000   1.000

     PseudoPot. # 2 for O  read from file:
     /storage/coda1/p-amedford6/0/shared/rich_project_chbe-medford/medford-share/data/pseudos_module/espresso/nninc/pbe/van/O.UPF
     MD5 check sum: 78c19812648e8988a0fe644b0f25305e
     Pseudo is Ultrasoft, Zval =  6.0
     Generated by new atomic code, or converted to UPF format
     Using radial grid of  737 points,  4 beta functions with:
                l(1) =   0
                l(2) =   0
                l(3) =   1
                l(4) =   1
     Q(r) pseudized with  8 coefficients,  rinner =    0.800   0.800   0.800

     PseudoPot. # 3 for N  read from file:
     /storage/coda1/p-amedford6/0/shared/rich_project_chbe-medford/medford-share/data/pseudos_module/espresso/nninc/pbe/van/N.UPF
     MD5 check sum: 90d10febe142ad51ac9d5be1deb811c4
     Pseudo is Ultrasoft, Zval =  5.0
     Generated by new atomic code, or converted to UPF format
     Using radial grid of  729 points,  4 beta functions with:
                l(1) =   0
                l(2) =   0
                l(3) =   1
                l(4) =   1
     Q(r) pseudized with  8 coefficients,  rinner =    0.800   0.800   0.800

     PseudoPot. # 4 for C  read from file:
     /storage/coda1/p-amedford6/0/shared/rich_project_chbe-medford/medford-share/data/pseudos_module/espresso/nninc/pbe/van/C.UPF
     MD5 check sum: 1a69bf6b8db32088f5b2163dbdb77a27
     Pseudo is Ultrasoft, Zval =  4.0
     Generated by new atomic code, or converted to UPF format
     Using radial grid of  721 points,  4 beta functions with:
                l(1) =   0
                l(2) =   0
                l(3) =   1
                l(4) =   1
     Q(r) pseudized with  8 coefficients,  rinner =    0.800   0.800   0.800

     PseudoPot. # 5 for H  read from file:
     /storage/coda1/p-amedford6/0/shared/rich_project_chbe-medford/medford-share/data/pseudos_module/espresso/nninc/pbe/van/H.UPF
     MD5 check sum: b5ee9d7bfd3a09ee7748110bda690ff7
     Pseudo is Ultrasoft, Zval =  1.0
     Generated by new atomic code, or converted to UPF format
     Using radial grid of  615 points,  1 beta functions with:
                l(1) =   0
     Q(r) pseudized with  8 coefficients,  rinner =    0.800

     atomic species   valence    mass     pseudopotential
        Ti1           12.00    47.86700     Ti( 1.00)
        O1             6.00    15.99900     O ( 1.00)
        N1             5.00    14.00700     N ( 1.00)
        C1             4.00    12.01100     C ( 1.00)
        H1             1.00     1.00800     H ( 1.00)

     No symmetry found

   Cartesian axes

     site n.     atom                  positions (alat units)
         1           Ti1 tau(   1) = (   0.0004258   2.9801865   6.0000000  )
         2           Ti1 tau(   2) = (   3.2906075   1.4906267   6.0002472  )
         3           O1  tau(   3) = (   0.0006271   0.0005054   7.9858123  )
         4           O1  tau(   4) = (   3.2906025   0.0005020   7.3038282  )
         5           O1  tau(   5) = (   4.5942328   1.4918067   9.2879030  )
         6           O1  tau(   6) = (   1.9868534   1.4903216   9.2879459  )
         7           Ti1 tau(   7) = (   3.2907910   2.8959150   9.1758416  )
         8           Ti1 tau(   8) = (   0.0015273   1.4827037   9.2680791  )
         9           O1  tau(   9) = (   3.2912042   0.0294118  11.3810798  )
        10           O1  tau(  10) = (   0.0116148   5.9584955  10.6183126  )
        11           O1  tau(  11) = (   1.2906363   1.5151137  12.6946382  )
        12           O1  tau(  12) = (   5.2977377   1.5118052  12.6897239  )
        13           Ti1 tau(  13) = (   0.0154927   3.0055723  12.5114375  )
        14           Ti1 tau(  14) = (   3.3120461   1.5076926  12.5412499  )
        15           O1  tau(  15) = (   0.0087391   5.9056098  14.6936070  )
        16           O1  tau(  16) = (   3.3000944   0.0090435  14.0218108  )
        17           O1  tau(  17) = (   4.5606481   1.5918460  16.0876707  )
        18           O1  tau(  18) = (   2.0070218   1.5857768  16.0794533  )
        19           Ti1 tau(  19) = (   3.2835068   3.0412122  15.7371975  )
        20           Ti1 tau(  20) = (   0.0166266   1.3536260  15.8406240  )
        21           O1  tau(  21) = (   3.2904802   0.0005063   4.7018136  )
        22           O1  tau(  22) = (   6.5628702   0.1917167  17.2472498  )
        23           O1  tau(  23) = (   1.3043587   1.4918075   6.0039043  )
        24           O1  tau(  24) = (   5.2767064   1.4903225   6.0039473  )
        25           Ti1 tau(  25) = (   0.0000382   5.9609847   6.0000000  )
        26           Ti1 tau(  26) = (   3.2902200   4.4714249   6.0002472  )
        27           O1  tau(  27) = (   0.0002396   2.9813036   7.9858123  )
        28           O1  tau(  28) = (   3.2902150   2.9813002   7.3038282  )
        29           O1  tau(  29) = (   4.5938453   4.4726049   9.2879030  )
        30           O1  tau(  30) = (   1.9864658   4.4711199   9.2879459  )
        31           Ti1 tau(  31) = (   3.2891106   5.8743827   9.1763621  )
        32           Ti1 tau(  32) = (   0.0006254   4.4649316   9.2693709  )
        33           O1  tau(  33) = (   3.2975917   2.9887808  11.3748511  )
        34           O1  tau(  34) = (   0.0092240   2.9805883  10.6323155  )
        35           O1  tau(  35) = (   1.2927870   4.4849180  12.6503915  )
        36           O1  tau(  36) = (   5.2959677   4.4879952  12.6460094  )
        37           Ti1 tau(  37) = (   0.0189062   0.0134437  12.4995343  )
        38           Ti1 tau(  38) = (   3.3131396   4.4925875  12.5257625  )
        39           O1  tau(  39) = (   6.5658147   3.0796170  14.9398047  )
        40           O1  tau(  40) = (   3.2912769   3.0351834  13.9531456  )
        41           O1  tau(  41) = (   4.5372935   4.5058929  16.2491503  )
        42           O1  tau(  42) = (   2.0060561   4.4992570  16.2466123  )
        43           Ti1 tau(  43) = (   3.3106529   0.0781036  15.8389635  )
        44           Ti1 tau(  44) = (   0.0259428   4.5566345  16.0434284  )
        45           O1  tau(  45) = (   3.2900926   2.9813045   4.7018136  )
        46           O1  tau(  46) = (   1.3039711   4.4726057   6.0039043  )
        47           O1  tau(  47) = (   5.2763189   4.4711207   6.0039473  )
        48           N1  tau(  48) = (   6.3514164   3.3085518  18.1544664  )
        49           C1  tau(  49) = (   0.8695967   3.1501053  19.1301808  )
        50           H1  tau(  50) = (   1.3785670   4.1052268  19.2416751  )
        51           H1  tau(  51) = (   0.5086663   2.8389580  20.1145987  )
        52           H1  tau(  52) = (   1.5779067   2.4119510  18.7640910  )
        53           H1  tau(  53) = (   5.7211048   4.0382881  18.4729098  )
        54           H1  tau(  54) = (   5.7931489   2.4557210  18.1309407  )
        55           O1  tau(  55) = (   3.2917172   0.3149129  18.3340421  )
        56           H1  tau(  56) = (   4.0380937   5.6864266  18.4726034  )
        57           H1  tau(  57) = (   2.4816286   5.7371253  18.4434621  )

     number of k points=    10  Fermi-Dirac smearing, width (Ry)=  0.0073
                       cart. coord. in units 2pi/alat
        k(    1) = (   0.0000000   0.0000000   0.0000000), wk =   0.1250000
        k(    2) = (   0.0000000   0.0419351   0.0000000), wk =   0.2500000
        k(    3) = (   0.0000000  -0.0838702   0.0000000), wk =   0.1250000
        k(    4) = (   0.0379955   0.0000049   0.0000000), wk =   0.2500000
        k(    5) = (   0.0379955   0.0419400   0.0000000), wk =   0.2500000
        k(    6) = (   0.0379955  -0.0838652   0.0000000), wk =   0.2500000
        k(    7) = (   0.0379955  -0.0419301   0.0000000), wk =   0.2500000
        k(    8) = (  -0.0759910  -0.0000099   0.0000000), wk =   0.1250000
        k(    9) = (  -0.0759910   0.0419252   0.0000000), wk =   0.2500000
        k(   10) = (  -0.0759910  -0.0838800   0.0000000), wk =   0.1250000

     Initial potential from superposition of free atoms

     starting charge  383.99913, renormalised to  400.00000

     negative rho (up, down):  1.554E-02 0.000E+00

     %%%%%%%%%%%%%%%%%%%%%%%%%%%%%%%%%%%%%%%%%%%%%%%%%%%%%%%%%%%%%%%%%%%%%%%%
     %                                                                      %
     % You are using vdW-DF, which was implemented by the Thonhauser group. %
     % Please cite the following two papers that made this development      %
     % possible and the two reviews that describe the various versions:     %
     %                                                                      %
     %   T. Thonhauser et al., PRL 115, 136402 (2015).                      %
     %   T. Thonhauser et al., PRB 76, 125112 (2007).                       %
     %   K. Berland et al., Rep. Prog. Phys. 78, 066501 (2015).             %
     %   D.C. Langreth et al., J. Phys.: Condens. Matter 21, 084203 (2009). %
     %                                                                      %
     %                                                                      %
     % If you are calculating the stress with vdW-DF, please also cite:     %
     %                                                                      %
     %   R. Sabatini et al., J. Phys.: Condens. Matter 24, 424209 (2012).   %
     %                                                                      %
     %%%%%%%%%%%%%%%%%%%%%%%%%%%%%%%%%%%%%%%%%%%%%%%%%%%%%%%%%%%%%%%%%%%%%%%%

     Adding external electric field

     Computed dipole along edir(3) :
        Dipole              -12.0858 Ry au,        -30.7189 Debye
        Dipole field         -0.0228 Ry au,

        Potential amp.        2.1142 Ry
        Total length         46.3494 bohr

     Starting wfcs are  303 atomic wfcs
  @ DRIVER MODE: Message from server: STATUS
  @ DRIVER MODE: Message from server: POSDATA
  @ DRIVER MODE: Reading and sharing cell
  @ DRIVER MODE: Reading and sharing positions
  @ DRIVER MODE: Received positions

     Self-consistent Calculation

     iteration #  1     ecut=    29.40 Ry     beta= 0.05
     Davidson diagonalization with overlap
     c_bands:  2 eigenvalues not converged
     c_bands:  2 eigenvalues not converged
     c_bands:  3 eigenvalues not converged
     c_bands:  4 eigenvalues not converged
     c_bands:  2 eigenvalues not converged
     c_bands:  1 eigenvalues not converged
     c_bands:  4 eigenvalues not converged
     c_bands:  4 eigenvalues not converged
     c_bands:  5 eigenvalues not converged
     ethr =  1.00E-05,  avg # of iterations = 22.0

[...]

     total energy              =   -2384.82048278 Ry
     estimated scf accuracy    <    6450.53710164 Ry

     iteration #  2     ecut=    29.40 Ry     beta= 0.05
     Davidson diagonalization with overlap
     ethr =  1.00E-02,  avg # of iterations = 26.8

[...]

     iteration # 59     ecut=    29.40 Ry     beta= 0.05
     Davidson diagonalization with overlap
     c_bands:  2 eigenvalues not converged
     ethr =  7.16E-11,  avg # of iterations = 12.0

[...]

     total energy              =   -2956.45461382 Ry
     estimated scf accuracy    <       0.00000011 Ry

     iteration # 62     ecut=    29.40 Ry     beta= 0.05
     Davidson diagonalization with overlap
     ethr =  2.57E-11,  avg # of iterations =  8.6

     negative rho (up, down):  1.589E-02 0.000E+00

     Adding external electric field

     Computed dipole along edir(3) :
        Dipole                1.4039 Ry au,          3.5683 Debye
        Dipole field          0.0026 Ry au,

        Potential amp.       -0.2456 Ry
        Total length         46.3494 bohr

     End of self-consistent calculation

          k = 0.0000 0.0000 0.0000 ( 18029 PWs)   bands (ev):

   -55.2156 -55.1783 -55.1730 -55.1472 -55.1388 -55.1185 -55.0968 -55.0618
   -55.0416 -55.0069 -55.0037 -54.9946 -54.9700 -54.9346 -54.2028 -54.1688
   -31.7790 -31.6894 -31.6655 -31.5855 -31.5305 -31.5254 -31.5168 -31.5092
   -31.4618 -31.4383 -31.4267 -31.4176 -31.4134 -31.4115 -31.3875 -31.3845
   -31.3620 -31.3608 -31.3535 -31.3382 -31.3255 -31.3176 -31.3023 -31.2932
   -31.2869 -31.2742 -31.2719 -31.2429 -31.2301 -31.2277 -31.2224 -31.2024
   -31.1994 -31.1918 -31.1878 -31.1709 -31.1548 -31.1406 -31.1330 -31.1317
   -31.1148 -31.1125 -30.6123 -30.5179 -30.4959 -30.4286 -30.3418 -30.2310
   -19.2340 -16.1565 -16.0247 -15.7759 -15.6342 -15.5397 -15.4195 -15.3042
   -15.2395 -15.1256 -15.0673 -14.9322 -14.9168 -14.9051 -14.8803 -14.8469
   -14.8083 -14.7605 -14.7592 -14.7356 -14.7151 -14.7063 -14.6645 -14.6573
   -14.6175 -14.5962 -14.5953 -14.4599 -14.3786 -14.3083 -14.1229 -12.7055
   -12.5880 -10.2765  -7.0244  -6.2728  -4.8303  -3.9433  -3.4021  -3.3422
    -3.2376  -3.1486  -3.1258  -3.1133  -2.9762  -2.8856  -2.7473  -2.6668
    -2.6344  -2.4980  -2.4246  -2.4134  -2.3807  -2.2656  -2.2131  -2.1867
    -2.1542  -2.0823  -2.0342  -2.0236  -2.0056  -1.9752  -1.9594  -1.9257
    -1.8720  -1.7869  -1.7559  -1.6528  -1.6151  -1.5851  -1.5755  -1.5508
    -1.5338  -1.5091  -1.5026  -1.4422  -1.4388  -1.4090  -1.3627  -1.2479
    -1.0855  -1.0222  -0.9506  -0.8578  -0.8099  -0.7964  -0.7268  -0.7171
    -0.7031  -0.5992  -0.5668  -0.5540  -0.4572  -0.4249  -0.3867  -0.3143
    -0.2430  -0.2149  -0.2019  -0.0865  -0.0216  -0.0034   0.0164   0.0234
     0.1130   0.1863   0.2338   0.2855   0.3263   0.3336   0.3993   0.4315
     0.4993   0.5512   0.5691   0.6563   0.7013   0.7139   0.7201   0.7533
     0.7653   0.8271   0.8633   0.8877   0.9743   1.0895   1.2418   1.3833
     1.3914   1.7244   1.7253   1.8199   2.0036   2.3961   2.4444   3.8774
     3.9501   4.0092   4.0226   4.0280   4.1132   4.3598   4.3817   4.3876
     4.3977   4.4262

[...]

          k = 0.0380-0.0419 0.0000 ( 17876 PWs)   bands (ev):

[...]

          k =-0.0760-0.0000 0.0000 ( 17886 PWs)   bands (ev):

[...]

          k =-0.0760-0.0839 0.0000 ( 17948 PWs)   bands (ev):

   -55.2020 -55.1917 -55.1558 -55.1558 -55.1455 -55.1162 -55.0827 -55.0759
   -55.0270 -55.0210 -54.9968 -54.9872 -54.9867 -54.9361 -54.1860 -54.1855
   -31.6080 -31.5878 -31.5789 -31.4807 -31.4805 -31.4766 -31.4691 -31.4471
   -31.4470 -31.4273 -31.4195 -31.4129 -31.4054 -31.3910 -31.3735 -31.3587
   -31.3559 -31.3536 -31.3515 -31.3496 -31.3421 -31.3395 -31.3226 -31.3166
   -31.2960 -31.2955 -31.2769 -31.2755 -31.2755 -31.2735 -31.2682 -31.2602
   -31.2526 -31.2399 -31.2341 -31.2197 -31.2166 -31.1989 -31.1722 -31.1678
   -31.1668 -31.1462 -30.5087 -30.5083 -30.4249 -30.4246 -30.3853 -30.3851
   -19.2332 -16.1107 -15.5982 -15.4842 -15.3583 -15.2485 -15.2277 -15.1813
   -15.1324 -15.0822 -15.0303 -15.0019 -14.9809 -14.9722 -14.9291 -14.9187
   -14.8995 -14.8341 -14.8186 -14.8076 -14.7837 -14.7363 -14.7280 -14.7203
   -14.7163 -14.6704 -14.6664 -14.6186 -14.5749 -14.5711 -14.3915 -12.6895
   -12.6895 -10.2782  -7.0512  -6.2057  -4.8310  -3.9584  -3.2427  -2.9825
    -2.7496  -2.6977  -2.6094  -2.4657  -2.4218  -2.3771  -2.3459  -2.2843
    -2.2337  -2.2187  -2.2069  -2.1306  -2.1037  -2.0959  -2.0627  -2.0510
    -2.0409  -2.0028  -1.9826  -1.9568  -1.9483  -1.9377  -1.9350  -1.9253
    -1.8673  -1.8547  -1.8441  -1.8404  -1.7817  -1.7703  -1.7555  -1.7414
    -1.5970  -1.5787  -1.4278  -1.4244  -1.4021  -1.3496  -1.3380  -1.2973
    -1.2540  -1.2448  -1.2180  -0.9739  -0.9645  -0.9619  -0.9300  -0.8963
    -0.8584  -0.7966  -0.7677  -0.6984  -0.6890  -0.5736  -0.5575  -0.4424
    -0.4337  -0.4210  -0.3385  -0.2891  -0.2409  -0.2019  -0.1849  -0.1743
    -0.1577  -0.1210  -0.1187  -0.0214   0.0147   0.0454   0.0588   0.0983
     0.2751   0.3039   0.3193   0.4636   0.4711   0.6306   0.6818   0.7092
     0.8000   0.8602   0.8949   0.9387   1.0746   1.0878   1.1054   1.1599
     1.1831   1.2324   1.2455   2.1760   2.1773   2.2643   2.2644   4.0225
     4.1318   4.1409   4.1987   4.3100   4.3189   4.3924   4.4236   4.4610
     4.4647   4.5293

     the Fermi energy is     3.9396 ev

!    total energy              =   -2956.45465577 Ry
     estimated scf accuracy    <       0.00000007 Ry
     smearing contrib. (-TS)   =      -0.03685337 Ry
     internal energy E=F+TS    =   -2956.41780239 Ry

     The total energy is F=E-TS. E is the sum of the following terms:
     one-electron contribution =  -23693.60702174 Ry
     hartree contribution      =   11942.31086059 Ry
     xc contribution           =    -490.61314366 Ry
     ewald contribution        =    9285.48778309 Ry
     electric field correction =       0.00371933 Ry

     convergence has been achieved in  62 iterations

     Forces acting on atoms (cartesian axes, Ry/au):

     atom    1 type  1   force =    -0.00000814   -0.00025727    0.09338839
     atom    2 type  1   force =    -0.00007479   -0.00035637   -0.17813993
     atom    3 type  2   force =     0.00004424   -0.00031093   -0.02034819
     atom    4 type  2   force =    -0.00003648   -0.00184932    0.05912146
     atom    5 type  2   force =    -0.01021396   -0.00060561    0.00750923
     atom    6 type  2   force =     0.01174149    0.00022287    0.00683704
     atom    7 type  1   force =    -0.00031179    0.00188480   -0.01238958
     atom    8 type  1   force =     0.00016665    0.00083136   -0.00450747
     atom    9 type  2   force =     0.00038336   -0.00016048   -0.00081090
     atom   10 type  2   force =    -0.00141653    0.00414306   -0.00108793
     atom   11 type  2   force =    -0.00086981   -0.00030806    0.00018991
     atom   12 type  2   force =     0.00088343   -0.00006050    0.00004850
     atom   13 type  1   force =    -0.00013177   -0.00022407    0.00010569
     atom   14 type  1   force =    -0.00003428   -0.00010366    0.00003286
     atom   15 type  2   force =    -0.00065854   -0.00003280   -0.00007246
     atom   16 type  2   force =    -0.00011486    0.00022632   -0.00042304
     atom   17 type  2   force =     0.00035281   -0.00059502   -0.00022607
     atom   18 type  2   force =     0.00085402   -0.00075249   -0.00003846
     atom   19 type  1   force =    -0.00060091    0.00014878    0.00148217
     atom   20 type  1   force =     0.00065378   -0.00077692    0.00040330
     atom   21 type  2   force =     0.00002175   -0.00010666    0.10400130
     atom   22 type  2   force =     0.00021533   -0.00063063    0.00034350
     atom   23 type  2   force =    -0.07042034   -0.00020883   -0.02693196
     atom   24 type  2   force =     0.07025534    0.00023363   -0.02698661
     atom   25 type  1   force =    -0.00005388   -0.00021528    0.09290269
     atom   26 type  1   force =    -0.00020048   -0.00052677   -0.17841193
     atom   27 type  2   force =     0.00007190   -0.00013442   -0.01932244
     atom   28 type  2   force =     0.00005372   -0.00157512    0.05813446
     atom   29 type  2   force =    -0.01091234   -0.00007082    0.00843431
     atom   30 type  2   force =     0.01231666    0.00011804    0.00771743
     atom   31 type  1   force =    -0.00029707    0.00670131   -0.01506447
     atom   32 type  1   force =     0.00011079   -0.00072730   -0.00472062
     atom   33 type  2   force =    -0.00022074    0.00035489   -0.00052700
     atom   34 type  2   force =    -0.00111342   -0.00022858   -0.00040717
     atom   35 type  2   force =    -0.00019267   -0.00011460   -0.00016055
     atom   36 type  2   force =     0.00027279   -0.00036265   -0.00026155
     atom   37 type  1   force =     0.00022575   -0.00019041    0.00021061
     atom   38 type  1   force =    -0.00011582    0.00067972    0.00064269
     atom   39 type  2   force =     0.00017139   -0.00111940    0.00101338
     atom   40 type  2   force =     0.00024807    0.00100146   -0.00062193
     atom   41 type  2   force =    -0.00019303    0.00009049   -0.00040546
     atom   42 type  2   force =     0.00120605    0.00029490   -0.00032847
     atom   43 type  1   force =    -0.00083877    0.00001398    0.00039423
     atom   44 type  1   force =     0.00022291   -0.00118909    0.00106576
     atom   45 type  2   force =     0.00001176   -0.00011625    0.10395096
     atom   46 type  2   force =    -0.07038609   -0.00012554   -0.02690042
     atom   47 type  2   force =     0.07023758    0.00028601   -0.02696723
     atom   48 type  3   force =     0.00076980    0.00008709   -0.00053783
     atom   49 type  4   force =    -0.00007941   -0.00013335    0.00001638
     atom   50 type  5   force =    -0.00014648   -0.00074507    0.00013257
     atom   51 type  5   force =    -0.00002697   -0.00056414   -0.00062066
     atom   52 type  5   force =    -0.00000985    0.00006924   -0.00048562
     atom   53 type  5   force =     0.00001630    0.00015279   -0.00062316
     atom   54 type  5   force =     0.00004437   -0.00020238   -0.00065745
     atom   55 type  2   force =    -0.02528939    0.00017069    0.00016507
     atom   56 type  5   force =     0.01155490   -0.00978654    0.00237507
     atom   57 type  5   force =     0.01186167    0.00775591   -0.00163241

     Total force =     0.367748     Total SCF correction =     0.000666
  @ DRIVER MODE: Message from server: STATUS
  @ DRIVER MODE: Message from server: GETFORCE
  @ DRIVER MODE: Returning v,forces,stress,ensemble

     Writing output data file ./calc.save/
  @ DRIVER MODE: Message from server: EXIT
  @ DRIVE MODE: Exiting

     General routines

     Parallel routines

   This run was terminated on:   6:28:32  23Sep2021

   JOB DONE.