     Program PWSCF v.6.7GPU starts on 23Aug2021 at 22:49: 1

     R & G space division:  proc/nbgrp/npool/nimage =       6
     Reading input from /storage/home/hcoda1/3/ntian30/research/carbon/CH2_vib/ads_slab/CH2N2H_a/out_0019/pw.inp
Warning: card &CELL ignored
Warning: card   CELL_DYNAMICS='IPI', ignored
Warning: card / ignored

     Current dimensions of program PWSCF are:
     Max number of different atomic species (ntypx) = 10
     Max number of k-points (npk) =  40000
     Max angular momentum in pseudopotentials (lmaxx) =  3
     Presently no symmetry can be used with electric field

     Message from routine cell_base_init:
     DEPRECATED: use true lattice parameter, not A to a.u. conversion factor

     IMPORTANT: XC functional enforced from input :
     Exchange-correlation= BEEF-VDW
                           (   1   4  43  14   2   0   0)
     Any further DFT definition will be discarded
     Please, verify this is what you really want

  @ DRIVER MODE: Connecting to
 qe_1139763_2632802.sched-torque.pace.gatech.eduj3hrq5b2_scratch
  using UNIX socket
  @ DRIVER MODE: Message from server: STATUS
  @ DRIVER MODE: Message from server: INIT
  @ DRIVER MODE: Receiving replica           0          -1
  @ DRIVER MODE: Receiving encoded integer          25
  @ DRIVER MODE:  SCF:  T  FORCE:  T  STRESS:  F  VC:  F  ENSEMBLE:  F
  @ DRIVER MODE:  SCF:  T  FORCE:  T  STRESS:  F  VC:  F  ENSEMBLE:  F

     Using Slab Decomposition

     bravais-lattice index     =            0
     lattice parameter (alat)  =       1.8897  a.u.
     unit-cell volume          =    6658.9804 (a.u.)^3
     number of atoms/cell      =           53
     number of atomic types    =            5
     number of electrons       =       395.00
     number of Kohn-Sham states=          207
     kinetic-energy cutoff     =      29.3995  Ry
     charge density cutoff     =     293.9946  Ry
     scf convergence threshold =      7.3E-08
     mixing beta               =       0.0500
     number of iterations used =            8  plain     mixing
     Exchange-correlation= BEEF-VDW
                           (   1   4  43  14   2   0   0)

     celldm(1)=   1.889726  celldm(2)=   0.000000  celldm(3)=   0.000000
     celldm(4)=   0.000000  celldm(5)=   0.000000  celldm(6)=   0.000000

     crystal axes: (cart. coord. in units of alat)
               a(1) = (   6.579727   0.000000   0.000000 )
               a(2) = (  -0.000775   5.961596   0.000000 )
               a(3) = (   0.000000   0.000000  25.155947 )

     reciprocal axes: (cart. coord. in units 2 pi/alat)
               b(1) = (  0.151982  0.000020  0.000000 )
               b(2) = (  0.000000  0.167740  0.000000 )
               b(3) = (  0.000000  0.000000  0.039752 )

     PseudoPot. # 1 for Ti read from file:
     /storage/coda1/p-amedford6/0/shared/rich_project_chbe-medford/medford-share/data/pseudos_module/espresso/nninc/pbe/van/Ti.UPF
     MD5 check sum: 8e4df49b7f0d34bbd5052bf3f5ea0213
     Pseudo is Ultrasoft, Zval = 12.0
     Generated by new atomic code, or converted to UPF format
     Using radial grid of  851 points,  6 beta functions with:
                l(1) =   0
                l(2) =   0
                l(3) =   1
                l(4) =   1
                l(5) =   2
                l(6) =   2
     Q(r) pseudized with  8 coefficients,  rinner =    1.000   1.000   1.000
                                                       1.000   1.000

     PseudoPot. # 2 for O  read from file:
     /storage/coda1/p-amedford6/0/shared/rich_project_chbe-medford/medford-share/data/pseudos_module/espresso/nninc/pbe/van/O.UPF
     MD5 check sum: 78c19812648e8988a0fe644b0f25305e
     Pseudo is Ultrasoft, Zval =  6.0
     Generated by new atomic code, or converted to UPF format
     Using radial grid of  737 points,  4 beta functions with:
                l(1) =   0
                l(2) =   0
                l(3) =   1
                l(4) =   1
     Q(r) pseudized with  8 coefficients,  rinner =    0.800   0.800   0.800

     PseudoPot. # 3 for N  read from file:
     /storage/coda1/p-amedford6/0/shared/rich_project_chbe-medford/medford-share/data/pseudos_module/espresso/nninc/pbe/van/N.UPF
     MD5 check sum: 90d10febe142ad51ac9d5be1deb811c4
     Pseudo is Ultrasoft, Zval =  5.0
     Generated by new atomic code, or converted to UPF format
     Using radial grid of  729 points,  4 beta functions with:
                l(1) =   0
                l(2) =   0
                l(3) =   1
                l(4) =   1
     Q(r) pseudized with  8 coefficients,  rinner =    0.800   0.800   0.800

     PseudoPot. # 4 for C  read from file:
     /storage/coda1/p-amedford6/0/shared/rich_project_chbe-medford/medford-share/data/pseudos_module/espresso/nninc/pbe/van/C.UPF
     MD5 check sum: 1a69bf6b8db32088f5b2163dbdb77a27
     Pseudo is Ultrasoft, Zval =  4.0
     Generated by new atomic code, or converted to UPF format
     Using radial grid of  721 points,  4 beta functions with:
                l(1) =   0
                l(2) =   0
                l(3) =   1
                l(4) =   1
     Q(r) pseudized with  8 coefficients,  rinner =    0.800   0.800   0.800

     PseudoPot. # 5 for H  read from file:
     /storage/coda1/p-amedford6/0/shared/rich_project_chbe-medford/medford-share/data/pseudos_module/espresso/nninc/pbe/van/H.UPF
     MD5 check sum: b5ee9d7bfd3a09ee7748110bda690ff7
     Pseudo is Ultrasoft, Zval =  1.0
     Generated by new atomic code, or converted to UPF format
     Using radial grid of  615 points,  1 beta functions with:
                l(1) =   0
     Q(r) pseudized with  8 coefficients,  rinner =    0.800

     atomic species   valence    mass     pseudopotential
        Ti1           12.00    47.86700     Ti( 1.00)
        O1             6.00    15.99900     O ( 1.00)
        N1             5.00    14.00700     N ( 1.00)
        C1             4.00    12.01100     C ( 1.00)
        H1             1.00     1.00800     H ( 1.00)

     No symmetry found

   Cartesian axes

     site n.     atom                  positions (alat units)
         1           Ti1 tau(   1) = (   0.0004258   2.9801865   6.0000000  )
         2           Ti1 tau(   2) = (   3.2906075   1.4906267   6.0002472  )
         3           O1  tau(   3) = (   0.0006271   0.0005054   7.9858123  )
         4           O1  tau(   4) = (   3.2906025   0.0005020   7.3038282  )
         5           O1  tau(   5) = (   4.5942328   1.4918067   9.2879030  )
         6           O1  tau(   6) = (   1.9868534   1.4903216   9.2879459  )
         7           Ti1 tau(   7) = (   3.2907910   2.8959150   9.1758416  )
         8           Ti1 tau(   8) = (   0.0015273   1.4827037   9.2680791  )
         9           O1  tau(   9) = (   3.3007851   0.0027079  11.3193151  )
        10           O1  tau(  10) = (   0.0116148   5.9584955  10.6183126  )
        11           O1  tau(  11) = (   1.3147357   1.5019762  12.6210215  )
        12           O1  tau(  12) = (   5.3120411   1.4917641  12.6342566  )
        13           Ti1 tau(  13) = (   6.5359925   2.9538565  12.6086018  )
        14           Ti1 tau(  14) = (   3.2189980   1.4905645  12.4770757  )
        15           O1  tau(  15) = (   0.0426301   5.9606301  14.6312846  )
        16           O1  tau(  16) = (   3.3149351   0.0098317  13.8848037  )
        17           O1  tau(  17) = (   4.5523768   1.5206755  16.0744300  )
        18           O1  tau(  18) = (   2.0715852   1.4807026  15.9918588  )
        19           Ti1 tau(  19) = (   3.2935730   2.9941335  15.6827836  )
        20           Ti1 tau(  20) = (   0.0200723   1.3023755  15.9747514  )
        21           O1  tau(  21) = (   3.2904802   0.0005063   4.7018136  )
        22           O1  tau(  22) = (   6.5179923   0.0002674  17.1556216  )
        23           O1  tau(  23) = (   1.3043587   1.4918075   6.0039043  )
        24           O1  tau(  24) = (   5.2767064   1.4903225   6.0039473  )
        25           Ti1 tau(  25) = (   0.0000382   5.9609847   6.0000000  )
        26           Ti1 tau(  26) = (   3.2902200   4.4714249   6.0002472  )
        27           O1  tau(  27) = (   0.0002396   2.9813036   7.9858123  )
        28           O1  tau(  28) = (   3.2902150   2.9813002   7.3038282  )
        29           O1  tau(  29) = (   4.5938453   4.4726049   9.2879030  )
        30           O1  tau(  30) = (   1.9864658   4.4711199   9.2879459  )
        31           Ti1 tau(  31) = (   3.2891106   5.8743827   9.1763621  )
        32           Ti1 tau(  32) = (   0.0006254   4.4649316   9.2693709  )
        33           O1  tau(  33) = (   3.3053585   2.9833221  11.3185053  )
        34           O1  tau(  34) = (   0.0092240   2.9805883  10.6323155  )
        35           O1  tau(  35) = (   1.3157767   4.4721532  12.6203727  )
        36           O1  tau(  36) = (   5.3104355   4.4689601  12.6331991  )
        37           Ti1 tau(  37) = (   6.5385524   5.9338372  12.5465384  )
        38           Ti1 tau(  38) = (   3.2200853   4.4710709  12.4725482  )
        39           O1  tau(  39) = (   0.0068575   2.9964749  14.7765288  )
        40           O1  tau(  40) = (   3.3021705   2.9848394  13.8818356  )
        41           O1  tau(  41) = (   4.5334443   4.4765196  15.9883447  )
        42           O1  tau(  42) = (   2.0816803   4.4801587  16.0471567  )
        43           Ti1 tau(  43) = (   3.3155128   0.0116264  15.6901768  )
        44           Ti1 tau(  44) = (   6.5575601   4.4671909  15.9479714  )
        45           O1  tau(  45) = (   3.2900926   2.9813045   4.7018136  )
        46           O1  tau(  46) = (   1.3039711   4.4726057   6.0039043  )
        47           O1  tau(  47) = (   5.2763189   4.4711207   6.0039473  )
        48           N1  tau(  48) = (   0.4270260   2.3853988  17.9668900  )
        49           C1  tau(  49) = (   0.9469377   1.9340014  19.0583692  )
        50           H1  tau(  50) = (   1.0789317   2.5769861  19.9249762  )
        51           H1  tau(  51) = (   1.2226487   0.8959138  19.0941702  )
        52           N1  tau(  52) = (   0.0025679   3.6232397  17.7996529  )
        53           H1  tau(  53) = (   0.1020252   4.2324666  18.6151602  )

     number of k points=    10  Fermi-Dirac smearing, width (Ry)=  0.0073
                       cart. coord. in units 2pi/alat
        k(    1) = (   0.0000000   0.0000000   0.0000000), wk =   0.1250000
        k(    2) = (   0.0000000   0.0419351   0.0000000), wk =   0.2500000
        k(    3) = (   0.0000000  -0.0838702   0.0000000), wk =   0.1250000
        k(    4) = (   0.0379955   0.0000049   0.0000000), wk =   0.2500000
        k(    5) = (   0.0379955   0.0419400   0.0000000), wk =   0.2500000
        k(    6) = (   0.0379955  -0.0838652   0.0000000), wk =   0.2500000
        k(    7) = (   0.0379955  -0.0419301   0.0000000), wk =   0.2500000
        k(    8) = (  -0.0759910  -0.0000099   0.0000000), wk =   0.1250000
        k(    9) = (  -0.0759910   0.0419252   0.0000000), wk =   0.2500000
        k(   10) = (  -0.0759910  -0.0838800   0.0000000), wk =   0.1250000

     Initial potential from superposition of free atoms

     starting charge  378.99916, renormalised to  395.00000

     negative rho (up, down):  1.649E-02 0.000E+00

     %%%%%%%%%%%%%%%%%%%%%%%%%%%%%%%%%%%%%%%%%%%%%%%%%%%%%%%%%%%%%%%%%%%%%%%%
     %                                                                      %
     % You are using vdW-DF, which was implemented by the Thonhauser group. %
     % Please cite the following two papers that made this development      %
     % possible and the two reviews that describe the various versions:     %
     %                                                                      %
     %   T. Thonhauser et al., PRL 115, 136402 (2015).                      %
     %   T. Thonhauser et al., PRB 76, 125112 (2007).                       %
     %   K. Berland et al., Rep. Prog. Phys. 78, 066501 (2015).             %
     %   D.C. Langreth et al., J. Phys.: Condens. Matter 21, 084203 (2009). %
     %                                                                      %
     %                                                                      %
     % If you are calculating the stress with vdW-DF, please also cite:     %
     %                                                                      %
     %   R. Sabatini et al., J. Phys.: Condens. Matter 24, 424209 (2012).   %
     %                                                                      %
     %%%%%%%%%%%%%%%%%%%%%%%%%%%%%%%%%%%%%%%%%%%%%%%%%%%%%%%%%%%%%%%%%%%%%%%%

     Adding external electric field

     Computed dipole along edir(3) :
        Dipole               -8.3970 Ry au,        -21.3430 Debye
        Dipole field         -0.0158 Ry au,

        Potential amp.        1.4689 Ry
        Total length         46.3494 bohr

     Starting wfcs are  299 atomic wfcs
  @ DRIVER MODE: Message from server: STATUS
  @ DRIVER MODE: Message from server: POSDATA
  @ DRIVER MODE: Reading and sharing cell
  @ DRIVER MODE: Reading and sharing positions
  @ DRIVER MODE: Received positions

     Self-consistent Calculation

     iteration #  1     ecut=    29.40 Ry     beta= 0.05
     Davidson diagonalization with overlap
     c_bands:  2 eigenvalues not converged
     c_bands:  1 eigenvalues not converged
     c_bands:  2 eigenvalues not converged
     c_bands:  3 eigenvalues not converged
     c_bands:  3 eigenvalues not converged
     c_bands:  2 eigenvalues not converged
     c_bands:  1 eigenvalues not converged
     ethr =  1.00E-05,  avg # of iterations = 19.3

[...]

     total energy              =   -2613.93885618 Ry
     estimated scf accuracy    <    3601.33323654 Ry

[...]

     iteration #  3     ecut=    29.40 Ry     beta= 0.05
     Davidson diagonalization with overlap
     ethr =  1.00E-02,  avg # of iterations = 14.4

[...]

     iteration # 55     ecut=    29.40 Ry     beta= 0.05
     Davidson diagonalization with overlap
     c_bands:  2 eigenvalues not converged
     ethr =  5.40E-09,  avg # of iterations = 12.5

[...]

     total energy              =   -2939.13538131 Ry
     estimated scf accuracy    <       0.00000009 Ry

     iteration # 68     ecut=    29.40 Ry     beta= 0.05
     Davidson diagonalization with overlap
     ethr =  2.34E-11,  avg # of iterations =  9.1

     negative rho (up, down):  1.682E-02 0.000E+00

     Adding external electric field

     Computed dipole along edir(3) :
        Dipole                0.7874 Ry au,          2.0013 Debye
        Dipole field          0.0015 Ry au,

        Potential amp.       -0.1377 Ry
        Total length         46.3494 bohr

     End of self-consistent calculation

          k = 0.0000 0.0000 0.0000 ( 18029 PWs)   bands (ev):

   -55.8525 -55.8513 -55.8184 -55.8153 -55.7457 -55.7026 -55.6649 -55.6631
   -55.6299 -55.6291 -55.6244 -55.5908 -55.1899 -55.1440 -54.8281 -54.7940
   -32.4054 -32.3354 -32.2413 -32.1630 -32.1491 -32.1446 -32.1309 -32.1162
   -32.0955 -32.0823 -32.0294 -32.0116 -32.0049 -32.0031 -31.9931 -31.9895
   -31.9573 -31.9455 -31.9394 -31.9368 -31.9099 -31.9074 -31.8916 -31.8895
   -31.8586 -31.8545 -31.8522 -31.8511 -31.8260 -31.8110 -31.8034 -31.7931
   -31.7812 -31.7790 -31.7713 -31.7379 -31.7314 -31.4543 -31.4171 -31.3898
   -31.3372 -31.3022 -31.2349 -31.1472 -31.1248 -31.0520 -30.9655 -30.8541
   -17.9113 -16.6117 -16.3316 -16.0762 -16.0010 -15.9971 -15.8635 -15.7007
   -15.5879 -15.5210 -15.4407 -15.4109 -15.3889 -15.3534 -15.3471 -15.3094
   -15.3005 -15.2749 -15.2715 -15.2092 -15.2058 -15.1984 -15.1886 -15.1045
   -15.0468 -14.9953 -14.9876 -14.9143 -14.8802 -14.3525 -13.3299 -13.2135
   -12.1640  -7.8748  -5.3638  -4.5450  -3.9885  -3.8292  -3.7595  -3.7251
    -3.6488  -3.4887  -3.4099  -3.1282  -3.0795  -3.0236  -3.0141  -2.9776
    -2.9339  -2.7813  -2.7036  -2.6768  -2.6612  -2.6389  -2.6238  -2.6117
    -2.5960  -2.5764  -2.4948  -2.4141  -2.3702  -2.2935  -2.2798  -2.2444
    -2.1648  -2.1644  -2.1242  -2.1040  -2.0857  -2.0695  -2.0610  -2.0457
    -1.9060  -1.8476  -1.8345  -1.6536  -1.6365  -1.5881  -1.4623  -1.4553
    -1.3386  -1.3232  -1.2831  -1.2453  -1.1725  -1.1508  -1.0392  -0.9980
    -0.9361  -0.8893  -0.8738  -0.7984  -0.7337  -0.6952  -0.6821  -0.6171
    -0.6103  -0.5973  -0.4626  -0.3863  -0.3327  -0.2767  -0.2544  -0.1985
    -0.1589  -0.1157  -0.0284  -0.0011   0.0105   0.0685   0.0904   0.1159
     0.1276   0.1472   0.1762   0.2317   0.3499   0.3815   0.4575   0.4718
     0.5319   0.6666   0.8047   0.8716   0.9244   1.0193   1.1253   1.1947
     1.2680   1.3871   1.7649   1.8104   2.1382   3.2672   3.3693   3.4021
     3.4130   3.5161   3.6650   3.7264   3.7416   3.7829   3.8172

[...]

          k = 0.0380-0.0419 0.0000 ( 17876 PWs)   bands (ev):

[...]

          k =-0.0760-0.0000 0.0000 ( 17886 PWs)   bands (ev):

[...]

          k =-0.0760-0.0839 0.0000 ( 17948 PWs)   bands (ev):

   -55.8355 -55.8352 -55.8338 -55.8326 -55.7371 -55.7112 -55.6481 -55.6465
   -55.6464 -55.6454 -55.6083 -55.6071 -55.1820 -55.1518 -54.8111 -54.8109
   -32.2076 -32.2060 -32.1508 -32.1505 -32.1302 -32.1299 -32.0962 -32.0932
   -32.0841 -32.0674 -32.0018 -31.9991 -31.9936 -31.9918 -31.9698 -31.9622
   -31.9553 -31.9549 -31.9497 -31.9485 -31.9466 -31.9349 -31.9292 -31.9224
   -31.9103 -31.9053 -31.8604 -31.8502 -31.8483 -31.8475 -31.8393 -31.8385
   -31.8252 -31.8246 -31.8241 -31.8228 -31.6839 -31.4497 -31.4159 -31.4114
   -31.3934 -31.3382 -31.1376 -31.1374 -31.0477 -31.0475 -31.0088 -31.0087
   -17.8978 -16.0268 -16.0241 -15.8164 -15.7775 -15.7583 -15.7524 -15.6627
   -15.5769 -15.5434 -15.5404 -15.4535 -15.4273 -15.4112 -15.3951 -15.3896
   -15.3807 -15.3512 -15.3161 -15.3086 -15.2945 -15.2888 -15.2769 -15.2200
   -15.1687 -15.1644 -15.1420 -15.0698 -14.8311 -14.6928 -13.3155 -13.3153
   -12.1248  -7.8152  -5.4092  -4.6054  -3.3213  -3.3118  -3.0655  -3.0226
    -3.0191  -2.9941  -2.9505  -2.7896  -2.7770  -2.7575  -2.7499  -2.7051
    -2.6816  -2.6613  -2.6417  -2.6365  -2.6075  -2.5814  -2.5663  -2.5294
    -2.5225  -2.5135  -2.4819  -2.4712  -2.4248  -2.4193  -2.3985  -2.3712
    -2.3617  -2.3277  -2.1786  -2.1071  -2.0789  -1.9942  -1.9873  -1.9477
    -1.9247  -1.9033  -1.8959  -1.8685  -1.8303  -1.6943  -1.6119  -1.5501
    -1.5415  -1.4570  -1.4295  -1.3680  -1.2780  -1.2525  -1.2316  -1.1599
    -1.0841  -1.0460  -0.9948  -0.9816  -0.9141  -0.9054  -0.8479  -0.8109
    -0.8089  -0.7320  -0.7017  -0.6544  -0.6179  -0.6011  -0.5781  -0.5513
    -0.5358  -0.5126  -0.4363  -0.3527  -0.3011  -0.2406  -0.1474  -0.0185
     0.1023   0.2151   0.2370   0.2813   0.3337   0.3678   0.4615   0.4653
     0.5285   0.5519   0.5933   0.6709   0.6822   0.7066   0.8177   0.8478
     1.5593   1.5596   1.6303   1.6305   2.0788   3.5901   3.6190   3.6381
     3.6698   3.7994   3.8053   3.8158   3.8165   3.9518   3.9550

     the Fermi energy is     3.2772 ev

!    total energy              =   -2939.13540161 Ry
     estimated scf accuracy    <       0.00000004 Ry
     smearing contrib. (-TS)   =      -0.02098998 Ry
     internal energy E=F+TS    =   -2939.11441163 Ry

     The total energy is F=E-TS. E is the sum of the following terms:
     one-electron contribution =  -24492.39124023 Ry
     hartree contribution      =   12334.14925633 Ry
     xc contribution           =    -485.37300832 Ry
     ewald contribution        =    9704.49941063 Ry
     electric field correction =       0.00116996 Ry

     convergence has been achieved in  68 iterations

     Forces acting on atoms (cartesian axes, Ry/au):

     atom    1 type  1   force =     0.00008114   -0.00024019    0.09632542
     atom    2 type  1   force =     0.00005521   -0.00056854   -0.17516382
     atom    3 type  2   force =     0.00015187   -0.00013129   -0.02408720
     atom    4 type  2   force =    -0.00000394   -0.00124839    0.05221766
     atom    5 type  2   force =    -0.01056460   -0.00047612    0.00251026
     atom    6 type  2   force =     0.01238181    0.00022477    0.00288409
     atom    7 type  1   force =     0.00098472    0.00026821   -0.01175029
     atom    8 type  1   force =    -0.00013680    0.00775113    0.02262925
     atom    9 type  2   force =    -0.00019879   -0.00015486   -0.00027074
     atom   10 type  2   force =    -0.00262188    0.00115147   -0.01267909
     atom   11 type  2   force =     0.00006441   -0.00012230    0.00005285
     atom   12 type  2   force =     0.00009741    0.00018399   -0.00038912
     atom   13 type  1   force =     0.00043896   -0.00035020    0.00023197
     atom   14 type  1   force =     0.00015398    0.00032555   -0.00014376
     atom   15 type  2   force =    -0.00022124    0.00014814    0.00003480
     atom   16 type  2   force =     0.00011210   -0.00021528    0.00033857
     atom   17 type  2   force =     0.00049677   -0.00001960    0.00035147
     atom   18 type  2   force =     0.00065544   -0.00016136    0.00024928
     atom   19 type  1   force =    -0.00118329   -0.00005220    0.00023463
     atom   20 type  1   force =     0.00029448   -0.00036593   -0.00049859
     atom   21 type  2   force =     0.00004815    0.00000458    0.10311582
     atom   22 type  2   force =     0.00012370   -0.00027999    0.00006247
     atom   23 type  2   force =    -0.07162241   -0.00015301   -0.02765690
     atom   24 type  2   force =     0.07156210    0.00034627   -0.02771927
     atom   25 type  1   force =     0.00015634   -0.00023327    0.09586525
     atom   26 type  1   force =     0.00009934   -0.00040501   -0.17542933
     atom   27 type  2   force =     0.00017714   -0.00021554   -0.02291561
     atom   28 type  2   force =     0.00006484   -0.00101522    0.05217998
     atom   29 type  2   force =    -0.01086469    0.00048177    0.00243370
     atom   30 type  2   force =     0.01255794    0.00064283    0.00277995
     atom   31 type  1   force =     0.00087267    0.00348049   -0.01293165
     atom   32 type  1   force =     0.00002877   -0.00925434    0.02305692
     atom   33 type  2   force =    -0.00048370    0.00013724    0.00023147
     atom   34 type  2   force =    -0.00302529    0.00022909   -0.01289950
     atom   35 type  2   force =     0.00008972    0.00008885   -0.00008360
     atom   36 type  2   force =     0.00010180    0.00033315   -0.00039900
     atom   37 type  1   force =     0.00033617    0.00036689    0.00007608
     atom   38 type  1   force =     0.00002658   -0.00043661    0.00015183
     atom   39 type  2   force =     0.00015331    0.00044524    0.00055529
     atom   40 type  2   force =     0.00035539    0.00013379   -0.00039301
     atom   41 type  2   force =     0.00045113    0.00003086    0.00029469
     atom   42 type  2   force =     0.00091464    0.00002595    0.00050397
     atom   43 type  1   force =    -0.00157561   -0.00034328   -0.00029947
     atom   44 type  1   force =     0.00069141   -0.00028134   -0.00081249
     atom   45 type  2   force =     0.00005860   -0.00003854    0.10309508
     atom   46 type  2   force =    -0.07164543   -0.00007035   -0.02767346
     atom   47 type  2   force =     0.07158542    0.00032582   -0.02774087
     atom   48 type  3   force =    -0.00109894   -0.00057567   -0.00043314
     atom   49 type  4   force =    -0.00247696    0.00273618   -0.00061807
     atom   50 type  5   force =    -0.00086628    0.00054715    0.00063546
     atom   51 type  5   force =     0.00213940   -0.00381611    0.00070511
     atom   52 type  3   force =     0.00015419    0.00083452   -0.00159178
     atom   53 type  5   force =    -0.00012720   -0.00001937    0.00077644

     Total force =     0.365785     Total SCF correction =     0.000485
  @ DRIVER MODE: Message from server: STATUS
  @ DRIVER MODE: Message from server: GETFORCE
  @ DRIVER MODE: Returning v,forces,stress,ensemble

     Writing output data file ./calc.save/
  @ DRIVER MODE: Message from server: EXIT
  @ DRIVE MODE: Exiting

     General routines

     Parallel routines

   This run was terminated on:  23:17:34  23Aug2021

   JOB DONE.