     Program PWSCF v.6.7GPU starts on  2Aug2021 at 17: 2:39

     R & G space division:  proc/nbgrp/npool/nimage =      16
     Reading input from /storage/home/hcoda1/3/ntian30/research/carbon/02Aug_vib_paired/ads_slab/CH3N2_b/out_0015/pw.inp
Warning: card &CELL ignored
Warning: card   CELL_DYNAMICS='IPI', ignored
Warning: card / ignored

     Current dimensions of program PWSCF are:
     Max number of different atomic species (ntypx) = 10
     Max number of k-points (npk) =  40000
     Max angular momentum in pseudopotentials (lmaxx) =  3
     Presently no symmetry can be used with electric field

     Message from routine cell_base_init:
     DEPRECATED: use true lattice parameter, not A to a.u. conversion factor

     IMPORTANT: XC functional enforced from input :
     Exchange-correlation= BEEF-VDW
                           (   1   4  43  14   2   0   0)
     Any further DFT definition will be discarded
     Please, verify this is what you really want

  @ DRIVER MODE: Connecting to
 qe_1139763_2482536.sched-torque.pace.gatech.edu4xat0u76_scratch
  using UNIX socket
  @ DRIVER MODE: Message from server: STATUS
  @ DRIVER MODE: Message from server: INIT
  @ DRIVER MODE: Receiving replica           0          -1
  @ DRIVER MODE: Receiving encoded integer          25
  @ DRIVER MODE:  SCF:  T  FORCE:  T  STRESS:  F  VC:  F  ENSEMBLE:  F
  @ DRIVER MODE:  SCF:  T  FORCE:  T  STRESS:  F  VC:  F  ENSEMBLE:  F

     Using Slab Decomposition

     bravais-lattice index     =            0
     lattice parameter (alat)  =       1.8897  a.u.
     unit-cell volume          =    6658.9804 (a.u.)^3
     number of atoms/cell      =           53
     number of atomic types    =            5
     number of electrons       =       395.00
     number of Kohn-Sham states=          207
     kinetic-energy cutoff     =      29.3995  Ry
     charge density cutoff     =     293.9946  Ry
     scf convergence threshold =      7.3E-08
     mixing beta               =       0.0500
     number of iterations used =            8  plain     mixing
     Exchange-correlation= BEEF-VDW
                           (   1   4  43  14   2   0   0)

     celldm(1)=   1.889726  celldm(2)=   0.000000  celldm(3)=   0.000000
     celldm(4)=   0.000000  celldm(5)=   0.000000  celldm(6)=   0.000000

     crystal axes: (cart. coord. in units of alat)
               a(1) = (   6.579727   0.000000   0.000000 )
               a(2) = (  -0.000775   5.961596   0.000000 )
               a(3) = (   0.000000   0.000000  25.155947 )

     reciprocal axes: (cart. coord. in units 2 pi/alat)
               b(1) = (  0.151982  0.000020  0.000000 )
               b(2) = (  0.000000  0.167740  0.000000 )
               b(3) = (  0.000000  0.000000  0.039752 )

     PseudoPot. # 1 for Ti read from file:
     /storage/coda1/p-amedford6/0/shared/rich_project_chbe-medford/medford-share/data/pseudos_module/espresso/nninc/pbe/van/Ti.UPF
     MD5 check sum: 8e4df49b7f0d34bbd5052bf3f5ea0213
     Pseudo is Ultrasoft, Zval = 12.0
     Generated by new atomic code, or converted to UPF format
     Using radial grid of  851 points,  6 beta functions with:
                l(1) =   0
                l(2) =   0
                l(3) =   1
                l(4) =   1
                l(5) =   2
                l(6) =   2
     Q(r) pseudized with  8 coefficients,  rinner =    1.000   1.000   1.000
                                                       1.000   1.000

     PseudoPot. # 2 for O  read from file:
     /storage/coda1/p-amedford6/0/shared/rich_project_chbe-medford/medford-share/data/pseudos_module/espresso/nninc/pbe/van/O.UPF
     MD5 check sum: 78c19812648e8988a0fe644b0f25305e
     Pseudo is Ultrasoft, Zval =  6.0
     Generated by new atomic code, or converted to UPF format
     Using radial grid of  737 points,  4 beta functions with:
                l(1) =   0
                l(2) =   0
                l(3) =   1
                l(4) =   1
     Q(r) pseudized with  8 coefficients,  rinner =    0.800   0.800   0.800

     PseudoPot. # 3 for N  read from file:
     /storage/coda1/p-amedford6/0/shared/rich_project_chbe-medford/medford-share/data/pseudos_module/espresso/nninc/pbe/van/N.UPF
     MD5 check sum: 90d10febe142ad51ac9d5be1deb811c4
     Pseudo is Ultrasoft, Zval =  5.0
     Generated by new atomic code, or converted to UPF format
     Using radial grid of  729 points,  4 beta functions with:
                l(1) =   0
                l(2) =   0
                l(3) =   1
                l(4) =   1
     Q(r) pseudized with  8 coefficients,  rinner =    0.800   0.800   0.800

     PseudoPot. # 4 for C  read from file:
     /storage/coda1/p-amedford6/0/shared/rich_project_chbe-medford/medford-share/data/pseudos_module/espresso/nninc/pbe/van/C.UPF
     MD5 check sum: 1a69bf6b8db32088f5b2163dbdb77a27
     Pseudo is Ultrasoft, Zval =  4.0
     Generated by new atomic code, or converted to UPF format
     Using radial grid of  721 points,  4 beta functions with:
                l(1) =   0
                l(2) =   0
                l(3) =   1
                l(4) =   1
     Q(r) pseudized with  8 coefficients,  rinner =    0.800   0.800   0.800

     PseudoPot. # 5 for H  read from file:
     /storage/coda1/p-amedford6/0/shared/rich_project_chbe-medford/medford-share/data/pseudos_module/espresso/nninc/pbe/van/H.UPF
     MD5 check sum: b5ee9d7bfd3a09ee7748110bda690ff7
     Pseudo is Ultrasoft, Zval =  1.0
     Generated by new atomic code, or converted to UPF format
     Using radial grid of  615 points,  1 beta functions with:
                l(1) =   0
     Q(r) pseudized with  8 coefficients,  rinner =    0.800

     atomic species   valence    mass     pseudopotential
        Ti1           12.00    47.86700     Ti( 1.00)
        O1             6.00    15.99900     O ( 1.00)
        N1             5.00    14.00700     N ( 1.00)
        C1             4.00    12.01100     C ( 1.00)
        H1             1.00     1.00800     H ( 1.00)

     No symmetry found

   Cartesian axes

     site n.     atom                  positions (alat units)
         1           Ti1 tau(   1) = (   0.0004258   2.9801865   6.0000000  )
         2           Ti1 tau(   2) = (   3.2906075   1.4906267   6.0002472  )
         3           O1  tau(   3) = (   0.0006271   0.0005054   7.9858123  )
         4           O1  tau(   4) = (   3.2906025   0.0005020   7.3038282  )
         5           O1  tau(   5) = (   4.5942328   1.4918067   9.2879030  )
         6           O1  tau(   6) = (   1.9868534   1.4903216   9.2879459  )
         7           Ti1 tau(   7) = (   3.2907910   2.8959150   9.1758416  )
         8           Ti1 tau(   8) = (   0.0015273   1.4827037   9.2680791  )
         9           O1  tau(   9) = (   3.3037365   0.0094216  11.3222111  )
        10           O1  tau(  10) = (   0.0116148   5.9584955  10.6183126  )
        11           O1  tau(  11) = (   1.3152514   1.5075076  12.6320051  )
        12           O1  tau(  12) = (   5.3186361   1.4995162  12.6508707  )
        13           Ti1 tau(  13) = (   6.5540705   2.9956815  12.5884341  )
        14           Ti1 tau(  14) = (   3.2234832   1.4927074  12.4921739  )
        15           O1  tau(  15) = (   0.0610261   5.9052480  14.6017706  )
        16           O1  tau(  16) = (   3.2936532   0.0132264  13.8830087  )
        17           O1  tau(  17) = (   4.5722397   1.5061520  16.0138922  )
        18           O1  tau(  18) = (   2.0767725   1.5295127  16.0808449  )
        19           Ti1 tau(  19) = (   3.3650854   3.0251465  15.6907462  )
        20           Ti1 tau(  20) = (   0.0387768   1.3037779  15.7216176  )
        21           O1  tau(  21) = (   3.2904802   0.0005063   4.7018136  )
        22           O1  tau(  22) = (   0.0189486   0.1070799  17.1824039  )
        23           O1  tau(  23) = (   1.3043587   1.4918075   6.0039043  )
        24           O1  tau(  24) = (   5.2767064   1.4903225   6.0039473  )
        25           Ti1 tau(  25) = (   0.0000382   5.9609847   6.0000000  )
        26           Ti1 tau(  26) = (   3.2902200   4.4714249   6.0002472  )
        27           O1  tau(  27) = (   0.0002396   2.9813036   7.9858123  )
        28           O1  tau(  28) = (   3.2902150   2.9813002   7.3038282  )
        29           O1  tau(  29) = (   4.5938453   4.4726049   9.2879030  )
        30           O1  tau(  30) = (   1.9864658   4.4711199   9.2879459  )
        31           Ti1 tau(  31) = (   3.2891106   5.8743827   9.1763621  )
        32           Ti1 tau(  32) = (   0.0006254   4.4649316   9.2693709  )
        33           O1  tau(  33) = (   3.3043114   2.9829305  11.3227053  )
        34           O1  tau(  34) = (   0.0092240   2.9805883  10.6323155  )
        35           O1  tau(  35) = (   1.3131995   4.4620516  12.6081187  )
        36           O1  tau(  36) = (   5.3117129   4.4692194  12.6284301  )
        37           Ti1 tau(  37) = (   6.5303063   5.9583428  12.5400172  )
        38           Ti1 tau(  38) = (   3.2255477   4.4746212  12.4748647  )
        39           O1  tau(  39) = (   0.0377805   3.0059521  14.8845374  )
        40           O1  tau(  40) = (   3.3120027   2.9986483  13.8863452  )
        41           O1  tau(  41) = (   4.5434534   4.5277214  16.0148975  )
        42           O1  tau(  42) = (   2.1165747   4.4940517  16.0783766  )
        43           Ti1 tau(  43) = (   3.3042555   0.0241951  15.7004812  )
        44           Ti1 tau(  44) = (   0.0495666   4.4505358  16.3362958  )
        45           O1  tau(  45) = (   3.2900926   2.9813045   4.7018136  )
        46           O1  tau(  46) = (   1.3039711   4.4726057   6.0039043  )
        47           O1  tau(  47) = (   5.2763189   4.4711207   6.0039473  )
        48           N1  tau(  48) = (   0.5348212   3.4288502  18.0689430  )
        49           C1  tau(  49) = (   1.3556880   3.0079929  19.2215664  )
        50           H1  tau(  50) = (   1.4862090   3.8800195  19.8496782  )
        51           H1  tau(  51) = (   0.8469181   2.2141957  19.7647163  )
        52           H1  tau(  52) = (   2.3296892   2.6851793  18.8624704  )
        53           N1  tau(  53) = (   5.9145885   3.2636146  17.9655992  )

     number of k points=    10  Fermi-Dirac smearing, width (Ry)=  0.0073
                       cart. coord. in units 2pi/alat
        k(    1) = (   0.0000000   0.0000000   0.0000000), wk =   0.1250000
        k(    2) = (   0.0000000   0.0419351   0.0000000), wk =   0.2500000
        k(    3) = (   0.0000000  -0.0838702   0.0000000), wk =   0.1250000
        k(    4) = (   0.0379955   0.0000049   0.0000000), wk =   0.2500000
        k(    5) = (   0.0379955   0.0419400   0.0000000), wk =   0.2500000
        k(    6) = (   0.0379955  -0.0838652   0.0000000), wk =   0.2500000
        k(    7) = (   0.0379955  -0.0419301   0.0000000), wk =   0.2500000
        k(    8) = (  -0.0759910  -0.0000099   0.0000000), wk =   0.1250000
        k(    9) = (  -0.0759910   0.0419252   0.0000000), wk =   0.2500000
        k(   10) = (  -0.0759910  -0.0838800   0.0000000), wk =   0.1250000

     Initial potential from superposition of free atoms

     starting charge  378.99916, renormalised to  395.00000

     negative rho (up, down):  1.611E-02 0.000E+00

     %%%%%%%%%%%%%%%%%%%%%%%%%%%%%%%%%%%%%%%%%%%%%%%%%%%%%%%%%%%%%%%%%%%%%%%%
     %                                                                      %
     % You are using vdW-DF, which was implemented by the Thonhauser group. %
     % Please cite the following two papers that made this development      %
     % possible and the two reviews that describe the various versions:     %
     %                                                                      %
     %   T. Thonhauser et al., PRL 115, 136402 (2015).                      %
     %   T. Thonhauser et al., PRB 76, 125112 (2007).                       %
     %   K. Berland et al., Rep. Prog. Phys. 78, 066501 (2015).             %
     %   D.C. Langreth et al., J. Phys.: Condens. Matter 21, 084203 (2009). %
     %                                                                      %
     %                                                                      %
     % If you are calculating the stress with vdW-DF, please also cite:     %
     %                                                                      %
     %   R. Sabatini et al., J. Phys.: Condens. Matter 24, 424209 (2012).   %
     %                                                                      %
     %%%%%%%%%%%%%%%%%%%%%%%%%%%%%%%%%%%%%%%%%%%%%%%%%%%%%%%%%%%%%%%%%%%%%%%%

     Adding external electric field

     Computed dipole along edir(3) :
        Dipole               -8.5786 Ry au,        -21.8047 Debye
        Dipole field         -0.0162 Ry au,

        Potential amp.        1.5007 Ry
        Total length         46.3494 bohr

     Starting wfcs are  299 atomic wfcs
  @ DRIVER MODE: Message from server: STATUS
  @ DRIVER MODE: Message from server: POSDATA
  @ DRIVER MODE: Reading and sharing cell
  @ DRIVER MODE: Reading and sharing positions
  @ DRIVER MODE: Received positions

     Self-consistent Calculation

     iteration #  1     ecut=    29.40 Ry     beta= 0.05
     Davidson diagonalization with overlap
     c_bands:  1 eigenvalues not converged
     c_bands:  2 eigenvalues not converged
     c_bands:  1 eigenvalues not converged
     c_bands:  3 eigenvalues not converged
     c_bands:  1 eigenvalues not converged
     c_bands:  2 eigenvalues not converged
     c_bands:  2 eigenvalues not converged
     c_bands:  2 eigenvalues not converged
     ethr =  1.00E-05,  avg # of iterations = 19.2

[...]

     total energy              =   -2599.38767007 Ry
     estimated scf accuracy    <    3763.19473724 Ry

     iteration #  2     ecut=    29.40 Ry     beta= 0.05
     Davidson diagonalization with overlap
     ethr =  1.00E-02,  avg # of iterations = 22.7

[...]

     iteration # 59     ecut=    29.40 Ry     beta= 0.05
     Davidson diagonalization with overlap
     c_bands:  1 eigenvalues not converged
     ethr =  3.71E-10,  avg # of iterations = 12.4

[...]

     total energy              =   -2939.12534455 Ry
     estimated scf accuracy    <       0.00000043 Ry

     iteration # 65     ecut=    29.40 Ry     beta= 0.05
     Davidson diagonalization with overlap
     ethr =  1.09E-10,  avg # of iterations =  8.8

     negative rho (up, down):  1.619E-02 0.000E+00

     Adding external electric field

     Computed dipole along edir(3) :
        Dipole                0.9124 Ry au,          2.3191 Debye
        Dipole field          0.0017 Ry au,

        Potential amp.       -0.1596 Ry
        Total length         46.3494 bohr

     End of self-consistent calculation

          k = 0.0000 0.0000 0.0000 ( 18029 PWs)   bands (ev):

   -55.7756 -55.7696 -55.7415 -55.7336 -55.6835 -55.6350 -55.5962 -55.5622
   -55.5552 -55.5215 -55.5196 -55.4466 -54.9561 -54.8074 -54.7560 -54.7219
   -32.3185 -32.2595 -32.1746 -32.0956 -32.0678 -32.0561 -32.0471 -32.0209
   -32.0056 -31.9702 -31.9400 -31.9278 -31.9215 -31.9046 -31.8827 -31.8814
   -31.8786 -31.8781 -31.8651 -31.8351 -31.8327 -31.8215 -31.8004 -31.7916
   -31.7885 -31.7823 -31.7809 -31.7551 -31.7411 -31.7360 -31.7253 -31.7103
   -31.7064 -31.6690 -31.6363 -31.5640 -31.4925 -31.3380 -31.1673 -31.1629
   -31.1053 -31.0749 -31.0663 -31.0525 -30.9799 -30.9133 -30.8934 -30.7820
   -19.4391 -16.5169 -16.2521 -15.9668 -15.9150 -15.8408 -15.7474 -15.6244
   -15.5287 -15.4101 -15.3712 -15.3151 -15.3078 -15.2635 -15.2363 -15.2323
   -15.2061 -15.1979 -15.1339 -15.1263 -15.0759 -15.0642 -15.0160 -14.9813
   -14.9696 -14.9145 -14.8457 -14.8045 -14.6855 -14.1598 -13.2573 -13.1408
   -12.3172  -7.2753  -4.9381  -4.7924  -3.8992  -3.7568  -3.7042  -3.6848
    -3.6403  -3.4398  -3.3523  -3.2837  -3.0439  -2.9524  -2.9279  -2.9173
    -2.8681  -2.7111  -2.6709  -2.6040  -2.5886  -2.5620  -2.5402  -2.5320
    -2.4968  -2.4864  -2.4606  -2.4294  -2.3263  -2.2127  -2.1835  -2.1058
    -2.0902  -2.0750  -2.0443  -2.0344  -2.0247  -2.0150  -1.9968  -1.9590
    -1.8948  -1.8518  -1.7865  -1.7021  -1.5608  -1.5393  -1.4605  -1.3851
    -1.3051  -1.2625  -1.2406  -1.2123  -1.1725  -1.0928  -1.0668  -0.9207
    -0.8237  -0.7906  -0.7735  -0.7310  -0.6950  -0.5928  -0.5710  -0.5420
    -0.5329  -0.5052  -0.4315  -0.3751  -0.2431  -0.2123  -0.2085  -0.1708
    -0.1000  -0.0463   0.0072   0.0564   0.0643   0.1000   0.1601   0.1853
     0.1901   0.2329   0.2752   0.3500   0.3762   0.4504   0.4544   0.5185
     0.5622   0.6440   0.7516   0.8736   1.0170   1.1541   1.1985   1.2675
     1.3631   1.4593   1.8377   1.8833   2.1432   3.3378   3.4451   3.4684
     3.4807   3.5874   3.7960   3.8185   3.8676   3.8878   3.8961

[...]

          k = 0.0380-0.0419 0.0000 ( 17876 PWs)   bands (ev):

[...]

          k =-0.0760-0.0000 0.0000 ( 17886 PWs)   bands (ev):

[...]

          k =-0.0760-0.0839 0.0000 ( 17948 PWs)   bands (ev):

   -55.7585 -55.7584 -55.7523 -55.7507 -55.6763 -55.6422 -55.5792 -55.5788
   -55.5386 -55.5382 -55.5152 -55.4509 -54.9548 -54.8085 -54.7389 -54.7389
   -32.1221 -32.1185 -32.0748 -32.0748 -32.0533 -32.0532 -32.0197 -32.0047
   -31.9984 -31.9897 -31.9209 -31.9157 -31.9048 -31.8984 -31.8819 -31.8798
   -31.8792 -31.8777 -31.8774 -31.8723 -31.8539 -31.8513 -31.8500 -31.8137
   -31.7843 -31.7823 -31.7806 -31.7680 -31.7678 -31.7585 -31.7576 -31.7557
   -31.7545 -31.7365 -31.7119 -31.6610 -31.4396 -31.3203 -31.1692 -31.1590
   -31.0837 -31.0652 -31.0652 -30.9757 -30.9756 -30.9367 -30.9367 -30.9163
   -19.4369 -15.9174 -15.9112 -15.7498 -15.7153 -15.6496 -15.6408 -15.5730
   -15.5059 -15.4613 -15.4562 -15.3411 -15.3389 -15.3244 -15.3027 -15.2486
   -15.2323 -15.2311 -15.2275 -15.2197 -15.2080 -15.1805 -15.1498 -15.0993
   -15.0942 -15.0735 -15.0629 -14.9417 -14.5317 -14.4701 -13.2427 -13.2425
   -12.3197  -7.2623  -4.9399  -4.7900  -3.6289  -3.2067  -3.1903  -3.0024
    -2.9190  -2.9079  -2.8925  -2.7411  -2.7288  -2.7110  -2.6536  -2.6490
    -2.6370  -2.6002  -2.5841  -2.5601  -2.5198  -2.5145  -2.4668  -2.4646
    -2.4488  -2.4373  -2.4084  -2.4033  -2.3893  -2.3748  -2.3370  -2.2810
    -2.2424  -2.2153  -2.1871  -2.0908  -2.0297  -1.9939  -1.9268  -1.9182
    -1.8673  -1.8426  -1.8281  -1.7615  -1.6912  -1.6618  -1.5776  -1.4860
    -1.4676  -1.4523  -1.3335  -1.3196  -1.2449  -1.2211  -1.1372  -1.1202
    -1.0805  -0.9699  -0.9465  -0.9152  -0.8805  -0.8367  -0.7730  -0.7362
    -0.7342  -0.6856  -0.6414  -0.5852  -0.5239  -0.5120  -0.4967  -0.4880
    -0.4245  -0.3907  -0.3688  -0.2864  -0.2713  -0.1896  -0.0457  -0.0129
     0.1446   0.1937   0.3027   0.3301   0.4210   0.4427   0.5367   0.5399
     0.5729   0.7018   0.7207   0.7383   0.7544   0.7742   0.7982   0.9372
     1.6318   1.6319   1.7034   1.7034   2.0809   3.6708   3.7078   3.7581
     3.7799   3.8840   3.8890   3.8917   3.8994   4.0209   4.0219

     the Fermi energy is     3.3514 ev

!    total energy              =   -2939.12536993 Ry
     estimated scf accuracy    <       0.00000006 Ry
     smearing contrib. (-TS)   =      -0.02052611 Ry
     internal energy E=F+TS    =   -2939.10484382 Ry

     The total energy is F=E-TS. E is the sum of the following terms:
     one-electron contribution =  -24213.43064363 Ry
     hartree contribution      =   12195.45544686 Ry
     xc contribution           =    -485.20483808 Ry
     ewald contribution        =    9564.07362003 Ry
     electric field correction =       0.00157100 Ry

     convergence has been achieved in  65 iterations

     Forces acting on atoms (cartesian axes, Ry/au):

     atom    1 type  1   force =     0.00010662   -0.00019868    0.09587181
     atom    2 type  1   force =     0.00005987   -0.00061254   -0.17549103
     atom    3 type  2   force =     0.00017505   -0.00019433   -0.02304991
     atom    4 type  2   force =     0.00004030   -0.00128510    0.05263943
     atom    5 type  2   force =    -0.00977879   -0.00031393    0.00254427
     atom    6 type  2   force =     0.01166356    0.00022647    0.00292375
     atom    7 type  1   force =     0.00088574    0.00001361   -0.00989677
     atom    8 type  1   force =    -0.00000381    0.00532832    0.01819376
     atom    9 type  2   force =    -0.00001639   -0.00029144   -0.00009823
     atom   10 type  2   force =    -0.00253736    0.00216375   -0.01348711
     atom   11 type  2   force =    -0.00097117    0.00010705    0.00016623
     atom   12 type  2   force =     0.00038938   -0.00025732    0.00048278
     atom   13 type  1   force =     0.00011104   -0.00008357    0.00050884
     atom   14 type  1   force =    -0.00004596   -0.00016783   -0.00016560
     atom   15 type  2   force =    -0.00059420    0.00022986    0.00042871
     atom   16 type  2   force =    -0.00043493    0.00007635    0.00019100
     atom   17 type  2   force =    -0.00014490   -0.00008510   -0.00032202
     atom   18 type  2   force =     0.00028314    0.00022295    0.00006334
     atom   19 type  1   force =    -0.00061614   -0.00058271    0.00067681
     atom   20 type  1   force =    -0.00026463    0.00037078   -0.00075057
     atom   21 type  2   force =     0.00007326   -0.00006203    0.10321000
     atom   22 type  2   force =     0.00007926   -0.00006880   -0.00042872
     atom   23 type  2   force =    -0.07156277   -0.00019024   -0.02753387
     atom   24 type  2   force =     0.07153921    0.00031079   -0.02759299
     atom   25 type  1   force =     0.00013653   -0.00029022    0.09519535
     atom   26 type  1   force =     0.00009519   -0.00047111   -0.17563441
     atom   27 type  2   force =     0.00015782   -0.00011925   -0.02179438
     atom   28 type  2   force =     0.00008183   -0.00106240    0.05251177
     atom   29 type  2   force =    -0.01015827    0.00023502    0.00292090
     atom   30 type  2   force =     0.01197612    0.00052134    0.00329731
     atom   31 type  1   force =     0.00089000    0.00415716   -0.01176861
     atom   32 type  1   force =     0.00011815   -0.00634452    0.01832369
     atom   33 type  2   force =     0.00016345    0.00042001   -0.00009862
     atom   34 type  2   force =    -0.00308552   -0.00010133   -0.00867348
     atom   35 type  2   force =    -0.00020606    0.00006865    0.00000456
     atom   36 type  2   force =    -0.00003505    0.00028322   -0.00006859
     atom   37 type  1   force =     0.00045624   -0.00094153    0.00019433
     atom   38 type  1   force =    -0.00032816    0.00008366    0.00032325
     atom   39 type  2   force =     0.00011242   -0.00026138    0.00053243
     atom   40 type  2   force =    -0.00008393    0.00026792    0.00015875
     atom   41 type  2   force =     0.00004629   -0.00014840   -0.00018071
     atom   42 type  2   force =    -0.00046381    0.00013446   -0.00041122
     atom   43 type  1   force =     0.00022557    0.00050747    0.00006477
     atom   44 type  1   force =    -0.00015399   -0.00083168   -0.00098537
     atom   45 type  2   force =     0.00008000   -0.00006226    0.10316040
     atom   46 type  2   force =    -0.07157602   -0.00009866   -0.02752496
     atom   47 type  2   force =     0.07156218    0.00025280   -0.02759176
     atom   48 type  3   force =     0.00058391   -0.00029080    0.00092312
     atom   49 type  4   force =    -0.00061223   -0.00822976   -0.00528789
     atom   50 type  5   force =     0.00131220    0.00914480    0.00504630
     atom   51 type  5   force =    -0.00084805   -0.00083680   -0.00059487
     atom   52 type  5   force =     0.00015162   -0.00108723   -0.00080514
     atom   53 type  3   force =     0.00096622    0.00044455   -0.00032087

     Total force =     0.365044     Total SCF correction =     0.000726
  @ DRIVER MODE: Message from server: STATUS
  @ DRIVER MODE: Message from server: GETFORCE
  @ DRIVER MODE: Returning v,forces,stress,ensemble

     Writing output data file ./calc.save/
  @ DRIVER MODE: Message from server: EXIT
  @ DRIVE MODE: Exiting

     General routines

     Parallel routines

   This run was terminated on:  17:20:26   2Aug2021

   JOB DONE.