     Program PWSCF v.6.8 starts on 30Aug2021 at 14:39:25

     R & G space division:  proc/nbgrp/npool/nimage =      24

     Reading input from /storage/home/hcoda1/3/ntian30/research/carbon/methanol/ads_slab/CH3OHN2_X/methanol.log/pw.inp
Warning: card &CELL ignored
Warning: card   CELL_DYNAMICS='IPI', ignored
Warning: card / ignored

     Current dimensions of program PWSCF are:
     Max number of different atomic species (ntypx) = 10
     Max number of k-points (npk) =  40000
     Max angular momentum in pseudopotentials (lmaxx) =  4
     Presently no symmetry can be used with electric field

     Message from routine cell_base_init:
     DEPRECATED: use true lattice parameter, not A to a.u. conversion factor

     IMPORTANT: XC functional enforced from input :
     Exchange-correlation= BEEF-VDW
                           (   1   4  43  14   2   0   0)
     Any further DFT definition will be discarded
     Please, verify this is what you really want

  @ DRIVER MODE: Connecting to
 qe_1139763_2685208.sched-torque.pace.gatech.eduvkz5ahdk_scratch
  using UNIX socket
  @ DRIVER MODE: Message from server: STATUS
  @ DRIVER MODE: Message from server: INIT
  @ DRIVER MODE: Receiving replica           0          -1
  @ DRIVER MODE: Receiving encoded integer          25
  @ DRIVER MODE:  SCF:  T  FORCE:  T  STRESS:  F  VC:  F  ENSEMBLE:  F
  @ DRIVER MODE:  SCF:  T  FORCE:  T  STRESS:  F  VC:  F  ENSEMBLE:  F

     Using Slab Decomposition

     bravais-lattice index     =            0
     lattice parameter (alat)  =       1.8897  a.u.
     unit-cell volume          =    6658.9804 (a.u.)^3
     number of atoms/cell      =           55
     number of atomic types    =            5
     number of electrons       =       402.00
     number of Kohn-Sham states=          211
     kinetic-energy cutoff     =      29.3995  Ry
     charge density cutoff     =     293.9946  Ry
     scf convergence threshold =      7.3E-08
     mixing beta               =       0.0500
     number of iterations used =            8  plain     mixing
     Exchange-correlation= BEEF-VDW
                           (   1   4  43  14   2   0   0)

     celldm(1)=   1.889726  celldm(2)=   0.000000  celldm(3)=   0.000000
     celldm(4)=   0.000000  celldm(5)=   0.000000  celldm(6)=   0.000000

     crystal axes: (cart. coord. in units of alat)
               a(1) = (   6.579727   0.000000   0.000000 )
               a(2) = (  -0.000775   5.961596   0.000000 )
               a(3) = (   0.000000   0.000000  25.155947 )

     reciprocal axes: (cart. coord. in units 2 pi/alat)
               b(1) = (  0.151982  0.000020  0.000000 )
               b(2) = (  0.000000  0.167740  0.000000 )
               b(3) = (  0.000000  0.000000  0.039752 )

     PseudoPot. # 1 for Ti read from file:
     /storage/coda1/p-amedford6/0/shared/rich_project_chbe-medford/medford-share/data/pseudos_module/espresso/nninc/pbe/van/Ti.UPF
     MD5 check sum: 8e4df49b7f0d34bbd5052bf3f5ea0213
     Pseudo is Ultrasoft, Zval = 12.0
     Generated by new atomic code, or converted to UPF format
     Using radial grid of  851 points,  6 beta functions with:
                l(1) =   0
                l(2) =   0
                l(3) =   1
                l(4) =   1
                l(5) =   2
                l(6) =   2
     Q(r) pseudized with  8 coefficients,  rinner =    1.000   1.000   1.000
                                                       1.000   1.000

     PseudoPot. # 2 for O  read from file:
     /storage/coda1/p-amedford6/0/shared/rich_project_chbe-medford/medford-share/data/pseudos_module/espresso/nninc/pbe/van/O.UPF
     MD5 check sum: 78c19812648e8988a0fe644b0f25305e
     Pseudo is Ultrasoft, Zval =  6.0
     Generated by new atomic code, or converted to UPF format
     Using radial grid of  737 points,  4 beta functions with:
                l(1) =   0
                l(2) =   0
                l(3) =   1
                l(4) =   1
     Q(r) pseudized with  8 coefficients,  rinner =    0.800   0.800   0.800

     PseudoPot. # 3 for C  read from file:
     /storage/coda1/p-amedford6/0/shared/rich_project_chbe-medford/medford-share/data/pseudos_module/espresso/nninc/pbe/van/C.UPF
     MD5 check sum: 1a69bf6b8db32088f5b2163dbdb77a27
     Pseudo is Ultrasoft, Zval =  4.0
     Generated by new atomic code, or converted to UPF format
     Using radial grid of  721 points,  4 beta functions with:
                l(1) =   0
                l(2) =   0
                l(3) =   1
                l(4) =   1
     Q(r) pseudized with  8 coefficients,  rinner =    0.800   0.800   0.800

     PseudoPot. # 4 for H  read from file:
     /storage/coda1/p-amedford6/0/shared/rich_project_chbe-medford/medford-share/data/pseudos_module/espresso/nninc/pbe/van/H.UPF
     MD5 check sum: b5ee9d7bfd3a09ee7748110bda690ff7
     Pseudo is Ultrasoft, Zval =  1.0
     Generated by new atomic code, or converted to UPF format
     Using radial grid of  615 points,  1 beta functions with:
                l(1) =   0
     Q(r) pseudized with  8 coefficients,  rinner =    0.800

     PseudoPot. # 5 for N  read from file:
     /storage/coda1/p-amedford6/0/shared/rich_project_chbe-medford/medford-share/data/pseudos_module/espresso/nninc/pbe/van/N.UPF
     MD5 check sum: 90d10febe142ad51ac9d5be1deb811c4
     Pseudo is Ultrasoft, Zval =  5.0
     Generated by new atomic code, or converted to UPF format
     Using radial grid of  729 points,  4 beta functions with:
                l(1) =   0
                l(2) =   0
                l(3) =   1
                l(4) =   1
     Q(r) pseudized with  8 coefficients,  rinner =    0.800   0.800   0.800

     atomic species   valence    mass     pseudopotential
        Ti1           12.00    47.86700     Ti( 1.00)
        O1             6.00    15.99900     O ( 1.00)
        C1             4.00    12.01100     C ( 1.00)
        H1             1.00     1.00800     H ( 1.00)
        N1             5.00    14.00700     N ( 1.00)

     No symmetry found

   Cartesian axes

     site n.     atom                  positions (alat units)
         1           Ti1 tau(   1) = (   0.0004258   2.9801865   6.0000000  )
         2           Ti1 tau(   2) = (   3.2906075   1.4906267   6.0002472  )
         3           O1  tau(   3) = (   0.0006271   0.0005054   7.9858123  )
         4           O1  tau(   4) = (   3.2906025   0.0005020   7.3038282  )
         5           O1  tau(   5) = (   4.5942328   1.4918067   9.2879030  )
         6           O1  tau(   6) = (   1.9868534   1.4903216   9.2879459  )
         7           Ti1 tau(   7) = (   3.2744623   2.9602655   9.1583134  )
         8           Ti1 tau(   8) = (   6.5542510   1.4922676   9.2570483  )
         9           O1  tau(   9) = (   3.2955284   5.9542973  11.4036420  )
        10           O1  tau(  10) = (   0.0040843   5.9600894  10.6146631  )
        11           O1  tau(  11) = (   1.2923168   1.4866075  12.6848844  )
        12           O1  tau(  12) = (   5.3038965   1.4828099  12.6812989  )
        13           Ti1 tau(  13) = (   0.0117136   2.9668076  12.4887022  )
        14           Ti1 tau(  14) = (   3.3103317   1.4900331  12.5484786  )
        15           O1  tau(  15) = (   0.0164078   5.9216632  14.6920981  )
        16           O1  tau(  16) = (   3.2973989   5.9227913  14.0283617  )
        17           O1  tau(  17) = (   4.5490025   1.4631175  16.1705536  )
        18           O1  tau(  18) = (   2.0221940   1.4775419  16.1816751  )
        19           Ti1 tau(  19) = (   3.3107067   2.9474167  15.8028204  )
        20           Ti1 tau(  20) = (   0.0288186   1.3352231  15.9134295  )
        21           O1  tau(  21) = (   3.2904802   0.0005063   4.7018136  )
        22           O1  tau(  22) = (   6.5554730   0.0200307  17.2351763  )
        23           O1  tau(  23) = (   1.3043587   1.4918075   6.0039043  )
        24           O1  tau(  24) = (   5.2767064   1.4903225   6.0039473  )
        25           Ti1 tau(  25) = (   0.0000382   5.9609847   6.0000000  )
        26           Ti1 tau(  26) = (   3.2902200   4.4714249   6.0002472  )
        27           O1  tau(  27) = (   0.0002396   2.9813036   7.9858123  )
        28           O1  tau(  28) = (   3.2902150   2.9813002   7.3038282  )
        29           O1  tau(  29) = (   4.5938453   4.4726049   9.2879030  )
        30           O1  tau(  30) = (   1.9864658   4.4711199   9.2879459  )
        31           Ti1 tau(  31) = (   3.2682264   5.9422464   9.1569598  )
        32           Ti1 tau(  32) = (   6.5541751   4.4759067   9.2560502  )
        33           O1  tau(  33) = (   3.2986683   2.9663741  11.3977683  )
        34           O1  tau(  34) = (   0.0027399   2.9767344  10.6286243  )
        35           O1  tau(  35) = (   1.2926322   4.4497803  12.6725015  )
        36           O1  tau(  36) = (   5.3040462   4.4546620  12.6695683  )
        37           Ti1 tau(  37) = (   0.0191269   5.9426524  12.4841101  )
        38           Ti1 tau(  38) = (   3.3102059   4.4680493  12.5484152  )
        39           O1  tau(  39) = (   6.5547541   2.9789036  15.0188947  )
        40           O1  tau(  40) = (   3.3032946   2.9599518  14.0075836  )
        41           O1  tau(  41) = (   4.5496375   4.4348250  16.2219016  )
        42           O1  tau(  42) = (   2.0136599   4.4266630  16.2156650  )
        43           Ti1 tau(  43) = (   3.2958723   5.9268682  15.8311464  )
        44           Ti1 tau(  44) = (   0.0197688   4.5989514  15.9884716  )
        45           O1  tau(  45) = (   3.2900926   2.9813045   4.7018136  )
        46           O1  tau(  46) = (   1.3039711   4.4726057   6.0039043  )
        47           O1  tau(  47) = (   5.2763189   4.4711207   6.0039473  )
        48           C1  tau(  48) = (   6.2714212   2.8475035  19.1912783  )
        49           O1  tau(  49) = (   5.0447882   2.1494744  19.3187249  )
        50           H1  tau(  50) = (   6.1333351   3.8426015  19.6073941  )
        51           H1  tau(  51) = (   5.1769490   1.2529602  18.9724433  )
        52           H1  tau(  52) = (   0.5217872   2.3444334  19.6948963  )
        53           H1  tau(  53) = (   6.5688534   2.9768334  18.1312760  )
        54           N1  tau(  54) = (   2.0136599   4.4266630  18.7156650  )
        55           N1  tau(  55) = (   2.0136599   4.4266630  17.5856850  )

     number of k points=    10  Fermi-Dirac smearing, width (Ry)=  0.0073
                       cart. coord. in units 2pi/alat
        k(    1) = (   0.0000000   0.0000000   0.0000000), wk =   0.1250000
        k(    2) = (   0.0000000   0.0419351   0.0000000), wk =   0.2500000
        k(    3) = (   0.0000000  -0.0838702   0.0000000), wk =   0.1250000
        k(    4) = (   0.0379955   0.0000049   0.0000000), wk =   0.2500000
        k(    5) = (   0.0379955   0.0419400   0.0000000), wk =   0.2500000
        k(    6) = (   0.0379955  -0.0838652   0.0000000), wk =   0.2500000
        k(    7) = (   0.0379955  -0.0419301   0.0000000), wk =   0.2500000
        k(    8) = (  -0.0759910  -0.0000099   0.0000000), wk =   0.1250000
        k(    9) = (  -0.0759910   0.0419252   0.0000000), wk =   0.2500000
[...]
        43           Ti1 tau(  43) = (   3.3224843   0.0591339  15.7609357  )
        44           Ti1 tau(  44) = (   0.0455525   4.6588011  15.8474796  )
        45           O1  tau(  45) = (   3.2900926   2.9813045   4.7018136  )
        46           O1  tau(  46) = (   1.3039711   4.4726057   6.0039043  )
        47           O1  tau(  47) = (   5.2763189   4.4711207   6.0039473  )
        48           C1  tau(  48) = (   6.0106167   2.6980947  19.2203637  )
        49           O1  tau(  49) = (   4.8256134   1.9312923  19.3988217  )
        50           H1  tau(  50) = (   5.8344282   3.6826278  19.6515472  )
        51           H1  tau(  51) = (   4.9868802   1.0519765  19.0347775  )
        52           H1  tau(  52) = (   0.3046886   2.2388711  19.6920640  )
        53           H1  tau(  53) = (   6.2425199   2.8475129  18.1567609  )
        54           N1  tau(  54) = (   2.8245258   4.7247980  19.8030044  )
        55           N1  tau(  55) = (   2.2345836   4.0707821  19.1401676  )

     number of k points=    10  Fermi-Dirac smearing, width (Ry)=  0.0073
                       cart. coord. in units 2pi/alat
        k(    1) = (   0.0000000   0.0000000   0.0000000), wk =   0.1250000
        k(    2) = (   0.0000000   0.0419351   0.0000000), wk =   0.2500000
        k(    3) = (   0.0000000  -0.0838702   0.0000000), wk =   0.1250000
        k(    4) = (   0.0379955   0.0000049   0.0000000), wk =   0.2500000
        k(    5) = (   0.0379955   0.0419400   0.0000000), wk =   0.2500000
        k(    6) = (   0.0379955  -0.0838652   0.0000000), wk =   0.2500000
        k(    7) = (   0.0379955  -0.0419301   0.0000000), wk =   0.2500000
        k(    8) = (  -0.0759910  -0.0000099   0.0000000), wk =   0.1250000
        k(    9) = (  -0.0759910   0.0419252   0.0000000), wk =   0.2500000
        k(   10) = (  -0.0759910  -0.0838800   0.0000000), wk =   0.1250000

     Initial potential from superposition of free atoms

     starting charge  385.99915, renormalised to  402.00000

[...]

     %%%%%%%%%%%%%%%%%%%%%%%%%%%%%%%%%%%%%%%%%%%%%%%%%%%%%%%%%%%%%%%%%%%%%%%%
     %                                                                      %
     % You are using vdW-DF, which was implemented by the Thonhauser group. %
     % Please cite the following two papers that made this development      %
     % possible and the two reviews that describe the various versions:     %
     %                                                                      %
     %   T. Thonhauser et al., PRL 115, 136402 (2015).                      %
     %   T. Thonhauser et al., PRB 76, 125112 (2007).                       %
     %   K. Berland et al., Rep. Prog. Phys. 78, 066501 (2015).             %
     %   D.C. Langreth et al., J. Phys.: Condens. Matter 21, 084203 (2009). %
     %                                                                      %
     %                                                                      %
     % If you are calculating the stress with vdW-DF, please also cite:     %
     %                                                                      %
     %   R. Sabatini et al., J. Phys.: Condens. Matter 24, 424209 (2012).   %
     %                                                                      %
     %%%%%%%%%%%%%%%%%%%%%%%%%%%%%%%%%%%%%%%%%%%%%%%%%%%%%%%%%%%%%%%%%%%%%%%%

[...]

     Starting wfcs are  304 atomic wfcs
  @ DRIVER MODE: Message from server: STATUS
  @ DRIVER MODE: Message from server: POSDATA
  @ DRIVER MODE: Reading and sharing cell
  @ DRIVER MODE: Reading and sharing positions
  @ DRIVER MODE: Received positions

[...]

     Self-consistent Calculation

[...]

     iteration # 18     ecut=    29.40 Ry     beta= 0.05
     Davidson diagonalization with overlap
     c_bands:  1 eigenvalues not converged
     ethr =  7.43E-11,  avg # of iterations = 16.4

[...]

     total energy              =   -2972.78536876 Ry
     estimated scf accuracy    <       0.00000025 Ry

     iteration # 20     ecut=    29.40 Ry     beta= 0.05
     Davidson diagonalization with overlap
     ethr =  6.11E-11,  avg # of iterations = 11.9

[...]

     End of self-consistent calculation

[...]

          k = 0.0380-0.0419 0.0000 ( 17876 PWs)   bands (ev):

[...]

          k =-0.0760-0.0839 0.0000 ( 17948 PWs)   bands (ev):

   -55.7401 -55.7400 -55.6892 -55.6891 -55.6313 -55.6132 -55.6015 -55.5895
   -55.5868 -55.5814 -55.5676 -55.5165 -55.5146 -55.5135 -54.8047 -54.8046
   -32.1885 -32.1235 -32.1226 -32.0235 -32.0233 -32.0228 -32.0109 -31.9822
   -31.9809 -31.9574 -31.9513 -31.9494 -31.9472 -31.9060 -31.9031 -31.9022
   -31.8992 -31.8966 -31.8799 -31.8722 -31.8699 -31.8686 -31.8601 -31.8501
   -31.8465 -31.8331 -31.8295 -31.8282 -31.8073 -31.8073 -31.8070 -31.7940
   -31.7855 -31.7826 -31.7612 -31.7535 -31.7505 -31.7492 -31.7221 -31.6991
   -31.6982 -31.6958 -31.1210 -31.1210 -31.0475 -31.0474 -31.0076 -31.0075
   -20.8415 -18.2349 -16.2691 -15.9275 -15.9115 -15.8170 -15.8037 -15.7042
   -15.6976 -15.5999 -15.5528 -15.5401 -15.5363 -15.4931 -15.4611 -15.4531
   -15.4419 -15.3804 -15.3622 -15.3334 -15.3279 -15.2813 -15.2771 -15.2737
   -15.2717 -15.2414 -15.2358 -15.1988 -15.1968 -15.0952 -14.9244 -13.3040
   -13.3038  -9.6748  -6.0442  -5.2903  -4.0196  -4.0033  -3.5964  -3.2876
    -3.1949  -3.1666  -3.1123  -3.0387  -2.9450  -2.9241  -2.8810  -2.8676
    -2.7950  -2.7628  -2.7466  -2.7375  -2.6732  -2.6650  -2.6507  -2.6478
    -2.5885  -2.5668  -2.5468  -2.5297  -2.5053  -2.4736  -2.4697  -2.4573
    -2.4283  -2.4202  -2.4084  -2.3979  -2.3707  -2.3476  -2.3214  -2.2951
    -2.1547  -2.1447  -2.0435  -2.0014  -1.9958  -1.9098  -1.9031  -1.8655
    -1.8325  -1.7877  -1.7430  -1.5765  -1.5633  -1.5612  -1.4991  -1.4175
    -1.3960  -1.3282  -1.3148  -1.2812  -1.2003  -1.0944  -1.0671  -1.0454
    -0.9676  -0.9518  -0.8837  -0.8087  -0.7727  -0.7583  -0.7518  -0.7486
    -0.7249  -0.7132  -0.7062  -0.5951  -0.5512  -0.5092  -0.5011  -0.4743
    -0.2821  -0.2220  -0.2090  -0.0989  -0.0475   0.1372   0.1442   0.1627
     0.2976   0.3072   0.3214   0.3573   0.4827   0.4986   0.5565   0.6057
     0.6071   0.6520   0.6551   0.9299   1.5524   1.5532   1.6616   1.6625
     3.5139   3.5855   3.6071   3.6439   3.7911   3.7934   3.8429   3.8863
     3.8969   3.9048   3.9715

     the Fermi energy is     3.4060 ev

!    total energy              =   -2972.78536804 Ry
     estimated scf accuracy    <       0.00000006 Ry
     smearing contrib. (-TS)   =      -0.03671236 Ry
     internal energy E=F+TS    =   -2972.74865569 Ry

     The total energy is F=E-TS. E is the sum of the following terms:
     one-electron contribution =  -22536.61170209 Ry
     hartree contribution      =   11359.68056693 Ry
     xc contribution           =    -493.17224977 Ry
     ewald contribution        =    8697.35422607 Ry
     electric field correction =       0.00050317 Ry

     convergence has been achieved in  20 iterations

     Forces acting on atoms (cartesian axes, Ry/au):

     atom    1 type  1   force =     0.00028802   -0.00002910    0.09022074
     atom    2 type  1   force =     0.00008567    0.00007690   -0.18459290
     atom    3 type  2   force =    -0.00027192   -0.00028181   -0.02303576
     atom    4 type  2   force =    -0.00079586    0.00001662    0.05332524
     atom    5 type  2   force =    -0.01392374   -0.00044907    0.00645575
     atom    6 type  2   force =     0.01352522    0.00037501    0.00626115
     atom    7 type  1   force =     0.00129714   -0.00051460    0.00068924
     atom    8 type  1   force =    -0.00091027    0.00025910    0.00082347
     atom    9 type  2   force =     0.00011538    0.00020546   -0.00092160
     atom   10 type  2   force =    -0.00031650    0.00007053   -0.00074590
     atom   11 type  2   force =     0.00030302   -0.00026447   -0.00028540
     atom   12 type  2   force =    -0.00079540   -0.00006908    0.00026381
     atom   13 type  1   force =     0.00018942   -0.00001813    0.00022532
     atom   14 type  1   force =    -0.00032034    0.00109507    0.00003265
     atom   15 type  2   force =    -0.00062155    0.00063081    0.00047350
     atom   16 type  2   force =     0.00006660    0.00003083   -0.00018188
     atom   17 type  2   force =    -0.00060419   -0.00033006   -0.00034507
     atom   18 type  2   force =     0.00110293   -0.00024579   -0.00055555
     atom   19 type  1   force =    -0.00004737    0.00015556   -0.00045197
     atom   20 type  1   force =    -0.00057334   -0.00000600   -0.00029886
     atom   21 type  2   force =     0.00006831    0.00007195    0.10530420
     atom   22 type  2   force =     0.00048323    0.00004302   -0.00003320
     atom   23 type  2   force =    -0.06744954   -0.00035944   -0.02598793
     atom   24 type  2   force =     0.06740643    0.00012430   -0.02598144
     atom   25 type  1   force =     0.00037797   -0.00000445    0.08850121
     atom   26 type  1   force =     0.00006585   -0.00014635   -0.18467659
     atom   27 type  2   force =    -0.00018951   -0.00014185   -0.02203165
     atom   28 type  2   force =    -0.00071719    0.00007733    0.05282683
     atom   29 type  2   force =    -0.01394689   -0.00010329    0.00648814
     atom   30 type  2   force =     0.01346658    0.00022072    0.00629110
     atom   31 type  1   force =     0.00127939    0.00045257   -0.00013017
     atom   32 type  1   force =    -0.00091258    0.00014219    0.00084150
     atom   33 type  2   force =     0.00013145   -0.00036219    0.00028251
     atom   34 type  2   force =    -0.00008667   -0.00009206   -0.00070782
     atom   35 type  2   force =    -0.00011682    0.00027473   -0.00012956
     atom   36 type  2   force =    -0.00043927   -0.00000200   -0.00018982
     atom   37 type  1   force =     0.00050781   -0.00010829   -0.00029526
     atom   38 type  1   force =    -0.00020247   -0.00081924   -0.00037018
     atom   39 type  2   force =    -0.00005903    0.00047435   -0.00040339
     atom   40 type  2   force =    -0.00040156   -0.00003496   -0.00066997
     atom   41 type  2   force =     0.00016746   -0.00008484    0.00016625
     atom   42 type  2   force =     0.00039870   -0.00007366   -0.00011558
     atom   43 type  1   force =     0.00035704   -0.00039720   -0.00079852
     atom   44 type  1   force =    -0.00051660   -0.00093369    0.00011730
     atom   45 type  2   force =     0.00007978    0.00005683    0.10528499
     atom   46 type  2   force =    -0.06744893   -0.00013976   -0.02599013
     atom   47 type  2   force =     0.06740098    0.00025281   -0.02597579
     atom   48 type  3   force =     0.00114463    0.00031087    0.00018060
     atom   49 type  2   force =    -0.00155389   -0.00071653    0.00009413
     atom   50 type  4   force =     0.00000113    0.00061608    0.00099945
     atom   51 type  4   force =     0.00035189   -0.00035794    0.00019137
     atom   52 type  4   force =     0.00132823   -0.00018567    0.00040790
     atom   53 type  4   force =     0.00085717    0.00058825   -0.00106895
     atom   54 type  5   force =     0.00092627    0.00061860   -0.00153557
     atom   55 type  5   force =    -0.00055227    0.00003101    0.00175806

     Total force =     0.367176     Total SCF correction =     0.000936
  @ DRIVER MODE: Message from server: STATUS
  @ DRIVER MODE: Message from server: GETFORCE
  @ DRIVER MODE: Returning v,forces,stress,ensemble

     Writing config to output data dir ./calc.save/
  @ DRIVER MODE: Message from server: STATUS
  @ DRIVER MODE: Message from server: INIT
  @ DRIVER MODE: Receiving replica           0           0
  @ DRIVER MODE: Receiving encoded integer           2
  @ DRIVER MODE:  SCF:  T  FORCE:  T  STRESS:  F  VC:  F  ENSEMBLE:  F
  @ DRIVER MODE:  SCF:  F  FORCE:  F  STRESS:  F  VC:  F  ENSEMBLE:  T
  @ DRIVER MODE: Message from server: STATUS
  @ DRIVER MODE: Message from server: POSDATA
  @ DRIVER MODE: Reading and sharing positions
  @ DRIVER MODE: Received positions
     NEW-OLD atomic charge density approx. for the potential

[...]

     Adding external electric field

     Computed dipole along edir(3) :
        Dipole                0.5164 Ry au,          1.3125 Debye
        Dipole field          0.0010 Ry au,

        Potential amp.       -0.0903 Ry
        Total length         46.3494 bohr

  @ DRIVER MODE: BEEF-vdw

[...]

     negative rho (up, down):  1.441E-02 0.000E+00

     negative rho (up, down):  1.441E-02 0.000E+00
 BEEFens 2000 ensemble energies
             -0.354093697387648E+02
             -0.203562707428979E+01
             -0.731345697496536E+01
              0.245594696366112E+02
             -0.121776935416654E+02
             -0.942059451839532E+01
             -0.246239278509856E+02
             -0.514299166457643E+02
             -0.219648728053981E+02
             -0.230627439055726E+02
             -0.213563350279345E+02
              0.432046865816785E+01
              0.203052446924730E+01
             -0.108586289007056E+01
              0.178202344082220E+01
              0.270418078577640E+02
             -0.104784415747167E+02
             -0.737643599856547E+01
              0.119190352449007E+02
             -0.632478149901841E+02
              0.316571163837203E+02
             -0.135239626065332E+02
             -0.248047555571190E+01
             -0.572745123644819E+01
             -0.937335611696597E+00
             -0.222294688250504E+01
              0.490759580691289E+02
             -0.152460615699276E+02
             -0.416675990005575E+01
             -0.309785763544146E+02
              0.400715195583188E+02
             -0.445029766162538E+01
             -0.218076719305001E+02
              0.114741193160170E+02
             -0.208823281610532E+01
              0.132596312296448E+02
             -0.549566775054387E+00
              0.279556414230569E+01
              0.192830990251537E+02
             -0.558554455053548E+02
              0.311278339447632E+02
              0.828599067921319E+01
             -0.637715690933922E+01
             -0.178659259281677E+02
              0.703045679996862E+01
             -0.111625025468169E+02
              0.254220934529478E+02
              0.202995879179068E+02
             -0.130705064886342E+02
             -0.166826683740943E+02
             -0.175862455584654E+02
             -0.212376816618351E+02
              0.107699973597131E+02
             -0.277118372094358E+02
              0.849911029025242E+01
              0.353494073175093E+02
              0.407129527913230E+02
              0.189950260287344E+02
              0.855210035468224E+01
              0.177262239856795E+02
[...]
             -0.416389568549365E+02
              0.283324085375767E+01
             -0.141295930964861E+01
             -0.581130628129750E+01
              0.564025253065950E-01
             -0.370738129428719E+02
             -0.716471913220178E+01
              0.507136047794887E+01
              0.754822474199699E+01
              0.277789058817102E+02
             -0.242558424605725E+02
              0.317436709601325E+02
             -0.227024600986260E+02
              0.146012142929250E+02
              0.229706605830408E+02

 BEEF-vdW xc energy contributions
           1 :   -417.705708055366
           2 :    363.542280165200
           3 :   -276.531573084669
           4 :    186.191614976384
           5 :   -115.465107879630
           6 :    73.1036348293287
           7 :   -55.1531460140504
           8 :    51.5774772696109
           9 :   -53.0022160863326
          10 :    54.1919030484539
          11 :   -53.8411986496631
          12 :    52.3974517132997
          13 :   -50.1991040727151
          14 :    46.9803262276056
          15 :   -42.4212097623040
          16 :    36.7815274610203
          17 :   -31.0194381142985
          18 :    26.3457800558967
          19 :   -23.6049671800690
          20 :    22.9047835848220
          21 :   -23.7086136768036
          22 :    25.2229174054906
          23 :   -26.7442018174451
          24 :    27.7612416437652
          25 :   -27.9229376454668
          26 :    27.0393025614447
          27 :   -25.1357800590787
          28 :    22.4813849876558
          29 :   -19.5598661266002
          30 :    16.9682685590763
          31 :   -49.1579936419188
          32 :   -33.3123227745158
  @ DRIVER MODE: Message from server: STATUS
  @ DRIVER MODE: Message from server: GETFORCE
  @ DRIVER MODE: Returning v,forces,stress,ensemble
  @ DRIVE MODE: Returning Ensemble Energies

     Writing config to output data dir ./calc.save/
  @ DRIVER MODE: Message from server: EXIT
  @ DRIVE MODE: Exiting

     General routines

     Parallel routines

   This run was terminated on:  21:13:32  30Aug2021

   JOB DONE.