     Program PWSCF v.6.7GPU starts on 27Sep2021 at  8:32:58

     R & G space division:  proc/nbgrp/npool/nimage =       8
     Reading input from /storage/home/hcoda1/3/ntian30/research/carbon/CxH_vib/CH_calc/ads_slab/CHONHNH_a/out_0030/pw.inp
Warning: card &CELL ignored
Warning: card   CELL_DYNAMICS='IPI', ignored
Warning: card / ignored

     Current dimensions of program PWSCF are:
     Max number of different atomic species (ntypx) = 10
     Max number of k-points (npk) =  40000
     Max angular momentum in pseudopotentials (lmaxx) =  3
     Presently no symmetry can be used with electric field

     Message from routine cell_base_init:
     DEPRECATED: use true lattice parameter, not A to a.u. conversion factor

     IMPORTANT: XC functional enforced from input :
     Exchange-correlation= BEEF-VDW
                           (   1   4  43  14   2   0   0)
     Any further DFT definition will be discarded
     Please, verify this is what you really want

  @ DRIVER MODE: Connecting to
 qe_1139763_2982671.sched-torque.pace.gatech.edu9c126fug_scratch
  using UNIX socket
  @ DRIVER MODE: Message from server: STATUS
  @ DRIVER MODE: Message from server: INIT
  @ DRIVER MODE: Receiving replica           0          -1
  @ DRIVER MODE: Receiving encoded integer          25
  @ DRIVER MODE:  SCF:  T  FORCE:  T  STRESS:  F  VC:  F  ENSEMBLE:  F
  @ DRIVER MODE:  SCF:  T  FORCE:  T  STRESS:  F  VC:  F  ENSEMBLE:  F

     Using Slab Decomposition

     bravais-lattice index     =            0
     lattice parameter (alat)  =       1.8897  a.u.
     unit-cell volume          =    6658.9804 (a.u.)^3
     number of atoms/cell      =           54
     number of atomic types    =            5
     number of electrons       =       401.00
     number of Kohn-Sham states=          210
     kinetic-energy cutoff     =      29.3995  Ry
     charge density cutoff     =     293.9946  Ry
     scf convergence threshold =      7.3E-08
     mixing beta               =       0.0500
     number of iterations used =            8  plain     mixing
     Exchange-correlation= BEEF-VDW
                           (   1   4  43  14   2   0   0)

     celldm(1)=   1.889726  celldm(2)=   0.000000  celldm(3)=   0.000000
     celldm(4)=   0.000000  celldm(5)=   0.000000  celldm(6)=   0.000000

     crystal axes: (cart. coord. in units of alat)
               a(1) = (   6.579727   0.000000   0.000000 )
               a(2) = (  -0.000775   5.961596   0.000000 )
               a(3) = (   0.000000   0.000000  25.155947 )

     reciprocal axes: (cart. coord. in units 2 pi/alat)
               b(1) = (  0.151982  0.000020  0.000000 )
               b(2) = (  0.000000  0.167740  0.000000 )
               b(3) = (  0.000000  0.000000  0.039752 )

     PseudoPot. # 1 for O  read from file:
     /storage/coda1/p-amedford6/0/shared/rich_project_chbe-medford/medford-share/data/pseudos_module/espresso/nninc/pbe/van/O.UPF
     MD5 check sum: 78c19812648e8988a0fe644b0f25305e
     Pseudo is Ultrasoft, Zval =  6.0
     Generated by new atomic code, or converted to UPF format
     Using radial grid of  737 points,  4 beta functions with:
                l(1) =   0
                l(2) =   0
                l(3) =   1
                l(4) =   1
     Q(r) pseudized with  8 coefficients,  rinner =    0.800   0.800   0.800

     PseudoPot. # 2 for Ti read from file:
     /storage/coda1/p-amedford6/0/shared/rich_project_chbe-medford/medford-share/data/pseudos_module/espresso/nninc/pbe/van/Ti.UPF
     MD5 check sum: 8e4df49b7f0d34bbd5052bf3f5ea0213
     Pseudo is Ultrasoft, Zval = 12.0
     Generated by new atomic code, or converted to UPF format
     Using radial grid of  851 points,  6 beta functions with:
                l(1) =   0
                l(2) =   0
                l(3) =   1
                l(4) =   1
                l(5) =   2
                l(6) =   2
     Q(r) pseudized with  8 coefficients,  rinner =    1.000   1.000   1.000
                                                       1.000   1.000

     PseudoPot. # 3 for N  read from file:
     /storage/coda1/p-amedford6/0/shared/rich_project_chbe-medford/medford-share/data/pseudos_module/espresso/nninc/pbe/van/N.UPF
     MD5 check sum: 90d10febe142ad51ac9d5be1deb811c4
     Pseudo is Ultrasoft, Zval =  5.0
     Generated by new atomic code, or converted to UPF format
     Using radial grid of  729 points,  4 beta functions with:
                l(1) =   0
                l(2) =   0
                l(3) =   1
                l(4) =   1
     Q(r) pseudized with  8 coefficients,  rinner =    0.800   0.800   0.800

     PseudoPot. # 4 for C  read from file:
     /storage/coda1/p-amedford6/0/shared/rich_project_chbe-medford/medford-share/data/pseudos_module/espresso/nninc/pbe/van/C.UPF
     MD5 check sum: 1a69bf6b8db32088f5b2163dbdb77a27
     Pseudo is Ultrasoft, Zval =  4.0
     Generated by new atomic code, or converted to UPF format
     Using radial grid of  721 points,  4 beta functions with:
                l(1) =   0
                l(2) =   0
                l(3) =   1
                l(4) =   1
     Q(r) pseudized with  8 coefficients,  rinner =    0.800   0.800   0.800

     PseudoPot. # 5 for H  read from file:
     /storage/coda1/p-amedford6/0/shared/rich_project_chbe-medford/medford-share/data/pseudos_module/espresso/nninc/pbe/van/H.UPF
     MD5 check sum: b5ee9d7bfd3a09ee7748110bda690ff7
     Pseudo is Ultrasoft, Zval =  1.0
     Generated by new atomic code, or converted to UPF format
     Using radial grid of  615 points,  1 beta functions with:
                l(1) =   0
     Q(r) pseudized with  8 coefficients,  rinner =    0.800

     atomic species   valence    mass     pseudopotential
        O1             6.00    15.99900     O ( 1.00)
        Ti1           12.00    47.86700     Ti( 1.00)
        N1             5.00    14.00700     N ( 1.00)
        C1             4.00    12.01100     C ( 1.00)
        H1             1.00     1.00800     H ( 1.00)

     No symmetry found

   Cartesian axes

     site n.     atom                  positions (alat units)
         1           O1  tau(   1) = (   3.2904802   0.0005063   4.7018136  )
         2           O1  tau(   2) = (   3.2900926   2.9813045   4.7018136  )
         3           Ti1 tau(   3) = (   0.0004258   2.9801865   6.0000000  )
         4           Ti1 tau(   4) = (   0.0000382   5.9609847   6.0000000  )
         5           Ti1 tau(   5) = (   3.2906075   1.4906267   6.0002472  )
         6           Ti1 tau(   6) = (   3.2902200   4.4714249   6.0002472  )
         7           O1  tau(   7) = (   1.3043587   1.4918075   6.0039043  )
         8           O1  tau(   8) = (   1.3039711   4.4726057   6.0039043  )
         9           O1  tau(   9) = (   5.2767064   1.4903225   6.0039473  )
        10           O1  tau(  10) = (   5.2763189   4.4711207   6.0039473  )
        11           O1  tau(  11) = (   3.2906025   0.0005020   7.3038282  )
        12           O1  tau(  12) = (   3.2902150   2.9813002   7.3038282  )
        13           O1  tau(  13) = (   0.0006271   0.0005054   7.9858123  )
        14           O1  tau(  14) = (   0.0002396   2.9813036   7.9858123  )
        15           Ti1 tau(  15) = (   3.2907910   2.8959150   9.1758416  )
        16           Ti1 tau(  16) = (   3.2891106   5.8743827   9.1763621  )
        17           Ti1 tau(  17) = (   0.0015273   1.4827037   9.2680791  )
        18           Ti1 tau(  18) = (   0.0006254   4.4649316   9.2693709  )
        19           O1  tau(  19) = (   4.5942328   1.4918067   9.2879030  )
        20           O1  tau(  20) = (   4.5938453   4.4726049   9.2879030  )
        21           O1  tau(  21) = (   1.9868534   1.4903216   9.2879459  )
        22           O1  tau(  22) = (   1.9864658   4.4711199   9.2879459  )
        23           O1  tau(  23) = (   0.0116148   5.9584955  10.6183126  )
        24           O1  tau(  24) = (   0.0092240   2.9805883  10.6323155  )
        25           O1  tau(  25) = (   3.2531556   2.9620241  11.3322950  )
        26           O1  tau(  26) = (   3.2474763   5.9435521  11.3438280  )
        27           Ti1 tau(  27) = (   3.3237694   4.3814390  12.5572636  )
        28           Ti1 tau(  28) = (   0.0094504   0.0092305  12.5172013  )
        29           Ti1 tau(  29) = (   3.3224445   1.4452456  12.4745429  )
        30           Ti1 tau(  30) = (   0.0090234   2.9988230  12.5821063  )
        31           O1  tau(  31) = (   5.2496676   1.4726344  12.6006421  )
        32           O1  tau(  32) = (   5.2531746   4.4496067  12.6010712  )
        33           O1  tau(  33) = (   1.2410339   1.4659728  12.6671891  )
        34           O1  tau(  34) = (   1.2387123   4.4686174  12.6665250  )
        35           O1  tau(  35) = (   3.3067986   5.9564546  13.9007842  )
        36           O1  tau(  36) = (   3.2420318   3.0005841  13.9279729  )
        37           O1  tau(  37) = (   6.4209026   5.9439257  14.7021623  )
        38           O1  tau(  38) = (   6.4587925   2.9577525  14.6988961  )
        39           Ti1 tau(  39) = (   3.2423495   0.0283394  15.6829305  )
        40           Ti1 tau(  40) = (   6.4236859   1.5154006  15.7784978  )
        41           Ti1 tau(  41) = (   3.0799157   3.0146384  15.8599260  )
        42           O1  tau(  42) = (   1.9357555   1.4358950  15.9107064  )
        43           O1  tau(  43) = (   1.9271111   4.5447382  15.9660097  )
        44           Ti1 tau(  44) = (   6.4519450   4.6669281  16.1370820  )
        45           O1  tau(  45) = (   4.4443926   1.5071054  16.1134243  )
        46           O1  tau(  46) = (   4.4397279   4.4733020  16.1527106  )
        47           O1  tau(  47) = (   6.5167551   0.0277669  17.2715591  )
        48           N1  tau(  48) = (   0.3759035   2.6095042  18.6336219  )
        49           C1  tau(  49) = (   2.8136782   2.9081565  18.1516972  )
        50           H1  tau(  50) = (   0.1656462   1.5987175  18.7006542  )
        51           N1  tau(  51) = (   1.8163940   2.6652851  18.9293397  )
        52           H1  tau(  52) = (   3.7261332   2.9868749  18.7614029  )
        53           H1  tau(  53) = (   1.8928842   2.5952305  19.9427491  )
        54           O1  tau(  54) = (   0.0982553   2.9165792  17.3165359  )

     number of k points=    10  Fermi-Dirac smearing, width (Ry)=  0.0073
                       cart. coord. in units 2pi/alat
        k(    1) = (   0.0000000   0.0000000   0.0000000), wk =   0.1250000
        k(    2) = (   0.0000000   0.0419351   0.0000000), wk =   0.2500000
        k(    3) = (   0.0000000  -0.0838702   0.0000000), wk =   0.1250000
        k(    4) = (   0.0379955   0.0000049   0.0000000), wk =   0.2500000
        k(    5) = (   0.0379955   0.0419400   0.0000000), wk =   0.2500000
        k(    6) = (   0.0379955  -0.0838652   0.0000000), wk =   0.2500000
        k(    7) = (   0.0379955  -0.0419301   0.0000000), wk =   0.2500000
        k(    8) = (  -0.0759910  -0.0000099   0.0000000), wk =   0.1250000
        k(    9) = (  -0.0759910   0.0419252   0.0000000), wk =   0.2500000
        k(   10) = (  -0.0759910  -0.0838800   0.0000000), wk =   0.1250000

     Initial potential from superposition of free atoms

     starting charge  384.99916, renormalised to  401.00000

     negative rho (up, down):  1.631E-02 0.000E+00

     %%%%%%%%%%%%%%%%%%%%%%%%%%%%%%%%%%%%%%%%%%%%%%%%%%%%%%%%%%%%%%%%%%%%%%%%
     %                                                                      %
     % You are using vdW-DF, which was implemented by the Thonhauser group. %
     % Please cite the following two papers that made this development      %
     % possible and the two reviews that describe the various versions:     %
     %                                                                      %
     %   T. Thonhauser et al., PRL 115, 136402 (2015).                      %
     %   T. Thonhauser et al., PRB 76, 125112 (2007).                       %
     %   K. Berland et al., Rep. Prog. Phys. 78, 066501 (2015).             %
     %   D.C. Langreth et al., J. Phys.: Condens. Matter 21, 084203 (2009). %
     %                                                                      %
     %                                                                      %
     % If you are calculating the stress with vdW-DF, please also cite:     %
     %                                                                      %
     %   R. Sabatini et al., J. Phys.: Condens. Matter 24, 424209 (2012).   %
     %                                                                      %
     %%%%%%%%%%%%%%%%%%%%%%%%%%%%%%%%%%%%%%%%%%%%%%%%%%%%%%%%%%%%%%%%%%%%%%%%

     Adding external electric field

     Computed dipole along edir(3) :
        Dipole              -11.6322 Ry au,        -29.5662 Debye
        Dipole field         -0.0220 Ry au,

        Potential amp.        2.0349 Ry
        Total length         46.3494 bohr

     Starting wfcs are  303 atomic wfcs
  @ DRIVER MODE: Message from server: STATUS
  @ DRIVER MODE: Message from server: POSDATA
  @ DRIVER MODE: Reading and sharing cell
  @ DRIVER MODE: Reading and sharing positions
  @ DRIVER MODE: Received positions

     Self-consistent Calculation

     iteration #  1     ecut=    29.40 Ry     beta= 0.05
     Davidson diagonalization with overlap
     c_bands:  3 eigenvalues not converged
     c_bands:  3 eigenvalues not converged
     c_bands:  5 eigenvalues not converged
     c_bands:  4 eigenvalues not converged
     c_bands:  4 eigenvalues not converged
     c_bands:  3 eigenvalues not converged
     c_bands:  1 eigenvalues not converged
     c_bands:  3 eigenvalues not converged
     ethr =  1.00E-05,  avg # of iterations = 22.1

[...]

     total energy              =   -2394.30291095 Ry
     estimated scf accuracy    <    6495.24482125 Ry

     iteration #  2     ecut=    29.40 Ry     beta= 0.05
     Davidson diagonalization with overlap
     ethr =  1.00E-02,  avg # of iterations = 24.8

[...]

     iteration # 60     ecut=    29.40 Ry     beta= 0.05
     Davidson diagonalization with overlap
     c_bands:  1 eigenvalues not converged
     ethr =  6.13E-11,  avg # of iterations = 12.9

[...]

     total energy              =   -2971.36031681 Ry
     estimated scf accuracy    <       0.00000011 Ry

     iteration # 61     ecut=    29.40 Ry     beta= 0.05
     Davidson diagonalization with overlap
     ethr =  2.76E-11,  avg # of iterations =  8.0

     negative rho (up, down):  1.694E-02 0.000E+00

     Adding external electric field

     Computed dipole along edir(3) :
        Dipole                1.3763 Ry au,          3.4982 Debye
        Dipole field          0.0026 Ry au,

        Potential amp.       -0.2408 Ry
        Total length         46.3494 bohr

     End of self-consistent calculation

          k = 0.0000 0.0000 0.0000 ( 18029 PWs)   bands (ev):

   -55.3638 -55.3298 -55.2845 -55.2397 -55.2350 -55.2242 -55.1965 -55.1850
   -55.1510 -55.1429 -55.1297 -55.1076 -55.0337 -54.9939 -54.3435 -54.3094
   -31.8483 -31.8090 -31.7325 -31.6853 -31.6802 -31.6556 -31.6332 -31.6091
   -31.5989 -31.5692 -31.5410 -31.5162 -31.5032 -31.4959 -31.4701 -31.4670
   -31.4630 -31.4493 -31.4376 -31.4211 -31.4026 -31.3991 -31.3945 -31.3831
   -31.3784 -31.3776 -31.3736 -31.3646 -31.3417 -31.3410 -31.3342 -31.3247
   -31.3220 -31.3154 -31.2972 -31.2941 -31.2866 -31.2558 -31.2347 -31.2232
   -31.2084 -31.1785 -30.7503 -30.6626 -30.6401 -30.5674 -30.4809 -30.3695
   -20.1971 -17.3490 -16.0548 -15.8427 -15.6380 -15.5296 -15.4812 -15.2488
   -15.1314 -15.1015 -15.0145 -14.9440 -14.9279 -14.9038 -14.8927 -14.8740
   -14.8152 -14.8020 -14.7912 -14.7881 -14.7598 -14.7389 -14.7157 -14.7032
   -14.5822 -14.5692 -14.5395 -14.5078 -14.4856 -14.4248 -14.1658 -12.8444
   -12.7361 -12.7279  -9.0567  -7.2287  -5.7113  -4.9285  -3.4273  -3.3138
    -3.2846  -3.2705  -3.1850  -3.1451  -3.0223  -2.8061  -2.6584  -2.5581
    -2.5327  -2.4531  -2.3822  -2.3585  -2.3154  -2.2602  -2.2057  -2.1597
    -2.1347  -2.1104  -2.1025  -2.0967  -2.0033  -1.9838  -1.9439  -1.8918
    -1.8571  -1.7604  -1.7433  -1.6868  -1.6788  -1.6374  -1.6271  -1.6178
    -1.6087  -1.5905  -1.5073  -1.4915  -1.4435  -1.3669  -1.1770  -1.1243
    -1.0272  -0.9722  -0.8687  -0.8439  -0.8018  -0.7718  -0.7653  -0.7569
    -0.7113  -0.6162  -0.5741  -0.5218  -0.4606  -0.3828  -0.3134  -0.2734
    -0.1631  -0.1496  -0.1230  -0.1151  -0.0829   0.0591   0.1179   0.1681
     0.1923   0.2297   0.2959   0.3568   0.3709   0.4166   0.4406   0.5060
     0.5428   0.5622   0.5820   0.6096   0.6232   0.6519   0.6676   0.7155
     0.8422   0.8529   0.9006   0.9439   1.0000   1.1206   1.1279   1.2894
     1.3755   1.5606   1.6183   1.6805   1.7423   1.8720   2.2502   2.2959
     3.7417   3.8567   3.8888   3.9170   4.0006   4.0398   4.2101   4.2749
     4.2979   4.3357

[...]

          k = 0.0380-0.0419 0.0000 ( 17876 PWs)   bands (ev):

[...]

          k =-0.0760-0.0000 0.0000 ( 17886 PWs)   bands (ev):

[...]

          k =-0.0760-0.0839 0.0000 ( 17948 PWs)   bands (ev):

   -55.3469 -55.3466 -55.2785 -55.2322 -55.2311 -55.2299 -55.2051 -55.1681
   -55.1675 -55.1323 -55.1306 -55.1201 -55.0259 -55.0016 -54.3264 -54.3263
   -31.6637 -31.6634 -31.6504 -31.6412 -31.6409 -31.5912 -31.5682 -31.5499
   -31.5420 -31.5263 -31.5049 -31.4958 -31.4924 -31.4860 -31.4807 -31.4724
   -31.4664 -31.4663 -31.4636 -31.4600 -31.4562 -31.4395 -31.4377 -31.4308
   -31.4217 -31.4162 -31.4044 -31.3857 -31.3717 -31.3696 -31.3574 -31.3467
   -31.3466 -31.3437 -31.3412 -31.3409 -31.3378 -31.3307 -31.2622 -31.2486
   -31.2304 -31.2100 -30.6529 -30.6528 -30.5631 -30.5630 -30.5243 -30.5241
   -20.1921 -17.3463 -15.4866 -15.3744 -15.3705 -15.3037 -15.2495 -15.1782
   -15.1289 -15.0981 -15.0591 -15.0408 -15.0141 -14.9727 -14.9328 -14.9212
   -14.8966 -14.8876 -14.8663 -14.8224 -14.8137 -14.8055 -14.7993 -14.7728
   -14.7326 -14.7061 -14.6840 -14.6795 -14.6499 -14.5120 -14.3658 -12.8298
   -12.8296 -12.7408  -9.0500  -7.1719  -5.7220  -4.9477  -3.3227  -2.7515
    -2.6604  -2.5747  -2.5037  -2.4319  -2.3926  -2.3706  -2.3123  -2.3073
    -2.2778  -2.2180  -2.1988  -2.1831  -2.1675  -2.1371  -2.1292  -2.1068
    -2.0965  -2.0892  -2.0483  -2.0455  -2.0206  -2.0183  -1.9926  -1.9854
    -1.9558  -1.9272  -1.9061  -1.8676  -1.8229  -1.7226  -1.6374  -1.5663
    -1.5123  -1.5012  -1.4917  -1.4371  -1.4199  -1.3880  -1.3604  -1.3249
    -1.1904  -1.0521  -1.0419  -1.0068  -0.9424  -0.9103  -0.8720  -0.8500
    -0.7754  -0.7585  -0.7251  -0.6978  -0.6278  -0.5366  -0.4925  -0.4526
    -0.4207  -0.3657  -0.3381  -0.3185  -0.3013  -0.2872  -0.2522  -0.1871
    -0.1417  -0.1180  -0.0858  -0.0595  -0.0376  -0.0125   0.1594   0.1773
     0.2758   0.3440   0.4026   0.5380   0.6387   0.6780   0.7201   0.7794
     0.8459   0.8989   0.9326   0.9494   0.9679   1.0303   1.0874   1.1543
     1.1700   1.2026   1.2810   1.4457   2.0440   2.0464   2.1158   2.1161
     4.1128   4.1613   4.1855   4.1962   4.2637   4.2879   4.3049   4.3086
     4.4134   4.4331

     the Fermi energy is     3.7620 ev

!    total energy              =   -2971.36037380 Ry
     estimated scf accuracy    <       0.00000007 Ry
     smearing contrib. (-TS)   =      -0.02057512 Ry
     internal energy E=F+TS    =   -2971.33979868 Ry

     The total energy is F=E-TS. E is the sum of the following terms:
     one-electron contribution =  -24168.30299521 Ry
     hartree contribution      =   12179.79371351 Ry
     xc contribution           =    -492.42576081 Ry
     ewald contribution        =    9509.59166916 Ry
     electric field correction =       0.00357468 Ry

     convergence has been achieved in  61 iterations

     Forces acting on atoms (cartesian axes, Ry/au):

     atom    1 type  1   force =     0.00007346   -0.00012112    0.10307796
     atom    2 type  1   force =     0.00007446   -0.00010424    0.10312874
     atom    3 type  2   force =     0.00001953   -0.00019607    0.09532143
     atom    4 type  2   force =     0.00007689   -0.00049293    0.09490071
     atom    5 type  2   force =    -0.00021045   -0.00070443   -0.17563041
     atom    6 type  2   force =    -0.00005495   -0.00023984   -0.17574975
     atom    7 type  1   force =    -0.07170359   -0.00018758   -0.02756527
     atom    8 type  1   force =    -0.07168642   -0.00020976   -0.02749704
     atom    9 type  1   force =     0.07157021    0.00025730   -0.02757055
     atom   10 type  1   force =     0.07153905    0.00026378   -0.02754368
     atom   11 type  1   force =    -0.00007928   -0.00143944    0.05243158
     atom   12 type  1   force =    -0.00000291   -0.00150144    0.05289161
     atom   13 type  1   force =    -0.00013237   -0.00017802   -0.02268543
     atom   14 type  1   force =    -0.00005894   -0.00028931   -0.02180874
     atom   15 type  2   force =    -0.00221699    0.00206150   -0.00873976
     atom   16 type  2   force =    -0.00226904    0.00207523   -0.00152032
     atom   17 type  2   force =     0.00140160    0.00932906    0.01492388
     atom   18 type  2   force =     0.00154807   -0.01043138    0.01569806
     atom   19 type  1   force =    -0.01011674   -0.00094399    0.00484563
     atom   20 type  1   force =    -0.01049404   -0.00075730    0.00459083
     atom   21 type  1   force =     0.01028688   -0.00001088    0.00094032
     atom   22 type  1   force =     0.01056424   -0.00053803    0.00075717
     atom   23 type  1   force =    -0.00214664    0.00037151   -0.01187119
     atom   24 type  1   force =    -0.00061728   -0.00078402   -0.01486745
     atom   25 type  1   force =     0.00002238    0.00040652    0.00000413
     atom   26 type  1   force =     0.00010554   -0.00026249   -0.00044981
     atom   27 type  2   force =     0.00053522   -0.00009263   -0.00072932
     atom   28 type  2   force =    -0.00022310   -0.00020313   -0.00001761
     atom   29 type  2   force =     0.00020829    0.00074816    0.00012416
     atom   30 type  2   force =    -0.00032084   -0.00028202    0.00002000
     atom   31 type  1   force =     0.00023425    0.00057820    0.00025033
     atom   32 type  1   force =    -0.00064639    0.00046643    0.00003905
     atom   33 type  1   force =     0.00044500    0.00052975    0.00011072
     atom   34 type  1   force =     0.00072020    0.00022928   -0.00015784
     atom   35 type  1   force =    -0.00010643   -0.00034620   -0.00003124
     atom   36 type  1   force =     0.00080497    0.00057694   -0.00061069
     atom   37 type  1   force =     0.00039615    0.00023184    0.00024071
     atom   38 type  1   force =     0.00058055    0.00069249    0.00066140
     atom   39 type  2   force =     0.00051830   -0.00023634   -0.00023718
     atom   40 type  2   force =    -0.00030451   -0.00026850   -0.00000459
     atom   41 type  2   force =     0.00089046    0.00018112    0.00008288
     atom   42 type  1   force =     0.00037191    0.00023821    0.00012415
     atom   43 type  1   force =     0.00036828    0.00006812    0.00024155
     atom   44 type  2   force =    -0.00034030    0.00067439   -0.00035796
     atom   45 type  1   force =     0.00005861   -0.00010788   -0.00061548
     atom   46 type  1   force =     0.00009408    0.00072957    0.00010046
     atom   47 type  1   force =    -0.00031113    0.00038968   -0.00001791
     atom   48 type  3   force =    -0.00091869   -0.00108283    0.00055950
     atom   49 type  4   force =     0.00563418    0.00004293    0.00473348
     atom   50 type  5   force =     0.00049552    0.00088929   -0.00048940
     atom   51 type  3   force =    -0.00141952    0.00016195   -0.00101958
     atom   52 type  5   force =    -0.00305685   -0.00039617   -0.00378705
     atom   53 type  5   force =    -0.00036230   -0.00001852    0.00093780
     atom   54 type  1   force =     0.00016142    0.00023324   -0.00016299

     Total force =     0.364546     Total SCF correction =     0.000738
  @ DRIVER MODE: Message from server: STATUS
  @ DRIVER MODE: Message from server: GETFORCE
  @ DRIVER MODE: Returning v,forces,stress,ensemble

     Writing output data file ./calc.save/
  @ DRIVER MODE: Message from server: EXIT
  @ DRIVE MODE: Exiting

     General routines

     Parallel routines

   This run was terminated on:   9: 7:39  27Sep2021

   JOB DONE.