     Program PWSCF v.6.7GPU starts on 22Sep2021 at 20:20:38

     R & G space division:  proc/nbgrp/npool/nimage =      10
     Reading input from /storage/home/hcoda1/3/ntian30/research/carbon/CxH_vib/H2O_calc/ads_slab/CH3NHHH2O_a/out_0014/pw.inp
Warning: card &CELL ignored
Warning: card   CELL_DYNAMICS='IPI', ignored
Warning: card / ignored

     Current dimensions of program PWSCF are:
     Max number of different atomic species (ntypx) = 10
     Max number of k-points (npk) =  40000
     Max angular momentum in pseudopotentials (lmaxx) =  3
     Presently no symmetry can be used with electric field

     Message from routine cell_base_init:
     DEPRECATED: use true lattice parameter, not A to a.u. conversion factor

     IMPORTANT: XC functional enforced from input :
     Exchange-correlation= BEEF-VDW
                           (   1   4  43  14   2   0   0)
     Any further DFT definition will be discarded
     Please, verify this is what you really want

  @ DRIVER MODE: Connecting to
 qe_1139763_2937309.sched-torque.pace.gatech.eduekyhvez6_scratch
  using UNIX socket
  @ DRIVER MODE: Message from server: STATUS
  @ DRIVER MODE: Message from server: INIT
  @ DRIVER MODE: Receiving replica           0          -1
  @ DRIVER MODE: Receiving encoded integer          25
  @ DRIVER MODE:  SCF:  T  FORCE:  T  STRESS:  F  VC:  F  ENSEMBLE:  F
  @ DRIVER MODE:  SCF:  T  FORCE:  T  STRESS:  F  VC:  F  ENSEMBLE:  F

     Using Slab Decomposition

     bravais-lattice index     =            0
     lattice parameter (alat)  =       1.8897  a.u.
     unit-cell volume          =    6658.9804 (a.u.)^3
     number of atoms/cell      =           57
     number of atomic types    =            5
     number of electrons       =       400.00
     number of Kohn-Sham states=          210
     kinetic-energy cutoff     =      29.3995  Ry
     charge density cutoff     =     293.9946  Ry
     scf convergence threshold =      7.3E-08
     mixing beta               =       0.0500
     number of iterations used =            8  plain     mixing
     Exchange-correlation= BEEF-VDW
                           (   1   4  43  14   2   0   0)

     celldm(1)=   1.889726  celldm(2)=   0.000000  celldm(3)=   0.000000
     celldm(4)=   0.000000  celldm(5)=   0.000000  celldm(6)=   0.000000

     crystal axes: (cart. coord. in units of alat)
               a(1) = (   6.579727   0.000000   0.000000 )
               a(2) = (  -0.000775   5.961596   0.000000 )
               a(3) = (   0.000000   0.000000  25.155947 )

     reciprocal axes: (cart. coord. in units 2 pi/alat)
               b(1) = (  0.151982  0.000020  0.000000 )
               b(2) = (  0.000000  0.167740  0.000000 )
               b(3) = (  0.000000  0.000000  0.039752 )

     PseudoPot. # 1 for Ti read from file:
     /storage/coda1/p-amedford6/0/shared/rich_project_chbe-medford/medford-share/data/pseudos_module/espresso/nninc/pbe/van/Ti.UPF
     MD5 check sum: 8e4df49b7f0d34bbd5052bf3f5ea0213
     Pseudo is Ultrasoft, Zval = 12.0
     Generated by new atomic code, or converted to UPF format
     Using radial grid of  851 points,  6 beta functions with:
                l(1) =   0
                l(2) =   0
                l(3) =   1
                l(4) =   1
                l(5) =   2
                l(6) =   2
     Q(r) pseudized with  8 coefficients,  rinner =    1.000   1.000   1.000
                                                       1.000   1.000

     PseudoPot. # 2 for O  read from file:
     /storage/coda1/p-amedford6/0/shared/rich_project_chbe-medford/medford-share/data/pseudos_module/espresso/nninc/pbe/van/O.UPF
     MD5 check sum: 78c19812648e8988a0fe644b0f25305e
     Pseudo is Ultrasoft, Zval =  6.0
     Generated by new atomic code, or converted to UPF format
     Using radial grid of  737 points,  4 beta functions with:
                l(1) =   0
                l(2) =   0
                l(3) =   1
                l(4) =   1
     Q(r) pseudized with  8 coefficients,  rinner =    0.800   0.800   0.800

     PseudoPot. # 3 for N  read from file:
     /storage/coda1/p-amedford6/0/shared/rich_project_chbe-medford/medford-share/data/pseudos_module/espresso/nninc/pbe/van/N.UPF
     MD5 check sum: 90d10febe142ad51ac9d5be1deb811c4
     Pseudo is Ultrasoft, Zval =  5.0
     Generated by new atomic code, or converted to UPF format
     Using radial grid of  729 points,  4 beta functions with:
                l(1) =   0
                l(2) =   0
                l(3) =   1
                l(4) =   1
     Q(r) pseudized with  8 coefficients,  rinner =    0.800   0.800   0.800

     PseudoPot. # 4 for C  read from file:
     /storage/coda1/p-amedford6/0/shared/rich_project_chbe-medford/medford-share/data/pseudos_module/espresso/nninc/pbe/van/C.UPF
     MD5 check sum: 1a69bf6b8db32088f5b2163dbdb77a27
     Pseudo is Ultrasoft, Zval =  4.0
     Generated by new atomic code, or converted to UPF format
     Using radial grid of  721 points,  4 beta functions with:
                l(1) =   0
                l(2) =   0
                l(3) =   1
                l(4) =   1
     Q(r) pseudized with  8 coefficients,  rinner =    0.800   0.800   0.800

     PseudoPot. # 5 for H  read from file:
     /storage/coda1/p-amedford6/0/shared/rich_project_chbe-medford/medford-share/data/pseudos_module/espresso/nninc/pbe/van/H.UPF
     MD5 check sum: b5ee9d7bfd3a09ee7748110bda690ff7
     Pseudo is Ultrasoft, Zval =  1.0
     Generated by new atomic code, or converted to UPF format
     Using radial grid of  615 points,  1 beta functions with:
                l(1) =   0
     Q(r) pseudized with  8 coefficients,  rinner =    0.800

     atomic species   valence    mass     pseudopotential
        Ti1           12.00    47.86700     Ti( 1.00)
        O1             6.00    15.99900     O ( 1.00)
        N1             5.00    14.00700     N ( 1.00)
        C1             4.00    12.01100     C ( 1.00)
        H1             1.00     1.00800     H ( 1.00)

     No symmetry found

   Cartesian axes

     site n.     atom                  positions (alat units)
         1           Ti1 tau(   1) = (   0.0004258   2.9801865   6.0000000  )
         2           Ti1 tau(   2) = (   3.2906075   1.4906267   6.0002472  )
         3           O1  tau(   3) = (   0.0006271   0.0005054   7.9858123  )
         4           O1  tau(   4) = (   3.2906025   0.0005020   7.3038282  )
         5           O1  tau(   5) = (   4.5942328   1.4918067   9.2879030  )
         6           O1  tau(   6) = (   1.9868534   1.4903216   9.2879459  )
         7           Ti1 tau(   7) = (   3.2907910   2.8959150   9.1758416  )
         8           Ti1 tau(   8) = (   0.0015273   1.4827037   9.2680791  )
         9           O1  tau(   9) = (   3.2912042   0.0294118  11.3810798  )
        10           O1  tau(  10) = (   0.0116148   5.9584955  10.6183126  )
        11           O1  tau(  11) = (   1.2906363   1.5151137  12.6946382  )
        12           O1  tau(  12) = (   5.2977377   1.5118052  12.6897239  )
        13           Ti1 tau(  13) = (   0.0154927   3.0055723  12.5114375  )
        14           Ti1 tau(  14) = (   3.3120461   1.5076926  12.5412499  )
        15           O1  tau(  15) = (   0.0087391   5.9056098  14.6936070  )
        16           O1  tau(  16) = (   3.3000944   0.0090435  14.0218108  )
        17           O1  tau(  17) = (   4.5606481   1.5918460  16.0876707  )
        18           O1  tau(  18) = (   2.0070218   1.5857768  16.0794533  )
        19           Ti1 tau(  19) = (   3.2835068   3.0412122  15.7371975  )
        20           Ti1 tau(  20) = (   0.0166266   1.3536260  15.8406240  )
        21           O1  tau(  21) = (   3.2904802   0.0005063   4.7018136  )
        22           O1  tau(  22) = (   6.5628702   0.1917167  17.2472498  )
        23           O1  tau(  23) = (   1.3043587   1.4918075   6.0039043  )
        24           O1  tau(  24) = (   5.2767064   1.4903225   6.0039473  )
        25           Ti1 tau(  25) = (   0.0000382   5.9609847   6.0000000  )
        26           Ti1 tau(  26) = (   3.2902200   4.4714249   6.0002472  )
        27           O1  tau(  27) = (   0.0002396   2.9813036   7.9858123  )
        28           O1  tau(  28) = (   3.2902150   2.9813002   7.3038282  )
        29           O1  tau(  29) = (   4.5938453   4.4726049   9.2879030  )
        30           O1  tau(  30) = (   1.9864658   4.4711199   9.2879459  )
        31           Ti1 tau(  31) = (   3.2891106   5.8743827   9.1763621  )
        32           Ti1 tau(  32) = (   0.0006254   4.4649316   9.2693709  )
        33           O1  tau(  33) = (   3.2975917   2.9887808  11.3748511  )
        34           O1  tau(  34) = (   0.0092240   2.9805883  10.6323155  )
        35           O1  tau(  35) = (   1.2927870   4.4849180  12.6503915  )
        36           O1  tau(  36) = (   5.2959677   4.4879952  12.6460094  )
        37           Ti1 tau(  37) = (   0.0189062   0.0134437  12.4995343  )
        38           Ti1 tau(  38) = (   3.3131396   4.4925875  12.5257625  )
        39           O1  tau(  39) = (   6.5658147   3.0796170  14.9398047  )
        40           O1  tau(  40) = (   3.2912769   3.0351834  13.9531456  )
        41           O1  tau(  41) = (   4.5372935   4.5058929  16.2491503  )
        42           O1  tau(  42) = (   2.0060561   4.4992570  16.2466123  )
        43           Ti1 tau(  43) = (   3.3106529   0.0781036  15.8389635  )
        44           Ti1 tau(  44) = (   0.0259428   4.5566345  16.0434284  )
        45           O1  tau(  45) = (   3.2900926   2.9813045   4.7018136  )
        46           O1  tau(  46) = (   1.3039711   4.4726057   6.0039043  )
        47           O1  tau(  47) = (   5.2763189   4.4711207   6.0039473  )
        48           N1  tau(  48) = (   6.3514164   3.3085518  18.1544664  )
        49           C1  tau(  49) = (   0.8695967   3.1501053  19.1301808  )
        50           H1  tau(  50) = (   1.3885670   4.1052268  19.2416751  )
        51           H1  tau(  51) = (   0.5086663   2.8389580  20.1145987  )
        52           H1  tau(  52) = (   1.5779067   2.4119510  18.7640910  )
        53           H1  tau(  53) = (   5.7211048   4.0382881  18.4729098  )
        54           H1  tau(  54) = (   5.7931489   2.4557210  18.1309407  )
        55           O1  tau(  55) = (   3.2817172   0.3149129  18.3340421  )
        56           H1  tau(  56) = (   4.0380937   5.6864266  18.4726034  )
        57           H1  tau(  57) = (   2.4816286   5.7371253  18.4434621  )

     number of k points=    10  Fermi-Dirac smearing, width (Ry)=  0.0073
                       cart. coord. in units 2pi/alat
        k(    1) = (   0.0000000   0.0000000   0.0000000), wk =   0.1250000
        k(    2) = (   0.0000000   0.0419351   0.0000000), wk =   0.2500000
        k(    3) = (   0.0000000  -0.0838702   0.0000000), wk =   0.1250000
        k(    4) = (   0.0379955   0.0000049   0.0000000), wk =   0.2500000
        k(    5) = (   0.0379955   0.0419400   0.0000000), wk =   0.2500000
        k(    6) = (   0.0379955  -0.0838652   0.0000000), wk =   0.2500000
        k(    7) = (   0.0379955  -0.0419301   0.0000000), wk =   0.2500000
        k(    8) = (  -0.0759910  -0.0000099   0.0000000), wk =   0.1250000
        k(    9) = (  -0.0759910   0.0419252   0.0000000), wk =   0.2500000
        k(   10) = (  -0.0759910  -0.0838800   0.0000000), wk =   0.1250000

     Initial potential from superposition of free atoms

     starting charge  383.99913, renormalised to  400.00000

     negative rho (up, down):  1.554E-02 0.000E+00

     %%%%%%%%%%%%%%%%%%%%%%%%%%%%%%%%%%%%%%%%%%%%%%%%%%%%%%%%%%%%%%%%%%%%%%%%
     %                                                                      %
     % You are using vdW-DF, which was implemented by the Thonhauser group. %
     % Please cite the following two papers that made this development      %
     % possible and the two reviews that describe the various versions:     %
     %                                                                      %
     %   T. Thonhauser et al., PRL 115, 136402 (2015).                      %
     %   T. Thonhauser et al., PRB 76, 125112 (2007).                       %
     %   K. Berland et al., Rep. Prog. Phys. 78, 066501 (2015).             %
     %   D.C. Langreth et al., J. Phys.: Condens. Matter 21, 084203 (2009). %
     %                                                                      %
     %                                                                      %
     % If you are calculating the stress with vdW-DF, please also cite:     %
     %                                                                      %
     %   R. Sabatini et al., J. Phys.: Condens. Matter 24, 424209 (2012).   %
     %                                                                      %
     %%%%%%%%%%%%%%%%%%%%%%%%%%%%%%%%%%%%%%%%%%%%%%%%%%%%%%%%%%%%%%%%%%%%%%%%

     Adding external electric field

     Computed dipole along edir(3) :
        Dipole              -12.0858 Ry au,        -30.7189 Debye
        Dipole field         -0.0228 Ry au,

        Potential amp.        2.1142 Ry
        Total length         46.3494 bohr

     Starting wfcs are  303 atomic wfcs
  @ DRIVER MODE: Message from server: STATUS
  @ DRIVER MODE: Message from server: POSDATA
  @ DRIVER MODE: Reading and sharing cell
  @ DRIVER MODE: Reading and sharing positions
  @ DRIVER MODE: Received positions

     Self-consistent Calculation

     iteration #  1     ecut=    29.40 Ry     beta= 0.05
     Davidson diagonalization with overlap
     c_bands:  2 eigenvalues not converged
     c_bands:  2 eigenvalues not converged
     c_bands:  3 eigenvalues not converged
     c_bands:  4 eigenvalues not converged
     c_bands:  2 eigenvalues not converged
     c_bands:  1 eigenvalues not converged
     c_bands:  4 eigenvalues not converged
     c_bands:  4 eigenvalues not converged
     c_bands:  5 eigenvalues not converged
     ethr =  1.00E-05,  avg # of iterations = 22.0

[...]

     total energy              =   -2384.78875799 Ry
     estimated scf accuracy    <    6450.96193693 Ry

     iteration #  2     ecut=    29.40 Ry     beta= 0.05
     Davidson diagonalization with overlap
     ethr =  1.00E-02,  avg # of iterations = 26.3

[...]

     iteration # 70     ecut=    29.40 Ry     beta= 0.05
     Davidson diagonalization with overlap
     c_bands:  1 eigenvalues not converged
     c_bands:  1 eigenvalues not converged
     ethr =  2.99E-11,  avg # of iterations = 14.6

[...]

     total energy              =   -2956.45483008 Ry
     estimated scf accuracy    <       0.00000012 Ry

     iteration # 71     ecut=    29.40 Ry     beta= 0.05
     Davidson diagonalization with overlap
     ethr =  2.99E-11,  avg # of iterations =  1.3

     negative rho (up, down):  1.589E-02 0.000E+00

     Adding external electric field

     Computed dipole along edir(3) :
        Dipole                1.4028 Ry au,          3.5656 Debye
        Dipole field          0.0026 Ry au,

        Potential amp.       -0.2454 Ry
        Total length         46.3494 bohr

     End of self-consistent calculation

          k = 0.0000 0.0000 0.0000 ( 18029 PWs)   bands (ev):

   -55.2158 -55.1784 -55.1728 -55.1473 -55.1387 -55.1186 -55.0972 -55.0622
   -55.0418 -55.0070 -55.0038 -54.9944 -54.9701 -54.9347 -54.2032 -54.1691
   -31.7792 -31.6896 -31.6652 -31.5859 -31.5306 -31.5254 -31.5169 -31.5093
   -31.4619 -31.4386 -31.4269 -31.4177 -31.4135 -31.4117 -31.3876 -31.3846
   -31.3622 -31.3611 -31.3536 -31.3383 -31.3254 -31.3178 -31.3024 -31.2933
   -31.2866 -31.2745 -31.2720 -31.2430 -31.2301 -31.2281 -31.2226 -31.2025
   -31.1998 -31.1920 -31.1878 -31.1708 -31.1550 -31.1406 -31.1330 -31.1318
   -31.1149 -31.1127 -30.6126 -30.5183 -30.4962 -30.4290 -30.3422 -30.2313
   -19.2341 -16.1559 -16.0247 -15.7760 -15.6343 -15.5398 -15.4196 -15.3043
   -15.2396 -15.1257 -15.0675 -14.9323 -14.9169 -14.9050 -14.8804 -14.8471
   -14.8084 -14.7606 -14.7593 -14.7357 -14.7151 -14.7065 -14.6647 -14.6573
   -14.6176 -14.5963 -14.5954 -14.4601 -14.3787 -14.3084 -14.1229 -12.7057
   -12.5882 -10.2671  -7.0283  -6.2668  -4.8303  -3.9514  -3.4019  -3.3413
    -3.2377  -3.1490  -3.1256  -3.1133  -2.9764  -2.8638  -2.7457  -2.6659
    -2.6346  -2.4982  -2.4247  -2.4135  -2.3808  -2.2656  -2.2134  -2.1868
    -2.1541  -2.0825  -2.0343  -2.0236  -2.0057  -1.9750  -1.9600  -1.9258
    -1.8720  -1.7870  -1.7560  -1.6530  -1.6153  -1.5856  -1.5755  -1.5509
    -1.5340  -1.5092  -1.5028  -1.4424  -1.4389  -1.4091  -1.3629  -1.2481
    -1.0856  -1.0221  -0.9508  -0.8580  -0.8101  -0.7966  -0.7276  -0.7170
    -0.7031  -0.5994  -0.5676  -0.5542  -0.4570  -0.4256  -0.3869  -0.3144
    -0.2431  -0.2151  -0.2020  -0.0866  -0.0217  -0.0035   0.0162   0.0233
     0.1130   0.1861   0.2337   0.2853   0.3262   0.3334   0.3991   0.4314
     0.4992   0.5510   0.5690   0.6562   0.7011   0.7137   0.7199   0.7532
     0.7652   0.8269   0.8632   0.8876   0.9741   1.0893   1.2417   1.3832
     1.3912   1.7242   1.7251   1.8196   2.0034   2.3960   2.4442   3.8773
     3.9499   4.0091   4.0226   4.0281   4.1133   4.3596   4.3819   4.3875
     4.3976   4.4261

[...]

          k = 0.0380-0.0419 0.0000 ( 17876 PWs)   bands (ev):

[...]

          k =-0.0760-0.0000 0.0000 ( 17886 PWs)   bands (ev):

[...]

          k =-0.0760-0.0839 0.0000 ( 17948 PWs)   bands (ev):

   -55.2022 -55.1918 -55.1557 -55.1556 -55.1456 -55.1164 -55.0829 -55.0764
   -55.0272 -55.0210 -54.9967 -54.9873 -54.9868 -54.9362 -54.1863 -54.1859
   -31.6082 -31.5881 -31.5791 -31.4803 -31.4803 -31.4768 -31.4692 -31.4472
   -31.4470 -31.4276 -31.4198 -31.4130 -31.4056 -31.3913 -31.3736 -31.3589
   -31.3561 -31.3536 -31.3518 -31.3496 -31.3422 -31.3398 -31.3227 -31.3167
   -31.2961 -31.2958 -31.2772 -31.2755 -31.2754 -31.2734 -31.2687 -31.2603
   -31.2526 -31.2401 -31.2342 -31.2198 -31.2167 -31.1990 -31.1721 -31.1679
   -31.1669 -31.1462 -30.5090 -30.5087 -30.4252 -30.4250 -30.3857 -30.3855
   -19.2333 -16.1099 -15.5984 -15.4843 -15.3585 -15.2487 -15.2279 -15.1814
   -15.1326 -15.0823 -15.0303 -15.0019 -14.9810 -14.9721 -14.9293 -14.9188
   -14.8997 -14.8342 -14.8188 -14.8077 -14.7838 -14.7364 -14.7281 -14.7204
   -14.7164 -14.6705 -14.6664 -14.6187 -14.5750 -14.5712 -14.3914 -12.6898
   -12.6896 -10.2688  -7.0545  -6.2000  -4.8308  -3.9671  -3.2413  -2.9587
    -2.7497  -2.6980  -2.6095  -2.4659  -2.4219  -2.3773  -2.3460  -2.2845
    -2.2338  -2.2189  -2.2070  -2.1308  -2.1039  -2.0955  -2.0628  -2.0511
    -2.0411  -2.0029  -1.9822  -1.9569  -1.9485  -1.9377  -1.9350  -1.9255
    -1.8679  -1.8551  -1.8443  -1.8405  -1.7817  -1.7704  -1.7556  -1.7414
    -1.5971  -1.5788  -1.4279  -1.4245  -1.4022  -1.3498  -1.3382  -1.2975
    -1.2541  -1.2448  -1.2182  -0.9739  -0.9649  -0.9617  -0.9302  -0.8963
    -0.8585  -0.7968  -0.7679  -0.6979  -0.6897  -0.5737  -0.5576  -0.4425
    -0.4338  -0.4213  -0.3388  -0.2892  -0.2411  -0.2022  -0.1851  -0.1744
    -0.1578  -0.1212  -0.1189  -0.0216   0.0145   0.0453   0.0587   0.0982
     0.2748   0.3036   0.3193   0.4634   0.4709   0.6303   0.6813   0.7094
     0.7998   0.8600   0.8947   0.9386   1.0744   1.0877   1.1054   1.1597
     1.1829   1.2322   1.2454   2.1757   2.1771   2.2642   2.2642   4.0224
     4.1316   4.1408   4.1985   4.3098   4.3186   4.3924   4.4235   4.4612
     4.4650   4.5303

     the Fermi energy is     3.9395 ev

!    total energy              =   -2956.45484867 Ry
     estimated scf accuracy    <       0.00000006 Ry
     smearing contrib. (-TS)   =      -0.03685260 Ry
     internal energy E=F+TS    =   -2956.41799607 Ry

     The total energy is F=E-TS. E is the sum of the following terms:
     one-electron contribution =  -23693.57817404 Ry
     hartree contribution      =   11942.29317083 Ry
     xc contribution           =    -490.60990998 Ry
     ewald contribution        =    9285.47320347 Ry
     electric field correction =       0.00371366 Ry

     convergence has been achieved in  71 iterations

     Forces acting on atoms (cartesian axes, Ry/au):

     atom    1 type  1   force =    -0.00000404   -0.00026975    0.09333478
     atom    2 type  1   force =    -0.00007234   -0.00035076   -0.17816239
     atom    3 type  2   force =     0.00004478   -0.00030688   -0.02034206
     atom    4 type  2   force =    -0.00003519   -0.00185227    0.05915838
     atom    5 type  2   force =    -0.01020861   -0.00060603    0.00751769
     atom    6 type  2   force =     0.01173555    0.00022368    0.00684663
     atom    7 type  1   force =    -0.00030903    0.00187318   -0.01238538
     atom    8 type  1   force =     0.00016314    0.00082981   -0.00450167
     atom    9 type  2   force =     0.00038570   -0.00015272   -0.00081323
     atom   10 type  2   force =    -0.00141662    0.00414637   -0.00109099
     atom   11 type  2   force =    -0.00085268   -0.00030483    0.00019528
     atom   12 type  2   force =     0.00086497   -0.00005951    0.00005548
     atom   13 type  1   force =    -0.00013035   -0.00021955    0.00010760
     atom   14 type  1   force =    -0.00004764   -0.00010018    0.00002830
     atom   15 type  2   force =    -0.00066572   -0.00003709   -0.00005659
     atom   16 type  2   force =    -0.00010669    0.00022603   -0.00040899
     atom   17 type  2   force =     0.00031805   -0.00069973    0.00001681
     atom   18 type  2   force =     0.00078819   -0.00062762   -0.00026176
     atom   19 type  1   force =    -0.00080783    0.00014948    0.00145055
     atom   20 type  1   force =     0.00078876   -0.00077498    0.00040495
     atom   21 type  2   force =     0.00002100   -0.00011177    0.10398290
     atom   22 type  2   force =     0.00006954   -0.00061561    0.00031706
     atom   23 type  2   force =    -0.07041787   -0.00020612   -0.02692627
     atom   24 type  2   force =     0.07025345    0.00023617   -0.02697955
     atom   25 type  1   force =    -0.00004793   -0.00021005    0.09284832
     atom   26 type  1   force =    -0.00020430   -0.00053395   -0.17842850
     atom   27 type  2   force =     0.00007151   -0.00013826   -0.01932359
     atom   28 type  2   force =     0.00005542   -0.00157365    0.05816230
     atom   29 type  2   force =    -0.01091119   -0.00007115    0.00843724
     atom   30 type  2   force =     0.01231701    0.00011927    0.00772296
     atom   31 type  1   force =    -0.00029454    0.00668637   -0.01505312
     atom   32 type  1   force =     0.00011230   -0.00073325   -0.00470308
     atom   33 type  2   force =    -0.00022033    0.00034943   -0.00052866
     atom   34 type  2   force =    -0.00111279   -0.00023328   -0.00040673
     atom   35 type  2   force =    -0.00018301   -0.00012087   -0.00015568
     atom   36 type  2   force =     0.00026403   -0.00036449   -0.00025488
     atom   37 type  1   force =     0.00023359   -0.00018749    0.00021573
     atom   38 type  1   force =    -0.00011349    0.00067949    0.00064078
     atom   39 type  2   force =     0.00012961   -0.00110857    0.00102578
     atom   40 type  2   force =     0.00026370    0.00099843   -0.00061597
     atom   41 type  2   force =    -0.00019833    0.00018724   -0.00025751
     atom   42 type  2   force =     0.00117755    0.00017978   -0.00047157
     atom   43 type  1   force =    -0.00114860    0.00003591    0.00035340
     atom   44 type  1   force =     0.00036678   -0.00115590    0.00105341
     atom   45 type  2   force =     0.00001331   -0.00011303    0.10394991
     atom   46 type  2   force =    -0.07039355   -0.00013204   -0.02689716
     atom   47 type  2   force =     0.07024764    0.00028282   -0.02696516
     atom   48 type  3   force =     0.00141018    0.00099270   -0.00024881
     atom   49 type  4   force =     0.00366186    0.00353553    0.00034682
     atom   50 type  5   force =    -0.00436631   -0.00509619   -0.00047930
     atom   51 type  5   force =     0.00015957   -0.00015572   -0.00060692
     atom   52 type  5   force =    -0.00048112   -0.00058916   -0.00051417
     atom   53 type  5   force =     0.00000445    0.00016729   -0.00064683
     atom   54 type  5   force =     0.00018713   -0.00026617   -0.00054230
     atom   55 type  2   force =     0.00036691   -0.00081170    0.00061945
     atom   56 type  5   force =    -0.00074214   -0.00016372    0.00015687
     atom   57 type  5   force =    -0.00098344   -0.00084491    0.00007944

     Total force =     0.366381     Total SCF correction =     0.000737
  @ DRIVER MODE: Message from server: STATUS
  @ DRIVER MODE: Message from server: GETFORCE
  @ DRIVER MODE: Returning v,forces,stress,ensemble

     Writing output data file ./calc.save/
  @ DRIVER MODE: Message from server: EXIT
  @ DRIVE MODE: Exiting

     General routines

     Parallel routines

   This run was terminated on:  20:39:40  22Sep2021

   JOB DONE.