     Program PWSCF v.6.7GPU starts on 16Jul2021 at 21:47:26

     R & G space division:  proc/nbgrp/npool/nimage =      16
     Reading input from /storage/home/hcoda1/3/ntian30/research/carbon/15Jul_vib/ads_slab/CH3N2H_a/out_0040/pw.inp
Warning: card &CELL ignored
Warning: card   CELL_DYNAMICS='IPI', ignored
Warning: card / ignored

     Current dimensions of program PWSCF are:
     Max number of different atomic species (ntypx) = 10
     Max number of k-points (npk) =  40000
     Max angular momentum in pseudopotentials (lmaxx) =  3
     Presently no symmetry can be used with electric field

     Message from routine cell_base_init:
     DEPRECATED: use true lattice parameter, not A to a.u. conversion factor

     IMPORTANT: XC functional enforced from input :
     Exchange-correlation= BEEF-VDW
                           (   1   4  43  14   2   0   0)
     Any further DFT definition will be discarded
     Please, verify this is what you really want

  @ DRIVER MODE: Connecting to
 qe_1139763_2351646.sched-torque.pace.gatech.edu1ufn_3jl_scratch
  using UNIX socket
  @ DRIVER MODE: Message from server: STATUS
  @ DRIVER MODE: Message from server: INIT
  @ DRIVER MODE: Receiving replica           0          -1
  @ DRIVER MODE: Receiving encoded integer          25
  @ DRIVER MODE:  SCF:  T  FORCE:  T  STRESS:  F  VC:  F  ENSEMBLE:  F
  @ DRIVER MODE:  SCF:  T  FORCE:  T  STRESS:  F  VC:  F  ENSEMBLE:  F

     Using Slab Decomposition

     bravais-lattice index     =            0
     lattice parameter (alat)  =       1.8897  a.u.
     unit-cell volume          =    6658.9804 (a.u.)^3
     number of atoms/cell      =           54
     number of atomic types    =            5
     number of electrons       =       396.00
     number of Kohn-Sham states=          208
     kinetic-energy cutoff     =      29.3995  Ry
     charge density cutoff     =     293.9946  Ry
     scf convergence threshold =      7.3E-08
     mixing beta               =       0.0500
     number of iterations used =            8  plain     mixing
     Exchange-correlation= BEEF-VDW
                           (   1   4  43  14   2   0   0)

     celldm(1)=   1.889726  celldm(2)=   0.000000  celldm(3)=   0.000000
     celldm(4)=   0.000000  celldm(5)=   0.000000  celldm(6)=   0.000000

     crystal axes: (cart. coord. in units of alat)
               a(1) = (   6.579727   0.000000   0.000000 )
               a(2) = (  -0.000775   5.961596   0.000000 )
               a(3) = (   0.000000   0.000000  25.155947 )

     reciprocal axes: (cart. coord. in units 2 pi/alat)
               b(1) = (  0.151982  0.000020  0.000000 )
               b(2) = (  0.000000  0.167740  0.000000 )
               b(3) = (  0.000000  0.000000  0.039752 )

     PseudoPot. # 1 for Ti read from file:
     /storage/coda1/p-amedford6/0/shared/rich_project_chbe-medford/medford-share/data/pseudos_module/espresso/nninc/pbe/van/Ti.UPF
     MD5 check sum: 8e4df49b7f0d34bbd5052bf3f5ea0213
     Pseudo is Ultrasoft, Zval = 12.0
     Generated by new atomic code, or converted to UPF format
     Using radial grid of  851 points,  6 beta functions with:
                l(1) =   0
                l(2) =   0
                l(3) =   1
                l(4) =   1
                l(5) =   2
                l(6) =   2
     Q(r) pseudized with  8 coefficients,  rinner =    1.000   1.000   1.000
                                                       1.000   1.000

     PseudoPot. # 2 for O  read from file:
     /storage/coda1/p-amedford6/0/shared/rich_project_chbe-medford/medford-share/data/pseudos_module/espresso/nninc/pbe/van/O.UPF
     MD5 check sum: 78c19812648e8988a0fe644b0f25305e
     Pseudo is Ultrasoft, Zval =  6.0
     Generated by new atomic code, or converted to UPF format
     Using radial grid of  737 points,  4 beta functions with:
                l(1) =   0
                l(2) =   0
                l(3) =   1
                l(4) =   1
     Q(r) pseudized with  8 coefficients,  rinner =    0.800   0.800   0.800

     PseudoPot. # 3 for N  read from file:
     /storage/coda1/p-amedford6/0/shared/rich_project_chbe-medford/medford-share/data/pseudos_module/espresso/nninc/pbe/van/N.UPF
     MD5 check sum: 90d10febe142ad51ac9d5be1deb811c4
     Pseudo is Ultrasoft, Zval =  5.0
     Generated by new atomic code, or converted to UPF format
     Using radial grid of  729 points,  4 beta functions with:
                l(1) =   0
                l(2) =   0
                l(3) =   1
                l(4) =   1
     Q(r) pseudized with  8 coefficients,  rinner =    0.800   0.800   0.800

     PseudoPot. # 4 for C  read from file:
     /storage/coda1/p-amedford6/0/shared/rich_project_chbe-medford/medford-share/data/pseudos_module/espresso/nninc/pbe/van/C.UPF
     MD5 check sum: 1a69bf6b8db32088f5b2163dbdb77a27
     Pseudo is Ultrasoft, Zval =  4.0
     Generated by new atomic code, or converted to UPF format
     Using radial grid of  721 points,  4 beta functions with:
                l(1) =   0
                l(2) =   0
                l(3) =   1
                l(4) =   1
     Q(r) pseudized with  8 coefficients,  rinner =    0.800   0.800   0.800

     PseudoPot. # 5 for H  read from file:
     /storage/coda1/p-amedford6/0/shared/rich_project_chbe-medford/medford-share/data/pseudos_module/espresso/nninc/pbe/van/H.UPF
     MD5 check sum: b5ee9d7bfd3a09ee7748110bda690ff7
     Pseudo is Ultrasoft, Zval =  1.0
     Generated by new atomic code, or converted to UPF format
     Using radial grid of  615 points,  1 beta functions with:
                l(1) =   0
     Q(r) pseudized with  8 coefficients,  rinner =    0.800

     atomic species   valence    mass     pseudopotential
        Ti1           12.00    47.86700     Ti( 1.00)
        O1             6.00    15.99900     O ( 1.00)
        N1             5.00    14.00700     N ( 1.00)
        C1             4.00    12.01100     C ( 1.00)
        H1             1.00     1.00800     H ( 1.00)

     Starting magnetic structure
     atomic species   magnetization
        Ti1          0.000
        O1           0.000
        N1           0.000
        C1           0.025
        H1           0.000

     No symmetry found

   Cartesian axes

     site n.     atom                  positions (alat units)
         1           Ti1 tau(   1) = (   0.0004258   2.9801865   6.0000000  )
         2           Ti1 tau(   2) = (   3.2906075   1.4906267   6.0002472  )
         3           O1  tau(   3) = (   0.0006271   0.0005054   7.9858123  )
         4           O1  tau(   4) = (   3.2906025   0.0005020   7.3038282  )
         5           O1  tau(   5) = (   4.5942328   1.4918067   9.2879030  )
         6           O1  tau(   6) = (   1.9868534   1.4903216   9.2879459  )
         7           Ti1 tau(   7) = (   3.2907910   2.8959150   9.1758416  )
         8           Ti1 tau(   8) = (   0.0015273   1.4827037   9.2680791  )
         9           O1  tau(   9) = (   3.3106937   0.0084137  11.2927479  )
        10           O1  tau(  10) = (   0.0116148   5.9584955  10.6183126  )
        11           O1  tau(  11) = (   1.3255326   1.5151957  12.5859258  )
        12           O1  tau(  12) = (   5.3246634   1.4871208  12.6441624  )
        13           Ti1 tau(  13) = (   6.5358624   2.9940264  12.7507449  )
        14           Ti1 tau(  14) = (   3.1828407   1.5032771  12.4528579  )
        15           O1  tau(  15) = (   0.1336207   0.0073438  14.6266748  )
        16           O1  tau(  16) = (   3.2550344   0.0288700  13.8306396  )
        17           O1  tau(  17) = (   4.6334483   1.5013943  15.9792279  )
        18           O1  tau(  18) = (   2.1409664   1.5470880  15.9954950  )
        19           Ti1 tau(  19) = (   3.4798582   3.0305884  15.6593850  )
        20           Ti1 tau(  20) = (   0.1386493   1.3724552  15.8613965  )
        21           O1  tau(  21) = (   3.2904802   0.0005063   4.7018136  )
        22           O1  tau(  22) = (   0.1429122   0.0333940  17.1908172  )
        23           O1  tau(  23) = (   1.3043587   1.4918075   6.0039043  )
        24           O1  tau(  24) = (   5.2767064   1.4903225   6.0039473  )
        25           Ti1 tau(  25) = (   0.0000382   5.9609847   6.0000000  )
        26           Ti1 tau(  26) = (   3.2902200   4.4714249   6.0002472  )
        27           O1  tau(  27) = (   0.0002396   2.9813036   7.9858123  )
        28           O1  tau(  28) = (   3.2902150   2.9813002   7.3038282  )
        29           O1  tau(  29) = (   4.5938453   4.4726049   9.2879030  )
        30           O1  tau(  30) = (   1.9864658   4.4711199   9.2879459  )
        31           Ti1 tau(  31) = (   3.2891106   5.8743827   9.1763621  )
        32           Ti1 tau(  32) = (   0.0006254   4.4649316   9.2693709  )
        33           O1  tau(  33) = (   3.3137399   2.9960163  11.2943833  )
        34           O1  tau(  34) = (   0.0092240   2.9805883  10.6323155  )
        35           O1  tau(  35) = (   1.3234708   4.4688006  12.5930975  )
        36           O1  tau(  36) = (   5.3222282   4.4932535  12.6449723  )
        37           Ti1 tau(  37) = (   6.5041614   0.0053836  12.5833808  )
        38           Ti1 tau(  38) = (   3.1843229   4.4812189  12.4522442  )
        39           O1  tau(  39) = (   0.0584892   2.9792810  14.6723703  )
        40           O1  tau(  40) = (   3.3232524   2.9928384  13.8523860  )
        41           O1  tau(  41) = (   4.6237859   4.5837569  15.7472905  )
        42           O1  tau(  42) = (   2.1882403   4.4693611  16.1038286  )
        43           Ti1 tau(  43) = (   3.3015484   0.0242660  15.6383815  )
        44           Ti1 tau(  44) = (   0.0181797   4.4930750  16.1931172  )
        45           O1  tau(  45) = (   3.2900926   2.9813045   4.7018136  )
        46           O1  tau(  46) = (   1.3039711   4.4726057   6.0039043  )
        47           O1  tau(  47) = (   5.2763189   4.4711207   6.0039473  )
        48           N1  tau(  48) = (   0.2677213   2.8760844  17.5655548  )
        49           C1  tau(  49) = (   1.2271684   2.7639891  18.6598760  )
        50           H1  tau(  50) = (   1.2930054   3.7106696  19.2072709  )
        51           H1  tau(  51) = (   0.8976878   1.9730418  19.3402421  )
        52           H1  tau(  52) = (   2.2102292   2.4972526  18.2850250  )
        53           N1  tau(  53) = (   5.6732178   3.4927010  17.8452151  )
        54           H1  tau(  54) = (   5.7345573   4.0158295  18.7343860  )

     number of k points=    10  Fermi-Dirac smearing, width (Ry)=  0.0073
                       cart. coord. in units 2pi/alat
        k(    1) = (   0.0000000   0.0000000   0.0000000), wk =   0.0625000
        k(    2) = (   0.0000000   0.0419351   0.0000000), wk =   0.1250000
        k(    3) = (   0.0000000  -0.0838702   0.0000000), wk =   0.0625000
        k(    4) = (   0.0379955   0.0000049   0.0000000), wk =   0.1250000
        k(    5) = (   0.0379955   0.0419400   0.0000000), wk =   0.1250000
        k(    6) = (   0.0379955  -0.0838652   0.0000000), wk =   0.1250000
        k(    7) = (   0.0379955  -0.0419301   0.0000000), wk =   0.1250000
[...]
     % You are using vdW-DF, which was implemented by the Thonhauser group. %
     % Please cite the following two papers that made this development      %
     % possible and the two reviews that describe the various versions:     %
     %                                                                      %
     %   T. Thonhauser et al., PRL 115, 136402 (2015).                      %
     %   T. Thonhauser et al., PRB 76, 125112 (2007).                       %
     %   K. Berland et al., Rep. Prog. Phys. 78, 066501 (2015).             %
     %   D.C. Langreth et al., J. Phys.: Condens. Matter 21, 084203 (2009). %
     %                                                                      %
     %                                                                      %
     % If you are calculating the stress with vdW-DF, please also cite:     %
     %                                                                      %
     %   R. Sabatini et al., J. Phys.: Condens. Matter 24, 424209 (2012).   %
     %                                                                      %
     %%%%%%%%%%%%%%%%%%%%%%%%%%%%%%%%%%%%%%%%%%%%%%%%%%%%%%%%%%%%%%%%%%%%%%%%

     Adding external electric field

     Computed dipole along edir(3) :
        Dipole               -8.2222 Ry au,        -20.8988 Debye
        Dipole field         -0.0155 Ry au,

        Potential amp.        1.4384 Ry
        Total length         46.3494 bohr

[...]

     Starting wfcs are  300 atomic wfcs
  @ DRIVER MODE: Message from server: STATUS
  @ DRIVER MODE: Message from server: POSDATA
  @ DRIVER MODE: Reading and sharing cell
  @ DRIVER MODE: Reading and sharing positions
  @ DRIVER MODE: Received positions

     Self-consistent Calculation

     iteration #  1     ecut=    29.40 Ry     beta= 0.05
     Davidson diagonalization with overlap
     c_bands:  1 eigenvalues not converged
     c_bands:  1 eigenvalues not converged
     c_bands:  1 eigenvalues not converged
     c_bands:  1 eigenvalues not converged
     c_bands:  4 eigenvalues not converged
     c_bands:  1 eigenvalues not converged
     c_bands:  4 eigenvalues not converged
     c_bands:  2 eigenvalues not converged
     c_bands:  1 eigenvalues not converged
     c_bands:  1 eigenvalues not converged
     c_bands:  1 eigenvalues not converged
     c_bands:  1 eigenvalues not converged
     c_bands:  1 eigenvalues not converged
     c_bands:  1 eigenvalues not converged
     c_bands:  4 eigenvalues not converged
     c_bands:  1 eigenvalues not converged
     c_bands:  4 eigenvalues not converged
     c_bands:  2 eigenvalues not converged
     c_bands:  1 eigenvalues not converged
     c_bands:  1 eigenvalues not converged
     ethr =  1.00E-05,  avg # of iterations = 20.0

[...]

     total energy              =   -2607.56576328 Ry
     estimated scf accuracy    <    3675.63027826 Ry

     total magnetization       =     0.00 Bohr mag/cell
     absolute magnetization    =     0.03 Bohr mag/cell

[...]

     iteration #  3     ecut=    29.40 Ry     beta= 0.05
     Davidson diagonalization with overlap
     ethr =  1.00E-02,  avg # of iterations = 14.1

[...]

     iteration # 44     ecut=    29.40 Ry     beta= 0.05
     Davidson diagonalization with overlap
     c_bands:  1 eigenvalues not converged
     c_bands:  1 eigenvalues not converged
     c_bands:  1 eigenvalues not converged
     ethr =  2.30E-06,  avg # of iterations = 11.5

[...]

     total energy              =   -2940.35271431 Ry
     estimated scf accuracy    <       0.00000013 Ry

[...]

     iteration # 92     ecut=    29.40 Ry     beta= 0.05
     Davidson diagonalization with overlap
     ethr =  3.21E-11,  avg # of iterations =  5.5

     negative rho (up, down):  8.755E-03 8.755E-03

[...]

     Adding external electric field

     Computed dipole along edir(3) :
        Dipole                0.7347 Ry au,          1.8675 Debye
        Dipole field          0.0014 Ry au,

        Potential amp.       -0.1285 Ry
        Total length         46.3494 bohr

     Magnetic moment per site  (integrated on atomic sphere of radius R)
     atom   1 (R=0.746)  charge=  8.1023  magn= -0.0009
     atom   2 (R=0.746)  charge=  8.0882  magn= -0.0000
     atom   3 (R=0.746)  charge=  5.0689  magn=  0.0000
     atom   4 (R=0.746)  charge=  5.1051  magn= -0.0000
     atom   5 (R=0.746)  charge=  5.0706  magn= -0.0000
     atom   6 (R=0.746)  charge=  5.0718  magn= -0.0000
     atom   7 (R=0.746)  charge=  8.0835  magn=  0.0000
     atom   8 (R=0.746)  charge=  8.0700  magn= -0.0000
     atom   9 (R=0.746)  charge=  5.0893  magn=  0.0000
     atom  10 (R=0.746)  charge=  5.0576  magn= -0.0000
     atom  11 (R=0.746)  charge=  5.0764  magn=  0.0000
     atom  12 (R=0.746)  charge=  5.0718  magn= -0.0000
     atom  13 (R=0.746)  charge=  8.0706  magn= -0.0000
     atom  14 (R=0.746)  charge=  8.0890  magn= -0.0000
     atom  15 (R=0.746)  charge=  5.0554  magn= -0.0000
     atom  16 (R=0.746)  charge=  5.0986  magn=  0.0000
     atom  17 (R=0.746)  charge=  5.0495  magn= -0.0000
     atom  18 (R=0.746)  charge=  5.0673  magn=  0.0000
     atom  19 (R=0.746)  charge=  8.1077  magn= -0.0000
     atom  20 (R=0.746)  charge=  8.0960  magn= -0.0000
     atom  21 (R=0.746)  charge=  4.9490  magn= -0.0000
     atom  22 (R=0.746)  charge=  5.0410  magn= -0.0000
     atom  23 (R=0.746)  charge=  5.0611  magn=  0.0001
     atom  24 (R=0.746)  charge=  5.0612  magn=  0.0001
     atom  25 (R=0.746)  charge=  8.1022  magn= -0.0010
     atom  26 (R=0.746)  charge=  8.0882  magn= -0.0000
     atom  27 (R=0.746)  charge=  5.0670  magn=  0.0000
     atom  28 (R=0.746)  charge=  5.1052  magn= -0.0000
     atom  29 (R=0.746)  charge=  5.0714  magn= -0.0000
     atom  30 (R=0.746)  charge=  5.0726  magn= -0.0000
     atom  31 (R=0.746)  charge=  8.0844  magn=  0.0000
     atom  32 (R=0.746)  charge=  8.0704  magn= -0.0000
     atom  33 (R=0.746)  charge=  5.0889  magn=  0.0000
     atom  34 (R=0.746)  charge=  5.0200  magn= -0.0001
     atom  35 (R=0.746)  charge=  5.0760  magn=  0.0000
     atom  36 (R=0.746)  charge=  5.0724  magn= -0.0000
     atom  37 (R=0.746)  charge=  8.0775  magn= -0.0000
     atom  38 (R=0.746)  charge=  8.0890  magn= -0.0000
     atom  39 (R=0.746)  charge=  5.0527  magn= -0.0000
     atom  40 (R=0.746)  charge=  5.0891  magn=  0.0000
     atom  41 (R=0.746)  charge=  5.0851  magn=  0.0000
     atom  42 (R=0.746)  charge=  5.0438  magn= -0.0000
     atom  43 (R=0.746)  charge=  8.1144  magn= -0.0000
     atom  44 (R=0.746)  charge=  8.1353  magn= -0.0003
     atom  45 (R=0.746)  charge=  4.9490  magn= -0.0000
     atom  46 (R=0.746)  charge=  5.0611  magn=  0.0001
     atom  47 (R=0.746)  charge=  5.0612  magn=  0.0001
     atom  48 (R=0.426)  charge=  1.3657  magn= -0.0003
     atom  49 (R=0.448)  charge=  0.8421  magn=  0.0000
     atom  50 (R=0.426)  charge=  0.4550  magn= -0.0000
     atom  51 (R=0.426)  charge=  0.4536  magn= -0.0000
     atom  52 (R=0.426)  charge=  0.4604  magn= -0.0000
     atom  53 (R=0.426)  charge=  1.3656  magn= -0.0003
     atom  54 (R=0.426)  charge=  0.4600  magn= -0.0000

     End of self-consistent calculation

 ------ SPIN UP ------------

          k = 0.0000 0.0000 0.0000 ( 18029 PWs)   bands (ev):

   -56.0238 -55.9898 -55.8054 -55.7665 -55.7266 -55.6922 -55.6646 -55.6408
   -55.6304 -55.6062 -55.5762 -55.4963 -55.2416 -54.9208 -54.8868 -54.7870
   -32.4907 -32.3473 -32.3176 -32.2942 -32.1933 -32.1782 -32.1672 -32.1303
   -32.1135 -32.1000 -32.0843 -32.0462 -32.0219 -31.9828 -31.9771 -31.9741
   -31.9433 -31.9320 -31.9204 -31.8977 -31.8879 -31.8704 -31.8654 -31.8596
   -31.8409 -31.8384 -31.8307 -31.8259 -31.8209 -31.8021 -31.7950 -31.7949
   -31.7771 -31.7535 -31.6925 -31.6650 -31.6169 -31.4681 -31.4650 -31.3240
   -31.2448 -31.2219 -31.2050 -31.1413 -31.0553 -30.9914 -30.9440 -30.9113
   -17.2999 -16.5602 -16.3698 -16.0797 -15.9285 -15.9081 -15.7894 -15.6927
   -15.6154 -15.5159 -15.4620 -15.4079 -15.3962 -15.3698 -15.3111 -15.2896
   -15.2479 -15.2308 -15.1877 -15.1767 -15.1305 -15.1098 -15.0865 -15.0517
   -14.9875 -14.9167 -14.9048 -14.7473 -14.6088 -14.4553 -13.4215 -13.3066
   -11.5424  -8.3183  -5.0036  -4.0107  -3.9469  -3.8774  -3.8376  -3.7751
    -3.6940  -3.4430  -3.4187  -3.3586  -3.0721  -3.0243  -3.0004  -2.9958
    -2.8978  -2.7590  -2.7279  -2.6680  -2.6620  -2.6416  -2.6214  -2.6046
    -2.5474  -2.4905  -2.4746  -2.4331  -2.2995  -2.2724  -2.2682  -2.2464
    -2.1763  -2.1673  -2.1026  -2.0855  -2.0626  -2.0444  -2.0068  -1.8735
    -1.8400  -1.7751  -1.6933  -1.6053  -1.5257  -1.4895  -1.4011  -1.3881
    -1.3382  -1.2622  -1.2551  -1.1792  -1.1471  -1.0700  -1.0453  -1.0080
    -0.8996  -0.8708  -0.8134  -0.7556  -0.7118  -0.6975  -0.6571  -0.6325
    -0.6270  -0.6121  -0.5994  -0.4042  -0.3751  -0.2323  -0.1866  -0.1619
    -0.1214  -0.0981  -0.0398  -0.0169  -0.0112   0.0280   0.0463   0.0894
     0.1455   0.1611   0.1861   0.2801   0.3124   0.3670   0.4933   0.5066
     0.5951   0.6617   0.7684   0.7800   0.8332   0.9650   1.0588   1.0845
     1.1019   1.3071   1.4126   1.6658   1.7083   3.0241   3.1695   3.2658
     3.3731   3.4936   3.5693   3.6073   3.7824   3.8210   3.8622   3.9189

[...]

          k =-0.0760-0.0000 0.0000 ( 17886 PWs)   bands (ev):

[...]

 ------ SPIN DOWN ----------

[...]

          k = 0.0380-0.0419 0.0000 ( 17876 PWs)   bands (ev):

[...]

          k =-0.0760-0.0839 0.0000 ( 17948 PWs)   bands (ev):

   -56.0095 -56.0074 -55.7933 -55.7785 -55.7130 -55.7055 -55.6491 -55.6457
   -55.6274 -55.6195 -55.5723 -55.5001 -55.2409 -54.9037 -54.9037 -54.7875
   -32.3079 -32.3070 -32.3052 -32.3036 -32.1549 -32.1427 -32.1324 -32.1302
   -32.0512 -32.0385 -32.0283 -32.0251 -32.0180 -32.0149 -31.9721 -31.9666
   -31.9566 -31.9445 -31.9134 -31.9039 -31.8917 -31.8874 -31.8826 -31.8814
   -31.8758 -31.8725 -31.8570 -31.8512 -31.8446 -31.8420 -31.8370 -31.8179
   -31.7976 -31.7952 -31.7651 -31.7064 -31.6070 -31.4704 -31.4642 -31.2551
   -31.2347 -31.2346 -31.1373 -31.1371 -31.0984 -31.0983 -31.0033 -30.9153
   -17.2813 -15.9771 -15.9488 -15.8421 -15.8228 -15.7337 -15.7205 -15.6058
   -15.5980 -15.5849 -15.5186 -15.4733 -15.4627 -15.3796 -15.3532 -15.3416
   -15.3176 -15.3079 -15.3013 -15.2903 -15.2771 -15.1985 -15.1932 -15.1896
   -15.1144 -15.0925 -14.9056 -14.8625 -14.6640 -14.6198 -13.4093 -13.4088
   -11.5462  -8.2985  -5.0104  -3.9101  -3.8327  -3.2792  -3.2431  -3.0281
    -3.0017  -2.9813  -2.9526  -2.7675  -2.7535  -2.7475  -2.7299  -2.7169
    -2.6796  -2.6606  -2.6477  -2.5819  -2.5722  -2.5522  -2.5474  -2.5369
    -2.5183  -2.5030  -2.4952  -2.4757  -2.4601  -2.4156  -2.3611  -2.3388
    -2.2882  -2.1940  -2.0892  -2.0446  -2.0313  -2.0231  -2.0000  -1.9909
    -1.9497  -1.9370  -1.8513  -1.6661  -1.6186  -1.5587  -1.5525  -1.5432
    -1.4852  -1.4290  -1.3861  -1.3109  -1.2445  -1.1932  -1.1636  -1.1399
    -1.1042  -1.0376  -0.9721  -0.9518  -0.9397  -0.9113  -0.9082  -0.8893
    -0.8108  -0.7274  -0.6856  -0.6567  -0.6340  -0.6204  -0.6047  -0.5813
    -0.4740  -0.4065  -0.3584  -0.3132  -0.2702  -0.2281  -0.1099  -0.0952
     0.1003   0.1652   0.1901   0.2694   0.3662   0.3912   0.4013   0.4670
     0.5431   0.6049   0.6396   0.6939   0.7089   0.7302   0.7973   1.0178
     1.0679   1.4758   1.4774   1.5263   1.5273   2.9865   3.6696   3.6766
     3.6800   3.6899   3.7113   3.7350   3.7874   3.8221   3.9232   3.9442

     the Fermi energy is     3.1335 ev

!    total energy              =   -2940.35271657 Ry
     estimated scf accuracy    <       0.00000006 Ry
     smearing contrib. (-TS)   =      -0.01867240 Ry
     internal energy E=F+TS    =   -2940.33404418 Ry

     The total energy is F=E-TS. E is the sum of the following terms:
     one-electron contribution =  -24661.62212906 Ry
     hartree contribution      =   12419.94067574 Ry
     xc contribution           =    -486.04728095 Ry
     ewald contribution        =    9787.39367139 Ry
     electric field correction =       0.00101871 Ry

     total magnetization       =    -0.01 Bohr mag/cell
     absolute magnetization    =     0.01 Bohr mag/cell

     convergence has been achieved in  92 iterations

     Forces acting on atoms (cartesian axes, Ry/au):

     atom    1 type  1   force =     0.00023481   -0.00036409    0.10154520
     atom    2 type  1   force =     0.00001726   -0.00086141   -0.17139587
     atom    3 type  2   force =     0.00029100    0.00021855   -0.03327586
     atom    4 type  2   force =     0.00003285   -0.00078851    0.04481126
     atom    5 type  2   force =    -0.01195014   -0.00020946   -0.00233841
     atom    6 type  2   force =     0.01438370    0.00038496   -0.00114076
     atom    7 type  1   force =     0.00140409   -0.00131261   -0.00428458
     atom    8 type  1   force =    -0.00077019    0.02219700    0.05622456
     atom    9 type  2   force =     0.00002923   -0.00032907    0.00044070
     atom   10 type  2   force =    -0.00266650    0.00207287   -0.02598892
     atom   11 type  2   force =     0.00003514    0.00024656   -0.00007709
     atom   12 type  2   force =     0.00009993    0.00073365    0.00000346
     atom   13 type  1   force =    -0.00003026    0.00014385    0.00031000
     atom   14 type  1   force =     0.00028059    0.00029710    0.00004439
     atom   15 type  2   force =     0.00017223   -0.00017031   -0.00004504
     atom   16 type  2   force =    -0.00002382   -0.00013370    0.00071808
     atom   17 type  2   force =    -0.00011359   -0.00077204    0.00002600
     atom   18 type  2   force =     0.00050097   -0.00071308    0.00027069
     atom   19 type  1   force =    -0.00009412   -0.00046132    0.00026528
     atom   20 type  1   force =    -0.00001175    0.00004210   -0.00011902
     atom   21 type  2   force =     0.00006409   -0.00001161    0.10212486
     atom   22 type  2   force =    -0.00003479   -0.00024017    0.00032009
     atom   23 type  2   force =    -0.07331508   -0.00015866   -0.02887959
     atom   24 type  2   force =     0.07326614    0.00033556   -0.02892655
     atom   25 type  1   force =    -0.00027089   -0.00030133    0.10198697
     atom   26 type  1   force =     0.00003463   -0.00020289   -0.17139892
     atom   27 type  2   force =     0.00036558   -0.00022961   -0.03199360
     atom   28 type  2   force =     0.00009337   -0.00057275    0.04542923
     atom   29 type  2   force =    -0.01209807    0.00213195   -0.00289435
     atom   30 type  2   force =     0.01441027    0.00229337   -0.00163840
     atom   31 type  1   force =     0.00158598    0.00092578   -0.00558870
     atom   32 type  1   force =    -0.00059630   -0.02475972    0.05725773
     atom   33 type  2   force =     0.00015292    0.00035831    0.00060443
     atom   34 type  2   force =    -0.00420833    0.00211990   -0.04837205
     atom   35 type  2   force =     0.00062122   -0.00058543   -0.00000573
     atom   36 type  2   force =    -0.00039133   -0.00074699    0.00012478
     atom   37 type  1   force =     0.00006470    0.00062053    0.00003791
     atom   38 type  1   force =     0.00003811   -0.00011336   -0.00008762
     atom   39 type  2   force =     0.00018808   -0.00003744   -0.00072145
     atom   40 type  2   force =    -0.00008450   -0.00003730   -0.00036756
     atom   41 type  2   force =    -0.00001581    0.00050757   -0.00006169
     atom   42 type  2   force =     0.00005918    0.00036586    0.00068186
     atom   43 type  1   force =    -0.00024739   -0.00013687    0.00020683
     atom   44 type  1   force =     0.00006851   -0.00006380    0.00005976
     atom   45 type  2   force =     0.00004641   -0.00004772    0.10218622
     atom   46 type  2   force =    -0.07332071   -0.00009358   -0.02884906
     atom   47 type  2   force =     0.07327289    0.00028158   -0.02888710
     atom   48 type  3   force =    -0.00061332    0.00108210    0.00147891
     atom   49 type  4   force =    -0.00017170   -0.00050671   -0.00011313
     atom   50 type  5   force =    -0.00008713   -0.00021224   -0.00011958
     atom   51 type  5   force =    -0.00053895   -0.00043752    0.00051097
     atom   52 type  5   force =    -0.00017126   -0.00046171    0.00017404
     atom   53 type  3   force =    -0.00018569    0.00330988    0.00584320
     atom   54 type  5   force =     0.00019772   -0.00459604   -0.00611677

     Total force =     0.377980     Total SCF correction =     0.000466
  @ DRIVER MODE: Message from server: STATUS
  @ DRIVER MODE: Message from server: GETFORCE
  @ DRIVER MODE: Returning v,forces,stress,ensemble

     Writing output data file ./calc.save/
  @ DRIVER MODE: Message from server: EXIT
  @ DRIVE MODE: Exiting

     General routines

     Parallel routines

   This run was terminated on:  22:20:25  16Jul2021

   JOB DONE.