     Program PWSCF v.6.7GPU starts on 16Sep2021 at 15: 9:10

     R & G space division:  proc/nbgrp/npool/nimage =      10
     Reading input from /storage/home/hcoda1/3/ntian30/research/carbon/CxH_vib/H2O_calc/ads_slab/CH2NNHHHH2O_a/out_0065/pw.inp
Warning: card &CELL ignored
Warning: card   CELL_DYNAMICS='IPI', ignored
Warning: card / ignored

     Current dimensions of program PWSCF are:
     Max number of different atomic species (ntypx) = 10
     Max number of k-points (npk) =  40000
     Max angular momentum in pseudopotentials (lmaxx) =  3
     Presently no symmetry can be used with electric field

     Message from routine cell_base_init:
     DEPRECATED: use true lattice parameter, not A to a.u. conversion factor

     IMPORTANT: XC functional enforced from input :
     Exchange-correlation= BEEF-VDW
                           (   1   4  43  14   2   0   0)
     Any further DFT definition will be discarded
     Please, verify this is what you really want

  @ DRIVER MODE: Connecting to
 qe_1139763_2852612.sched-torque.pace.gatech.eduiep3434z_scratch
  using UNIX socket
  @ DRIVER MODE: Message from server: STATUS
  @ DRIVER MODE: Message from server: INIT
  @ DRIVER MODE: Receiving replica           0          -1
  @ DRIVER MODE: Receiving encoded integer          25
  @ DRIVER MODE:  SCF:  T  FORCE:  T  STRESS:  F  VC:  F  ENSEMBLE:  F
  @ DRIVER MODE:  SCF:  T  FORCE:  T  STRESS:  F  VC:  F  ENSEMBLE:  F

     Using Slab Decomposition

     bravais-lattice index     =            0
     lattice parameter (alat)  =       1.8897  a.u.
     unit-cell volume          =    6658.9804 (a.u.)^3
     number of atoms/cell      =           58
     number of atomic types    =            5
     number of electrons       =       405.00
     number of Kohn-Sham states=          212
     kinetic-energy cutoff     =      29.3995  Ry
     charge density cutoff     =     293.9946  Ry
     scf convergence threshold =      7.3E-08
     mixing beta               =       0.0500
     number of iterations used =            8  plain     mixing
     Exchange-correlation= BEEF-VDW
                           (   1   4  43  14   2   0   0)

     celldm(1)=   1.889726  celldm(2)=   0.000000  celldm(3)=   0.000000
     celldm(4)=   0.000000  celldm(5)=   0.000000  celldm(6)=   0.000000

     crystal axes: (cart. coord. in units of alat)
               a(1) = (   6.579727   0.000000   0.000000 )
               a(2) = (  -0.000775   5.961596   0.000000 )
               a(3) = (   0.000000   0.000000  25.155947 )

     reciprocal axes: (cart. coord. in units 2 pi/alat)
               b(1) = (  0.151982  0.000020  0.000000 )
               b(2) = (  0.000000  0.167740  0.000000 )
               b(3) = (  0.000000  0.000000  0.039752 )

     PseudoPot. # 1 for Ti read from file:
     /storage/coda1/p-amedford6/0/shared/rich_project_chbe-medford/medford-share/data/pseudos_module/espresso/nninc/pbe/van/Ti.UPF
     MD5 check sum: 8e4df49b7f0d34bbd5052bf3f5ea0213
     Pseudo is Ultrasoft, Zval = 12.0
     Generated by new atomic code, or converted to UPF format
     Using radial grid of  851 points,  6 beta functions with:
                l(1) =   0
                l(2) =   0
                l(3) =   1
                l(4) =   1
                l(5) =   2
                l(6) =   2
     Q(r) pseudized with  8 coefficients,  rinner =    1.000   1.000   1.000
                                                       1.000   1.000

     PseudoPot. # 2 for O  read from file:
     /storage/coda1/p-amedford6/0/shared/rich_project_chbe-medford/medford-share/data/pseudos_module/espresso/nninc/pbe/van/O.UPF
     MD5 check sum: 78c19812648e8988a0fe644b0f25305e
     Pseudo is Ultrasoft, Zval =  6.0
     Generated by new atomic code, or converted to UPF format
     Using radial grid of  737 points,  4 beta functions with:
                l(1) =   0
                l(2) =   0
                l(3) =   1
                l(4) =   1
     Q(r) pseudized with  8 coefficients,  rinner =    0.800   0.800   0.800

     PseudoPot. # 3 for N  read from file:
     /storage/coda1/p-amedford6/0/shared/rich_project_chbe-medford/medford-share/data/pseudos_module/espresso/nninc/pbe/van/N.UPF
     MD5 check sum: 90d10febe142ad51ac9d5be1deb811c4
     Pseudo is Ultrasoft, Zval =  5.0
     Generated by new atomic code, or converted to UPF format
     Using radial grid of  729 points,  4 beta functions with:
                l(1) =   0
                l(2) =   0
                l(3) =   1
                l(4) =   1
     Q(r) pseudized with  8 coefficients,  rinner =    0.800   0.800   0.800

     PseudoPot. # 4 for C  read from file:
     /storage/coda1/p-amedford6/0/shared/rich_project_chbe-medford/medford-share/data/pseudos_module/espresso/nninc/pbe/van/C.UPF
     MD5 check sum: 1a69bf6b8db32088f5b2163dbdb77a27
     Pseudo is Ultrasoft, Zval =  4.0
     Generated by new atomic code, or converted to UPF format
     Using radial grid of  721 points,  4 beta functions with:
                l(1) =   0
                l(2) =   0
                l(3) =   1
                l(4) =   1
     Q(r) pseudized with  8 coefficients,  rinner =    0.800   0.800   0.800

     PseudoPot. # 5 for H  read from file:
     /storage/coda1/p-amedford6/0/shared/rich_project_chbe-medford/medford-share/data/pseudos_module/espresso/nninc/pbe/van/H.UPF
     MD5 check sum: b5ee9d7bfd3a09ee7748110bda690ff7
     Pseudo is Ultrasoft, Zval =  1.0
     Generated by new atomic code, or converted to UPF format
     Using radial grid of  615 points,  1 beta functions with:
                l(1) =   0
     Q(r) pseudized with  8 coefficients,  rinner =    0.800

     atomic species   valence    mass     pseudopotential
        Ti1           12.00    47.86700     Ti( 1.00)
        O1             6.00    15.99900     O ( 1.00)
        N1             5.00    14.00700     N ( 1.00)
        C1             4.00    12.01100     C ( 1.00)
        H1             1.00     1.00800     H ( 1.00)

     No symmetry found

   Cartesian axes

     site n.     atom                  positions (alat units)
         1           Ti1 tau(   1) = (   0.0004258   2.9801865   6.0000000  )
         2           Ti1 tau(   2) = (   3.2906075   1.4906267   6.0002472  )
         3           O1  tau(   3) = (   0.0006271   0.0005054   7.9858123  )
         4           O1  tau(   4) = (   3.2906025   0.0005020   7.3038282  )
         5           O1  tau(   5) = (   4.5942328   1.4918067   9.2879030  )
         6           O1  tau(   6) = (   1.9868534   1.4903216   9.2879459  )
         7           Ti1 tau(   7) = (   3.2907910   2.8959150   9.1758416  )
         8           Ti1 tau(   8) = (   0.0015273   1.4827037   9.2680791  )
         9           O1  tau(   9) = (   3.2987819   5.9401718  11.3551833  )
        10           O1  tau(  10) = (   0.0116148   5.9584955  10.6183126  )
        11           O1  tau(  11) = (   1.3094369   1.4889762  12.6418845  )
        12           O1  tau(  12) = (   5.3041503   1.4933078  12.6143371  )
        13           Ti1 tau(  13) = (   0.0302489   2.9730182  12.5448133  )
        14           Ti1 tau(  14) = (   3.3273137   1.4751619  12.4920661  )
        15           O1  tau(  15) = (   6.5331299   0.0759724  14.6728253  )
        16           O1  tau(  16) = (   3.3443954   0.0128112  13.9985917  )
        17           O1  tau(  17) = (   4.5384157   1.5150964  16.2525342  )
        18           O1  tau(  18) = (   2.0107438   1.5096167  16.1239609  )
        19           Ti1 tau(  19) = (   3.2468703   2.9375149  15.6823127  )
        20           Ti1 tau(  20) = (   6.5402329   1.3810098  16.1103674  )
        21           O1  tau(  21) = (   3.2904802   0.0005063   4.7018136  )
        22           O1  tau(  22) = (   0.0855018   5.8309792  17.2460454  )
        23           O1  tau(  23) = (   1.3043587   1.4918075   6.0039043  )
        24           O1  tau(  24) = (   5.2767064   1.4903225   6.0039473  )
        25           Ti1 tau(  25) = (   0.0000382   5.9609847   6.0000000  )
        26           Ti1 tau(  26) = (   3.2902200   4.4714249   6.0002472  )
        27           O1  tau(  27) = (   0.0002396   2.9813036   7.9858123  )
        28           O1  tau(  28) = (   3.2902150   2.9813002   7.3038282  )
        29           O1  tau(  29) = (   4.5938453   4.4726049   9.2879030  )
        30           O1  tau(  30) = (   1.9864658   4.4711199   9.2879459  )
        31           Ti1 tau(  31) = (   3.2891106   5.8743827   9.1763621  )
        32           Ti1 tau(  32) = (   0.0006254   4.4649316   9.2693709  )
        33           O1  tau(  33) = (   3.2978634   2.9839445  11.3486163  )
        34           O1  tau(  34) = (   0.0092240   2.9805883  10.6323155  )
        35           O1  tau(  35) = (   1.3057425   4.4725738  12.6940039  )
        36           O1  tau(  36) = (   5.3035974   4.4670288  12.6562451  )
        37           Ti1 tau(  37) = (   0.0240142   0.0094741  12.5095027  )
        38           Ti1 tau(  38) = (   3.3290383   4.4615466  12.5202027  )
        39           O1  tau(  39) = (   6.5484913   2.9337383  14.8377676  )
        40           O1  tau(  40) = (   3.3243726   2.9440003  13.9069550  )
        41           O1  tau(  41) = (   4.5478640   4.3999133  16.1372545  )
        42           O1  tau(  42) = (   2.0209518   4.4226222  15.9786897  )
        43           Ti1 tau(  43) = (   3.3220059   5.9437776  15.8132296  )
        44           Ti1 tau(  44) = (   0.0730556   4.5544523  15.7304118  )
        45           O1  tau(  45) = (   3.2900926   2.9813045   4.7018136  )
        46           O1  tau(  46) = (   1.3039711   4.4726057   6.0039043  )
        47           O1  tau(  47) = (   5.2763189   4.4711207   6.0039473  )
        48           N1  tau(  48) = (   0.0453545   2.8788619  17.9090770  )
        49           C1  tau(  49) = (   1.0089482   2.8008358  18.8431878  )
        50           H1  tau(  50) = (   1.0080222   3.4413729  19.7168629  )
        51           H1  tau(  51) = (   1.8954070   2.2543435  18.5800802  )
        52           N1  tau(  52) = (   5.5320326   3.6725468  18.4365114  )
        53           H1  tau(  53) = (   5.8975581   4.6271042  18.6377988  )
        54           H1  tau(  54) = (   4.8553295   3.8628436  17.6443034  )
        55           H1  tau(  55) = (   5.1025442   3.2364756  19.2632064  )
        56           O1  tau(  56) = (   2.8928424   5.6518753  18.2681889  )
        57           H1  tau(  57) = (   3.0708471   0.5134993  18.7460362  )
        58           H1  tau(  58) = (   1.9180978   5.6479514  18.1014729  )

     number of k points=    10  Fermi-Dirac smearing, width (Ry)=  0.0073
                       cart. coord. in units 2pi/alat
        k(    1) = (   0.0000000   0.0000000   0.0000000), wk =   0.1250000
        k(    2) = (   0.0000000   0.0419351   0.0000000), wk =   0.2500000
        k(    3) = (   0.0000000  -0.0838702   0.0000000), wk =   0.1250000
        k(    4) = (   0.0379955   0.0000049   0.0000000), wk =   0.2500000
        k(    5) = (   0.0379955   0.0419400   0.0000000), wk =   0.2500000
        k(    6) = (   0.0379955  -0.0838652   0.0000000), wk =   0.2500000
        k(    7) = (   0.0379955  -0.0419301   0.0000000), wk =   0.2500000
        k(    8) = (  -0.0759910  -0.0000099   0.0000000), wk =   0.1250000
        k(    9) = (  -0.0759910   0.0419252   0.0000000), wk =   0.2500000
        k(   10) = (  -0.0759910  -0.0838800   0.0000000), wk =   0.1250000

     Initial potential from superposition of free atoms

     starting charge  388.99913, renormalised to  405.00000

     negative rho (up, down):  1.580E-02 0.000E+00

     %%%%%%%%%%%%%%%%%%%%%%%%%%%%%%%%%%%%%%%%%%%%%%%%%%%%%%%%%%%%%%%%%%%%%%%%
     %                                                                      %
     % You are using vdW-DF, which was implemented by the Thonhauser group. %
     % Please cite the following two papers that made this development      %
     % possible and the two reviews that describe the various versions:     %
     %                                                                      %
     %   T. Thonhauser et al., PRL 115, 136402 (2015).                      %
     %   T. Thonhauser et al., PRB 76, 125112 (2007).                       %
     %   K. Berland et al., Rep. Prog. Phys. 78, 066501 (2015).             %
     %   D.C. Langreth et al., J. Phys.: Condens. Matter 21, 084203 (2009). %
     %                                                                      %
     %                                                                      %
     % If you are calculating the stress with vdW-DF, please also cite:     %
     %                                                                      %
     %   R. Sabatini et al., J. Phys.: Condens. Matter 24, 424209 (2012).   %
     %                                                                      %
     %%%%%%%%%%%%%%%%%%%%%%%%%%%%%%%%%%%%%%%%%%%%%%%%%%%%%%%%%%%%%%%%%%%%%%%%

     Adding external electric field

     Computed dipole along edir(3) :
        Dipole              -14.4808 Ry au,        -36.8066 Debye
        Dipole field         -0.0273 Ry au,

        Potential amp.        2.5332 Ry
        Total length         46.3494 bohr

     Starting wfcs are  307 atomic wfcs
  @ DRIVER MODE: Message from server: STATUS
  @ DRIVER MODE: Message from server: POSDATA
  @ DRIVER MODE: Reading and sharing cell
  @ DRIVER MODE: Reading and sharing positions
  @ DRIVER MODE: Received positions

     Self-consistent Calculation

     iteration #  1     ecut=    29.40 Ry     beta= 0.05
     Davidson diagonalization with overlap
     c_bands:  2 eigenvalues not converged
     c_bands:  5 eigenvalues not converged
     c_bands:  1 eigenvalues not converged
     c_bands:  3 eigenvalues not converged
     c_bands:  3 eigenvalues not converged
     c_bands:  4 eigenvalues not converged
     ethr =  1.00E-05,  avg # of iterations = 27.0

[...]

     total energy              =   -2173.30898583 Ry
     estimated scf accuracy    <    9120.89184112 Ry

     iteration #  2     ecut=    29.40 Ry     beta= 0.05
     Davidson diagonalization with overlap
     ethr =  1.00E-02,  avg # of iterations = 27.1

[...]

     iteration # 78     ecut=    29.40 Ry     beta= 0.05
     Davidson diagonalization with overlap
     ethr =  2.51E-11,  avg # of iterations = 12.5

[...]

     total energy              =   -2976.32717728 Ry
     estimated scf accuracy    <       0.00000010 Ry

     iteration # 79     ecut=    29.40 Ry     beta= 0.05
     Davidson diagonalization with overlap
     c_bands:  1 eigenvalues not converged
     ethr =  2.43E-11,  avg # of iterations = 16.1

     negative rho (up, down):  1.317E-02 0.000E+00

     Adding external electric field

     Computed dipole along edir(3) :
        Dipole                1.3371 Ry au,          3.3986 Debye
        Dipole field          0.0025 Ry au,

        Potential amp.       -0.2339 Ry
        Total length         46.3494 bohr

     End of self-consistent calculation

          k = 0.0000 0.0000 0.0000 ( 18029 PWs)   bands (ev):

   -55.1720 -55.1429 -55.1311 -55.1088 -55.0925 -55.0493 -55.0082 -54.9819
   -54.9708 -54.9554 -54.9463 -54.9380 -54.8729 -54.7259 -54.1549 -54.1209
   -31.7387 -31.6327 -31.5367 -31.5028 -31.4816 -31.4740 -31.4710 -31.4327
   -31.4096 -31.3879 -31.3818 -31.3794 -31.3680 -31.3464 -31.3199 -31.3170
   -31.3070 -31.2955 -31.2897 -31.2850 -31.2542 -31.2370 -31.2305 -31.2110
   -31.1997 -31.1821 -31.1800 -31.1793 -31.1705 -31.1677 -31.1511 -31.1419
   -31.1320 -31.1308 -31.1085 -31.1010 -31.0971 -31.0793 -31.0541 -31.0178
   -31.0027 -30.8719 -30.5633 -30.4714 -30.4492 -30.3800 -30.2933 -30.1822
   -19.0900 -18.7836 -16.0091 -15.7515 -15.6242 -15.4466 -15.3666 -15.2130
   -15.1432 -15.0604 -15.0333 -14.9688 -14.9314 -14.8996 -14.7868 -14.7796
   -14.7065 -14.7062 -14.6979 -14.6652 -14.6616 -14.6581 -14.6014 -14.5986
   -14.5592 -14.5480 -14.5357 -14.3937 -14.3187 -14.2617 -14.0915 -13.9770
   -12.6569 -12.5398  -9.0025  -7.6886  -6.9449  -6.5520  -5.7620  -3.8008
    -3.3464  -3.2114  -3.1757  -3.1140  -3.0722  -2.9783  -2.8942  -2.7721
    -2.5549  -2.4776  -2.4377  -2.3887  -2.3802  -2.3335  -2.2456  -2.1612
    -2.1289  -2.0931  -2.0430  -2.0281  -1.9870  -1.9608  -1.9415  -1.9001
    -1.8903  -1.7446  -1.6858  -1.6297  -1.5817  -1.5607  -1.5589  -1.5016
    -1.4882  -1.4664  -1.4635  -1.4532  -1.4227  -1.3862  -1.3807  -1.3277
    -1.2903  -1.1646  -1.0906  -0.9754  -0.9158  -0.8837  -0.8007  -0.7321
    -0.7158  -0.6437  -0.5793  -0.5599  -0.5026  -0.4653  -0.3741  -0.3403
    -0.2916  -0.2651  -0.1566  -0.1436  -0.1278  -0.0571   0.0323   0.0412
     0.0653   0.1104   0.1948   0.2296   0.2835   0.3099   0.4097   0.4410
     0.4829   0.5006   0.5261   0.6075   0.6783   0.7155   0.7764   0.7857
     0.8204   0.8255   0.8484   0.9425   0.9731   0.9783   1.0263   1.1930
     1.2485   1.4498   1.4516   1.7821   1.8177   1.8682   2.0545   2.4421
     2.4894   3.9271   3.9933   4.0419   4.0588   4.0772   4.1351   4.1697
     4.3976   4.4204   4.4346   4.4481

[...]

          k = 0.0380-0.0419 0.0000 ( 17876 PWs)   bands (ev):

[...]

          k =-0.0760-0.0000 0.0000 ( 17886 PWs)   bands (ev):

[...]

          k =-0.0760-0.0839 0.0000 ( 17948 PWs)   bands (ev):

   -55.1613 -55.1416 -55.1258 -55.1258 -55.0903 -55.0400 -55.0175 -54.9663
   -54.9606 -54.9574 -54.9558 -54.9540 -54.8711 -54.7276 -54.1379 -54.1378
   -31.5498 -31.5350 -31.4479 -31.4478 -31.4475 -31.4378 -31.4181 -31.4181
   -31.3835 -31.3780 -31.3685 -31.3668 -31.3366 -31.3086 -31.3010 -31.2988
   -31.2963 -31.2927 -31.2902 -31.2853 -31.2764 -31.2624 -31.2484 -31.2450
   -31.2449 -31.2429 -31.2403 -31.2142 -31.1995 -31.1916 -31.1805 -31.1759
   -31.1756 -31.1749 -31.1567 -31.1548 -31.1357 -31.1333 -31.0720 -31.0102
   -31.0065 -30.9458 -30.4619 -30.4618 -30.3760 -30.3758 -30.3367 -30.3366
   -19.0827 -18.7865 -15.5109 -15.3749 -15.3361 -15.2459 -15.1643 -15.1477
   -15.1401 -15.1061 -15.0540 -14.9939 -14.9492 -14.9145 -14.8734 -14.8720
   -14.8593 -14.7587 -14.7477 -14.7402 -14.7233 -14.6751 -14.6654 -14.6486
   -14.6233 -14.6217 -14.5965 -14.5159 -14.5149 -14.4169 -14.3128 -14.0377
   -12.6415 -12.6414  -8.9900  -7.7042  -6.9016  -6.5417  -5.7762  -3.8821
    -2.9901  -2.7687  -2.5742  -2.5457  -2.4271  -2.3749  -2.3292  -2.3079
    -2.2215  -2.1813  -2.1646  -2.1585  -2.1388  -2.0816  -2.0604  -2.0213
    -2.0015  -1.9873  -1.9790  -1.9545  -1.9495  -1.9181  -1.9015  -1.8831
    -1.8772  -1.8406  -1.8018  -1.7907  -1.7531  -1.7324  -1.7241  -1.6671
    -1.5677  -1.5349  -1.4908  -1.4253  -1.3618  -1.3581  -1.2881  -1.2685
    -1.2498  -1.2316  -1.1960  -1.1838  -1.0710  -1.0146  -0.9099  -0.8972
    -0.8914  -0.7867  -0.7524  -0.7111  -0.6807  -0.6434  -0.5879  -0.5099
    -0.5023  -0.4269  -0.3890  -0.3779  -0.3591  -0.2190  -0.1875  -0.1546
    -0.1302  -0.1256  -0.0718  -0.0287   0.0016   0.0391   0.0661   0.0989
     0.1151   0.1909   0.3278   0.3599   0.4015   0.5341   0.5619   0.6766
     0.7027   0.8227   0.8966   0.9411   0.9614   1.0390   1.1147   1.1376
     1.1434   1.2545   1.3052   1.3072   1.3246   2.2270   2.2285   2.3094
     2.3096   3.7814   4.0726   4.1979   4.2145   4.2555   4.3792   4.4445
     4.4798   4.5016   4.5858   4.5909

     the Fermi energy is     3.9760 ev

!    total energy              =   -2976.32718836 Ry
     estimated scf accuracy    <       0.00000004 Ry
     smearing contrib. (-TS)   =      -0.04071136 Ry
     internal energy E=F+TS    =   -2976.28647701 Ry

     The total energy is F=E-TS. E is the sum of the following terms:
     one-electron contribution =  -23821.18727358 Ry
     hartree contribution      =   12009.43904691 Ry
     xc contribution           =    -495.75801482 Ry
     ewald contribution        =    9331.21639045 Ry
     electric field correction =       0.00337403 Ry

     convergence has been achieved in  79 iterations

     Forces acting on atoms (cartesian axes, Ry/au):

     atom    1 type  1   force =     0.00015478   -0.00020849    0.09424681
     atom    2 type  1   force =    -0.00011454   -0.00035832   -0.17723836
     atom    3 type  2   force =     0.00008461    0.00004077   -0.02135477
     atom    4 type  2   force =     0.00001909   -0.00174653    0.05666911
     atom    5 type  2   force =    -0.01045361   -0.00127176    0.00672456
     atom    6 type  2   force =     0.01221137   -0.00071653    0.00623741
     atom    7 type  1   force =    -0.00028285    0.00287280   -0.01265031
     atom    8 type  1   force =    -0.00014650    0.00440029    0.00454045
     atom    9 type  2   force =    -0.00036372    0.00008416    0.00075711
     atom   10 type  2   force =    -0.00008269   -0.00089362   -0.00640327
     atom   11 type  2   force =    -0.00041273   -0.00032770    0.00005993
     atom   12 type  2   force =    -0.00032443   -0.00042351    0.00014685
     atom   13 type  1   force =    -0.00034612   -0.00016743   -0.00035467
     atom   14 type  1   force =     0.00003462   -0.00044108   -0.00035370
     atom   15 type  2   force =    -0.00019215   -0.00010126    0.00003443
     atom   16 type  2   force =    -0.00066339    0.00022794   -0.00034769
     atom   17 type  2   force =    -0.00007761    0.00010200    0.00016527
     atom   18 type  2   force =     0.00030122   -0.00011765    0.00035017
     atom   19 type  1   force =     0.00035069   -0.00102086    0.00001273
     atom   20 type  1   force =     0.00011844   -0.00007695    0.00054938
     atom   21 type  2   force =     0.00004659    0.00001056    0.10368646
     atom   22 type  2   force =    -0.00006559    0.00005660    0.00066709
     atom   23 type  2   force =    -0.07081562   -0.00011786   -0.02715500
     atom   24 type  2   force =     0.07071419    0.00031981   -0.02718623
     atom   25 type  1   force =    -0.00006508   -0.00021943    0.09367730
     atom   26 type  1   force =    -0.00013260   -0.00041805   -0.17737630
     atom   27 type  2   force =     0.00014902   -0.00039395   -0.02030202
     atom   28 type  2   force =     0.00005303   -0.00137667    0.05582241
     atom   29 type  2   force =    -0.01032164   -0.00029909    0.00537898
     atom   30 type  2   force =     0.01199271    0.00009919    0.00501610
     atom   31 type  1   force =    -0.00017518    0.00358274   -0.01530691
     atom   32 type  1   force =    -0.00018812   -0.00486316    0.00438454
     atom   33 type  2   force =    -0.00006694   -0.00016393    0.00031332
     atom   34 type  2   force =     0.00120437    0.00259095   -0.00429411
     atom   35 type  2   force =    -0.00070040   -0.00016303    0.00017939
     atom   36 type  2   force =    -0.00001993   -0.00002978    0.00045322
     atom   37 type  1   force =     0.00038457    0.00041386   -0.00032509
     atom   38 type  1   force =     0.00000115    0.00053409   -0.00158710
     atom   39 type  2   force =     0.00028892   -0.00043189   -0.00018326
     atom   40 type  2   force =     0.00004024    0.00005518    0.00060121
     atom   41 type  2   force =    -0.00018011   -0.00031221   -0.00021056
     atom   42 type  2   force =     0.00041551   -0.00029888    0.00013723
     atom   43 type  1   force =    -0.00035441    0.00074839    0.00048184
     atom   44 type  1   force =    -0.00020421   -0.00005540   -0.00021389
     atom   45 type  2   force =     0.00004007   -0.00001727    0.10368557
     atom   46 type  2   force =    -0.07086788   -0.00005334   -0.02715986
     atom   47 type  2   force =     0.07076312    0.00035018   -0.02718974
     atom   48 type  3   force =     0.00046844    0.00031735   -0.00015089
     atom   49 type  4   force =     0.00065397   -0.00052040    0.00045405
     atom   50 type  5   force =     0.00117135   -0.00012664   -0.00030502
     atom   51 type  5   force =    -0.00083400    0.00073375   -0.00044360
     atom   52 type  3   force =     0.00059287   -0.00007401    0.00018545
     atom   53 type  5   force =    -0.00134492   -0.00011068    0.00038067
     atom   54 type  5   force =     0.00024086   -0.00036436    0.00053918
     atom   55 type  5   force =    -0.00062079   -0.00002411    0.00021774
     atom   56 type  2   force =    -0.00206317    0.00055470   -0.00168204
     atom   57 type  5   force =    -0.00112815   -0.00083611    0.00021465
     atom   58 type  5   force =     0.00111326    0.00104659    0.00280380

     Total force =     0.365362     Total SCF correction =     0.000521
  @ DRIVER MODE: Message from server: STATUS
  @ DRIVER MODE: Message from server: GETFORCE
  @ DRIVER MODE: Returning v,forces,stress,ensemble

     Writing output data file ./calc.save/
  @ DRIVER MODE: Message from server: EXIT
  @ DRIVE MODE: Exiting

     General routines

     Parallel routines

   This run was terminated on:  15:31:36  16Sep2021

   JOB DONE.