     Program PWSCF v.6.7GPU starts on 15Sep2021 at 15:56: 0

     R & G space division:  proc/nbgrp/npool/nimage =      10
     Reading input from /storage/home/hcoda1/3/ntian30/research/carbon/CxH_vib/H2O_calc/ads_slab/CHNH2O_a/out_0001/pw.inp
Warning: card &CELL ignored
Warning: card   CELL_DYNAMICS='IPI', ignored
Warning: card / ignored

     Current dimensions of program PWSCF are:
     Max number of different atomic species (ntypx) = 10
     Max number of k-points (npk) =  40000
     Max angular momentum in pseudopotentials (lmaxx) =  3
     Presently no symmetry can be used with electric field

     Message from routine cell_base_init:
     DEPRECATED: use true lattice parameter, not A to a.u. conversion factor

     IMPORTANT: XC functional enforced from input :
     Exchange-correlation= BEEF-VDW
                           (   1   4  43  14   2   0   0)
     Any further DFT definition will be discarded
     Please, verify this is what you really want

  @ DRIVER MODE: Connecting to
 qe_1139763_2852627.sched-torque.pace.gatech.eduppb39atl_scratch
  using UNIX socket
  @ DRIVER MODE: Message from server: STATUS
  @ DRIVER MODE: Message from server: INIT
  @ DRIVER MODE: Receiving replica           0          -1
  @ DRIVER MODE: Receiving encoded integer          25
  @ DRIVER MODE:  SCF:  T  FORCE:  T  STRESS:  F  VC:  F  ENSEMBLE:  F
  @ DRIVER MODE:  SCF:  T  FORCE:  T  STRESS:  F  VC:  F  ENSEMBLE:  F

     Using Slab Decomposition

     bravais-lattice index     =            0
     lattice parameter (alat)  =       1.8897  a.u.
     unit-cell volume          =    6658.9804 (a.u.)^3
     number of atoms/cell      =           53
     number of atomic types    =            5
     number of electrons       =       396.00
     number of Kohn-Sham states=          208
     kinetic-energy cutoff     =      29.3995  Ry
     charge density cutoff     =     293.9946  Ry
     scf convergence threshold =      7.3E-08
     mixing beta               =       0.0500
     number of iterations used =            8  plain     mixing
     Exchange-correlation= BEEF-VDW
                           (   1   4  43  14   2   0   0)

     celldm(1)=   1.889726  celldm(2)=   0.000000  celldm(3)=   0.000000
     celldm(4)=   0.000000  celldm(5)=   0.000000  celldm(6)=   0.000000

     crystal axes: (cart. coord. in units of alat)
               a(1) = (   6.579727   0.000000   0.000000 )
               a(2) = (  -0.000775   5.961596   0.000000 )
               a(3) = (   0.000000   0.000000  25.155947 )

     reciprocal axes: (cart. coord. in units 2 pi/alat)
               b(1) = (  0.151982  0.000020  0.000000 )
               b(2) = (  0.000000  0.167740  0.000000 )
               b(3) = (  0.000000  0.000000  0.039752 )

     PseudoPot. # 1 for Ti read from file:
     /storage/coda1/p-amedford6/0/shared/rich_project_chbe-medford/medford-share/data/pseudos_module/espresso/nninc/pbe/van/Ti.UPF
     MD5 check sum: 8e4df49b7f0d34bbd5052bf3f5ea0213
     Pseudo is Ultrasoft, Zval = 12.0
     Generated by new atomic code, or converted to UPF format
     Using radial grid of  851 points,  6 beta functions with:
                l(1) =   0
                l(2) =   0
                l(3) =   1
                l(4) =   1
                l(5) =   2
                l(6) =   2
     Q(r) pseudized with  8 coefficients,  rinner =    1.000   1.000   1.000
                                                       1.000   1.000

     PseudoPot. # 2 for O  read from file:
     /storage/coda1/p-amedford6/0/shared/rich_project_chbe-medford/medford-share/data/pseudos_module/espresso/nninc/pbe/van/O.UPF
     MD5 check sum: 78c19812648e8988a0fe644b0f25305e
     Pseudo is Ultrasoft, Zval =  6.0
     Generated by new atomic code, or converted to UPF format
     Using radial grid of  737 points,  4 beta functions with:
                l(1) =   0
                l(2) =   0
                l(3) =   1
                l(4) =   1
     Q(r) pseudized with  8 coefficients,  rinner =    0.800   0.800   0.800

     PseudoPot. # 3 for N  read from file:
     /storage/coda1/p-amedford6/0/shared/rich_project_chbe-medford/medford-share/data/pseudos_module/espresso/nninc/pbe/van/N.UPF
     MD5 check sum: 90d10febe142ad51ac9d5be1deb811c4
     Pseudo is Ultrasoft, Zval =  5.0
     Generated by new atomic code, or converted to UPF format
     Using radial grid of  729 points,  4 beta functions with:
                l(1) =   0
                l(2) =   0
                l(3) =   1
                l(4) =   1
     Q(r) pseudized with  8 coefficients,  rinner =    0.800   0.800   0.800

     PseudoPot. # 4 for C  read from file:
     /storage/coda1/p-amedford6/0/shared/rich_project_chbe-medford/medford-share/data/pseudos_module/espresso/nninc/pbe/van/C.UPF
     MD5 check sum: 1a69bf6b8db32088f5b2163dbdb77a27
     Pseudo is Ultrasoft, Zval =  4.0
     Generated by new atomic code, or converted to UPF format
     Using radial grid of  721 points,  4 beta functions with:
                l(1) =   0
                l(2) =   0
                l(3) =   1
                l(4) =   1
     Q(r) pseudized with  8 coefficients,  rinner =    0.800   0.800   0.800

     PseudoPot. # 5 for H  read from file:
     /storage/coda1/p-amedford6/0/shared/rich_project_chbe-medford/medford-share/data/pseudos_module/espresso/nninc/pbe/van/H.UPF
     MD5 check sum: b5ee9d7bfd3a09ee7748110bda690ff7
     Pseudo is Ultrasoft, Zval =  1.0
     Generated by new atomic code, or converted to UPF format
     Using radial grid of  615 points,  1 beta functions with:
                l(1) =   0
     Q(r) pseudized with  8 coefficients,  rinner =    0.800

     atomic species   valence    mass     pseudopotential
        Ti1           12.00    47.86700     Ti( 1.00)
        O1             6.00    15.99900     O ( 1.00)
        N1             5.00    14.00700     N ( 1.00)
        C1             4.00    12.01100     C ( 1.00)
        H1             1.00     1.00800     H ( 1.00)

     No symmetry found

   Cartesian axes

     site n.     atom                  positions (alat units)
         1           Ti1 tau(   1) = (   0.0004258   2.9801865   6.0000000  )
         2           Ti1 tau(   2) = (   3.2906075   1.4906267   6.0002472  )
         3           O1  tau(   3) = (   0.0006271   0.0005054   7.9858123  )
         4           O1  tau(   4) = (   3.2906025   0.0005020   7.3038282  )
         5           O1  tau(   5) = (   4.5942328   1.4918067   9.2879030  )
         6           O1  tau(   6) = (   1.9868534   1.4903216   9.2879459  )
         7           Ti1 tau(   7) = (   3.2907910   2.8959150   9.1758416  )
         8           Ti1 tau(   8) = (   0.0015273   1.4827037   9.2680791  )
         9           O1  tau(   9) = (   3.3001320   0.0223556  11.3750156  )
        10           O1  tau(  10) = (   0.0116148   5.9584955  10.6183126  )
        11           O1  tau(  11) = (   1.2984793   1.5070296  12.6822906  )
        12           O1  tau(  12) = (   5.3053048   1.5066133  12.6782214  )
        13           Ti1 tau(  13) = (   0.0240538   2.9928608  12.5236668  )
        14           Ti1 tau(  14) = (   3.3205759   1.5163330  12.5292614  )
        15           O1  tau(  15) = (   0.0116174   5.9170763  14.6754219  )
        16           O1  tau(  16) = (   3.3074613   5.9602333  14.0123823  )
        17           O1  tau(  17) = (   4.5729729   1.5428591  16.1031931  )
        18           O1  tau(  18) = (   2.0357456   1.5455963  16.0959954  )
        19           Ti1 tau(  19) = (   3.3038618   3.0179751  15.7376193  )
        20           Ti1 tau(  20) = (   0.0182819   1.3639466  15.8252938  )
        21           O1  tau(  21) = (   3.2904802   0.0005063   4.7018136  )
        22           O1  tau(  22) = (   0.0233993   0.1148627  17.2261141  )
        23           O1  tau(  23) = (   1.3043587   1.4918075   6.0039043  )
        24           O1  tau(  24) = (   5.2767064   1.4903225   6.0039473  )
        25           Ti1 tau(  25) = (   0.0000382   5.9609847   6.0000000  )
        26           Ti1 tau(  26) = (   3.2902200   4.4714249   6.0002472  )
        27           O1  tau(  27) = (   0.0002396   2.9813036   7.9858123  )
        28           O1  tau(  28) = (   3.2902150   2.9813002   7.3038282  )
        29           O1  tau(  29) = (   4.5938453   4.4726049   9.2879030  )
        30           O1  tau(  30) = (   1.9864658   4.4711199   9.2879459  )
        31           Ti1 tau(  31) = (   3.2891106   5.8743827   9.1763621  )
        32           Ti1 tau(  32) = (   0.0006254   4.4649316   9.2693709  )
        33           O1  tau(  33) = (   3.3008157   2.9919736  11.3713264  )
        34           O1  tau(  34) = (   0.0092240   2.9805883  10.6323155  )
        35           O1  tau(  35) = (   1.3007438   4.4795902  12.6508594  )
        36           O1  tau(  36) = (   5.3032704   4.4808111  12.6474791  )
        37           Ti1 tau(  37) = (   0.0257871   0.0021926  12.5000826  )
        38           Ti1 tau(  38) = (   3.3207303   4.5031034  12.5344522  )
        39           O1  tau(  39) = (   0.0087802   3.0322157  14.9253570  )
        40           O1  tau(  40) = (   3.3068524   3.0154938  13.9499554  )
        41           O1  tau(  41) = (   4.5633958   4.4699756  16.2119971  )
        42           O1  tau(  42) = (   2.0378630   4.4655417  16.1963084  )
        43           Ti1 tau(  43) = (   3.3121544   0.0541299  15.8353365  )
        44           Ti1 tau(  44) = (   0.0163097   4.5868159  16.0488687  )
        45           O1  tau(  45) = (   3.2900926   2.9813045   4.7018136  )
        46           O1  tau(  46) = (   1.3039711   4.4726057   6.0039043  )
        47           O1  tau(  47) = (   5.2763189   4.4711207   6.0039473  )
        48           N1  tau(  48) = (   6.5759498   3.2377968  17.9635855  )
        49           C1  tau(  49) = (   6.5597590   2.5083335  18.8557918  )
        50           H1  tau(  50) = (   6.5336154   1.7992569  19.6484373  )
        51           O1  tau(  51) = (   3.2480284   5.9531242  18.4006015  )
        52           H1  tau(  52) = (   3.9795166   5.3132839  18.3896481  )
        53           H1  tau(  53) = (   2.4340588   5.4237150  18.3412978  )

     number of k points=    10  Fermi-Dirac smearing, width (Ry)=  0.0073
                       cart. coord. in units 2pi/alat
        k(    1) = (   0.0000000   0.0000000   0.0000000), wk =   0.1250000
        k(    2) = (   0.0000000   0.0419351   0.0000000), wk =   0.2500000
        k(    3) = (   0.0000000  -0.0838702   0.0000000), wk =   0.1250000
        k(    4) = (   0.0379955   0.0000049   0.0000000), wk =   0.2500000
        k(    5) = (   0.0379955   0.0419400   0.0000000), wk =   0.2500000
        k(    6) = (   0.0379955  -0.0838652   0.0000000), wk =   0.2500000
        k(    7) = (   0.0379955  -0.0419301   0.0000000), wk =   0.2500000
        k(    8) = (  -0.0759910  -0.0000099   0.0000000), wk =   0.1250000
        k(    9) = (  -0.0759910   0.0419252   0.0000000), wk =   0.2500000
        k(   10) = (  -0.0759910  -0.0838800   0.0000000), wk =   0.1250000

     Initial potential from superposition of free atoms

     starting charge  379.99917, renormalised to  396.00000

     negative rho (up, down):  1.670E-02 0.000E+00

     %%%%%%%%%%%%%%%%%%%%%%%%%%%%%%%%%%%%%%%%%%%%%%%%%%%%%%%%%%%%%%%%%%%%%%%%
     %                                                                      %
     % You are using vdW-DF, which was implemented by the Thonhauser group. %
     % Please cite the following two papers that made this development      %
     % possible and the two reviews that describe the various versions:     %
     %                                                                      %
     %   T. Thonhauser et al., PRL 115, 136402 (2015).                      %
     %   T. Thonhauser et al., PRB 76, 125112 (2007).                       %
     %   K. Berland et al., Rep. Prog. Phys. 78, 066501 (2015).             %
     %   D.C. Langreth et al., J. Phys.: Condens. Matter 21, 084203 (2009). %
     %                                                                      %
     %                                                                      %
     % If you are calculating the stress with vdW-DF, please also cite:     %
     %                                                                      %
     %   R. Sabatini et al., J. Phys.: Condens. Matter 24, 424209 (2012).   %
     %                                                                      %
     %%%%%%%%%%%%%%%%%%%%%%%%%%%%%%%%%%%%%%%%%%%%%%%%%%%%%%%%%%%%%%%%%%%%%%%%

     Adding external electric field

     Computed dipole along edir(3) :
        Dipole               -9.4938 Ry au,        -24.1308 Debye
        Dipole field         -0.0179 Ry au,

        Potential amp.        1.6608 Ry
        Total length         46.3494 bohr

     Starting wfcs are  299 atomic wfcs
  @ DRIVER MODE: Message from server: STATUS
  @ DRIVER MODE: Message from server: POSDATA
  @ DRIVER MODE: Reading and sharing cell
  @ DRIVER MODE: Reading and sharing positions
  @ DRIVER MODE: Received positions

     Self-consistent Calculation

     iteration #  1     ecut=    29.40 Ry     beta= 0.05
     Davidson diagonalization with overlap
     c_bands:  1 eigenvalues not converged
     c_bands:  1 eigenvalues not converged
     c_bands:  2 eigenvalues not converged
     c_bands:  3 eigenvalues not converged
     c_bands:  3 eigenvalues not converged
     c_bands:  2 eigenvalues not converged
     c_bands:  3 eigenvalues not converged
     c_bands:  1 eigenvalues not converged
     c_bands:  2 eigenvalues not converged
     c_bands:  2 eigenvalues not converged
     ethr =  1.00E-05,  avg # of iterations = 20.0

[...]

     total energy              =   -2563.41231800 Ry
     estimated scf accuracy    <    4341.72174931 Ry

     iteration #  2     ecut=    29.40 Ry     beta= 0.05
     Davidson diagonalization with overlap
     ethr =  1.00E-02,  avg # of iterations = 24.4

[...]

     iteration # 69     ecut=    29.40 Ry     beta= 0.05
     Davidson diagonalization with overlap
     c_bands:  1 eigenvalues not converged
     ethr =  2.89E-11,  avg # of iterations = 15.5

[...]

     total energy              =   -2951.44743402 Ry
     estimated scf accuracy    <       0.00000008 Ry

     iteration # 74     ecut=    29.40 Ry     beta= 0.05
     Davidson diagonalization with overlap
     ethr =  1.90E-11,  avg # of iterations =  4.9

     negative rho (up, down):  1.630E-02 0.000E+00

     Adding external electric field

     Computed dipole along edir(3) :
        Dipole                1.4821 Ry au,          3.7672 Debye
        Dipole field          0.0028 Ry au,

        Potential amp.       -0.2593 Ry
        Total length         46.3494 bohr

     End of self-consistent calculation

          k = 0.0000 0.0000 0.0000 ( 18029 PWs)   bands (ev):

   -55.3155 -55.2796 -55.2786 -55.2445 -55.2262 -55.1935 -55.1563 -55.1379
   -55.1184 -55.1071 -55.1032 -55.0927 -55.0735 -55.0071 -54.3033 -54.2693
   -31.8752 -31.7702 -31.7108 -31.6824 -31.6344 -31.6266 -31.6120 -31.6112
   -31.5678 -31.5330 -31.5263 -31.5232 -31.5006 -31.4873 -31.4634 -31.4604
   -31.4561 -31.4539 -31.4367 -31.4306 -31.4021 -31.3916 -31.3860 -31.3734
   -31.3673 -31.3386 -31.3377 -31.3358 -31.3245 -31.3229 -31.3219 -31.3043
   -31.2963 -31.2902 -31.2862 -31.2627 -31.2515 -31.2403 -31.2352 -31.2172
   -31.2162 -31.1245 -30.7125 -30.6188 -30.5967 -30.5289 -30.4421 -30.3312
   -18.9173 -17.3423 -16.1212 -15.8666 -15.7136 -15.6129 -15.5140 -15.3725
   -15.3183 -15.2086 -15.1430 -15.0024 -14.9655 -14.9474 -14.9292 -14.9276
   -14.8823 -14.8551 -14.8491 -14.8156 -14.8132 -14.7869 -14.7509 -14.7420
   -14.7116 -14.6959 -14.6495 -14.5409 -14.4717 -14.4086 -14.1125 -12.8055
   -12.6882  -8.9827  -6.6460  -4.6243  -3.4663  -3.4326  -3.3266  -3.2211
    -3.2136  -3.1890  -3.1700  -3.0603  -3.0248  -2.7751  -2.7185  -2.6603
    -2.5709  -2.4985  -2.4871  -2.4475  -2.3194  -2.2769  -2.2366  -2.1680
    -2.1505  -2.1240  -2.1001  -2.0908  -2.0316  -2.0246  -2.0009  -1.8840
    -1.8433  -1.7758  -1.7259  -1.7091  -1.6561  -1.6349  -1.6041  -1.6032
    -1.5983  -1.5532  -1.5517  -1.4969  -1.4855  -1.3802  -1.3391  -1.1508
    -1.0564  -0.9983  -0.9541  -0.8870  -0.8727  -0.7991  -0.7592  -0.7041
    -0.7019  -0.6449  -0.5246  -0.4341  -0.4121  -0.3837  -0.2979  -0.2617
    -0.1998  -0.1833  -0.0957  -0.0827  -0.0762  -0.0687   0.0603   0.1094
     0.1902   0.1957   0.2454   0.2657   0.3438   0.3584   0.4287   0.4670
     0.5229   0.5669   0.6232   0.6315   0.6567   0.6768   0.6934   0.7834
     0.7967   0.8241   0.8983   1.0350   1.2254   1.2961   1.3181   1.6272
     1.6480   1.7196   1.9045   2.2954   2.3434   3.7784   3.8573   3.9197
     3.9291   3.9413   4.0143   4.2610   4.2780   4.2792   4.2944   4.3214

[...]

          k = 0.0380-0.0419 0.0000 ( 17876 PWs)   bands (ev):

[...]

          k =-0.0760-0.0000 0.0000 ( 17886 PWs)   bands (ev):

[...]

          k =-0.0760-0.0839 0.0000 ( 17948 PWs)   bands (ev):

   -55.2990 -55.2958 -55.2615 -55.2614 -55.2239 -55.1821 -55.1677 -55.1226
   -55.1179 -55.1154 -55.0949 -55.0908 -55.0900 -55.0099 -54.2864 -54.2861
   -31.6840 -31.6760 -31.6332 -31.5854 -31.5852 -31.5710 -31.5628 -31.5532
   -31.5530 -31.5263 -31.5157 -31.5133 -31.5036 -31.4716 -31.4551 -31.4507
   -31.4465 -31.4439 -31.4422 -31.4359 -31.4310 -31.3981 -31.3954 -31.3950
   -31.3812 -31.3811 -31.3784 -31.3746 -31.3619 -31.3552 -31.3488 -31.3431
   -31.3359 -31.3314 -31.3198 -31.3182 -31.3120 -31.2786 -31.2706 -31.2700
   -31.2239 -31.2158 -30.6095 -30.6092 -30.5251 -30.5249 -30.4856 -30.4854
   -18.9163 -17.3375 -15.6575 -15.5525 -15.4427 -15.3228 -15.3148 -15.2581
   -15.2105 -15.1301 -15.0889 -15.0763 -15.0558 -15.0416 -15.0107 -15.0070
   -14.9864 -14.9120 -14.9012 -14.8909 -14.8677 -14.8263 -14.8156 -14.8129
   -14.7957 -14.7702 -14.7661 -14.6714 -14.6684 -14.5736 -14.4485 -12.7898
   -12.7896  -8.9806  -6.6392  -4.6111  -3.3342  -3.2562  -2.9289  -2.8195
    -2.7751  -2.6843  -2.5341  -2.5046  -2.4338  -2.4277  -2.3607  -2.3085
    -2.2942  -2.2750  -2.1918  -2.1752  -2.1645  -2.1523  -2.1394  -2.1111
    -2.0880  -2.0406  -2.0376  -2.0358  -2.0269  -2.0060  -1.9704  -1.9507
    -1.9114  -1.9021  -1.8810  -1.8340  -1.7920  -1.7743  -1.7571  -1.6516
    -1.6252  -1.5188  -1.5141  -1.4141  -1.4095  -1.3821  -1.3572  -1.3475
    -1.2794  -1.2125  -1.0604  -1.0509  -1.0183  -0.9405  -0.9284  -0.8713
    -0.8645  -0.7796  -0.7626  -0.7342  -0.6393  -0.6091  -0.5055  -0.4917
    -0.4836  -0.3465  -0.3427  -0.2864  -0.2747  -0.2718  -0.2038  -0.1976
    -0.1915  -0.1105  -0.0760  -0.0490  -0.0379   0.0156   0.2038   0.2310
     0.2610   0.3839   0.4316   0.5717   0.6654   0.6702   0.7409   0.8036
     0.8220   0.8824   0.9797   0.9930   1.0495   1.0797   1.1281   1.1431
     1.1532   2.0768   2.0778   2.1634   2.1634   3.8943   3.9939   4.0611
     4.1117   4.1252   4.2145   4.2994   4.3281   4.3607   4.3626   4.4386

     the Fermi energy is     3.8361 ev

!    total energy              =   -2951.44744370 Ry
     estimated scf accuracy    <       0.00000006 Ry
     smearing contrib. (-TS)   =      -0.03730532 Ry
     internal energy E=F+TS    =   -2951.41013838 Ry

     The total energy is F=E-TS. E is the sum of the following terms:
     one-electron contribution =  -24061.03710107 Ry
     hartree contribution      =   12123.59203653 Ry
     xc contribution           =    -487.22869343 Ry
     ewald contribution        =    9473.25947420 Ry
     electric field correction =       0.00414539 Ry

     convergence has been achieved in  74 iterations

     Forces acting on atoms (cartesian axes, Ry/au):

     atom    1 type  1   force =    -0.00003282   -0.00025965    0.09358613
     atom    2 type  1   force =    -0.00016201   -0.00043787   -0.17788661
     atom    3 type  2   force =     0.00002359   -0.00025684   -0.02078791
     atom    4 type  2   force =    -0.00003348   -0.00179898    0.05842482
     atom    5 type  2   force =    -0.01030382   -0.00058455    0.00698065
     atom    6 type  2   force =     0.01196643    0.00005084    0.00669172
     atom    7 type  1   force =    -0.00012122    0.00222180   -0.01161938
     atom    8 type  1   force =    -0.00007077    0.00224797   -0.00161088
     atom    9 type  2   force =     0.00007230    0.00061049    0.00060566
     atom   10 type  2   force =    -0.00107454    0.00321720   -0.00393273
     atom   11 type  2   force =     0.00037239   -0.00031375   -0.00030093
     atom   12 type  2   force =    -0.00040558   -0.00031706   -0.00017101
     atom   13 type  1   force =     0.00000580    0.00014826    0.00022955
     atom   14 type  1   force =    -0.00000493   -0.00047225    0.00042568
     atom   15 type  2   force =    -0.00025731   -0.00068118    0.00064735
     atom   16 type  2   force =    -0.00002952    0.00043922    0.00022480
     atom   17 type  2   force =    -0.00002335   -0.00029008   -0.00028079
     atom   18 type  2   force =     0.00010578   -0.00024828   -0.00041078
     atom   19 type  1   force =    -0.00028316   -0.00121991   -0.00016814
     atom   20 type  1   force =     0.00011135   -0.00000018   -0.00080524
     atom   21 type  2   force =    -0.00001671   -0.00011934    0.10392769
     atom   22 type  2   force =     0.00002077    0.00051036   -0.00046902
     atom   23 type  2   force =    -0.07056026   -0.00021508   -0.02697182
     atom   24 type  2   force =     0.07034907    0.00021892   -0.02702534
     atom   25 type  1   force =    -0.00002001   -0.00027673    0.09311646
     atom   26 type  1   force =    -0.00019935   -0.00052369   -0.17814561
     atom   27 type  2   force =     0.00006894   -0.00021338   -0.01972610
     atom   28 type  2   force =     0.00001591   -0.00155589    0.05762898
     atom   29 type  2   force =    -0.01084181   -0.00007801    0.00741657
     atom   30 type  2   force =     0.01236598    0.00026069    0.00709608
     atom   31 type  1   force =    -0.00008841    0.00572603   -0.01415096
     atom   32 type  1   force =    -0.00008053   -0.00265130   -0.00139887
     atom   33 type  2   force =     0.00010719   -0.00051697    0.00033035
     atom   34 type  2   force =    -0.00048453   -0.00029439   -0.00098942
     atom   35 type  2   force =    -0.00033069   -0.00017226   -0.00031814
     atom   36 type  2   force =     0.00032947   -0.00029789   -0.00011446
     atom   37 type  1   force =     0.00009960   -0.00043544    0.00057223
     atom   38 type  1   force =    -0.00001885   -0.00060095   -0.00027180
     atom   39 type  2   force =     0.00005101    0.00016561    0.00018170
     atom   40 type  2   force =    -0.00008191   -0.00014249   -0.00004237
     atom   41 type  2   force =    -0.00019672    0.00026421    0.00022365
     atom   42 type  2   force =    -0.00005425    0.00010988    0.00062740
     atom   43 type  1   force =    -0.00033527    0.00063685   -0.00040635
     atom   44 type  1   force =     0.00003184    0.00040592   -0.00038323
     atom   45 type  2   force =    -0.00002236   -0.00015062    0.10390584
     atom   46 type  2   force =    -0.07054375   -0.00015940   -0.02696426
     atom   47 type  2   force =     0.07034630    0.00027277   -0.02702313
     atom   48 type  3   force =     0.00124984   -0.00054092    0.00022368
     atom   49 type  4   force =    -0.00109603   -0.00017522    0.00028104
     atom   50 type  5   force =     0.00029324   -0.00123204   -0.00016952
     atom   51 type  2   force =     0.00028111    0.00050586   -0.00057665
     atom   52 type  5   force =     0.00000561   -0.00059246   -0.00023312
     atom   53 type  5   force =    -0.00049959   -0.00018781    0.00000656

     Total force =     0.365909     Total SCF correction =     0.000894
  @ DRIVER MODE: Message from server: STATUS
  @ DRIVER MODE: Message from server: GETFORCE
  @ DRIVER MODE: Returning v,forces,stress,ensemble

     Writing output data file ./calc.save/
  @ DRIVER MODE: Message from server: EXIT
  @ DRIVE MODE: Exiting

     General routines

     Parallel routines

   This run was terminated on:  16:15:21  15Sep2021

   JOB DONE.