     Program PWSCF v.6.7GPU starts on 26Sep2021 at 17:53:39

     R & G space division:  proc/nbgrp/npool/nimage =       8
     Reading input from /storage/home/hcoda1/3/ntian30/research/carbon/CxH_vib/H2O_calc/ads_slab/CH3OH2O_a/out_0026/pw.inp
Warning: card &CELL ignored
Warning: card   CELL_DYNAMICS='IPI', ignored
Warning: card / ignored

     Current dimensions of program PWSCF are:
     Max number of different atomic species (ntypx) = 10
     Max number of k-points (npk) =  40000
     Max angular momentum in pseudopotentials (lmaxx) =  3
     Presently no symmetry can be used with electric field

     Message from routine cell_base_init:
     DEPRECATED: use true lattice parameter, not A to a.u. conversion factor

     IMPORTANT: XC functional enforced from input :
     Exchange-correlation= BEEF-VDW
                           (   1   4  43  14   2   0   0)
     Any further DFT definition will be discarded
     Please, verify this is what you really want

  @ DRIVER MODE: Connecting to
 qe_1139763_2971673.sched-torque.pace.gatech.eduv_t8hhmc_scratch
  using UNIX socket
  @ DRIVER MODE: Message from server: STATUS
  @ DRIVER MODE: Message from server: INIT
  @ DRIVER MODE: Receiving replica           0          -1
  @ DRIVER MODE: Receiving encoded integer          25
  @ DRIVER MODE:  SCF:  T  FORCE:  T  STRESS:  F  VC:  F  ENSEMBLE:  F
  @ DRIVER MODE:  SCF:  T  FORCE:  T  STRESS:  F  VC:  F  ENSEMBLE:  F

     Using Slab Decomposition

     bravais-lattice index     =            0
     lattice parameter (alat)  =       1.8897  a.u.
     unit-cell volume          =    6658.9804 (a.u.)^3
     number of atoms/cell      =           55
     number of atomic types    =            4
     number of electrons       =       399.00
     number of Kohn-Sham states=          209
     kinetic-energy cutoff     =      29.3995  Ry
     charge density cutoff     =     293.9946  Ry
     scf convergence threshold =      7.3E-08
     mixing beta               =       0.0500
     number of iterations used =            8  plain     mixing
     Exchange-correlation= BEEF-VDW
                           (   1   4  43  14   2   0   0)

     celldm(1)=   1.889726  celldm(2)=   0.000000  celldm(3)=   0.000000
     celldm(4)=   0.000000  celldm(5)=   0.000000  celldm(6)=   0.000000

     crystal axes: (cart. coord. in units of alat)
               a(1) = (   6.579727   0.000000   0.000000 )
               a(2) = (  -0.000775   5.961596   0.000000 )
               a(3) = (   0.000000   0.000000  25.155947 )

     reciprocal axes: (cart. coord. in units 2 pi/alat)
               b(1) = (  0.151982  0.000020  0.000000 )
               b(2) = (  0.000000  0.167740  0.000000 )
               b(3) = (  0.000000  0.000000  0.039752 )

     PseudoPot. # 1 for Ti read from file:
     /storage/coda1/p-amedford6/0/shared/rich_project_chbe-medford/medford-share/data/pseudos_module/espresso/nninc/pbe/van/Ti.UPF
     MD5 check sum: 8e4df49b7f0d34bbd5052bf3f5ea0213
     Pseudo is Ultrasoft, Zval = 12.0
     Generated by new atomic code, or converted to UPF format
     Using radial grid of  851 points,  6 beta functions with:
                l(1) =   0
                l(2) =   0
                l(3) =   1
                l(4) =   1
                l(5) =   2
                l(6) =   2
     Q(r) pseudized with  8 coefficients,  rinner =    1.000   1.000   1.000
                                                       1.000   1.000

     PseudoPot. # 2 for O  read from file:
     /storage/coda1/p-amedford6/0/shared/rich_project_chbe-medford/medford-share/data/pseudos_module/espresso/nninc/pbe/van/O.UPF
     MD5 check sum: 78c19812648e8988a0fe644b0f25305e
     Pseudo is Ultrasoft, Zval =  6.0
     Generated by new atomic code, or converted to UPF format
     Using radial grid of  737 points,  4 beta functions with:
                l(1) =   0
                l(2) =   0
                l(3) =   1
                l(4) =   1
     Q(r) pseudized with  8 coefficients,  rinner =    0.800   0.800   0.800

     PseudoPot. # 3 for C  read from file:
     /storage/coda1/p-amedford6/0/shared/rich_project_chbe-medford/medford-share/data/pseudos_module/espresso/nninc/pbe/van/C.UPF
     MD5 check sum: 1a69bf6b8db32088f5b2163dbdb77a27
     Pseudo is Ultrasoft, Zval =  4.0
     Generated by new atomic code, or converted to UPF format
     Using radial grid of  721 points,  4 beta functions with:
                l(1) =   0
                l(2) =   0
                l(3) =   1
                l(4) =   1
     Q(r) pseudized with  8 coefficients,  rinner =    0.800   0.800   0.800

     PseudoPot. # 4 for H  read from file:
     /storage/coda1/p-amedford6/0/shared/rich_project_chbe-medford/medford-share/data/pseudos_module/espresso/nninc/pbe/van/H.UPF
     MD5 check sum: b5ee9d7bfd3a09ee7748110bda690ff7
     Pseudo is Ultrasoft, Zval =  1.0
     Generated by new atomic code, or converted to UPF format
     Using radial grid of  615 points,  1 beta functions with:
                l(1) =   0
     Q(r) pseudized with  8 coefficients,  rinner =    0.800

     atomic species   valence    mass     pseudopotential
        Ti1           12.00    47.86700     Ti( 1.00)
        O1             6.00    15.99900     O ( 1.00)
        C1             4.00    12.01100     C ( 1.00)
        H1             1.00     1.00800     H ( 1.00)

     No symmetry found

   Cartesian axes

     site n.     atom                  positions (alat units)
         1           Ti1 tau(   1) = (   0.0004258   2.9801865   6.0000000  )
         2           Ti1 tau(   2) = (   3.2906075   1.4906267   6.0002472  )
         3           O1  tau(   3) = (   0.0006271   0.0005054   7.9858123  )
         4           O1  tau(   4) = (   3.2906025   0.0005020   7.3038282  )
         5           O1  tau(   5) = (   4.5942328   1.4918067   9.2879030  )
         6           O1  tau(   6) = (   1.9868534   1.4903216   9.2879459  )
         7           Ti1 tau(   7) = (   3.2820359   3.0439161   9.1623595  )
         8           Ti1 tau(   8) = (   6.5599266   1.6132547   9.3553476  )
         9           O1  tau(   9) = (   3.2945286   0.0238644  11.3456088  )
        10           O1  tau(  10) = (   0.0063054   0.0138127  10.6020390  )
        11           O1  tau(  11) = (   1.2951583   1.5100513  12.6443238  )
        12           O1  tau(  12) = (   5.2990995   1.5148170  12.6233090  )
        13           Ti1 tau(  13) = (   0.0263474   3.0106421  12.7494805  )
        14           Ti1 tau(  14) = (   3.3336015   1.5167552  12.4948480  )
        15           O1  tau(  15) = (   6.5448532   0.0190031  14.6983011  )
        16           O1  tau(  16) = (   3.3224233   0.0259125  13.9568087  )
        17           O1  tau(  17) = (   4.5367000   1.5168325  16.1249780  )
        18           O1  tau(  18) = (   2.0218268   1.5507800  16.0022153  )
        19           Ti1 tau(  19) = (   3.2743302   2.9980917  15.6870858  )
        20           Ti1 tau(  20) = (   0.0201860   1.3869735  16.0719154  )
        21           O1  tau(  21) = (   3.2904802   0.0005063   4.7018136  )
        22           O1  tau(  22) = (   0.0925506   0.0150102  17.2361640  )
        23           O1  tau(  23) = (   1.3043587   1.4918075   6.0039043  )
        24           O1  tau(  24) = (   5.2767064   1.4903225   6.0039473  )
        25           Ti1 tau(  25) = (   0.0000382   5.9609847   6.0000000  )
        26           Ti1 tau(  26) = (   3.2902200   4.4714249   6.0002472  )
        27           O1  tau(  27) = (   0.0002396   2.9813036   7.9858123  )
        28           O1  tau(  28) = (   3.2902150   2.9813002   7.3038282  )
        29           O1  tau(  29) = (   4.5938453   4.4726049   9.2879030  )
        30           O1  tau(  30) = (   1.9864658   4.4711199   9.2879459  )
        31           Ti1 tau(  31) = (   3.2669230   0.0652730   9.1555536  )
        32           Ti1 tau(  32) = (   6.5613759   4.5453191   9.2698998  )
        33           O1  tau(  33) = (   3.2918870   3.0052186  11.3478826  )
        34           O1  tau(  34) = (   0.0060846   2.9950393  10.5821163  )
        35           O1  tau(  35) = (   1.2959246   4.5006532  12.6413340  )
        36           O1  tau(  36) = (   5.2961686   4.4944485  12.6189864  )
        37           Ti1 tau(  37) = (   0.0327138   0.0295606  12.5236923  )
        38           Ti1 tau(  38) = (   3.3339673   4.5113903  12.4983483  )
        39           O1  tau(  39) = (   6.5730609   3.0277731  14.6772624  )
        40           O1  tau(  40) = (   3.3208155   3.0007925  13.9016932  )
        41           O1  tau(  41) = (   4.5507661   4.4739758  16.0704957  )
        42           O1  tau(  42) = (   2.0281244   4.4521521  15.9894756  )
        43           Ti1 tau(  43) = (   3.3328935   0.0118079  15.7915215  )
        44           Ti1 tau(  44) = (   0.0096178   4.5175135  15.9069376  )
        45           O1  tau(  45) = (   3.2900926   2.9813045   4.7018136  )
        46           O1  tau(  46) = (   1.3039711   4.4726057   6.0039043  )
        47           O1  tau(  47) = (   5.2763189   4.4711207   6.0039473  )
        48           C1  tau(  48) = (   6.0108469   3.0492512  18.6187439  )
        49           O1  tau(  49) = (   6.5747659   3.0013081  17.3187206  )
        50           H1  tau(  50) = (   4.9221177   3.1735116  18.5649479  )
        51           H1  tau(  51) = (   6.2378858   2.1236533  19.1567593  )
        52           H1  tau(  52) = (   6.4308835   3.9027719  19.1655001  )
        53           O1  tau(  53) = (   2.8960476   5.8777769  18.1661119  )
        54           H1  tau(  54) = (   3.1709146   0.7341104  18.6084320  )
        55           H1  tau(  55) = (   1.9162551   5.9097105  18.1191095  )

     number of k points=    10  Fermi-Dirac smearing, width (Ry)=  0.0073
                       cart. coord. in units 2pi/alat
        k(    1) = (   0.0000000   0.0000000   0.0000000), wk =   0.1250000
        k(    2) = (   0.0000000   0.0419351   0.0000000), wk =   0.2500000
        k(    3) = (   0.0000000  -0.0838702   0.0000000), wk =   0.1250000
        k(    4) = (   0.0379955   0.0000049   0.0000000), wk =   0.2500000
        k(    5) = (   0.0379955   0.0419400   0.0000000), wk =   0.2500000
        k(    6) = (   0.0379955  -0.0838652   0.0000000), wk =   0.2500000
        k(    7) = (   0.0379955  -0.0419301   0.0000000), wk =   0.2500000
        k(    8) = (  -0.0759910  -0.0000099   0.0000000), wk =   0.1250000
        k(    9) = (  -0.0759910   0.0419252   0.0000000), wk =   0.2500000
        k(   10) = (  -0.0759910  -0.0838800   0.0000000), wk =   0.1250000

     Initial potential from superposition of free atoms

     starting charge  382.99916, renormalised to  399.00000

     negative rho (up, down):  1.705E-02 0.000E+00

     %%%%%%%%%%%%%%%%%%%%%%%%%%%%%%%%%%%%%%%%%%%%%%%%%%%%%%%%%%%%%%%%%%%%%%%%
     %                                                                      %
     % You are using vdW-DF, which was implemented by the Thonhauser group. %
     % Please cite the following two papers that made this development      %
     % possible and the two reviews that describe the various versions:     %
     %                                                                      %
     %   T. Thonhauser et al., PRL 115, 136402 (2015).                      %
     %   T. Thonhauser et al., PRB 76, 125112 (2007).                       %
     %   K. Berland et al., Rep. Prog. Phys. 78, 066501 (2015).             %
     %   D.C. Langreth et al., J. Phys.: Condens. Matter 21, 084203 (2009). %
     %                                                                      %
     %                                                                      %
     % If you are calculating the stress with vdW-DF, please also cite:     %
     %                                                                      %
     %   R. Sabatini et al., J. Phys.: Condens. Matter 24, 424209 (2012).   %
     %                                                                      %
     %%%%%%%%%%%%%%%%%%%%%%%%%%%%%%%%%%%%%%%%%%%%%%%%%%%%%%%%%%%%%%%%%%%%%%%%

     Adding external electric field

     Computed dipole along edir(3) :
        Dipole               -9.9871 Ry au,        -25.3847 Debye
        Dipole field         -0.0188 Ry au,

        Potential amp.        1.7471 Ry
        Total length         46.3494 bohr

     Starting wfcs are  301 atomic wfcs
  @ DRIVER MODE: Message from server: STATUS
  @ DRIVER MODE: Message from server: POSDATA
  @ DRIVER MODE: Reading and sharing cell
  @ DRIVER MODE: Reading and sharing positions
  @ DRIVER MODE: Received positions

     Self-consistent Calculation

     iteration #  1     ecut=    29.40 Ry     beta= 0.05
     Davidson diagonalization with overlap
     c_bands:  2 eigenvalues not converged
     c_bands:  2 eigenvalues not converged
     c_bands:  3 eigenvalues not converged
     c_bands:  3 eigenvalues not converged
     c_bands:  1 eigenvalues not converged
     c_bands:  3 eigenvalues not converged
     c_bands:  3 eigenvalues not converged
     c_bands:  1 eigenvalues not converged
     ethr =  1.00E-05,  avg # of iterations = 19.6

[...]

     total energy              =   -2489.87844137 Ry
     estimated scf accuracy    <    5304.37469787 Ry

     iteration #  2     ecut=    29.40 Ry     beta= 0.05
     Davidson diagonalization with overlap
     ethr =  1.00E-02,  avg # of iterations = 25.1

[...]

     iteration # 50     ecut=    29.40 Ry     beta= 0.05
     Davidson diagonalization with overlap
     c_bands:  1 eigenvalues not converged
     ethr =  8.65E-08,  avg # of iterations = 13.7

[...]

     total energy              =   -2966.34218632 Ry
     estimated scf accuracy    <       0.00000015 Ry

     iteration # 66     ecut=    29.40 Ry     beta= 0.05
     Davidson diagonalization with overlap
     ethr =  3.67E-11,  avg # of iterations = 10.3

     negative rho (up, down):  1.685E-02 0.000E+00

     Adding external electric field

     Computed dipole along edir(3) :
        Dipole                0.9464 Ry au,          2.4055 Debye
        Dipole field          0.0018 Ry au,

        Potential amp.       -0.1656 Ry
        Total length         46.3494 bohr

     End of self-consistent calculation

          k = 0.0000 0.0000 0.0000 ( 18029 PWs)   bands (ev):

   -55.7049 -55.6690 -55.6658 -55.6295 -55.6178 -55.6045 -55.5836 -55.5495
   -55.4946 -55.4812 -55.4718 -55.4550 -55.4201 -55.3795 -54.7085 -54.6745
   -32.2234 -32.1746 -32.0955 -32.0631 -32.0468 -31.9973 -31.9810 -31.9701
   -31.9374 -31.9344 -31.8932 -31.8823 -31.8766 -31.8714 -31.8643 -31.8481
   -31.8471 -31.8039 -31.7992 -31.7968 -31.7882 -31.7835 -31.7693 -31.7554
   -31.7491 -31.7442 -31.7263 -31.7036 -31.6968 -31.6955 -31.6886 -31.6854
   -31.6729 -31.6653 -31.6521 -31.6445 -31.6372 -31.6012 -31.5954 -31.5706
   -31.5619 -31.5555 -31.1175 -31.0226 -31.0002 -30.9344 -30.8483 -30.7370
   -18.9058 -17.5519 -16.4194 -16.1503 -15.9890 -15.8613 -15.8228 -15.6271
   -15.5112 -15.3865 -15.3602 -15.3054 -15.2808 -15.2408 -15.2350 -15.2263
   -15.2155 -15.2069 -15.1530 -15.1188 -15.1064 -15.0966 -15.0849 -15.0336
   -14.9816 -14.9174 -14.8449 -14.8222 -14.7976 -14.7258 -14.7050 -13.2089
   -13.0911  -9.4158  -6.6745  -4.2663  -4.0750  -3.8103  -3.7698  -3.6425
    -3.6175  -3.5877  -3.5063  -3.3084  -3.2760  -3.1530  -2.9413  -2.8831
    -2.8275  -2.8037  -2.7613  -2.6102  -2.5913  -2.5209  -2.5101  -2.4915
    -2.4811  -2.4487  -2.4308  -2.3981  -2.3707  -2.3315  -2.2872  -2.2252
    -2.0864  -2.0721  -2.0348  -2.0174  -2.0058  -1.9912  -1.9543  -1.9330
    -1.8997  -1.8815  -1.8717  -1.7717  -1.6636  -1.5700  -1.5315  -1.4633
    -1.3831  -1.2387  -1.2178  -1.1469  -1.1217  -1.1060  -1.0552  -1.0031
    -0.9428  -0.9380  -0.8815  -0.7824  -0.7102  -0.6947  -0.6578  -0.6093
    -0.5497  -0.4738  -0.4448  -0.4273  -0.4041  -0.3918  -0.2044  -0.1790
    -0.1369  -0.1097  -0.0274   0.0312   0.0481   0.0665   0.0936   0.1201
     0.1931   0.2527   0.2619   0.2887   0.3326   0.3471   0.3808   0.4502
     0.4976   0.5160   0.5631   0.6125   0.6638   0.8042   0.9070   0.9503
     1.0620   1.2269   1.3160   1.3900   1.4911   1.9014   1.9574   3.4750
     3.5070   3.5350   3.5565   3.6332   3.7252   3.8350   3.9272   3.9425
     3.9717

[...]

          k = 0.0380-0.0419 0.0000 ( 17876 PWs)   bands (ev):

[...]

          k =-0.0760-0.0000 0.0000 ( 17886 PWs)   bands (ev):

[...]

          k =-0.0760-0.0839 0.0000 ( 17948 PWs)   bands (ev):

   -55.6927 -55.6811 -55.6495 -55.6456 -55.6149 -55.6025 -55.5708 -55.5623
   -55.4969 -55.4779 -55.4739 -55.4421 -55.4331 -55.3824 -54.6919 -54.6909
   -32.0365 -32.0175 -31.9973 -31.9903 -31.9853 -31.9839 -31.9668 -31.9297
   -31.9202 -31.9119 -31.9033 -31.8940 -31.8560 -31.8456 -31.8311 -31.8265
   -31.8261 -31.8198 -31.8182 -31.8106 -31.8029 -31.8001 -31.7931 -31.7841
   -31.7750 -31.7719 -31.7673 -31.7668 -31.7567 -31.7407 -31.7144 -31.6978
   -31.6925 -31.6862 -31.6855 -31.6819 -31.6760 -31.6587 -31.6486 -31.6372
   -31.6073 -31.5730 -31.0135 -31.0122 -30.9309 -30.9301 -30.8918 -30.8909
   -18.9045 -17.5193 -15.8881 -15.7742 -15.6560 -15.5820 -15.5703 -15.5241
   -15.4939 -15.4678 -15.4101 -15.4029 -15.3550 -15.3534 -15.3026 -15.2966
   -15.2457 -15.2136 -15.2095 -15.1681 -15.1452 -15.1368 -15.1268 -15.0903
   -15.0735 -15.0637 -15.0288 -15.0195 -14.9706 -14.9314 -14.9058 -13.1934
   -13.1915  -9.4182  -6.6690  -4.1626  -4.0408  -3.8127  -3.3068  -3.1742
    -2.9706  -2.9013  -2.8359  -2.7736  -2.7700  -2.6540  -2.6341  -2.5953
    -2.5647  -2.5321  -2.5243  -2.5139  -2.4975  -2.4947  -2.4776  -2.4383
    -2.4178  -2.3943  -2.3722  -2.3610  -2.3393  -2.3168  -2.3092  -2.2895
    -2.2565  -2.2499  -2.2421  -2.1789  -2.1163  -1.9835  -1.9399  -1.9266
    -1.8416  -1.8069  -1.7904  -1.7613  -1.7533  -1.7378  -1.6072  -1.5869
    -1.4921  -1.4268  -1.4076  -1.3796  -1.2712  -1.2122  -1.1820  -1.1586
    -1.1225  -1.0751  -1.0080  -0.9671  -0.9154  -0.8563  -0.8120  -0.7982
    -0.7650  -0.6614  -0.6571  -0.6487  -0.6074  -0.5679  -0.5150  -0.4668
    -0.4590  -0.4340  -0.4019  -0.3597  -0.3404  -0.2436  -0.2327  -0.1936
    -0.1470  -0.0545   0.1271   0.2095   0.3160   0.3508   0.3907   0.4520
     0.4967   0.5475   0.5950   0.6423   0.6688   0.7122   0.7462   0.8286
     0.8470   0.8523   0.9206   1.6776   1.6781   1.7641   1.7726   3.7189
     3.7341   3.7865   3.8052   3.9432   3.9490   3.9627   3.9721   4.0711
     4.1263

     the Fermi energy is     3.4461 ev

!    total energy              =   -2966.34221961 Ry
     estimated scf accuracy    <       0.00000004 Ry
     smearing contrib. (-TS)   =      -0.02282909 Ry
     internal energy E=F+TS    =   -2966.31939053 Ry

     The total energy is F=E-TS. E is the sum of the following terms:
     one-electron contribution =  -24405.13088627 Ry
     hartree contribution      =   12294.55797423 Ry
     xc contribution           =    -490.96106576 Ry
     ewald contribution        =    9635.21289709 Ry
     electric field correction =       0.00169018 Ry

     convergence has been achieved in  66 iterations

     Forces acting on atoms (cartesian axes, Ry/au):

     atom    1 type  1   force =     0.00017954   -0.00146821    0.10509963
     atom    2 type  1   force =     0.00006827    0.00125042   -0.17891314
     atom    3 type  2   force =    -0.00001140   -0.00501655   -0.03282600
     atom    4 type  2   force =    -0.00058001    0.00074439    0.04590486
     atom    5 type  2   force =    -0.01789949   -0.00053145    0.00428784
     atom    6 type  2   force =     0.01740168    0.00074156    0.00348325
     atom    7 type  1   force =    -0.00005901   -0.00058287   -0.00004714
     atom    8 type  1   force =    -0.00037540   -0.00056793    0.00046273
     atom    9 type  2   force =     0.00014955   -0.00028672   -0.00003321
     atom   10 type  2   force =     0.00022903   -0.00002460    0.00053231
     atom   11 type  2   force =    -0.00000038   -0.00010385   -0.00005968
     atom   12 type  2   force =    -0.00013269   -0.00028906   -0.00026366
     atom   13 type  1   force =     0.00055289   -0.00057715   -0.00132153
     atom   14 type  1   force =     0.00001602   -0.00046361    0.00036173
     atom   15 type  2   force =    -0.00013338   -0.00038289    0.00002269
     atom   16 type  2   force =     0.00005184   -0.00064155   -0.00004821
     atom   17 type  2   force =    -0.00035273   -0.00010879   -0.00037790
     atom   18 type  2   force =     0.00049810   -0.00042426    0.00003121
     atom   19 type  1   force =     0.00001209    0.00051357    0.00019513
     atom   20 type  1   force =     0.00007283   -0.00090214    0.00072619
     atom   21 type  2   force =     0.00007398    0.00011053    0.10390250
     atom   22 type  2   force =    -0.00029796   -0.00029272   -0.00029717
     atom   23 type  2   force =    -0.06946765    0.00050832   -0.02943909
     atom   24 type  2   force =     0.06949991    0.00087882   -0.02946705
     atom   25 type  1   force =     0.00027626    0.00145145    0.11393852
     atom   26 type  1   force =    -0.00005996   -0.00044509   -0.17908296
     atom   27 type  2   force =    -0.00013301    0.00371003   -0.02690087
     atom   28 type  2   force =    -0.00026928    0.00101659    0.04785102
     atom   29 type  2   force =    -0.01570799    0.00042178    0.00352661
     atom   30 type  2   force =     0.01708312    0.00264574    0.00290310
     atom   31 type  1   force =     0.00036754    0.00004928   -0.00016252
     atom   32 type  1   force =    -0.00066762    0.00012966    0.00029903
     atom   33 type  2   force =     0.00024909   -0.00040031    0.00016207
     atom   34 type  2   force =     0.00007112   -0.00004719   -0.00006420
     atom   35 type  2   force =     0.00012342   -0.00018459    0.00022224
     atom   36 type  2   force =     0.00018618    0.00016767    0.00015105
     atom   37 type  1   force =     0.00033865    0.00077449   -0.00023305
     atom   38 type  1   force =    -0.00008556   -0.00053914    0.00002865
     atom   39 type  2   force =    -0.00046968    0.00024731    0.00024114
     atom   40 type  2   force =     0.00026028   -0.00063849   -0.00012086
     atom   41 type  2   force =     0.00009180   -0.00004198   -0.00014728
     atom   42 type  2   force =    -0.00035857   -0.00037114   -0.00038796
     atom   43 type  1   force =    -0.00012202   -0.00025885   -0.00008042
     atom   44 type  1   force =     0.00031186    0.00032685    0.00035735
     atom   45 type  2   force =     0.00007907    0.00008284    0.10394219
     atom   46 type  2   force =    -0.06916472   -0.00107074   -0.02945828
     atom   47 type  2   force =     0.06914241   -0.00060136   -0.02953197
     atom   48 type  3   force =     0.00324450    0.00334759    0.00253173
     atom   49 type  2   force =    -0.00068500   -0.00000059   -0.00031954
     atom   50 type  4   force =     0.00107584    0.00117231    0.00106478
     atom   51 type  4   force =    -0.00035290    0.00046132   -0.00065072
     atom   52 type  4   force =    -0.00369012   -0.00373642   -0.00185911
     atom   53 type  2   force =     0.00079586    0.00108243    0.00050718
     atom   54 type  4   force =    -0.00021509   -0.00091281   -0.00061364
     atom   55 type  4   force =    -0.00121111    0.00007809   -0.00002955

     Total force =     0.374103     Total SCF correction =     0.000430
  @ DRIVER MODE: Message from server: STATUS
  @ DRIVER MODE: Message from server: GETFORCE
  @ DRIVER MODE: Returning v,forces,stress,ensemble

     Writing output data file ./calc.save/
  @ DRIVER MODE: Message from server: EXIT
  @ DRIVE MODE: Exiting

     General routines

     Parallel routines

   This run was terminated on:  18:59: 0  26Sep2021

   JOB DONE.