     Program PWSCF v.6.7GPU starts on 24Aug2021 at 14:36:37

     R & G space division:  proc/nbgrp/npool/nimage =      72
     Reading input from /storage/home/hcoda1/3/ntian30/research/carbon/CH2_vib/ads_slab/CH2NH_a/out_0014/pw.inp
Warning: card &CELL ignored
Warning: card   CELL_DYNAMICS='IPI', ignored
Warning: card / ignored

     Current dimensions of program PWSCF are:
     Max number of different atomic species (ntypx) = 10
     Max number of k-points (npk) =  40000
     Max angular momentum in pseudopotentials (lmaxx) =  3
     Presently no symmetry can be used with electric field

     Message from routine cell_base_init:
     DEPRECATED: use true lattice parameter, not A to a.u. conversion factor

     IMPORTANT: XC functional enforced from input :
     Exchange-correlation= BEEF-VDW
                           (   1   4  43  14   2   0   0)
     Any further DFT definition will be discarded
     Please, verify this is what you really want

  @ DRIVER MODE: Connecting to
 qe_1139763_2641438.sched-torque.pace.gatech.eduqv2uzc01_scratch
  using UNIX socket
  @ DRIVER MODE: Message from server: STATUS
  @ DRIVER MODE: Message from server: INIT
  @ DRIVER MODE: Receiving replica           0          -1
  @ DRIVER MODE: Receiving encoded integer          25
  @ DRIVER MODE:  SCF:  T  FORCE:  T  STRESS:  F  VC:  F  ENSEMBLE:  F
  @ DRIVER MODE:  SCF:  T  FORCE:  T  STRESS:  F  VC:  F  ENSEMBLE:  F

     Using Slab Decomposition

     bravais-lattice index     =            0
     lattice parameter (alat)  =       1.8897  a.u.
     unit-cell volume          =    6658.9804 (a.u.)^3
     number of atoms/cell      =           52
     number of atomic types    =            5
     number of electrons       =       390.00
     number of Kohn-Sham states=          205
     kinetic-energy cutoff     =      29.3995  Ry
     charge density cutoff     =     293.9946  Ry
     scf convergence threshold =      7.3E-08
     mixing beta               =       0.0500
     number of iterations used =            8  plain     mixing
     Exchange-correlation= BEEF-VDW
                           (   1   4  43  14   2   0   0)

     celldm(1)=   1.889726  celldm(2)=   0.000000  celldm(3)=   0.000000
     celldm(4)=   0.000000  celldm(5)=   0.000000  celldm(6)=   0.000000

     crystal axes: (cart. coord. in units of alat)
               a(1) = (   6.579727   0.000000   0.000000 )
               a(2) = (  -0.000775   5.961596   0.000000 )
               a(3) = (   0.000000   0.000000  25.155947 )

     reciprocal axes: (cart. coord. in units 2 pi/alat)
               b(1) = (  0.151982  0.000020  0.000000 )
               b(2) = (  0.000000  0.167740  0.000000 )
               b(3) = (  0.000000  0.000000  0.039752 )

     PseudoPot. # 1 for Ti read from file:
     /storage/coda1/p-amedford6/0/shared/rich_project_chbe-medford/medford-share/data/pseudos_module/espresso/nninc/pbe/van/Ti.UPF
     MD5 check sum: 8e4df49b7f0d34bbd5052bf3f5ea0213
     Pseudo is Ultrasoft, Zval = 12.0
     Generated by new atomic code, or converted to UPF format
     Using radial grid of  851 points,  6 beta functions with:
                l(1) =   0
                l(2) =   0
                l(3) =   1
                l(4) =   1
                l(5) =   2
                l(6) =   2
     Q(r) pseudized with  8 coefficients,  rinner =    1.000   1.000   1.000
                                                       1.000   1.000

     PseudoPot. # 2 for O  read from file:
     /storage/coda1/p-amedford6/0/shared/rich_project_chbe-medford/medford-share/data/pseudos_module/espresso/nninc/pbe/van/O.UPF
     MD5 check sum: 78c19812648e8988a0fe644b0f25305e
     Pseudo is Ultrasoft, Zval =  6.0
     Generated by new atomic code, or converted to UPF format
     Using radial grid of  737 points,  4 beta functions with:
                l(1) =   0
                l(2) =   0
                l(3) =   1
                l(4) =   1
     Q(r) pseudized with  8 coefficients,  rinner =    0.800   0.800   0.800

     PseudoPot. # 3 for N  read from file:
     /storage/coda1/p-amedford6/0/shared/rich_project_chbe-medford/medford-share/data/pseudos_module/espresso/nninc/pbe/van/N.UPF
     MD5 check sum: 90d10febe142ad51ac9d5be1deb811c4
     Pseudo is Ultrasoft, Zval =  5.0
     Generated by new atomic code, or converted to UPF format
     Using radial grid of  729 points,  4 beta functions with:
                l(1) =   0
                l(2) =   0
                l(3) =   1
                l(4) =   1
     Q(r) pseudized with  8 coefficients,  rinner =    0.800   0.800   0.800

     PseudoPot. # 4 for C  read from file:
     /storage/coda1/p-amedford6/0/shared/rich_project_chbe-medford/medford-share/data/pseudos_module/espresso/nninc/pbe/van/C.UPF
     MD5 check sum: 1a69bf6b8db32088f5b2163dbdb77a27
     Pseudo is Ultrasoft, Zval =  4.0
     Generated by new atomic code, or converted to UPF format
     Using radial grid of  721 points,  4 beta functions with:
                l(1) =   0
                l(2) =   0
                l(3) =   1
                l(4) =   1
     Q(r) pseudized with  8 coefficients,  rinner =    0.800   0.800   0.800

     PseudoPot. # 5 for H  read from file:
     /storage/coda1/p-amedford6/0/shared/rich_project_chbe-medford/medford-share/data/pseudos_module/espresso/nninc/pbe/van/H.UPF
     MD5 check sum: b5ee9d7bfd3a09ee7748110bda690ff7
     Pseudo is Ultrasoft, Zval =  1.0
     Generated by new atomic code, or converted to UPF format
     Using radial grid of  615 points,  1 beta functions with:
                l(1) =   0
     Q(r) pseudized with  8 coefficients,  rinner =    0.800

     atomic species   valence    mass     pseudopotential
        Ti1           12.00    47.86700     Ti( 1.00)
        O1             6.00    15.99900     O ( 1.00)
        N1             5.00    14.00700     N ( 1.00)
        C1             4.00    12.01100     C ( 1.00)
        H1             1.00     1.00800     H ( 1.00)

     No symmetry found

   Cartesian axes

     site n.     atom                  positions (alat units)
         1           Ti1 tau(   1) = (   0.0004258   2.9801865   6.0000000  )
         2           Ti1 tau(   2) = (   3.2906075   1.4906267   6.0002472  )
         3           O1  tau(   3) = (   0.0006271   0.0005054   7.9858123  )
         4           O1  tau(   4) = (   3.2906025   0.0005020   7.3038282  )
         5           O1  tau(   5) = (   4.5942328   1.4918067   9.2879030  )
         6           O1  tau(   6) = (   1.9868534   1.4903216   9.2879459  )
         7           Ti1 tau(   7) = (   3.2907910   2.8959150   9.1758416  )
         8           Ti1 tau(   8) = (   0.0015273   1.4827037   9.2680791  )
         9           O1  tau(   9) = (   3.2859541   5.9290403  11.3715426  )
        10           O1  tau(  10) = (   0.0116148   5.9584955  10.6183126  )
        11           O1  tau(  11) = (   1.2917987   1.4688796  12.6526629  )
        12           O1  tau(  12) = (   5.2888266   1.4686376  12.6403033  )
        13           Ti1 tau(  13) = (   0.0074927   2.9495069  12.5376589  )
        14           Ti1 tau(  14) = (   3.2957121   1.4606513  12.5174744  )
        15           O1  tau(  15) = (   6.5702453   0.0264740  14.6787910  )
        16           O1  tau(  16) = (   3.3001739   5.9406727  13.9930656  )
        17           O1  tau(  17) = (   4.5367710   1.4643441  16.2106543  )
        18           O1  tau(  18) = (   2.0349547   1.4576396  16.1973481  )
        19           Ti1 tau(  19) = (   3.2821410   2.9383233  15.7467721  )
        20           Ti1 tau(  20) = (   6.5624771   1.3975196  16.0657228  )
        21           O1  tau(  21) = (   3.2904802   0.0005063   4.7018136  )
        22           O1  tau(  22) = (   0.0049924   5.8117904  17.2112648  )
        23           O1  tau(  23) = (   1.3043587   1.4918075   6.0039043  )
        24           O1  tau(  24) = (   5.2767064   1.4903225   6.0039473  )
        25           Ti1 tau(  25) = (   0.0000382   5.9609847   6.0000000  )
        26           Ti1 tau(  26) = (   3.2902200   4.4714249   6.0002472  )
        27           O1  tau(  27) = (   0.0002396   2.9813036   7.9858123  )
        28           O1  tau(  28) = (   3.2902150   2.9813002   7.3038282  )
        29           O1  tau(  29) = (   4.5938453   4.4726049   9.2879030  )
        30           O1  tau(  30) = (   1.9864658   4.4711199   9.2879459  )
        31           Ti1 tau(  31) = (   3.2891106   5.8743827   9.1763621  )
        32           Ti1 tau(  32) = (   0.0006254   4.4649316   9.2693709  )
        33           O1  tau(  33) = (   3.2878059   2.9597088  11.3652031  )
        34           O1  tau(  34) = (   0.0092240   2.9805883  10.6323155  )
        35           O1  tau(  35) = (   1.2887225   4.4431869  12.6829221  )
        36           O1  tau(  36) = (   5.2901277   4.4428847  12.6690855  )
        37           Ti1 tau(  37) = (   0.0035388   5.9380168  12.5099366  )
        38           Ti1 tau(  38) = (   3.2962120   4.4389810  12.5267566  )
        39           O1  tau(  39) = (   6.5655450   2.9014274  14.9049457  )
        40           O1  tau(  40) = (   3.2937888   2.9365130  13.9572806  )
        41           O1  tau(  41) = (   4.5374039   4.4072578  16.1608974  )
        42           O1  tau(  42) = (   2.0345115   4.4188705  16.1151926  )
        43           Ti1 tau(  43) = (   3.2925710   5.9161036  15.7896908  )
        44           Ti1 tau(  44) = (   0.0121651   4.6006060  15.8502786  )
        45           O1  tau(  45) = (   3.2900926   2.9813045   4.7018136  )
        46           O1  tau(  46) = (   1.3039711   4.4726057   6.0039043  )
        47           O1  tau(  47) = (   5.2763189   4.4711207   6.0039473  )
        48           N1  tau(  48) = (   6.5581919   2.6818180  17.9522317  )
        49           C1  tau(  49) = (   0.8403426   2.5546117  18.8965076  )
        50           H1  tau(  50) = (   0.6893733   2.9585088  19.8916666  )
        51           H1  tau(  51) = (   1.7584391   2.0155774  18.6961775  )
        52           H1  tau(  52) = (   5.7198555   3.1867788  18.2393814  )

     number of k points=    10  Fermi-Dirac smearing, width (Ry)=  0.0073
                       cart. coord. in units 2pi/alat
        k(    1) = (   0.0000000   0.0000000   0.0000000), wk =   0.1250000
        k(    2) = (   0.0000000   0.0419351   0.0000000), wk =   0.2500000
        k(    3) = (   0.0000000  -0.0838702   0.0000000), wk =   0.1250000
        k(    4) = (   0.0379955   0.0000049   0.0000000), wk =   0.2500000
        k(    5) = (   0.0379955   0.0419400   0.0000000), wk =   0.2500000
        k(    6) = (   0.0379955  -0.0838652   0.0000000), wk =   0.2500000
        k(    7) = (   0.0379955  -0.0419301   0.0000000), wk =   0.2500000
        k(    8) = (  -0.0759910  -0.0000099   0.0000000), wk =   0.1250000
        k(    9) = (  -0.0759910   0.0419252   0.0000000), wk =   0.2500000
        k(   10) = (  -0.0759910  -0.0838800   0.0000000), wk =   0.1250000

     Initial potential from superposition of free atoms

     starting charge  373.99917, renormalised to  390.00000

     negative rho (up, down):  1.699E-02 0.000E+00

     %%%%%%%%%%%%%%%%%%%%%%%%%%%%%%%%%%%%%%%%%%%%%%%%%%%%%%%%%%%%%%%%%%%%%%%%
     %                                                                      %
     % You are using vdW-DF, which was implemented by the Thonhauser group. %
     % Please cite the following two papers that made this development      %
     % possible and the two reviews that describe the various versions:     %
     %                                                                      %
     %   T. Thonhauser et al., PRL 115, 136402 (2015).                      %
     %   T. Thonhauser et al., PRB 76, 125112 (2007).                       %
     %   K. Berland et al., Rep. Prog. Phys. 78, 066501 (2015).             %
     %   D.C. Langreth et al., J. Phys.: Condens. Matter 21, 084203 (2009). %
     %                                                                      %
     %                                                                      %
     % If you are calculating the stress with vdW-DF, please also cite:     %
     %                                                                      %
     %   R. Sabatini et al., J. Phys.: Condens. Matter 24, 424209 (2012).   %
     %                                                                      %
     %%%%%%%%%%%%%%%%%%%%%%%%%%%%%%%%%%%%%%%%%%%%%%%%%%%%%%%%%%%%%%%%%%%%%%%%

     Adding external electric field

     Computed dipole along edir(3) :
        Dipole               -6.0480 Ry au,        -15.3725 Debye
        Dipole field         -0.0114 Ry au,

        Potential amp.        1.0580 Ry
        Total length         46.3494 bohr

     Starting wfcs are  295 atomic wfcs
  @ DRIVER MODE: Message from server: STATUS
  @ DRIVER MODE: Message from server: POSDATA
  @ DRIVER MODE: Reading and sharing cell
  @ DRIVER MODE: Reading and sharing positions
  @ DRIVER MODE: Received positions

     Self-consistent Calculation

     iteration #  1     ecut=    29.40 Ry     beta= 0.05
     Davidson diagonalization with overlap
     c_bands:  1 eigenvalues not converged
     c_bands:  1 eigenvalues not converged
     ethr =  1.00E-05,  avg # of iterations = 16.8

[...]

     total energy              =   -2758.77124228 Ry
     estimated scf accuracy    <    1760.43752231 Ry

     iteration #  2     ecut=    29.40 Ry     beta= 0.05
     Davidson diagonalization with overlap
     ethr =  1.00E-02,  avg # of iterations = 18.5

[...]

     iteration # 58     ecut=    29.40 Ry     beta= 0.05
     Davidson diagonalization with overlap
     c_bands:  1 eigenvalues not converged
     ethr =  7.96E-11,  avg # of iterations = 14.8

[...]

     total energy              =   -2919.11583995 Ry
     estimated scf accuracy    <       0.00000010 Ry

     iteration # 60     ecut=    29.40 Ry     beta= 0.05
     Davidson diagonalization with overlap
     ethr =  2.66E-11,  avg # of iterations =  6.2

     negative rho (up, down):  1.721E-02 0.000E+00

     Adding external electric field

     Computed dipole along edir(3) :
        Dipole                1.2608 Ry au,          3.2047 Debye
        Dipole field          0.0024 Ry au,

        Potential amp.       -0.2206 Ry
        Total length         46.3494 bohr

     End of self-consistent calculation

          k = 0.0000 0.0000 0.0000 ( 18029 PWs)   bands (ev):

   -55.5458 -55.5091 -55.5074 -55.4733 -55.4380 -55.4210 -55.3835 -55.3611
   -55.3607 -55.3359 -55.3262 -55.3127 -55.3025 -55.1301 -54.5282 -54.4942
   -32.1124 -31.9984 -31.9086 -31.8671 -31.8607 -31.8500 -31.8406 -31.8358
   -31.7970 -31.7856 -31.7540 -31.7523 -31.7520 -31.7168 -31.6991 -31.6811
   -31.6759 -31.6678 -31.6618 -31.6578 -31.6198 -31.6164 -31.6012 -31.5908
   -31.5644 -31.5626 -31.5612 -31.5526 -31.5480 -31.5424 -31.5322 -31.5238
   -31.5141 -31.5133 -31.5097 -31.4821 -31.4750 -31.4687 -31.4644 -31.4456
   -31.3537 -31.2713 -30.9371 -30.8440 -30.8219 -30.7537 -30.6669 -30.5559
   -16.5469 -16.3415 -16.0754 -15.8986 -15.7949 -15.7347 -15.5983 -15.5223
   -15.4447 -15.3423 -15.2517 -15.1851 -15.1688 -15.1482 -15.1435 -15.0827
   -15.0792 -15.0547 -15.0376 -15.0361 -14.9817 -14.9742 -14.9426 -14.9304
   -14.9195 -14.8464 -14.7630 -14.6942 -14.6339 -14.2067 -13.0308 -12.9136
    -9.3145  -6.2764  -4.6800  -3.7002  -3.5470  -3.4526  -3.4416  -3.4194
    -3.2714  -3.1334  -2.9274  -2.8467  -2.8004  -2.7511  -2.7232  -2.7054
    -2.6203  -2.5204  -2.4452  -2.4006  -2.3756  -2.3625  -2.3517  -2.3245
    -2.3123  -2.2792  -2.2399  -2.1978  -2.0940  -2.0061  -1.9650  -1.9302
    -1.8735  -1.8621  -1.8357  -1.8294  -1.8228  -1.8013  -1.7627  -1.7526
    -1.7054  -1.5665  -1.5534  -1.4353  -1.3991  -1.2856  -1.1849  -1.1799
    -1.0932  -1.0902  -1.0216  -0.9676  -0.9368  -0.9288  -0.8782  -0.8297
    -0.7404  -0.6472  -0.5856  -0.5437  -0.5089  -0.4798  -0.4124  -0.3215
    -0.3162  -0.3058  -0.2031  -0.1242  -0.1020  -0.0490  -0.0169   0.0263
     0.0424   0.1528   0.1954   0.2371   0.2554   0.3342   0.3558   0.4114
     0.4166   0.4517   0.4608   0.5266   0.5741   0.5935   0.6435   0.6624
     0.8206   1.0733   1.0805   1.1281   1.4034   1.4336   1.4944   1.6793
     2.0697   2.1175   3.5539   3.6264   3.6914   3.7042   3.7458   3.7907
     3.9578   4.0387   4.0551   4.0594   4.0908

[...]

          k = 0.0380-0.0419 0.0000 ( 17876 PWs)   bands (ev):

[...]

          k =-0.0760-0.0000 0.0000 ( 17886 PWs)   bands (ev):

[...]

          k =-0.0760-0.0839 0.0000 ( 17948 PWs)   bands (ev):

   -55.5311 -55.5235 -55.4903 -55.4902 -55.4340 -55.4099 -55.3946 -55.3649
   -55.3445 -55.3418 -55.3195 -55.3191 -55.3111 -55.1317 -54.5111 -54.5111
   -31.9187 -31.9137 -31.8297 -31.8136 -31.8134 -31.8051 -31.7825 -31.7823
   -31.7588 -31.7523 -31.7452 -31.7433 -31.7381 -31.7000 -31.6782 -31.6748
   -31.6708 -31.6665 -31.6627 -31.6577 -31.6533 -31.6340 -31.6201 -31.6192
   -31.6098 -31.6097 -31.6070 -31.5898 -31.5773 -31.5743 -31.5639 -31.5579
   -31.5551 -31.5540 -31.5447 -31.5437 -31.5112 -31.4990 -31.4986 -31.4865
   -31.3585 -31.3527 -30.8346 -30.8345 -30.7497 -30.7496 -30.7103 -30.7102
   -16.5237 -15.7800 -15.7461 -15.7306 -15.5269 -15.5186 -15.5108 -15.4928
   -15.3325 -15.3187 -15.2920 -15.2760 -15.2443 -15.2408 -15.2105 -15.1775
   -15.1248 -15.1204 -15.1120 -15.1097 -15.0500 -15.0457 -15.0254 -14.9968
   -14.9949 -14.9887 -14.8939 -14.8919 -14.7196 -14.5266 -13.0151 -13.0151
    -9.3189  -6.2721  -4.6623  -3.0550  -2.9937  -2.9333  -2.7364  -2.7329
    -2.7021  -2.6199  -2.5503  -2.5395  -2.5120  -2.4837  -2.4813  -2.4328
    -2.3886  -2.3788  -2.3676  -2.3603  -2.3419  -2.3279  -2.2988  -2.2624
    -2.2534  -2.2227  -2.2088  -2.1841  -2.1823  -2.1459  -2.1222  -2.1078
    -2.0962  -2.0324  -1.9329  -1.8809  -1.7946  -1.7677  -1.7395  -1.7334
    -1.6518  -1.6246  -1.5975  -1.5568  -1.5446  -1.5105  -1.3072  -1.2775
    -1.2682  -1.2543  -1.2309  -1.0806  -1.0711  -1.0209  -0.9898  -0.9422
    -0.8847  -0.8489  -0.8347  -0.7529  -0.7213  -0.6775  -0.6379  -0.5153
    -0.5109  -0.5037  -0.5022  -0.4841  -0.3978  -0.3859  -0.3428  -0.3095
    -0.2684  -0.2543  -0.1890  -0.0071   0.0098   0.0758   0.1828   0.2772
     0.3716   0.4506   0.4708   0.5217   0.5646   0.5847   0.6638   0.7569
     0.7688   0.8372   0.8831   0.9242   0.9284   0.9335   1.8523   1.8529
     1.9373   1.9376   3.6773   3.8019   3.8224   3.8602   3.8786   4.0277
     4.0735   4.1113   4.1332   4.1355   4.2149

     the Fermi energy is     3.6093 ev

!    total energy              =   -2919.11588070 Ry
     estimated scf accuracy    <       0.00000004 Ry
     smearing contrib. (-TS)   =      -0.03731428 Ry
     internal energy E=F+TS    =   -2919.07856642 Ry

     The total energy is F=E-TS. E is the sum of the following terms:
     one-electron contribution =  -24307.25894904 Ry
     hartree contribution      =   12241.03472522 Ry
     xc contribution           =    -480.01619997 Ry
     ewald contribution        =    9627.15885737 Ry
     electric field correction =       0.00299999 Ry

     convergence has been achieved in  60 iterations

     Forces acting on atoms (cartesian axes, Ry/au):

     atom    1 type  1   force =     0.00005059   -0.00016873    0.09381802
     atom    2 type  1   force =    -0.00018092   -0.00019051   -0.17778312
     atom    3 type  2   force =     0.00002680   -0.00022965   -0.02114837
     atom    4 type  2   force =    -0.00001651   -0.00199183    0.05774566
     atom    5 type  2   force =    -0.01108887   -0.00164720    0.00749088
     atom    6 type  2   force =     0.01245115   -0.00098117    0.00637345
     atom    7 type  1   force =    -0.00048030    0.00246550   -0.01335340
     atom    8 type  1   force =     0.00030724    0.00291182    0.00274362
     atom    9 type  2   force =     0.00007647   -0.00007760    0.00013250
     atom   10 type  2   force =    -0.00176474   -0.00228879   -0.00367034
     atom   11 type  2   force =     0.00015701    0.00059977   -0.00027539
     atom   12 type  2   force =     0.00045424    0.00053583   -0.00009251
     atom   13 type  1   force =    -0.00072318   -0.00094232   -0.00029627
     atom   14 type  1   force =     0.00082777    0.00026656   -0.00048937
     atom   15 type  2   force =     0.00026042    0.00020177   -0.00004135
     atom   16 type  2   force =    -0.00008107    0.00034097   -0.00064576
     atom   17 type  2   force =     0.00002958    0.00010587    0.00028336
     atom   18 type  2   force =     0.00054765   -0.00000788    0.00013333
     atom   19 type  1   force =     0.00023515   -0.00097517    0.00041686
     atom   20 type  1   force =    -0.00009953    0.00047031    0.00044831
     atom   21 type  2   force =     0.00004416   -0.00002647    0.10381309
     atom   22 type  2   force =     0.00002052   -0.00067745    0.00003035
     atom   23 type  2   force =    -0.07058597   -0.00014431   -0.02707183
     atom   24 type  2   force =     0.07046237    0.00031821   -0.02712070
     atom   25 type  1   force =     0.00008595   -0.00017095    0.09362134
     atom   26 type  1   force =    -0.00009518   -0.00027060   -0.17782250
     atom   27 type  2   force =     0.00008241   -0.00044281   -0.02017167
     atom   28 type  2   force =     0.00002483   -0.00168968    0.05723574
     atom   29 type  2   force =    -0.01116782   -0.00114842    0.00695243
     atom   30 type  2   force =     0.01242083   -0.00080656    0.00581488
     atom   31 type  1   force =    -0.00039341    0.00469041   -0.01443398
     atom   32 type  1   force =     0.00037349   -0.00359339    0.00245302
     atom   33 type  2   force =    -0.00000454    0.00057618    0.00039267
     atom   34 type  2   force =    -0.00117964   -0.00057619   -0.00105571
     atom   35 type  2   force =     0.00038077    0.00025392    0.00021554
     atom   36 type  2   force =     0.00015474    0.00032799    0.00018633
     atom   37 type  1   force =    -0.00053395    0.00131961    0.00010284
     atom   38 type  1   force =     0.00086644    0.00007226   -0.00084639
     atom   39 type  2   force =     0.00012583    0.00046038    0.00032010
     atom   40 type  2   force =     0.00017870    0.00020308   -0.00054572
     atom   41 type  2   force =     0.00023083    0.00008942   -0.00071584
     atom   42 type  2   force =    -0.00008910    0.00005225   -0.00074238
     atom   43 type  1   force =    -0.00000924    0.00107494    0.00015975
     atom   44 type  1   force =    -0.00015909    0.00033332   -0.00063620
     atom   45 type  2   force =     0.00004539   -0.00003459    0.10378134
     atom   46 type  2   force =    -0.07062319   -0.00007001   -0.02707518
     atom   47 type  2   force =     0.07049872    0.00034712   -0.02710254
     atom   48 type  3   force =    -0.00103392   -0.00043958   -0.00005970
     atom   49 type  4   force =     0.00128071   -0.00075879   -0.00181505
     atom   50 type  5   force =    -0.00237213    0.00242124    0.00162593
     atom   51 type  5   force =    -0.00016469   -0.00028412   -0.00033983
     atom   52 type  5   force =     0.00014624    0.00019604   -0.00094025

     Total force =     0.365935     Total SCF correction =     0.000385
  @ DRIVER MODE: Message from server: STATUS
  @ DRIVER MODE: Message from server: GETFORCE
  @ DRIVER MODE: Returning v,forces,stress,ensemble

     Writing output data file ./calc.save/
  @ DRIVER MODE: Message from server: EXIT
  @ DRIVE MODE: Exiting

     General routines

     Parallel routines

   This run was terminated on:  14:58:43  24Aug2021

   JOB DONE.