     Program PWSCF v.6.7GPU starts on 15Jul2021 at 16:27:55

     R & G space division:  proc/nbgrp/npool/nimage =      16
     Reading input from /storage/home/hcoda1/3/ntian30/research/carbon/15Jul_vib/ads_slab/CH3NH2_a/out_0000/pw.inp
Warning: card &CELL ignored
Warning: card   CELL_DYNAMICS='IPI', ignored
Warning: card / ignored

     Current dimensions of program PWSCF are:
     Max number of different atomic species (ntypx) = 10
     Max number of k-points (npk) =  40000
     Max angular momentum in pseudopotentials (lmaxx) =  3
     Presently no symmetry can be used with electric field

     Message from routine cell_base_init:
     DEPRECATED: use true lattice parameter, not A to a.u. conversion factor

     IMPORTANT: XC functional enforced from input :
     Exchange-correlation= BEEF-VDW
                           (   1   4  43  14   2   0   0)
     Any further DFT definition will be discarded
     Please, verify this is what you really want

  @ DRIVER MODE: Connecting to
 qe_1139763_2351647.sched-torque.pace.gatech.eduubj3b00w_scratch
  using UNIX socket
  @ DRIVER MODE: Message from server: STATUS
  @ DRIVER MODE: Message from server: INIT
  @ DRIVER MODE: Receiving replica           0          -1
  @ DRIVER MODE: Receiving encoded integer          25
  @ DRIVER MODE:  SCF:  T  FORCE:  T  STRESS:  F  VC:  F  ENSEMBLE:  F
  @ DRIVER MODE:  SCF:  T  FORCE:  T  STRESS:  F  VC:  F  ENSEMBLE:  F

     Using Slab Decomposition

     bravais-lattice index     =            0
     lattice parameter (alat)  =       1.8897  a.u.
     unit-cell volume          =    6658.9804 (a.u.)^3
     number of atoms/cell      =           54
     number of atomic types    =            5
     number of electrons       =       392.00
     number of Kohn-Sham states=          206
     kinetic-energy cutoff     =      29.3995  Ry
     charge density cutoff     =     293.9946  Ry
     scf convergence threshold =      7.3E-08
     mixing beta               =       0.0500
     number of iterations used =            8  plain     mixing
     Exchange-correlation= BEEF-VDW
                           (   1   4  43  14   2   0   0)

     celldm(1)=   1.889726  celldm(2)=   0.000000  celldm(3)=   0.000000
     celldm(4)=   0.000000  celldm(5)=   0.000000  celldm(6)=   0.000000

     crystal axes: (cart. coord. in units of alat)
               a(1) = (   6.579727   0.000000   0.000000 )
               a(2) = (  -0.000775   5.961596   0.000000 )
               a(3) = (   0.000000   0.000000  25.155947 )

     reciprocal axes: (cart. coord. in units 2 pi/alat)
               b(1) = (  0.151982  0.000020  0.000000 )
               b(2) = (  0.000000  0.167740  0.000000 )
               b(3) = (  0.000000  0.000000  0.039752 )

     PseudoPot. # 1 for Ti read from file:
     /storage/coda1/p-amedford6/0/shared/rich_project_chbe-medford/medford-share/data/pseudos_module/espresso/nninc/pbe/van/Ti.UPF
     MD5 check sum: 8e4df49b7f0d34bbd5052bf3f5ea0213
     Pseudo is Ultrasoft, Zval = 12.0
     Generated by new atomic code, or converted to UPF format
     Using radial grid of  851 points,  6 beta functions with:
                l(1) =   0
                l(2) =   0
                l(3) =   1
                l(4) =   1
                l(5) =   2
                l(6) =   2
     Q(r) pseudized with  8 coefficients,  rinner =    1.000   1.000   1.000
                                                       1.000   1.000

     PseudoPot. # 2 for O  read from file:
     /storage/coda1/p-amedford6/0/shared/rich_project_chbe-medford/medford-share/data/pseudos_module/espresso/nninc/pbe/van/O.UPF
     MD5 check sum: 78c19812648e8988a0fe644b0f25305e
     Pseudo is Ultrasoft, Zval =  6.0
     Generated by new atomic code, or converted to UPF format
     Using radial grid of  737 points,  4 beta functions with:
                l(1) =   0
                l(2) =   0
                l(3) =   1
                l(4) =   1
     Q(r) pseudized with  8 coefficients,  rinner =    0.800   0.800   0.800

     PseudoPot. # 3 for H  read from file:
     /storage/coda1/p-amedford6/0/shared/rich_project_chbe-medford/medford-share/data/pseudos_module/espresso/nninc/pbe/van/H.UPF
     MD5 check sum: b5ee9d7bfd3a09ee7748110bda690ff7
     Pseudo is Ultrasoft, Zval =  1.0
     Generated by new atomic code, or converted to UPF format
     Using radial grid of  615 points,  1 beta functions with:
                l(1) =   0
     Q(r) pseudized with  8 coefficients,  rinner =    0.800

     PseudoPot. # 4 for N  read from file:
     /storage/coda1/p-amedford6/0/shared/rich_project_chbe-medford/medford-share/data/pseudos_module/espresso/nninc/pbe/van/N.UPF
     MD5 check sum: 90d10febe142ad51ac9d5be1deb811c4
     Pseudo is Ultrasoft, Zval =  5.0
     Generated by new atomic code, or converted to UPF format
     Using radial grid of  729 points,  4 beta functions with:
                l(1) =   0
                l(2) =   0
                l(3) =   1
                l(4) =   1
     Q(r) pseudized with  8 coefficients,  rinner =    0.800   0.800   0.800

     PseudoPot. # 5 for C  read from file:
     /storage/coda1/p-amedford6/0/shared/rich_project_chbe-medford/medford-share/data/pseudos_module/espresso/nninc/pbe/van/C.UPF
     MD5 check sum: 1a69bf6b8db32088f5b2163dbdb77a27
     Pseudo is Ultrasoft, Zval =  4.0
     Generated by new atomic code, or converted to UPF format
     Using radial grid of  721 points,  4 beta functions with:
                l(1) =   0
                l(2) =   0
                l(3) =   1
                l(4) =   1
     Q(r) pseudized with  8 coefficients,  rinner =    0.800   0.800   0.800

     atomic species   valence    mass     pseudopotential
        Ti1           12.00    47.86700     Ti( 1.00)
        O1             6.00    15.99900     O ( 1.00)
        H1             1.00     1.00800     H ( 1.00)
        N1             5.00    14.00700     N ( 1.00)
        C1             4.00    12.01100     C ( 1.00)

     Starting magnetic structure
     atomic species   magnetization
        Ti1          0.000
        O1           0.000
        H1           0.000
        N1           0.000
        C1           0.025

     No symmetry found

   Cartesian axes

     site n.     atom                  positions (alat units)
         1           Ti1 tau(   1) = (   0.0004258   2.9801865   6.0000000  )
         2           Ti1 tau(   2) = (   3.2906075   1.4906267   6.0002472  )
         3           O1  tau(   3) = (   0.0006271   0.0005054   7.9858123  )
         4           O1  tau(   4) = (   3.2906025   0.0005020   7.3038282  )
         5           O1  tau(   5) = (   4.5942328   1.4918067   9.2879030  )
         6           O1  tau(   6) = (   1.9868534   1.4903216   9.2879459  )
         7           Ti1 tau(   7) = (   3.2907910   2.8959150   9.1758416  )
         8           Ti1 tau(   8) = (   0.0015273   1.4827037   9.2680791  )
         9           O1  tau(   9) = (   3.2764298   0.0032354  11.3770789  )
        10           O1  tau(  10) = (   0.0116148   5.9584955  10.6183126  )
        11           O1  tau(  11) = (   1.2747638   1.4931710  12.6971893  )
        12           O1  tau(  12) = (   5.2817712   1.4903522  12.6806618  )
        13           Ti1 tau(  13) = (   6.5676529   2.9732189  12.5062122  )
        14           Ti1 tau(  14) = (   3.2766800   1.4809802  12.5336434  )
        15           O1  tau(  15) = (   6.5470194   5.8867849  14.7036171  )
        16           O1  tau(  16) = (   3.2776651   5.9556151  14.0032320  )
        17           O1  tau(  17) = (   4.5091997   1.5331545  16.1660716  )
        18           O1  tau(  18) = (   1.9944719   1.5276542  16.1393230  )
        19           Ti1 tau(  19) = (   3.2573122   3.0077756  15.7593658  )
        20           Ti1 tau(  20) = (   6.5589466   1.3143649  15.8680718  )
        21           O1  tau(  21) = (   3.2904802   0.0005063   4.7018136  )
        22           O1  tau(  22) = (   6.5386106   0.1512346  17.2501133  )
        23           O1  tau(  23) = (   1.3043587   1.4918075   6.0039043  )
        24           O1  tau(  24) = (   5.2767064   1.4903225   6.0039473  )
        25           Ti1 tau(  25) = (   0.0000382   5.9609847   6.0000000  )
        26           Ti1 tau(  26) = (   3.2902200   4.4714249   6.0002472  )
        27           O1  tau(  27) = (   0.0002396   2.9813036   7.9858123  )
        28           O1  tau(  28) = (   3.2902150   2.9813002   7.3038282  )
        29           O1  tau(  29) = (   4.5938453   4.4726049   9.2879030  )
        30           O1  tau(  30) = (   1.9864658   4.4711199   9.2879459  )
        31           Ti1 tau(  31) = (   3.2891106   5.8743827   9.1763621  )
        32           Ti1 tau(  32) = (   0.0006254   4.4649316   9.2693709  )
        33           O1  tau(  33) = (   3.2800745   2.9703478  11.3709363  )
        34           O1  tau(  34) = (   0.0092240   2.9805883  10.6323155  )
        35           O1  tau(  35) = (   1.2777299   4.4606407  12.6608526  )
        36           O1  tau(  36) = (   5.2778393   4.4632610  12.6460003  )
        37           Ti1 tau(  37) = (   6.5690533   5.9429793  12.5031582  )
        38           Ti1 tau(  38) = (   3.2786254   4.4589551  12.5214668  )
        39           O1  tau(  39) = (   6.5354733   3.0384833  14.9766919  )
        40           O1  tau(  40) = (   3.2791638   3.0036098  13.9700814  )
        41           O1  tau(  41) = (   4.4983502   4.4848413  16.2456934  )
        42           O1  tau(  42) = (   1.9866127   4.4820094  16.2221982  )
        43           Ti1 tau(  43) = (   3.2666378   0.0261420  15.7997788  )
        44           Ti1 tau(  44) = (   6.5668271   4.5279224  16.0664899  )
        45           O1  tau(  45) = (   3.2900926   2.9813045   4.7018136  )
        46           O1  tau(  46) = (   1.3039711   4.4726057   6.0039043  )
        47           O1  tau(  47) = (   5.2763189   4.4711207   6.0039473  )
        48           H1  tau(  48) = (   5.7254277   4.1132278  18.4743583  )
        49           H1  tau(  49) = (   5.8544422   2.5125186  18.2095680  )
        50           N1  tau(  50) = (   6.3703568   3.3906518  18.1617682  )
        51           C1  tau(  51) = (   0.9530889   3.3347298  19.0741625  )
        52           H1  tau(  52) = (   1.4659278   4.2935310  19.0402106  )
        53           H1  tau(  53) = (   0.6569204   3.1189037  20.1036144  )
        54           H1  tau(  54) = (   1.6325849   2.5561260  18.7331930  )

     number of k points=    10  Fermi-Dirac smearing, width (Ry)=  0.0073
                       cart. coord. in units 2pi/alat
        k(    1) = (   0.0000000   0.0000000   0.0000000), wk =   0.0625000
        k(    2) = (   0.0000000   0.0419351   0.0000000), wk =   0.1250000
        k(    3) = (   0.0000000  -0.0838702   0.0000000), wk =   0.0625000
        k(    4) = (   0.0379955   0.0000049   0.0000000), wk =   0.1250000
        k(    5) = (   0.0379955   0.0419400   0.0000000), wk =   0.1250000
        k(    6) = (   0.0379955  -0.0838652   0.0000000), wk =   0.1250000
        k(    7) = (   0.0379955  -0.0419301   0.0000000), wk =   0.1250000
        k(    8) = (  -0.0759910  -0.0000099   0.0000000), wk =   0.0625000
        k(    9) = (  -0.0759910   0.0419252   0.0000000), wk =   0.1250000
        k(   10) = (  -0.0759910  -0.0838800   0.0000000), wk =   0.0625000

     Initial potential from superposition of free atoms

     starting charge  375.99915, renormalised to  392.00000

     negative rho (up, down):  8.113E-03 8.119E-03

     %%%%%%%%%%%%%%%%%%%%%%%%%%%%%%%%%%%%%%%%%%%%%%%%%%%%%%%%%%%%%%%%%%%%%%%%
     %                                                                      %
     % You are using vdW-DF, which was implemented by the Thonhauser group. %
     % Please cite the following two papers that made this development      %
     % possible and the two reviews that describe the various versions:     %
     %                                                                      %
     %   T. Thonhauser et al., PRL 115, 136402 (2015).                      %
     %   T. Thonhauser et al., PRB 76, 125112 (2007).                       %
     %   K. Berland et al., Rep. Prog. Phys. 78, 066501 (2015).             %
     %   D.C. Langreth et al., J. Phys.: Condens. Matter 21, 084203 (2009). %
     %                                                                      %
     %                                                                      %
     % If you are calculating the stress with vdW-DF, please also cite:     %
     %                                                                      %
     %   R. Sabatini et al., J. Phys.: Condens. Matter 24, 424209 (2012).   %
     %                                                                      %
     %%%%%%%%%%%%%%%%%%%%%%%%%%%%%%%%%%%%%%%%%%%%%%%%%%%%%%%%%%%%%%%%%%%%%%%%

     Adding external electric field

     Computed dipole along edir(3) :
        Dipole               -7.5680 Ry au,        -19.2360 Debye
        Dipole field         -0.0143 Ry au,

        Potential amp.        1.3239 Ry
        Total length         46.3494 bohr

[...]

     Starting wfcs are  297 atomic wfcs
  @ DRIVER MODE: Message from server: STATUS
  @ DRIVER MODE: Message from server: POSDATA
  @ DRIVER MODE: Reading and sharing cell
  @ DRIVER MODE: Reading and sharing positions
  @ DRIVER MODE: Received positions

     Self-consistent Calculation

     iteration #  1     ecut=    29.40 Ry     beta= 0.05
     Davidson diagonalization with overlap
     ethr =  1.00E-02,  avg # of iterations =  2.1

[...]

     total energy              =   -2680.62149604 Ry
     estimated scf accuracy    <    2664.59200826 Ry

     total magnetization       =     0.00 Bohr mag/cell
     absolute magnetization    =     0.02 Bohr mag/cell

     iteration #  2     ecut=    29.40 Ry     beta= 0.05
     Davidson diagonalization with overlap
     c_bands:  1 eigenvalues not converged
     c_bands:  1 eigenvalues not converged
     c_bands:  4 eigenvalues not converged
     c_bands:  2 eigenvalues not converged
     c_bands:  1 eigenvalues not converged
     c_bands:  1 eigenvalues not converged
     c_bands:  2 eigenvalues not converged
     c_bands:  3 eigenvalues not converged
     ethr =  1.00E-02,  avg # of iterations = 20.1

[...]

     iteration # 97     ecut=    29.40 Ry     beta= 0.05
     Davidson diagonalization with overlap
     c_bands:  1 eigenvalues not converged
     c_bands:  1 eigenvalues not converged
     ethr =  1.91E-11,  avg # of iterations = 15.8

[...]

     total energy              =   -2921.63350890 Ry
     estimated scf accuracy    <       0.00000009 Ry

[...]

     iteration # 98     ecut=    29.40 Ry     beta= 0.05
     Davidson diagonalization with overlap
     ethr =  1.91E-11,  avg # of iterations =  6.2

     negative rho (up, down):  8.558E-03 8.557E-03

[...]

     Adding external electric field

     Computed dipole along edir(3) :
        Dipole                1.3059 Ry au,          3.3194 Debye
        Dipole field          0.0025 Ry au,

        Potential amp.       -0.2285 Ry
        Total length         46.3494 bohr

     Magnetic moment per site  (integrated on atomic sphere of radius R)
     atom   1 (R=0.738)  charge=  8.0465  magn=  0.0111
     atom   2 (R=0.738)  charge=  8.0283  magn=  0.0004
     atom   3 (R=0.738)  charge=  5.0153  magn= -0.0011
     atom   4 (R=0.738)  charge=  5.0522  magn= -0.0001
     atom   5 (R=0.738)  charge=  5.0214  magn= -0.0002
     atom   6 (R=0.738)  charge=  5.0219  magn= -0.0002
     atom   7 (R=0.738)  charge=  8.0284  magn=  0.0004
     atom   8 (R=0.738)  charge=  8.0296  magn=  0.0068
     atom   9 (R=0.738)  charge=  5.0288  magn=  0.0009
     atom  10 (R=0.738)  charge=  5.0292  magn= -0.0002
     atom  11 (R=0.738)  charge=  5.0169  magn=  0.0005
     atom  12 (R=0.738)  charge=  5.0160  magn=  0.0005
     atom  13 (R=0.738)  charge=  8.0366  magn= -0.0014
     atom  14 (R=0.738)  charge=  8.0338  magn= -0.0073
     atom  15 (R=0.738)  charge=  5.0279  magn=  0.0001
     atom  16 (R=0.738)  charge=  5.0249  magn=  0.0020
     atom  17 (R=0.738)  charge=  5.0031  magn=  0.0017
     atom  18 (R=0.738)  charge=  5.0056  magn=  0.0017
     atom  19 (R=0.738)  charge=  8.0664  magn= -0.0261
     atom  20 (R=0.738)  charge=  8.0804  magn= -0.0051
     atom  21 (R=0.738)  charge=  4.9002  magn= -0.0003
     atom  22 (R=0.738)  charge=  4.9790  magn=  0.0012
     atom  23 (R=0.738)  charge=  5.0126  magn= -0.0012
     atom  24 (R=0.738)  charge=  5.0127  magn= -0.0012
     atom  25 (R=0.738)  charge=  8.0466  magn=  0.0110
     atom  26 (R=0.738)  charge=  8.0283  magn=  0.0004
     atom  27 (R=0.738)  charge=  5.0151  magn= -0.0011
     atom  28 (R=0.738)  charge=  5.0525  magn= -0.0001
     atom  29 (R=0.738)  charge=  5.0223  magn= -0.0002
     atom  30 (R=0.738)  charge=  5.0226  magn= -0.0002
     atom  31 (R=0.738)  charge=  8.0286  magn=  0.0004
     atom  32 (R=0.738)  charge=  8.0297  magn=  0.0069
     atom  33 (R=0.738)  charge=  5.0280  magn=  0.0009
     atom  34 (R=0.738)  charge=  5.0267  magn= -0.0002
     atom  35 (R=0.738)  charge=  5.0201  magn=  0.0005
     atom  36 (R=0.738)  charge=  5.0197  magn=  0.0005
     atom  37 (R=0.738)  charge=  8.0323  magn= -0.0020
     atom  38 (R=0.738)  charge=  8.0345  magn= -0.0077
     atom  39 (R=0.738)  charge=  5.0089  magn=  0.0009
     atom  40 (R=0.738)  charge=  5.0372  magn=  0.0020
     atom  41 (R=0.738)  charge=  5.0005  magn=  0.0021
     atom  42 (R=0.738)  charge=  5.0042  magn=  0.0022
     atom  43 (R=0.738)  charge=  8.0648  magn= -0.0267
     atom  44 (R=0.738)  charge=  8.0444  magn= -0.0120
     atom  45 (R=0.738)  charge=  4.9002  magn= -0.0003
     atom  46 (R=0.738)  charge=  5.0126  magn= -0.0012
     atom  47 (R=0.738)  charge=  5.0127  magn= -0.0012
     atom  48 (R=0.420)  charge=  0.4510  magn= -0.0000
     atom  49 (R=0.420)  charge=  0.4507  magn= -0.0000
     atom  50 (R=0.420)  charge=  1.3397  magn=  0.0001
     atom  51 (R=0.449)  charge=  0.8459  magn=  0.0000
     atom  52 (R=0.420)  charge=  0.4445  magn= -0.0000
     atom  53 (R=0.420)  charge=  0.4465  magn= -0.0000
     atom  54 (R=0.420)  charge=  0.4444  magn= -0.0000

     End of self-consistent calculation

 ------ SPIN UP ------------

          k = 0.0000 0.0000 0.0000 ( 18029 PWs)   bands (ev):

   -55.4229 -55.3893 -55.3856 -55.3552 -55.3415 -55.3065 -55.2827 -55.2721
   -55.2503 -55.2170 -55.2157 -55.2064 -55.1834 -55.0953 -54.4105 -54.3765
   -31.9927 -31.8762 -31.8751 -31.7937 -31.7395 -31.7306 -31.7237 -31.7065
   -31.6794 -31.6536 -31.6350 -31.6342 -31.6229 -31.6058 -31.5898 -31.5796
   -31.5735 -31.5711 -31.5605 -31.5485 -31.5429 -31.5283 -31.4976 -31.4821
   -31.4807 -31.4747 -31.4668 -31.4527 -31.4482 -31.4365 -31.4335 -31.4160
   -31.4082 -31.4014 -31.3980 -31.3769 -31.3640 -31.3457 -31.3286 -31.3241
   -31.2991 -31.2856 -30.8195 -30.7256 -30.7035 -30.6361 -30.5493 -30.4382
   -16.2817 -16.1565 -15.9728 -15.8222 -15.7368 -15.6275 -15.5090 -15.4908
   -15.3586 -15.2802 -15.1555 -15.1292 -15.1004 -15.0841 -15.0730 -15.0604
   -14.9743 -14.9683 -14.9532 -14.9232 -14.9222 -14.8766 -14.8679 -14.8269
   -14.8029 -14.7931 -14.6786 -14.5888 -14.5151 -14.2730 -12.9122 -12.7947
   -10.2209  -6.2802  -4.8275  -3.9462  -3.6001  -3.4494  -3.3558  -3.3219
    -3.3196  -3.1853  -3.0306  -2.8851  -2.8368  -2.8330  -2.7129  -2.6394
    -2.6289  -2.6083  -2.4563  -2.4256  -2.3760  -2.3288  -2.2883  -2.2382
    -2.2196  -2.2086  -2.1936  -2.1680  -2.1592  -2.0499  -1.9954  -1.9097
    -1.8539  -1.8300  -1.7806  -1.7645  -1.7376  -1.7189  -1.7099  -1.6625
    -1.6336  -1.6229  -1.5691  -1.4570  -1.3498  -1.3014  -1.1797  -1.0670
    -1.0285  -1.0140  -0.9621  -0.9241  -0.9131  -0.8430  -0.8065  -0.7758
    -0.7119  -0.6601  -0.5908  -0.5419  -0.4759  -0.4592  -0.4166  -0.3527
    -0.2463  -0.2108  -0.1953  -0.1674  -0.0709  -0.0391   0.0107   0.0918
     0.0973   0.1097   0.2134   0.2281   0.2994   0.3490   0.3666   0.4526
     0.4866   0.5016   0.5055   0.5322   0.5566   0.6113   0.6442   0.6724
     0.7470   0.8712   1.0936   1.1635   1.1829   1.5086   1.5182   1.6129
     1.7964   2.1894   2.2373   3.6618   3.7392   3.8035   3.8160   3.8716
     3.9021   4.1498   4.1694   4.1719   4.1838   4.2108

[...]

          k =-0.0760-0.0000 0.0000 ( 17886 PWs)   bands (ev):

[...]

 ------ SPIN DOWN ----------

[...]

          k = 0.0380-0.0419 0.0000 ( 17876 PWs)   bands (ev):

[...]

          k =-0.0760-0.0839 0.0000 ( 17948 PWs)   bands (ev):

   -55.4227 -55.4129 -55.3617 -55.3527 -55.3523 -55.3256 -55.2935 -55.2919
   -55.2560 -55.2339 -55.2300 -55.1888 -55.1881 -55.1058 -54.3930 -54.3925
   -31.8102 -31.8066 -31.8029 -31.7217 -31.6978 -31.6830 -31.6828 -31.6429
   -31.6423 -31.6406 -31.6370 -31.6344 -31.6320 -31.6017 -31.5992 -31.5717
   -31.5709 -31.5665 -31.5630 -31.5620 -31.5583 -31.5551 -31.5275 -31.5206
   -31.5098 -31.4993 -31.4982 -31.4863 -31.4826 -31.4705 -31.4703 -31.4668
   -31.4631 -31.4466 -31.4455 -31.4427 -31.4241 -31.4213 -31.3713 -31.3691
   -31.3671 -31.3168 -30.7154 -30.7150 -30.6319 -30.6315 -30.5921 -30.5918
   -16.1283 -15.7637 -15.6754 -15.6279 -15.4660 -15.4333 -15.4110 -15.3935
   -15.2637 -15.2357 -15.2113 -15.1957 -15.1724 -15.1367 -15.1316 -15.1240
   -15.0500 -15.0337 -15.0292 -15.0107 -14.9489 -14.9393 -14.9363 -14.9291
   -14.8789 -14.8752 -14.8071 -14.7826 -14.7795 -14.5603 -12.8967 -12.8967
   -10.2247  -6.2524  -4.8235  -3.9099  -2.9481  -2.9190  -2.8832  -2.8793
    -2.6807  -2.6316  -2.5978  -2.5704  -2.4811  -2.4464  -2.4243  -2.4191
    -2.3478  -2.3320  -2.3126  -2.2715  -2.2647  -2.2502  -2.2276  -2.1918
    -2.1648  -2.1559  -2.1488  -2.1262  -2.0823  -2.0687  -2.0513  -2.0280
    -2.0239  -2.0128  -1.9848  -1.9370  -1.8110  -1.8018  -1.7269  -1.6370
    -1.6320  -1.5558  -1.5396  -1.4922  -1.4750  -1.4617  -1.4197  -1.2355
    -1.1984  -1.1764  -1.1663  -1.0987  -1.0385  -1.0224  -0.9489  -0.9330
    -0.9167  -0.8078  -0.7615  -0.7496  -0.6575  -0.6478  -0.5690  -0.5093
    -0.4546  -0.4346  -0.3935  -0.3850  -0.3818  -0.3362  -0.3289  -0.2433
    -0.1987  -0.1635  -0.1499  -0.1158   0.0856   0.0912   0.1139   0.2566
     0.2895   0.4144   0.4454   0.4992   0.5756   0.6090   0.6825   0.7175
     0.8508   0.8768   0.8777   0.9498   0.9592   1.0231   1.0327   1.9692
     1.9699   2.0573   2.0575   3.7998   3.8904   3.9262   3.9662   4.0781
     4.1575   4.1854   4.2060   4.2569   4.2605   4.3226

     the Fermi energy is     3.7323 ev

!    total energy              =   -2921.63351087 Ry
     estimated scf accuracy    <       0.00000007 Ry
     smearing contrib. (-TS)   =      -0.03694154 Ry
     internal energy E=F+TS    =   -2921.59656932 Ry

     The total energy is F=E-TS. E is the sum of the following terms:
     one-electron contribution =  -23999.89789216 Ry
     hartree contribution      =   12089.09632922 Ry
     xc contribution           =    -481.73640212 Ry
     ewald contribution        =    9470.93817729 Ry
     electric field correction =       0.00321844 Ry

     total magnetization       =    -0.07 Bohr mag/cell
     absolute magnetization    =     0.23 Bohr mag/cell

     convergence has been achieved in  98 iterations

     Forces acting on atoms (cartesian axes, Ry/au):

     atom    1 type  1   force =     0.00019515   -0.00022434    0.09320613
     atom    2 type  1   force =    -0.00003762   -0.00042417   -0.17834117
     atom    3 type  2   force =     0.00008036   -0.00040335   -0.02015245
     atom    4 type  2   force =     0.00001597   -0.00195228    0.05891095
     atom    5 type  2   force =    -0.01032992   -0.00094698    0.00824600
     atom    6 type  2   force =     0.01151615   -0.00018230    0.00658119
     atom    7 type  1   force =    -0.00062963    0.00207240   -0.01451154
     atom    8 type  1   force =     0.00067781   -0.00093537   -0.00515182
     atom    9 type  2   force =     0.00014073    0.00031760    0.00007081
     atom   10 type  2   force =    -0.00249122    0.00189064    0.00099974
     atom   11 type  2   force =    -0.00016295    0.00003834    0.00028181
     atom   12 type  2   force =     0.00002170    0.00030170    0.00017131
     atom   13 type  1   force =    -0.00002218    0.00006380    0.00008659
     atom   14 type  1   force =     0.00006014   -0.00003274    0.00019773
     atom   15 type  2   force =     0.00007309   -0.00017558   -0.00006137
     atom   16 type  2   force =     0.00034550    0.00000759   -0.00017244
     atom   17 type  2   force =     0.00015302   -0.00035870    0.00008394
     atom   18 type  2   force =    -0.00000086    0.00000468    0.00000387
     atom   19 type  1   force =     0.00044215    0.00002174    0.00054070
     atom   20 type  1   force =     0.00031456    0.00042465    0.00035165
     atom   21 type  2   force =     0.00014247   -0.00009196    0.10397025
     atom   22 type  2   force =     0.00013186    0.00061731    0.00053103
     atom   23 type  2   force =    -0.07032644   -0.00019102   -0.02692230
     atom   24 type  2   force =     0.07034118    0.00026795   -0.02695308
     atom   25 type  1   force =     0.00013993   -0.00018621    0.09279591
     atom   26 type  1   force =    -0.00005263   -0.00052904   -0.17836743
     atom   27 type  2   force =     0.00011733   -0.00025873   -0.01922281
     atom   28 type  2   force =     0.00008613   -0.00170730    0.05822709
     atom   29 type  2   force =    -0.01082814   -0.00099080    0.00881897
     atom   30 type  2   force =     0.01193560   -0.00068287    0.00713779
     atom   31 type  1   force =    -0.00065604    0.00611265   -0.01533320
     atom   32 type  1   force =     0.00081550    0.00035244   -0.00555116
     atom   33 type  2   force =    -0.00037743   -0.00032950    0.00015953
     atom   34 type  2   force =    -0.00223851   -0.00204008   -0.00003323
     atom   35 type  2   force =    -0.00074030    0.00026412    0.00033750
     atom   36 type  2   force =     0.00076972   -0.00010174   -0.00018409
     atom   37 type  1   force =     0.00003950    0.00021499    0.00004942
     atom   38 type  1   force =    -0.00029202    0.00023042    0.00056759
     atom   39 type  2   force =    -0.00037651   -0.00006450   -0.00005834
     atom   40 type  2   force =    -0.00006259   -0.00009223    0.00020085
     atom   41 type  2   force =    -0.00019267    0.00004854   -0.00008309
     atom   42 type  2   force =     0.00036133   -0.00018400   -0.00011120
     atom   43 type  1   force =    -0.00028866   -0.00002942    0.00012019
     atom   44 type  1   force =     0.00046161   -0.00010502    0.00007068
     atom   45 type  2   force =     0.00012574   -0.00010733    0.10393080
     atom   46 type  2   force =    -0.07030910   -0.00011973   -0.02687260
     atom   47 type  2   force =     0.07030337    0.00029637   -0.02690820
     atom   48 type  3   force =     0.00010931   -0.00030128    0.00010119
     atom   49 type  3   force =     0.00060266    0.00075191   -0.00094483
     atom   50 type  4   force =    -0.00058925   -0.00048368   -0.00018077
     atom   51 type  5   force =     0.00105241    0.00035600   -0.00067491
     atom   52 type  3   force =    -0.00003930   -0.00044580   -0.00004684
     atom   53 type  3   force =    -0.00002888    0.00003342   -0.00007911
     atom   54 type  3   force =    -0.00049908   -0.00001123    0.00016676

     Total force =     0.366293     Total SCF correction =     0.000423
  @ DRIVER MODE: Message from server: STATUS
  @ DRIVER MODE: Message from server: GETFORCE
  @ DRIVER MODE: Returning v,forces,stress,ensemble

     Writing output data file ./calc.save/
  @ DRIVER MODE: Message from server: EXIT
  @ DRIVE MODE: Exiting

     General routines

     Parallel routines

   This run was terminated on:  18:24:12  15Jul2021

   JOB DONE.