     Program PWSCF v.6.7GPU starts on 19Oct2021 at  9:59:47

     R & G space division:  proc/nbgrp/npool/nimage =       8
     Reading input from /storage/home/hcoda1/3/ntian30/research/carbon/CxH_vib/Thiel_calc/ads_slab/NH3NH2H_perslab/out_0044/pw.inp
Warning: card &CELL ignored
Warning: card   CELL_DYNAMICS='IPI', ignored
Warning: card / ignored

     Current dimensions of program PWSCF are:
     Max number of different atomic species (ntypx) = 10
     Max number of k-points (npk) =  40000
     Max angular momentum in pseudopotentials (lmaxx) =  3
     Presently no symmetry can be used with electric field

     Message from routine cell_base_init:
     DEPRECATED: use true lattice parameter, not A to a.u. conversion factor

     IMPORTANT: XC functional enforced from input :
     Exchange-correlation= BEEF-VDW
                           (   1   4  43  14   2   0   0)
     Any further DFT definition will be discarded
     Please, verify this is what you really want

  @ DRIVER MODE: Connecting to
 qe_1139763_3255139.sched-torque.pace.gatech.eduuj6oxgay_scratch
  using UNIX socket
  @ DRIVER MODE: Message from server: STATUS
  @ DRIVER MODE: Message from server: INIT
  @ DRIVER MODE: Receiving replica           0          -1
  @ DRIVER MODE: Receiving encoded integer          25
  @ DRIVER MODE:  SCF:  T  FORCE:  T  STRESS:  F  VC:  F  ENSEMBLE:  F
  @ DRIVER MODE:  SCF:  T  FORCE:  T  STRESS:  F  VC:  F  ENSEMBLE:  F

     Using Slab Decomposition

     bravais-lattice index     =            0
     lattice parameter (alat)  =       1.8897  a.u.
     unit-cell volume          =    9988.4706 (a.u.)^3
     number of atoms/cell      =           61
     number of atomic types    =            4
     number of electrons       =       442.00
     number of Kohn-Sham states=          231
     kinetic-energy cutoff     =      29.3995  Ry
     charge density cutoff     =     293.9946  Ry
     scf convergence threshold =      7.3E-08
     mixing beta               =       0.0500
     number of iterations used =            8  plain     mixing
     Exchange-correlation= BEEF-VDW
                           (   1   4  43  14   2   0   0)

     celldm(1)=   1.889726  celldm(2)=   0.000000  celldm(3)=   0.000000
     celldm(4)=   0.000000  celldm(5)=   0.000000  celldm(6)=   0.000000

     crystal axes: (cart. coord. in units of alat)
               a(1) = (   6.579727   0.000000   0.000000 )
               a(2) = (  -0.001163   8.942395   0.000000 )
               a(3) = (   0.000000   0.000000  25.155947 )

     reciprocal axes: (cart. coord. in units 2 pi/alat)
               b(1) = (  0.151982  0.000020  0.000000 )
               b(2) = (  0.000000  0.111827  0.000000 )
               b(3) = (  0.000000  0.000000  0.039752 )

     PseudoPot. # 1 for O  read from file:
     /storage/coda1/p-amedford6/0/shared/rich_project_chbe-medford/medford-share/data/pseudos_module/espresso/nninc/pbe/van/O.UPF
     MD5 check sum: 78c19812648e8988a0fe644b0f25305e
     Pseudo is Ultrasoft, Zval =  6.0
     Generated by new atomic code, or converted to UPF format
     Using radial grid of  737 points,  4 beta functions with:
                l(1) =   0
                l(2) =   0
                l(3) =   1
                l(4) =   1
     Q(r) pseudized with  8 coefficients,  rinner =    0.800   0.800   0.800

     PseudoPot. # 2 for Ti read from file:
     /storage/coda1/p-amedford6/0/shared/rich_project_chbe-medford/medford-share/data/pseudos_module/espresso/nninc/pbe/van/Ti.UPF
     MD5 check sum: 8e4df49b7f0d34bbd5052bf3f5ea0213
     Pseudo is Ultrasoft, Zval = 12.0
     Generated by new atomic code, or converted to UPF format
     Using radial grid of  851 points,  6 beta functions with:
                l(1) =   0
                l(2) =   0
                l(3) =   1
                l(4) =   1
                l(5) =   2
                l(6) =   2
     Q(r) pseudized with  8 coefficients,  rinner =    1.000   1.000   1.000
                                                       1.000   1.000

     PseudoPot. # 3 for H  read from file:
     /storage/coda1/p-amedford6/0/shared/rich_project_chbe-medford/medford-share/data/pseudos_module/espresso/nninc/pbe/van/H.UPF
     MD5 check sum: b5ee9d7bfd3a09ee7748110bda690ff7
     Pseudo is Ultrasoft, Zval =  1.0
     Generated by new atomic code, or converted to UPF format
     Using radial grid of  615 points,  1 beta functions with:
                l(1) =   0
     Q(r) pseudized with  8 coefficients,  rinner =    0.800

     PseudoPot. # 4 for N  read from file:
     /storage/coda1/p-amedford6/0/shared/rich_project_chbe-medford/medford-share/data/pseudos_module/espresso/nninc/pbe/van/N.UPF
     MD5 check sum: 90d10febe142ad51ac9d5be1deb811c4
     Pseudo is Ultrasoft, Zval =  5.0
     Generated by new atomic code, or converted to UPF format
     Using radial grid of  729 points,  4 beta functions with:
                l(1) =   0
                l(2) =   0
                l(3) =   1
                l(4) =   1
     Q(r) pseudized with  8 coefficients,  rinner =    0.800   0.800   0.800

     atomic species   valence    mass     pseudopotential
        O1             6.00    15.99900     O ( 1.00)
        Ti1           12.00    47.86700     Ti( 1.00)
        H1             1.00     1.00800     H ( 1.00)
        N1             5.00    14.00700     N ( 1.00)

     No symmetry found

   Cartesian axes

     site n.     atom                  positions (alat units)
         1           O1  tau(   1) = (   0.0007354   0.0005023  10.5931620  )
         2           O1  tau(   2) = (   3.2892937   8.9423630  13.8814308  )
         3           O1  tau(   3) = (   6.5785080   0.0907754  17.2996570  )
         4           O1  tau(   4) = (   0.0006271   0.0005054   7.9858123  )
         5           O1  tau(   5) = (   3.2892617   8.9274694  11.1867540  )
         6           O1  tau(   6) = (   0.0001068   0.0384811  14.5856928  )
         7           O1  tau(   7) = (   1.9868534   1.4903216   9.2879459  )
         8           O1  tau(   8) = (   5.2392332   1.6199063  12.5840971  )
         9           O1  tau(   9) = (   2.0046145   1.5651943  16.0652335  )
        10           Ti1 tau(  10) = (   0.0007404   1.4906270   9.2895810  )
        11           Ti1 tau(  11) = (   3.2903033   1.3475644  12.4784176  )
        12           Ti1 tau(  12) = (   0.0002083   1.2954417  15.7753146  )
        13           O1  tau(  13) = (   4.5942328   1.4918067   9.2879030  )
        14           O1  tau(  14) = (   1.3408909   1.6195689  12.5841697  )
        15           O1  tau(  15) = (   4.5747373   1.5650701  16.0650860  )
        16           Ti1 tau(  16) = (   3.2902859   2.9801868   9.2893338  )
        17           Ti1 tau(  17) = (   0.0003213   2.8429885  12.4272127  )
        18           Ti1 tau(  18) = (   3.2894782   2.8703589  15.6911549  )
        19           O1  tau(  19) = (   0.0003479   2.9813005  10.5931620  )
        20           O1  tau(  20) = (   3.2897922   2.9583395  13.9032781  )
        21           O1  tau(  21) = (   0.0002396   2.9813036   7.9858123  )
        22           O1  tau(  22) = (   3.2900450   2.9730570  11.1907869  )
        23           O1  tau(  23) = (   0.0001206   2.9807552  14.9070210  )
        24           O1  tau(  24) = (   1.9864658   4.4711199   9.2879459  )
        25           O1  tau(  25) = (   5.2482068   4.5640541  12.6028892  )
        26           O1  tau(  26) = (   2.0118887   4.5193519  16.0312246  )
        27           Ti1 tau(  27) = (   0.0003529   4.4714252   9.2895810  )
        28           Ti1 tau(  28) = (   3.2901403   4.3402809  12.5217819  )
        29           Ti1 tau(  29) = (   0.0009811   4.3515161  16.1888847  )
        30           O1  tau(  30) = (   4.5938453   4.4726049   9.2879030  )
        31           O1  tau(  31) = (   1.3314901   4.5639303  12.6028828  )
        32           O1  tau(  32) = (   4.5682806   4.5188618  16.0312494  )
        33           Ti1 tau(  33) = (   3.2898983   5.9609850   9.2893338  )
        34           Ti1 tau(  34) = (   0.0001002   5.8006911  12.4939615  )
        35           Ti1 tau(  35) = (   3.2910898   5.8128663  15.8108673  )
        36           O1  tau(  36) = (  -0.0000397   5.9620987  10.5931620  )
        37           O1  tau(  37) = (   3.2898758   5.9691391  13.9384534  )
        38           O1  tau(  38) = (   0.0001572   5.9906873  17.2924393  )
        39           O1  tau(  39) = (  -0.0001480   5.9621018   7.9858123  )
        40           O1  tau(  40) = (   3.2897271   5.9334558  11.2049738  )
        41           O1  tau(  41) = (   0.0000685   5.9641935  14.6703060  )
        42           O1  tau(  42) = (   1.9860782   7.4519181   9.2879459  )
        43           O1  tau(  43) = (   5.2398882   7.5535610  12.5750285  )
        44           O1  tau(  44) = (   1.9879998   7.5809304  16.0172394  )
        45           Ti1 tau(  45) = (  -0.0000347   7.4522234   9.2895810  )
        46           Ti1 tau(  46) = (   3.2896426   7.2731609  12.5447809  )
        47           Ti1 tau(  47) = (   0.0002275   7.1890881  15.9781391  )
        48           O1  tau(  48) = (   4.5934577   7.4534031   9.2879030  )
        49           O1  tau(  49) = (   1.3388943   7.5534522  12.5751898  )
        50           O1  tau(  50) = (   4.5903976   7.5792304  16.0166626  )
        51           Ti1 tau(  51) = (   3.2895107   8.9417832   9.2893338  )
        52           Ti1 tau(  52) = (  -0.0003648   8.7758640  12.4444508  )
        53           Ti1 tau(  53) = (   3.2897763   8.8353469  15.6829021  )
        54           H1  tau(  54) = (   0.0028024   0.0378429  18.2586218  )
        55           N1  tau(  55) = (   0.0000016   3.3024973  17.8430138  )
        56           H1  tau(  56) = (   6.5772996   2.3364033  18.1430564  )
        57           H1  tau(  57) = (   6.5785254   3.8921159  18.6668881  )
        58           N1  tau(  58) = (   3.2892544   5.9906839  18.1401779  )
        59           H1  tau(  59) = (   3.2890604   5.0659402  18.5578254  )
        60           H1  tau(  60) = (   2.4549486   6.4784715  18.4500629  )
        61           H1  tau(  61) = (   4.1327990   6.4789769  18.4516084  )

     number of k points=    10  Fermi-Dirac smearing, width (Ry)=  0.0073
                       cart. coord. in units 2pi/alat
        k(    1) = (   0.0000000   0.0000000   0.0000000), wk =   0.1250000
        k(    2) = (   0.0000000   0.0279567   0.0000000), wk =   0.2500000
        k(    3) = (   0.0000000  -0.0559134   0.0000000), wk =   0.1250000
        k(    4) = (   0.0379955   0.0000049   0.0000000), wk =   0.2500000
        k(    5) = (   0.0379955   0.0279617   0.0000000), wk =   0.2500000
        k(    6) = (   0.0379955  -0.0559085   0.0000000), wk =   0.2500000
        k(    7) = (   0.0379955  -0.0279518   0.0000000), wk =   0.2500000
        k(    8) = (  -0.0759910  -0.0000099   0.0000000), wk =   0.1250000
        k(    9) = (  -0.0759910   0.0279468   0.0000000), wk =   0.2500000
        k(   10) = (  -0.0759910  -0.0559233   0.0000000), wk =   0.1250000

     Initial potential from superposition of free atoms

     starting charge  423.99908, renormalised to  442.00000

     negative rho (up, down):  3.654E-02 0.000E+00

     %%%%%%%%%%%%%%%%%%%%%%%%%%%%%%%%%%%%%%%%%%%%%%%%%%%%%%%%%%%%%%%%%%%%%%%%
     %                                                                      %
     % You are using vdW-DF, which was implemented by the Thonhauser group. %
     % Please cite the following two papers that made this development      %
     % possible and the two reviews that describe the various versions:     %
     %                                                                      %
     %   T. Thonhauser et al., PRL 115, 136402 (2015).                      %
     %   T. Thonhauser et al., PRB 76, 125112 (2007).                       %
     %   K. Berland et al., Rep. Prog. Phys. 78, 066501 (2015).             %
     %   D.C. Langreth et al., J. Phys.: Condens. Matter 21, 084203 (2009). %
     %                                                                      %
     %                                                                      %
     % If you are calculating the stress with vdW-DF, please also cite:     %
     %                                                                      %
     %   R. Sabatini et al., J. Phys.: Condens. Matter 24, 424209 (2012).   %
     %                                                                      %
     %%%%%%%%%%%%%%%%%%%%%%%%%%%%%%%%%%%%%%%%%%%%%%%%%%%%%%%%%%%%%%%%%%%%%%%%

     Adding external electric field

     Computed dipole along edir(3) :
        Dipole               -6.3674 Ry au,        -16.1843 Debye
        Dipole field         -0.0080 Ry au,

        Potential amp.        0.7426 Ry
        Total length         46.3494 bohr

     Starting wfcs are  334 atomic wfcs
  @ DRIVER MODE: Message from server: STATUS
  @ DRIVER MODE: Message from server: POSDATA
  @ DRIVER MODE: Reading and sharing cell
  @ DRIVER MODE: Reading and sharing positions
  @ DRIVER MODE: Received positions

     Self-consistent Calculation

     iteration #  1     ecut=    29.40 Ry     beta= 0.05
     Davidson diagonalization with overlap
     c_bands:  2 eigenvalues not converged
     c_bands:  3 eigenvalues not converged
     c_bands:  3 eigenvalues not converged
     c_bands:  2 eigenvalues not converged
     c_bands:  1 eigenvalues not converged
     c_bands:  4 eigenvalues not converged
     c_bands:  1 eigenvalues not converged
     c_bands:  1 eigenvalues not converged
     c_bands:  5 eigenvalues not converged
     ethr =  1.00E-05,  avg # of iterations = 20.0

[...]

     total energy              =   -3277.30784015 Ry
     estimated scf accuracy    <     250.08555927 Ry

     iteration #  2     ecut=    29.40 Ry     beta= 0.05
     Davidson diagonalization with overlap
     ethr =  1.00E-02,  avg # of iterations = 14.8

[...]

     iteration # 56     ecut=    29.40 Ry     beta= 0.05
     Davidson diagonalization with overlap
     c_bands:  1 eigenvalues not converged
     c_bands:  2 eigenvalues not converged
     ethr =  3.00E-10,  avg # of iterations = 15.7

[...]

     total energy              =   -3295.81873412 Ry
     estimated scf accuracy    <       0.00000029 Ry

     iteration # 62     ecut=    29.40 Ry     beta= 0.05
     Davidson diagonalization with overlap
     ethr =  1.87E-11,  avg # of iterations =  8.2

     negative rho (up, down):  3.513E-02 0.000E+00

     Adding external electric field

     Computed dipole along edir(3) :
        Dipole                2.0075 Ry au,          5.1025 Debye
        Dipole field          0.0025 Ry au,

        Potential amp.       -0.2341 Ry
        Total length         46.3494 bohr

     End of self-consistent calculation

          k = 0.0000 0.0000 0.0000 ( 26871 PWs)   bands (ev):

   -57.4462 -57.4233 -57.4145 -57.4071 -57.3633 -57.3529 -57.3122 -57.3074
   -57.2929 -57.2636 -57.2430 -57.2347 -57.2257 -57.1909 -57.0116 -56.5116
   -56.4847 -56.4683 -33.8434 -33.8324 -33.8256 -33.8210 -33.8118 -33.7796
   -33.7681 -33.7618 -33.7529 -33.7389 -33.7351 -33.7144 -33.6933 -33.6806
   -33.6530 -33.6498 -33.6378 -33.6345 -33.6140 -33.6128 -33.5915 -33.5808
   -33.5574 -33.5543 -33.5533 -33.5441 -33.5405 -33.5378 -33.5356 -33.5267
   -33.5177 -33.5055 -33.4904 -33.4748 -33.4672 -33.4562 -33.4413 -33.4393
   -33.4349 -33.4323 -33.4038 -33.3804 -33.3413 -33.3058 -33.2330 -32.8310
   -32.8238 -32.8100 -32.8028 -32.7888 -32.7359 -32.6770 -32.6570 -32.5320
   -19.1404 -18.3009 -17.9724 -17.7570 -17.7101 -17.6874 -17.6033 -17.5416
   -17.5278 -17.4483 -17.3849 -17.3040 -17.2770 -17.2703 -17.2375 -17.2092
   -17.1905 -17.1664 -17.1652 -17.1248 -17.1142 -17.0947 -17.0682 -17.0203
   -16.9474 -16.9345 -16.9002 -16.8931 -16.8875 -16.8874 -16.7438 -16.6664
   -16.5850 -15.2669 -14.9715 -14.9151 -14.9078  -7.6933  -7.6140  -7.2340
    -6.7468  -5.6247  -5.4644  -5.3792  -5.2769  -4.9383  -4.8720  -4.8505
    -4.8373  -4.7919  -4.7533  -4.7521  -4.6945  -4.6853  -4.6668  -4.5858
    -4.5721  -4.5496  -4.4980  -4.4756  -4.4256  -4.4248  -4.3751  -4.3206
    -4.2698  -4.2617  -4.2607  -4.2350  -4.2342  -4.2114  -4.2072  -4.0933
    -4.0891  -4.0140  -3.9061  -3.8964  -3.8488  -3.7770  -3.7671  -3.7404
    -3.7135  -3.6501  -3.6050  -3.5513  -3.5437  -3.5303  -3.4662  -3.4420
    -3.3626  -3.2568  -3.2447  -3.2120  -3.1673  -3.1525  -3.1067  -3.0761
    -3.0030  -2.9281  -2.8489  -2.8225  -2.7174  -2.6722  -2.6529  -2.6198
    -2.6124  -2.5390  -2.5347  -2.5098  -2.3579  -2.2539  -2.2446  -2.2251
    -2.2135  -2.1866  -2.1832  -2.1554  -2.0905  -2.0443  -2.0367  -2.0207
    -2.0007  -1.9888  -1.8993  -1.8406  -1.8131  -1.7843  -1.7683  -1.6745
    -1.6356  -1.5998  -1.5893  -1.4844  -1.4295  -1.3232  -1.3184  -1.3042
    -1.2332  -1.1870  -1.1148  -0.7976  -0.6279  -0.5565  -0.2694  -0.2114
    -0.2034   0.0566   0.0689   0.1971   1.5428   1.7738   1.9746   1.9769
     1.9922   2.0633   2.1311   2.1441   2.2088   2.2614   2.2771

[...]

          k = 0.0380-0.0280 0.0000 ( 26873 PWs)   bands (ev):

[...]

          k =-0.0760-0.0000 0.0000 ( 26902 PWs)   bands (ev):

[...]

          k =-0.0760-0.0559 0.0000 ( 26868 PWs)   bands (ev):

   -57.4406 -57.4337 -57.4096 -57.4064 -57.3641 -57.3531 -57.3111 -57.3081
   -57.2919 -57.2621 -57.2457 -57.2366 -57.2240 -57.1903 -57.0116 -56.5090
   -56.4900 -56.4655 -33.9228 -33.9045 -33.8545 -33.8233 -33.8073 -33.7833
   -33.7747 -33.7656 -33.7240 -33.7085 -33.6942 -33.6641 -33.6417 -33.6372
   -33.6336 -33.6127 -33.5994 -33.5984 -33.5972 -33.5897 -33.5876 -33.5817
   -33.5700 -33.5613 -33.5572 -33.5531 -33.5361 -33.5299 -33.5236 -33.5179
   -33.5171 -33.5139 -33.5050 -33.5021 -33.4952 -33.4873 -33.4569 -33.4562
   -33.4476 -33.4357 -33.4341 -33.3952 -33.3623 -33.3053 -33.2365 -32.9123
   -32.8267 -32.8089 -32.7860 -32.7241 -32.7027 -32.6471 -32.6374 -32.6183
   -19.1339 -17.9945 -17.9224 -17.6739 -17.6275 -17.6144 -17.5998 -17.5615
   -17.5083 -17.4776 -17.4274 -17.4091 -17.3728 -17.3215 -17.3140 -17.2397
   -17.2348 -17.2309 -17.1650 -17.1629 -17.1453 -17.1004 -17.0872 -17.0645
   -17.0153 -16.9746 -16.9603 -16.8816 -16.8566 -16.8162 -16.7214 -16.6534
   -16.6184 -15.2644 -14.9728 -14.9625 -14.8496  -7.6767  -7.6107  -7.2247
    -6.7494  -5.2466  -5.2152  -5.1801  -5.1519  -5.0467  -4.8616  -4.7851
    -4.7523  -4.7481  -4.6831  -4.6627  -4.6564  -4.6120  -4.5998  -4.5749
    -4.5519  -4.5223  -4.4878  -4.4799  -4.4432  -4.4120  -4.3969  -4.3753
    -4.3573  -4.3522  -4.3381  -4.2498  -4.1878  -4.1746  -4.1139  -4.0902
    -4.0646  -4.0218  -4.0083  -3.9678  -3.9401  -3.7128  -3.6254  -3.6098
    -3.6088  -3.5825  -3.5465  -3.4904  -3.4323  -3.4004  -3.3705  -3.2446
    -3.2042  -3.1917  -3.1869  -3.1520  -3.0684  -3.0418  -3.0128  -2.9805
    -2.9649  -2.9153  -2.9026  -2.8624  -2.8220  -2.7485  -2.7067  -2.6694
    -2.6373  -2.6038  -2.5929  -2.5664  -2.5370  -2.5328  -2.5059  -2.4861
    -2.4141  -2.4121  -2.3732  -2.3166  -2.2435  -2.2099  -2.1919  -2.1131
    -2.0349  -1.9837  -1.9602  -1.9397  -1.8623  -1.7453  -1.7191  -1.7105
    -1.6768  -1.6286  -1.5777  -1.5438  -1.4934  -1.4029  -1.2711  -1.2508
    -1.1825  -1.0864  -1.0655  -1.0452  -0.8242  -0.7328  -0.4203  -0.1614
    -0.1167  -0.0974   0.0616   0.0692   1.7033   1.7705   1.8331   1.8662
     1.8826   1.9138   1.9165   1.9856   2.0412   2.1102   2.1286

     the Fermi energy is     1.6424 ev

!    total energy              =   -3295.81876738 Ry
     estimated scf accuracy    <       0.00000004 Ry
     smearing contrib. (-TS)   =      -0.03294272 Ry
     internal energy E=F+TS    =   -3295.78582467 Ry

     The total energy is F=E-TS. E is the sum of the following terms:
     one-electron contribution =  -34382.73638166 Ry
     hartree contribution      =   17260.65977727 Ry
     xc contribution           =    -543.88992975 Ry
     ewald contribution        =   14370.17563935 Ry
     electric field correction =       0.00507012 Ry

     convergence has been achieved in  62 iterations

     Forces acting on atoms (cartesian axes, Ry/au):

     atom    1 type  1   force =     0.00000535    0.00791281    0.05042644
     atom    2 type  1   force =    -0.00001027    0.00035702   -0.00970896
     atom    3 type  1   force =    -0.00003631   -0.00472941   -0.00054327
     atom    4 type  1   force =     0.00005730    0.00282888    0.10765817
     atom    5 type  1   force =     0.00000360    0.00070442    0.00918515
     atom    6 type  1   force =    -0.00000624   -0.00162468    0.00014162
     atom    7 type  1   force =     0.06467284    0.00005437   -0.02899857
     atom    8 type  1   force =     0.00391298   -0.02785733    0.00322878
     atom    9 type  1   force =     0.00826999   -0.01831140    0.00240503
     atom   10 type  2   force =    -0.00005195   -0.00797660   -0.19370594
     atom   11 type  2   force =    -0.00002694    0.02062664   -0.00635651
     atom   12 type  2   force =    -0.00005219    0.02207845   -0.00301538
     atom   13 type  1   force =    -0.06476774   -0.00040015   -0.02894595
     atom   14 type  1   force =    -0.00391158   -0.02783750    0.00322312
     atom   15 type  1   force =    -0.00826058   -0.01829622    0.00239411
     atom   16 type  2   force =     0.00010048    0.00061148    0.06676040
     atom   17 type  2   force =     0.00002193    0.03324549    0.00614733
     atom   18 type  2   force =     0.00000526    0.02088217    0.00187786
     atom   19 type  1   force =     0.00000422    0.00224805    0.05627533
     atom   20 type  1   force =    -0.00000561   -0.00132911   -0.00686213
     atom   21 type  1   force =     0.00005922   -0.00141115    0.10889195
     atom   22 type  1   force =     0.00000758   -0.00024377    0.00985952
     atom   23 type  1   force =     0.00000834   -0.00480570    0.00116598
     atom   24 type  1   force =     0.06620774   -0.00051219   -0.02949068
     atom   25 type  1   force =     0.00420586   -0.03008077    0.00218744
     atom   26 type  1   force =     0.00994735   -0.02416241    0.00222520
     atom   27 type  2   force =    -0.00006724    0.01376344   -0.18652823
     atom   28 type  2   force =    -0.00001960    0.02335841   -0.00582030
     atom   29 type  2   force =    -0.00003721    0.01725692   -0.00917805
     atom   30 type  1   force =    -0.06631520   -0.00096285   -0.02944654
     atom   31 type  1   force =    -0.00420098   -0.03005201    0.00218822
     atom   32 type  1   force =    -0.00989146   -0.02413475    0.00223029
     atom   33 type  2   force =     0.00009649   -0.00143032    0.06832922
     atom   34 type  2   force =     0.00002340    0.03781411    0.00401819
     atom   35 type  2   force =    -0.00003765    0.03583728    0.00783802
     atom   36 type  1   force =     0.00001503    0.00056943    0.06523749
     atom   37 type  1   force =    -0.00001171    0.00228300   -0.01104171
     atom   38 type  1   force =    -0.00003172   -0.00084711    0.00182338
     atom   39 type  1   force =     0.00005856   -0.00142555    0.10683908
     atom   40 type  1   force =     0.00000047   -0.00039232    0.00776724
     atom   41 type  1   force =    -0.00000069   -0.00030259    0.00577683
     atom   42 type  1   force =     0.06735253   -0.00095535   -0.02906274
     atom   43 type  1   force =     0.00313447   -0.02829606    0.00236339
     atom   44 type  1   force =     0.00711101   -0.02151351    0.00454341
     atom   45 type  2   force =    -0.00006928   -0.00851088   -0.18086445
     atom   46 type  2   force =    -0.00000480    0.01743903   -0.00234061
     atom   47 type  2   force =    -0.00002475    0.02047966   -0.00647003
     atom   48 type  1   force =    -0.06744904   -0.00140154   -0.02901717
     atom   49 type  1   force =    -0.00310338   -0.02829528    0.00236042
     atom   50 type  1   force =    -0.00705801   -0.02146635    0.00449043
     atom   51 type  2   force =     0.00012252   -0.00305113    0.06680390
     atom   52 type  2   force =     0.00000566    0.03509766    0.00727981
     atom   53 type  2   force =    -0.00002576    0.02413750    0.00302550
     atom   54 type  3   force =     0.00011956   -0.00016572    0.00059123
     atom   55 type  4   force =    -0.00002207   -0.00012107    0.00092316
     atom   56 type  3   force =    -0.00003636    0.00069862    0.00035366
     atom   57 type  3   force =     0.00000821    0.00052281    0.00080560
     atom   58 type  4   force =     0.01104777    0.00580048    0.00156415
     atom   59 type  3   force =    -0.00007028   -0.00018071    0.00009529
     atom   60 type  3   force =     0.00020280    0.00140901    0.00009791
     atom   61 type  3   force =    -0.01118195   -0.00493366   -0.00400199

     Total force =     0.461984     Total SCF correction =     0.000460
  @ DRIVER MODE: Message from server: STATUS
  @ DRIVER MODE: Message from server: GETFORCE
  @ DRIVER MODE: Returning v,forces,stress,ensemble

     Writing output data file ./calc.save/
  @ DRIVER MODE: Message from server: EXIT
  @ DRIVE MODE: Exiting

     General routines

     Parallel routines

   This run was terminated on:  10:32:40  19Oct2021

   JOB DONE.