     Program PWSCF v.6.7GPU starts on 23Aug2021 at 19:50:10

     R & G space division:  proc/nbgrp/npool/nimage =       6
     Reading input from /storage/home/hcoda1/3/ntian30/research/carbon/CH_vib/ads_slab/CHN_a/out_0015/pw.inp
Warning: card &CELL ignored
Warning: card   CELL_DYNAMICS='IPI', ignored
Warning: card / ignored

     Current dimensions of program PWSCF are:
     Max number of different atomic species (ntypx) = 10
     Max number of k-points (npk) =  40000
     Max angular momentum in pseudopotentials (lmaxx) =  3
     Presently no symmetry can be used with electric field

     Message from routine cell_base_init:
     DEPRECATED: use true lattice parameter, not A to a.u. conversion factor

     IMPORTANT: XC functional enforced from input :
     Exchange-correlation= BEEF-VDW
                           (   1   4  43  14   2   0   0)
     Any further DFT definition will be discarded
     Please, verify this is what you really want

  @ DRIVER MODE: Connecting to
 qe_1139763_2632801.sched-torque.pace.gatech.edudnznmiev_scratch
  using UNIX socket
  @ DRIVER MODE: Message from server: STATUS
  @ DRIVER MODE: Message from server: INIT
  @ DRIVER MODE: Receiving replica           0          -1
  @ DRIVER MODE: Receiving encoded integer          25
  @ DRIVER MODE:  SCF:  T  FORCE:  T  STRESS:  F  VC:  F  ENSEMBLE:  F
  @ DRIVER MODE:  SCF:  T  FORCE:  T  STRESS:  F  VC:  F  ENSEMBLE:  F

     Using Slab Decomposition

     bravais-lattice index     =            0
     lattice parameter (alat)  =       1.8897  a.u.
     unit-cell volume          =    6658.9804 (a.u.)^3
     number of atoms/cell      =           50
     number of atomic types    =            5
     number of electrons       =       388.00
     number of Kohn-Sham states=          204
     kinetic-energy cutoff     =      29.3995  Ry
     charge density cutoff     =     293.9946  Ry
     scf convergence threshold =      7.3E-08
     mixing beta               =       0.0500
     number of iterations used =            8  plain     mixing
     Exchange-correlation= BEEF-VDW
                           (   1   4  43  14   2   0   0)

     celldm(1)=   1.889726  celldm(2)=   0.000000  celldm(3)=   0.000000
     celldm(4)=   0.000000  celldm(5)=   0.000000  celldm(6)=   0.000000

     crystal axes: (cart. coord. in units of alat)
               a(1) = (   6.579727   0.000000   0.000000 )
               a(2) = (  -0.000775   5.961596   0.000000 )
               a(3) = (   0.000000   0.000000  25.155947 )

     reciprocal axes: (cart. coord. in units 2 pi/alat)
               b(1) = (  0.151982  0.000020  0.000000 )
               b(2) = (  0.000000  0.167740  0.000000 )
               b(3) = (  0.000000  0.000000  0.039752 )

     PseudoPot. # 1 for Ti read from file:
     /storage/coda1/p-amedford6/0/shared/rich_project_chbe-medford/medford-share/data/pseudos_module/espresso/nninc/pbe/van/Ti.UPF
     MD5 check sum: 8e4df49b7f0d34bbd5052bf3f5ea0213
     Pseudo is Ultrasoft, Zval = 12.0
     Generated by new atomic code, or converted to UPF format
     Using radial grid of  851 points,  6 beta functions with:
                l(1) =   0
                l(2) =   0
                l(3) =   1
                l(4) =   1
                l(5) =   2
                l(6) =   2
     Q(r) pseudized with  8 coefficients,  rinner =    1.000   1.000   1.000
                                                       1.000   1.000

     PseudoPot. # 2 for O  read from file:
     /storage/coda1/p-amedford6/0/shared/rich_project_chbe-medford/medford-share/data/pseudos_module/espresso/nninc/pbe/van/O.UPF
     MD5 check sum: 78c19812648e8988a0fe644b0f25305e
     Pseudo is Ultrasoft, Zval =  6.0
     Generated by new atomic code, or converted to UPF format
     Using radial grid of  737 points,  4 beta functions with:
                l(1) =   0
                l(2) =   0
                l(3) =   1
                l(4) =   1
     Q(r) pseudized with  8 coefficients,  rinner =    0.800   0.800   0.800

     PseudoPot. # 3 for N  read from file:
     /storage/coda1/p-amedford6/0/shared/rich_project_chbe-medford/medford-share/data/pseudos_module/espresso/nninc/pbe/van/N.UPF
     MD5 check sum: 90d10febe142ad51ac9d5be1deb811c4
     Pseudo is Ultrasoft, Zval =  5.0
     Generated by new atomic code, or converted to UPF format
     Using radial grid of  729 points,  4 beta functions with:
                l(1) =   0
                l(2) =   0
                l(3) =   1
                l(4) =   1
     Q(r) pseudized with  8 coefficients,  rinner =    0.800   0.800   0.800

     PseudoPot. # 4 for C  read from file:
     /storage/coda1/p-amedford6/0/shared/rich_project_chbe-medford/medford-share/data/pseudos_module/espresso/nninc/pbe/van/C.UPF
     MD5 check sum: 1a69bf6b8db32088f5b2163dbdb77a27
     Pseudo is Ultrasoft, Zval =  4.0
     Generated by new atomic code, or converted to UPF format
     Using radial grid of  721 points,  4 beta functions with:
                l(1) =   0
                l(2) =   0
                l(3) =   1
                l(4) =   1
     Q(r) pseudized with  8 coefficients,  rinner =    0.800   0.800   0.800

     PseudoPot. # 5 for H  read from file:
     /storage/coda1/p-amedford6/0/shared/rich_project_chbe-medford/medford-share/data/pseudos_module/espresso/nninc/pbe/van/H.UPF
     MD5 check sum: b5ee9d7bfd3a09ee7748110bda690ff7
     Pseudo is Ultrasoft, Zval =  1.0
     Generated by new atomic code, or converted to UPF format
     Using radial grid of  615 points,  1 beta functions with:
                l(1) =   0
     Q(r) pseudized with  8 coefficients,  rinner =    0.800

     atomic species   valence    mass     pseudopotential
        Ti1           12.00    47.86700     Ti( 1.00)
        O1             6.00    15.99900     O ( 1.00)
        N1             5.00    14.00700     N ( 1.00)
        C1             4.00    12.01100     C ( 1.00)
        H1             1.00     1.00800     H ( 1.00)

     No symmetry found

   Cartesian axes

     site n.     atom                  positions (alat units)
         1           Ti1 tau(   1) = (   0.0004258   2.9801865   6.0000000  )
         2           Ti1 tau(   2) = (   3.2906075   1.4906267   6.0002472  )
         3           O1  tau(   3) = (   0.0006271   0.0005054   7.9858123  )
         4           O1  tau(   4) = (   3.2906025   0.0005020   7.3038282  )
         5           O1  tau(   5) = (   4.5942328   1.4918067   9.2879030  )
         6           O1  tau(   6) = (   1.9868534   1.4903216   9.2879459  )
         7           Ti1 tau(   7) = (   3.2907910   2.8959150   9.1758416  )
         8           Ti1 tau(   8) = (   0.0015273   1.4827037   9.2680791  )
         9           O1  tau(   9) = (   3.3014052   0.0114069  11.3737528  )
        10           O1  tau(  10) = (   0.0116148   5.9584955  10.6183126  )
        11           O1  tau(  11) = (   1.3012034   1.4994444  12.6801950  )
        12           O1  tau(  12) = (   5.3042999   1.4981222  12.6788946  )
        13           Ti1 tau(  13) = (   0.0222102   2.9879630  12.5217794  )
        14           Ti1 tau(  14) = (   3.3166014   1.4969944  12.5290657  )
        15           O1  tau(  15) = (   0.0131148   5.9114811  14.6787674  )
        16           O1  tau(  16) = (   3.3052116   5.9585997  13.9918696  )
        17           O1  tau(  17) = (   4.5573354   1.5165695  16.1403462  )
        18           O1  tau(  18) = (   2.0429717   1.5180214  16.1331141  )
        19           Ti1 tau(  19) = (   3.3061463   3.0045039  15.7576854  )
        20           Ti1 tau(  20) = (   0.0190008   1.3629876  15.8180984  )
        21           O1  tau(  21) = (   3.2904802   0.0005063   4.7018136  )
        22           O1  tau(  22) = (   0.0120025   0.1123878  17.2186474  )
        23           O1  tau(  23) = (   1.3043587   1.4918075   6.0039043  )
        24           O1  tau(  24) = (   5.2767064   1.4903225   6.0039473  )
        25           Ti1 tau(  25) = (   0.0000382   5.9609847   6.0000000  )
        26           Ti1 tau(  26) = (   3.2902200   4.4714249   6.0002472  )
        27           O1  tau(  27) = (   0.0002396   2.9813036   7.9858123  )
        28           O1  tau(  28) = (   3.2902150   2.9813002   7.3038282  )
        29           O1  tau(  29) = (   4.5938453   4.4726049   9.2879030  )
        30           O1  tau(  30) = (   1.9864658   4.4711199   9.2879459  )
        31           Ti1 tau(  31) = (   3.2891106   5.8743827   9.1763621  )
        32           Ti1 tau(  32) = (   0.0006254   4.4649316   9.2693709  )
        33           O1  tau(  33) = (   3.3015003   2.9799855  11.3692792  )
        34           O1  tau(  34) = (   0.0092240   2.9805883  10.6323155  )
        35           O1  tau(  35) = (   1.3024855   4.4701597  12.6493271  )
        36           O1  tau(  36) = (   5.3029933   4.4710749  12.6473438  )
        37           Ti1 tau(  37) = (   0.0213219   5.9581237  12.5009821  )
        38           Ti1 tau(  38) = (   3.3165689   4.4756321  12.5216884  )
        39           O1  tau(  39) = (   0.0062450   3.0260372  14.9395602  )
        40           O1  tau(  40) = (   3.3068494   3.0035608  13.9656762  )
        41           O1  tau(  41) = (   4.5532872   4.4785133  16.2063021  )
        42           O1  tau(  42) = (   2.0453360   4.4758230  16.1992630  )
        43           Ti1 tau(  43) = (   3.3068391   0.0190840  15.7907057  )
        44           Ti1 tau(  44) = (   0.0173475   4.5946531  16.0781683  )
        45           O1  tau(  45) = (   3.2900926   2.9813045   4.7018136  )
        46           O1  tau(  46) = (   1.3039711   4.4726057   6.0039043  )
        47           O1  tau(  47) = (   5.2763189   4.4711207   6.0039473  )
        48           N1  tau(  48) = (   0.0050225   3.2246995  17.9653954  )
        49           C1  tau(  49) = (   6.5749124   2.4458835  18.8135322  )
        50           H1  tau(  50) = (   6.5624368   1.6831146  19.5645906  )

     number of k points=    10  Fermi-Dirac smearing, width (Ry)=  0.0073
                       cart. coord. in units 2pi/alat
        k(    1) = (   0.0000000   0.0000000   0.0000000), wk =   0.1250000
        k(    2) = (   0.0000000   0.0419351   0.0000000), wk =   0.2500000
        k(    3) = (   0.0000000  -0.0838702   0.0000000), wk =   0.1250000
        k(    4) = (   0.0379955   0.0000049   0.0000000), wk =   0.2500000
        k(    5) = (   0.0379955   0.0419400   0.0000000), wk =   0.2500000
        k(    6) = (   0.0379955  -0.0838652   0.0000000), wk =   0.2500000
        k(    7) = (   0.0379955  -0.0419301   0.0000000), wk =   0.2500000
        k(    8) = (  -0.0759910  -0.0000099   0.0000000), wk =   0.1250000
        k(    9) = (  -0.0759910   0.0419252   0.0000000), wk =   0.2500000
        k(   10) = (  -0.0759910  -0.0838800   0.0000000), wk =   0.1250000

     Initial potential from superposition of free atoms

     starting charge  371.99919, renormalised to  388.00000

     negative rho (up, down):  1.809E-02 0.000E+00

     %%%%%%%%%%%%%%%%%%%%%%%%%%%%%%%%%%%%%%%%%%%%%%%%%%%%%%%%%%%%%%%%%%%%%%%%
     %                                                                      %
     % You are using vdW-DF, which was implemented by the Thonhauser group. %
     % Please cite the following two papers that made this development      %
     % possible and the two reviews that describe the various versions:     %
     %                                                                      %
     %   T. Thonhauser et al., PRL 115, 136402 (2015).                      %
     %   T. Thonhauser et al., PRB 76, 125112 (2007).                       %
     %   K. Berland et al., Rep. Prog. Phys. 78, 066501 (2015).             %
     %   D.C. Langreth et al., J. Phys.: Condens. Matter 21, 084203 (2009). %
     %                                                                      %
     %                                                                      %
     % If you are calculating the stress with vdW-DF, please also cite:     %
     %                                                                      %
     %   R. Sabatini et al., J. Phys.: Condens. Matter 24, 424209 (2012).   %
     %                                                                      %
     %%%%%%%%%%%%%%%%%%%%%%%%%%%%%%%%%%%%%%%%%%%%%%%%%%%%%%%%%%%%%%%%%%%%%%%%

     Adding external electric field

     Computed dipole along edir(3) :
        Dipole               -4.8585 Ry au,        -12.3490 Debye
        Dipole field         -0.0092 Ry au,

        Potential amp.        0.8499 Ry
        Total length         46.3494 bohr

     Starting wfcs are  293 atomic wfcs
  @ DRIVER MODE: Message from server: STATUS
  @ DRIVER MODE: Message from server: POSDATA
  @ DRIVER MODE: Reading and sharing cell
  @ DRIVER MODE: Reading and sharing positions
  @ DRIVER MODE: Received positions

     Self-consistent Calculation

     iteration #  1     ecut=    29.40 Ry     beta= 0.05
     Davidson diagonalization with overlap
     c_bands:  5 eigenvalues not converged
     c_bands:  5 eigenvalues not converged
     c_bands:  5 eigenvalues not converged
     c_bands:  5 eigenvalues not converged
     c_bands:  3 eigenvalues not converged
     c_bands:  5 eigenvalues not converged
     c_bands:  4 eigenvalues not converged
     c_bands:  3 eigenvalues not converged
     c_bands:  1 eigenvalues not converged
     ethr =  1.00E-05,  avg # of iterations = 20.0

[...]

     total energy              =   -2846.09735060 Ry
     estimated scf accuracy    <     790.48033031 Ry

     iteration #  2     ecut=    29.40 Ry     beta= 0.05
     Davidson diagonalization with overlap
     ethr =  1.00E-02,  avg # of iterations = 15.9

[...]

     iteration # 69     ecut=    29.40 Ry     beta= 0.05
     Davidson diagonalization with overlap
     c_bands:  1 eigenvalues not converged
     ethr =  3.89E-11,  avg # of iterations = 13.0

[...]

     total energy              =   -2916.61476455 Ry
     estimated scf accuracy    <       0.00000010 Ry

     iteration # 70     ecut=    29.40 Ry     beta= 0.05
     Davidson diagonalization with overlap
     ethr =  2.57E-11,  avg # of iterations =  9.8

     negative rho (up, down):  1.830E-02 0.000E+00

     Adding external electric field

     Computed dipole along edir(3) :
        Dipole                1.5146 Ry au,          3.8498 Debye
        Dipole field          0.0029 Ry au,

        Potential amp.       -0.2650 Ry
        Total length         46.3494 bohr

     End of self-consistent calculation

          k = 0.0000 0.0000 0.0000 ( 18029 PWs)   bands (ev):

   -55.4457 -55.4097 -55.4023 -55.3681 -55.3245 -55.3207 -55.2848 -55.2644
   -55.2552 -55.2427 -55.2318 -55.2300 -55.1983 -55.1378 -54.4282 -54.3942
   -32.0122 -31.8942 -31.8470 -31.8094 -31.7551 -31.7536 -31.7486 -31.7364
   -31.6914 -31.6773 -31.6546 -31.6470 -31.6412 -31.6160 -31.5994 -31.5869
   -31.5825 -31.5683 -31.5625 -31.5545 -31.5345 -31.5255 -31.5156 -31.5001
   -31.4948 -31.4741 -31.4667 -31.4594 -31.4516 -31.4482 -31.4443 -31.4298
   -31.4239 -31.4157 -31.4127 -31.4123 -31.3782 -31.3633 -31.3601 -31.3447
   -31.3424 -31.2589 -30.8375 -30.7436 -30.7216 -30.6539 -30.5671 -30.4562
   -17.4124 -16.2625 -15.9939 -15.8414 -15.7365 -15.6406 -15.5060 -15.4875
   -15.3624 -15.2718 -15.1500 -15.0966 -15.0776 -15.0593 -15.0509 -15.0347
   -14.9871 -14.9825 -14.9516 -14.9400 -14.9173 -14.8797 -14.8743 -14.8409
   -14.8219 -14.7515 -14.6769 -14.6005 -14.5344 -14.2307 -12.9309 -12.8135
    -9.0031  -4.6816  -3.6049  -3.5008  -3.4579  -3.3579  -3.3403  -3.2661
    -3.2457  -3.1892  -3.0257  -2.8468  -2.7846  -2.7107  -2.6464  -2.6342
    -2.6052  -2.4460  -2.4081  -2.3588  -2.3045  -2.2798  -2.2523  -2.2293
    -2.1947  -2.1767  -2.1725  -2.1651  -2.0088  -1.9383  -1.9048  -1.8542
    -1.8372  -1.7856  -1.7635  -1.7310  -1.7274  -1.7213  -1.6699  -1.6545
    -1.6186  -1.5212  -1.4650  -1.3302  -1.2883  -1.1467  -1.0826  -1.0198
    -1.0076  -0.9286  -0.8909  -0.8830  -0.8266  -0.7970  -0.7819  -0.6585
    -0.5574  -0.5107  -0.4542  -0.4239  -0.3772  -0.3409  -0.2514  -0.2253
    -0.2090  -0.1986  -0.0554  -0.0285   0.0536   0.0790   0.1116   0.1126
     0.2195   0.2335   0.3081   0.3554   0.3862   0.4467   0.4971   0.5002
     0.5219   0.5459   0.5545   0.6479   0.6675   0.6792   0.7511   0.8960
     1.1276   1.1688   1.1807   1.5010   1.5134   1.5944   1.7787   2.1703
     2.2183   3.6523   3.7243   3.7941   3.8030   3.8410   3.8892   4.1221
     4.1334   4.1533   4.1597   4.1941

[...]

          k = 0.0380-0.0419 0.0000 ( 17876 PWs)   bands (ev):

[...]

          k =-0.0760-0.0000 0.0000 ( 17886 PWs)   bands (ev):

[...]

          k =-0.0760-0.0839 0.0000 ( 17948 PWs)   bands (ev):

   -55.4292 -55.4259 -55.3853 -55.3849 -55.3207 -55.3080 -55.2975 -55.2525
   -55.2483 -55.2465 -55.2456 -55.2153 -55.2150 -55.1404 -54.4112 -54.4110
   -31.8172 -31.8146 -31.7708 -31.7208 -31.7095 -31.7091 -31.6972 -31.6769
   -31.6766 -31.6536 -31.6443 -31.6413 -31.6317 -31.5892 -31.5814 -31.5779
   -31.5759 -31.5719 -31.5706 -31.5643 -31.5338 -31.5307 -31.5226 -31.5216
   -31.5129 -31.5049 -31.5047 -31.5035 -31.4904 -31.4811 -31.4796 -31.4784
   -31.4617 -31.4587 -31.4454 -31.4442 -31.4430 -31.4352 -31.3958 -31.3953
   -31.3495 -31.3481 -30.7343 -30.7341 -30.6501 -30.6499 -30.6106 -30.6104
   -17.4070 -15.7771 -15.6668 -15.6341 -15.4525 -15.4420 -15.4058 -15.3940
   -15.2506 -15.2069 -15.2008 -15.1898 -15.1429 -15.1388 -15.1383 -15.1129
   -15.0421 -15.0359 -15.0311 -15.0149 -14.9587 -14.9473 -14.9443 -14.9273
   -14.8961 -14.8921 -14.7979 -14.7947 -14.6869 -14.5868 -12.9150 -12.9149
    -9.0006  -4.6692  -3.4105  -3.2598  -2.9367  -2.9015  -2.8960  -2.6629
    -2.6355  -2.6036  -2.5594  -2.4879  -2.4400  -2.4167  -2.4154  -2.3469
    -2.2987  -2.2915  -2.2830  -2.2655  -2.2584  -2.2375  -2.2035  -2.1704
    -2.1606  -2.1322  -2.1167  -2.0974  -2.0787  -2.0433  -2.0298  -2.0050
    -2.0014  -1.8988  -1.8735  -1.7913  -1.7510  -1.7190  -1.6479  -1.6422
    -1.5397  -1.5359  -1.4830  -1.4715  -1.4309  -1.3254  -1.2401  -1.1894
    -1.1844  -1.1751  -1.0712  -1.0066  -0.9787  -0.9439  -0.9189  -0.8373
    -0.7804  -0.7600  -0.7185  -0.6351  -0.6302  -0.5669  -0.4648  -0.4230
    -0.4070  -0.4014  -0.3802  -0.3280  -0.3167  -0.2548  -0.2114  -0.1764
    -0.1655  -0.1205   0.0905   0.0931   0.1406   0.2527   0.2936   0.4416
     0.5190   0.5372   0.6128   0.6484   0.6726   0.7395   0.8474   0.8653
     0.8786   0.9495   0.9889   1.0129   1.0224   1.9515   1.9520   2.0383
     2.0384   3.7740   3.8875   3.9205   3.9695   4.0131   4.0682   4.1723
     4.1932   4.2356   4.2370   4.3093

     the Fermi energy is     3.7118 ev

!    total energy              =   -2916.61477871 Ry
     estimated scf accuracy    <       0.00000004 Ry
     smearing contrib. (-TS)   =      -0.03748711 Ry
     internal energy E=F+TS    =   -2916.57729160 Ry

     The total energy is F=E-TS. E is the sum of the following terms:
     one-electron contribution =  -24444.64664263 Ry
     hartree contribution      =   12309.79449545 Ry
     xc contribution           =    -478.36694659 Ry
     ewald contribution        =    9696.63747287 Ry
     electric field correction =       0.00432930 Ry

     convergence has been achieved in  70 iterations

     Forces acting on atoms (cartesian axes, Ry/au):

     atom    1 type  1   force =     0.00000476   -0.00029360    0.09341878
     atom    2 type  1   force =    -0.00018006   -0.00047068   -0.17792192
     atom    3 type  2   force =     0.00002212   -0.00033738   -0.02064561
     atom    4 type  2   force =    -0.00003580   -0.00186669    0.05837668
     atom    5 type  2   force =    -0.01035409   -0.00073632    0.00709395
     atom    6 type  2   force =     0.01201723   -0.00013719    0.00686569
     atom    7 type  1   force =    -0.00010847    0.00192396   -0.01365834
     atom    8 type  1   force =    -0.00009555    0.00176154   -0.00206438
     atom    9 type  2   force =    -0.00004745   -0.00044415   -0.00035622
     atom   10 type  2   force =    -0.00120268    0.00258898   -0.00300566
     atom   11 type  2   force =    -0.00066204   -0.00012887    0.00012233
     atom   12 type  2   force =     0.00050260   -0.00008810   -0.00007138
     atom   13 type  1   force =    -0.00006917   -0.00001982    0.00009203
     atom   14 type  1   force =    -0.00001934   -0.00004597    0.00025495
     atom   15 type  2   force =    -0.00010816    0.00016384    0.00002414
     atom   16 type  2   force =    -0.00002945   -0.00010804   -0.00019561
     atom   17 type  2   force =     0.00063071    0.00002686   -0.00012191
     atom   18 type  2   force =    -0.00017930    0.00000972    0.00025543
     atom   19 type  1   force =    -0.00027103    0.00034355    0.00027311
     atom   20 type  1   force =    -0.00014032    0.00037200    0.00033786
     atom   21 type  2   force =    -0.00002359   -0.00012208    0.10391858
     atom   22 type  2   force =    -0.00007281    0.00023615    0.00028898
     atom   23 type  2   force =    -0.07053239   -0.00022450   -0.02695293
     atom   24 type  2   force =     0.07031754    0.00021426   -0.02700199
     atom   25 type  1   force =     0.00001281   -0.00033468    0.09299973
     atom   26 type  1   force =    -0.00019317   -0.00052859   -0.17813462
     atom   27 type  2   force =     0.00006037   -0.00023781   -0.01964277
     atom   28 type  2   force =     0.00001303   -0.00163916    0.05784888
     atom   29 type  2   force =    -0.01086379   -0.00057012    0.00759058
     atom   30 type  2   force =     0.01238997   -0.00022352    0.00733432
     atom   31 type  1   force =    -0.00004050    0.00593263   -0.01474602
     atom   32 type  1   force =    -0.00011878   -0.00213661   -0.00201231
     atom   33 type  2   force =     0.00002046   -0.00006230   -0.00032403
     atom   34 type  2   force =    -0.00064689   -0.00100322   -0.00064162
     atom   35 type  2   force =    -0.00011599   -0.00006785    0.00012027
     atom   36 type  2   force =    -0.00007625   -0.00000889    0.00019563
     atom   37 type  1   force =     0.00022324   -0.00079142    0.00010614
     atom   38 type  1   force =    -0.00005530   -0.00009244    0.00021957
     atom   39 type  2   force =     0.00011596   -0.00047357    0.00007333
     atom   40 type  2   force =    -0.00021834   -0.00011532   -0.00046135
     atom   41 type  2   force =     0.00037025   -0.00010932   -0.00044815
     atom   42 type  2   force =     0.00005185    0.00011369   -0.00003591
     atom   43 type  1   force =    -0.00016031   -0.00007911    0.00019571
     atom   44 type  1   force =     0.00009044    0.00016887    0.00038293
     atom   45 type  2   force =    -0.00002476   -0.00014747    0.10387478
     atom   46 type  2   force =    -0.07051606   -0.00016376   -0.02694103
     atom   47 type  2   force =     0.07030970    0.00026432   -0.02699564
     atom   48 type  3   force =     0.00026397    0.00092242    0.00015877
     atom   49 type  4   force =    -0.00041640   -0.00777505    0.00715051
     atom   50 type  5   force =     0.00016124    0.00654082   -0.00719425

     Total force =     0.366190     Total SCF correction =     0.000387
  @ DRIVER MODE: Message from server: STATUS
  @ DRIVER MODE: Message from server: GETFORCE
  @ DRIVER MODE: Returning v,forces,stress,ensemble

     Writing output data file ./calc.save/
  @ DRIVER MODE: Message from server: EXIT
  @ DRIVE MODE: Exiting

     General routines

     Parallel routines

   This run was terminated on:  20:21:40  23Aug2021

   JOB DONE.