     Program PWSCF v.6.7GPU starts on 23Sep2021 at 22:45:54

     R & G space division:  proc/nbgrp/npool/nimage =       8
     Reading input from /storage/home/hcoda1/3/ntian30/research/carbon/CxH_vib/H2O_calc/ads_slab/CH3NHNH2HO_a/out_0026/pw.inp
Warning: card &CELL ignored
Warning: card   CELL_DYNAMICS='IPI', ignored
Warning: card / ignored

     Current dimensions of program PWSCF are:
     Max number of different atomic species (ntypx) = 10
     Max number of k-points (npk) =  40000
     Max angular momentum in pseudopotentials (lmaxx) =  3
     Presently no symmetry can be used with electric field

     Message from routine cell_base_init:
     DEPRECATED: use true lattice parameter, not A to a.u. conversion factor

     IMPORTANT: XC functional enforced from input :
     Exchange-correlation= BEEF-VDW
                           (   1   4  43  14   2   0   0)
     Any further DFT definition will be discarded
     Please, verify this is what you really want

  @ DRIVER MODE: Connecting to
 qe_1139763_2947307.sched-torque.pace.gatech.edu0gt20mxe_scratch
  using UNIX socket
  @ DRIVER MODE: Message from server: STATUS
  @ DRIVER MODE: Message from server: INIT
  @ DRIVER MODE: Receiving replica           0          -1
  @ DRIVER MODE: Receiving encoded integer          25
  @ DRIVER MODE:  SCF:  T  FORCE:  T  STRESS:  F  VC:  F  ENSEMBLE:  F
  @ DRIVER MODE:  SCF:  T  FORCE:  T  STRESS:  F  VC:  F  ENSEMBLE:  F

     Using Slab Decomposition

     bravais-lattice index     =            0
     lattice parameter (alat)  =       1.8897  a.u.
     unit-cell volume          =    6658.9804 (a.u.)^3
     number of atoms/cell      =           58
     number of atomic types    =            5
     number of electrons       =       405.00
     number of Kohn-Sham states=          212
     kinetic-energy cutoff     =      29.3995  Ry
     charge density cutoff     =     293.9946  Ry
     scf convergence threshold =      7.3E-08
     mixing beta               =       0.0500
     number of iterations used =            8  plain     mixing
     Exchange-correlation= BEEF-VDW
                           (   1   4  43  14   2   0   0)

     celldm(1)=   1.889726  celldm(2)=   0.000000  celldm(3)=   0.000000
     celldm(4)=   0.000000  celldm(5)=   0.000000  celldm(6)=   0.000000

     crystal axes: (cart. coord. in units of alat)
               a(1) = (   6.579727   0.000000   0.000000 )
               a(2) = (  -0.000775   5.961596   0.000000 )
               a(3) = (   0.000000   0.000000  25.155947 )

     reciprocal axes: (cart. coord. in units 2 pi/alat)
               b(1) = (  0.151982  0.000020  0.000000 )
               b(2) = (  0.000000  0.167740  0.000000 )
               b(3) = (  0.000000  0.000000  0.039752 )

     PseudoPot. # 1 for Ti read from file:
     /storage/coda1/p-amedford6/0/shared/rich_project_chbe-medford/medford-share/data/pseudos_module/espresso/nninc/pbe/van/Ti.UPF
     MD5 check sum: 8e4df49b7f0d34bbd5052bf3f5ea0213
     Pseudo is Ultrasoft, Zval = 12.0
     Generated by new atomic code, or converted to UPF format
     Using radial grid of  851 points,  6 beta functions with:
                l(1) =   0
                l(2) =   0
                l(3) =   1
                l(4) =   1
                l(5) =   2
                l(6) =   2
     Q(r) pseudized with  8 coefficients,  rinner =    1.000   1.000   1.000
                                                       1.000   1.000

     PseudoPot. # 2 for O  read from file:
     /storage/coda1/p-amedford6/0/shared/rich_project_chbe-medford/medford-share/data/pseudos_module/espresso/nninc/pbe/van/O.UPF
     MD5 check sum: 78c19812648e8988a0fe644b0f25305e
     Pseudo is Ultrasoft, Zval =  6.0
     Generated by new atomic code, or converted to UPF format
     Using radial grid of  737 points,  4 beta functions with:
                l(1) =   0
                l(2) =   0
                l(3) =   1
                l(4) =   1
     Q(r) pseudized with  8 coefficients,  rinner =    0.800   0.800   0.800

     PseudoPot. # 3 for N  read from file:
     /storage/coda1/p-amedford6/0/shared/rich_project_chbe-medford/medford-share/data/pseudos_module/espresso/nninc/pbe/van/N.UPF
     MD5 check sum: 90d10febe142ad51ac9d5be1deb811c4
     Pseudo is Ultrasoft, Zval =  5.0
     Generated by new atomic code, or converted to UPF format
     Using radial grid of  729 points,  4 beta functions with:
                l(1) =   0
                l(2) =   0
                l(3) =   1
                l(4) =   1
     Q(r) pseudized with  8 coefficients,  rinner =    0.800   0.800   0.800

     PseudoPot. # 4 for C  read from file:
     /storage/coda1/p-amedford6/0/shared/rich_project_chbe-medford/medford-share/data/pseudos_module/espresso/nninc/pbe/van/C.UPF
     MD5 check sum: 1a69bf6b8db32088f5b2163dbdb77a27
     Pseudo is Ultrasoft, Zval =  4.0
     Generated by new atomic code, or converted to UPF format
     Using radial grid of  721 points,  4 beta functions with:
                l(1) =   0
                l(2) =   0
                l(3) =   1
                l(4) =   1
     Q(r) pseudized with  8 coefficients,  rinner =    0.800   0.800   0.800

     PseudoPot. # 5 for H  read from file:
     /storage/coda1/p-amedford6/0/shared/rich_project_chbe-medford/medford-share/data/pseudos_module/espresso/nninc/pbe/van/H.UPF
     MD5 check sum: b5ee9d7bfd3a09ee7748110bda690ff7
     Pseudo is Ultrasoft, Zval =  1.0
     Generated by new atomic code, or converted to UPF format
     Using radial grid of  615 points,  1 beta functions with:
                l(1) =   0
     Q(r) pseudized with  8 coefficients,  rinner =    0.800

     atomic species   valence    mass     pseudopotential
        Ti1           12.00    47.86700     Ti( 1.00)
        O1             6.00    15.99900     O ( 1.00)
        N1             5.00    14.00700     N ( 1.00)
        C1             4.00    12.01100     C ( 1.00)
        H1             1.00     1.00800     H ( 1.00)

     No symmetry found

   Cartesian axes

     site n.     atom                  positions (alat units)
         1           Ti1 tau(   1) = (   0.0004258   2.9801865   6.0000000  )
         2           Ti1 tau(   2) = (   3.2906075   1.4906267   6.0002472  )
         3           O1  tau(   3) = (   0.0006271   0.0005054   7.9858123  )
         4           O1  tau(   4) = (   3.2906025   0.0005020   7.3038282  )
         5           O1  tau(   5) = (   4.5942328   1.4918067   9.2879030  )
         6           O1  tau(   6) = (   1.9868534   1.4903216   9.2879459  )
         7           Ti1 tau(   7) = (   3.2907910   2.8959150   9.1758416  )
         8           Ti1 tau(   8) = (   0.0015273   1.4827037   9.2680791  )
         9           O1  tau(   9) = (   3.3003128   0.0493987  11.3625472  )
        10           O1  tau(  10) = (   0.0116148   5.9584955  10.6183126  )
        11           O1  tau(  11) = (   1.2863924   1.5188706  12.6959087  )
        12           O1  tau(  12) = (   5.3173592   1.5183023  12.6957539  )
        13           Ti1 tau(  13) = (   0.0130489   2.9571150  12.5182267  )
        14           Ti1 tau(  14) = (   3.3124343   1.5987737  12.4587140  )
        15           O1  tau(  15) = (   0.0455642   5.8537743  14.6515032  )
        16           O1  tau(  16) = (   3.3135256   5.8999501  14.0036581  )
        17           O1  tau(  17) = (   4.5824137   1.5787328  16.0473457  )
        18           O1  tau(  18) = (   2.0456054   1.5356268  16.0652349  )
        19           Ti1 tau(  19) = (   3.2855744   2.9948502  15.7047272  )
        20           Ti1 tau(  20) = (   0.0729980   1.3194477  15.7501807  )
        21           O1  tau(  21) = (   3.2904802   0.0005063   4.7018136  )
        22           O1  tau(  22) = (   6.5643345   0.1786488  17.1561759  )
        23           O1  tau(  23) = (   1.3043587   1.4918075   6.0039043  )
        24           O1  tau(  24) = (   5.2767064   1.4903225   6.0039473  )
        25           Ti1 tau(  25) = (   0.0000382   5.9609847   6.0000000  )
        26           Ti1 tau(  26) = (   3.2902200   4.4714249   6.0002472  )
        27           O1  tau(  27) = (   0.0002396   2.9813036   7.9858123  )
        28           O1  tau(  28) = (   3.2902150   2.9813002   7.3038282  )
        29           O1  tau(  29) = (   4.5938453   4.4726049   9.2879030  )
        30           O1  tau(  30) = (   1.9864658   4.4711199   9.2879459  )
        31           Ti1 tau(  31) = (   3.2891106   5.8743827   9.1763621  )
        32           Ti1 tau(  32) = (   0.0006254   4.4649316   9.2693709  )
        33           O1  tau(  33) = (   3.3044115   2.9646987  11.3227374  )
        34           O1  tau(  34) = (   0.0092240   2.9805883  10.6323155  )
        35           O1  tau(  35) = (   1.2889249   4.4812606  12.6373974  )
        36           O1  tau(  36) = (   5.3198440   4.4849614  12.6453916  )
        37           Ti1 tau(  37) = (   0.0274371   5.9167426  12.5032498  )
        38           Ti1 tau(  38) = (   3.3124303   4.6827448  12.7121475  )
        39           O1  tau(  39) = (   0.0064664   3.0605765  14.9143048  )
        40           O1  tau(  40) = (   3.2921723   3.0190953  13.9337278  )
        41           O1  tau(  41) = (   4.5343043   4.4484976  16.2223827  )
        42           O1  tau(  42) = (   2.0055671   4.4324605  16.2273083  )
        43           Ti1 tau(  43) = (   3.3963104   0.0511244  16.3072024  )
        44           Ti1 tau(  44) = (   0.1011521   4.5293608  16.0606835  )
        45           O1  tau(  45) = (   3.2900926   2.9813045   4.7018136  )
        46           O1  tau(  46) = (   1.3039711   4.4726057   6.0039043  )
        47           O1  tau(  47) = (   5.2763189   4.4711207   6.0039473  )
        48           N1  tau(  48) = (   0.7799224   3.1460235  19.0808133  )
        49           N1  tau(  49) = (   6.3029119   3.3142126  18.0946246  )
        50           C1  tau(  50) = (   0.9829876   4.3811599  19.8296872  )
        51           H1  tau(  51) = (   0.0599524   4.7630682  20.2995108  )
        52           H1  tau(  52) = (   1.7187173   4.1728717  20.6153690  )
        53           H1  tau(  53) = (   1.3778604   5.1510331  19.1745456  )
        54           H1  tau(  54) = (   0.4845774   2.4057476  19.7140978  )
        55           H1  tau(  55) = (   5.5451363   3.8924421  18.4761980  )
        56           H1  tau(  56) = (   5.8791802   2.3931312  17.9634808  )
        57           O1  tau(  57) = (   3.3895457   0.1916509  18.1699706  )
        58           H1  tau(  58) = (   3.8128180   5.4341384  18.6581559  )

     number of k points=    10  Fermi-Dirac smearing, width (Ry)=  0.0073
                       cart. coord. in units 2pi/alat
        k(    1) = (   0.0000000   0.0000000   0.0000000), wk =   0.1250000
        k(    2) = (   0.0000000   0.0419351   0.0000000), wk =   0.2500000
        k(    3) = (   0.0000000  -0.0838702   0.0000000), wk =   0.1250000
        k(    4) = (   0.0379955   0.0000049   0.0000000), wk =   0.2500000
        k(    5) = (   0.0379955   0.0419400   0.0000000), wk =   0.2500000
        k(    6) = (   0.0379955  -0.0838652   0.0000000), wk =   0.2500000
        k(    7) = (   0.0379955  -0.0419301   0.0000000), wk =   0.2500000
        k(    8) = (  -0.0759910  -0.0000099   0.0000000), wk =   0.1250000
        k(    9) = (  -0.0759910   0.0419252   0.0000000), wk =   0.2500000
        k(   10) = (  -0.0759910  -0.0838800   0.0000000), wk =   0.1250000

     Initial potential from superposition of free atoms

     starting charge  388.99913, renormalised to  405.00000

     negative rho (up, down):  1.368E-02 0.000E+00

     %%%%%%%%%%%%%%%%%%%%%%%%%%%%%%%%%%%%%%%%%%%%%%%%%%%%%%%%%%%%%%%%%%%%%%%%
     %                                                                      %
     % You are using vdW-DF, which was implemented by the Thonhauser group. %
     % Please cite the following two papers that made this development      %
     % possible and the two reviews that describe the various versions:     %
     %                                                                      %
     %   T. Thonhauser et al., PRL 115, 136402 (2015).                      %
     %   T. Thonhauser et al., PRB 76, 125112 (2007).                       %
     %   K. Berland et al., Rep. Prog. Phys. 78, 066501 (2015).             %
     %   D.C. Langreth et al., J. Phys.: Condens. Matter 21, 084203 (2009). %
     %                                                                      %
     %                                                                      %
     % If you are calculating the stress with vdW-DF, please also cite:     %
     %                                                                      %
     %   R. Sabatini et al., J. Phys.: Condens. Matter 24, 424209 (2012).   %
     %                                                                      %
     %%%%%%%%%%%%%%%%%%%%%%%%%%%%%%%%%%%%%%%%%%%%%%%%%%%%%%%%%%%%%%%%%%%%%%%%

     Adding external electric field

     Computed dipole along edir(3) :
        Dipole              -14.8124 Ry au,        -37.6493 Debye
        Dipole field         -0.0280 Ry au,

        Potential amp.        2.5912 Ry
        Total length         46.3494 bohr

     Starting wfcs are  307 atomic wfcs
  @ DRIVER MODE: Message from server: STATUS
  @ DRIVER MODE: Message from server: POSDATA
  @ DRIVER MODE: Reading and sharing cell
  @ DRIVER MODE: Reading and sharing positions
  @ DRIVER MODE: Received positions

     Self-consistent Calculation

     iteration #  1     ecut=    29.40 Ry     beta= 0.05
     Davidson diagonalization with overlap
     c_bands:  4 eigenvalues not converged
     c_bands:  4 eigenvalues not converged
     c_bands:  5 eigenvalues not converged
     c_bands:  2 eigenvalues not converged
     c_bands:  3 eigenvalues not converged
     c_bands:  4 eigenvalues not converged
     c_bands:  2 eigenvalues not converged
     ethr =  1.00E-05,  avg # of iterations = 22.9

[...]

     total energy              =   -2202.99872081 Ry
     estimated scf accuracy    <    8803.87214437 Ry

     iteration #  2     ecut=    29.40 Ry     beta= 0.05
     Davidson diagonalization with overlap
     ethr =  1.00E-02,  avg # of iterations = 32.9

[...]

     iteration # 64     ecut=    29.40 Ry     beta= 0.05
     Davidson diagonalization with overlap
     c_bands:  1 eigenvalues not converged
     ethr =  7.69E-10,  avg # of iterations = 15.9

[...]

     total energy              =   -2976.46401028 Ry
     estimated scf accuracy    <       0.00000019 Ry

     iteration # 72     ecut=    29.40 Ry     beta= 0.05
     Davidson diagonalization with overlap
     ethr =  4.09E-11,  avg # of iterations = 10.7

     negative rho (up, down):  1.440E-02 0.000E+00

     Adding external electric field

     Computed dipole along edir(3) :
        Dipole                1.2236 Ry au,          3.1101 Debye
        Dipole field          0.0023 Ry au,

        Potential amp.       -0.2140 Ry
        Total length         46.3494 bohr

     End of self-consistent calculation

          k = 0.0000 0.0000 0.0000 ( 18029 PWs)   bands (ev):

   -55.4453 -55.3574 -55.3233 -55.2189 -55.2156 -55.1881 -55.1860 -55.1781
   -55.1541 -55.1310 -55.0878 -54.9860 -54.9378 -54.8944 -54.3322 -54.2982
   -31.8425 -31.7917 -31.7227 -31.7049 -31.6909 -31.6760 -31.6553 -31.6482
   -31.6171 -31.6036 -31.5976 -31.5099 -31.4950 -31.4877 -31.4679 -31.4645
   -31.4605 -31.4515 -31.4510 -31.4210 -31.4148 -31.3932 -31.3862 -31.3763
   -31.3715 -31.3553 -31.3543 -31.3225 -31.3222 -31.3156 -31.3148 -31.3090
   -31.3007 -31.2826 -31.2588 -31.2403 -31.1751 -31.1535 -31.1417 -31.1335
   -31.1126 -31.1036 -30.7382 -30.6518 -30.6294 -30.5557 -30.4693 -30.3576
   -17.7437 -16.3682 -16.0116 -15.8477 -15.6330 -15.5403 -15.5132 -15.3143
   -15.2194 -15.1611 -14.9599 -14.9327 -14.8951 -14.8823 -14.8733 -14.8523
   -14.8488 -14.7971 -14.7817 -14.7717 -14.7682 -14.7380 -14.7109 -14.6717
   -14.6121 -14.5983 -14.4957 -14.4403 -14.4004 -14.1592 -14.1391 -13.1739
   -12.8308 -12.7145  -9.4306  -6.4403  -5.7424  -4.2736  -3.9351  -3.3696
    -3.2682  -3.2566  -3.2004  -3.1325  -2.9788  -2.8848  -2.7793  -2.7428
    -2.6030  -2.5908  -2.4929  -2.4442  -2.3707  -2.3249  -2.2837  -2.2486
    -2.2214  -2.1652  -2.1429  -2.1171  -2.1059  -2.0330  -2.0147  -1.9248
    -1.8921  -1.8786  -1.7610  -1.7263  -1.6918  -1.6785  -1.6694  -1.6633
    -1.6196  -1.6091  -1.5984  -1.5566  -1.4559  -1.4480  -1.4304  -1.3396
    -1.2425  -0.9922  -0.9609  -0.9105  -0.8990  -0.8208  -0.7821  -0.7505
    -0.7179  -0.6482  -0.6370  -0.6108  -0.5495  -0.4740  -0.4198  -0.3721
    -0.3380  -0.2261  -0.1761  -0.1322  -0.0994  -0.0626   0.0004   0.0398
     0.0641   0.1071   0.1947   0.2581   0.2856   0.3023   0.3525   0.3943
     0.4323   0.4728   0.5446   0.5672   0.5773   0.6165   0.6251   0.6461
     0.7415   0.7600   0.8194   0.8466   0.9346   0.9656   1.0097   1.1792
     1.2487   1.3073   1.3854   1.4766   1.6396   1.6941   1.7190   1.8881
     2.2614   2.3068   3.7265   3.8738   3.8902   3.9679   3.9848   4.0490
     4.2154   4.2746   4.4120   4.4226

[...]

          k = 0.0380-0.0419 0.0000 ( 17876 PWs)   bands (ev):

[...]

          k =-0.0760-0.0000 0.0000 ( 17886 PWs)   bands (ev):

[...]

          k =-0.0760-0.0839 0.0000 ( 17948 PWs)   bands (ev):

   -55.4445 -55.3404 -55.3402 -55.2177 -55.2040 -55.1898 -55.1867 -55.1723
   -55.1695 -55.1229 -55.0960 -54.9829 -54.9388 -54.8973 -54.3151 -54.3151
   -31.7304 -31.6701 -31.6579 -31.6578 -31.6567 -31.6428 -31.6339 -31.6336
   -31.5765 -31.5314 -31.5101 -31.4993 -31.4939 -31.4888 -31.4659 -31.4602
   -31.4597 -31.4568 -31.4502 -31.4377 -31.4311 -31.4284 -31.4165 -31.3906
   -31.3860 -31.3840 -31.3766 -31.3688 -31.3504 -31.3450 -31.3415 -31.3411
   -31.3385 -31.3181 -31.3166 -31.2521 -31.2351 -31.2075 -31.1793 -31.1558
   -31.1496 -31.1084 -30.6421 -30.6421 -30.5512 -30.5509 -30.5126 -30.5124
   -17.7396 -16.3582 -15.5923 -15.4473 -15.3388 -15.3284 -15.2045 -15.1374
   -15.1276 -15.0940 -15.0712 -15.0493 -15.0308 -15.0157 -14.9609 -14.9211
   -14.8898 -14.8624 -14.8578 -14.8148 -14.8051 -14.7938 -14.7758 -14.7642
   -14.7090 -14.6728 -14.6632 -14.6049 -14.4656 -14.4453 -14.2895 -13.1753
   -12.8164 -12.8162  -9.4497  -6.4245  -5.7485  -4.2594  -3.9238  -2.9628
    -2.8012  -2.6588  -2.5904  -2.5632  -2.4498  -2.4243  -2.3676  -2.3170
    -2.2930  -2.2714  -2.2190  -2.2093  -2.1635  -2.1473  -2.1233  -2.1083
    -2.0919  -2.0854  -2.0575  -2.0416  -2.0313  -2.0183  -1.9913  -1.9803
    -1.9620  -1.9333  -1.9131  -1.9040  -1.8707  -1.8282  -1.7672  -1.6565
    -1.5828  -1.5718  -1.5278  -1.5027  -1.4865  -1.4456  -1.4330  -1.3920
    -1.3746  -1.3084  -1.1505  -1.1255  -1.1109  -0.9683  -0.9611  -0.9323
    -0.8581  -0.8164  -0.7945  -0.7366  -0.7069  -0.6664  -0.5897  -0.5464
    -0.4922  -0.4261  -0.3261  -0.3186  -0.3025  -0.2825  -0.2663  -0.2584
    -0.2252  -0.1880  -0.1150  -0.0685  -0.0597  -0.0537  -0.0026   0.0772
     0.1281   0.2425   0.3887   0.3932   0.4601   0.4610   0.6606   0.6694
     0.7462   0.7816   0.8161   0.8432   0.9370   0.9550   0.9926   1.0753
     1.1390   1.1686   1.1895   1.1942   1.2474   1.4592   2.0564   2.0643
     2.1271   2.1272   3.9675   4.2006   4.2409   4.2540   4.2723   4.2989
     4.3125   4.3266   4.3936   4.4187

     the Fermi energy is     3.7637 ev

!    total energy              =   -2976.46402514 Ry
     estimated scf accuracy    <       0.00000002 Ry
     smearing contrib. (-TS)   =      -0.01955542 Ry
     internal energy E=F+TS    =   -2976.44446972 Ry

     The total energy is F=E-TS. E is the sum of the following terms:
     one-electron contribution =  -23037.19042744 Ry
     hartree contribution      =   11616.30526285 Ry
     xc contribution           =    -495.72067560 Ry
     ewald contribution        =    8940.15854509 Ry
     electric field correction =       0.00282537 Ry

     convergence has been achieved in  72 iterations

     Forces acting on atoms (cartesian axes, Ry/au):

     atom    1 type  1   force =     0.00016237   -0.00023076    0.09416074
     atom    2 type  1   force =    -0.00010588    0.00018435   -0.17536716
     atom    3 type  2   force =     0.00005414   -0.00049394   -0.02103652
     atom    4 type  2   force =    -0.00002449   -0.00093849    0.05425550
     atom    5 type  2   force =    -0.00488975   -0.00216019    0.00106911
     atom    6 type  2   force =     0.00671260   -0.00138520    0.00108477
     atom    7 type  1   force =     0.00006141    0.00331025    0.00865935
     atom    8 type  1   force =    -0.00010023    0.00119839    0.00271722
     atom    9 type  2   force =    -0.00021992   -0.00030587   -0.00058877
     atom   10 type  2   force =    -0.00112076    0.00429163   -0.01024658
     atom   11 type  2   force =    -0.00008165   -0.00055188   -0.00010506
     atom   12 type  2   force =     0.00062384   -0.00031577   -0.00026665
     atom   13 type  1   force =    -0.00143060    0.00020264   -0.00058387
     atom   14 type  1   force =     0.00070669    0.00018505   -0.00047364
     atom   15 type  2   force =     0.00013154   -0.00000919    0.00004802
     atom   16 type  2   force =    -0.00009345   -0.00069275   -0.00029517
     atom   17 type  2   force =    -0.00043290    0.00068549    0.00007422
     atom   18 type  2   force =    -0.00075743    0.00030633   -0.00021803
     atom   19 type  1   force =     0.00040982   -0.00093435    0.00057730
     atom   20 type  1   force =    -0.00068902   -0.00006612    0.00050992
     atom   21 type  2   force =     0.00003758   -0.00001133    0.10321005
     atom   22 type  2   force =    -0.00011650    0.00003078    0.00045831
     atom   23 type  2   force =    -0.07199547   -0.00019870   -0.02725745
     atom   24 type  2   force =     0.07187262    0.00025755   -0.02732714
     atom   25 type  1   force =     0.00007569   -0.00017068    0.09389106
     atom   26 type  1   force =    -0.00011836   -0.00136756   -0.17550756
     atom   27 type  2   force =     0.00011059   -0.00005373   -0.01984714
     atom   28 type  2   force =     0.00006426   -0.00105141    0.04980541
     atom   29 type  2   force =    -0.00747189    0.00209450    0.00339342
     atom   30 type  2   force =     0.00907553    0.00223630    0.00331153
     atom   31 type  1   force =     0.00019716    0.00151376    0.00005623
     atom   32 type  1   force =    -0.00008776   -0.00226552    0.00302846
     atom   33 type  2   force =    -0.00017686   -0.00030775   -0.00002295
     atom   34 type  2   force =    -0.00117120   -0.00218557   -0.00964101
     atom   35 type  2   force =     0.00063659    0.00005751   -0.00022187
     atom   36 type  2   force =     0.00037688    0.00011778   -0.00034939
     atom   37 type  1   force =    -0.00096183    0.00024524    0.00034269
     atom   38 type  1   force =     0.00096375   -0.00025386    0.00018209
     atom   39 type  2   force =    -0.00017028   -0.00052578    0.00010315
     atom   40 type  2   force =    -0.00019903   -0.00019364   -0.00016278
     atom   41 type  2   force =     0.00024754   -0.00031437   -0.00010103
     atom   42 type  2   force =    -0.00065787    0.00005980   -0.00010811
     atom   43 type  1   force =     0.00022382    0.00092456    0.00044447
     atom   44 type  1   force =    -0.00038866    0.00085497    0.00004739
     atom   45 type  2   force =     0.00002467    0.00003358    0.10302689
     atom   46 type  2   force =    -0.07194860   -0.00008008   -0.02721151
     atom   47 type  2   force =     0.07183673    0.00035195   -0.02729339
     atom   48 type  3   force =     0.00018907   -0.00096685   -0.00059817
     atom   49 type  3   force =    -0.00034880   -0.00015126   -0.00045064
     atom   50 type  4   force =     0.00600336   -0.00144190    0.00467125
     atom   51 type  5   force =    -0.00039474   -0.00040312    0.00119181
     atom   52 type  5   force =    -0.00578704    0.00130398   -0.00464642
     atom   53 type  5   force =    -0.00054915    0.00067724   -0.00080137
     atom   54 type  5   force =     0.00065522   -0.00024571    0.00002753
     atom   55 type  5   force =     0.00048752   -0.00057648    0.00004667
     atom   56 type  5   force =     0.00063235   -0.00003672   -0.00003599
     atom   57 type  2   force =     0.00071821   -0.00117786    0.00014018
     atom   58 type  5   force =    -0.00080144    0.00094076    0.00023061

     Total force =     0.362155     Total SCF correction =     0.000371
  @ DRIVER MODE: Message from server: STATUS
  @ DRIVER MODE: Message from server: GETFORCE
  @ DRIVER MODE: Returning v,forces,stress,ensemble

     Writing output data file ./calc.save/
  @ DRIVER MODE: Message from server: EXIT
  @ DRIVE MODE: Exiting

     General routines

     Parallel routines

   This run was terminated on:  23:17:54  23Sep2021

   JOB DONE.