     Program PWSCF v.6.7GPU starts on  2Aug2021 at 22:41:10

     R & G space division:  proc/nbgrp/npool/nimage =      16
     Reading input from /storage/home/hcoda1/3/ntian30/research/carbon/02Aug_vib_paired/ads_slab/CH3NH3_a/out_0033/pw.inp
Warning: card &CELL ignored
Warning: card   CELL_DYNAMICS='IPI', ignored
Warning: card / ignored

     Current dimensions of program PWSCF are:
     Max number of different atomic species (ntypx) = 10
     Max number of k-points (npk) =  40000
     Max angular momentum in pseudopotentials (lmaxx) =  3
     Presently no symmetry can be used with electric field

     Message from routine cell_base_init:
     DEPRECATED: use true lattice parameter, not A to a.u. conversion factor

     IMPORTANT: XC functional enforced from input :
     Exchange-correlation= BEEF-VDW
                           (   1   4  43  14   2   0   0)
     Any further DFT definition will be discarded
     Please, verify this is what you really want

  @ DRIVER MODE: Connecting to
 qe_1139763_2482539.sched-torque.pace.gatech.edu9f03agzx_scratch
  using UNIX socket
  @ DRIVER MODE: Message from server: STATUS
  @ DRIVER MODE: Message from server: INIT
  @ DRIVER MODE: Receiving replica           0          -1
  @ DRIVER MODE: Receiving encoded integer          25
  @ DRIVER MODE:  SCF:  T  FORCE:  T  STRESS:  F  VC:  F  ENSEMBLE:  F
  @ DRIVER MODE:  SCF:  T  FORCE:  T  STRESS:  F  VC:  F  ENSEMBLE:  F

     Using Slab Decomposition

     bravais-lattice index     =            0
     lattice parameter (alat)  =       1.8897  a.u.
     unit-cell volume          =    6658.9804 (a.u.)^3
     number of atoms/cell      =           55
     number of atomic types    =            5
     number of electrons       =       393.00
     number of Kohn-Sham states=          206
     kinetic-energy cutoff     =      29.3995  Ry
     charge density cutoff     =     293.9946  Ry
     scf convergence threshold =      7.3E-08
     mixing beta               =       0.0500
     number of iterations used =            8  plain     mixing
     Exchange-correlation= BEEF-VDW
                           (   1   4  43  14   2   0   0)

     celldm(1)=   1.889726  celldm(2)=   0.000000  celldm(3)=   0.000000
     celldm(4)=   0.000000  celldm(5)=   0.000000  celldm(6)=   0.000000

     crystal axes: (cart. coord. in units of alat)
               a(1) = (   6.579727   0.000000   0.000000 )
               a(2) = (  -0.000775   5.961596   0.000000 )
               a(3) = (   0.000000   0.000000  25.155947 )

     reciprocal axes: (cart. coord. in units 2 pi/alat)
               b(1) = (  0.151982  0.000020  0.000000 )
               b(2) = (  0.000000  0.167740  0.000000 )
               b(3) = (  0.000000  0.000000  0.039752 )

     PseudoPot. # 1 for Ti read from file:
     /storage/coda1/p-amedford6/0/shared/rich_project_chbe-medford/medford-share/data/pseudos_module/espresso/nninc/pbe/van/Ti.UPF
     MD5 check sum: 8e4df49b7f0d34bbd5052bf3f5ea0213
     Pseudo is Ultrasoft, Zval = 12.0
     Generated by new atomic code, or converted to UPF format
     Using radial grid of  851 points,  6 beta functions with:
                l(1) =   0
                l(2) =   0
                l(3) =   1
                l(4) =   1
                l(5) =   2
                l(6) =   2
     Q(r) pseudized with  8 coefficients,  rinner =    1.000   1.000   1.000
                                                       1.000   1.000

     PseudoPot. # 2 for O  read from file:
     /storage/coda1/p-amedford6/0/shared/rich_project_chbe-medford/medford-share/data/pseudos_module/espresso/nninc/pbe/van/O.UPF
     MD5 check sum: 78c19812648e8988a0fe644b0f25305e
     Pseudo is Ultrasoft, Zval =  6.0
     Generated by new atomic code, or converted to UPF format
     Using radial grid of  737 points,  4 beta functions with:
                l(1) =   0
                l(2) =   0
                l(3) =   1
                l(4) =   1
     Q(r) pseudized with  8 coefficients,  rinner =    0.800   0.800   0.800

     PseudoPot. # 3 for C  read from file:
     /storage/coda1/p-amedford6/0/shared/rich_project_chbe-medford/medford-share/data/pseudos_module/espresso/nninc/pbe/van/C.UPF
     MD5 check sum: 1a69bf6b8db32088f5b2163dbdb77a27
     Pseudo is Ultrasoft, Zval =  4.0
     Generated by new atomic code, or converted to UPF format
     Using radial grid of  721 points,  4 beta functions with:
                l(1) =   0
                l(2) =   0
                l(3) =   1
                l(4) =   1
     Q(r) pseudized with  8 coefficients,  rinner =    0.800   0.800   0.800

     PseudoPot. # 4 for H  read from file:
     /storage/coda1/p-amedford6/0/shared/rich_project_chbe-medford/medford-share/data/pseudos_module/espresso/nninc/pbe/van/H.UPF
     MD5 check sum: b5ee9d7bfd3a09ee7748110bda690ff7
     Pseudo is Ultrasoft, Zval =  1.0
     Generated by new atomic code, or converted to UPF format
     Using radial grid of  615 points,  1 beta functions with:
                l(1) =   0
     Q(r) pseudized with  8 coefficients,  rinner =    0.800

     PseudoPot. # 5 for N  read from file:
     /storage/coda1/p-amedford6/0/shared/rich_project_chbe-medford/medford-share/data/pseudos_module/espresso/nninc/pbe/van/N.UPF
     MD5 check sum: 90d10febe142ad51ac9d5be1deb811c4
     Pseudo is Ultrasoft, Zval =  5.0
     Generated by new atomic code, or converted to UPF format
     Using radial grid of  729 points,  4 beta functions with:
                l(1) =   0
                l(2) =   0
                l(3) =   1
                l(4) =   1
     Q(r) pseudized with  8 coefficients,  rinner =    0.800   0.800   0.800

     atomic species   valence    mass     pseudopotential
        Ti1           12.00    47.86700     Ti( 1.00)
        O1             6.00    15.99900     O ( 1.00)
        C1             4.00    12.01100     C ( 1.00)
        H1             1.00     1.00800     H ( 1.00)
        N1             5.00    14.00700     N ( 1.00)

     No symmetry found

   Cartesian axes

     site n.     atom                  positions (alat units)
         1           Ti1 tau(   1) = (   0.0004258   2.9801865   6.0000000  )
         2           Ti1 tau(   2) = (   3.2906075   1.4906267   6.0002472  )
         3           O1  tau(   3) = (   0.0006271   0.0005054   7.9858123  )
         4           O1  tau(   4) = (   3.2906025   0.0005020   7.3038282  )
         5           O1  tau(   5) = (   4.5942328   1.4918067   9.2879030  )
         6           O1  tau(   6) = (   1.9868534   1.4903216   9.2879459  )
         7           Ti1 tau(   7) = (   3.2907910   2.8959150   9.1758416  )
         8           Ti1 tau(   8) = (   0.0015273   1.4827037   9.2680791  )
         9           O1  tau(   9) = (   3.2981156   0.0012339  11.3300471  )
        10           O1  tau(  10) = (   0.0116148   5.9584955  10.6183126  )
        11           O1  tau(  11) = (   1.3033605   1.5036236  12.6199488  )
        12           O1  tau(  12) = (   5.2811161   1.5074500  12.6162500  )
        13           Ti1 tau(  13) = (   0.0407500   2.9455431  12.6352795  )
        14           Ti1 tau(  14) = (   3.3444429   1.4910927  12.4779025  )
        15           O1  tau(  15) = (   0.0052662   0.0451097  14.6026341  )
        16           O1  tau(  16) = (   3.2946143   0.0124870  13.9210852  )
        17           O1  tau(  17) = (   4.5465206   1.5046604  16.0624161  )
        18           O1  tau(  18) = (   2.0546879   1.5048301  16.0609706  )
        19           Ti1 tau(  19) = (   3.2991624   2.9918142  15.6995589  )
        20           Ti1 tau(  20) = (   6.5707204   1.4025535  15.8059435  )
        21           O1  tau(  21) = (   3.2904802   0.0005063   4.7018136  )
        22           O1  tau(  22) = (   0.0164654   0.0145536  17.1360041  )
        23           O1  tau(  23) = (   1.3043587   1.4918075   6.0039043  )
        24           O1  tau(  24) = (   5.2767064   1.4903225   6.0039473  )
        25           Ti1 tau(  25) = (   0.0000382   5.9609847   6.0000000  )
        26           Ti1 tau(  26) = (   3.2902200   4.4714249   6.0002472  )
        27           O1  tau(  27) = (   0.0002396   2.9813036   7.9858123  )
        28           O1  tau(  28) = (   3.2902150   2.9813002   7.3038282  )
        29           O1  tau(  29) = (   4.5938453   4.4726049   9.2879030  )
        30           O1  tau(  30) = (   1.9864658   4.4711199   9.2879459  )
        31           Ti1 tau(  31) = (   3.2891106   5.8743827   9.1763621  )
        32           Ti1 tau(  32) = (   0.0006254   4.4649316   9.2693709  )
        33           O1  tau(  33) = (   3.2977166   2.9913250  11.3287690  )
        34           O1  tau(  34) = (   0.0092240   2.9805883  10.6323155  )
        35           O1  tau(  35) = (   1.3008534   4.4801743  12.6308489  )
        36           O1  tau(  36) = (   5.2850400   4.4860598  12.6280017  )
        37           Ti1 tau(  37) = (   0.0409916   5.9178611  12.5441859  )
        38           Ti1 tau(  38) = (   3.3442415   4.4710906  12.4862270  )
        39           O1  tau(  39) = (   0.0109228   2.9791018  14.7123696  )
        40           O1  tau(  40) = (   3.2998940   2.9912248  13.9043662  )
        41           O1  tau(  41) = (   4.5474046   4.4713503  16.0779382  )
        42           O1  tau(  42) = (   2.0618872   4.4767818  16.0643778  )
        43           Ti1 tau(  43) = (   3.2722838   0.0128901  15.7174356  )
        44           Ti1 tau(  44) = (   6.5592075   4.4947239  16.1563676  )
        45           O1  tau(  45) = (   3.2900926   2.9813045   4.7018136  )
        46           O1  tau(  46) = (   1.3039711   4.4726057   6.0039043  )
        47           O1  tau(  47) = (   5.2763189   4.4711207   6.0039473  )
        48           C1  tau(  48) = (   0.0359503   3.0870652  17.8341721  )
        49           H1  tau(  49) = (   5.8142062   3.6010452  18.3763092  )
        50           H1  tau(  50) = (   6.4784518   2.0305676  18.0614951  )
        51           H1  tau(  51) = (   0.9863100   3.3782628  18.2908018  )
        52           N1  tau(  52) = (   4.7642638   1.7931862  21.6370373  )
        53           H1  tau(  53) = (   4.5527921   2.7708570  21.5386679  )
        54           H1  tau(  54) = (   4.1042548   1.2952780  21.0483319  )
        55           H1  tau(  55) = (   4.5435699   1.5432347  22.5953497  )

     number of k points=    10  Fermi-Dirac smearing, width (Ry)=  0.0073
                       cart. coord. in units 2pi/alat
        k(    1) = (   0.0000000   0.0000000   0.0000000), wk =   0.1250000
        k(    2) = (   0.0000000   0.0419351   0.0000000), wk =   0.2500000
        k(    3) = (   0.0000000  -0.0838702   0.0000000), wk =   0.1250000
        k(    4) = (   0.0379955   0.0000049   0.0000000), wk =   0.2500000
        k(    5) = (   0.0379955   0.0419400   0.0000000), wk =   0.2500000
        k(    6) = (   0.0379955  -0.0838652   0.0000000), wk =   0.2500000
        k(    7) = (   0.0379955  -0.0419301   0.0000000), wk =   0.2500000
        k(    8) = (  -0.0759910  -0.0000099   0.0000000), wk =   0.1250000
        k(    9) = (  -0.0759910   0.0419252   0.0000000), wk =   0.2500000
        k(   10) = (  -0.0759910  -0.0838800   0.0000000), wk =   0.1250000

     Initial potential from superposition of free atoms

     starting charge  376.99914, renormalised to  393.00000

     negative rho (up, down):  1.001E-02 0.000E+00

     %%%%%%%%%%%%%%%%%%%%%%%%%%%%%%%%%%%%%%%%%%%%%%%%%%%%%%%%%%%%%%%%%%%%%%%%
     %                                                                      %
     % You are using vdW-DF, which was implemented by the Thonhauser group. %
     % Please cite the following two papers that made this development      %
     % possible and the two reviews that describe the various versions:     %
     %                                                                      %
     %   T. Thonhauser et al., PRL 115, 136402 (2015).                      %
     %   T. Thonhauser et al., PRB 76, 125112 (2007).                       %
     %   K. Berland et al., Rep. Prog. Phys. 78, 066501 (2015).             %
     %   D.C. Langreth et al., J. Phys.: Condens. Matter 21, 084203 (2009). %
     %                                                                      %
     %                                                                      %
     % If you are calculating the stress with vdW-DF, please also cite:     %
     %                                                                      %
     %   R. Sabatini et al., J. Phys.: Condens. Matter 24, 424209 (2012).   %
     %                                                                      %
     %%%%%%%%%%%%%%%%%%%%%%%%%%%%%%%%%%%%%%%%%%%%%%%%%%%%%%%%%%%%%%%%%%%%%%%%

     Adding external electric field

     Computed dipole along edir(3) :
        Dipole               -9.0616 Ry au,        -23.0322 Debye
        Dipole field         -0.0171 Ry au,

        Potential amp.        1.5852 Ry
        Total length         46.3494 bohr

     Starting wfcs are  298 atomic wfcs
  @ DRIVER MODE: Message from server: STATUS
  @ DRIVER MODE: Message from server: POSDATA
  @ DRIVER MODE: Reading and sharing cell
  @ DRIVER MODE: Reading and sharing positions
  @ DRIVER MODE: Received positions

     Self-consistent Calculation

     iteration #  1     ecut=    29.40 Ry     beta= 0.05
     Davidson diagonalization with overlap
     c_bands:  1 eigenvalues not converged
     c_bands:  1 eigenvalues not converged
     c_bands:  1 eigenvalues not converged
     ethr =  1.00E-05,  avg # of iterations = 17.8

[...]

     total energy              =   -2692.41109543 Ry
     estimated scf accuracy    <    2566.23090302 Ry

[...]

     iteration #  3     ecut=    29.40 Ry     beta= 0.05
     Davidson diagonalization with overlap
     ethr =  1.00E-02,  avg # of iterations = 16.4

[...]

     iteration # 65     ecut=    29.40 Ry     beta= 0.05
     Davidson diagonalization with overlap
     c_bands:  1 eigenvalues not converged
     ethr =  6.83E-09,  avg # of iterations = 10.8

[...]

     total energy              =   -2922.78942349 Ry
     estimated scf accuracy    <       0.00000014 Ry

     iteration # 75     ecut=    29.40 Ry     beta= 0.05
     Davidson diagonalization with overlap
     ethr =  3.59E-11,  avg # of iterations =  5.1

     negative rho (up, down):  1.133E-02 0.000E+00

     Adding external electric field

     Computed dipole along edir(3) :
        Dipole                0.5500 Ry au,          1.3980 Debye
        Dipole field          0.0010 Ry au,

        Potential amp.       -0.0962 Ry
        Total length         46.3494 bohr

     End of self-consistent calculation

          k = 0.0000 0.0000 0.0000 ( 18029 PWs)   bands (ev):

   -56.0341 -56.0305 -56.0001 -55.9941 -55.9017 -55.8669 -55.8665 -55.8422
   -55.8234 -55.8083 -55.8032 -55.7695 -55.5689 -55.4019 -55.0096 -54.9756
   -32.5889 -32.5161 -32.3612 -32.3553 -32.3414 -32.3404 -32.3270 -32.2939
   -32.2766 -32.2398 -32.2339 -32.2330 -32.2101 -32.1863 -32.1738 -32.1675
   -32.1380 -32.1354 -32.1215 -32.0913 -32.0813 -32.0703 -32.0388 -32.0340
   -32.0297 -32.0278 -32.0135 -32.0121 -32.0055 -31.9802 -31.9798 -31.9773
   -31.9722 -31.9715 -31.9563 -31.9471 -31.9155 -31.8477 -31.7831 -31.6895
   -31.6303 -31.5194 -31.4167 -31.3285 -31.3060 -31.2334 -31.1469 -31.0359
   -16.7687 -16.5054 -16.2732 -16.1827 -16.1329 -16.0465 -15.8690 -15.7525
   -15.7040 -15.6031 -15.5705 -15.5507 -15.5342 -15.5037 -15.4953 -15.4704
   -15.4591 -15.4527 -15.4182 -15.3904 -15.3651 -15.3505 -15.2305 -15.1783
   -15.1621 -15.1310 -15.0830 -15.0668 -14.6122 -13.6922 -13.5122 -13.3959
    -9.0482  -4.1434  -3.9632  -3.9378  -3.8896  -3.8477  -3.7453  -3.7091
    -3.6452  -3.5848  -3.2672  -3.2100  -3.2018  -3.1610  -3.1464  -2.9889
    -2.9244  -2.8507  -2.8343  -2.8286  -2.8033  -2.7980  -2.7932  -2.7506
    -2.7081  -2.6527  -2.6290  -2.5593  -2.5173  -2.4442  -2.3713  -2.3438
    -2.3015  -2.2986  -2.2624  -2.2503  -2.2421  -2.2321  -2.1964  -2.1810
    -2.0017  -1.9509  -1.8825  -1.8169  -1.8024  -1.6386  -1.5318  -1.4839
    -1.4653  -1.4583  -1.4400  -1.4232  -1.3275  -1.2094  -1.1765  -1.1268
    -1.0792  -1.0307  -1.0007  -0.9003  -0.8838  -0.7927  -0.7794  -0.7609
    -0.6496  -0.6255  -0.4916  -0.4699  -0.4642  -0.4040  -0.3884  -0.3155
    -0.2914  -0.2348  -0.1698  -0.1576  -0.0895  -0.0633  -0.0601  -0.0034
     0.0011   0.0464   0.0611   0.1706   0.2264   0.2758   0.3298   0.4363
     0.5161   0.6306   0.6773   0.7366   0.9384   1.0120   1.1214   1.1823
     1.2051   1.4627   1.5833   1.6288   3.1044   3.1894   3.2112   3.2369
     3.3444   3.3696   3.5550   3.5717   3.6061   3.6260

[...]

          k = 0.0380-0.0419 0.0000 ( 17876 PWs)   bands (ev):

[...]

          k =-0.0760-0.0000 0.0000 ( 17886 PWs)   bands (ev):

[...]

          k =-0.0760-0.0839 0.0000 ( 17948 PWs)   bands (ev):

   -56.0176 -56.0164 -56.0151 -56.0093 -55.8867 -55.8817 -55.8582 -55.8320
   -55.8259 -55.8240 -55.7876 -55.7852 -55.5674 -55.4032 -54.9926 -54.9925
   -32.3948 -32.3884 -32.3318 -32.3310 -32.3129 -32.3119 -32.2935 -32.2888
   -32.2225 -32.2216 -32.2185 -32.2078 -32.1673 -32.1663 -32.1472 -32.1428
   -32.1386 -32.1372 -32.1359 -32.1279 -32.1268 -32.1240 -32.0881 -32.0777
   -32.0731 -32.0508 -32.0466 -32.0329 -32.0241 -32.0232 -32.0193 -32.0174
   -32.0021 -32.0008 -31.9967 -31.9905 -31.9256 -31.8306 -31.7853 -31.6922
   -31.6746 -31.5636 -31.3188 -31.3187 -31.2296 -31.2294 -31.1902 -31.1901
   -16.2107 -16.1876 -15.9813 -15.9470 -15.9436 -15.9365 -15.8056 -15.7254
   -15.7248 -15.6990 -15.6379 -15.6265 -15.6047 -15.5661 -15.5418 -15.5394
   -15.5206 -15.5157 -15.4895 -15.4794 -15.4666 -15.4593 -15.3667 -15.3472
   -15.3433 -15.2935 -15.1484 -15.0019 -14.8930 -13.6914 -13.4978 -13.4976
    -9.0626  -3.7566  -3.7105  -3.5069  -3.4755  -3.2331  -3.1949  -3.1817
    -3.1127  -2.9562  -2.9166  -2.8986  -2.8910  -2.8466  -2.8390  -2.8338
    -2.8221  -2.7939  -2.7767  -2.7396  -2.7334  -2.7181  -2.7110  -2.6997
    -2.6826  -2.6526  -2.6440  -2.6131  -2.6085  -2.5879  -2.5717  -2.5438
    -2.5389  -2.4112  -2.2523  -2.2286  -2.1678  -2.1604  -2.1137  -2.1010
    -2.0945  -2.0671  -2.0379  -2.0109  -1.8516  -1.7407  -1.7262  -1.7094
    -1.6406  -1.6129  -1.5277  -1.4376  -1.3966  -1.3784  -1.3103  -1.3066
    -1.2566  -1.2320  -1.2111  -1.1437  -1.0872  -1.0501  -0.9930  -0.9869
    -0.9788  -0.9086  -0.8663  -0.7914  -0.7827  -0.7457  -0.7107  -0.6554
    -0.6211  -0.6099  -0.5198  -0.4874  -0.3751  -0.3263  -0.0679  -0.0197
     0.0334   0.0615   0.1268   0.1847   0.1889   0.2861   0.2898   0.3265
     0.4057   0.4271   0.4979   0.5172   0.5672   0.7290   1.2778   1.3761
     1.3769   1.4484   1.4487   1.4536   3.4024   3.4141   3.4212   3.4658
     3.6110   3.6156   3.6344   3.6360   3.7746   3.7967

     the Fermi energy is     3.1010 ev

!    total energy              =   -2922.78943560 Ry
     estimated scf accuracy    <       0.00000006 Ry
     smearing contrib. (-TS)   =      -0.02169191 Ry
     internal energy E=F+TS    =   -2922.76774369 Ry

     The total energy is F=E-TS. E is the sum of the following terms:
     one-electron contribution =  -23651.43563628 Ry
     hartree contribution      =   11909.92689456 Ry
     xc contribution           =    -482.27180593 Ry
     ewald contribution        =    9301.01223311 Ry
     electric field correction =       0.00057086 Ry

     convergence has been achieved in  75 iterations

     Forces acting on atoms (cartesian axes, Ry/au):

     atom    1 type  1   force =     0.00004778   -0.00022047    0.09684241
     atom    2 type  1   force =    -0.00017262   -0.00055696   -0.17515911
     atom    3 type  2   force =     0.00002248   -0.00004625   -0.02502494
     atom    4 type  2   force =     0.00002802   -0.00139405    0.05264032
     atom    5 type  2   force =    -0.01206075   -0.00051146    0.00330509
     atom    6 type  2   force =     0.01378740    0.00008572    0.00270305
     atom    7 type  1   force =    -0.00058073    0.00056430   -0.01156726
     atom    8 type  1   force =     0.00020779    0.01201469    0.02901020
     atom    9 type  2   force =    -0.00029812    0.00057529    0.00057421
     atom   10 type  2   force =    -0.00153528    0.00252683   -0.01947428
     atom   11 type  2   force =    -0.00018760   -0.00037933   -0.00014930
     atom   12 type  2   force =    -0.00089641    0.00002934   -0.00030447
     atom   13 type  1   force =     0.00055667   -0.00096945    0.00108976
     atom   14 type  1   force =     0.00145558    0.00057709   -0.00068454
     atom   15 type  2   force =    -0.00013797   -0.00106591    0.00036549
     atom   16 type  2   force =    -0.00021061   -0.00020294   -0.00149729
     atom   17 type  2   force =    -0.00066815    0.00075264    0.00000509
     atom   18 type  2   force =     0.00049779    0.00093126    0.00003716
     atom   19 type  1   force =    -0.00018922   -0.00112275    0.00062634
     atom   20 type  1   force =    -0.00011264    0.00047675   -0.00006109
     atom   21 type  2   force =     0.00004659   -0.00003649    0.10324536
     atom   22 type  2   force =     0.00027458   -0.00029223    0.00098549
     atom   23 type  2   force =    -0.07155422   -0.00014642   -0.02770519
     atom   24 type  2   force =     0.07144706    0.00026803   -0.02773642
     atom   25 type  1   force =     0.00005426   -0.00028641    0.09642119
     atom   26 type  1   force =    -0.00019274   -0.00028953   -0.17539301
     atom   27 type  2   force =     0.00008428   -0.00017159   -0.02380861
     atom   28 type  2   force =     0.00004416   -0.00114524    0.05272162
     atom   29 type  2   force =    -0.01210392    0.00085305    0.00277225
     atom   30 type  2   force =     0.01374667    0.00124018    0.00218929
     atom   31 type  1   force =    -0.00047012    0.00303116   -0.01241797
     atom   32 type  1   force =     0.00018953   -0.01423128    0.02942012
     atom   33 type  2   force =    -0.00023157   -0.00062693    0.00042857
     atom   34 type  2   force =    -0.00098413    0.00176187   -0.02268105
     atom   35 type  2   force =    -0.00067981   -0.00060350   -0.00012833
     atom   36 type  2   force =     0.00003582   -0.00014939   -0.00034310
     atom   37 type  1   force =     0.00065565    0.00027155    0.00056694
     atom   38 type  1   force =     0.00150903    0.00018978   -0.00068182
     atom   39 type  2   force =     0.00006442    0.00014066   -0.00127411
     atom   40 type  2   force =    -0.00034819   -0.00010022    0.00173514
     atom   41 type  2   force =    -0.00078678   -0.00106598   -0.00010502
     atom   42 type  2   force =     0.00029258   -0.00146816    0.00028273
     atom   43 type  1   force =     0.00021680    0.00066623    0.00109416
     atom   44 type  1   force =     0.00044927   -0.00026335    0.00071436
     atom   45 type  2   force =     0.00005671   -0.00009586    0.10320468
     atom   46 type  2   force =    -0.07154479   -0.00011426   -0.02770655
     atom   47 type  2   force =     0.07145094    0.00031698   -0.02774093
     atom   48 type  3   force =     0.00029714    0.00086359   -0.00067092
     atom   49 type  4   force =    -0.00079356    0.00000313   -0.00049499
     atom   50 type  4   force =    -0.00031692   -0.00054829    0.00099001
     atom   51 type  4   force =    -0.00080779   -0.00014078   -0.00023517
     atom   52 type  5   force =     0.00207666   -0.01554562    0.00115068
     atom   53 type  4   force =    -0.00209786    0.01644283   -0.00189740
     atom   54 type  4   force =     0.00043776   -0.00054293    0.00004600
     atom   55 type  4   force =    -0.00007089   -0.00024894   -0.00022483

     Total force =     0.369088     Total SCF correction =     0.000616
  @ DRIVER MODE: Message from server: STATUS
  @ DRIVER MODE: Message from server: GETFORCE
  @ DRIVER MODE: Returning v,forces,stress,ensemble

     Writing output data file ./calc.save/
  @ DRIVER MODE: Message from server: EXIT
  @ DRIVE MODE: Exiting

     General routines

     Parallel routines

   This run was terminated on:  22:57:29   2Aug2021

   JOB DONE.