     Program PWSCF v.6.7GPU starts on 24Sep2021 at  1:35:57

     R & G space division:  proc/nbgrp/npool/nimage =       8
     Reading input from /storage/home/hcoda1/3/ntian30/research/carbon/CxH_vib/H2O_calc/ads_slab/CH3NHNH2HO_a/out_0031/pw.inp
Warning: card &CELL ignored
Warning: card   CELL_DYNAMICS='IPI', ignored
Warning: card / ignored

     Current dimensions of program PWSCF are:
     Max number of different atomic species (ntypx) = 10
     Max number of k-points (npk) =  40000
     Max angular momentum in pseudopotentials (lmaxx) =  3
     Presently no symmetry can be used with electric field

     Message from routine cell_base_init:
     DEPRECATED: use true lattice parameter, not A to a.u. conversion factor

     IMPORTANT: XC functional enforced from input :
     Exchange-correlation= BEEF-VDW
                           (   1   4  43  14   2   0   0)
     Any further DFT definition will be discarded
     Please, verify this is what you really want

  @ DRIVER MODE: Connecting to
 qe_1139763_2947307.sched-torque.pace.gatech.edu49rmz919_scratch
  using UNIX socket
  @ DRIVER MODE: Message from server: STATUS
  @ DRIVER MODE: Message from server: INIT
  @ DRIVER MODE: Receiving replica           0          -1
  @ DRIVER MODE: Receiving encoded integer          25
  @ DRIVER MODE:  SCF:  T  FORCE:  T  STRESS:  F  VC:  F  ENSEMBLE:  F
  @ DRIVER MODE:  SCF:  T  FORCE:  T  STRESS:  F  VC:  F  ENSEMBLE:  F

     Using Slab Decomposition

     bravais-lattice index     =            0
     lattice parameter (alat)  =       1.8897  a.u.
     unit-cell volume          =    6658.9804 (a.u.)^3
     number of atoms/cell      =           58
     number of atomic types    =            5
     number of electrons       =       405.00
     number of Kohn-Sham states=          212
     kinetic-energy cutoff     =      29.3995  Ry
     charge density cutoff     =     293.9946  Ry
     scf convergence threshold =      7.3E-08
     mixing beta               =       0.0500
     number of iterations used =            8  plain     mixing
     Exchange-correlation= BEEF-VDW
                           (   1   4  43  14   2   0   0)

     celldm(1)=   1.889726  celldm(2)=   0.000000  celldm(3)=   0.000000
     celldm(4)=   0.000000  celldm(5)=   0.000000  celldm(6)=   0.000000

     crystal axes: (cart. coord. in units of alat)
               a(1) = (   6.579727   0.000000   0.000000 )
               a(2) = (  -0.000775   5.961596   0.000000 )
               a(3) = (   0.000000   0.000000  25.155947 )

     reciprocal axes: (cart. coord. in units 2 pi/alat)
               b(1) = (  0.151982  0.000020  0.000000 )
               b(2) = (  0.000000  0.167740  0.000000 )
               b(3) = (  0.000000  0.000000  0.039752 )

     PseudoPot. # 1 for Ti read from file:
     /storage/coda1/p-amedford6/0/shared/rich_project_chbe-medford/medford-share/data/pseudos_module/espresso/nninc/pbe/van/Ti.UPF
     MD5 check sum: 8e4df49b7f0d34bbd5052bf3f5ea0213
     Pseudo is Ultrasoft, Zval = 12.0
     Generated by new atomic code, or converted to UPF format
     Using radial grid of  851 points,  6 beta functions with:
                l(1) =   0
                l(2) =   0
                l(3) =   1
                l(4) =   1
                l(5) =   2
                l(6) =   2
     Q(r) pseudized with  8 coefficients,  rinner =    1.000   1.000   1.000
                                                       1.000   1.000

     PseudoPot. # 2 for O  read from file:
     /storage/coda1/p-amedford6/0/shared/rich_project_chbe-medford/medford-share/data/pseudos_module/espresso/nninc/pbe/van/O.UPF
     MD5 check sum: 78c19812648e8988a0fe644b0f25305e
     Pseudo is Ultrasoft, Zval =  6.0
     Generated by new atomic code, or converted to UPF format
     Using radial grid of  737 points,  4 beta functions with:
                l(1) =   0
                l(2) =   0
                l(3) =   1
                l(4) =   1
     Q(r) pseudized with  8 coefficients,  rinner =    0.800   0.800   0.800

     PseudoPot. # 3 for N  read from file:
     /storage/coda1/p-amedford6/0/shared/rich_project_chbe-medford/medford-share/data/pseudos_module/espresso/nninc/pbe/van/N.UPF
     MD5 check sum: 90d10febe142ad51ac9d5be1deb811c4
     Pseudo is Ultrasoft, Zval =  5.0
     Generated by new atomic code, or converted to UPF format
     Using radial grid of  729 points,  4 beta functions with:
                l(1) =   0
                l(2) =   0
                l(3) =   1
                l(4) =   1
     Q(r) pseudized with  8 coefficients,  rinner =    0.800   0.800   0.800

     PseudoPot. # 4 for C  read from file:
     /storage/coda1/p-amedford6/0/shared/rich_project_chbe-medford/medford-share/data/pseudos_module/espresso/nninc/pbe/van/C.UPF
     MD5 check sum: 1a69bf6b8db32088f5b2163dbdb77a27
     Pseudo is Ultrasoft, Zval =  4.0
     Generated by new atomic code, or converted to UPF format
     Using radial grid of  721 points,  4 beta functions with:
                l(1) =   0
                l(2) =   0
                l(3) =   1
                l(4) =   1
     Q(r) pseudized with  8 coefficients,  rinner =    0.800   0.800   0.800

     PseudoPot. # 5 for H  read from file:
     /storage/coda1/p-amedford6/0/shared/rich_project_chbe-medford/medford-share/data/pseudos_module/espresso/nninc/pbe/van/H.UPF
     MD5 check sum: b5ee9d7bfd3a09ee7748110bda690ff7
     Pseudo is Ultrasoft, Zval =  1.0
     Generated by new atomic code, or converted to UPF format
     Using radial grid of  615 points,  1 beta functions with:
                l(1) =   0
     Q(r) pseudized with  8 coefficients,  rinner =    0.800

     atomic species   valence    mass     pseudopotential
        Ti1           12.00    47.86700     Ti( 1.00)
        O1             6.00    15.99900     O ( 1.00)
        N1             5.00    14.00700     N ( 1.00)
        C1             4.00    12.01100     C ( 1.00)
        H1             1.00     1.00800     H ( 1.00)

     No symmetry found

   Cartesian axes

     site n.     atom                  positions (alat units)
         1           Ti1 tau(   1) = (   0.0004258   2.9801865   6.0000000  )
         2           Ti1 tau(   2) = (   3.2906075   1.4906267   6.0002472  )
         3           O1  tau(   3) = (   0.0006271   0.0005054   7.9858123  )
         4           O1  tau(   4) = (   3.2906025   0.0005020   7.3038282  )
         5           O1  tau(   5) = (   4.5942328   1.4918067   9.2879030  )
         6           O1  tau(   6) = (   1.9868534   1.4903216   9.2879459  )
         7           Ti1 tau(   7) = (   3.2907910   2.8959150   9.1758416  )
         8           Ti1 tau(   8) = (   0.0015273   1.4827037   9.2680791  )
         9           O1  tau(   9) = (   3.3003128   0.0493987  11.3625472  )
        10           O1  tau(  10) = (   0.0116148   5.9584955  10.6183126  )
        11           O1  tau(  11) = (   1.2863924   1.5188706  12.6959087  )
        12           O1  tau(  12) = (   5.3173592   1.5183023  12.6957539  )
        13           Ti1 tau(  13) = (   0.0130489   2.9571150  12.5182267  )
        14           Ti1 tau(  14) = (   3.3124343   1.5987737  12.4587140  )
        15           O1  tau(  15) = (   0.0455642   5.8537743  14.6515032  )
        16           O1  tau(  16) = (   3.3135256   5.8999501  14.0036581  )
        17           O1  tau(  17) = (   4.5824137   1.5787328  16.0473457  )
        18           O1  tau(  18) = (   2.0456054   1.5356268  16.0652349  )
        19           Ti1 tau(  19) = (   3.2855744   2.9948502  15.7047272  )
        20           Ti1 tau(  20) = (   0.0729980   1.3194477  15.7501807  )
        21           O1  tau(  21) = (   3.2904802   0.0005063   4.7018136  )
        22           O1  tau(  22) = (   6.5643345   0.1786488  17.1561759  )
        23           O1  tau(  23) = (   1.3043587   1.4918075   6.0039043  )
        24           O1  tau(  24) = (   5.2767064   1.4903225   6.0039473  )
        25           Ti1 tau(  25) = (   0.0000382   5.9609847   6.0000000  )
        26           Ti1 tau(  26) = (   3.2902200   4.4714249   6.0002472  )
        27           O1  tau(  27) = (   0.0002396   2.9813036   7.9858123  )
        28           O1  tau(  28) = (   3.2902150   2.9813002   7.3038282  )
        29           O1  tau(  29) = (   4.5938453   4.4726049   9.2879030  )
        30           O1  tau(  30) = (   1.9864658   4.4711199   9.2879459  )
        31           Ti1 tau(  31) = (   3.2891106   5.8743827   9.1763621  )
        32           Ti1 tau(  32) = (   0.0006254   4.4649316   9.2693709  )
        33           O1  tau(  33) = (   3.3044115   2.9646987  11.3227374  )
        34           O1  tau(  34) = (   0.0092240   2.9805883  10.6323155  )
        35           O1  tau(  35) = (   1.2889249   4.4812606  12.6373974  )
        36           O1  tau(  36) = (   5.3198440   4.4849614  12.6453916  )
        37           Ti1 tau(  37) = (   0.0274371   5.9167426  12.5032498  )
        38           Ti1 tau(  38) = (   3.3124303   4.6827448  12.7121475  )
        39           O1  tau(  39) = (   0.0064664   3.0605765  14.9143048  )
        40           O1  tau(  40) = (   3.2921723   3.0190953  13.9337278  )
        41           O1  tau(  41) = (   4.5343043   4.4484976  16.2223827  )
        42           O1  tau(  42) = (   2.0055671   4.4324605  16.2273083  )
        43           Ti1 tau(  43) = (   3.3963104   0.0511244  16.3072024  )
        44           Ti1 tau(  44) = (   0.1011521   4.5293608  16.0606835  )
        45           O1  tau(  45) = (   3.2900926   2.9813045   4.7018136  )
        46           O1  tau(  46) = (   1.3039711   4.4726057   6.0039043  )
        47           O1  tau(  47) = (   5.2763189   4.4711207   6.0039473  )
        48           N1  tau(  48) = (   0.7799224   3.1460235  19.0808133  )
        49           N1  tau(  49) = (   6.3029119   3.3142126  18.0946246  )
        50           C1  tau(  50) = (   0.9829876   4.3811599  19.8296872  )
        51           H1  tau(  51) = (   0.0599524   4.7630682  20.2995108  )
        52           H1  tau(  52) = (   1.7087173   4.1728717  20.6153690  )
        53           H1  tau(  53) = (   1.3678604   5.1510331  19.1745456  )
        54           H1  tau(  54) = (   0.4845774   2.4057476  19.7140978  )
        55           H1  tau(  55) = (   5.5451363   3.8924421  18.4761980  )
        56           H1  tau(  56) = (   5.8791802   2.3931312  17.9634808  )
        57           O1  tau(  57) = (   3.3895457   0.1916509  18.1699706  )
        58           H1  tau(  58) = (   3.8128180   5.4341384  18.6581559  )

     number of k points=    10  Fermi-Dirac smearing, width (Ry)=  0.0073
                       cart. coord. in units 2pi/alat
        k(    1) = (   0.0000000   0.0000000   0.0000000), wk =   0.1250000
        k(    2) = (   0.0000000   0.0419351   0.0000000), wk =   0.2500000
        k(    3) = (   0.0000000  -0.0838702   0.0000000), wk =   0.1250000
        k(    4) = (   0.0379955   0.0000049   0.0000000), wk =   0.2500000
        k(    5) = (   0.0379955   0.0419400   0.0000000), wk =   0.2500000
        k(    6) = (   0.0379955  -0.0838652   0.0000000), wk =   0.2500000
        k(    7) = (   0.0379955  -0.0419301   0.0000000), wk =   0.2500000
        k(    8) = (  -0.0759910  -0.0000099   0.0000000), wk =   0.1250000
        k(    9) = (  -0.0759910   0.0419252   0.0000000), wk =   0.2500000
        k(   10) = (  -0.0759910  -0.0838800   0.0000000), wk =   0.1250000

     Initial potential from superposition of free atoms

     starting charge  388.99913, renormalised to  405.00000

     negative rho (up, down):  1.368E-02 0.000E+00

     %%%%%%%%%%%%%%%%%%%%%%%%%%%%%%%%%%%%%%%%%%%%%%%%%%%%%%%%%%%%%%%%%%%%%%%%
     %                                                                      %
     % You are using vdW-DF, which was implemented by the Thonhauser group. %
     % Please cite the following two papers that made this development      %
     % possible and the two reviews that describe the various versions:     %
     %                                                                      %
     %   T. Thonhauser et al., PRL 115, 136402 (2015).                      %
     %   T. Thonhauser et al., PRB 76, 125112 (2007).                       %
     %   K. Berland et al., Rep. Prog. Phys. 78, 066501 (2015).             %
     %   D.C. Langreth et al., J. Phys.: Condens. Matter 21, 084203 (2009). %
     %                                                                      %
     %                                                                      %
     % If you are calculating the stress with vdW-DF, please also cite:     %
     %                                                                      %
     %   R. Sabatini et al., J. Phys.: Condens. Matter 24, 424209 (2012).   %
     %                                                                      %
     %%%%%%%%%%%%%%%%%%%%%%%%%%%%%%%%%%%%%%%%%%%%%%%%%%%%%%%%%%%%%%%%%%%%%%%%

     Adding external electric field

     Computed dipole along edir(3) :
        Dipole              -14.8124 Ry au,        -37.6493 Debye
        Dipole field         -0.0280 Ry au,

        Potential amp.        2.5912 Ry
        Total length         46.3494 bohr

     Starting wfcs are  307 atomic wfcs
  @ DRIVER MODE: Message from server: STATUS
  @ DRIVER MODE: Message from server: POSDATA
  @ DRIVER MODE: Reading and sharing cell
  @ DRIVER MODE: Reading and sharing positions
  @ DRIVER MODE: Received positions

     Self-consistent Calculation

     iteration #  1     ecut=    29.40 Ry     beta= 0.05
     Davidson diagonalization with overlap
     c_bands:  4 eigenvalues not converged
     c_bands:  4 eigenvalues not converged
     c_bands:  5 eigenvalues not converged
     c_bands:  2 eigenvalues not converged
     c_bands:  3 eigenvalues not converged
     c_bands:  4 eigenvalues not converged
     c_bands:  2 eigenvalues not converged
     ethr =  1.00E-05,  avg # of iterations = 22.9

[...]

     total energy              =   -2202.97526552 Ry
     estimated scf accuracy    <    8803.89722844 Ry

     iteration #  2     ecut=    29.40 Ry     beta= 0.05
     Davidson diagonalization with overlap
     ethr =  1.00E-02,  avg # of iterations = 31.6

[...]

     iteration # 56     ecut=    29.40 Ry     beta= 0.05
     Davidson diagonalization with overlap
     c_bands:  1 eigenvalues not converged
     ethr =  2.03E-07,  avg # of iterations = 12.2

[...]

     total energy              =   -2976.46404022 Ry
     estimated scf accuracy    <       0.00000007 Ry

     iteration # 85     ecut=    29.40 Ry     beta= 0.05
     Davidson diagonalization with overlap
     ethr =  1.83E-11,  avg # of iterations =  7.3

     negative rho (up, down):  1.441E-02 0.000E+00

     Adding external electric field

     Computed dipole along edir(3) :
        Dipole                1.2250 Ry au,          3.1137 Debye
        Dipole field          0.0023 Ry au,

        Potential amp.       -0.2143 Ry
        Total length         46.3494 bohr

     End of self-consistent calculation

          k = 0.0000 0.0000 0.0000 ( 18029 PWs)   bands (ev):

   -55.4445 -55.3566 -55.3225 -55.2183 -55.2149 -55.1872 -55.1852 -55.1774
   -55.1532 -55.1300 -55.0869 -54.9853 -54.9374 -54.8937 -54.3314 -54.2974
   -31.8417 -31.7909 -31.7222 -31.7042 -31.6900 -31.6751 -31.6544 -31.6474
   -31.6162 -31.6028 -31.5968 -31.5091 -31.4943 -31.4870 -31.4671 -31.4637
   -31.4597 -31.4509 -31.4504 -31.4203 -31.4140 -31.3924 -31.3853 -31.3754
   -31.3708 -31.3544 -31.3536 -31.3217 -31.3215 -31.3147 -31.3140 -31.3081
   -31.2999 -31.2817 -31.2581 -31.2394 -31.1744 -31.1531 -31.1411 -31.1332
   -31.1120 -31.1029 -30.7374 -30.6511 -30.6286 -30.5549 -30.4685 -30.3568
   -17.7436 -16.3654 -16.0108 -15.8470 -15.6322 -15.5396 -15.5125 -15.3136
   -15.2187 -15.1604 -14.9595 -14.9321 -14.8943 -14.8816 -14.8726 -14.8515
   -14.8480 -14.7964 -14.7809 -14.7710 -14.7675 -14.7372 -14.7101 -14.6709
   -14.6113 -14.5975 -14.4949 -14.4395 -14.3996 -14.1584 -14.1390 -13.1779
   -12.8299 -12.7135  -9.4478  -6.4470  -5.7438  -4.2714  -3.9323  -3.3688
    -3.2674  -3.2558  -3.1992  -3.1320  -2.9752  -2.8841  -2.7863  -2.7436
    -2.6244  -2.5983  -2.4921  -2.4435  -2.3707  -2.3242  -2.2830  -2.2489
    -2.2204  -2.1645  -2.1422  -2.1164  -2.1052  -2.0323  -2.0139  -1.9247
    -1.8914  -1.8781  -1.7604  -1.7257  -1.6910  -1.6776  -1.6686  -1.6622
    -1.6185  -1.6083  -1.5977  -1.5555  -1.4551  -1.4472  -1.4296  -1.3390
    -1.2417  -0.9914  -0.9601  -0.9098  -0.8983  -0.8201  -0.7814  -0.7498
    -0.7171  -0.6474  -0.6359  -0.6103  -0.5488  -0.4732  -0.4190  -0.3713
    -0.3375  -0.2253  -0.1753  -0.1315  -0.0986  -0.0619   0.0011   0.0402
     0.0648   0.1079   0.1955   0.2590   0.2863   0.3033   0.3534   0.3952
     0.4331   0.4733   0.5454   0.5679   0.5780   0.6173   0.6259   0.6468
     0.7422   0.7607   0.8202   0.8474   0.9354   0.9663   1.0105   1.1800
     1.2492   1.3081   1.3864   1.4776   1.6405   1.6950   1.7198   1.8890
     2.2623   2.3077   3.7272   3.8747   3.8910   3.9687   3.9856   4.0498
     4.2162   4.2755   4.4130   4.4238

[...]

          k = 0.0380-0.0419 0.0000 ( 17876 PWs)   bands (ev):

[...]

          k =-0.0760-0.0000 0.0000 ( 17886 PWs)   bands (ev):

[...]

          k =-0.0760-0.0839 0.0000 ( 17948 PWs)   bands (ev):

   -55.4437 -55.3396 -55.3393 -55.2171 -55.2032 -55.1891 -55.1859 -55.1714
   -55.1687 -55.1220 -55.0950 -54.9822 -54.9385 -54.8967 -54.3144 -54.3143
   -31.7296 -31.6692 -31.6571 -31.6569 -31.6559 -31.6421 -31.6331 -31.6327
   -31.5757 -31.5306 -31.5093 -31.4985 -31.4931 -31.4880 -31.4651 -31.4595
   -31.4589 -31.4561 -31.4493 -31.4370 -31.4305 -31.4277 -31.4157 -31.3899
   -31.3853 -31.3833 -31.3757 -31.3679 -31.3496 -31.3441 -31.3406 -31.3402
   -31.3379 -31.3172 -31.3157 -31.2514 -31.2344 -31.2072 -31.1786 -31.1554
   -31.1489 -31.1077 -30.6414 -30.6413 -30.5504 -30.5501 -30.5119 -30.5117
   -17.7395 -16.3553 -15.5917 -15.4466 -15.3380 -15.3277 -15.2038 -15.1366
   -15.1268 -15.0933 -15.0704 -15.0486 -15.0301 -15.0149 -14.9603 -14.9203
   -14.8890 -14.8616 -14.8570 -14.8140 -14.8043 -14.7930 -14.7750 -14.7635
   -14.7083 -14.6720 -14.6624 -14.6043 -14.4648 -14.4455 -14.2885 -13.1793
   -12.8155 -12.8152  -9.4669  -6.4316  -5.7496  -4.2569  -3.9213  -2.9618
    -2.8014  -2.6581  -2.6210  -2.5626  -2.4492  -2.4265  -2.3669  -2.3166
    -2.2924  -2.2708  -2.2193  -2.2087  -2.1627  -2.1466  -2.1227  -2.1076
    -2.0912  -2.0847  -2.0567  -2.0409  -2.0305  -2.0180  -1.9906  -1.9796
    -1.9613  -1.9326  -1.9123  -1.9032  -1.8699  -1.8276  -1.7663  -1.6561
    -1.5816  -1.5708  -1.5272  -1.5020  -1.4858  -1.4448  -1.4322  -1.3912
    -1.3738  -1.3076  -1.1498  -1.1249  -1.1102  -0.9675  -0.9603  -0.9315
    -0.8574  -0.8156  -0.7939  -0.7360  -0.7063  -0.6666  -0.5890  -0.5456
    -0.4912  -0.4252  -0.3253  -0.3177  -0.3017  -0.2816  -0.2655  -0.2576
    -0.2245  -0.1873  -0.1143  -0.0676  -0.0590  -0.0529  -0.0018   0.0778
     0.1289   0.2430   0.3893   0.3940   0.4609   0.4618   0.6614   0.6705
     0.7468   0.7827   0.8169   0.8439   0.9378   0.9558   0.9934   1.0756
     1.1398   1.1693   1.1902   1.1949   1.2481   1.4604   2.0573   2.0652
     2.1280   2.1281   3.9682   4.2013   4.2417   4.2549   4.2730   4.2997
     4.3132   4.3274   4.3943   4.4178

     the Fermi energy is     3.7645 ev

!    total energy              =   -2976.46404631 Ry
     estimated scf accuracy    <       0.00000005 Ry
     smearing contrib. (-TS)   =      -0.01955642 Ry
     internal energy E=F+TS    =   -2976.44448989 Ry

     The total energy is F=E-TS. E is the sum of the following terms:
     one-electron contribution =  -23037.29838029 Ry
     hartree contribution      =   11616.37021642 Ry
     xc contribution           =    -495.72790754 Ry
     ewald contribution        =    8940.20874949 Ry
     electric field correction =       0.00283203 Ry

     convergence has been achieved in  85 iterations

     Forces acting on atoms (cartesian axes, Ry/au):

     atom    1 type  1   force =     0.00016288   -0.00022999    0.09414089
     atom    2 type  1   force =    -0.00010351    0.00019122   -0.17539922
     atom    3 type  2   force =     0.00005445   -0.00049453   -0.02103941
     atom    4 type  2   force =    -0.00002441   -0.00093984    0.05426421
     atom    5 type  2   force =    -0.00488422   -0.00215854    0.00106775
     atom    6 type  2   force =     0.00670799   -0.00138390    0.00108369
     atom    7 type  1   force =     0.00006276    0.00330181    0.00865560
     atom    8 type  1   force =    -0.00009971    0.00119656    0.00271668
     atom    9 type  2   force =    -0.00021928   -0.00030536   -0.00059453
     atom   10 type  2   force =    -0.00111934    0.00428998   -0.01023847
     atom   11 type  2   force =    -0.00007815   -0.00055790   -0.00010762
     atom   12 type  2   force =     0.00062319   -0.00032225   -0.00026899
     atom   13 type  1   force =    -0.00142822    0.00018832   -0.00058771
     atom   14 type  1   force =     0.00070668    0.00017034   -0.00047930
     atom   15 type  2   force =     0.00012922   -0.00000732    0.00004664
     atom   16 type  2   force =    -0.00009460   -0.00068530   -0.00029696
     atom   17 type  2   force =    -0.00040024    0.00070689    0.00007160
     atom   18 type  2   force =    -0.00078741    0.00031972   -0.00021746
     atom   19 type  1   force =     0.00041467   -0.00092892    0.00058935
     atom   20 type  1   force =    -0.00069325   -0.00001602    0.00048324
     atom   21 type  2   force =     0.00003813   -0.00001241    0.10322091
     atom   22 type  2   force =    -0.00009772    0.00001990    0.00055163
     atom   23 type  2   force =    -0.07199753   -0.00019900   -0.02725949
     atom   24 type  2   force =     0.07187623    0.00025722   -0.02733046
     atom   25 type  1   force =     0.00007590   -0.00016815    0.09387667
     atom   26 type  1   force =    -0.00011892   -0.00137138   -0.17553403
     atom   27 type  2   force =     0.00011073   -0.00005254   -0.01984950
     atom   28 type  2   force =     0.00006443   -0.00105105    0.04980909
     atom   29 type  2   force =    -0.00746717    0.00209457    0.00339153
     atom   30 type  2   force =     0.00907135    0.00223554    0.00330972
     atom   31 type  1   force =     0.00019714    0.00151058    0.00005182
     atom   32 type  1   force =    -0.00008797   -0.00226776    0.00302291
     atom   33 type  2   force =    -0.00017524   -0.00031143   -0.00003009
     atom   34 type  2   force =    -0.00117109   -0.00218554   -0.00963377
     atom   35 type  2   force =     0.00063647    0.00005645   -0.00022560
     atom   36 type  2   force =     0.00037927    0.00011717   -0.00035516
     atom   37 type  1   force =    -0.00096085    0.00024741    0.00033524
     atom   38 type  1   force =     0.00096327   -0.00022463    0.00019659
     atom   39 type  2   force =    -0.00016981   -0.00053430    0.00009696
     atom   40 type  2   force =    -0.00019890   -0.00019494   -0.00017363
     atom   41 type  2   force =     0.00027502   -0.00033378   -0.00009818
     atom   42 type  2   force =    -0.00068460    0.00004718   -0.00010391
     atom   43 type  1   force =     0.00021230    0.00091334    0.00059407
     atom   44 type  1   force =    -0.00038561    0.00081120    0.00000780
     atom   45 type  2   force =     0.00002427    0.00003568    0.10304856
     atom   46 type  2   force =    -0.07195123   -0.00007988   -0.02721380
     atom   47 type  2   force =     0.07183999    0.00035047   -0.02729714
     atom   48 type  3   force =    -0.00000739   -0.00110583   -0.00078658
     atom   49 type  3   force =    -0.00030102   -0.00021990   -0.00040138
     atom   50 type  4   force =    -0.00307663   -0.00273639    0.00245872
     atom   51 type  5   force =    -0.00146548   -0.00084449    0.00116610
     atom   52 type  5   force =     0.00091512    0.00053912   -0.00012186
     atom   53 type  5   force =     0.00304670    0.00341942   -0.00297425
     atom   54 type  5   force =     0.00067395   -0.00026197    0.00003220
     atom   55 type  5   force =     0.00050230   -0.00059121    0.00008135
     atom   56 type  5   force =     0.00063797   -0.00002035   -0.00006017
     atom   57 type  2   force =     0.00071509   -0.00114734    0.00004950
     atom   58 type  5   force =    -0.00086800    0.00092402    0.00025760

     Total force =     0.362104     Total SCF correction =     0.000503
  @ DRIVER MODE: Message from server: STATUS
  @ DRIVER MODE: Message from server: GETFORCE
  @ DRIVER MODE: Returning v,forces,stress,ensemble

     Writing output data file ./calc.save/
  @ DRIVER MODE: Message from server: EXIT
  @ DRIVE MODE: Exiting

     General routines

     Parallel routines

   This run was terminated on:   2:15:55  24Sep2021

   JOB DONE.