     Program PWSCF v.6.7GPU starts on  9Sep2021 at  3:58:45

     R & G space division:  proc/nbgrp/npool/nimage =      10
     Reading input from /storage/home/hcoda1/3/ntian30/research/carbon/CxH_vib/CH3_calc/ads_slab/CH3OH_e/out_0019/pw.inp
Warning: card &CELL ignored
Warning: card   CELL_DYNAMICS='IPI', ignored
Warning: card / ignored

     Current dimensions of program PWSCF are:
     Max number of different atomic species (ntypx) = 10
     Max number of k-points (npk) =  40000
     Max angular momentum in pseudopotentials (lmaxx) =  3
     Presently no symmetry can be used with electric field

     Message from routine cell_base_init:
     DEPRECATED: use true lattice parameter, not A to a.u. conversion factor

     IMPORTANT: XC functional enforced from input :
     Exchange-correlation= BEEF-VDW
                           (   1   4  43  14   2   0   0)
     Any further DFT definition will be discarded
     Please, verify this is what you really want

  @ DRIVER MODE: Connecting to
 qe_1139763_2767404.sched-torque.pace.gatech.eduhovb7fwl_scratch
  using UNIX socket
  @ DRIVER MODE: Message from server: STATUS
  @ DRIVER MODE: Message from server: INIT
  @ DRIVER MODE: Receiving replica           0          -1
  @ DRIVER MODE: Receiving encoded integer          25
  @ DRIVER MODE:  SCF:  T  FORCE:  T  STRESS:  F  VC:  F  ENSEMBLE:  F
  @ DRIVER MODE:  SCF:  T  FORCE:  T  STRESS:  F  VC:  F  ENSEMBLE:  F

     Using Slab Decomposition

     bravais-lattice index     =            0
     lattice parameter (alat)  =       1.8897  a.u.
     unit-cell volume          =    6658.9804 (a.u.)^3
     number of atoms/cell      =           53
     number of atomic types    =            4
     number of electrons       =       392.00
     number of Kohn-Sham states=          206
     kinetic-energy cutoff     =      29.3995  Ry
     charge density cutoff     =     293.9946  Ry
     scf convergence threshold =      7.3E-08
     mixing beta               =       0.0500
     number of iterations used =            8  plain     mixing
     Exchange-correlation= BEEF-VDW
                           (   1   4  43  14   2   0   0)

     celldm(1)=   1.889726  celldm(2)=   0.000000  celldm(3)=   0.000000
     celldm(4)=   0.000000  celldm(5)=   0.000000  celldm(6)=   0.000000

     crystal axes: (cart. coord. in units of alat)
               a(1) = (   6.579727   0.000000   0.000000 )
               a(2) = (  -0.000775   5.961596   0.000000 )
               a(3) = (   0.000000   0.000000  25.155947 )

     reciprocal axes: (cart. coord. in units 2 pi/alat)
               b(1) = (  0.151982  0.000020  0.000000 )
               b(2) = (  0.000000  0.167740  0.000000 )
               b(3) = (  0.000000  0.000000  0.039752 )

     PseudoPot. # 1 for Ti read from file:
     /storage/coda1/p-amedford6/0/shared/rich_project_chbe-medford/medford-share/data/pseudos_module/espresso/nninc/pbe/van/Ti.UPF
     MD5 check sum: 8e4df49b7f0d34bbd5052bf3f5ea0213
     Pseudo is Ultrasoft, Zval = 12.0
     Generated by new atomic code, or converted to UPF format
     Using radial grid of  851 points,  6 beta functions with:
                l(1) =   0
                l(2) =   0
                l(3) =   1
                l(4) =   1
                l(5) =   2
                l(6) =   2
     Q(r) pseudized with  8 coefficients,  rinner =    1.000   1.000   1.000
                                                       1.000   1.000

     PseudoPot. # 2 for O  read from file:
     /storage/coda1/p-amedford6/0/shared/rich_project_chbe-medford/medford-share/data/pseudos_module/espresso/nninc/pbe/van/O.UPF
     MD5 check sum: 78c19812648e8988a0fe644b0f25305e
     Pseudo is Ultrasoft, Zval =  6.0
     Generated by new atomic code, or converted to UPF format
     Using radial grid of  737 points,  4 beta functions with:
                l(1) =   0
                l(2) =   0
                l(3) =   1
                l(4) =   1
     Q(r) pseudized with  8 coefficients,  rinner =    0.800   0.800   0.800

     PseudoPot. # 3 for C  read from file:
     /storage/coda1/p-amedford6/0/shared/rich_project_chbe-medford/medford-share/data/pseudos_module/espresso/nninc/pbe/van/C.UPF
     MD5 check sum: 1a69bf6b8db32088f5b2163dbdb77a27
     Pseudo is Ultrasoft, Zval =  4.0
     Generated by new atomic code, or converted to UPF format
     Using radial grid of  721 points,  4 beta functions with:
                l(1) =   0
                l(2) =   0
                l(3) =   1
                l(4) =   1
     Q(r) pseudized with  8 coefficients,  rinner =    0.800   0.800   0.800

     PseudoPot. # 4 for H  read from file:
     /storage/coda1/p-amedford6/0/shared/rich_project_chbe-medford/medford-share/data/pseudos_module/espresso/nninc/pbe/van/H.UPF
     MD5 check sum: b5ee9d7bfd3a09ee7748110bda690ff7
     Pseudo is Ultrasoft, Zval =  1.0
     Generated by new atomic code, or converted to UPF format
     Using radial grid of  615 points,  1 beta functions with:
                l(1) =   0
     Q(r) pseudized with  8 coefficients,  rinner =    0.800

     atomic species   valence    mass     pseudopotential
        Ti1           12.00    47.86700     Ti( 1.00)
        O1             6.00    15.99900     O ( 1.00)
        C1             4.00    12.01100     C ( 1.00)
        H1             1.00     1.00800     H ( 1.00)

     No symmetry found

   Cartesian axes

     site n.     atom                  positions (alat units)
         1           Ti1 tau(   1) = (   0.0004258   2.9801865   6.0000000  )
         2           Ti1 tau(   2) = (   3.2906075   1.4906267   6.0002472  )
         3           O1  tau(   3) = (   0.0006271   0.0005054   7.9858123  )
         4           O1  tau(   4) = (   3.2906025   0.0005020   7.3038282  )
         5           O1  tau(   5) = (   4.5942328   1.4918067   9.2879030  )
         6           O1  tau(   6) = (   1.9868534   1.4903216   9.2879459  )
         7           Ti1 tau(   7) = (   3.3184627   3.0104606   9.1553648  )
         8           Ti1 tau(   8) = (   0.0346466   1.5145919   9.2725854  )
         9           O1  tau(   9) = (   3.3323670   0.0074739  11.3628161  )
        10           O1  tau(  10) = (   0.0072146   0.0022432  10.6032180  )
        11           O1  tau(  11) = (   1.3334854   1.5010653  12.6312402  )
        12           O1  tau(  12) = (   5.3322653   1.4967215  12.6661074  )
        13           Ti1 tau(  13) = (   0.0399007   3.0049294  12.5399032  )
        14           Ti1 tau(  14) = (   3.3257882   1.5006484  12.5017209  )
        15           O1  tau(  15) = (   0.0958175   0.0109015  14.6781201  )
        16           O1  tau(  16) = (   3.3209445   0.0065530  13.9947117  )
        17           O1  tau(  17) = (   4.6470289   1.5235192  16.1521327  )
        18           O1  tau(  18) = (   2.1274687   1.5288575  16.1863263  )
        19           Ti1 tau(  19) = (   3.3866828   2.9872137  15.7186651  )
        20           Ti1 tau(  20) = (   0.0851359   1.3433488  15.9962781  )
        21           O1  tau(  21) = (   3.2904802   0.0005063   4.7018136  )
        22           O1  tau(  22) = (   0.0861787   0.0156205  17.2101336  )
        23           O1  tau(  23) = (   1.3043587   1.4918075   6.0039043  )
        24           O1  tau(  24) = (   5.2767064   1.4903225   6.0039473  )
        25           Ti1 tau(  25) = (   0.0000382   5.9609847   6.0000000  )
        26           Ti1 tau(  26) = (   3.2902200   4.4714249   6.0002472  )
        27           O1  tau(  27) = (   0.0002396   2.9813036   7.9858123  )
        28           O1  tau(  28) = (   3.2902150   2.9813002   7.3038282  )
        29           O1  tau(  29) = (   4.5938453   4.4726049   9.2879030  )
        30           O1  tau(  30) = (   1.9864658   4.4711199   9.2879459  )
        31           Ti1 tau(  31) = (   3.3160408   0.0312979   9.1533790  )
        32           Ti1 tau(  32) = (   0.0342031   4.4824714   9.2635914  )
        33           O1  tau(  33) = (   3.3296961   2.9874083  11.3532073  )
        34           O1  tau(  34) = (   0.0071558   2.9827229  10.6249429  )
        35           O1  tau(  35) = (   1.3339759   4.4780823  12.6303471  )
        36           O1  tau(  36) = (   5.3316377   4.4803543  12.6653953  )
        37           Ti1 tau(  37) = (   0.0318003   0.0267859  12.4824326  )
        38           Ti1 tau(  38) = (   3.3243002   4.4792164  12.4996646  )
        39           O1  tau(  39) = (   0.1017966   3.0039049  14.8467192  )
        40           O1  tau(  40) = (   3.3365867   2.9884115  13.9371009  )
        41           O1  tau(  41) = (   4.6519449   4.4651455  16.1366910  )
        42           O1  tau(  42) = (   2.1329502   4.4467914  16.2189938  )
        43           Ti1 tau(  43) = (   3.3530478   0.0116223  15.7847896  )
        44           Ti1 tau(  44) = (   0.0420906   4.5503417  15.8661587  )
        45           O1  tau(  45) = (   3.2900926   2.9813045   4.7018136  )
        46           O1  tau(  46) = (   1.3039711   4.4726057   6.0039043  )
        47           O1  tau(  47) = (   5.2763189   4.4711207   6.0039473  )
        48           C1  tau(  48) = (   6.0571888   3.1179766  18.9039971  )
        49           O1  tau(  49) = (   0.2335693   3.0433622  17.6694830  )
        50           H1  tau(  50) = (   5.0284728   2.8969007  18.6408099  )
        51           H1  tau(  51) = (   1.1657692   3.2348548  17.8288520  )
        52           H1  tau(  52) = (   6.4315421   2.3664480  19.5988381  )
        53           H1  tau(  53) = (   6.1352977   4.1238860  19.3131673  )

     number of k points=    10  Fermi-Dirac smearing, width (Ry)=  0.0073
                       cart. coord. in units 2pi/alat
        k(    1) = (   0.0000000   0.0000000   0.0000000), wk =   0.1250000
        k(    2) = (   0.0000000   0.0419351   0.0000000), wk =   0.2500000
        k(    3) = (   0.0000000  -0.0838702   0.0000000), wk =   0.1250000
        k(    4) = (   0.0379955   0.0000049   0.0000000), wk =   0.2500000
        k(    5) = (   0.0379955   0.0419400   0.0000000), wk =   0.2500000
        k(    6) = (   0.0379955  -0.0838652   0.0000000), wk =   0.2500000
        k(    7) = (   0.0379955  -0.0419301   0.0000000), wk =   0.2500000
        k(    8) = (  -0.0759910  -0.0000099   0.0000000), wk =   0.1250000
        k(    9) = (  -0.0759910   0.0419252   0.0000000), wk =   0.2500000
        k(   10) = (  -0.0759910  -0.0838800   0.0000000), wk =   0.1250000

     Initial potential from superposition of free atoms

     starting charge  375.99917, renormalised to  392.00000

     negative rho (up, down):  1.694E-02 0.000E+00

     %%%%%%%%%%%%%%%%%%%%%%%%%%%%%%%%%%%%%%%%%%%%%%%%%%%%%%%%%%%%%%%%%%%%%%%%
     %                                                                      %
     % You are using vdW-DF, which was implemented by the Thonhauser group. %
     % Please cite the following two papers that made this development      %
     % possible and the two reviews that describe the various versions:     %
     %                                                                      %
     %   T. Thonhauser et al., PRL 115, 136402 (2015).                      %
     %   T. Thonhauser et al., PRB 76, 125112 (2007).                       %
     %   K. Berland et al., Rep. Prog. Phys. 78, 066501 (2015).             %
     %   D.C. Langreth et al., J. Phys.: Condens. Matter 21, 084203 (2009). %
     %                                                                      %
     %                                                                      %
     % If you are calculating the stress with vdW-DF, please also cite:     %
     %                                                                      %
     %   R. Sabatini et al., J. Phys.: Condens. Matter 24, 424209 (2012).   %
     %                                                                      %
     %%%%%%%%%%%%%%%%%%%%%%%%%%%%%%%%%%%%%%%%%%%%%%%%%%%%%%%%%%%%%%%%%%%%%%%%

     Adding external electric field

     Computed dipole along edir(3) :
        Dipole               -7.1856 Ry au,        -18.2640 Debye
        Dipole field         -0.0136 Ry au,

        Potential amp.        1.2570 Ry
        Total length         46.3494 bohr

     Starting wfcs are  296 atomic wfcs
  @ DRIVER MODE: Message from server: STATUS
  @ DRIVER MODE: Message from server: POSDATA
  @ DRIVER MODE: Reading and sharing cell
  @ DRIVER MODE: Reading and sharing positions
  @ DRIVER MODE: Received positions

     Self-consistent Calculation

     iteration #  1     ecut=    29.40 Ry     beta= 0.05
     Davidson diagonalization with overlap
     c_bands:  1 eigenvalues not converged
     c_bands:  1 eigenvalues not converged
     c_bands:  2 eigenvalues not converged
     c_bands:  2 eigenvalues not converged
     c_bands:  1 eigenvalues not converged
     c_bands:  1 eigenvalues not converged
     ethr =  1.00E-05,  avg # of iterations = 19.0

[...]

     total energy              =   -2696.71286456 Ry
     estimated scf accuracy    <    2609.03051857 Ry

[...]

     iteration #  3     ecut=    29.40 Ry     beta= 0.05
     Davidson diagonalization with overlap
     ethr =  1.00E-02,  avg # of iterations = 15.2

[...]

     iteration # 59     ecut=    29.40 Ry     beta= 0.05
     Davidson diagonalization with overlap
     c_bands:  1 eigenvalues not converged
     ethr =  6.25E-10,  avg # of iterations = 12.2

[...]

     total energy              =   -2932.64516241 Ry
     estimated scf accuracy    <       0.00000014 Ry

     iteration # 66     ecut=    29.40 Ry     beta= 0.05
     Davidson diagonalization with overlap
     ethr =  3.31E-11,  avg # of iterations =  4.1

     negative rho (up, down):  1.738E-02 0.000E+00

     Adding external electric field

     Computed dipole along edir(3) :
        Dipole                1.3765 Ry au,          3.4987 Debye
        Dipole field          0.0026 Ry au,

        Potential amp.       -0.2408 Ry
        Total length         46.3494 bohr

     End of self-consistent calculation

          k = 0.0000 0.0000 0.0000 ( 18029 PWs)   bands (ev):

   -55.3996 -55.3672 -55.3634 -55.3328 -55.2941 -55.2879 -55.2862 -55.2421
   -55.2263 -55.2259 -55.1918 -55.1839 -55.1800 -55.1499 -54.4577 -54.4236
   -31.9753 -31.9071 -31.8621 -31.7729 -31.7270 -31.7036 -31.6962 -31.6951
   -31.6564 -31.6556 -31.6110 -31.6101 -31.6066 -31.6000 -31.5777 -31.5561
   -31.5517 -31.5342 -31.5293 -31.5211 -31.5197 -31.5082 -31.4842 -31.4838
   -31.4830 -31.4637 -31.4582 -31.4552 -31.4244 -31.4186 -31.4096 -31.3899
   -31.3880 -31.3878 -31.3681 -31.3624 -31.3534 -31.3429 -31.3280 -31.3206
   -31.3098 -31.2956 -30.8697 -30.7673 -30.7457 -30.6862 -30.5999 -30.4886
   -20.3158 -16.2470 -15.9801 -15.8452 -15.7408 -15.6186 -15.4907 -15.4787
   -15.3463 -15.2192 -15.1528 -15.1313 -15.0933 -15.0785 -15.0457 -15.0406
   -15.0256 -14.9541 -14.9280 -14.9091 -14.8831 -14.8792 -14.8414 -14.8297
   -14.7898 -14.7832 -14.6373 -14.5579 -14.4969 -14.2592 -12.9584 -12.8389
   -11.2692  -7.0320  -5.2271  -5.0734  -3.5821  -3.4108  -3.3614  -3.3313
    -3.3253  -3.2000  -3.0942  -3.0343  -2.8281  -2.7005  -2.6668  -2.6613
    -2.6231  -2.5846  -2.4703  -2.3803  -2.3536  -2.3407  -2.2939  -2.2873
    -2.2705  -2.2171  -2.1956  -2.1757  -2.1689  -2.0106  -1.9469  -1.8994
    -1.8848  -1.8379  -1.7996  -1.7397  -1.7364  -1.7209  -1.6837  -1.6796
    -1.6598  -1.6264  -1.6112  -1.4393  -1.3933  -1.3628  -1.2694  -1.1754
    -1.0907  -0.9892  -0.9729  -0.9587  -0.9140  -0.8462  -0.8380  -0.8043
    -0.7662  -0.6465  -0.5795  -0.5319  -0.4786  -0.4015  -0.4008  -0.3422
    -0.2040  -0.1897  -0.1822  -0.1659  -0.0620   0.0171   0.0300   0.0896
     0.1389   0.1615   0.2341   0.2537   0.3197   0.3423   0.4070   0.4247
     0.5119   0.5329   0.5470   0.5668   0.5844   0.6763   0.7022   0.7495
     0.7566   0.9116   1.0394   1.1631   1.1771   1.4575   1.5488   1.5684
     1.7276   2.1544   2.2092   3.6983   3.7627   3.8111   3.8199   3.8310
     3.9088   4.1874   4.1938   4.1995   4.2149   4.2240

[...]

          k = 0.0380-0.0419 0.0000 ( 17876 PWs)   bands (ev):

[...]

          k =-0.0760-0.0000 0.0000 ( 17886 PWs)   bands (ev):

[...]

          k =-0.0760-0.0839 0.0000 ( 17948 PWs)   bands (ev):

   -55.3824 -55.3805 -55.3518 -55.3480 -55.2879 -55.2845 -55.2802 -55.2498
   -55.2309 -55.2111 -55.2067 -55.1827 -55.1691 -55.1648 -54.4406 -54.4406
   -31.8251 -31.7783 -31.7768 -31.7031 -31.6788 -31.6753 -31.6629 -31.6452
   -31.6380 -31.6181 -31.6049 -31.6007 -31.5955 -31.5776 -31.5495 -31.5399
   -31.5306 -31.5273 -31.5272 -31.5242 -31.5230 -31.5196 -31.5115 -31.4845
   -31.4779 -31.4749 -31.4723 -31.4713 -31.4700 -31.4682 -31.4643 -31.4498
   -31.4411 -31.4360 -31.4224 -31.4113 -31.4096 -31.3913 -31.3868 -31.3699
   -31.3569 -31.3528 -30.7583 -30.7582 -30.6824 -30.6823 -30.6431 -30.6430
   -20.3124 -15.7753 -15.6840 -15.6094 -15.4201 -15.4090 -15.4000 -15.3933
   -15.2809 -15.2516 -15.2204 -15.1792 -15.1636 -15.1596 -15.1430 -15.1344
   -14.9983 -14.9945 -14.9894 -14.9879 -14.9171 -14.9123 -14.8977 -14.8830
   -14.8448 -14.8402 -14.8245 -14.8186 -14.7182 -14.5770 -12.9402 -12.9395
   -11.2709  -7.0323  -5.2171  -5.0633  -3.1223  -2.9620  -2.8810  -2.8703
    -2.6344  -2.6277  -2.5878  -2.5275  -2.4760  -2.4239  -2.3987  -2.3956
    -2.3180  -2.3141  -2.3072  -2.3017  -2.2695  -2.2664  -2.2227  -2.1988
    -2.1756  -2.1205  -2.1033  -2.0929  -2.0697  -2.0650  -2.0562  -2.0310
    -2.0263  -2.0077  -1.9399  -1.8608  -1.7910  -1.7725  -1.7380  -1.6240
    -1.6141  -1.5821  -1.5369  -1.4941  -1.4731  -1.4485  -1.4043  -1.3494
    -1.2476  -1.1945  -1.1868  -1.1469  -1.0802  -1.0336  -0.9997  -0.9507
    -0.9017  -0.8694  -0.8284  -0.7613  -0.7114  -0.6211  -0.6153  -0.5715
    -0.4313  -0.4258  -0.4004  -0.3897  -0.3869  -0.3012  -0.2874  -0.2419
    -0.1960  -0.1419  -0.1173  -0.1089   0.0871   0.0966   0.1814   0.2727
     0.2837   0.4391   0.4551   0.5211   0.5929   0.6364   0.6767   0.7400
     0.8390   0.8716   0.8947   0.9885   1.0302   1.0358   1.0626   1.9203
     1.9215   2.0234   2.0264   3.8398   3.9124   3.9448   4.0163   4.0780
     4.2072   4.2201   4.2501   4.2560   4.3315   4.3436

     the Fermi energy is     3.7532 ev

!    total energy              =   -2932.64519421 Ry
     estimated scf accuracy    <       0.00000007 Ry
     smearing contrib. (-TS)   =      -0.03689697 Ry
     internal energy E=F+TS    =   -2932.60829724 Ry

     The total energy is F=E-TS. E is the sum of the following terms:
     one-electron contribution =  -24389.51157203 Ry
     hartree contribution      =   12284.52717020 Ry
     xc contribution           =    -483.02676449 Ry
     ewald contribution        =    9655.39929349 Ry
     electric field correction =       0.00357559 Ry

     convergence has been achieved in  66 iterations

     Forces acting on atoms (cartesian axes, Ry/au):

     atom    1 type  1   force =    -0.00034051   -0.00014357    0.09281823
     atom    2 type  1   force =    -0.00024152    0.00065659   -0.18341084
     atom    3 type  2   force =     0.00047430    0.00086156   -0.02412937
     atom    4 type  2   force =     0.00075464    0.00051858    0.04951122
     atom    5 type  2   force =    -0.01311791    0.00029022    0.00324657
     atom    6 type  2   force =     0.01564360   -0.00028415    0.00543278
     atom    7 type  1   force =     0.00018424    0.00090145   -0.00002083
     atom    8 type  1   force =    -0.00021267   -0.00026017   -0.00040393
     atom    9 type  2   force =    -0.00005999    0.00022875   -0.00022216
     atom   10 type  2   force =     0.00013863    0.00048687    0.00163078
     atom   11 type  2   force =    -0.00001882   -0.00046270    0.00002385
     atom   12 type  2   force =    -0.00054332    0.00040834   -0.00028450
     atom   13 type  1   force =     0.00101561   -0.00065272    0.00008115
     atom   14 type  1   force =    -0.00081152    0.00093662    0.00066860
     atom   15 type  2   force =    -0.00066828   -0.00022345   -0.00021471
     atom   16 type  2   force =     0.00066165   -0.00023370   -0.00048833
     atom   17 type  2   force =    -0.00059838    0.00005402    0.00096598
     atom   18 type  2   force =    -0.00045946   -0.00024005    0.00014010
     atom   19 type  1   force =    -0.00026037   -0.00078660    0.00021406
     atom   20 type  1   force =    -0.00039202    0.00006765   -0.00033902
     atom   21 type  2   force =    -0.00005294    0.00001566    0.10494792
     atom   22 type  2   force =    -0.00019840   -0.00138612    0.00113414
     atom   23 type  2   force =    -0.06791611   -0.00004596   -0.02677134
     atom   24 type  2   force =     0.06769659    0.00040786   -0.02686682
     atom   25 type  1   force =    -0.00037029    0.00013486    0.09640258
     atom   26 type  1   force =    -0.00021601   -0.00047169   -0.18354020
     atom   27 type  2   force =     0.00041823    0.00059099   -0.02277019
     atom   28 type  2   force =     0.00079500    0.00033219    0.04921244
     atom   29 type  2   force =    -0.01325618    0.00067809    0.00320900
     atom   30 type  2   force =     0.01572180    0.00023860    0.00535830
     atom   31 type  1   force =     0.00029281   -0.00137954   -0.00018353
     atom   32 type  1   force =    -0.00005549   -0.00015428    0.00028752
     atom   33 type  2   force =     0.00033605   -0.00009723    0.00079184
     atom   34 type  2   force =     0.00036473    0.00036344    0.00037306
     atom   35 type  2   force =    -0.00037306    0.00004870    0.00012498
     atom   36 type  2   force =    -0.00024682    0.00028317    0.00000690
     atom   37 type  1   force =     0.00136976   -0.00001643   -0.00052654
     atom   38 type  1   force =    -0.00077009   -0.00077952    0.00092250
     atom   39 type  2   force =    -0.00066189    0.00018588   -0.00051112
     atom   40 type  2   force =    -0.00062075    0.00036823   -0.00017806
     atom   41 type  2   force =    -0.00062656   -0.00007354    0.00073274
     atom   42 type  2   force =    -0.00078730   -0.00017027    0.00008958
     atom   43 type  1   force =    -0.00050476    0.00090256    0.00040253
     atom   44 type  1   force =     0.00033746    0.00036730    0.00035545
     atom   45 type  2   force =    -0.00005311    0.00002740    0.10491523
     atom   46 type  2   force =    -0.06787727   -0.00058195   -0.02678926
     atom   47 type  2   force =     0.06764513   -0.00009560   -0.02686081
     atom   48 type  3   force =    -0.00053726   -0.00103889   -0.00053392
     atom   49 type  2   force =    -0.01800241   -0.00408157   -0.00274734
     atom   50 type  4   force =     0.00000969   -0.00016941    0.00103376
     atom   51 type  4   force =     0.01771799    0.00305907    0.00333668
     atom   52 type  4   force =    -0.00050311    0.00031210   -0.00026861
     atom   53 type  4   force =    -0.00022333    0.00010238   -0.00030905

     Total force =     0.368951     Total SCF correction =     0.001180
  @ DRIVER MODE: Message from server: STATUS
  @ DRIVER MODE: Message from server: GETFORCE
  @ DRIVER MODE: Returning v,forces,stress,ensemble

     Writing output data file ./calc.save/
  @ DRIVER MODE: Message from server: EXIT
  @ DRIVE MODE: Exiting

     General routines

     Parallel routines

   This run was terminated on:   4:16:48   9Sep2021

   JOB DONE.