     Program PWSCF v.6.7GPU starts on 22Sep2021 at 18:34:30

     R & G space division:  proc/nbgrp/npool/nimage =      10
     Reading input from /storage/home/hcoda1/3/ntian30/research/carbon/CxH_vib/H2O_calc/ads_slab/CH2NHNHH2O_b/out_0008/pw.inp
Warning: card &CELL ignored
Warning: card   CELL_DYNAMICS='IPI', ignored
Warning: card / ignored

     Current dimensions of program PWSCF are:
     Max number of different atomic species (ntypx) = 10
     Max number of k-points (npk) =  40000
     Max angular momentum in pseudopotentials (lmaxx) =  3
     Presently no symmetry can be used with electric field

     Message from routine cell_base_init:
     DEPRECATED: use true lattice parameter, not A to a.u. conversion factor

     IMPORTANT: XC functional enforced from input :
     Exchange-correlation= BEEF-VDW
                           (   1   4  43  14   2   0   0)
     Any further DFT definition will be discarded
     Please, verify this is what you really want

  @ DRIVER MODE: Connecting to
 qe_1139763_2937310.sched-torque.pace.gatech.edu1ifyrhkc_scratch
  using UNIX socket
  @ DRIVER MODE: Message from server: STATUS
  @ DRIVER MODE: Message from server: INIT
  @ DRIVER MODE: Receiving replica           0          -1
  @ DRIVER MODE: Receiving encoded integer          25
  @ DRIVER MODE:  SCF:  T  FORCE:  T  STRESS:  F  VC:  F  ENSEMBLE:  F
  @ DRIVER MODE:  SCF:  T  FORCE:  T  STRESS:  F  VC:  F  ENSEMBLE:  F

     Using Slab Decomposition

     bravais-lattice index     =            0
     lattice parameter (alat)  =       1.8897  a.u.
     unit-cell volume          =    6658.9804 (a.u.)^3
     number of atoms/cell      =           57
     number of atomic types    =            5
     number of electrons       =       404.00
     number of Kohn-Sham states=          212
     kinetic-energy cutoff     =      29.3995  Ry
     charge density cutoff     =     293.9946  Ry
     scf convergence threshold =      7.3E-08
     mixing beta               =       0.0500
     number of iterations used =            8  plain     mixing
     Exchange-correlation= BEEF-VDW
                           (   1   4  43  14   2   0   0)

     celldm(1)=   1.889726  celldm(2)=   0.000000  celldm(3)=   0.000000
     celldm(4)=   0.000000  celldm(5)=   0.000000  celldm(6)=   0.000000

     crystal axes: (cart. coord. in units of alat)
               a(1) = (   6.579727   0.000000   0.000000 )
               a(2) = (  -0.000775   5.961596   0.000000 )
               a(3) = (   0.000000   0.000000  25.155947 )

     reciprocal axes: (cart. coord. in units 2 pi/alat)
               b(1) = (  0.151982  0.000020  0.000000 )
               b(2) = (  0.000000  0.167740  0.000000 )
               b(3) = (  0.000000  0.000000  0.039752 )

     PseudoPot. # 1 for Ti read from file:
     /storage/coda1/p-amedford6/0/shared/rich_project_chbe-medford/medford-share/data/pseudos_module/espresso/nninc/pbe/van/Ti.UPF
     MD5 check sum: 8e4df49b7f0d34bbd5052bf3f5ea0213
     Pseudo is Ultrasoft, Zval = 12.0
     Generated by new atomic code, or converted to UPF format
     Using radial grid of  851 points,  6 beta functions with:
                l(1) =   0
                l(2) =   0
                l(3) =   1
                l(4) =   1
                l(5) =   2
                l(6) =   2
     Q(r) pseudized with  8 coefficients,  rinner =    1.000   1.000   1.000
                                                       1.000   1.000

     PseudoPot. # 2 for O  read from file:
     /storage/coda1/p-amedford6/0/shared/rich_project_chbe-medford/medford-share/data/pseudos_module/espresso/nninc/pbe/van/O.UPF
     MD5 check sum: 78c19812648e8988a0fe644b0f25305e
     Pseudo is Ultrasoft, Zval =  6.0
     Generated by new atomic code, or converted to UPF format
     Using radial grid of  737 points,  4 beta functions with:
                l(1) =   0
                l(2) =   0
                l(3) =   1
                l(4) =   1
     Q(r) pseudized with  8 coefficients,  rinner =    0.800   0.800   0.800

     PseudoPot. # 3 for N  read from file:
     /storage/coda1/p-amedford6/0/shared/rich_project_chbe-medford/medford-share/data/pseudos_module/espresso/nninc/pbe/van/N.UPF
     MD5 check sum: 90d10febe142ad51ac9d5be1deb811c4
     Pseudo is Ultrasoft, Zval =  5.0
     Generated by new atomic code, or converted to UPF format
     Using radial grid of  729 points,  4 beta functions with:
                l(1) =   0
                l(2) =   0
                l(3) =   1
                l(4) =   1
     Q(r) pseudized with  8 coefficients,  rinner =    0.800   0.800   0.800

     PseudoPot. # 4 for C  read from file:
     /storage/coda1/p-amedford6/0/shared/rich_project_chbe-medford/medford-share/data/pseudos_module/espresso/nninc/pbe/van/C.UPF
     MD5 check sum: 1a69bf6b8db32088f5b2163dbdb77a27
     Pseudo is Ultrasoft, Zval =  4.0
     Generated by new atomic code, or converted to UPF format
     Using radial grid of  721 points,  4 beta functions with:
                l(1) =   0
                l(2) =   0
                l(3) =   1
                l(4) =   1
     Q(r) pseudized with  8 coefficients,  rinner =    0.800   0.800   0.800

     PseudoPot. # 5 for H  read from file:
     /storage/coda1/p-amedford6/0/shared/rich_project_chbe-medford/medford-share/data/pseudos_module/espresso/nninc/pbe/van/H.UPF
     MD5 check sum: b5ee9d7bfd3a09ee7748110bda690ff7
     Pseudo is Ultrasoft, Zval =  1.0
     Generated by new atomic code, or converted to UPF format
     Using radial grid of  615 points,  1 beta functions with:
                l(1) =   0
     Q(r) pseudized with  8 coefficients,  rinner =    0.800

     atomic species   valence    mass     pseudopotential
        Ti1           12.00    47.86700     Ti( 1.00)
        O1             6.00    15.99900     O ( 1.00)
        N1             5.00    14.00700     N ( 1.00)
        C1             4.00    12.01100     C ( 1.00)
        H1             1.00     1.00800     H ( 1.00)

     No symmetry found

   Cartesian axes

     site n.     atom                  positions (alat units)
         1           Ti1 tau(   1) = (   0.0004258   2.9801865   6.0000000  )
         2           Ti1 tau(   2) = (   3.2906075   1.4906267   6.0002472  )
         3           O1  tau(   3) = (   0.0006271   0.0005054   7.9858123  )
         4           O1  tau(   4) = (   3.2906025   0.0005020   7.3038282  )
         5           O1  tau(   5) = (   4.5942328   1.4918067   9.2879030  )
         6           O1  tau(   6) = (   1.9868534   1.4903216   9.2879459  )
         7           Ti1 tau(   7) = (   3.2907910   2.8959150   9.1758416  )
         8           Ti1 tau(   8) = (   0.0015273   1.4827037   9.2680791  )
         9           O1  tau(   9) = (   3.2740695   5.9399032  11.3612631  )
        10           O1  tau(  10) = (   0.0116148   5.9584955  10.6183126  )
        11           O1  tau(  11) = (   1.2665466   1.4659349  12.6457467  )
        12           O1  tau(  12) = (   5.2636777   1.4644475  12.6520517  )
        13           Ti1 tau(  13) = (   0.0254019   2.9535957  12.5508080  )
        14           Ti1 tau(  14) = (   3.3235577   1.4585364  12.5144190  )
        15           O1  tau(  15) = (   0.0066209   5.9388471  14.7046414  )
        16           O1  tau(  16) = (   3.2471877   5.9405099  14.0100224  )
        17           O1  tau(  17) = (   4.5302733   1.5208160  16.0462967  )
        18           O1  tau(  18) = (   1.9955500   1.4995475  16.2009832  )
        19           Ti1 tau(  19) = (   3.2567830   2.9699832  15.6929747  )
        20           Ti1 tau(  20) = (   6.4949666   1.4732860  15.8443191  )
        21           O1  tau(  21) = (   3.2904802   0.0005063   4.7018136  )
        22           O1  tau(  22) = (   6.4419287   5.8812218  17.2824568  )
        23           O1  tau(  23) = (   1.3043587   1.4918075   6.0039043  )
        24           O1  tau(  24) = (   5.2767064   1.4903225   6.0039473  )
        25           Ti1 tau(  25) = (   0.0000382   5.9609847   6.0000000  )
        26           Ti1 tau(  26) = (   3.2902200   4.4714249   6.0002472  )
        27           O1  tau(  27) = (   0.0002396   2.9813036   7.9858123  )
        28           O1  tau(  28) = (   3.2902150   2.9813002   7.3038282  )
        29           O1  tau(  29) = (   4.5938453   4.4726049   9.2879030  )
        30           O1  tau(  30) = (   1.9864658   4.4711199   9.2879459  )
        31           Ti1 tau(  31) = (   3.2891106   5.8743827   9.1763621  )
        32           Ti1 tau(  32) = (   0.0006254   4.4649316   9.2693709  )
        33           O1  tau(  33) = (   3.2800166   2.9600013  11.3546200  )
        34           O1  tau(  34) = (   0.0092240   2.9805883  10.6323155  )
        35           O1  tau(  35) = (   1.2663080   4.4508225  12.6496728  )
        36           O1  tau(  36) = (   5.2650692   4.4524444  12.6537221  )
        37           Ti1 tau(  37) = (   0.0180281   5.9297397  12.5120547  )
        38           Ti1 tau(  38) = (   3.3242103   4.4456960  12.5094407  )
        39           O1  tau(  39) = (   0.0028395   2.9305241  14.7702868  )
        40           O1  tau(  40) = (   3.2369197   2.9632653  13.9133312  )
        41           O1  tau(  41) = (   4.5259019   4.3784886  16.1008109  )
        42           O1  tau(  42) = (   2.0017919   4.4285960  16.1845674  )
        43           Ti1 tau(  43) = (   3.2453488   5.9423767  15.8283900  )
        44           Ti1 tau(  44) = (   6.5728488   4.6138345  16.0446011  )
        45           O1  tau(  45) = (   3.2900926   2.9813045   4.7018136  )
        46           O1  tau(  46) = (   1.3039711   4.4726057   6.0039043  )
        47           O1  tau(  47) = (   5.2763189   4.4711207   6.0039473  )
        48           N1  tau(  48) = (   0.9567011   2.5879941  18.4848429  )
        49           N1  tau(  49) = (   6.5285693   2.8362889  17.6364570  )
        50           C1  tau(  50) = (   1.0658718   2.8740630  19.7563100  )
        51           H1  tau(  51) = (   1.9437682   2.5238050  20.2723566  )
        52           H1  tau(  52) = (   0.2809834   3.4210577  20.2544045  )
        53           H1  tau(  53) = (   1.7014144   2.0656717  17.9989220  )
        54           H1  tau(  54) = (   5.6742842   3.0275795  18.1730567  )
        55           O1  tau(  55) = (   3.7618585   0.1297276  18.3074903  )
        56           H1  tau(  56) = (   4.7330396   0.0541995  18.1289380  )
        57           H1  tau(  57) = (   3.4892521   5.2388606  18.6788193  )

     number of k points=    10  Fermi-Dirac smearing, width (Ry)=  0.0073
                       cart. coord. in units 2pi/alat
        k(    1) = (   0.0000000   0.0000000   0.0000000), wk =   0.1250000
        k(    2) = (   0.0000000   0.0419351   0.0000000), wk =   0.2500000
        k(    3) = (   0.0000000  -0.0838702   0.0000000), wk =   0.1250000
        k(    4) = (   0.0379955   0.0000049   0.0000000), wk =   0.2500000
        k(    5) = (   0.0379955   0.0419400   0.0000000), wk =   0.2500000
        k(    6) = (   0.0379955  -0.0838652   0.0000000), wk =   0.2500000
        k(    7) = (   0.0379955  -0.0419301   0.0000000), wk =   0.2500000
        k(    8) = (  -0.0759910  -0.0000099   0.0000000), wk =   0.1250000
        k(    9) = (  -0.0759910   0.0419252   0.0000000), wk =   0.2500000
        k(   10) = (  -0.0759910  -0.0838800   0.0000000), wk =   0.1250000

     Initial potential from superposition of free atoms

     starting charge  387.99913, renormalised to  404.00000

     negative rho (up, down):  1.394E-02 0.000E+00

     %%%%%%%%%%%%%%%%%%%%%%%%%%%%%%%%%%%%%%%%%%%%%%%%%%%%%%%%%%%%%%%%%%%%%%%%
     %                                                                      %
     % You are using vdW-DF, which was implemented by the Thonhauser group. %
     % Please cite the following two papers that made this development      %
     % possible and the two reviews that describe the various versions:     %
     %                                                                      %
     %   T. Thonhauser et al., PRL 115, 136402 (2015).                      %
     %   T. Thonhauser et al., PRB 76, 125112 (2007).                       %
     %   K. Berland et al., Rep. Prog. Phys. 78, 066501 (2015).             %
     %   D.C. Langreth et al., J. Phys.: Condens. Matter 21, 084203 (2009). %
     %                                                                      %
     %                                                                      %
     % If you are calculating the stress with vdW-DF, please also cite:     %
     %                                                                      %
     %   R. Sabatini et al., J. Phys.: Condens. Matter 24, 424209 (2012).   %
     %                                                                      %
     %%%%%%%%%%%%%%%%%%%%%%%%%%%%%%%%%%%%%%%%%%%%%%%%%%%%%%%%%%%%%%%%%%%%%%%%

     Adding external electric field

     Computed dipole along edir(3) :
        Dipole              -14.1772 Ry au,        -36.0349 Debye
        Dipole field         -0.0268 Ry au,

        Potential amp.        2.4801 Ry
        Total length         46.3494 bohr

     Starting wfcs are  306 atomic wfcs
  @ DRIVER MODE: Message from server: STATUS
  @ DRIVER MODE: Message from server: POSDATA
  @ DRIVER MODE: Reading and sharing cell
  @ DRIVER MODE: Reading and sharing positions
  @ DRIVER MODE: Received positions

     Self-consistent Calculation

     iteration #  1     ecut=    29.40 Ry     beta= 0.05
     Davidson diagonalization with overlap
     c_bands:  4 eigenvalues not converged
     c_bands:  5 eigenvalues not converged
     c_bands:  2 eigenvalues not converged
     c_bands:  2 eigenvalues not converged
     c_bands:  1 eigenvalues not converged
     c_bands:  1 eigenvalues not converged
     c_bands:  4 eigenvalues not converged
     c_bands:  1 eigenvalues not converged
     c_bands:  1 eigenvalues not converged
     ethr =  1.00E-05,  avg # of iterations = 29.3

[...]

     total energy              =   -2249.23875099 Ry
     estimated scf accuracy    <    8255.87292801 Ry

     iteration #  2     ecut=    29.40 Ry     beta= 0.05
     Davidson diagonalization with overlap
     ethr =  1.00E-02,  avg # of iterations = 26.4

[...]

     iteration # 54     ecut=    29.40 Ry     beta= 0.05
     Davidson diagonalization with overlap
     c_bands:  1 eigenvalues not converged
     c_bands:  2 eigenvalues not converged
     c_bands:  2 eigenvalues not converged
     c_bands:  1 eigenvalues not converged
     ethr =  4.06E-11,  avg # of iterations = 17.2

[...]

     total energy              =   -2975.20138322 Ry
     estimated scf accuracy    <       0.00000008 Ry

     iteration # 56     ecut=    29.40 Ry     beta= 0.05
     Davidson diagonalization with overlap
     ethr =  2.01E-11,  avg # of iterations =  5.2

     negative rho (up, down):  1.355E-02 0.000E+00

     Adding external electric field

     Computed dipole along edir(3) :
        Dipole                1.4214 Ry au,          3.6127 Debye
        Dipole field          0.0027 Ry au,

        Potential amp.       -0.2486 Ry
        Total length         46.3494 bohr

     End of self-consistent calculation

          k = 0.0000 0.0000 0.0000 ( 18029 PWs)   bands (ev):

   -55.1430 -55.1150 -55.1063 -55.0808 -55.0777 -55.0290 -54.9871 -54.9546
   -54.9394 -54.9235 -54.9193 -54.9171 -54.9063 -54.8371 -54.1277 -54.0937
   -31.7059 -31.6048 -31.5222 -31.4788 -31.4611 -31.4538 -31.4437 -31.4415
   -31.4046 -31.3843 -31.3623 -31.3592 -31.3430 -31.3204 -31.3037 -31.2898
   -31.2841 -31.2677 -31.2650 -31.2557 -31.2263 -31.2130 -31.2091 -31.1844
   -31.1790 -31.1719 -31.1621 -31.1572 -31.1550 -31.1476 -31.1361 -31.1341
   -31.1122 -31.1038 -31.1004 -31.0941 -31.0837 -31.0707 -31.0682 -31.0526
   -31.0474 -31.0167 -30.5363 -30.4440 -30.4218 -30.3528 -30.2661 -30.1551
   -19.3418 -18.5931 -15.9608 -15.6963 -15.5657 -15.3994 -15.3352 -15.1640
   -15.0849 -15.0184 -14.9326 -14.8759 -14.8601 -14.8550 -14.7616 -14.7444
   -14.6924 -14.6781 -14.6717 -14.6406 -14.6322 -14.5754 -14.5703 -14.5665
   -14.5310 -14.5181 -14.4885 -14.3706 -14.2898 -14.2330 -14.0266 -13.6775
   -12.6302 -12.5131 -10.0220  -6.8374  -6.4913  -6.3674  -4.1172  -3.9084
    -3.3120  -3.1715  -3.1503  -3.0676  -3.0440  -2.9234  -2.8661  -2.7053
    -2.5967  -2.4990  -2.4092  -2.3395  -2.3316  -2.3033  -2.1870  -2.1248
    -2.0780  -2.0364  -2.0178  -2.0037  -1.9548  -1.9192  -1.9168  -1.8516
    -1.8485  -1.7106  -1.6165  -1.6120  -1.5781  -1.5617  -1.4735  -1.4517
    -1.4416  -1.4347  -1.4281  -1.4208  -1.3866  -1.3433  -1.3186  -1.2360
    -1.1799  -1.1370  -1.0056  -0.9050  -0.8309  -0.7730  -0.6846  -0.6814
    -0.6135  -0.5496  -0.5357  -0.5320  -0.4714  -0.3510  -0.3063  -0.2549
    -0.2333  -0.2089  -0.1185  -0.1019  -0.0320   0.0404   0.0698   0.0795
     0.1013   0.2733   0.2817   0.3112   0.3301   0.4199   0.4723   0.5134
     0.5198   0.5423   0.6080   0.6480   0.7394   0.7866   0.7975   0.8181
     0.8400   0.8784   0.9549   0.9647   1.0070   1.0301   1.1691   1.2042
     1.2545   1.4760   1.4786   1.8078   1.8479   1.8949   2.0811   2.4693
     2.5168   3.9561   4.0456   4.0846   4.0865   4.1057   4.1912   4.3289
     4.4371   4.4478   4.4596   4.4819

[...]

          k = 0.0380-0.0419 0.0000 ( 17876 PWs)   bands (ev):

[...]

          k =-0.0760-0.0000 0.0000 ( 17886 PWs)   bands (ev):

[...]

          k =-0.0760-0.0839 0.0000 ( 17948 PWs)   bands (ev):

   -55.1282 -55.1209 -55.0980 -55.0977 -55.0758 -55.0200 -54.9961 -54.9397
   -54.9333 -54.9248 -54.9235 -54.9228 -54.9139 -54.8406 -54.1107 -54.1105
   -31.5144 -31.5061 -31.4210 -31.4200 -31.4198 -31.4042 -31.3902 -31.3899
   -31.3664 -31.3646 -31.3582 -31.3515 -31.3404 -31.3103 -31.2803 -31.2736
   -31.2728 -31.2722 -31.2681 -31.2624 -31.2554 -31.2375 -31.2231 -31.2206
   -31.2176 -31.2174 -31.2170 -31.1954 -31.1730 -31.1645 -31.1643 -31.1535
   -31.1475 -31.1449 -31.1434 -31.1429 -31.1417 -31.1112 -31.1044 -31.1027
   -31.0911 -31.0603 -30.4346 -30.4344 -30.3490 -30.3488 -30.3095 -30.3094
   -19.3393 -18.5925 -15.4550 -15.2992 -15.2847 -15.1337 -15.1186 -15.1105
   -15.0865 -15.0115 -14.9925 -14.9285 -14.9154 -14.8719 -14.8446 -14.8324
   -14.8217 -14.7274 -14.7201 -14.7139 -14.6981 -14.6472 -14.6351 -14.6180
   -14.5948 -14.5907 -14.5540 -14.4894 -14.4862 -14.4562 -14.2286 -13.6880
   -12.6148 -12.6146 -10.0250  -6.8315  -6.4947  -6.3593  -4.0913  -3.8978
    -2.9380  -2.7197  -2.5246  -2.5063  -2.4609  -2.3659  -2.3246  -2.2838
    -2.1886  -2.1387  -2.1230  -2.1013  -2.0887  -2.0284  -2.0254  -2.0219
    -1.9847  -1.9763  -1.9626  -1.9373  -1.9155  -1.8829  -1.8679  -1.8562
    -1.8435  -1.8045  -1.7851  -1.7566  -1.7435  -1.7140  -1.6977  -1.6305
    -1.5248  -1.4952  -1.4415  -1.3500  -1.3300  -1.3242  -1.2394  -1.2078
    -1.1940  -1.1788  -1.1655  -1.1036  -0.9691  -0.8785  -0.8684  -0.8175
    -0.7517  -0.7178  -0.6750  -0.6488  -0.6220  -0.5682  -0.5171  -0.4941
    -0.4188  -0.3652  -0.3589  -0.3265  -0.1813  -0.1570  -0.1100  -0.1073
    -0.0936  -0.0848   0.0060   0.0227   0.0669   0.0870   0.1268   0.1454
     0.2178   0.2340   0.3540   0.4223   0.4845   0.5915   0.7311   0.7447
     0.8169   0.8775   0.9172   0.9835   1.0404   1.0712   1.1557   1.1668
     1.1793   1.2849   1.3343   1.3408   1.3576   2.2535   2.2551   2.3367
     2.3368   4.1179   4.1426   4.2293   4.2441   4.2962   4.3778   4.4683
     4.4946   4.5297   4.5339   4.6145

     the Fermi energy is     4.0044 ev

!    total energy              =   -2975.20146696 Ry
     estimated scf accuracy    <       0.00000005 Ry
     smearing contrib. (-TS)   =      -0.03820019 Ry
     internal energy E=F+TS    =   -2975.16326676 Ry

     The total energy is F=E-TS. E is the sum of the following terms:
     one-electron contribution =  -23646.50537148 Ry
     hartree contribution      =   11921.42201273 Ry
     xc contribution           =    -494.97741736 Ry
     ewald contribution        =    9244.89369683 Ry
     electric field correction =       0.00381251 Ry

     convergence has been achieved in  56 iterations

     Forces acting on atoms (cartesian axes, Ry/au):

     atom    1 type  1   force =     0.00013807   -0.00014064    0.09425754
     atom    2 type  1   force =    -0.00023032   -0.00027948   -0.17725867
     atom    3 type  2   force =     0.00001966   -0.00026344   -0.02171161
     atom    4 type  2   force =    -0.00004220   -0.00184617    0.05693550
     atom    5 type  2   force =    -0.01106979   -0.00171503    0.00686377
     atom    6 type  2   force =     0.01216060   -0.00091062    0.00493188
     atom    7 type  1   force =    -0.00121350    0.00155979   -0.01215641
     atom    8 type  1   force =     0.00073290    0.00495402    0.00604250
     atom    9 type  2   force =     0.00027317    0.00050652    0.00032605
     atom   10 type  2   force =    -0.00307119   -0.00067749   -0.00505367
     atom   11 type  2   force =     0.00079898    0.00021586   -0.00022943
     atom   12 type  2   force =    -0.00005128    0.00050690    0.00001987
     atom   13 type  1   force =    -0.00024692    0.00010995   -0.00018721
     atom   14 type  1   force =    -0.00001165    0.00012353   -0.00012711
     atom   15 type  2   force =     0.00002680   -0.00002906    0.00046007
     atom   16 type  2   force =     0.00041608    0.00036269   -0.00009367
     atom   17 type  2   force =     0.00060748    0.00006854    0.00064461
     atom   18 type  2   force =     0.00012925   -0.00024231    0.00022350
     atom   19 type  1   force =     0.00016854    0.00036677   -0.00026649
     atom   20 type  1   force =     0.00037955    0.00021151   -0.00036061
     atom   21 type  2   force =     0.00005035    0.00001983    0.10368734
     atom   22 type  2   force =     0.00049179    0.00011737    0.00010582
     atom   23 type  2   force =    -0.07085292   -0.00009664   -0.02720502
     atom   24 type  2   force =     0.07068915    0.00038597   -0.02724347
     atom   25 type  1   force =    -0.00007128   -0.00029179    0.09396013
     atom   26 type  1   force =    -0.00031640   -0.00037284   -0.17744973
     atom   27 type  2   force =     0.00001040   -0.00023401   -0.02074697
     atom   28 type  2   force =     0.00003804   -0.00149043    0.05596962
     atom   29 type  2   force =    -0.01134672   -0.00053117    0.00689799
     atom   30 type  2   force =     0.01230979   -0.00025296    0.00492084
     atom   31 type  1   force =    -0.00121554    0.00507299   -0.01495069
     atom   32 type  1   force =     0.00093317   -0.00600367    0.00586518
     atom   33 type  2   force =     0.00035846   -0.00013275    0.00011250
     atom   34 type  2   force =    -0.00261265   -0.00151797   -0.00576266
     atom   35 type  2   force =     0.00035908    0.00030375   -0.00030245
     atom   36 type  2   force =     0.00045848    0.00040990   -0.00006114
     atom   37 type  1   force =    -0.00017508   -0.00013941   -0.00026326
     atom   38 type  1   force =     0.00006333    0.00033261    0.00040290
     atom   39 type  2   force =    -0.00001398    0.00092865   -0.00059019
     atom   40 type  2   force =     0.00004599   -0.00008841    0.00009728
     atom   41 type  2   force =     0.00125338    0.00028374    0.00073379
     atom   42 type  2   force =    -0.00076866    0.00027536   -0.00010524
     atom   43 type  1   force =     0.00035185   -0.00076962   -0.00000316
     atom   44 type  1   force =     0.00038157    0.00031081   -0.00135652
     atom   45 type  2   force =     0.00001642   -0.00002320    0.10366529
     atom   46 type  2   force =    -0.07084568   -0.00000209   -0.02722013
     atom   47 type  2   force =     0.07067626    0.00040402   -0.02721498
     atom   48 type  3   force =     0.00722672   -0.00173191    0.00444931
     atom   49 type  3   force =    -0.02031253    0.00399113    0.00112569
     atom   50 type  4   force =     0.00045218   -0.00024732    0.00069416
     atom   51 type  5   force =    -0.00023681   -0.00018319    0.00008439
     atom   52 type  5   force =     0.00022803   -0.00062297   -0.00028777
     atom   53 type  5   force =     0.00080344    0.00035108    0.00108944
     atom   54 type  5   force =     0.01109728   -0.00134371   -0.00658794
     atom   55 type  2   force =     0.00010995    0.00022210    0.00007402
     atom   56 type  5   force =     0.00066736   -0.00022587   -0.00053441
     atom   57 type  5   force =    -0.00021847    0.00001081    0.00068963

     Total force =     0.366604     Total SCF correction =     0.000544
  @ DRIVER MODE: Message from server: STATUS
  @ DRIVER MODE: Message from server: GETFORCE
  @ DRIVER MODE: Returning v,forces,stress,ensemble

     Writing output data file ./calc.save/
  @ DRIVER MODE: Message from server: EXIT
  @ DRIVE MODE: Exiting

     General routines

     Parallel routines

   This run was terminated on:  18:51:28  22Sep2021

   JOB DONE.