     Program PWSCF v.6.7GPU starts on 28Sep2021 at 18:30:32

     R & G space division:  proc/nbgrp/npool/nimage =       8
     Reading input from /storage/home/hcoda1/3/ntian30/research/carbon/CxH_vib/H2O_calc/ads_slab/CHHO_a/out_0014/pw.inp
Warning: card &CELL ignored
Warning: card   CELL_DYNAMICS='IPI', ignored
Warning: card / ignored

     Current dimensions of program PWSCF are:
     Max number of different atomic species (ntypx) = 10
     Max number of k-points (npk) =  40000
     Max angular momentum in pseudopotentials (lmaxx) =  3
     Presently no symmetry can be used with electric field

     Message from routine cell_base_init:
     DEPRECATED: use true lattice parameter, not A to a.u. conversion factor

     IMPORTANT: XC functional enforced from input :
     Exchange-correlation= BEEF-VDW
                           (   1   4  43  14   2   0   0)
     Any further DFT definition will be discarded
     Please, verify this is what you really want

  @ DRIVER MODE: Connecting to
 qe_1139763_3011330.sched-torque.pace.gatech.edu3s_63qq7_scratch
  using UNIX socket
  @ DRIVER MODE: Message from server: STATUS
  @ DRIVER MODE: Message from server: INIT
  @ DRIVER MODE: Receiving replica           0          -1
  @ DRIVER MODE: Receiving encoded integer          25
  @ DRIVER MODE:  SCF:  T  FORCE:  T  STRESS:  F  VC:  F  ENSEMBLE:  F
  @ DRIVER MODE:  SCF:  T  FORCE:  T  STRESS:  F  VC:  F  ENSEMBLE:  F

     Using Slab Decomposition

     bravais-lattice index     =            0
     lattice parameter (alat)  =       1.8897  a.u.
     unit-cell volume          =    6658.9804 (a.u.)^3
     number of atoms/cell      =           51
     number of atomic types    =            4
     number of electrons       =       390.00
     number of Kohn-Sham states=          205
     kinetic-energy cutoff     =      29.3995  Ry
     charge density cutoff     =     293.9946  Ry
     scf convergence threshold =      7.3E-08
     mixing beta               =       0.0500
     number of iterations used =            8  plain     mixing
     Exchange-correlation= BEEF-VDW
                           (   1   4  43  14   2   0   0)

     celldm(1)=   1.889726  celldm(2)=   0.000000  celldm(3)=   0.000000
     celldm(4)=   0.000000  celldm(5)=   0.000000  celldm(6)=   0.000000

     crystal axes: (cart. coord. in units of alat)
               a(1) = (   6.579727   0.000000   0.000000 )
               a(2) = (  -0.000775   5.961596   0.000000 )
               a(3) = (   0.000000   0.000000  25.155947 )

     reciprocal axes: (cart. coord. in units 2 pi/alat)
               b(1) = (  0.151982  0.000020  0.000000 )
               b(2) = (  0.000000  0.167740  0.000000 )
               b(3) = (  0.000000  0.000000  0.039752 )

     PseudoPot. # 1 for Ti read from file:
     /storage/coda1/p-amedford6/0/shared/rich_project_chbe-medford/medford-share/data/pseudos_module/espresso/nninc/pbe/van/Ti.UPF
     MD5 check sum: 8e4df49b7f0d34bbd5052bf3f5ea0213
     Pseudo is Ultrasoft, Zval = 12.0
     Generated by new atomic code, or converted to UPF format
     Using radial grid of  851 points,  6 beta functions with:
                l(1) =   0
                l(2) =   0
                l(3) =   1
                l(4) =   1
                l(5) =   2
                l(6) =   2
     Q(r) pseudized with  8 coefficients,  rinner =    1.000   1.000   1.000
                                                       1.000   1.000

     PseudoPot. # 2 for O  read from file:
     /storage/coda1/p-amedford6/0/shared/rich_project_chbe-medford/medford-share/data/pseudos_module/espresso/nninc/pbe/van/O.UPF
     MD5 check sum: 78c19812648e8988a0fe644b0f25305e
     Pseudo is Ultrasoft, Zval =  6.0
     Generated by new atomic code, or converted to UPF format
     Using radial grid of  737 points,  4 beta functions with:
                l(1) =   0
                l(2) =   0
                l(3) =   1
                l(4) =   1
     Q(r) pseudized with  8 coefficients,  rinner =    0.800   0.800   0.800

     PseudoPot. # 3 for C  read from file:
     /storage/coda1/p-amedford6/0/shared/rich_project_chbe-medford/medford-share/data/pseudos_module/espresso/nninc/pbe/van/C.UPF
     MD5 check sum: 1a69bf6b8db32088f5b2163dbdb77a27
     Pseudo is Ultrasoft, Zval =  4.0
     Generated by new atomic code, or converted to UPF format
     Using radial grid of  721 points,  4 beta functions with:
                l(1) =   0
                l(2) =   0
                l(3) =   1
                l(4) =   1
     Q(r) pseudized with  8 coefficients,  rinner =    0.800   0.800   0.800

     PseudoPot. # 4 for H  read from file:
     /storage/coda1/p-amedford6/0/shared/rich_project_chbe-medford/medford-share/data/pseudos_module/espresso/nninc/pbe/van/H.UPF
     MD5 check sum: b5ee9d7bfd3a09ee7748110bda690ff7
     Pseudo is Ultrasoft, Zval =  1.0
     Generated by new atomic code, or converted to UPF format
     Using radial grid of  615 points,  1 beta functions with:
                l(1) =   0
     Q(r) pseudized with  8 coefficients,  rinner =    0.800

     atomic species   valence    mass     pseudopotential
        Ti1           12.00    47.86700     Ti( 1.00)
        O1             6.00    15.99900     O ( 1.00)
        C1             4.00    12.01100     C ( 1.00)
        H1             1.00     1.00800     H ( 1.00)

     No symmetry found

   Cartesian axes

     site n.     atom                  positions (alat units)
         1           Ti1 tau(   1) = (   0.0004258   2.9801865   6.0000000  )
         2           Ti1 tau(   2) = (   3.2906075   1.4906267   6.0002472  )
         3           O1  tau(   3) = (   0.0006271   0.0005054   7.9858123  )
         4           O1  tau(   4) = (   3.2906025   0.0005020   7.3038282  )
         5           O1  tau(   5) = (   4.5942328   1.4918067   9.2879030  )
         6           O1  tau(   6) = (   1.9868534   1.4903216   9.2879459  )
         7           Ti1 tau(   7) = (   3.2576716   2.8711746   9.2039182  )
         8           Ti1 tau(   8) = (   6.5366639   1.4374725   9.3495247  )
         9           O1  tau(   9) = (   3.2654967   5.9220709  11.3209648  )
        10           O1  tau(  10) = (   0.0059489   5.9503157  10.5690854  )
        11           O1  tau(  11) = (   1.2710110   1.4830968  12.6026389  )
        12           O1  tau(  12) = (   5.2956248   1.4563849  12.6219738  )
        13           Ti1 tau(  13) = (   6.4707115   3.0232854  12.7046045  )
        14           Ti1 tau(  14) = (   3.3012427   1.2792539  12.6712786  )
        15           O1  tau(  15) = (   0.1208522   5.9439793  14.6184240  )
        16           O1  tau(  16) = (   3.2955454   0.0555021  13.9474554  )
        17           O1  tau(  17) = (   4.3710900   1.5417649  16.0729971  )
        18           O1  tau(  18) = (   1.7386421   2.0841158  16.4311239  )
        19           Ti1 tau(  19) = (   3.2301957   3.0269898  15.6570758  )
        20           Ti1 tau(  20) = (   6.3022331   1.4673853  15.8568112  )
        21           O1  tau(  21) = (   3.2904802   0.0005063   4.7018136  )
        22           O1  tau(  22) = (   6.3638003   5.9514110  17.1305022  )
        23           O1  tau(  23) = (   1.3043587   1.4918075   6.0039043  )
        24           O1  tau(  24) = (   5.2767064   1.4903225   6.0039473  )
        25           Ti1 tau(  25) = (   0.0000382   5.9609847   6.0000000  )
        26           Ti1 tau(  26) = (   3.2902200   4.4714249   6.0002472  )
        27           O1  tau(  27) = (   0.0002396   2.9813036   7.9858123  )
        28           O1  tau(  28) = (   3.2902150   2.9813002   7.3038282  )
        29           O1  tau(  29) = (   4.5938453   4.4726049   9.2879030  )
        30           O1  tau(  30) = (   1.9864658   4.4711199   9.2879459  )
        31           Ti1 tau(  31) = (   3.2576593   5.8570409   9.1743550  )
        32           Ti1 tau(  32) = (   6.5358986   4.4093296   9.3482377  )
        33           O1  tau(  33) = (   3.2940825   2.9875588  11.2901943  )
        34           O1  tau(  34) = (   6.5570357   2.9690702  10.5578446  )
        35           O1  tau(  35) = (   1.2556184   4.4285683  12.6007990  )
        36           O1  tau(  36) = (   5.2653856   4.4527926  12.6146307  )
        37           Ti1 tau(  37) = (   0.0986422   0.0400065  12.6561080  )
        38           Ti1 tau(  38) = (   3.2648468   4.3768915  12.4074939  )
        39           O1  tau(  39) = (   6.4357771   2.9845043  14.6319670  )
        40           O1  tau(  40) = (   3.2191030   2.9668167  13.8952198  )
        41           O1  tau(  41) = (   4.5664177   4.3244647  16.1555655  )
        42           O1  tau(  42) = (   2.0966903   4.6357478  16.0503417  )
        43           Ti1 tau(  43) = (   3.4732119   5.7943257  16.4097380  )
        44           Ti1 tau(  44) = (   0.0705528   4.5403211  16.0661977  )
        45           O1  tau(  45) = (   3.2900926   2.9813045   4.7018136  )
        46           O1  tau(  46) = (   1.3039711   4.4726057   6.0039043  )
        47           O1  tau(  47) = (   5.2763189   4.4711207   6.0039473  )
        48           C1  tau(  48) = (   0.6899253   2.7405959  17.1512775  )
        49           H1  tau(  49) = (   0.8031679   2.6269330  18.2321311  )
        50           O1  tau(  50) = (   3.3489373   5.9192928  18.2161996  )
        51           H1  tau(  51) = (   4.0498012   0.2866715  18.7870949  )

     number of k points=    10  Fermi-Dirac smearing, width (Ry)=  0.0073
                       cart. coord. in units 2pi/alat
        k(    1) = (   0.0000000   0.0000000   0.0000000), wk =   0.1250000
        k(    2) = (   0.0000000   0.0419351   0.0000000), wk =   0.2500000
        k(    3) = (   0.0000000  -0.0838702   0.0000000), wk =   0.1250000
        k(    4) = (   0.0379955   0.0000049   0.0000000), wk =   0.2500000
        k(    5) = (   0.0379955   0.0419400   0.0000000), wk =   0.2500000
        k(    6) = (   0.0379955  -0.0838652   0.0000000), wk =   0.2500000
        k(    7) = (   0.0379955  -0.0419301   0.0000000), wk =   0.2500000
        k(    8) = (  -0.0759910  -0.0000099   0.0000000), wk =   0.1250000
        k(    9) = (  -0.0759910   0.0419252   0.0000000), wk =   0.2500000
        k(   10) = (  -0.0759910  -0.0838800   0.0000000), wk =   0.1250000

     Initial potential from superposition of free atoms

     starting charge  373.99919, renormalised to  390.00000

     negative rho (up, down):  1.956E-02 0.000E+00

     %%%%%%%%%%%%%%%%%%%%%%%%%%%%%%%%%%%%%%%%%%%%%%%%%%%%%%%%%%%%%%%%%%%%%%%%
     %                                                                      %
     % You are using vdW-DF, which was implemented by the Thonhauser group. %
     % Please cite the following two papers that made this development      %
     % possible and the two reviews that describe the various versions:     %
     %                                                                      %
     %   T. Thonhauser et al., PRL 115, 136402 (2015).                      %
     %   T. Thonhauser et al., PRB 76, 125112 (2007).                       %
     %   K. Berland et al., Rep. Prog. Phys. 78, 066501 (2015).             %
     %   D.C. Langreth et al., J. Phys.: Condens. Matter 21, 084203 (2009). %
     %                                                                      %
     %                                                                      %
     % If you are calculating the stress with vdW-DF, please also cite:     %
     %                                                                      %
     %   R. Sabatini et al., J. Phys.: Condens. Matter 24, 424209 (2012).   %
     %                                                                      %
     %%%%%%%%%%%%%%%%%%%%%%%%%%%%%%%%%%%%%%%%%%%%%%%%%%%%%%%%%%%%%%%%%%%%%%%%

     Adding external electric field

     Computed dipole along edir(3) :
        Dipole               -3.9292 Ry au,         -9.9870 Debye
        Dipole field         -0.0074 Ry au,

        Potential amp.        0.6874 Ry
        Total length         46.3494 bohr

     Starting wfcs are  294 atomic wfcs
  @ DRIVER MODE: Message from server: STATUS
  @ DRIVER MODE: Message from server: POSDATA
  @ DRIVER MODE: Reading and sharing cell
  @ DRIVER MODE: Reading and sharing positions
  @ DRIVER MODE: Received positions

     Self-consistent Calculation

     iteration #  1     ecut=    29.40 Ry     beta= 0.05
     Davidson diagonalization with overlap
     c_bands:  5 eigenvalues not converged
     c_bands:  2 eigenvalues not converged
     c_bands:  4 eigenvalues not converged
     c_bands:  4 eigenvalues not converged
     c_bands:  1 eigenvalues not converged
     c_bands:  4 eigenvalues not converged
     c_bands:  1 eigenvalues not converged
     c_bands:  1 eigenvalues not converged
     c_bands:  3 eigenvalues not converged
     ethr =  1.00E-05,  avg # of iterations = 20.8

[...]

     total energy              =   -2904.75787091 Ry
     estimated scf accuracy    <     308.02792096 Ry

     iteration #  2     ecut=    29.40 Ry     beta= 0.05
     Davidson diagonalization with overlap
     ethr =  1.00E-02,  avg # of iterations = 12.1

[...]

     iteration # 29     ecut=    29.40 Ry     beta= 0.05
     Davidson diagonalization with overlap
     c_bands:  1 eigenvalues not converged
     ethr =  2.00E-07,  avg # of iterations =  7.9

[...]

     total energy              =   -2930.00822078 Ry
     estimated scf accuracy    <       0.00000039 Ry

     iteration # 49     ecut=    29.40 Ry     beta= 0.05
     Davidson diagonalization with overlap
     ethr =  9.91E-11,  avg # of iterations =  6.3

     negative rho (up, down):  1.952E-02 0.000E+00

     Adding external electric field

     Computed dipole along edir(3) :
        Dipole                0.5451 Ry au,          1.3856 Debye
        Dipole field          0.0010 Ry au,

        Potential amp.       -0.0954 Ry
        Total length         46.3494 bohr

     End of self-consistent calculation

          k = 0.0000 0.0000 0.0000 ( 18029 PWs)   bands (ev):

   -56.4312 -56.3961 -56.1707 -55.9775 -55.8974 -55.8728 -55.8594 -55.8298
   -55.7724 -55.7293 -55.7279 -55.5622 -55.4823 -55.4365 -55.1229 -55.0890
   -32.8560 -32.6958 -32.6654 -32.6412 -32.6117 -32.5407 -32.5204 -32.4826
   -32.3982 -32.3833 -32.3821 -32.3772 -32.2640 -32.2454 -32.2250 -32.2015
   -32.1691 -32.1381 -32.1141 -32.0812 -32.0724 -32.0629 -32.0331 -32.0326
   -32.0243 -32.0037 -31.9889 -31.9846 -31.9838 -31.9664 -31.9320 -31.9283
   -31.9184 -31.8867 -31.8312 -31.8183 -31.8014 -31.7943 -31.7719 -31.7143
   -31.6129 -31.5199 -31.4967 -31.4578 -31.4337 -31.3373 -31.2522 -31.1408
   -18.1625 -17.1433 -16.7845 -16.6479 -16.5110 -16.3168 -16.2625 -16.1356
   -15.9520 -15.8528 -15.7849 -15.7445 -15.6659 -15.6636 -15.5829 -15.5314
   -15.5151 -15.4818 -15.4612 -15.4310 -15.3823 -15.3783 -15.3196 -15.2829
   -15.2384 -15.1849 -15.1324 -15.0496 -15.0058 -14.8172 -13.6220 -13.5112
    -8.0261  -4.8536  -4.5553  -4.1559  -4.0501  -4.0141  -3.8918  -3.7555
    -3.7022  -3.6358  -3.4232  -3.4027  -3.3030  -3.2404  -3.2225  -3.1374
    -3.0867  -3.0298  -3.0241  -2.9594  -2.9156  -2.8817  -2.8348  -2.7841
    -2.6961  -2.6893  -2.6652  -2.6013  -2.5866  -2.4851  -2.4765  -2.3776
    -2.3606  -2.3532  -2.3328  -2.3024  -2.2733  -2.1733  -2.1594  -2.1168
    -2.0208  -2.0017  -1.8987  -1.7831  -1.6792  -1.6700  -1.6430  -1.5508
    -1.5055  -1.4937  -1.4575  -1.4103  -1.3851  -1.3273  -1.2800  -1.2225
    -1.1781  -1.0625  -1.0105  -0.9630  -0.8798  -0.8584  -0.7922  -0.7734
    -0.6730  -0.6425  -0.5886  -0.5745  -0.5389  -0.4643  -0.3843  -0.3514
    -0.3253  -0.2724  -0.2369  -0.1795  -0.1617  -0.1525  -0.1130  -0.0755
    -0.0424   0.0405   0.0514   0.1193   0.2052   0.2973   0.3261   0.4270
     0.4599   0.5946   0.6301   0.8681   0.8984   0.9077   1.0917   1.1382
     1.4591   1.5097   2.1992   2.8484   2.9975   3.2801   3.2868   3.3533
     3.4005   3.4943   3.5433   3.6320   3.7362

[...]

          k = 0.0380-0.0419 0.0000 ( 17876 PWs)   bands (ev):

[...]

          k =-0.0760-0.0000 0.0000 ( 17886 PWs)   bands (ev):

[...]

          k =-0.0760-0.0839 0.0000 ( 17948 PWs)   bands (ev):

   -56.4187 -56.4084 -56.1698 -55.9782 -55.8872 -55.8695 -55.8638 -55.8385
   -55.7644 -55.7364 -55.7271 -55.5638 -55.4763 -55.4424 -55.1061 -55.1056
   -32.6864 -32.6777 -32.6739 -32.6685 -32.5945 -32.5685 -32.5603 -32.5252
   -32.4142 -32.3648 -32.3040 -32.2113 -32.2051 -32.2005 -32.1936 -32.1782
   -32.1349 -32.1135 -32.1113 -32.0995 -32.0979 -32.0952 -32.0853 -32.0606
   -32.0478 -32.0304 -32.0185 -32.0095 -31.9854 -31.9825 -31.9648 -31.9410
   -31.9246 -31.9123 -31.8953 -31.8269 -31.8207 -31.8086 -31.7766 -31.7699
   -31.5995 -31.5475 -31.4469 -31.4465 -31.3351 -31.3335 -31.2946 -31.2938
   -18.1239 -17.1334 -16.4805 -16.4508 -16.2415 -16.1387 -15.9678 -15.9445
   -15.9401 -15.9072 -15.8525 -15.8387 -15.8218 -15.6734 -15.6501 -15.6338
   -15.5714 -15.5043 -15.4624 -15.4361 -15.4120 -15.3751 -15.3596 -15.3482
   -15.3465 -15.3311 -15.2772 -15.1988 -15.1827 -14.9375 -13.6148 -13.6140
    -8.0250  -4.8485  -4.3738  -3.7420  -3.5413  -3.4740  -3.4364  -3.2764
    -3.1851  -3.1747  -3.1044  -3.0924  -3.0432  -3.0054  -2.9673  -2.9365
    -2.9182  -2.8683  -2.8575  -2.8212  -2.7949  -2.7725  -2.7642  -2.7529
    -2.7276  -2.7214  -2.7034  -2.6906  -2.6708  -2.6495  -2.6147  -2.5711
    -2.5064  -2.4355  -2.3023  -2.2867  -2.2627  -2.1917  -2.1722  -2.1209
    -2.1050  -2.0845  -2.0659  -2.0179  -1.9836  -1.9570  -1.7033  -1.6823
    -1.6279  -1.5765  -1.5218  -1.4911  -1.4605  -1.4451  -1.3832  -1.2771
    -1.2383  -1.2012  -1.1831  -1.1617  -1.1572  -1.0804  -1.0539  -0.9932
    -0.9452  -0.9150  -0.8386  -0.8028  -0.7712  -0.7511  -0.6931  -0.6309
    -0.6161  -0.5376  -0.4906  -0.4716  -0.4146  -0.2763  -0.2456  -0.1430
    -0.0922  -0.0535   0.0529   0.1741   0.2401   0.2457   0.3572   0.3844
     0.4026   0.5012   0.5536   0.5733   0.6115   0.7580   1.2850   1.2996
     1.3094   1.3109   2.3458   3.3855   3.3984   3.4041   3.4140   3.4335
     3.5446   3.6126   3.6770   3.7551   3.7970

     the Fermi energy is     2.6317 ev

!    total energy              =   -2930.00833650 Ry
     estimated scf accuracy    <       0.00000006 Ry
     smearing contrib. (-TS)   =      -0.00366305 Ry
     internal energy E=F+TS    =   -2930.00467345 Ry

     The total energy is F=E-TS. E is the sum of the following terms:
     one-electron contribution =  -24473.18627518 Ry
     hartree contribution      =   12320.27184857 Ry
     xc contribution           =    -481.34729439 Ry
     ewald contribution        =    9704.25648675 Ry
     electric field correction =       0.00056080 Ry

     convergence has been achieved in  49 iterations

     Forces acting on atoms (cartesian axes, Ry/au):

     atom    1 type  1   force =     0.00045782   -0.00033270    0.13415627
     atom    2 type  1   force =     0.00011896    0.00528727   -0.16228986
     atom    3 type  2   force =    -0.00070686    0.00272785   -0.05105391
     atom    4 type  2   force =    -0.00084273   -0.00120889    0.04171095
     atom    5 type  2   force =    -0.01387049   -0.00296251    0.00212868
     atom    6 type  2   force =     0.01179617   -0.00438921    0.00140291
     atom    7 type  1   force =     0.00053163   -0.00030156   -0.00024647
     atom    8 type  1   force =    -0.00007298   -0.00038508    0.00021919
     atom    9 type  2   force =     0.00017964   -0.00023862   -0.00005443
     atom   10 type  2   force =    -0.00025971    0.00015614   -0.00037492
     atom   11 type  2   force =     0.00016024   -0.00095559    0.00007610
     atom   12 type  2   force =    -0.00072968    0.00012452    0.00013831
     atom   13 type  1   force =     0.00064932    0.00021112    0.00007143
     atom   14 type  1   force =    -0.00003362   -0.00010624    0.00044205
     atom   15 type  2   force =     0.00037103   -0.00008573   -0.00024217
     atom   16 type  2   force =     0.00085078    0.00008533   -0.00016371
     atom   17 type  2   force =     0.00075965   -0.00026042    0.00023132
     atom   18 type  2   force =     0.00054418   -0.00027032   -0.00001594
     atom   19 type  1   force =     0.00004150    0.00071652   -0.00002695
     atom   20 type  1   force =    -0.00003550   -0.00005775    0.00079444
     atom   21 type  2   force =     0.00019747    0.00006072    0.10035512
     atom   22 type  2   force =     0.00028067   -0.00044340   -0.00029830
     atom   23 type  2   force =    -0.07800104    0.00019734   -0.03358505
     atom   24 type  2   force =     0.07804296    0.00070755   -0.03360245
     atom   25 type  1   force =     0.00016967   -0.00022240    0.13671716
     atom   26 type  1   force =     0.00017813   -0.00663528   -0.16252747
     atom   27 type  2   force =     0.00014387    0.00093241   -0.05022545
     atom   28 type  2   force =    -0.00050937   -0.00055677    0.04263561
     atom   29 type  2   force =    -0.01247757    0.00585396    0.00019889
     atom   30 type  2   force =     0.01102104   -0.00027205   -0.00033830
     atom   31 type  1   force =     0.00029681   -0.00026202   -0.00023204
     atom   32 type  1   force =    -0.00023013    0.00014565    0.00016646
     atom   33 type  2   force =    -0.00027543    0.00009890    0.00007462
     atom   34 type  2   force =     0.00037282   -0.00021163   -0.00033515
     atom   35 type  2   force =     0.00135282    0.00038491   -0.00012022
     atom   36 type  2   force =    -0.00057747   -0.00012802   -0.00032517
     atom   37 type  1   force =    -0.00050421    0.00078451   -0.00038806
     atom   38 type  1   force =    -0.00028009    0.00033107   -0.00033844
     atom   39 type  2   force =     0.00062490   -0.00023454    0.00000918
     atom   40 type  2   force =    -0.00006144    0.00016914   -0.00066381
     atom   41 type  2   force =     0.00098890   -0.00047935    0.00014487
     atom   42 type  2   force =    -0.00024660    0.00041507    0.00014217
     atom   43 type  1   force =     0.00132835   -0.00046497    0.00180602
     atom   44 type  1   force =     0.00024371    0.00090536    0.00073375
     atom   45 type  2   force =     0.00016265   -0.00002399    0.09987124
     atom   46 type  2   force =    -0.07801968    0.00000714   -0.03359773
     atom   47 type  2   force =     0.07806670    0.00053297   -0.03363529
     atom   48 type  3   force =     0.00007406    0.00023703    0.00145793
     atom   49 type  4   force =    -0.00114493    0.00036296   -0.00076871
     atom   50 type  2   force =    -0.01286861   -0.00553587   -0.00756566
     atom   51 type  4   force =     0.01174168    0.00558948    0.00733098

     Total force =     0.385113     Total SCF correction =     0.000529
  @ DRIVER MODE: Message from server: STATUS
  @ DRIVER MODE: Message from server: GETFORCE
  @ DRIVER MODE: Returning v,forces,stress,ensemble

     Writing output data file ./calc.save/
  @ DRIVER MODE: Message from server: EXIT
  @ DRIVE MODE: Exiting

     General routines

     Parallel routines

   This run was terminated on:  18:46:44  28Sep2021

   JOB DONE.