     Program PWSCF v.6.7GPU starts on 10Sep2021 at  2:22: 0

     R & G space division:  proc/nbgrp/npool/nimage =      10
     Reading input from /storage/home/hcoda1/3/ntian30/research/carbon/CxH_vib/CH3_calc/ads_slab/CH3N2OH_j/out_0018/pw.inp
Warning: card &CELL ignored
Warning: card   CELL_DYNAMICS='IPI', ignored
Warning: card / ignored

     Current dimensions of program PWSCF are:
     Max number of different atomic species (ntypx) = 10
     Max number of k-points (npk) =  40000
     Max angular momentum in pseudopotentials (lmaxx) =  3
     Presently no symmetry can be used with electric field

     Message from routine cell_base_init:
     DEPRECATED: use true lattice parameter, not A to a.u. conversion factor

     IMPORTANT: XC functional enforced from input :
     Exchange-correlation= BEEF-VDW
                           (   1   4  43  14   2   0   0)
     Any further DFT definition will be discarded
     Please, verify this is what you really want

  @ DRIVER MODE: Connecting to
 qe_1139763_2779713.sched-torque.pace.gatech.edu29unxs28_scratch
  using UNIX socket
  @ DRIVER MODE: Message from server: STATUS
  @ DRIVER MODE: Message from server: INIT
  @ DRIVER MODE: Receiving replica           0          -1
  @ DRIVER MODE: Receiving encoded integer          25
  @ DRIVER MODE:  SCF:  T  FORCE:  T  STRESS:  F  VC:  F  ENSEMBLE:  F
  @ DRIVER MODE:  SCF:  T  FORCE:  T  STRESS:  F  VC:  F  ENSEMBLE:  F

     Using Slab Decomposition

     bravais-lattice index     =            0
     lattice parameter (alat)  =       1.8897  a.u.
     unit-cell volume          =    6658.9804 (a.u.)^3
     number of atoms/cell      =           55
     number of atomic types    =            5
     number of electrons       =       402.00
     number of Kohn-Sham states=          211
     kinetic-energy cutoff     =      29.3995  Ry
     charge density cutoff     =     293.9946  Ry
     scf convergence threshold =      7.3E-08
     mixing beta               =       0.0500
     number of iterations used =            8  plain     mixing
     Exchange-correlation= BEEF-VDW
                           (   1   4  43  14   2   0   0)

     celldm(1)=   1.889726  celldm(2)=   0.000000  celldm(3)=   0.000000
     celldm(4)=   0.000000  celldm(5)=   0.000000  celldm(6)=   0.000000

     crystal axes: (cart. coord. in units of alat)
               a(1) = (   6.579727   0.000000   0.000000 )
               a(2) = (  -0.000775   5.961596   0.000000 )
               a(3) = (   0.000000   0.000000  25.155947 )

     reciprocal axes: (cart. coord. in units 2 pi/alat)
               b(1) = (  0.151982  0.000020  0.000000 )
               b(2) = (  0.000000  0.167740  0.000000 )
               b(3) = (  0.000000  0.000000  0.039752 )

     PseudoPot. # 1 for Ti read from file:
     /storage/coda1/p-amedford6/0/shared/rich_project_chbe-medford/medford-share/data/pseudos_module/espresso/nninc/pbe/van/Ti.UPF
     MD5 check sum: 8e4df49b7f0d34bbd5052bf3f5ea0213
     Pseudo is Ultrasoft, Zval = 12.0
     Generated by new atomic code, or converted to UPF format
     Using radial grid of  851 points,  6 beta functions with:
                l(1) =   0
                l(2) =   0
                l(3) =   1
                l(4) =   1
                l(5) =   2
                l(6) =   2
     Q(r) pseudized with  8 coefficients,  rinner =    1.000   1.000   1.000
                                                       1.000   1.000

     PseudoPot. # 2 for O  read from file:
     /storage/coda1/p-amedford6/0/shared/rich_project_chbe-medford/medford-share/data/pseudos_module/espresso/nninc/pbe/van/O.UPF
     MD5 check sum: 78c19812648e8988a0fe644b0f25305e
     Pseudo is Ultrasoft, Zval =  6.0
     Generated by new atomic code, or converted to UPF format
     Using radial grid of  737 points,  4 beta functions with:
                l(1) =   0
                l(2) =   0
                l(3) =   1
                l(4) =   1
     Q(r) pseudized with  8 coefficients,  rinner =    0.800   0.800   0.800

     PseudoPot. # 3 for N  read from file:
     /storage/coda1/p-amedford6/0/shared/rich_project_chbe-medford/medford-share/data/pseudos_module/espresso/nninc/pbe/van/N.UPF
     MD5 check sum: 90d10febe142ad51ac9d5be1deb811c4
     Pseudo is Ultrasoft, Zval =  5.0
     Generated by new atomic code, or converted to UPF format
     Using radial grid of  729 points,  4 beta functions with:
                l(1) =   0
                l(2) =   0
                l(3) =   1
                l(4) =   1
     Q(r) pseudized with  8 coefficients,  rinner =    0.800   0.800   0.800

     PseudoPot. # 4 for C  read from file:
     /storage/coda1/p-amedford6/0/shared/rich_project_chbe-medford/medford-share/data/pseudos_module/espresso/nninc/pbe/van/C.UPF
     MD5 check sum: 1a69bf6b8db32088f5b2163dbdb77a27
     Pseudo is Ultrasoft, Zval =  4.0
     Generated by new atomic code, or converted to UPF format
     Using radial grid of  721 points,  4 beta functions with:
                l(1) =   0
                l(2) =   0
                l(3) =   1
                l(4) =   1
     Q(r) pseudized with  8 coefficients,  rinner =    0.800   0.800   0.800

     PseudoPot. # 5 for H  read from file:
     /storage/coda1/p-amedford6/0/shared/rich_project_chbe-medford/medford-share/data/pseudos_module/espresso/nninc/pbe/van/H.UPF
     MD5 check sum: b5ee9d7bfd3a09ee7748110bda690ff7
     Pseudo is Ultrasoft, Zval =  1.0
     Generated by new atomic code, or converted to UPF format
     Using radial grid of  615 points,  1 beta functions with:
                l(1) =   0
     Q(r) pseudized with  8 coefficients,  rinner =    0.800

     atomic species   valence    mass     pseudopotential
        Ti1           12.00    47.86700     Ti( 1.00)
        O1             6.00    15.99900     O ( 1.00)
        N1             5.00    14.00700     N ( 1.00)
        C1             4.00    12.01100     C ( 1.00)
        H1             1.00     1.00800     H ( 1.00)

     No symmetry found

   Cartesian axes

     site n.     atom                  positions (alat units)
         1           Ti1 tau(   1) = (   0.0004258   2.9801865   6.0000000  )
         2           Ti1 tau(   2) = (   3.2906075   1.4906267   6.0002472  )
         3           O1  tau(   3) = (   0.0006271   0.0005054   7.9858123  )
         4           O1  tau(   4) = (   3.2906025   0.0005020   7.3038282  )
         5           O1  tau(   5) = (   4.5942328   1.4918067   9.2879030  )
         6           O1  tau(   6) = (   1.9868534   1.4903216   9.2879459  )
         7           Ti1 tau(   7) = (   3.2907910   2.8959150   9.1758416  )
         8           Ti1 tau(   8) = (   0.0015273   1.4827037   9.2680791  )
         9           O1  tau(   9) = (   3.2817971   0.0424577  11.2706337  )
        10           O1  tau(  10) = (   0.0116148   5.9584955  10.6183126  )
        11           O1  tau(  11) = (   1.2813654   1.4951502  12.6332405  )
        12           O1  tau(  12) = (   5.2815101   1.4921423  12.6269808  )
        13           Ti1 tau(  13) = (   6.5662594   2.8603684  12.6843660  )
        14           Ti1 tau(  14) = (   3.2717346   1.4252475  12.4210995  )
        15           O1  tau(  15) = (   6.5710910   0.0045200  14.6317625  )
        16           O1  tau(  16) = (   3.2759495   0.0084639  13.8932321  )
        17           O1  tau(  17) = (   4.5517014   1.4983445  16.0008815  )
        18           O1  tau(  18) = (   2.0271237   1.5070609  16.0478782  )
        19           Ti1 tau(  19) = (   3.2345769   3.0092735  16.2435900  )
        20           Ti1 tau(  20) = (   6.4941389   1.4975806  15.8145731  )
        21           O1  tau(  21) = (   3.2904802   0.0005063   4.7018136  )
        22           O1  tau(  22) = (   6.5579512   0.0396517  17.1742205  )
        23           O1  tau(  23) = (   1.3043587   1.4918075   6.0039043  )
        24           O1  tau(  24) = (   5.2767064   1.4903225   6.0039473  )
        25           Ti1 tau(  25) = (   0.0000382   5.9609847   6.0000000  )
        26           Ti1 tau(  26) = (   3.2902200   4.4714249   6.0002472  )
        27           O1  tau(  27) = (   0.0002396   2.9813036   7.9858123  )
        28           O1  tau(  28) = (   3.2902150   2.9813002   7.3038282  )
        29           O1  tau(  29) = (   4.5938453   4.4726049   9.2879030  )
        30           O1  tau(  30) = (   1.9864658   4.4711199   9.2879459  )
        31           Ti1 tau(  31) = (   3.2891106   5.8743827   9.1763621  )
        32           Ti1 tau(  32) = (   0.0006254   4.4649316   9.2693709  )
        33           O1  tau(  33) = (   3.2800217   2.9666125  11.2981572  )
        34           O1  tau(  34) = (   0.0092240   2.9805883  10.6323155  )
        35           O1  tau(  35) = (   1.2755083   4.4823741  12.6262202  )
        36           O1  tau(  36) = (   5.2848398   4.4807727  12.6177486  )
        37           Ti1 tau(  37) = (   6.5672004   5.8338186  12.5551636  )
        38           Ti1 tau(  38) = (   3.2732152   4.2974050  12.6602233  )
        39           O1  tau(  39) = (   6.5693882   2.9786051  14.6782399  )
        40           O1  tau(  40) = (   3.2805734   3.0393479  13.9038923  )
        41           O1  tau(  41) = (   4.5335661   4.5240572  16.0872286  )
        42           O1  tau(  42) = (   2.0073973   4.5295938  16.0607137  )
        43           Ti1 tau(  43) = (   3.2598295   0.0330142  15.6732764  )
        44           Ti1 tau(  44) = (   6.5464637   4.6748829  16.0422594  )
        45           O1  tau(  45) = (   3.2900926   2.9813045   4.7018136  )
        46           O1  tau(  46) = (   1.3039711   4.4726057   6.0039043  )
        47           O1  tau(  47) = (   5.2763189   4.4711207   6.0039473  )
        48           N1  tau(  48) = (   0.1126456   2.6876119  18.6539570  )
        49           N1  tau(  49) = (   0.0165868   2.9082207  17.4746156  )
        50           C1  tau(  50) = (   0.2746321   3.7930379  19.6419179  )
        51           H1  tau(  51) = (   0.1055085   4.7742840  19.1878107  )
        52           H1  tau(  52) = (   6.1760284   3.5871646  20.4591619  )
        53           H1  tau(  53) = (   1.2982147   3.7051261  19.9977701  )
        54           O1  tau(  54) = (   3.2987527   2.9937385  18.0942264  )
        55           H1  tau(  55) = (   3.7476408   3.7324850  18.5320624  )

     number of k points=    10  Fermi-Dirac smearing, width (Ry)=  0.0073
                       cart. coord. in units 2pi/alat
        k(    1) = (   0.0000000   0.0000000   0.0000000), wk =   0.1250000
        k(    2) = (   0.0000000   0.0419351   0.0000000), wk =   0.2500000
        k(    3) = (   0.0000000  -0.0838702   0.0000000), wk =   0.1250000
        k(    4) = (   0.0379955   0.0000049   0.0000000), wk =   0.2500000
        k(    5) = (   0.0379955   0.0419400   0.0000000), wk =   0.2500000
        k(    6) = (   0.0379955  -0.0838652   0.0000000), wk =   0.2500000
        k(    7) = (   0.0379955  -0.0419301   0.0000000), wk =   0.2500000
        k(    8) = (  -0.0759910  -0.0000099   0.0000000), wk =   0.1250000
        k(    9) = (  -0.0759910   0.0419252   0.0000000), wk =   0.2500000
        k(   10) = (  -0.0759910  -0.0838800   0.0000000), wk =   0.1250000

     Initial potential from superposition of free atoms

     starting charge  385.99915, renormalised to  402.00000

     negative rho (up, down):  1.467E-02 0.000E+00

     %%%%%%%%%%%%%%%%%%%%%%%%%%%%%%%%%%%%%%%%%%%%%%%%%%%%%%%%%%%%%%%%%%%%%%%%
     %                                                                      %
     % You are using vdW-DF, which was implemented by the Thonhauser group. %
     % Please cite the following two papers that made this development      %
     % possible and the two reviews that describe the various versions:     %
     %                                                                      %
     %   T. Thonhauser et al., PRL 115, 136402 (2015).                      %
     %   T. Thonhauser et al., PRB 76, 125112 (2007).                       %
     %   K. Berland et al., Rep. Prog. Phys. 78, 066501 (2015).             %
     %   D.C. Langreth et al., J. Phys.: Condens. Matter 21, 084203 (2009). %
     %                                                                      %
     %                                                                      %
     % If you are calculating the stress with vdW-DF, please also cite:     %
     %                                                                      %
     %   R. Sabatini et al., J. Phys.: Condens. Matter 24, 424209 (2012).   %
     %                                                                      %
     %%%%%%%%%%%%%%%%%%%%%%%%%%%%%%%%%%%%%%%%%%%%%%%%%%%%%%%%%%%%%%%%%%%%%%%%

     Adding external electric field

     Computed dipole along edir(3) :
        Dipole              -11.9830 Ry au,        -30.4576 Debye
        Dipole field         -0.0226 Ry au,

        Potential amp.        2.0962 Ry
        Total length         46.3494 bohr

     Starting wfcs are  304 atomic wfcs
  @ DRIVER MODE: Message from server: STATUS
  @ DRIVER MODE: Message from server: POSDATA
  @ DRIVER MODE: Reading and sharing cell
  @ DRIVER MODE: Reading and sharing positions
  @ DRIVER MODE: Received positions

     Self-consistent Calculation

     iteration #  1     ecut=    29.40 Ry     beta= 0.05
     Davidson diagonalization with overlap
     c_bands:  4 eigenvalues not converged
     c_bands:  3 eigenvalues not converged
     c_bands:  5 eigenvalues not converged
     c_bands:  5 eigenvalues not converged
     c_bands:  3 eigenvalues not converged
     c_bands:  4 eigenvalues not converged
     c_bands:  2 eigenvalues not converged
     c_bands:  1 eigenvalues not converged
     ethr =  1.00E-05,  avg # of iterations = 25.3

[...]

     total energy              =   -2401.01936770 Ry
     estimated scf accuracy    <    6441.07341149 Ry

     iteration #  2     ecut=    29.40 Ry     beta= 0.05
     Davidson diagonalization with overlap
     ethr =  1.00E-02,  avg # of iterations = 22.6

[...]

     iteration # 48     ecut=    29.40 Ry     beta= 0.05
     Davidson diagonalization with overlap
     c_bands:  3 eigenvalues not converged
     ethr =  6.04E-07,  avg # of iterations = 12.0

[...]

     total energy              =   -2972.74441732 Ry
     estimated scf accuracy    <       0.00000009 Ry

     iteration # 71     ecut=    29.40 Ry     beta= 0.05
     Davidson diagonalization with overlap
     ethr =  2.14E-11,  avg # of iterations =  2.8

     negative rho (up, down):  1.548E-02 0.000E+00

     Adding external electric field

     Computed dipole along edir(3) :
        Dipole                0.6139 Ry au,          1.5603 Debye
        Dipole field          0.0012 Ry au,

        Potential amp.       -0.1074 Ry
        Total length         46.3494 bohr

     End of self-consistent calculation

          k = 0.0000 0.0000 0.0000 ( 18029 PWs)   bands (ev):

   -56.2330 -56.1991 -55.8194 -55.7858 -55.5873 -55.5278 -55.4823 -55.4064
   -55.3797 -55.3246 -55.2341 -55.1655 -55.0824 -55.0064 -54.9915 -54.9724
   -32.6835 -32.5254 -32.4985 -32.3914 -32.3076 -32.2988 -32.2986 -32.0674
   -32.0384 -32.0195 -31.9672 -31.9606 -31.9267 -31.8991 -31.8675 -31.8140
   -31.8041 -31.7923 -31.7512 -31.7311 -31.7294 -31.7059 -31.6940 -31.6922
   -31.6897 -31.6490 -31.6045 -31.5725 -31.5562 -31.5348 -31.5336 -31.4958
   -31.4863 -31.4259 -31.4195 -31.4032 -31.3697 -31.3394 -31.3381 -31.3158
   -31.3137 -31.2904 -31.2407 -31.2282 -31.2218 -31.2133 -31.1372 -31.0253
   -18.8470 -16.5280 -16.3558 -16.1941 -15.9856 -15.8149 -15.7253 -15.7152
   -15.6652 -15.5441 -15.5211 -15.4230 -15.3320 -15.2623 -15.2573 -15.2335
   -15.1370 -15.0826 -15.0593 -15.0168 -14.9971 -14.9922 -14.9769 -14.8777
   -14.8591 -14.8563 -14.7121 -14.6948 -14.6065 -14.3586 -14.2641 -13.5041
   -13.3918 -11.5158  -6.9367  -4.3998  -4.1727  -4.0369  -4.0154  -3.8371
    -3.7446  -3.5269  -3.4302  -3.3563  -3.2284  -3.1452  -2.9537  -2.9421
    -2.8871  -2.8185  -2.7452  -2.6865  -2.6335  -2.6231  -2.5527  -2.5154
    -2.4701  -2.4607  -2.4016  -2.3867  -2.3042  -2.2905  -2.2175  -2.1802
    -2.1475  -2.1210  -2.0988  -2.0387  -2.0314  -2.0140  -1.9760  -1.9184
    -1.8584  -1.8196  -1.7241  -1.6759  -1.6574  -1.5610  -1.5387  -1.5335
    -1.5197  -1.3188  -1.2450  -1.2251  -1.2110  -1.0632  -1.0228  -0.9972
    -0.9163  -0.8948  -0.8456  -0.8101  -0.7598  -0.7017  -0.6698  -0.6647
    -0.6409  -0.5902  -0.4033  -0.3686  -0.3219  -0.2889  -0.2519  -0.1957
    -0.1649  -0.1357  -0.0524  -0.0461  -0.0367  -0.0003   0.0492   0.1305
     0.1888   0.2096   0.3038   0.3078   0.3507   0.3850   0.4416   0.4688
     0.5531   0.5966   0.6130   0.6683   0.6867   0.8758   0.9132   0.9495
     0.9855   1.0182   1.0631   1.1738   1.2469   1.5453   1.5662   1.6057
     2.7581   2.9930   3.1219   3.2769   3.4253   3.5186   3.8235   3.8576
     3.8935   3.9490   3.9803

[...]

          k = 0.0380-0.0419 0.0000 ( 17876 PWs)   bands (ev):

[...]

          k =-0.0760-0.0000 0.0000 ( 17886 PWs)   bands (ev):

[...]

          k =-0.0760-0.0839 0.0000 ( 17948 PWs)   bands (ev):

   -56.2165 -56.2155 -55.8038 -55.8013 -55.5820 -55.5330 -55.4795 -55.4090
   -55.3737 -55.3304 -55.2323 -55.1639 -55.0842 -54.9930 -54.9897 -54.9890
   -32.5115 -32.5103 -32.4998 -32.4991 -32.3438 -32.3427 -32.1233 -32.1194
   -31.9981 -31.9961 -31.9926 -31.9910 -31.8874 -31.8489 -31.8175 -31.8055
   -31.8002 -31.7607 -31.7493 -31.7485 -31.7226 -31.7049 -31.7007 -31.6659
   -31.6633 -31.6271 -31.6194 -31.6031 -31.5930 -31.5631 -31.5570 -31.5437
   -31.4866 -31.4322 -31.4302 -31.4231 -31.3675 -31.3429 -31.3290 -31.3285
   -31.2975 -31.2945 -31.2472 -31.2299 -31.2183 -31.2173 -31.1800 -31.1793
   -18.8432 -16.3433 -15.9380 -15.9256 -15.8020 -15.7954 -15.6235 -15.6067
   -15.5900 -15.5300 -15.5115 -15.4610 -15.3218 -15.3121 -15.2531 -15.2217
   -15.1967 -15.1772 -15.1513 -15.1498 -15.1309 -15.0589 -15.0312 -15.0027
   -14.9531 -14.9494 -14.7846 -14.7173 -14.7032 -14.4908 -14.4615 -13.4949
   -13.4947 -11.5138  -6.9503  -4.3471  -4.0495  -3.9936  -3.9381  -3.1070
    -3.0518  -2.9418  -2.9145  -2.8421  -2.8204  -2.7111  -2.6884  -2.6459
    -2.6328  -2.6294  -2.5751  -2.5545  -2.5301  -2.4871  -2.4742  -2.4616
    -2.4371  -2.3941  -2.3839  -2.3636  -2.3464  -2.3308  -2.2407  -2.2369
    -2.2135  -2.1646  -2.1614  -2.1524  -2.0765  -2.0055  -1.9630  -1.9534
    -1.9222  -1.8685  -1.8057  -1.6836  -1.6605  -1.6055  -1.5775  -1.5032
    -1.4719  -1.4265  -1.3360  -1.3249  -1.2966  -1.2777  -1.2181  -1.2041
    -1.0609  -1.0259  -1.0219  -1.0174  -1.0103  -0.9160  -0.8569  -0.7969
    -0.7467  -0.6618  -0.6459  -0.6249  -0.6059  -0.5981  -0.5791  -0.5564
    -0.4929  -0.4517  -0.4005  -0.3831  -0.2799  -0.2019  -0.1670  -0.1010
    -0.0217   0.0661   0.1447   0.1600   0.1969   0.2510   0.3412   0.3811
     0.4231   0.4920   0.5345   0.6059   0.6686   0.7540   0.7774   0.8653
     0.9781   0.9939   1.0431   1.1328   1.4084   1.4151   1.4219   1.4227
     2.7651   3.5407   3.5446   3.5743   3.5825   3.7818   3.7938   3.9186
     3.9698   3.9960   4.0361

     the Fermi energy is     2.9301 ev

!    total energy              =   -2972.74444671 Ry
     estimated scf accuracy    <       0.00000004 Ry
     smearing contrib. (-TS)   =      -0.01287651 Ry
     internal energy E=F+TS    =   -2972.73157019 Ry

     The total energy is F=E-TS. E is the sum of the following terms:
     one-electron contribution =  -23698.93877828 Ry
     hartree contribution      =   11942.77922339 Ry
     xc contribution           =    -493.12414550 Ry
     ewald contribution        =    9276.55141909 Ry
     electric field correction =       0.00071110 Ry

     convergence has been achieved in  71 iterations

     Forces acting on atoms (cartesian axes, Ry/au):

     atom    1 type  1   force =     0.00008565   -0.00038097    0.10696888
     atom    2 type  1   force =    -0.00004177   -0.00169746   -0.16542503
     atom    3 type  2   force =     0.00003384   -0.00025824   -0.03860799
     atom    4 type  2   force =     0.00004364    0.00075941    0.03123329
     atom    5 type  2   force =    -0.00358207    0.00294474   -0.00837257
     atom    6 type  2   force =     0.00471906    0.00361377   -0.01014140
     atom    7 type  1   force =    -0.00072938    0.00048536    0.02108826
     atom    8 type  1   force =     0.00100746    0.01538928    0.06081190
     atom    9 type  2   force =     0.00011127   -0.00011699    0.00021083
     atom   10 type  2   force =    -0.00289566    0.00226010   -0.04697180
     atom   11 type  2   force =    -0.00004412   -0.00020368    0.00002458
     atom   12 type  2   force =     0.00000587   -0.00002762    0.00024568
     atom   13 type  1   force =     0.00028490   -0.00014403   -0.00012320
     atom   14 type  1   force =     0.00040429   -0.00012814    0.00010517
     atom   15 type  2   force =     0.00015103    0.00019111   -0.00014843
     atom   16 type  2   force =     0.00014502   -0.00015525    0.00019435
     atom   17 type  2   force =     0.00018990    0.00021734    0.00030888
     atom   18 type  2   force =     0.00011711    0.00032158    0.00012130
     atom   19 type  1   force =     0.00003958   -0.00014005   -0.00035474
     atom   20 type  1   force =    -0.00030758    0.00002312   -0.00026391
     atom   21 type  2   force =     0.00010214   -0.00000140    0.10030710
     atom   22 type  2   force =     0.00004354    0.00000393   -0.00008454
     atom   23 type  2   force =    -0.07667358   -0.00004852   -0.03006115
     atom   24 type  2   force =     0.07665861    0.00038321   -0.03008647
     atom   25 type  1   force =     0.00005539   -0.00043424    0.10690951
     atom   26 type  1   force =    -0.00010724    0.00063069   -0.16571895
     atom   27 type  2   force =     0.00012144   -0.00027397   -0.03742083
     atom   28 type  2   force =     0.00004377   -0.00044176    0.03540989
     atom   29 type  2   force =    -0.00571928   -0.00043652   -0.00595956
     atom   30 type  2   force =     0.00688059    0.00006161   -0.00764631
     atom   31 type  1   force =    -0.00056841   -0.00238700    0.03445225
     atom   32 type  1   force =     0.00111142   -0.01877675    0.06133517
     atom   33 type  2   force =     0.00022349   -0.00012304    0.00017102
     atom   34 type  2   force =    -0.00253916    0.00012278   -0.05369536
     atom   35 type  2   force =     0.00023008   -0.00025469   -0.00007081
     atom   36 type  2   force =     0.00016764   -0.00003025    0.00032737
     atom   37 type  1   force =     0.00035684   -0.00017648   -0.00035730
     atom   38 type  1   force =     0.00046878   -0.00025527    0.00015334
     atom   39 type  2   force =     0.00015935   -0.00046046    0.00041837
     atom   40 type  2   force =    -0.00019300   -0.00008101    0.00000138
     atom   41 type  2   force =     0.00011416   -0.00042849    0.00014957
     atom   42 type  2   force =     0.00021516   -0.00046645    0.00016628
     atom   43 type  1   force =    -0.00023180    0.00003305   -0.00035755
     atom   44 type  1   force =    -0.00007214   -0.00017957    0.00008096
     atom   45 type  2   force =     0.00009559    0.00010789    0.10050945
     atom   46 type  2   force =    -0.07665334   -0.00005799   -0.03007359
     atom   47 type  2   force =     0.07664397    0.00036233   -0.03010127
     atom   48 type  3   force =     0.00000192   -0.00000734    0.00208397
     atom   49 type  3   force =     0.00058453    0.00110771    0.00208467
     atom   50 type  4   force =     0.00032623    0.00590791   -0.01823860
     atom   51 type  5   force =     0.00088143   -0.00458266    0.00443763
     atom   52 type  5   force =    -0.00475315   -0.00164035    0.00658624
     atom   53 type  5   force =     0.00269722   -0.00046775    0.00306646
     atom   54 type  2   force =     0.00040612    0.00125732    0.00084144
     atom   55 type  5   force =    -0.00081638   -0.00091983   -0.00052383

     Total force =     0.381877     Total SCF correction =     0.000525
  @ DRIVER MODE: Message from server: STATUS
  @ DRIVER MODE: Message from server: GETFORCE
  @ DRIVER MODE: Returning v,forces,stress,ensemble

     Writing output data file ./calc.save/
  @ DRIVER MODE: Message from server: EXIT
  @ DRIVE MODE: Exiting

     General routines

     Parallel routines

   This run was terminated on:   2:53:32  10Sep2021

   JOB DONE.