     Program PWSCF v.6.7GPU starts on 16Sep2021 at  1:21:35

     R & G space division:  proc/nbgrp/npool/nimage =      10
     Reading input from /storage/home/hcoda1/3/ntian30/research/carbon/CxH_vib/H2O_calc/ads_slab/CH2OHH2O_a/out_0031/pw.inp
Warning: card &CELL ignored
Warning: card   CELL_DYNAMICS='IPI', ignored
Warning: card / ignored

     Current dimensions of program PWSCF are:
     Max number of different atomic species (ntypx) = 10
     Max number of k-points (npk) =  40000
     Max angular momentum in pseudopotentials (lmaxx) =  3
     Presently no symmetry can be used with electric field

     Message from routine cell_base_init:
     DEPRECATED: use true lattice parameter, not A to a.u. conversion factor

     IMPORTANT: XC functional enforced from input :
     Exchange-correlation= BEEF-VDW
                           (   1   4  43  14   2   0   0)
     Any further DFT definition will be discarded
     Please, verify this is what you really want

  @ DRIVER MODE: Connecting to
 qe_1139763_2852615.sched-torque.pace.gatech.edu7o91607m_scratch
  using UNIX socket
  @ DRIVER MODE: Message from server: STATUS
  @ DRIVER MODE: Message from server: INIT
  @ DRIVER MODE: Receiving replica           0          -1
  @ DRIVER MODE: Receiving encoded integer          25
  @ DRIVER MODE:  SCF:  T  FORCE:  T  STRESS:  F  VC:  F  ENSEMBLE:  F
  @ DRIVER MODE:  SCF:  T  FORCE:  T  STRESS:  F  VC:  F  ENSEMBLE:  F

     Using Slab Decomposition

     bravais-lattice index     =            0
     lattice parameter (alat)  =       1.8897  a.u.
     unit-cell volume          =    6658.9804 (a.u.)^3
     number of atoms/cell      =           55
     number of atomic types    =            4
     number of electrons       =       399.00
     number of Kohn-Sham states=          209
     kinetic-energy cutoff     =      29.3995  Ry
     charge density cutoff     =     293.9946  Ry
     scf convergence threshold =      7.3E-08
     mixing beta               =       0.0500
     number of iterations used =            8  plain     mixing
     Exchange-correlation= BEEF-VDW
                           (   1   4  43  14   2   0   0)

     celldm(1)=   1.889726  celldm(2)=   0.000000  celldm(3)=   0.000000
     celldm(4)=   0.000000  celldm(5)=   0.000000  celldm(6)=   0.000000

     crystal axes: (cart. coord. in units of alat)
               a(1) = (   6.579727   0.000000   0.000000 )
               a(2) = (  -0.000775   5.961596   0.000000 )
               a(3) = (   0.000000   0.000000  25.155947 )

     reciprocal axes: (cart. coord. in units 2 pi/alat)
               b(1) = (  0.151982  0.000020  0.000000 )
               b(2) = (  0.000000  0.167740  0.000000 )
               b(3) = (  0.000000  0.000000  0.039752 )

     PseudoPot. # 1 for Ti read from file:
     /storage/coda1/p-amedford6/0/shared/rich_project_chbe-medford/medford-share/data/pseudos_module/espresso/nninc/pbe/van/Ti.UPF
     MD5 check sum: 8e4df49b7f0d34bbd5052bf3f5ea0213
     Pseudo is Ultrasoft, Zval = 12.0
     Generated by new atomic code, or converted to UPF format
     Using radial grid of  851 points,  6 beta functions with:
                l(1) =   0
                l(2) =   0
                l(3) =   1
                l(4) =   1
                l(5) =   2
                l(6) =   2
     Q(r) pseudized with  8 coefficients,  rinner =    1.000   1.000   1.000
                                                       1.000   1.000

     PseudoPot. # 2 for O  read from file:
     /storage/coda1/p-amedford6/0/shared/rich_project_chbe-medford/medford-share/data/pseudos_module/espresso/nninc/pbe/van/O.UPF
     MD5 check sum: 78c19812648e8988a0fe644b0f25305e
     Pseudo is Ultrasoft, Zval =  6.0
     Generated by new atomic code, or converted to UPF format
     Using radial grid of  737 points,  4 beta functions with:
                l(1) =   0
                l(2) =   0
                l(3) =   1
                l(4) =   1
     Q(r) pseudized with  8 coefficients,  rinner =    0.800   0.800   0.800

     PseudoPot. # 3 for C  read from file:
     /storage/coda1/p-amedford6/0/shared/rich_project_chbe-medford/medford-share/data/pseudos_module/espresso/nninc/pbe/van/C.UPF
     MD5 check sum: 1a69bf6b8db32088f5b2163dbdb77a27
     Pseudo is Ultrasoft, Zval =  4.0
     Generated by new atomic code, or converted to UPF format
     Using radial grid of  721 points,  4 beta functions with:
                l(1) =   0
                l(2) =   0
                l(3) =   1
                l(4) =   1
     Q(r) pseudized with  8 coefficients,  rinner =    0.800   0.800   0.800

     PseudoPot. # 4 for H  read from file:
     /storage/coda1/p-amedford6/0/shared/rich_project_chbe-medford/medford-share/data/pseudos_module/espresso/nninc/pbe/van/H.UPF
     MD5 check sum: b5ee9d7bfd3a09ee7748110bda690ff7
     Pseudo is Ultrasoft, Zval =  1.0
     Generated by new atomic code, or converted to UPF format
     Using radial grid of  615 points,  1 beta functions with:
                l(1) =   0
     Q(r) pseudized with  8 coefficients,  rinner =    0.800

     atomic species   valence    mass     pseudopotential
        Ti1           12.00    47.86700     Ti( 1.00)
        O1             6.00    15.99900     O ( 1.00)
        C1             4.00    12.01100     C ( 1.00)
        H1             1.00     1.00800     H ( 1.00)

     No symmetry found

   Cartesian axes

     site n.     atom                  positions (alat units)
         1           Ti1 tau(   1) = (   0.0004258   2.9801865   6.0000000  )
         2           Ti1 tau(   2) = (   3.2906075   1.4906267   6.0002472  )
         3           O1  tau(   3) = (   0.0006271   0.0005054   7.9858123  )
         4           O1  tau(   4) = (   3.2906025   0.0005020   7.3038282  )
         5           O1  tau(   5) = (   4.5942328   1.4918067   9.2879030  )
         6           O1  tau(   6) = (   1.9868534   1.4903216   9.2879459  )
         7           Ti1 tau(   7) = (   3.2434587   3.0186650   9.1693953  )
         8           Ti1 tau(   8) = (   6.5248695   1.5265067   9.2859949  )
         9           O1  tau(   9) = (   3.3238096   0.0077392  11.3399147  )
        10           O1  tau(  10) = (   0.0083103   0.0007143  10.5763085  )
        11           O1  tau(  11) = (   1.3076427   1.5153157  12.5877682  )
        12           O1  tau(  12) = (   5.3324098   1.4751673  12.6362968  )
        13           Ti1 tau(  13) = (   0.0822926   2.9518924  12.6100891  )
        14           Ti1 tau(  14) = (   3.3652580   1.6116561  12.6031695  )
        15           O1  tau(  15) = (   0.1623142   0.0003102  14.6136642  )
        16           O1  tau(  16) = (   3.2083997   0.0016335  13.9229753  )
        17           O1  tau(  17) = (   4.6427586   1.3635169  15.8692112  )
        18           O1  tau(  18) = (   2.0707938   1.5934636  16.1317492  )
        19           Ti1 tau(  19) = (   3.4055461   2.9583945  15.9219660  )
        20           Ti1 tau(  20) = (   0.0529163   1.3399360  15.9091509  )
        21           O1  tau(  21) = (   3.2904802   0.0005063   4.7018136  )
        22           O1  tau(  22) = (   0.1143047   5.9459637  17.1421970  )
        23           O1  tau(  23) = (   1.3043587   1.4918075   6.0039043  )
        24           O1  tau(  24) = (   5.2767064   1.4903225   6.0039473  )
        25           Ti1 tau(  25) = (   0.0000382   5.9609847   6.0000000  )
        26           Ti1 tau(  26) = (   3.2902200   4.4714249   6.0002472  )
        27           O1  tau(  27) = (   0.0002396   2.9813036   7.9858123  )
        28           O1  tau(  28) = (   3.2902150   2.9813002   7.3038282  )
        29           O1  tau(  29) = (   4.5938453   4.4726049   9.2879030  )
        30           O1  tau(  30) = (   1.9864658   4.4711199   9.2879459  )
        31           Ti1 tau(  31) = (   3.2519499   0.0415563   9.1803751  )
        32           Ti1 tau(  32) = (   6.5223785   4.4699269   9.2708698  )
        33           O1  tau(  33) = (   3.3249262   3.0006027  11.3427062  )
        34           O1  tau(  34) = (   6.5728067   2.9803724  10.5910131  )
        35           O1  tau(  35) = (   1.3048910   4.4590737  12.5876729  )
        36           O1  tau(  36) = (   5.3248012   4.5079456  12.6396186  )
        37           Ti1 tau(  37) = (   0.0305998   5.9348532  12.4502240  )
        38           Ti1 tau(  38) = (   3.3518916   4.5407868  12.4757475  )
        39           O1  tau(  39) = (   0.0741357   2.9755951  14.7167286  )
        40           O1  tau(  40) = (   3.3703583   2.9475192  13.9294239  )
        41           O1  tau(  41) = (   4.6408928   4.5782690  15.8216857  )
        42           O1  tau(  42) = (   2.0743197   4.3710070  16.0958311  )
        43           Ti1 tau(  43) = (   3.3271525   5.9323444  15.7323421  )
        44           Ti1 tau(  44) = (   0.0603002   4.5335970  15.7939964  )
        45           O1  tau(  45) = (   3.2900926   2.9813045   4.7018136  )
        46           O1  tau(  46) = (   1.3039711   4.4726057   6.0039043  )
        47           O1  tau(  47) = (   5.2763189   4.4711207   6.0039473  )
        48           C1  tau(  48) = (   4.5917920   3.0228413  17.9030398  )
        49           O1  tau(  49) = (   6.0625861   3.0006587  17.4562122  )
        50           H1  tau(  50) = (   0.0503952   3.1075262  18.2373115  )
        51           H1  tau(  51) = (   4.5265887   2.1706275  18.5876854  )
        52           H1  tau(  52) = (   4.4781653   3.9549082  18.4551422  )
        53           O1  tau(  53) = (   2.8559371   5.8926936  18.2031264  )
        54           H1  tau(  54) = (   3.0528466   0.8172038  18.5446680  )
        55           H1  tau(  55) = (   1.8959954   5.8777970  18.0521013  )

     number of k points=    10  Fermi-Dirac smearing, width (Ry)=  0.0073
                       cart. coord. in units 2pi/alat
        k(    1) = (   0.0000000   0.0000000   0.0000000), wk =   0.1250000
        k(    2) = (   0.0000000   0.0419351   0.0000000), wk =   0.2500000
        k(    3) = (   0.0000000  -0.0838702   0.0000000), wk =   0.1250000
        k(    4) = (   0.0379955   0.0000049   0.0000000), wk =   0.2500000
        k(    5) = (   0.0379955   0.0419400   0.0000000), wk =   0.2500000
        k(    6) = (   0.0379955  -0.0838652   0.0000000), wk =   0.2500000
        k(    7) = (   0.0379955  -0.0419301   0.0000000), wk =   0.2500000
        k(    8) = (  -0.0759910  -0.0000099   0.0000000), wk =   0.1250000
        k(    9) = (  -0.0759910   0.0419252   0.0000000), wk =   0.2500000
        k(   10) = (  -0.0759910  -0.0838800   0.0000000), wk =   0.1250000

     Initial potential from superposition of free atoms

     starting charge  382.99916, renormalised to  399.00000

     negative rho (up, down):  1.858E-02 0.000E+00

     %%%%%%%%%%%%%%%%%%%%%%%%%%%%%%%%%%%%%%%%%%%%%%%%%%%%%%%%%%%%%%%%%%%%%%%%
     %                                                                      %
     % You are using vdW-DF, which was implemented by the Thonhauser group. %
     % Please cite the following two papers that made this development      %
     % possible and the two reviews that describe the various versions:     %
     %                                                                      %
     %   T. Thonhauser et al., PRL 115, 136402 (2015).                      %
     %   T. Thonhauser et al., PRB 76, 125112 (2007).                       %
     %   K. Berland et al., Rep. Prog. Phys. 78, 066501 (2015).             %
     %   D.C. Langreth et al., J. Phys.: Condens. Matter 21, 084203 (2009). %
     %                                                                      %
     %                                                                      %
     % If you are calculating the stress with vdW-DF, please also cite:     %
     %                                                                      %
     %   R. Sabatini et al., J. Phys.: Condens. Matter 24, 424209 (2012).   %
     %                                                                      %
     %%%%%%%%%%%%%%%%%%%%%%%%%%%%%%%%%%%%%%%%%%%%%%%%%%%%%%%%%%%%%%%%%%%%%%%%

     Adding external electric field

     Computed dipole along edir(3) :
        Dipole               -9.7304 Ry au,        -24.7321 Debye
        Dipole field         -0.0184 Ry au,

        Potential amp.        1.7022 Ry
        Total length         46.3494 bohr

     Starting wfcs are  301 atomic wfcs
  @ DRIVER MODE: Message from server: STATUS
  @ DRIVER MODE: Message from server: POSDATA
  @ DRIVER MODE: Reading and sharing cell
  @ DRIVER MODE: Reading and sharing positions
  @ DRIVER MODE: Received positions

     Self-consistent Calculation

     iteration #  1     ecut=    29.40 Ry     beta= 0.05
     Davidson diagonalization with overlap
     c_bands:  1 eigenvalues not converged
     c_bands:  2 eigenvalues not converged
     c_bands:  3 eigenvalues not converged
     c_bands:  5 eigenvalues not converged
     c_bands:  3 eigenvalues not converged
     c_bands:  2 eigenvalues not converged
     c_bands:  3 eigenvalues not converged
     c_bands:  2 eigenvalues not converged
     ethr =  1.00E-05,  avg # of iterations = 19.8

[...]

     total energy              =   -2478.50230627 Ry
     estimated scf accuracy    <    5415.87861607 Ry

     iteration #  2     ecut=    29.40 Ry     beta= 0.05
     Davidson diagonalization with overlap
     ethr =  1.00E-02,  avg # of iterations = 24.1

[...]

     iteration # 58     ecut=    29.40 Ry     beta= 0.05
     Davidson diagonalization with overlap
     c_bands:  1 eigenvalues not converged
     ethr =  8.75E-11,  avg # of iterations =  9.9

[...]

     total energy              =   -2966.15799857 Ry
     estimated scf accuracy    <       0.00000013 Ry

     iteration # 60     ecut=    29.40 Ry     beta= 0.05
     Davidson diagonalization with overlap
     ethr =  3.34E-11,  avg # of iterations =  9.7

     negative rho (up, down):  1.797E-02 0.000E+00

     Adding external electric field

     Computed dipole along edir(3) :
        Dipole                1.0036 Ry au,          2.5509 Debye
        Dipole field          0.0019 Ry au,

        Potential amp.       -0.1756 Ry
        Total length         46.3494 bohr

     End of self-consistent calculation

          k = 0.0000 0.0000 0.0000 ( 18029 PWs)   bands (ev):

   -55.6888 -55.6524 -55.5809 -55.5729 -55.5164 -55.5144 -55.5087 -55.5055
   -55.4777 -55.4605 -55.4535 -55.4423 -55.4270 -55.3378 -54.6583 -54.6243
   -32.1785 -32.1649 -32.0545 -32.0253 -32.0027 -31.9761 -31.9557 -31.9437
   -31.9300 -31.8701 -31.8431 -31.8369 -31.8331 -31.8239 -31.7961 -31.7869
   -31.7831 -31.7641 -31.7594 -31.7479 -31.7366 -31.7312 -31.6976 -31.6923
   -31.6898 -31.6832 -31.6778 -31.6700 -31.6645 -31.6598 -31.6523 -31.6355
   -31.6315 -31.6286 -31.6237 -31.6209 -31.6125 -31.6118 -31.5863 -31.5636
   -31.5525 -31.4246 -31.0652 -30.9769 -30.9543 -30.8821 -30.7957 -30.6844
   -19.3902 -18.7783 -16.3741 -16.1774 -15.9726 -15.8591 -15.8393 -15.6581
   -15.5344 -15.3880 -15.3351 -15.3074 -15.2860 -15.2165 -15.2096 -15.1947
   -15.1596 -15.1544 -15.1185 -15.0985 -15.0925 -15.0646 -15.0134 -14.9917
   -14.9420 -14.8817 -14.8132 -14.7931 -14.7843 -14.7089 -14.6151 -13.1589
   -13.0423  -9.4356  -6.5670  -6.2850  -4.0767  -3.8420  -3.6862  -3.6432
    -3.6112  -3.5750  -3.4152  -3.3036  -3.1210  -3.0112  -2.9527  -2.9002
    -2.8652  -2.7868  -2.7463  -2.6223  -2.5988  -2.5489  -2.5167  -2.4798
    -2.4741  -2.4523  -2.4069  -2.3894  -2.3740  -2.2166  -2.2070  -2.1721
    -2.1080  -2.0765  -2.0493  -2.0124  -1.9906  -1.9636  -1.9454  -1.8992
    -1.8805  -1.8089  -1.8013  -1.7571  -1.6901  -1.6574  -1.3935  -1.3163
    -1.2948  -1.2566  -1.1930  -1.0957  -1.0920  -1.0857  -1.0851  -1.0283
    -1.0112  -0.8626  -0.8484  -0.8334  -0.7532  -0.6741  -0.5947  -0.5580
    -0.4942  -0.4436  -0.4106  -0.3832  -0.3568  -0.3021  -0.2330  -0.2101
    -0.1397  -0.0657  -0.0321   0.0201   0.0459   0.0907   0.1212   0.1971
     0.2362   0.2702   0.2981   0.3162   0.3265   0.3696   0.3894   0.4788
     0.5563   0.5846   0.5909   0.6653   0.7920   0.8744   0.9859   1.0776
     1.2997   1.3659   1.4173   1.5482   1.5565   1.9378   1.9883   3.4526
     3.5216   3.5810   3.5815   3.6164   3.6969   3.9000   3.9473   4.0048
     4.0385

[...]

          k = 0.0380-0.0419 0.0000 ( 17876 PWs)   bands (ev):

[...]

          k =-0.0760-0.0000 0.0000 ( 17886 PWs)   bands (ev):

[...]

          k =-0.0760-0.0839 0.0000 ( 17948 PWs)   bands (ev):

   -55.6771 -55.6640 -55.5756 -55.5681 -55.5202 -55.5137 -55.5106 -55.5024
   -55.4626 -55.4597 -55.4567 -55.4457 -55.4421 -55.3394 -54.6412 -54.6412
   -32.0975 -31.9863 -31.9755 -31.9736 -31.9514 -31.9007 -31.8745 -31.8529
   -31.8466 -31.8411 -31.8390 -31.8149 -31.8138 -31.7991 -31.7979 -31.7886
   -31.7879 -31.7791 -31.7777 -31.7747 -31.7719 -31.7619 -31.7405 -31.7355
   -31.7294 -31.7172 -31.7103 -31.7033 -31.7015 -31.6872 -31.6729 -31.6656
   -31.6647 -31.6620 -31.6601 -31.6538 -31.6524 -31.6503 -31.6485 -31.6458
   -31.6283 -31.4268 -30.9671 -30.9670 -30.8785 -30.8777 -30.8390 -30.8386
   -19.3836 -18.7772 -15.9920 -15.6538 -15.6403 -15.6351 -15.6045 -15.4830
   -15.4592 -15.4367 -15.3913 -15.3610 -15.3552 -15.3321 -15.2872 -15.2311
   -15.2119 -15.2042 -15.1945 -15.1423 -15.1279 -15.1170 -15.0713 -15.0307
   -15.0280 -15.0044 -14.9782 -14.9728 -14.9726 -14.9449 -14.8751 -13.1457
   -13.1425  -9.4415  -6.5656  -6.2676  -4.0329  -3.7290  -3.1595  -3.0341
    -2.8708  -2.8445  -2.7970  -2.7754  -2.7225  -2.6542  -2.6249  -2.6135
    -2.6118  -2.5781  -2.5153  -2.4814  -2.4774  -2.4385  -2.4200  -2.4122
    -2.3918  -2.3663  -2.3422  -2.3234  -2.3170  -2.2814  -2.2693  -2.2543
    -2.2480  -2.2365  -2.2177  -2.1775  -2.0693  -1.9483  -1.9140  -1.8781
    -1.8385  -1.7794  -1.7733  -1.7590  -1.7249  -1.7243  -1.7083  -1.6299
    -1.4672  -1.4056  -1.3424  -1.3207  -1.2457  -1.2344  -1.2188  -1.1760
    -1.1347  -1.0878  -1.0437  -1.0204  -0.9644  -0.9200  -0.7919  -0.7378
    -0.6531  -0.6478  -0.6253  -0.6104  -0.5562  -0.5314  -0.5064  -0.4615
    -0.4274  -0.3834  -0.3517  -0.3428  -0.3203  -0.2592  -0.1594  -0.1102
    -0.0476  -0.0419   0.0412   0.1702   0.3558   0.3858   0.4445   0.4952
     0.5852   0.6070   0.6558   0.6755   0.7333   0.7602   0.8016   0.8617
     0.9224   0.9506   1.5128   1.7293   1.7357   1.7989   1.8084   3.7439
     3.8314   3.9240   3.9380   3.9723   3.9846   3.9903   4.0199   4.0763
     4.1134

     the Fermi energy is     3.4500 ev

!    total energy              =   -2966.15804614 Ry
     estimated scf accuracy    <       0.00000005 Ry
     smearing contrib. (-TS)   =      -0.02139891 Ry
     internal energy E=F+TS    =   -2966.13664723 Ry

     The total energy is F=E-TS. E is the sum of the following terms:
     one-electron contribution =  -24755.69370251 Ry
     hartree contribution      =   12470.35821445 Ry
     xc contribution           =    -490.96574033 Ry
     ewald contribution        =    9810.16268044 Ry
     electric field correction =       0.00190072 Ry

     convergence has been achieved in  60 iterations

     Forces acting on atoms (cartesian axes, Ry/au):

     atom    1 type  1   force =     0.00075272   -0.00017554    0.09535305
     atom    2 type  1   force =     0.00024688   -0.00220227   -0.17567980
     atom    3 type  2   force =    -0.00066317   -0.00040875   -0.03007787
     atom    4 type  2   force =    -0.00084971    0.00063594    0.05234861
     atom    5 type  2   force =    -0.01386264   -0.00100023    0.00146200
     atom    6 type  2   force =     0.01581785    0.00241010    0.00318634
     atom    7 type  1   force =     0.00034265    0.00038508   -0.00029261
     atom    8 type  1   force =    -0.00037208    0.00140237    0.00065557
     atom    9 type  2   force =     0.00011175   -0.00002465    0.00026273
     atom   10 type  2   force =     0.00017356    0.00017355   -0.00057955
     atom   11 type  2   force =    -0.00024346    0.00024761    0.00018206
     atom   12 type  2   force =    -0.00037457    0.00008692    0.00007388
     atom   13 type  1   force =     0.00022754   -0.00018449   -0.00059789
     atom   14 type  1   force =    -0.00101294    0.00003060    0.00025078
     atom   15 type  2   force =     0.00005403   -0.00110949   -0.00015930
     atom   16 type  2   force =     0.00000157   -0.00006818   -0.00009157
     atom   17 type  2   force =    -0.00045420   -0.00038582   -0.00006293
     atom   18 type  2   force =     0.00041792   -0.00021135   -0.00004500
     atom   19 type  1   force =    -0.00008153    0.00034492    0.00011085
     atom   20 type  1   force =     0.00033338    0.00068050    0.00043429
     atom   21 type  2   force =     0.00014595    0.00020026    0.10304181
     atom   22 type  2   force =    -0.00032635   -0.00107693   -0.00027670
     atom   23 type  2   force =    -0.07130091    0.00094555   -0.02829687
     atom   24 type  2   force =     0.07135347    0.00133973   -0.02833367
     atom   25 type  1   force =     0.00022261    0.00038811    0.10642850
     atom   26 type  1   force =     0.00000728    0.00252758   -0.17558607
     atom   27 type  2   force =    -0.00038118    0.00013426   -0.02785820
     atom   28 type  2   force =    -0.00096134    0.00076168    0.05165338
     atom   29 type  2   force =    -0.01301343   -0.00122949    0.00106755
     atom   30 type  2   force =     0.01546363    0.00037197    0.00295086
     atom   31 type  1   force =     0.00052025    0.00002550   -0.00004035
     atom   32 type  1   force =    -0.00042125   -0.00140170    0.00017484
     atom   33 type  2   force =    -0.00016503   -0.00031130    0.00021847
     atom   34 type  2   force =     0.00000869    0.00010618   -0.00015099
     atom   35 type  2   force =    -0.00062976   -0.00019175    0.00065708
     atom   36 type  2   force =     0.00003530   -0.00036443    0.00023627
     atom   37 type  1   force =     0.00059506    0.00028082    0.00053212
     atom   38 type  1   force =    -0.00092382    0.00012937    0.00044063
     atom   39 type  2   force =    -0.00018882    0.00065818    0.00021125
     atom   40 type  2   force =    -0.00002546   -0.00051668   -0.00065867
     atom   41 type  2   force =     0.00112012   -0.00000311   -0.00000783
     atom   42 type  2   force =    -0.00089644   -0.00026371    0.00001178
     atom   43 type  1   force =    -0.00005348   -0.00106998   -0.00025340
     atom   44 type  1   force =    -0.00026734    0.00046105   -0.00007501
     atom   45 type  2   force =     0.00012191    0.00015606    0.10331609
     atom   46 type  2   force =    -0.07122476   -0.00126198   -0.02829420
     atom   47 type  2   force =     0.07129420   -0.00086477   -0.02833124
     atom   48 type  3   force =    -0.00073626   -0.00008800   -0.00019511
     atom   49 type  2   force =     0.00044426   -0.00008158   -0.00005113
     atom   50 type  4   force =     0.00001374   -0.00040459   -0.00016540
     atom   51 type  4   force =    -0.00069401   -0.00018442    0.00022914
     atom   52 type  4   force =    -0.00039335    0.00003291   -0.00030869
     atom   53 type  2   force =     0.02168107    0.00258032    0.00498832
     atom   54 type  4   force =    -0.00253440   -0.00352931   -0.00146074
     atom   55 type  4   force =    -0.01845569    0.00111737   -0.00254745

     Total force =     0.368546     Total SCF correction =     0.000612
  @ DRIVER MODE: Message from server: STATUS
  @ DRIVER MODE: Message from server: GETFORCE
  @ DRIVER MODE: Returning v,forces,stress,ensemble

     Writing output data file ./calc.save/
  @ DRIVER MODE: Message from server: EXIT
  @ DRIVE MODE: Exiting

     General routines

     Parallel routines

   This run was terminated on:   1:39:18  16Sep2021

   JOB DONE.