     Program PWSCF v.6.7GPU starts on 23Sep2021 at 18:34:18

     R & G space division:  proc/nbgrp/npool/nimage =       8
     Reading input from /storage/home/hcoda1/3/ntian30/research/carbon/CxH_vib/H2O_calc/ads_slab/CH2NNHHHO_a/out_0018/pw.inp
Warning: card &CELL ignored
Warning: card   CELL_DYNAMICS='IPI', ignored
Warning: card / ignored

     Current dimensions of program PWSCF are:
     Max number of different atomic species (ntypx) = 10
     Max number of k-points (npk) =  40000
     Max angular momentum in pseudopotentials (lmaxx) =  3
     Presently no symmetry can be used with electric field

     Message from routine cell_base_init:
     DEPRECATED: use true lattice parameter, not A to a.u. conversion factor

     IMPORTANT: XC functional enforced from input :
     Exchange-correlation= BEEF-VDW
                           (   1   4  43  14   2   0   0)
     Any further DFT definition will be discarded
     Please, verify this is what you really want

  @ DRIVER MODE: Connecting to
 qe_1139763_2947314.sched-torque.pace.gatech.edu81xn4rf8_scratch
  using UNIX socket
  @ DRIVER MODE: Message from server: STATUS
  @ DRIVER MODE: Message from server: INIT
  @ DRIVER MODE: Receiving replica           0          -1
  @ DRIVER MODE: Receiving encoded integer          25
  @ DRIVER MODE:  SCF:  T  FORCE:  T  STRESS:  F  VC:  F  ENSEMBLE:  F
  @ DRIVER MODE:  SCF:  T  FORCE:  T  STRESS:  F  VC:  F  ENSEMBLE:  F

     Using Slab Decomposition

     bravais-lattice index     =            0
     lattice parameter (alat)  =       1.8897  a.u.
     unit-cell volume          =    6658.9804 (a.u.)^3
     number of atoms/cell      =           56
     number of atomic types    =            5
     number of electrons       =       403.00
     number of Kohn-Sham states=          211
     kinetic-energy cutoff     =      29.3995  Ry
     charge density cutoff     =     293.9946  Ry
     scf convergence threshold =      7.3E-08
     mixing beta               =       0.0500
     number of iterations used =            8  plain     mixing
     Exchange-correlation= BEEF-VDW
                           (   1   4  43  14   2   0   0)

     celldm(1)=   1.889726  celldm(2)=   0.000000  celldm(3)=   0.000000
     celldm(4)=   0.000000  celldm(5)=   0.000000  celldm(6)=   0.000000

     crystal axes: (cart. coord. in units of alat)
               a(1) = (   6.579727   0.000000   0.000000 )
               a(2) = (  -0.000775   5.961596   0.000000 )
               a(3) = (   0.000000   0.000000  25.155947 )

     reciprocal axes: (cart. coord. in units 2 pi/alat)
               b(1) = (  0.151982  0.000020  0.000000 )
               b(2) = (  0.000000  0.167740  0.000000 )
               b(3) = (  0.000000  0.000000  0.039752 )

     PseudoPot. # 1 for Ti read from file:
     /storage/coda1/p-amedford6/0/shared/rich_project_chbe-medford/medford-share/data/pseudos_module/espresso/nninc/pbe/van/Ti.UPF
     MD5 check sum: 8e4df49b7f0d34bbd5052bf3f5ea0213
     Pseudo is Ultrasoft, Zval = 12.0
     Generated by new atomic code, or converted to UPF format
     Using radial grid of  851 points,  6 beta functions with:
                l(1) =   0
                l(2) =   0
                l(3) =   1
                l(4) =   1
                l(5) =   2
                l(6) =   2
     Q(r) pseudized with  8 coefficients,  rinner =    1.000   1.000   1.000
                                                       1.000   1.000

     PseudoPot. # 2 for O  read from file:
     /storage/coda1/p-amedford6/0/shared/rich_project_chbe-medford/medford-share/data/pseudos_module/espresso/nninc/pbe/van/O.UPF
     MD5 check sum: 78c19812648e8988a0fe644b0f25305e
     Pseudo is Ultrasoft, Zval =  6.0
     Generated by new atomic code, or converted to UPF format
     Using radial grid of  737 points,  4 beta functions with:
                l(1) =   0
                l(2) =   0
                l(3) =   1
                l(4) =   1
     Q(r) pseudized with  8 coefficients,  rinner =    0.800   0.800   0.800

     PseudoPot. # 3 for N  read from file:
     /storage/coda1/p-amedford6/0/shared/rich_project_chbe-medford/medford-share/data/pseudos_module/espresso/nninc/pbe/van/N.UPF
     MD5 check sum: 90d10febe142ad51ac9d5be1deb811c4
     Pseudo is Ultrasoft, Zval =  5.0
     Generated by new atomic code, or converted to UPF format
     Using radial grid of  729 points,  4 beta functions with:
                l(1) =   0
                l(2) =   0
                l(3) =   1
                l(4) =   1
     Q(r) pseudized with  8 coefficients,  rinner =    0.800   0.800   0.800

     PseudoPot. # 4 for C  read from file:
     /storage/coda1/p-amedford6/0/shared/rich_project_chbe-medford/medford-share/data/pseudos_module/espresso/nninc/pbe/van/C.UPF
     MD5 check sum: 1a69bf6b8db32088f5b2163dbdb77a27
     Pseudo is Ultrasoft, Zval =  4.0
     Generated by new atomic code, or converted to UPF format
     Using radial grid of  721 points,  4 beta functions with:
                l(1) =   0
                l(2) =   0
                l(3) =   1
                l(4) =   1
     Q(r) pseudized with  8 coefficients,  rinner =    0.800   0.800   0.800

     PseudoPot. # 5 for H  read from file:
     /storage/coda1/p-amedford6/0/shared/rich_project_chbe-medford/medford-share/data/pseudos_module/espresso/nninc/pbe/van/H.UPF
     MD5 check sum: b5ee9d7bfd3a09ee7748110bda690ff7
     Pseudo is Ultrasoft, Zval =  1.0
     Generated by new atomic code, or converted to UPF format
     Using radial grid of  615 points,  1 beta functions with:
                l(1) =   0
     Q(r) pseudized with  8 coefficients,  rinner =    0.800

     atomic species   valence    mass     pseudopotential
        Ti1           12.00    47.86700     Ti( 1.00)
        O1             6.00    15.99900     O ( 1.00)
        N1             5.00    14.00700     N ( 1.00)
        C1             4.00    12.01100     C ( 1.00)
        H1             1.00     1.00800     H ( 1.00)

     No symmetry found

   Cartesian axes

     site n.     atom                  positions (alat units)
         1           Ti1 tau(   1) = (   0.0004258   2.9801865   6.0000000  )
         2           Ti1 tau(   2) = (   3.2906075   1.4906267   6.0002472  )
         3           O1  tau(   3) = (   0.0006271   0.0005054   7.9858123  )
         4           O1  tau(   4) = (   3.2906025   0.0005020   7.3038282  )
         5           O1  tau(   5) = (   4.5942328   1.4918067   9.2879030  )
         6           O1  tau(   6) = (   1.9868534   1.4903216   9.2879459  )
         7           Ti1 tau(   7) = (   3.2907910   2.8959150   9.1758416  )
         8           Ti1 tau(   8) = (   0.0015273   1.4827037   9.2680791  )
         9           O1  tau(   9) = (   3.2834828   5.9254549  11.3560997  )
        10           O1  tau(  10) = (   0.0116148   5.9584955  10.6183126  )
        11           O1  tau(  11) = (   1.2632982   1.4794151  12.6467768  )
        12           O1  tau(  12) = (   5.2979234   1.4912170  12.6376735  )
        13           Ti1 tau(  13) = (   6.5593102   2.9584919  12.5255918  )
        14           Ti1 tau(  14) = (   3.2941082   1.2876829  12.7086691  )
        15           O1  tau(  15) = (   6.5459232   0.0848410  14.6672212  )
        16           O1  tau(  16) = (   3.2899079   0.0686032  13.9983899  )
        17           O1  tau(  17) = (   4.5347701   1.5447734  16.1667714  )
        18           O1  tau(  18) = (   1.9898569   1.5359154  16.1924900  )
        19           Ti1 tau(  19) = (   3.2532585   2.9792413  15.6887139  )
        20           Ti1 tau(  20) = (   6.5162390   1.4193964  16.0443711  )
        21           O1  tau(  21) = (   3.2904802   0.0005063   4.7018136  )
        22           O1  tau(  22) = (   6.5314393   5.8470953  17.1670503  )
        23           O1  tau(  23) = (   1.3043587   1.4918075   6.0039043  )
        24           O1  tau(  24) = (   5.2767064   1.4903225   6.0039473  )
        25           Ti1 tau(  25) = (   0.0000382   5.9609847   6.0000000  )
        26           Ti1 tau(  26) = (   3.2902200   4.4714249   6.0002472  )
        27           O1  tau(  27) = (   0.0002396   2.9813036   7.9858123  )
        28           O1  tau(  28) = (   3.2902150   2.9813002   7.3038282  )
        29           O1  tau(  29) = (   4.5938453   4.4726049   9.2879030  )
        30           O1  tau(  30) = (   1.9864658   4.4711199   9.2879459  )
        31           Ti1 tau(  31) = (   3.2891106   5.8743827   9.1763621  )
        32           Ti1 tau(  32) = (   0.0006254   4.4649316   9.2693709  )
        33           O1  tau(  33) = (   3.2801501   3.0037454  11.3162440  )
        34           O1  tau(  34) = (   0.0092240   2.9805883  10.6323155  )
        35           O1  tau(  35) = (   1.2628463   4.4620516  12.6871769  )
        36           O1  tau(  36) = (   5.2965349   4.4479299  12.6783795  )
        37           Ti1 tau(  37) = (   0.0245004   5.9521619  12.5031165  )
        38           Ti1 tau(  38) = (   3.2934334   4.3725749  12.4478892  )
        39           O1  tau(  39) = (   0.0012172   2.9324930  14.9038371  )
        40           O1  tau(  40) = (   3.2612729   2.9642313  13.9201381  )
        41           O1  tau(  41) = (   4.5459169   4.3864222  16.0774642  )
        42           O1  tau(  42) = (   2.0085495   4.4473877  16.1057765  )
        43           Ti1 tau(  43) = (   3.2275989   5.9528725  16.3079466  )
        44           Ti1 tau(  44) = (   6.5418721   4.6299905  15.7990834  )
        45           O1  tau(  45) = (   3.2900926   2.9813045   4.7018136  )
        46           O1  tau(  46) = (   1.3039711   4.4726057   6.0039043  )
        47           O1  tau(  47) = (   5.2763189   4.4711207   6.0039473  )
        48           N1  tau(  48) = (   6.5153795   2.7269917  18.1720481  )
        49           C1  tau(  49) = (   0.9714328   2.6352729  18.9176740  )
        50           H1  tau(  50) = (   0.9613011   2.9697384  19.9641300  )
        51           H1  tau(  51) = (   1.8619620   2.1844435  18.5121220  )
        52           N1  tau(  52) = (   5.3313596   3.1722530  18.7397816  )
        53           H1  tau(  53) = (   5.4931776   3.7097374  19.5894643  )
        54           H1  tau(  54) = (   4.8256156   3.7472006  18.0707398  )
        55           O1  tau(  55) = (   3.3867674   5.8992794  18.1610867  )
        56           H1  tau(  56) = (   4.0349165   0.5560778  18.5374839  )

     number of k points=    10  Fermi-Dirac smearing, width (Ry)=  0.0073
                       cart. coord. in units 2pi/alat
        k(    1) = (   0.0000000   0.0000000   0.0000000), wk =   0.1250000
        k(    2) = (   0.0000000   0.0419351   0.0000000), wk =   0.2500000
        k(    3) = (   0.0000000  -0.0838702   0.0000000), wk =   0.1250000
        k(    4) = (   0.0379955   0.0000049   0.0000000), wk =   0.2500000
        k(    5) = (   0.0379955   0.0419400   0.0000000), wk =   0.2500000
        k(    6) = (   0.0379955  -0.0838652   0.0000000), wk =   0.2500000
        k(    7) = (   0.0379955  -0.0419301   0.0000000), wk =   0.2500000
        k(    8) = (  -0.0759910  -0.0000099   0.0000000), wk =   0.1250000
        k(    9) = (  -0.0759910   0.0419252   0.0000000), wk =   0.2500000
        k(   10) = (  -0.0759910  -0.0838800   0.0000000), wk =   0.1250000

     Initial potential from superposition of free atoms

     starting charge  386.99914, renormalised to  403.00000

     negative rho (up, down):  1.545E-02 0.000E+00

     %%%%%%%%%%%%%%%%%%%%%%%%%%%%%%%%%%%%%%%%%%%%%%%%%%%%%%%%%%%%%%%%%%%%%%%%
     %                                                                      %
     % You are using vdW-DF, which was implemented by the Thonhauser group. %
     % Please cite the following two papers that made this development      %
     % possible and the two reviews that describe the various versions:     %
     %                                                                      %
     %   T. Thonhauser et al., PRL 115, 136402 (2015).                      %
     %   T. Thonhauser et al., PRB 76, 125112 (2007).                       %
     %   K. Berland et al., Rep. Prog. Phys. 78, 066501 (2015).             %
     %   D.C. Langreth et al., J. Phys.: Condens. Matter 21, 084203 (2009). %
     %                                                                      %
     %                                                                      %
     % If you are calculating the stress with vdW-DF, please also cite:     %
     %                                                                      %
     %   R. Sabatini et al., J. Phys.: Condens. Matter 24, 424209 (2012).   %
     %                                                                      %
     %%%%%%%%%%%%%%%%%%%%%%%%%%%%%%%%%%%%%%%%%%%%%%%%%%%%%%%%%%%%%%%%%%%%%%%%

     Adding external electric field

     Computed dipole along edir(3) :
        Dipole              -13.0236 Ry au,        -33.1027 Debye
        Dipole field         -0.0246 Ry au,

        Potential amp.        2.2783 Ry
        Total length         46.3494 bohr

     Starting wfcs are  305 atomic wfcs
  @ DRIVER MODE: Message from server: STATUS
  @ DRIVER MODE: Message from server: POSDATA
  @ DRIVER MODE: Reading and sharing cell
  @ DRIVER MODE: Reading and sharing positions
  @ DRIVER MODE: Received positions

     Self-consistent Calculation

     iteration #  1     ecut=    29.40 Ry     beta= 0.05
     Davidson diagonalization with overlap
     c_bands:  4 eigenvalues not converged
     c_bands:  5 eigenvalues not converged
     c_bands:  3 eigenvalues not converged
     c_bands:  1 eigenvalues not converged
     c_bands:  1 eigenvalues not converged
     c_bands:  5 eigenvalues not converged
     c_bands:  2 eigenvalues not converged
     c_bands:  3 eigenvalues not converged
     ethr =  1.00E-05,  avg # of iterations = 28.8

[...]

     total energy              =   -2311.59307486 Ry
     estimated scf accuracy    <    7504.39730056 Ry

     iteration #  2     ecut=    29.40 Ry     beta= 0.05
     Davidson diagonalization with overlap
     ethr =  1.00E-02,  avg # of iterations = 25.1

[...]

     iteration # 51     ecut=    29.40 Ry     beta= 0.05
     Davidson diagonalization with overlap
     c_bands:  1 eigenvalues not converged
     ethr =  2.01E-08,  avg # of iterations = 10.9

[...]

     total energy              =   -2974.00146496 Ry
     estimated scf accuracy    <       0.00000011 Ry

     iteration # 67     ecut=    29.40 Ry     beta= 0.05
     Davidson diagonalization with overlap
     ethr =  1.86E-11,  avg # of iterations =  7.7

     negative rho (up, down):  1.590E-02 0.000E+00

     Adding external electric field

     Computed dipole along edir(3) :
        Dipole                1.0867 Ry au,          2.7622 Debye
        Dipole field          0.0021 Ry au,

        Potential amp.       -0.1901 Ry
        Total length         46.3494 bohr

     End of self-consistent calculation

          k = 0.0000 0.0000 0.0000 ( 18029 PWs)   bands (ev):

   -55.5961 -55.5306 -55.4966 -55.3796 -55.3740 -55.3571 -55.3433 -55.3309
   -55.3233 -55.2953 -55.2478 -55.1478 -55.1324 -55.0556 -54.4989 -54.4649
   -32.0149 -31.9332 -31.8980 -31.8650 -31.8600 -31.8254 -31.8215 -31.8075
   -31.7802 -31.7763 -31.7577 -31.6831 -31.6567 -31.6488 -31.6369 -31.6333
   -31.6216 -31.6120 -31.5882 -31.5881 -31.5814 -31.5537 -31.5432 -31.5381
   -31.5202 -31.5158 -31.5115 -31.4973 -31.4875 -31.4848 -31.4767 -31.4675
   -31.4675 -31.4441 -31.4217 -31.4030 -31.3448 -31.3366 -31.3039 -31.2940
   -31.2742 -31.2619 -30.9044 -30.8191 -30.7966 -30.7221 -30.6358 -30.5238
   -18.3819 -16.4390 -16.1673 -16.0001 -15.7876 -15.7076 -15.6689 -15.4757
   -15.3835 -15.3219 -15.0930 -15.0701 -15.0646 -15.0393 -15.0294 -15.0136
   -14.9967 -14.9571 -14.9483 -14.9398 -14.9162 -14.9016 -14.8695 -14.8178
   -14.7752 -14.7587 -14.6639 -14.5954 -14.5488 -14.3142 -14.2158 -13.4980
   -12.9968 -12.8805  -8.5439  -6.2654  -5.8235  -4.0407  -3.8433  -3.5290
    -3.4336  -3.4123  -3.3520  -3.2883  -3.0470  -2.9774  -2.8854  -2.8357
    -2.7614  -2.6464  -2.5978  -2.5270  -2.4558  -2.4465  -2.3992  -2.3702
    -2.3085  -2.2952  -2.2594  -2.2527  -2.1819  -2.1622  -2.0615  -2.0492
    -2.0348  -1.9000  -1.8868  -1.8441  -1.8363  -1.8360  -1.7973  -1.7786
    -1.7629  -1.7463  -1.6412  -1.6026  -1.5820  -1.5102  -1.4777  -1.1617
    -1.1294  -1.0858  -1.0671  -1.0160  -0.9640  -0.9410  -0.9184  -0.8539
    -0.8159  -0.7658  -0.7338  -0.7002  -0.6189  -0.5828  -0.5410  -0.4577
    -0.3835  -0.3089  -0.3036  -0.2591  -0.2311  -0.2050  -0.1065  -0.0812
    -0.0679   0.0313   0.0520   0.1270   0.1673   0.2106   0.2493   0.2970
     0.3620   0.3792   0.4049   0.4408   0.4485   0.5037   0.5240   0.5828
     0.6357   0.6507   0.7488   0.8066   0.8210   0.8397   0.9483   1.0256
     1.1457   1.1537   1.2546   1.4802   1.5283   1.5720   1.7215   2.0944
     2.1394   3.5560   3.7048   3.7214   3.7654   3.8126   3.8968   4.0429
     4.1055   4.2434   4.2481

[...]

          k = 0.0380-0.0419 0.0000 ( 17876 PWs)   bands (ev):

[...]

          k =-0.0760-0.0000 0.0000 ( 17886 PWs)   bands (ev):

[...]

          k =-0.0760-0.0839 0.0000 ( 17948 PWs)   bands (ev):

   -55.5953 -55.5137 -55.5133 -55.3727 -55.3663 -55.3564 -55.3403 -55.3397
   -55.3315 -55.2883 -55.2548 -55.1447 -55.1337 -55.0585 -54.4823 -54.4813
   -31.8788 -31.8303 -31.8301 -31.8286 -31.8165 -31.8071 -31.8067 -31.8003
   -31.7327 -31.6854 -31.6765 -31.6661 -31.6612 -31.6337 -31.6335 -31.6318
   -31.6298 -31.6154 -31.6128 -31.5979 -31.5861 -31.5764 -31.5669 -31.5560
   -31.5472 -31.5433 -31.5344 -31.5338 -31.5183 -31.5129 -31.5104 -31.5064
   -31.5060 -31.4780 -31.4740 -31.4156 -31.3968 -31.3735 -31.3474 -31.3403
   -31.3104 -31.2659 -30.8097 -30.8089 -30.7179 -30.7166 -30.6794 -30.6786
   -18.3789 -16.4235 -15.7485 -15.6229 -15.4975 -15.4931 -15.3725 -15.2950
   -15.2776 -15.2488 -15.2369 -15.2028 -15.1852 -15.1495 -15.1178 -15.0868
   -15.0468 -15.0259 -15.0125 -14.9733 -14.9626 -14.9455 -14.9358 -14.9128
   -14.8714 -14.8359 -14.8251 -14.6818 -14.6267 -14.5798 -14.4408 -13.5069
   -12.9826 -12.9822  -8.5203  -6.2317  -5.8435  -3.9924  -3.9186  -2.9861
    -2.9198  -2.8178  -2.7137  -2.6186  -2.5647  -2.5292  -2.4917  -2.4472
    -2.4249  -2.3748  -2.3339  -2.3136  -2.3052  -2.2725  -2.2636  -2.2485
    -2.2285  -2.2135  -2.1984  -2.1882  -2.1601  -2.1428  -2.1420  -2.1082
    -2.0969  -2.0694  -2.0613  -2.0088  -1.9114  -1.8824  -1.7895  -1.6891
    -1.6814  -1.6682  -1.6442  -1.6066  -1.5954  -1.5698  -1.5333  -1.4730
    -1.4644  -1.3010  -1.2478  -1.2175  -1.1434  -1.0878  -1.0571  -1.0297
    -0.9863  -0.9615  -0.8882  -0.8584  -0.7621  -0.7077  -0.6812  -0.6221
    -0.5456  -0.4812  -0.4724  -0.4665  -0.4393  -0.4166  -0.3910  -0.3610
    -0.3360  -0.2657  -0.2278  -0.2091  -0.1994  -0.1441  -0.0983   0.0045
     0.1308   0.2398   0.2563   0.2870   0.3257   0.4764   0.5203   0.5818
     0.6294   0.6605   0.6908   0.7843   0.7956   0.8786   0.9041   0.9416
     0.9864   1.0112   1.0436   1.0731   1.0819   1.8917   1.8990   1.9597
     1.9600   3.7738   4.0523   4.0772   4.0852   4.1035   4.1234   4.1386
     4.1582   4.2277   4.2386

     the Fermi energy is     3.5915 ev

!    total energy              =   -2974.00149435 Ry
     estimated scf accuracy    <       0.00000004 Ry
     smearing contrib. (-TS)   =      -0.01962770 Ry
     internal energy E=F+TS    =   -2973.98186665 Ry

     The total energy is F=E-TS. E is the sum of the following terms:
     one-electron contribution =  -23471.53732222 Ry
     hartree contribution      =   11831.17961025 Ry
     xc contribution           =    -494.05818454 Ry
     ewald contribution        =    9160.43180116 Ry
     electric field correction =       0.00222869 Ry

     convergence has been achieved in  67 iterations

     Forces acting on atoms (cartesian axes, Ry/au):

     atom    1 type  1   force =     0.00012536   -0.00018534    0.09458071
     atom    2 type  1   force =    -0.00002803    0.00034470   -0.17510639
     atom    3 type  2   force =    -0.00002466   -0.00002762   -0.02134461
     atom    4 type  2   force =     0.00001641   -0.00189939    0.05324992
     atom    5 type  2   force =    -0.00694542   -0.00239356    0.00356652
     atom    6 type  2   force =     0.00805598   -0.00192961    0.00204582
     atom    7 type  1   force =    -0.00069977   -0.00277322    0.01003296
     atom    8 type  1   force =     0.00061261    0.00276292    0.00500668
     atom    9 type  2   force =     0.00003286   -0.00046220    0.00024159
     atom   10 type  2   force =    -0.00253691   -0.00140489   -0.01078420
     atom   11 type  2   force =     0.00128247   -0.00017634    0.00054718
     atom   12 type  2   force =    -0.00081288   -0.00022554    0.00065472
     atom   13 type  1   force =    -0.00094712   -0.00096278    0.00044995
     atom   14 type  1   force =     0.00031678    0.00033738    0.00006929
     atom   15 type  2   force =     0.00011763    0.00029365   -0.00037912
     atom   16 type  2   force =    -0.00045916    0.00020501    0.00008854
     atom   17 type  2   force =    -0.00015915    0.00028326    0.00016204
     atom   18 type  2   force =     0.00097573   -0.00017980   -0.00030705
     atom   19 type  1   force =     0.00118520    0.00064577    0.00004100
     atom   20 type  1   force =    -0.00072188   -0.00004874   -0.00009944
     atom   21 type  2   force =     0.00006536    0.00009685    0.10310513
     atom   22 type  2   force =     0.00058360    0.00075463    0.00047215
     atom   23 type  2   force =    -0.07213757   -0.00013993   -0.02735094
     atom   24 type  2   force =     0.07202397    0.00029424   -0.02735105
     atom   25 type  1   force =     0.00001952   -0.00014495    0.09407415
     atom   26 type  1   force =    -0.00015555   -0.00109213   -0.17520142
     atom   27 type  2   force =     0.00012300   -0.00024657   -0.02013115
     atom   28 type  2   force =    -0.00000292   -0.00026374    0.04932329
     atom   29 type  2   force =    -0.00564213    0.00192463    0.00158236
     atom   30 type  2   force =     0.00667088    0.00249667   -0.00001515
     atom   31 type  1   force =    -0.00072526    0.00677662   -0.00108705
     atom   32 type  1   force =     0.00050191   -0.00385384    0.00432082
     atom   33 type  2   force =     0.00016262   -0.00009798   -0.00079875
     atom   34 type  2   force =    -0.00187454    0.00169979   -0.01047017
     atom   35 type  2   force =     0.00116926    0.00029146   -0.00017655
     atom   36 type  2   force =    -0.00055804    0.00042980   -0.00026307
     atom   37 type  1   force =    -0.00064554    0.00045211   -0.00026887
     atom   38 type  1   force =     0.00055502    0.00013499    0.00011754
     atom   39 type  2   force =     0.00033074   -0.00040094    0.00041058
     atom   40 type  2   force =     0.00020550    0.00013251   -0.00036425
     atom   41 type  2   force =     0.00004619   -0.00011302   -0.00105733
     atom   42 type  2   force =     0.00036749   -0.00033577    0.00037831
     atom   43 type  1   force =     0.00012673   -0.00075662    0.00043383
     atom   44 type  1   force =    -0.00047425   -0.00011131    0.00015471
     atom   45 type  2   force =     0.00007604   -0.00006544    0.10289188
     atom   46 type  2   force =    -0.07217385   -0.00002504   -0.02734998
     atom   47 type  2   force =     0.07209484    0.00041075   -0.02738642
     atom   48 type  3   force =     0.00073233    0.00048749    0.00067131
     atom   49 type  4   force =    -0.00008320    0.00246606    0.00998025
     atom   50 type  5   force =    -0.00013888   -0.00360762   -0.01114069
     atom   51 type  5   force =    -0.00014433    0.00018166    0.00024917
     atom   52 type  3   force =    -0.00069583   -0.00049938    0.00011607
     atom   53 type  5   force =     0.00014334   -0.00013195    0.00018087
     atom   54 type  5   force =    -0.00008153    0.00025549   -0.00059672
     atom   55 type  2   force =    -0.00021112    0.00089770    0.00002433
     atom   56 type  5   force =     0.00036014   -0.00050090   -0.00019332

     Total force =     0.362290     Total SCF correction =     0.000462
  @ DRIVER MODE: Message from server: STATUS
  @ DRIVER MODE: Message from server: GETFORCE
  @ DRIVER MODE: Returning v,forces,stress,ensemble

     Writing output data file ./calc.save/
  @ DRIVER MODE: Message from server: EXIT
  @ DRIVE MODE: Exiting

     General routines

     Parallel routines

   This run was terminated on:  18:58:52  23Sep2021

   JOB DONE.