     Program PWSCF v.6.7GPU starts on 15Sep2021 at 11:19:16

     R & G space division:  proc/nbgrp/npool/nimage =      10
     Reading input from /storage/home/hcoda1/3/ntian30/research/carbon/CxH_vib/CH_calc/ads_slab/CHNHNH2_b/out_0006/pw.inp
Warning: card &CELL ignored
Warning: card   CELL_DYNAMICS='IPI', ignored
Warning: card / ignored

     Current dimensions of program PWSCF are:
     Max number of different atomic species (ntypx) = 10
     Max number of k-points (npk) =  40000
     Max angular momentum in pseudopotentials (lmaxx) =  3
     Presently no symmetry can be used with electric field

     Message from routine cell_base_init:
     DEPRECATED: use true lattice parameter, not A to a.u. conversion factor

     IMPORTANT: XC functional enforced from input :
     Exchange-correlation= BEEF-VDW
                           (   1   4  43  14   2   0   0)
     Any further DFT definition will be discarded
     Please, verify this is what you really want

  @ DRIVER MODE: Connecting to
 qe_1139763_2850203.sched-torque.pace.gatech.edusit69g0b_scratch
  using UNIX socket
  @ DRIVER MODE: Message from server: STATUS
  @ DRIVER MODE: Message from server: INIT
  @ DRIVER MODE: Receiving replica           0          -1
  @ DRIVER MODE: Receiving encoded integer          25
  @ DRIVER MODE:  SCF:  T  FORCE:  T  STRESS:  F  VC:  F  ENSEMBLE:  F
  @ DRIVER MODE:  SCF:  T  FORCE:  T  STRESS:  F  VC:  F  ENSEMBLE:  F

     Using Slab Decomposition

     bravais-lattice index     =            0
     lattice parameter (alat)  =       1.8897  a.u.
     unit-cell volume          =    6658.9804 (a.u.)^3
     number of atoms/cell      =           54
     number of atomic types    =            5
     number of electrons       =       396.00
     number of Kohn-Sham states=          208
     kinetic-energy cutoff     =      29.3995  Ry
     charge density cutoff     =     293.9946  Ry
     scf convergence threshold =      7.3E-08
     mixing beta               =       0.0500
     number of iterations used =            8  plain     mixing
     Exchange-correlation= BEEF-VDW
                           (   1   4  43  14   2   0   0)

     celldm(1)=   1.889726  celldm(2)=   0.000000  celldm(3)=   0.000000
     celldm(4)=   0.000000  celldm(5)=   0.000000  celldm(6)=   0.000000

     crystal axes: (cart. coord. in units of alat)
               a(1) = (   6.579727   0.000000   0.000000 )
               a(2) = (  -0.000775   5.961596   0.000000 )
               a(3) = (   0.000000   0.000000  25.155947 )

     reciprocal axes: (cart. coord. in units 2 pi/alat)
               b(1) = (  0.151982  0.000020  0.000000 )
               b(2) = (  0.000000  0.167740  0.000000 )
               b(3) = (  0.000000  0.000000  0.039752 )

     PseudoPot. # 1 for Ti read from file:
     /storage/coda1/p-amedford6/0/shared/rich_project_chbe-medford/medford-share/data/pseudos_module/espresso/nninc/pbe/van/Ti.UPF
     MD5 check sum: 8e4df49b7f0d34bbd5052bf3f5ea0213
     Pseudo is Ultrasoft, Zval = 12.0
     Generated by new atomic code, or converted to UPF format
     Using radial grid of  851 points,  6 beta functions with:
                l(1) =   0
                l(2) =   0
                l(3) =   1
                l(4) =   1
                l(5) =   2
                l(6) =   2
     Q(r) pseudized with  8 coefficients,  rinner =    1.000   1.000   1.000
                                                       1.000   1.000

     PseudoPot. # 2 for O  read from file:
     /storage/coda1/p-amedford6/0/shared/rich_project_chbe-medford/medford-share/data/pseudos_module/espresso/nninc/pbe/van/O.UPF
     MD5 check sum: 78c19812648e8988a0fe644b0f25305e
     Pseudo is Ultrasoft, Zval =  6.0
     Generated by new atomic code, or converted to UPF format
     Using radial grid of  737 points,  4 beta functions with:
                l(1) =   0
                l(2) =   0
                l(3) =   1
                l(4) =   1
     Q(r) pseudized with  8 coefficients,  rinner =    0.800   0.800   0.800

     PseudoPot. # 3 for N  read from file:
     /storage/coda1/p-amedford6/0/shared/rich_project_chbe-medford/medford-share/data/pseudos_module/espresso/nninc/pbe/van/N.UPF
     MD5 check sum: 90d10febe142ad51ac9d5be1deb811c4
     Pseudo is Ultrasoft, Zval =  5.0
     Generated by new atomic code, or converted to UPF format
     Using radial grid of  729 points,  4 beta functions with:
                l(1) =   0
                l(2) =   0
                l(3) =   1
                l(4) =   1
     Q(r) pseudized with  8 coefficients,  rinner =    0.800   0.800   0.800

     PseudoPot. # 4 for C  read from file:
     /storage/coda1/p-amedford6/0/shared/rich_project_chbe-medford/medford-share/data/pseudos_module/espresso/nninc/pbe/van/C.UPF
     MD5 check sum: 1a69bf6b8db32088f5b2163dbdb77a27
     Pseudo is Ultrasoft, Zval =  4.0
     Generated by new atomic code, or converted to UPF format
     Using radial grid of  721 points,  4 beta functions with:
                l(1) =   0
                l(2) =   0
                l(3) =   1
                l(4) =   1
     Q(r) pseudized with  8 coefficients,  rinner =    0.800   0.800   0.800

     PseudoPot. # 5 for H  read from file:
     /storage/coda1/p-amedford6/0/shared/rich_project_chbe-medford/medford-share/data/pseudos_module/espresso/nninc/pbe/van/H.UPF
     MD5 check sum: b5ee9d7bfd3a09ee7748110bda690ff7
     Pseudo is Ultrasoft, Zval =  1.0
     Generated by new atomic code, or converted to UPF format
     Using radial grid of  615 points,  1 beta functions with:
                l(1) =   0
     Q(r) pseudized with  8 coefficients,  rinner =    0.800

     atomic species   valence    mass     pseudopotential
        Ti1           12.00    47.86700     Ti( 1.00)
        O1             6.00    15.99900     O ( 1.00)
        N1             5.00    14.00700     N ( 1.00)
        C1             4.00    12.01100     C ( 1.00)
        H1             1.00     1.00800     H ( 1.00)

     No symmetry found

   Cartesian axes

     site n.     atom                  positions (alat units)
         1           Ti1 tau(   1) = (   0.0004258   2.9801865   6.0000000  )
         2           Ti1 tau(   2) = (   3.2906075   1.4906267   6.0002472  )
         3           O1  tau(   3) = (   0.0006271   0.0005054   7.9858123  )
         4           O1  tau(   4) = (   3.2906025   0.0005020   7.3038282  )
         5           O1  tau(   5) = (   4.5942328   1.4918067   9.2879030  )
         6           O1  tau(   6) = (   1.9868534   1.4903216   9.2879459  )
         7           Ti1 tau(   7) = (   3.2907910   2.8959150   9.1758416  )
         8           Ti1 tau(   8) = (   0.0015273   1.4827037   9.2680791  )
         9           O1  tau(   9) = (   3.2793096   0.0109766  11.3808719  )
        10           O1  tau(  10) = (   0.0116148   5.9584955  10.6183126  )
        11           O1  tau(  11) = (   1.2765542   1.4933007  12.7034215  )
        12           O1  tau(  12) = (   5.2857700   1.4936877  12.6893616  )
        13           Ti1 tau(  13) = (   6.5704964   2.9736084  12.5041408  )
        14           Ti1 tau(  14) = (   3.2751742   1.4933391  12.5393049  )
        15           O1  tau(  15) = (   6.5372820   5.8718772  14.6936981  )
        16           O1  tau(  16) = (   3.2837545   5.9462538  13.9991140  )
        17           O1  tau(  17) = (   4.5218413   1.5222141  16.1415557  )
        18           O1  tau(  18) = (   2.0028246   1.5144184  16.0917912  )
        19           Ti1 tau(  19) = (   3.2608137   3.0032599  15.7731319  )
        20           Ti1 tau(  20) = (   6.5347537   1.3176600  15.8357148  )
        21           O1  tau(  21) = (   3.2904802   0.0005063   4.7018136  )
        22           O1  tau(  22) = (   0.0001116   0.1817366  17.2468837  )
        23           O1  tau(  23) = (   1.3043587   1.4918075   6.0039043  )
        24           O1  tau(  24) = (   5.2767064   1.4903225   6.0039473  )
        25           Ti1 tau(  25) = (   0.0000382   5.9609847   6.0000000  )
        26           Ti1 tau(  26) = (   3.2902200   4.4714249   6.0002472  )
        27           O1  tau(  27) = (   0.0002396   2.9813036   7.9858123  )
        28           O1  tau(  28) = (   3.2902150   2.9813002   7.3038282  )
        29           O1  tau(  29) = (   4.5938453   4.4726049   9.2879030  )
        30           O1  tau(  30) = (   1.9864658   4.4711199   9.2879459  )
        31           Ti1 tau(  31) = (   3.2891106   5.8743827   9.1763621  )
        32           Ti1 tau(  32) = (   0.0006254   4.4649316   9.2693709  )
        33           O1  tau(  33) = (   3.2784652   2.9723947  11.3763700  )
        34           O1  tau(  34) = (   0.0092240   2.9805883  10.6323155  )
        35           O1  tau(  35) = (   1.2785823   4.4627939  12.6603399  )
        36           O1  tau(  36) = (   5.2819334   4.4612839  12.6411408  )
        37           Ti1 tau(  37) = (   6.5651122   5.9414744  12.5010122  )
        38           Ti1 tau(  38) = (   3.2748416   4.4711967  12.5285960  )
        39           O1  tau(  39) = (   6.5535135   3.0442902  14.9788272  )
        40           O1  tau(  40) = (   3.2854610   3.0101546  13.9792171  )
        41           O1  tau(  41) = (   4.5276217   4.4805847  16.2446860  )
        42           O1  tau(  42) = (   2.0020726   4.4828838  16.2214318  )
        43           Ti1 tau(  43) = (   3.2599196   0.0196740  15.7976440  )
        44           Ti1 tau(  44) = (   6.5457193   4.5363361  16.0654255  )
        45           O1  tau(  45) = (   3.2900926   2.9813045   4.7018136  )
        46           O1  tau(  46) = (   1.3039711   4.4726057   6.0039043  )
        47           O1  tau(  47) = (   5.2763189   4.4711207   6.0039473  )
        48           N1  tau(  48) = (   1.1367570   2.6896871  18.7616802  )
        49           N1  tau(  49) = (   6.5001796   3.3781512  18.2049158  )
        50           C1  tau(  50) = (   2.1807708   3.2122984  19.2750733  )
        51           H1  tau(  51) = (   2.0427863   4.2979755  19.4033283  )
        52           H1  tau(  52) = (   1.0785778   1.7047639  18.4906217  )
        53           H1  tau(  53) = (   6.4055442   4.2515232  18.7250902  )
        54           H1  tau(  54) = (   5.6874363   2.7987760  18.4315970  )

     number of k points=    10  Fermi-Dirac smearing, width (Ry)=  0.0073
                       cart. coord. in units 2pi/alat
        k(    1) = (   0.0000000   0.0000000   0.0000000), wk =   0.1250000
        k(    2) = (   0.0000000   0.0419351   0.0000000), wk =   0.2500000
        k(    3) = (   0.0000000  -0.0838702   0.0000000), wk =   0.1250000
        k(    4) = (   0.0379955   0.0000049   0.0000000), wk =   0.2500000
        k(    5) = (   0.0379955   0.0419400   0.0000000), wk =   0.2500000
        k(    6) = (   0.0379955  -0.0838652   0.0000000), wk =   0.2500000
        k(    7) = (   0.0379955  -0.0419301   0.0000000), wk =   0.2500000
        k(    8) = (  -0.0759910  -0.0000099   0.0000000), wk =   0.1250000
        k(    9) = (  -0.0759910   0.0419252   0.0000000), wk =   0.2500000
        k(   10) = (  -0.0759910  -0.0838800   0.0000000), wk =   0.1250000

[...]
     Using radial grid of  729 points,  4 beta functions with:
                l(1) =   0
                l(2) =   0
                l(3) =   1
                l(4) =   1
     Q(r) pseudized with  8 coefficients,  rinner =    0.800   0.800   0.800

     PseudoPot. # 4 for C  read from file:
     /storage/coda1/p-amedford6/0/shared/rich_project_chbe-medford/medford-share/data/pseudos_module/espresso/nninc/pbe/van/C.UPF
     MD5 check sum: 1a69bf6b8db32088f5b2163dbdb77a27
     Pseudo is Ultrasoft, Zval =  4.0
     Generated by new atomic code, or converted to UPF format
     Using radial grid of  721 points,  4 beta functions with:
                l(1) =   0
                l(2) =   0
                l(3) =   1
                l(4) =   1
     Q(r) pseudized with  8 coefficients,  rinner =    0.800   0.800   0.800

     PseudoPot. # 5 for H  read from file:
     /storage/coda1/p-amedford6/0/shared/rich_project_chbe-medford/medford-share/data/pseudos_module/espresso/nninc/pbe/van/H.UPF
     MD5 check sum: b5ee9d7bfd3a09ee7748110bda690ff7
     Pseudo is Ultrasoft, Zval =  1.0
     Generated by new atomic code, or converted to UPF format
     Using radial grid of  615 points,  1 beta functions with:
                l(1) =   0
     Q(r) pseudized with  8 coefficients,  rinner =    0.800

     atomic species   valence    mass     pseudopotential
        Ti1           12.00    47.86700     Ti( 1.00)
        O1             6.00    15.99900     O ( 1.00)
        N1             5.00    14.00700     N ( 1.00)
        C1             4.00    12.01100     C ( 1.00)
        H1             1.00     1.00800     H ( 1.00)

     No symmetry found

   Cartesian axes

     site n.     atom                  positions (alat units)
         1           Ti1 tau(   1) = (   0.0004258   2.9801865   6.0000000  )
         2           Ti1 tau(   2) = (   3.2906075   1.4906267   6.0002472  )
         3           O1  tau(   3) = (   0.0006271   0.0005054   7.9858123  )
         4           O1  tau(   4) = (   3.2906025   0.0005020   7.3038282  )
         5           O1  tau(   5) = (   4.5942328   1.4918067   9.2879030  )
         6           O1  tau(   6) = (   1.9868534   1.4903216   9.2879459  )
         7           Ti1 tau(   7) = (   3.2907910   2.8959150   9.1758416  )
         8           Ti1 tau(   8) = (   0.0015273   1.4827037   9.2680791  )
         9           O1  tau(   9) = (   3.2793096   0.0109766  11.3808719  )
        10           O1  tau(  10) = (   0.0116148   5.9584955  10.6183126  )
        11           O1  tau(  11) = (   1.2765542   1.4933007  12.7034215  )
        12           O1  tau(  12) = (   5.2857700   1.4936877  12.6893616  )
        13           Ti1 tau(  13) = (   6.5704964   2.9736084  12.5041408  )
        14           Ti1 tau(  14) = (   3.2751742   1.4933391  12.5393049  )
        15           O1  tau(  15) = (   6.5372820   5.8718772  14.6936981  )
        16           O1  tau(  16) = (   3.2837545   5.9462538  13.9991140  )
        17           O1  tau(  17) = (   4.5218413   1.5222141  16.1415557  )
        18           O1  tau(  18) = (   2.0028246   1.5144184  16.0917912  )
        19           Ti1 tau(  19) = (   3.2608137   3.0032599  15.7731319  )
        20           Ti1 tau(  20) = (   6.5347537   1.3176600  15.8357148  )
        21           O1  tau(  21) = (   3.2904802   0.0005063   4.7018136  )
        22           O1  tau(  22) = (   0.0001116   0.1817366  17.2468837  )
        23           O1  tau(  23) = (   1.3043587   1.4918075   6.0039043  )
        24           O1  tau(  24) = (   5.2767064   1.4903225   6.0039473  )
        25           Ti1 tau(  25) = (   0.0000382   5.9609847   6.0000000  )
        26           Ti1 tau(  26) = (   3.2902200   4.4714249   6.0002472  )
        27           O1  tau(  27) = (   0.0002396   2.9813036   7.9858123  )
        28           O1  tau(  28) = (   3.2902150   2.9813002   7.3038282  )
        29           O1  tau(  29) = (   4.5938453   4.4726049   9.2879030  )
        30           O1  tau(  30) = (   1.9864658   4.4711199   9.2879459  )
        31           Ti1 tau(  31) = (   3.2891106   5.8743827   9.1763621  )
        32           Ti1 tau(  32) = (   0.0006254   4.4649316   9.2693709  )
        33           O1  tau(  33) = (   3.2784652   2.9723947  11.3763700  )
        34           O1  tau(  34) = (   0.0092240   2.9805883  10.6323155  )
        35           O1  tau(  35) = (   1.2785823   4.4627939  12.6603399  )
        36           O1  tau(  36) = (   5.2819334   4.4612839  12.6411408  )
        37           Ti1 tau(  37) = (   6.5651122   5.9414744  12.5010122  )
        38           Ti1 tau(  38) = (   3.2748416   4.4711967  12.5285960  )
        39           O1  tau(  39) = (   6.5535135   3.0442902  14.9788272  )
        40           O1  tau(  40) = (   3.2854610   3.0101546  13.9792171  )
        41           O1  tau(  41) = (   4.5276217   4.4805847  16.2446860  )
        42           O1  tau(  42) = (   2.0020726   4.4828838  16.2214318  )
        43           Ti1 tau(  43) = (   3.2599196   0.0196740  15.7976440  )
        44           Ti1 tau(  44) = (   6.5457193   4.5363361  16.0654255  )
        45           O1  tau(  45) = (   3.2900926   2.9813045   4.7018136  )
        46           O1  tau(  46) = (   1.3039711   4.4726057   6.0039043  )
        47           O1  tau(  47) = (   5.2763189   4.4711207   6.0039473  )
        48           N1  tau(  48) = (   1.1367570   2.6896871  18.7516802  )
        49           N1  tau(  49) = (   6.5001796   3.3781512  18.2049158  )
        50           C1  tau(  50) = (   2.1807708   3.2122984  19.2750733  )
        51           H1  tau(  51) = (   2.0427863   4.2979755  19.4033283  )
        52           H1  tau(  52) = (   1.0785778   1.7047639  18.4906217  )
        53           H1  tau(  53) = (   6.3955442   4.2515232  18.7250902  )
        54           H1  tau(  54) = (   5.6874363   2.7987760  18.4315970  )

     number of k points=    10  Fermi-Dirac smearing, width (Ry)=  0.0073
                       cart. coord. in units 2pi/alat
        k(    1) = (   0.0000000   0.0000000   0.0000000), wk =   0.1250000
        k(    2) = (   0.0000000   0.0419351   0.0000000), wk =   0.2500000
        k(    3) = (   0.0000000  -0.0838702   0.0000000), wk =   0.1250000
        k(    4) = (   0.0379955   0.0000049   0.0000000), wk =   0.2500000
        k(    5) = (   0.0379955   0.0419400   0.0000000), wk =   0.2500000
        k(    6) = (   0.0379955  -0.0838652   0.0000000), wk =   0.2500000
        k(    7) = (   0.0379955  -0.0419301   0.0000000), wk =   0.2500000
        k(    8) = (  -0.0759910  -0.0000099   0.0000000), wk =   0.1250000
        k(    9) = (  -0.0759910   0.0419252   0.0000000), wk =   0.2500000
        k(   10) = (  -0.0759910  -0.0838800   0.0000000), wk =   0.1250000

     Initial potential from superposition of free atoms

     starting charge  379.99915, renormalised to  396.00000

[...]

     %%%%%%%%%%%%%%%%%%%%%%%%%%%%%%%%%%%%%%%%%%%%%%%%%%%%%%%%%%%%%%%%%%%%%%%%
     %                                                                      %
     % You are using vdW-DF, which was implemented by the Thonhauser group. %
     % Please cite the following two papers that made this development      %
     % possible and the two reviews that describe the various versions:     %
     %                                                                      %
     %   T. Thonhauser et al., PRL 115, 136402 (2015).                      %
     %   T. Thonhauser et al., PRB 76, 125112 (2007).                       %
     %   K. Berland et al., Rep. Prog. Phys. 78, 066501 (2015).             %
     %   D.C. Langreth et al., J. Phys.: Condens. Matter 21, 084203 (2009). %
     %                                                                      %
     %                                                                      %
     % If you are calculating the stress with vdW-DF, please also cite:     %
     %                                                                      %
     %   R. Sabatini et al., J. Phys.: Condens. Matter 24, 424209 (2012).   %
     %                                                                      %
     %%%%%%%%%%%%%%%%%%%%%%%%%%%%%%%%%%%%%%%%%%%%%%%%%%%%%%%%%%%%%%%%%%%%%%%%

[...]

     Starting wfcs are  300 atomic wfcs
  @ DRIVER MODE: Message from server: STATUS
  @ DRIVER MODE: Message from server: POSDATA
  @ DRIVER MODE: Reading and sharing cell
  @ DRIVER MODE: Reading and sharing positions
  @ DRIVER MODE: Received positions

     Self-consistent Calculation

[...]

     iteration # 54     ecut=    29.40 Ry     beta= 0.05
     Davidson diagonalization with overlap
     c_bands:  1 eigenvalues not converged
     ethr =  6.90E-10,  avg # of iterations = 11.0

[...]

     total energy              =   -2940.25626824 Ry
     estimated scf accuracy    <       0.00000008 Ry

     iteration # 68     ecut=    29.40 Ry     beta= 0.05
     Davidson diagonalization with overlap
     ethr =  2.00E-11,  avg # of iterations =  6.0

     negative rho (up, down):  1.612E-02 0.000E+00

     Adding external electric field

     Computed dipole along edir(3) :
        Dipole                0.8152 Ry au,          2.0719 Debye
        Dipole field          0.0015 Ry au,

        Potential amp.       -0.1426 Ry
        Total length         46.3494 bohr

     End of self-consistent calculation

[...]

          k = 0.0380-0.0419 0.0000 ( 17876 PWs)   bands (ev):

[...]

          k =-0.0760-0.0839 0.0000 ( 17948 PWs)   bands (ev):

   -55.6509 -55.6412 -55.5988 -55.5983 -55.5827 -55.5422 -55.5261 -55.5229
   -55.4818 -55.4720 -55.4691 -55.4307 -55.4302 -55.3306 -54.6306 -54.6302
   -32.0421 -32.0379 -32.0301 -31.9424 -31.9238 -31.9234 -31.9200 -31.8900
   -31.8897 -31.8740 -31.8642 -31.8614 -31.8537 -31.8306 -31.8182 -31.8058
   -31.8046 -31.8009 -31.7978 -31.7899 -31.7884 -31.7848 -31.7447 -31.7423
   -31.7407 -31.7376 -31.7314 -31.7201 -31.7186 -31.7181 -31.7146 -31.7046
   -31.7021 -31.6850 -31.6818 -31.6668 -31.6645 -31.6615 -31.6113 -31.6113
   -31.6021 -31.5422 -30.9532 -30.9529 -30.8696 -30.8694 -30.8301 -30.8299
   -18.4888 -16.0398 -15.8848 -15.8571 -15.7072 -15.6737 -15.6302 -15.6160
   -15.5090 -15.4554 -15.4352 -15.4172 -15.4168 -15.3674 -15.3655 -15.3605
   -15.2883 -15.2693 -15.2666 -15.2408 -15.1851 -15.1785 -15.1719 -15.1668
   -15.1151 -15.1114 -15.0699 -15.0205 -15.0172 -14.8417 -14.5310 -13.1341
   -13.1341  -9.5845  -6.7231  -5.7943  -4.1250  -3.7913  -3.1485  -3.1375
    -3.1176  -2.9224  -2.8537  -2.8238  -2.8204  -2.7274  -2.6865  -2.6490
    -2.6466  -2.5843  -2.5736  -2.5458  -2.5122  -2.5002  -2.4843  -2.4633
    -2.4307  -2.4005  -2.3901  -2.3789  -2.3775  -2.3253  -2.3128  -2.3011
    -2.2684  -2.2485  -2.2293  -2.2184  -2.1497  -2.0495  -2.0323  -1.9490
    -1.8747  -1.8703  -1.7984  -1.7734  -1.7351  -1.7077  -1.6990  -1.6341
    -1.4729  -1.4369  -1.4128  -1.4017  -1.2928  -1.2719  -1.2463  -1.1844
    -1.1717  -1.1505  -1.0233  -0.9878  -0.9747  -0.8907  -0.8801  -0.8001
    -0.7581  -0.6902  -0.6683  -0.6217  -0.6199  -0.5777  -0.5685  -0.5019
    -0.4702  -0.4343  -0.4008  -0.3869  -0.3496  -0.1546  -0.1418  -0.1330
     0.0054   0.0228   0.1864   0.2132   0.2665   0.3630   0.3879   0.4453
     0.4787   0.6207   0.6397   0.6464   0.7085   0.7205   0.7848   0.7962
     1.5334   1.7315   1.7320   1.8199   1.8201   3.5759   3.6879   3.7026
     3.7364   3.8461   3.8718   3.9502   3.9794   4.0172   4.0204   4.0829

     the Fermi energy is     3.4960 ev

!    total energy              =   -2940.25628966 Ry
     estimated scf accuracy    <       0.00000004 Ry
     smearing contrib. (-TS)   =      -0.03710086 Ry
     internal energy E=F+TS    =   -2940.21918880 Ry

     The total energy is F=E-TS. E is the sum of the following terms:
     one-electron contribution =  -23762.77373593 Ry
     hartree contribution      =   11970.29226424 Ry
     xc contribution           =    -485.99122299 Ry
     ewald contribution        =    9338.25225194 Ry
     electric field correction =       0.00125394 Ry

     convergence has been achieved in  68 iterations

     Forces acting on atoms (cartesian axes, Ry/au):

     atom    1 type  1   force =     0.00023143   -0.00026213    0.09313186
     atom    2 type  1   force =    -0.00000126   -0.00049435   -0.17829378
     atom    3 type  2   force =     0.00007769   -0.00041453   -0.02009279
     atom    4 type  2   force =     0.00003943   -0.00193028    0.05909179
     atom    5 type  2   force =    -0.01029914   -0.00073400    0.00827806
     atom    6 type  2   force =     0.01151927   -0.00008501    0.00662455
     atom    7 type  1   force =    -0.00058312    0.00210805   -0.01394006
     atom    8 type  1   force =     0.00069264   -0.00093391   -0.00577672
     atom    9 type  2   force =     0.00006978   -0.00011921    0.00005115
     atom   10 type  2   force =    -0.00259983    0.00235680    0.00053448
     atom   11 type  2   force =    -0.00006619   -0.00005520    0.00007322
     atom   12 type  2   force =     0.00003759    0.00019099   -0.00005752
     atom   13 type  1   force =    -0.00008778    0.00007745    0.00005049
     atom   14 type  1   force =    -0.00010066   -0.00035619   -0.00003332
     atom   15 type  2   force =    -0.00015130    0.00011806    0.00009195
     atom   16 type  2   force =     0.00017459   -0.00003372    0.00019960
     atom   17 type  2   force =    -0.00002105   -0.00002740   -0.00004308
     atom   18 type  2   force =     0.00009651   -0.00010969    0.00029548
     atom   19 type  1   force =     0.00014383   -0.00011988   -0.00003245
     atom   20 type  1   force =    -0.00028371    0.00025809   -0.00022342
     atom   21 type  2   force =     0.00014074   -0.00010784    0.10400038
     atom   22 type  2   force =     0.00002242    0.00026812    0.00011014
     atom   23 type  2   force =    -0.07025854   -0.00019645   -0.02686347
     atom   24 type  2   force =     0.07029917    0.00026439   -0.02690099
     atom   25 type  1   force =     0.00022954   -0.00018840    0.09279786
     atom   26 type  1   force =     0.00003070   -0.00045400   -0.17842924
     atom   27 type  2   force =     0.00012988   -0.00023922   -0.01916133
     atom   28 type  2   force =     0.00006877   -0.00174022    0.05852996
     atom   29 type  2   force =    -0.01092376   -0.00101420    0.00903477
     atom   30 type  2   force =     0.01204133   -0.00059514    0.00745106
     atom   31 type  1   force =    -0.00057382    0.00639841   -0.01467703
     atom   32 type  1   force =     0.00074869    0.00032926   -0.00607297
     atom   33 type  2   force =    -0.00008657   -0.00016942    0.00004274
     atom   34 type  2   force =    -0.00184536   -0.00249726   -0.00038336
     atom   35 type  2   force =    -0.00009779    0.00021608   -0.00008435
     atom   36 type  2   force =     0.00013083    0.00009383   -0.00014376
     atom   37 type  1   force =     0.00007951    0.00012138   -0.00000843
     atom   38 type  1   force =     0.00007356   -0.00043307   -0.00001157
     atom   39 type  2   force =     0.00014044    0.00014982   -0.00015029
     atom   40 type  2   force =    -0.00009773   -0.00007553    0.00017367
     atom   41 type  2   force =    -0.00006119    0.00002984    0.00008620
     atom   42 type  2   force =     0.00006134    0.00005583   -0.00003371
     atom   43 type  1   force =     0.00032974   -0.00012258    0.00007325
     atom   44 type  1   force =     0.00028096    0.00017532    0.00000605
     atom   45 type  2   force =     0.00012714   -0.00011031    0.10396007
     atom   46 type  2   force =    -0.07025797   -0.00011758   -0.02685939
     atom   47 type  2   force =     0.07024629    0.00029190   -0.02687043
     atom   48 type  3   force =    -0.00063573    0.00021435    0.00142335
     atom   49 type  3   force =    -0.00234149    0.00051115    0.00041530
     atom   50 type  4   force =    -0.00009141    0.00099185    0.00021486
     atom   51 type  5   force =     0.00005914   -0.00106797   -0.00050453
     atom   52 type  5   force =    -0.00017190    0.00131859   -0.00035475
     atom   53 type  5   force =     0.00287171   -0.00137911   -0.00027963
     atom   54 type  5   force =     0.00044266   -0.00035576   -0.00045988

     Total force =     0.366331     Total SCF correction =     0.000414
  @ DRIVER MODE: Message from server: STATUS
  @ DRIVER MODE: Message from server: GETFORCE
  @ DRIVER MODE: Returning v,forces,stress,ensemble

     Writing output data file ./calc.save/
  @ DRIVER MODE: Message from server: EXIT
  @ DRIVE MODE: Exiting

     General routines

     Parallel routines

   This run was terminated on:  17:38:36  15Sep2021

   JOB DONE.