     Program PWSCF v.6.7GPU starts on 23Aug2021 at 20: 7: 4

     R & G space division:  proc/nbgrp/npool/nimage =       6
     Reading input from /storage/home/hcoda1/3/ntian30/research/carbon/CH_vib/ads_slab/CHNH_a/out_0016/pw.inp
Warning: card &CELL ignored
Warning: card   CELL_DYNAMICS='IPI', ignored
Warning: card / ignored

     Current dimensions of program PWSCF are:
     Max number of different atomic species (ntypx) = 10
     Max number of k-points (npk) =  40000
     Max angular momentum in pseudopotentials (lmaxx) =  3
     Presently no symmetry can be used with electric field

     Message from routine cell_base_init:
     DEPRECATED: use true lattice parameter, not A to a.u. conversion factor

     IMPORTANT: XC functional enforced from input :
     Exchange-correlation= BEEF-VDW
                           (   1   4  43  14   2   0   0)
     Any further DFT definition will be discarded
     Please, verify this is what you really want

  @ DRIVER MODE: Connecting to
 qe_1139763_2632799.sched-torque.pace.gatech.edupwwjzwwi_scratch
  using UNIX socket
  @ DRIVER MODE: Message from server: STATUS
  @ DRIVER MODE: Message from server: INIT
  @ DRIVER MODE: Receiving replica           0          -1
  @ DRIVER MODE: Receiving encoded integer          25
  @ DRIVER MODE:  SCF:  T  FORCE:  T  STRESS:  F  VC:  F  ENSEMBLE:  F
  @ DRIVER MODE:  SCF:  T  FORCE:  T  STRESS:  F  VC:  F  ENSEMBLE:  F

     Using Slab Decomposition

     bravais-lattice index     =            0
     lattice parameter (alat)  =       1.8897  a.u.
     unit-cell volume          =    6658.9804 (a.u.)^3
     number of atoms/cell      =           51
     number of atomic types    =            5
     number of electrons       =       389.00
     number of Kohn-Sham states=          204
     kinetic-energy cutoff     =      29.3995  Ry
     charge density cutoff     =     293.9946  Ry
     scf convergence threshold =      7.3E-08
     mixing beta               =       0.0500
     number of iterations used =            8  plain     mixing
     Exchange-correlation= BEEF-VDW
                           (   1   4  43  14   2   0   0)

     celldm(1)=   1.889726  celldm(2)=   0.000000  celldm(3)=   0.000000
     celldm(4)=   0.000000  celldm(5)=   0.000000  celldm(6)=   0.000000

     crystal axes: (cart. coord. in units of alat)
               a(1) = (   6.579727   0.000000   0.000000 )
               a(2) = (  -0.000775   5.961596   0.000000 )
               a(3) = (   0.000000   0.000000  25.155947 )

     reciprocal axes: (cart. coord. in units 2 pi/alat)
               b(1) = (  0.151982  0.000020  0.000000 )
               b(2) = (  0.000000  0.167740  0.000000 )
               b(3) = (  0.000000  0.000000  0.039752 )

     PseudoPot. # 1 for Ti read from file:
     /storage/coda1/p-amedford6/0/shared/rich_project_chbe-medford/medford-share/data/pseudos_module/espresso/nninc/pbe/van/Ti.UPF
     MD5 check sum: 8e4df49b7f0d34bbd5052bf3f5ea0213
     Pseudo is Ultrasoft, Zval = 12.0
     Generated by new atomic code, or converted to UPF format
     Using radial grid of  851 points,  6 beta functions with:
                l(1) =   0
                l(2) =   0
                l(3) =   1
                l(4) =   1
                l(5) =   2
                l(6) =   2
     Q(r) pseudized with  8 coefficients,  rinner =    1.000   1.000   1.000
                                                       1.000   1.000

     PseudoPot. # 2 for O  read from file:
     /storage/coda1/p-amedford6/0/shared/rich_project_chbe-medford/medford-share/data/pseudos_module/espresso/nninc/pbe/van/O.UPF
     MD5 check sum: 78c19812648e8988a0fe644b0f25305e
     Pseudo is Ultrasoft, Zval =  6.0
     Generated by new atomic code, or converted to UPF format
     Using radial grid of  737 points,  4 beta functions with:
                l(1) =   0
                l(2) =   0
                l(3) =   1
                l(4) =   1
     Q(r) pseudized with  8 coefficients,  rinner =    0.800   0.800   0.800

     PseudoPot. # 3 for N  read from file:
     /storage/coda1/p-amedford6/0/shared/rich_project_chbe-medford/medford-share/data/pseudos_module/espresso/nninc/pbe/van/N.UPF
     MD5 check sum: 90d10febe142ad51ac9d5be1deb811c4
     Pseudo is Ultrasoft, Zval =  5.0
     Generated by new atomic code, or converted to UPF format
     Using radial grid of  729 points,  4 beta functions with:
                l(1) =   0
                l(2) =   0
                l(3) =   1
                l(4) =   1
     Q(r) pseudized with  8 coefficients,  rinner =    0.800   0.800   0.800

     PseudoPot. # 4 for C  read from file:
     /storage/coda1/p-amedford6/0/shared/rich_project_chbe-medford/medford-share/data/pseudos_module/espresso/nninc/pbe/van/C.UPF
     MD5 check sum: 1a69bf6b8db32088f5b2163dbdb77a27
     Pseudo is Ultrasoft, Zval =  4.0
     Generated by new atomic code, or converted to UPF format
     Using radial grid of  721 points,  4 beta functions with:
                l(1) =   0
                l(2) =   0
                l(3) =   1
                l(4) =   1
     Q(r) pseudized with  8 coefficients,  rinner =    0.800   0.800   0.800

     PseudoPot. # 5 for H  read from file:
     /storage/coda1/p-amedford6/0/shared/rich_project_chbe-medford/medford-share/data/pseudos_module/espresso/nninc/pbe/van/H.UPF
     MD5 check sum: b5ee9d7bfd3a09ee7748110bda690ff7
     Pseudo is Ultrasoft, Zval =  1.0
     Generated by new atomic code, or converted to UPF format
     Using radial grid of  615 points,  1 beta functions with:
                l(1) =   0
     Q(r) pseudized with  8 coefficients,  rinner =    0.800

     atomic species   valence    mass     pseudopotential
        Ti1           12.00    47.86700     Ti( 1.00)
        O1             6.00    15.99900     O ( 1.00)
        N1             5.00    14.00700     N ( 1.00)
        C1             4.00    12.01100     C ( 1.00)
        H1             1.00     1.00800     H ( 1.00)

     No symmetry found

   Cartesian axes

     site n.     atom                  positions (alat units)
         1           Ti1 tau(   1) = (   0.0004258   2.9801865   6.0000000  )
         2           Ti1 tau(   2) = (   3.2906075   1.4906267   6.0002472  )
         3           O1  tau(   3) = (   0.0006271   0.0005054   7.9858123  )
         4           O1  tau(   4) = (   3.2906025   0.0005020   7.3038282  )
         5           O1  tau(   5) = (   4.5942328   1.4918067   9.2879030  )
         6           O1  tau(   6) = (   1.9868534   1.4903216   9.2879459  )
         7           Ti1 tau(   7) = (   3.2907910   2.8959150   9.1758416  )
         8           Ti1 tau(   8) = (   0.0015273   1.4827037   9.2680791  )
         9           O1  tau(   9) = (   3.3107583   5.9394213  11.3440837  )
        10           O1  tau(  10) = (   0.0116148   5.9584955  10.6183126  )
        11           O1  tau(  11) = (   1.3209705   1.4681434  12.6387851  )
        12           O1  tau(  12) = (   5.3117763   1.4689694  12.6372993  )
        13           Ti1 tau(  13) = (   6.5586693   2.9297660  12.6634068  )
        14           Ti1 tau(  14) = (   3.2703198   1.4638114  12.4955107  )
        15           O1  tau(  15) = (   0.0083729   5.9498784  14.6531507  )
        16           O1  tau(  16) = (   3.3267446   5.9373244  13.9471573  )
        17           O1  tau(  17) = (   4.5400383   1.4607670  16.1300196  )
        18           O1  tau(  18) = (   2.0562451   1.4605895  16.0859588  )
        19           Ti1 tau(  19) = (   3.3219294   2.9366742  15.7081325  )
        20           Ti1 tau(  20) = (   0.0794022   1.3719971  16.1804440  )
        21           O1  tau(  21) = (   3.2904802   0.0005063   4.7018136  )
        22           O1  tau(  22) = (   0.0048811   5.8540159  17.1722642  )
        23           O1  tau(  23) = (   1.3043587   1.4918075   6.0039043  )
        24           O1  tau(  24) = (   5.2767064   1.4903225   6.0039473  )
        25           Ti1 tau(  25) = (   0.0000382   5.9609847   6.0000000  )
        26           Ti1 tau(  26) = (   3.2902200   4.4714249   6.0002472  )
        27           O1  tau(  27) = (   0.0002396   2.9813036   7.9858123  )
        28           O1  tau(  28) = (   3.2902150   2.9813002   7.3038282  )
        29           O1  tau(  29) = (   4.5938453   4.4726049   9.2879030  )
        30           O1  tau(  30) = (   1.9864658   4.4711199   9.2879459  )
        31           Ti1 tau(  31) = (   3.2891106   5.8743827   9.1763621  )
        32           Ti1 tau(  32) = (   0.0006254   4.4649316   9.2693709  )
        33           O1  tau(  33) = (   3.3036409   2.9595551  11.3414423  )
        34           O1  tau(  34) = (   0.0092240   2.9805883  10.6323155  )
        35           O1  tau(  35) = (   1.3251634   4.4629088  12.6456700  )
        36           O1  tau(  36) = (   5.3099897   4.4533368  12.6426351  )
        37           Ti1 tau(  37) = (   0.0071655   5.9203210  12.5194715  )
        38           Ti1 tau(  38) = (   3.2774562   4.4456010  12.4944480  )
        39           O1  tau(  39) = (   0.0172281   2.9510719  14.7337574  )
        40           O1  tau(  40) = (   3.3230371   2.9488945  13.9167408  )
        41           O1  tau(  41) = (   4.5572773   4.4147185  16.0816828  )
        42           O1  tau(  42) = (   2.0601761   4.4202290  16.0727324  )
        43           Ti1 tau(  43) = (   3.3574729   5.9210026  15.7440268  )
        44           Ti1 tau(  44) = (   0.0706454   4.5402764  15.7844247  )
        45           O1  tau(  45) = (   3.2900926   2.9813045   4.7018136  )
        46           O1  tau(  46) = (   1.3039711   4.4726057   6.0039043  )
        47           O1  tau(  47) = (   5.2763189   4.4711207   6.0039473  )
        48           N1  tau(  48) = (   6.3928749   2.8496863  17.7411295  )
        49           C1  tau(  49) = (   0.6235525   2.6789418  18.7295412  )
        50           H1  tau(  50) = (   1.5351458   2.1220716  18.4733693  )
        51           H1  tau(  51) = (   5.5197072   3.3230476  17.9821812  )

     number of k points=    10  Fermi-Dirac smearing, width (Ry)=  0.0073
                       cart. coord. in units 2pi/alat
        k(    1) = (   0.0000000   0.0000000   0.0000000), wk =   0.1250000
        k(    2) = (   0.0000000   0.0419351   0.0000000), wk =   0.2500000
        k(    3) = (   0.0000000  -0.0838702   0.0000000), wk =   0.1250000
        k(    4) = (   0.0379955   0.0000049   0.0000000), wk =   0.2500000
        k(    5) = (   0.0379955   0.0419400   0.0000000), wk =   0.2500000
        k(    6) = (   0.0379955  -0.0838652   0.0000000), wk =   0.2500000
        k(    7) = (   0.0379955  -0.0419301   0.0000000), wk =   0.2500000
        k(    8) = (  -0.0759910  -0.0000099   0.0000000), wk =   0.1250000
        k(    9) = (  -0.0759910   0.0419252   0.0000000), wk =   0.2500000
        k(   10) = (  -0.0759910  -0.0838800   0.0000000), wk =   0.1250000

     Initial potential from superposition of free atoms

     starting charge  372.99918, renormalised to  389.00000

     negative rho (up, down):  1.910E-02 0.000E+00

     %%%%%%%%%%%%%%%%%%%%%%%%%%%%%%%%%%%%%%%%%%%%%%%%%%%%%%%%%%%%%%%%%%%%%%%%
     %                                                                      %
     % You are using vdW-DF, which was implemented by the Thonhauser group. %
     % Please cite the following two papers that made this development      %
     % possible and the two reviews that describe the various versions:     %
     %                                                                      %
     %   T. Thonhauser et al., PRL 115, 136402 (2015).                      %
     %   T. Thonhauser et al., PRB 76, 125112 (2007).                       %
     %   K. Berland et al., Rep. Prog. Phys. 78, 066501 (2015).             %
     %   D.C. Langreth et al., J. Phys.: Condens. Matter 21, 084203 (2009). %
     %                                                                      %
     %                                                                      %
     % If you are calculating the stress with vdW-DF, please also cite:     %
     %                                                                      %
     %   R. Sabatini et al., J. Phys.: Condens. Matter 24, 424209 (2012).   %
     %                                                                      %
     %%%%%%%%%%%%%%%%%%%%%%%%%%%%%%%%%%%%%%%%%%%%%%%%%%%%%%%%%%%%%%%%%%%%%%%%

     Adding external electric field

     Computed dipole along edir(3) :
        Dipole               -4.7381 Ry au,        -12.0430 Debye
        Dipole field         -0.0089 Ry au,

        Potential amp.        0.8289 Ry
        Total length         46.3494 bohr

     Starting wfcs are  294 atomic wfcs
  @ DRIVER MODE: Message from server: STATUS
  @ DRIVER MODE: Message from server: POSDATA
  @ DRIVER MODE: Reading and sharing cell
  @ DRIVER MODE: Reading and sharing positions
  @ DRIVER MODE: Received positions

     Self-consistent Calculation

     iteration #  1     ecut=    29.40 Ry     beta= 0.05
     Davidson diagonalization with overlap
     c_bands:  4 eigenvalues not converged
     c_bands:  2 eigenvalues not converged
     c_bands:  1 eigenvalues not converged
     c_bands:  3 eigenvalues not converged
     c_bands:  2 eigenvalues not converged
     c_bands:  2 eigenvalues not converged
     c_bands:  2 eigenvalues not converged
     c_bands:  2 eigenvalues not converged
     c_bands:  1 eigenvalues not converged
     c_bands:  2 eigenvalues not converged
     ethr =  1.00E-05,  avg # of iterations = 20.0

[...]

     total energy              =   -2847.50576515 Ry
     estimated scf accuracy    <     787.99634689 Ry

     iteration #  2     ecut=    29.40 Ry     beta= 0.05
     Davidson diagonalization with overlap
     ethr =  1.00E-02,  avg # of iterations = 15.2

[...]

     iteration # 61     ecut=    29.40 Ry     beta= 0.05
     Davidson diagonalization with overlap
     c_bands:  1 eigenvalues not converged
     ethr =  1.50E-10,  avg # of iterations = 14.6

[...]

     total energy              =   -2917.76277834 Ry
     estimated scf accuracy    <       0.00000010 Ry

     iteration # 63     ecut=    29.40 Ry     beta= 0.05
     Davidson diagonalization with overlap
     ethr =  2.53E-11,  avg # of iterations = 11.1

     negative rho (up, down):  1.797E-02 0.000E+00

     Adding external electric field

     Computed dipole along edir(3) :
        Dipole                0.1189 Ry au,          0.3021 Debye
        Dipole field          0.0002 Ry au,

        Potential amp.       -0.0208 Ry
        Total length         46.3494 bohr

     End of self-consistent calculation

          k = 0.0000 0.0000 0.0000 ( 18029 PWs)   bands (ev):

   -56.3249 -56.3191 -56.2885 -56.2850 -56.2198 -56.1854 -56.1601 -56.1447
   -56.1270 -56.1075 -56.0926 -56.0740 -55.9223 -55.7651 -55.3042 -55.2701
   -32.8869 -32.8026 -32.6714 -32.6678 -32.6396 -32.6274 -32.6114 -32.5977
   -32.5616 -32.5552 -32.5335 -32.5305 -32.5033 -32.4716 -32.4707 -32.4603
   -32.4563 -32.4244 -32.4239 -32.4176 -32.3920 -32.3809 -32.3764 -32.3454
   -32.3388 -32.3259 -32.3252 -32.3186 -32.3141 -32.3101 -32.2914 -32.2769
   -32.2760 -32.2636 -32.2595 -32.2296 -32.2227 -32.2165 -32.1356 -32.0496
   -31.9990 -31.8961 -31.7118 -31.6224 -31.6001 -31.5284 -31.4419 -31.3308
   -17.0848 -16.8181 -16.6523 -16.4986 -16.4638 -16.3528 -16.1869 -16.0629
   -16.0197 -16.0012 -15.9190 -15.8967 -15.8670 -15.8604 -15.8579 -15.8355
   -15.8315 -15.7762 -15.7537 -15.7370 -15.7108 -15.6916 -15.6683 -15.6336
   -15.5362 -15.4797 -15.4555 -15.3877 -15.3189 -14.9882 -13.8071 -13.6906
    -8.2958  -4.4506  -4.3677  -4.2742  -4.2295  -4.1871  -3.9711  -3.9145
    -3.8953  -3.6993  -3.5647  -3.5166  -3.5013  -3.4601  -3.4587  -3.2458
    -3.2062  -3.1434  -3.1383  -3.1211  -3.1166  -3.0893  -3.0814  -3.0597
    -3.0125  -2.9323  -2.8701  -2.7670  -2.7351  -2.6833  -2.6596  -2.6345
    -2.5981  -2.5889  -2.5796  -2.5608  -2.5459  -2.5318  -2.4435  -2.3980
    -2.2931  -2.1597  -2.1445  -2.1227  -1.9388  -1.8856  -1.8081  -1.7884
    -1.7585  -1.7448  -1.7169  -1.6321  -1.5582  -1.5215  -1.4513  -1.4478
    -1.3596  -1.3171  -1.2283  -1.2004  -1.1664  -1.0879  -1.0786  -1.0720
    -1.0210  -0.8274  -0.8022  -0.7950  -0.7739  -0.7104  -0.6541  -0.6173
    -0.5588  -0.5312  -0.4904  -0.4054  -0.3982  -0.3626  -0.3413  -0.3270
    -0.2980  -0.2930  -0.1037  -0.0990  -0.0545  -0.0420   0.0443   0.1977
     0.2908   0.3285   0.4018   0.6391   0.7175   0.7945   0.9082   1.2899
     1.3359   2.5450   2.8124   2.8845   2.9003   2.9416   3.0362   3.0476
     3.2639   3.2737   3.3001   3.3200

[...]

          k = 0.0380-0.0419 0.0000 ( 17876 PWs)   bands (ev):

[...]

          k =-0.0760-0.0000 0.0000 ( 17886 PWs)   bands (ev):

[...]

          k =-0.0760-0.0839 0.0000 ( 17948 PWs)   bands (ev):

   -56.3094 -56.3039 -56.3030 -56.3010 -56.2143 -56.1765 -56.1655 -56.1536
   -56.1111 -56.1077 -56.0925 -56.0894 -55.9208 -55.7665 -55.2872 -55.2870
   -32.6933 -32.6865 -32.6185 -32.6171 -32.6004 -32.5977 -32.5961 -32.5869
   -32.5278 -32.5232 -32.5227 -32.5108 -32.4855 -32.4565 -32.4501 -32.4401
   -32.4336 -32.4290 -32.4254 -32.4237 -32.4226 -32.4222 -32.4204 -32.3906
   -32.3862 -32.3694 -32.3566 -32.3441 -32.3335 -32.3242 -32.3226 -32.3148
   -32.3130 -32.3058 -32.3043 -32.2867 -32.2826 -32.2118 -32.1381 -32.0706
   -32.0027 -31.9479 -31.6129 -31.6127 -31.5246 -31.5243 -31.4852 -31.4851
   -16.5312 -16.4906 -16.3206 -16.2581 -16.2469 -16.2348 -16.1919 -16.0807
   -16.0489 -16.0295 -16.0086 -15.9960 -15.9733 -15.9628 -15.8702 -15.8576
   -15.8544 -15.8320 -15.7929 -15.7888 -15.7875 -15.7757 -15.7597 -15.7577
   -15.7229 -15.6486 -15.6443 -15.4246 -15.3329 -15.2661 -13.7924 -13.7922
    -8.2991  -4.0872  -3.8206  -3.7698  -3.6480  -3.5575  -3.4937  -3.4728
    -3.3976  -3.2781  -3.2192  -3.2119  -3.2019  -3.1713  -3.1648  -3.1438
    -3.1337  -3.1209  -3.0779  -3.0575  -3.0418  -3.0321  -3.0056  -2.9924
    -2.9701  -2.9600  -2.9475  -2.9231  -2.8874  -2.8857  -2.8567  -2.8489
    -2.6255  -2.6102  -2.5469  -2.4986  -2.4746  -2.4634  -2.4602  -2.4020
    -2.3816  -2.3599  -2.2631  -2.1969  -2.0436  -2.0268  -2.0188  -1.9802
    -1.9475  -1.8154  -1.7564  -1.7385  -1.7054  -1.6547  -1.6461  -1.5838
    -1.5666  -1.5296  -1.4597  -1.4232  -1.3771  -1.3583  -1.2831  -1.2766
    -1.2442  -1.1908  -1.1114  -1.0903  -1.0728  -1.0606  -1.0060  -0.9662
    -0.9217  -0.8684  -0.7973  -0.7026  -0.6221  -0.4720  -0.4100  -0.3099
    -0.2490  -0.2110  -0.1571  -0.1283  -0.0419  -0.0102  -0.0078   0.0529
     0.0895   0.1893   0.1945   0.2121   0.4403   1.0799   1.0810   1.1553
     1.1560   2.5502   3.0780   3.0921   3.1031   3.1516   3.3097   3.3157
     3.3430   3.3453   3.4347   3.4826

     the Fermi energy is     2.8135 ev

!    total energy              =   -2917.76280629 Ry
     estimated scf accuracy    <       0.00000006 Ry
     smearing contrib. (-TS)   =      -0.02765333 Ry
     internal energy E=F+TS    =   -2917.73515296 Ry

     The total energy is F=E-TS. E is the sum of the following terms:
     one-electron contribution =  -24683.94529353 Ry
     hartree contribution      =   12421.76856088 Ry
     xc contribution           =    -479.08733753 Ry
     ewald contribution        =    9823.52889056 Ry
     electric field correction =       0.00002666 Ry

     convergence has been achieved in  63 iterations

     Forces acting on atoms (cartesian axes, Ry/au):

     atom    1 type  1   force =     0.00012503   -0.00024709    0.09633436
     atom    2 type  1   force =    -0.00005671   -0.00048423   -0.17579044
     atom    3 type  2   force =     0.00009168   -0.00007588   -0.02479638
     atom    4 type  2   force =     0.00006512   -0.00165707    0.05389587
     atom    5 type  2   force =    -0.01233523   -0.00182023    0.00351515
     atom    6 type  2   force =     0.01431336   -0.00153461    0.00392132
     atom    7 type  1   force =     0.00060823    0.00062353   -0.01170498
     atom    8 type  1   force =    -0.00020501    0.02055248    0.02642252
     atom    9 type  2   force =    -0.00054850    0.00047404   -0.00021145
     atom   10 type  2   force =    -0.00145264   -0.00066639   -0.01375660
     atom   11 type  2   force =     0.00040379    0.00026475   -0.00018538
     atom   12 type  2   force =    -0.00053452    0.00053999   -0.00042129
     atom   13 type  1   force =     0.00051578   -0.00033633   -0.00081700
     atom   14 type  1   force =    -0.00116200    0.00108216   -0.00114448
     atom   15 type  2   force =     0.00001495   -0.00002694    0.00067336
     atom   16 type  2   force =     0.00022212    0.00068754   -0.00030686
     atom   17 type  2   force =    -0.00062271    0.00044397   -0.00084911
     atom   18 type  2   force =     0.00100161    0.00076871    0.00058163
     atom   19 type  1   force =    -0.00025854    0.00076844   -0.00117568
     atom   20 type  1   force =    -0.00031364    0.00044712   -0.00062217
     atom   21 type  2   force =     0.00004780    0.00002427    0.10335948
     atom   22 type  2   force =     0.00047059   -0.00070113    0.00075205
     atom   23 type  2   force =    -0.07127913   -0.00005079   -0.02761649
     atom   24 type  2   force =     0.07124415    0.00033849   -0.02771850
     atom   25 type  1   force =     0.00019826   -0.00035533    0.09605125
     atom   26 type  1   force =     0.00001023   -0.00025479   -0.17594396
     atom   27 type  2   force =     0.00021967   -0.00037493   -0.02358139
     atom   28 type  2   force =     0.00006496   -0.00138274    0.05395519
     atom   29 type  2   force =    -0.01266126    0.00047967    0.00328332
     atom   30 type  2   force =     0.01461309    0.00113492    0.00366511
     atom   31 type  1   force =     0.00071934    0.00351574   -0.01313284
     atom   32 type  1   force =    -0.00000130   -0.02243359    0.02631553
     atom   33 type  2   force =     0.00005795   -0.00001758    0.00098752
     atom   34 type  2   force =    -0.00088524   -0.00054557   -0.01873187
     atom   35 type  2   force =    -0.00025498   -0.00022874    0.00018249
     atom   36 type  2   force =     0.00011463   -0.00032867   -0.00003622
     atom   37 type  1   force =     0.00038104    0.00060374   -0.00046971
     atom   38 type  1   force =    -0.00131954   -0.00095010   -0.00050634
     atom   39 type  2   force =     0.00002313    0.00110527   -0.00057703
     atom   40 type  2   force =    -0.00013709   -0.00012146   -0.00024398
     atom   41 type  2   force =     0.00050648    0.00027890    0.00014074
     atom   42 type  2   force =    -0.00074652    0.00003304   -0.00029324
     atom   43 type  1   force =    -0.00040227   -0.00028853   -0.00071958
     atom   44 type  1   force =    -0.00016356    0.00038591   -0.00069408
     atom   45 type  2   force =     0.00006396   -0.00000787    0.10333298
     atom   46 type  2   force =    -0.07126692   -0.00005616   -0.02762361
     atom   47 type  2   force =     0.07124061    0.00043143   -0.02768882
     atom   48 type  3   force =    -0.00166576    0.00106188   -0.00029792
     atom   49 type  4   force =    -0.00395974    0.00336687    0.00129946
     atom   50 type  5   force =     0.00404509   -0.00330648   -0.00132348
     atom   51 type  5   force =     0.00085017   -0.00115962    0.00031157

     Total force =     0.368986     Total SCF correction =     0.000586
  @ DRIVER MODE: Message from server: STATUS
  @ DRIVER MODE: Message from server: GETFORCE
  @ DRIVER MODE: Returning v,forces,stress,ensemble

     Writing output data file ./calc.save/
  @ DRIVER MODE: Message from server: EXIT
  @ DRIVE MODE: Exiting

     General routines

     Parallel routines

   This run was terminated on:  20:34:23  23Aug2021

   JOB DONE.