     Program PWSCF v.6.7GPU starts on  8Sep2021 at 23:34:10

     R & G space division:  proc/nbgrp/npool/nimage =      10
     Reading input from /storage/home/hcoda1/3/ntian30/research/carbon/CxH_vib/CH2_calc/ads_slab/CH2N2H_a/out_0006/pw.inp
Warning: card &CELL ignored
Warning: card   CELL_DYNAMICS='IPI', ignored
Warning: card / ignored

     Current dimensions of program PWSCF are:
     Max number of different atomic species (ntypx) = 10
     Max number of k-points (npk) =  40000
     Max angular momentum in pseudopotentials (lmaxx) =  3
     Presently no symmetry can be used with electric field

     Message from routine cell_base_init:
     DEPRECATED: use true lattice parameter, not A to a.u. conversion factor

     IMPORTANT: XC functional enforced from input :
     Exchange-correlation= BEEF-VDW
                           (   1   4  43  14   2   0   0)
     Any further DFT definition will be discarded
     Please, verify this is what you really want

  @ DRIVER MODE: Connecting to
 qe_1139763_2767385.sched-torque.pace.gatech.edupl8l36tz_scratch
  using UNIX socket
  @ DRIVER MODE: Message from server: STATUS
  @ DRIVER MODE: Message from server: INIT
  @ DRIVER MODE: Receiving replica           0          -1
  @ DRIVER MODE: Receiving encoded integer          25
  @ DRIVER MODE:  SCF:  T  FORCE:  T  STRESS:  F  VC:  F  ENSEMBLE:  F
  @ DRIVER MODE:  SCF:  T  FORCE:  T  STRESS:  F  VC:  F  ENSEMBLE:  F

     Using Slab Decomposition

     bravais-lattice index     =            0
     lattice parameter (alat)  =       1.8897  a.u.
     unit-cell volume          =    6658.9804 (a.u.)^3
     number of atoms/cell      =           53
     number of atomic types    =            5
     number of electrons       =       395.00
     number of Kohn-Sham states=          207
     kinetic-energy cutoff     =      29.3995  Ry
     charge density cutoff     =     293.9946  Ry
     scf convergence threshold =      7.3E-08
     mixing beta               =       0.0500
     number of iterations used =            8  plain     mixing
     Exchange-correlation= BEEF-VDW
                           (   1   4  43  14   2   0   0)

     celldm(1)=   1.889726  celldm(2)=   0.000000  celldm(3)=   0.000000
     celldm(4)=   0.000000  celldm(5)=   0.000000  celldm(6)=   0.000000

     crystal axes: (cart. coord. in units of alat)
               a(1) = (   6.579727   0.000000   0.000000 )
               a(2) = (  -0.000775   5.961596   0.000000 )
               a(3) = (   0.000000   0.000000  25.155947 )

     reciprocal axes: (cart. coord. in units 2 pi/alat)
               b(1) = (  0.151982  0.000020  0.000000 )
               b(2) = (  0.000000  0.167740  0.000000 )
               b(3) = (  0.000000  0.000000  0.039752 )

     PseudoPot. # 1 for Ti read from file:
     /storage/coda1/p-amedford6/0/shared/rich_project_chbe-medford/medford-share/data/pseudos_module/espresso/nninc/pbe/van/Ti.UPF
     MD5 check sum: 8e4df49b7f0d34bbd5052bf3f5ea0213
     Pseudo is Ultrasoft, Zval = 12.0
     Generated by new atomic code, or converted to UPF format
     Using radial grid of  851 points,  6 beta functions with:
                l(1) =   0
                l(2) =   0
                l(3) =   1
                l(4) =   1
                l(5) =   2
                l(6) =   2
     Q(r) pseudized with  8 coefficients,  rinner =    1.000   1.000   1.000
                                                       1.000   1.000

     PseudoPot. # 2 for O  read from file:
     /storage/coda1/p-amedford6/0/shared/rich_project_chbe-medford/medford-share/data/pseudos_module/espresso/nninc/pbe/van/O.UPF
     MD5 check sum: 78c19812648e8988a0fe644b0f25305e
     Pseudo is Ultrasoft, Zval =  6.0
     Generated by new atomic code, or converted to UPF format
     Using radial grid of  737 points,  4 beta functions with:
                l(1) =   0
                l(2) =   0
                l(3) =   1
                l(4) =   1
     Q(r) pseudized with  8 coefficients,  rinner =    0.800   0.800   0.800

     PseudoPot. # 3 for N  read from file:
     /storage/coda1/p-amedford6/0/shared/rich_project_chbe-medford/medford-share/data/pseudos_module/espresso/nninc/pbe/van/N.UPF
     MD5 check sum: 90d10febe142ad51ac9d5be1deb811c4
     Pseudo is Ultrasoft, Zval =  5.0
     Generated by new atomic code, or converted to UPF format
     Using radial grid of  729 points,  4 beta functions with:
                l(1) =   0
                l(2) =   0
                l(3) =   1
                l(4) =   1
     Q(r) pseudized with  8 coefficients,  rinner =    0.800   0.800   0.800

     PseudoPot. # 4 for C  read from file:
     /storage/coda1/p-amedford6/0/shared/rich_project_chbe-medford/medford-share/data/pseudos_module/espresso/nninc/pbe/van/C.UPF
     MD5 check sum: 1a69bf6b8db32088f5b2163dbdb77a27
     Pseudo is Ultrasoft, Zval =  4.0
     Generated by new atomic code, or converted to UPF format
     Using radial grid of  721 points,  4 beta functions with:
                l(1) =   0
                l(2) =   0
                l(3) =   1
                l(4) =   1
     Q(r) pseudized with  8 coefficients,  rinner =    0.800   0.800   0.800

     PseudoPot. # 5 for H  read from file:
     /storage/coda1/p-amedford6/0/shared/rich_project_chbe-medford/medford-share/data/pseudos_module/espresso/nninc/pbe/van/H.UPF
     MD5 check sum: b5ee9d7bfd3a09ee7748110bda690ff7
     Pseudo is Ultrasoft, Zval =  1.0
     Generated by new atomic code, or converted to UPF format
     Using radial grid of  615 points,  1 beta functions with:
                l(1) =   0
     Q(r) pseudized with  8 coefficients,  rinner =    0.800

     atomic species   valence    mass     pseudopotential
        Ti1           12.00    47.86700     Ti( 1.00)
        O1             6.00    15.99900     O ( 1.00)
        N1             5.00    14.00700     N ( 1.00)
        C1             4.00    12.01100     C ( 1.00)
        H1             1.00     1.00800     H ( 1.00)

     No symmetry found

   Cartesian axes

     site n.     atom                  positions (alat units)
         1           Ti1 tau(   1) = (   0.0004258   2.9801865   6.0000000  )
         2           Ti1 tau(   2) = (   3.2906075   1.4906267   6.0002472  )
         3           O1  tau(   3) = (   0.0006271   0.0005054   7.9858123  )
         4           O1  tau(   4) = (   3.2906025   0.0005020   7.3038282  )
         5           O1  tau(   5) = (   4.5942328   1.4918067   9.2879030  )
         6           O1  tau(   6) = (   1.9868534   1.4903216   9.2879459  )
         7           Ti1 tau(   7) = (   3.2907910   2.8959150   9.1758416  )
         8           Ti1 tau(   8) = (   0.0015273   1.4827037   9.2680791  )
         9           O1  tau(   9) = (   3.3007851   0.0027079  11.3193151  )
        10           O1  tau(  10) = (   0.0116148   5.9584955  10.6183126  )
        11           O1  tau(  11) = (   1.3147357   1.5019762  12.6210215  )
        12           O1  tau(  12) = (   5.3120411   1.4917641  12.6342566  )
        13           Ti1 tau(  13) = (   6.5359925   2.9538565  12.6086018  )
        14           Ti1 tau(  14) = (   3.2189980   1.4905645  12.4770757  )
        15           O1  tau(  15) = (   0.0426301   5.9606301  14.6312846  )
        16           O1  tau(  16) = (   3.3149351   0.0098317  13.8848037  )
        17           O1  tau(  17) = (   4.5523768   1.5206755  16.0744300  )
        18           O1  tau(  18) = (   2.0715852   1.4807026  15.9918588  )
        19           Ti1 tau(  19) = (   3.2935730   2.9941335  15.6827836  )
        20           Ti1 tau(  20) = (   0.0200723   1.3023755  15.9747514  )
        21           O1  tau(  21) = (   3.2904802   0.0005063   4.7018136  )
        22           O1  tau(  22) = (   6.5179923   0.0002674  17.1556216  )
        23           O1  tau(  23) = (   1.3043587   1.4918075   6.0039043  )
        24           O1  tau(  24) = (   5.2767064   1.4903225   6.0039473  )
        25           Ti1 tau(  25) = (   0.0000382   5.9609847   6.0000000  )
        26           Ti1 tau(  26) = (   3.2902200   4.4714249   6.0002472  )
        27           O1  tau(  27) = (   0.0002396   2.9813036   7.9858123  )
        28           O1  tau(  28) = (   3.2902150   2.9813002   7.3038282  )
        29           O1  tau(  29) = (   4.5938453   4.4726049   9.2879030  )
        30           O1  tau(  30) = (   1.9864658   4.4711199   9.2879459  )
        31           Ti1 tau(  31) = (   3.2891106   5.8743827   9.1763621  )
        32           Ti1 tau(  32) = (   0.0006254   4.4649316   9.2693709  )
        33           O1  tau(  33) = (   3.3053585   2.9833221  11.3185053  )
        34           O1  tau(  34) = (   0.0092240   2.9805883  10.6323155  )
        35           O1  tau(  35) = (   1.3157767   4.4721532  12.6203727  )
        36           O1  tau(  36) = (   5.3104355   4.4689601  12.6331991  )
        37           Ti1 tau(  37) = (   6.5385524   5.9338372  12.5465384  )
        38           Ti1 tau(  38) = (   3.2200853   4.4710709  12.4725482  )
        39           O1  tau(  39) = (   0.0068575   2.9964749  14.7765288  )
        40           O1  tau(  40) = (   3.3021705   2.9848394  13.8818356  )
        41           O1  tau(  41) = (   4.5334443   4.4765196  15.9883447  )
        42           O1  tau(  42) = (   2.0816803   4.4801587  16.0471567  )
        43           Ti1 tau(  43) = (   3.3155128   0.0116264  15.6901768  )
        44           Ti1 tau(  44) = (   6.5575601   4.4671909  15.9479714  )
        45           O1  tau(  45) = (   3.2900926   2.9813045   4.7018136  )
        46           O1  tau(  46) = (   1.3039711   4.4726057   6.0039043  )
        47           O1  tau(  47) = (   5.2763189   4.4711207   6.0039473  )
        48           N1  tau(  48) = (   0.4270260   2.3853988  17.9768900  )
        49           C1  tau(  49) = (   0.9469377   1.9340014  19.0583692  )
        50           H1  tau(  50) = (   1.0789317   2.5769861  19.9249762  )
        51           H1  tau(  51) = (   1.2326487   0.8959138  19.0941702  )
        52           N1  tau(  52) = (   0.0025679   3.6232397  17.7996529  )
        53           H1  tau(  53) = (   0.1020252   4.2324666  18.6151602  )

     number of k points=    10  Fermi-Dirac smearing, width (Ry)=  0.0073
                       cart. coord. in units 2pi/alat
        k(    1) = (   0.0000000   0.0000000   0.0000000), wk =   0.1250000
        k(    2) = (   0.0000000   0.0419351   0.0000000), wk =   0.2500000
        k(    3) = (   0.0000000  -0.0838702   0.0000000), wk =   0.1250000
        k(    4) = (   0.0379955   0.0000049   0.0000000), wk =   0.2500000
        k(    5) = (   0.0379955   0.0419400   0.0000000), wk =   0.2500000
        k(    6) = (   0.0379955  -0.0838652   0.0000000), wk =   0.2500000
        k(    7) = (   0.0379955  -0.0419301   0.0000000), wk =   0.2500000
        k(    8) = (  -0.0759910  -0.0000099   0.0000000), wk =   0.1250000
        k(    9) = (  -0.0759910   0.0419252   0.0000000), wk =   0.2500000
        k(   10) = (  -0.0759910  -0.0838800   0.0000000), wk =   0.1250000

     Initial potential from superposition of free atoms

     starting charge  378.99916, renormalised to  395.00000

     negative rho (up, down):  1.649E-02 0.000E+00

     %%%%%%%%%%%%%%%%%%%%%%%%%%%%%%%%%%%%%%%%%%%%%%%%%%%%%%%%%%%%%%%%%%%%%%%%
     %                                                                      %
     % You are using vdW-DF, which was implemented by the Thonhauser group. %
     % Please cite the following two papers that made this development      %
     % possible and the two reviews that describe the various versions:     %
     %                                                                      %
     %   T. Thonhauser et al., PRL 115, 136402 (2015).                      %
     %   T. Thonhauser et al., PRB 76, 125112 (2007).                       %
     %   K. Berland et al., Rep. Prog. Phys. 78, 066501 (2015).             %
     %   D.C. Langreth et al., J. Phys.: Condens. Matter 21, 084203 (2009). %
     %                                                                      %
     %                                                                      %
     % If you are calculating the stress with vdW-DF, please also cite:     %
     %                                                                      %
     %   R. Sabatini et al., J. Phys.: Condens. Matter 24, 424209 (2012).   %
     %                                                                      %
     %%%%%%%%%%%%%%%%%%%%%%%%%%%%%%%%%%%%%%%%%%%%%%%%%%%%%%%%%%%%%%%%%%%%%%%%

     Adding external electric field

     Computed dipole along edir(3) :
        Dipole               -8.4010 Ry au,        -21.3531 Debye
        Dipole field         -0.0159 Ry au,

        Potential amp.        1.4696 Ry
        Total length         46.3494 bohr

     Starting wfcs are  299 atomic wfcs
  @ DRIVER MODE: Message from server: STATUS
  @ DRIVER MODE: Message from server: POSDATA
  @ DRIVER MODE: Reading and sharing cell
  @ DRIVER MODE: Reading and sharing positions
  @ DRIVER MODE: Received positions

     Self-consistent Calculation

     iteration #  1     ecut=    29.40 Ry     beta= 0.05
     Davidson diagonalization with overlap
     c_bands:  2 eigenvalues not converged
     c_bands:  1 eigenvalues not converged
     c_bands:  2 eigenvalues not converged
     c_bands:  3 eigenvalues not converged
     c_bands:  3 eigenvalues not converged
     c_bands:  2 eigenvalues not converged
     c_bands:  1 eigenvalues not converged
     ethr =  1.00E-05,  avg # of iterations = 19.3

[...]

     total energy              =   -2613.95067887 Ry
     estimated scf accuracy    <    3601.28226915 Ry

[...]

     iteration #  3     ecut=    29.40 Ry     beta= 0.05
     Davidson diagonalization with overlap
     ethr =  1.00E-02,  avg # of iterations = 14.5

[...]

     iteration # 48     ecut=    29.40 Ry     beta= 0.05
     Davidson diagonalization with overlap
     c_bands:  1 eigenvalues not converged
     ethr =  2.99E-06,  avg # of iterations = 17.2

[...]

     total energy              =   -2939.13521327 Ry
     estimated scf accuracy    <       0.00000010 Ry

     iteration # 74     ecut=    29.40 Ry     beta= 0.05
     Davidson diagonalization with overlap
     ethr =  2.53E-11,  avg # of iterations =  7.7

     negative rho (up, down):  1.682E-02 0.000E+00

     Adding external electric field

     Computed dipole along edir(3) :
        Dipole                0.7857 Ry au,          1.9970 Debye
        Dipole field          0.0015 Ry au,

        Potential amp.       -0.1374 Ry
        Total length         46.3494 bohr

     End of self-consistent calculation

          k = 0.0000 0.0000 0.0000 ( 18029 PWs)   bands (ev):

   -55.8541 -55.8529 -55.8200 -55.8169 -55.7473 -55.7043 -55.6661 -55.6647
   -55.6312 -55.6307 -55.6260 -55.5923 -55.1924 -55.1466 -54.8294 -54.7954
   -32.4070 -32.3370 -32.2430 -32.1646 -32.1507 -32.1462 -32.1321 -32.1178
   -32.0971 -32.0840 -32.0310 -32.0129 -32.0065 -32.0047 -31.9943 -31.9911
   -31.9589 -31.9470 -31.9411 -31.9384 -31.9115 -31.9086 -31.8933 -31.8911
   -31.8602 -31.8561 -31.8539 -31.8526 -31.8275 -31.8122 -31.8050 -31.7947
   -31.7834 -31.7805 -31.7728 -31.7394 -31.7326 -31.4568 -31.4191 -31.3923
   -31.3395 -31.3045 -31.2362 -31.1486 -31.1262 -31.0534 -30.9669 -30.8554
   -17.9123 -16.6133 -16.3332 -16.0776 -16.0025 -15.9989 -15.8651 -15.7022
   -15.5895 -15.5226 -15.4424 -15.4125 -15.3905 -15.3556 -15.3491 -15.3110
   -15.3020 -15.2759 -15.2731 -15.2107 -15.2070 -15.1999 -15.1901 -15.1064
   -15.0484 -14.9969 -14.9892 -14.9158 -14.8812 -14.3532 -13.3315 -13.2151
   -12.2189  -7.8418  -5.3679  -4.5563  -3.9901  -3.8308  -3.7611  -3.7266
    -3.6498  -3.4903  -3.4114  -3.1298  -3.0809  -3.0252  -3.0157  -2.9792
    -2.9361  -2.7832  -2.7058  -2.6786  -2.6630  -2.6405  -2.6254  -2.6133
    -2.5977  -2.5780  -2.4969  -2.4159  -2.3712  -2.2952  -2.2815  -2.2465
    -2.1662  -2.1659  -2.1259  -2.1055  -2.0875  -2.0711  -2.0623  -2.0470
    -1.9072  -1.8483  -1.8360  -1.6555  -1.6423  -1.5898  -1.4594  -1.4496
    -1.3399  -1.3245  -1.2846  -1.2469  -1.1735  -1.1524  -1.0411  -0.9996
    -0.9378  -0.8934  -0.8758  -0.8001  -0.7349  -0.6935  -0.6779  -0.6187
    -0.6117  -0.5990  -0.4674  -0.3830  -0.3343  -0.2780  -0.2562  -0.1999
    -0.1600  -0.1171  -0.0294  -0.0028   0.0090   0.0698   0.0889   0.1144
     0.1261   0.1461   0.1747   0.2300   0.3484   0.3800   0.4561   0.4708
     0.5330   0.6652   0.8032   0.8715   0.9229   1.0360   1.1237   1.1932
     1.2663   1.3856   1.7633   1.8088   2.1281   3.2656   3.3677   3.4005
     3.4115   3.5146   3.6636   3.7250   3.7400   3.7813   3.8156

[...]

          k = 0.0380-0.0419 0.0000 ( 17876 PWs)   bands (ev):

[...]

          k =-0.0760-0.0000 0.0000 ( 17886 PWs)   bands (ev):

[...]

          k =-0.0760-0.0839 0.0000 ( 17948 PWs)   bands (ev):

   -55.8372 -55.8367 -55.8353 -55.8342 -55.7387 -55.7129 -55.6494 -55.6479
   -55.6478 -55.6469 -55.6098 -55.6086 -55.1846 -55.1544 -54.8124 -54.8123
   -32.2092 -32.2076 -32.1524 -32.1521 -32.1318 -32.1314 -32.0977 -32.0948
   -32.0857 -32.0691 -32.0032 -32.0007 -31.9950 -31.9934 -31.9714 -31.9637
   -31.9570 -31.9565 -31.9513 -31.9500 -31.9481 -31.9362 -31.9305 -31.9241
   -31.9120 -31.9069 -31.8616 -31.8514 -31.8499 -31.8491 -31.8407 -31.8400
   -31.8268 -31.8261 -31.8256 -31.8243 -31.6863 -31.4521 -31.4179 -31.4135
   -31.3959 -31.3406 -31.1390 -31.1389 -31.0491 -31.0489 -31.0102 -31.0101
   -17.8989 -16.0284 -16.0256 -15.8180 -15.7790 -15.7598 -15.7540 -15.6647
   -15.5786 -15.5450 -15.5420 -15.4544 -15.4290 -15.4128 -15.3967 -15.3912
   -15.3825 -15.3526 -15.3176 -15.3101 -15.2960 -15.2903 -15.2780 -15.2216
   -15.1702 -15.1660 -15.1441 -15.0715 -14.8327 -14.6932 -13.3170 -13.3168
   -12.1800  -7.7817  -5.4130  -4.6163  -3.3229  -3.3134  -3.0672  -3.0242
    -3.0202  -2.9944  -2.9521  -2.7912  -2.7787  -2.7594  -2.7515  -2.7068
    -2.6833  -2.6629  -2.6434  -2.6383  -2.6090  -2.5829  -2.5678  -2.5308
    -2.5237  -2.5150  -2.4835  -2.4727  -2.4259  -2.4209  -2.3999  -2.3730
    -2.3634  -2.3293  -2.1833  -2.1089  -2.0808  -1.9957  -1.9888  -1.9487
    -1.9252  -1.9048  -1.8914  -1.8694  -1.8323  -1.6956  -1.6134  -1.5517
    -1.5430  -1.4586  -1.4309  -1.3689  -1.2797  -1.2538  -1.2331  -1.1614
    -1.0860  -1.0477  -0.9962  -0.9833  -0.9153  -0.9068  -0.8486  -0.8125
    -0.8105  -0.7330  -0.7054  -0.6558  -0.6196  -0.6027  -0.5793  -0.5517
    -0.5375  -0.5153  -0.4432  -0.3544  -0.3027  -0.2378  -0.1495  -0.0099
     0.1005   0.2136   0.2355   0.2795   0.3350   0.3699   0.4599   0.4637
     0.5294   0.5508   0.5922   0.6705   0.6806   0.7050   0.8161   0.8603
     1.5577   1.5581   1.6287   1.6289   2.0677   3.5886   3.6174   3.6366
     3.6685   3.7978   3.8039   3.8142   3.8150   3.9501   3.9565

     the Fermi energy is     3.2756 ev

!    total energy              =   -2939.13522376 Ry
     estimated scf accuracy    <       0.00000003 Ry
     smearing contrib. (-TS)   =      -0.02098711 Ry
     internal energy E=F+TS    =   -2939.11423665 Ry

     The total energy is F=E-TS. E is the sum of the following terms:
     one-electron contribution =  -24489.84782528 Ry
     hartree contribution      =   12332.86093996 Ry
     xc contribution           =    -485.37811944 Ry
     ewald contribution        =    9703.24960320 Ry
     electric field correction =       0.00116491 Ry

     convergence has been achieved in  74 iterations

     Forces acting on atoms (cartesian axes, Ry/au):

     atom    1 type  1   force =     0.00007783   -0.00024327    0.09634123
     atom    2 type  1   force =     0.00005515   -0.00056515   -0.17515083
     atom    3 type  2   force =     0.00015029   -0.00013122   -0.02409453
     atom    4 type  2   force =    -0.00000456   -0.00124635    0.05222071
     atom    5 type  2   force =    -0.01056276   -0.00047647    0.00250874
     atom    6 type  2   force =     0.01238044    0.00022413    0.00288317
     atom    7 type  1   force =     0.00097850    0.00026736   -0.01176016
     atom    8 type  1   force =    -0.00013851    0.00775943    0.02262027
     atom    9 type  2   force =    -0.00020065   -0.00015669   -0.00027702
     atom   10 type  2   force =    -0.00262489    0.00115717   -0.01265150
     atom   11 type  2   force =     0.00005685   -0.00012319    0.00005297
     atom   12 type  2   force =     0.00010267    0.00018015   -0.00038716
     atom   13 type  1   force =     0.00044385   -0.00036507    0.00020923
     atom   14 type  1   force =     0.00015765    0.00032564   -0.00013060
     atom   15 type  2   force =    -0.00026081    0.00031374    0.00026613
     atom   16 type  2   force =     0.00010530   -0.00020252    0.00032270
     atom   17 type  2   force =     0.00050214   -0.00003398    0.00033660
     atom   18 type  2   force =     0.00033418   -0.00000249    0.00056101
     atom   19 type  1   force =    -0.00113053    0.00011325    0.00021976
     atom   20 type  1   force =     0.00049027   -0.00002141    0.00049607
     atom   21 type  2   force =     0.00004905    0.00000526    0.10312240
     atom   22 type  2   force =     0.00013120   -0.00034604   -0.00026840
     atom   23 type  2   force =    -0.07160905   -0.00015057   -0.02763475
     atom   24 type  2   force =     0.07154571    0.00035023   -0.02769658
     atom   25 type  1   force =     0.00015728   -0.00024090    0.09590712
     atom   26 type  1   force =     0.00009757   -0.00040730   -0.17541691
     atom   27 type  2   force =     0.00017621   -0.00021347   -0.02292631
     atom   28 type  2   force =     0.00006335   -0.00101550    0.05218002
     atom   29 type  2   force =    -0.01086235    0.00048175    0.00243357
     atom   30 type  2   force =     0.01255593    0.00064276    0.00277737
     atom   31 type  1   force =     0.00087169    0.00347756   -0.01293133
     atom   32 type  1   force =     0.00002782   -0.00926134    0.02304716
     atom   33 type  2   force =    -0.00048529    0.00013716    0.00022282
     atom   34 type  2   force =    -0.00302593    0.00022924   -0.01288331
     atom   35 type  2   force =     0.00007363    0.00009910   -0.00007268
     atom   36 type  2   force =     0.00010945    0.00034084   -0.00039254
     atom   37 type  1   force =     0.00032374    0.00037671   -0.00001044
     atom   38 type  1   force =     0.00003412   -0.00043365    0.00016917
     atom   39 type  2   force =     0.00016875    0.00046679    0.00056304
     atom   40 type  2   force =     0.00035138    0.00011883   -0.00039671
     atom   41 type  2   force =     0.00034225    0.00009275    0.00019350
     atom   42 type  2   force =     0.00105570    0.00007419    0.00038354
     atom   43 type  1   force =    -0.00151425   -0.00050681   -0.00030064
     atom   44 type  1   force =     0.00081274   -0.00058732   -0.00032203
     atom   45 type  2   force =     0.00006136   -0.00003855    0.10309969
     atom   46 type  2   force =    -0.07163311   -0.00007222   -0.02764981
     atom   47 type  2   force =     0.07157195    0.00032470   -0.02771440
     atom   48 type  3   force =    -0.00742575    0.00254164   -0.02133374
     atom   49 type  4   force =     0.00443289   -0.00294876    0.01420432
     atom   50 type  5   force =    -0.00019173    0.00036526    0.00196507
     atom   51 type  5   force =     0.00054327   -0.00090639    0.00029078
     atom   52 type  3   force =     0.00069540   -0.00094177    0.00234395
     atom   53 type  5   force =    -0.00041736    0.00117276    0.00046030

     Total force =     0.366755     Total SCF correction =     0.000615
  @ DRIVER MODE: Message from server: STATUS
  @ DRIVER MODE: Message from server: GETFORCE
  @ DRIVER MODE: Returning v,forces,stress,ensemble

     Writing output data file ./calc.save/
  @ DRIVER MODE: Message from server: EXIT
  @ DRIVE MODE: Exiting

     General routines

     Parallel routines

   This run was terminated on:  23:54:10   8Sep2021

   JOB DONE.