     Program PWSCF v.6.7GPU starts on 16Jul2021 at  8:45: 8

     R & G space division:  proc/nbgrp/npool/nimage =      16
     Reading input from /storage/home/hcoda1/3/ntian30/research/carbon/15Jul_vib/ads_slab/CH3NNH3_a/out_0031/pw.inp
Warning: card &CELL ignored
Warning: card   CELL_DYNAMICS='IPI', ignored
Warning: card / ignored

     Current dimensions of program PWSCF are:
     Max number of different atomic species (ntypx) = 10
     Max number of k-points (npk) =  40000
     Max angular momentum in pseudopotentials (lmaxx) =  3
     Presently no symmetry can be used with electric field

     Message from routine cell_base_init:
     DEPRECATED: use true lattice parameter, not A to a.u. conversion factor

     IMPORTANT: XC functional enforced from input :
     Exchange-correlation= BEEF-VDW
                           (   1   4  43  14   2   0   0)
     Any further DFT definition will be discarded
     Please, verify this is what you really want

  @ DRIVER MODE: Connecting to
 qe_1139763_2351650.sched-torque.pace.gatech.edu6etcjvp8_scratch
  using UNIX socket
  @ DRIVER MODE: Message from server: STATUS
  @ DRIVER MODE: Message from server: INIT
  @ DRIVER MODE: Receiving replica           0          -1
  @ DRIVER MODE: Receiving encoded integer          25
  @ DRIVER MODE:  SCF:  T  FORCE:  T  STRESS:  F  VC:  F  ENSEMBLE:  F
  @ DRIVER MODE:  SCF:  T  FORCE:  T  STRESS:  F  VC:  F  ENSEMBLE:  F

     Using Slab Decomposition

     bravais-lattice index     =            0
     lattice parameter (alat)  =       1.8897  a.u.
     unit-cell volume          =    6658.9804 (a.u.)^3
     number of atoms/cell      =           56
     number of atomic types    =            5
     number of electrons       =       398.00
     number of Kohn-Sham states=          209
     kinetic-energy cutoff     =      29.3995  Ry
     charge density cutoff     =     293.9946  Ry
     scf convergence threshold =      7.3E-08
     mixing beta               =       0.0500
     number of iterations used =            8  plain     mixing
     Exchange-correlation= BEEF-VDW
                           (   1   4  43  14   2   0   0)

     celldm(1)=   1.889726  celldm(2)=   0.000000  celldm(3)=   0.000000
     celldm(4)=   0.000000  celldm(5)=   0.000000  celldm(6)=   0.000000

     crystal axes: (cart. coord. in units of alat)
               a(1) = (   6.579727   0.000000   0.000000 )
               a(2) = (  -0.000775   5.961596   0.000000 )
               a(3) = (   0.000000   0.000000  25.155947 )

     reciprocal axes: (cart. coord. in units 2 pi/alat)
               b(1) = (  0.151982  0.000020  0.000000 )
               b(2) = (  0.000000  0.167740  0.000000 )
               b(3) = (  0.000000  0.000000  0.039752 )

     PseudoPot. # 1 for Ti read from file:
     /storage/coda1/p-amedford6/0/shared/rich_project_chbe-medford/medford-share/data/pseudos_module/espresso/nninc/pbe/van/Ti.UPF
     MD5 check sum: 8e4df49b7f0d34bbd5052bf3f5ea0213
     Pseudo is Ultrasoft, Zval = 12.0
     Generated by new atomic code, or converted to UPF format
     Using radial grid of  851 points,  6 beta functions with:
                l(1) =   0
                l(2) =   0
                l(3) =   1
                l(4) =   1
                l(5) =   2
                l(6) =   2
     Q(r) pseudized with  8 coefficients,  rinner =    1.000   1.000   1.000
                                                       1.000   1.000

     PseudoPot. # 2 for O  read from file:
     /storage/coda1/p-amedford6/0/shared/rich_project_chbe-medford/medford-share/data/pseudos_module/espresso/nninc/pbe/van/O.UPF
     MD5 check sum: 78c19812648e8988a0fe644b0f25305e
     Pseudo is Ultrasoft, Zval =  6.0
     Generated by new atomic code, or converted to UPF format
     Using radial grid of  737 points,  4 beta functions with:
                l(1) =   0
                l(2) =   0
                l(3) =   1
                l(4) =   1
     Q(r) pseudized with  8 coefficients,  rinner =    0.800   0.800   0.800

     PseudoPot. # 3 for N  read from file:
     /storage/coda1/p-amedford6/0/shared/rich_project_chbe-medford/medford-share/data/pseudos_module/espresso/nninc/pbe/van/N.UPF
     MD5 check sum: 90d10febe142ad51ac9d5be1deb811c4
     Pseudo is Ultrasoft, Zval =  5.0
     Generated by new atomic code, or converted to UPF format
     Using radial grid of  729 points,  4 beta functions with:
                l(1) =   0
                l(2) =   0
                l(3) =   1
                l(4) =   1
     Q(r) pseudized with  8 coefficients,  rinner =    0.800   0.800   0.800

     PseudoPot. # 4 for C  read from file:
     /storage/coda1/p-amedford6/0/shared/rich_project_chbe-medford/medford-share/data/pseudos_module/espresso/nninc/pbe/van/C.UPF
     MD5 check sum: 1a69bf6b8db32088f5b2163dbdb77a27
     Pseudo is Ultrasoft, Zval =  4.0
     Generated by new atomic code, or converted to UPF format
     Using radial grid of  721 points,  4 beta functions with:
                l(1) =   0
                l(2) =   0
                l(3) =   1
                l(4) =   1
     Q(r) pseudized with  8 coefficients,  rinner =    0.800   0.800   0.800

     PseudoPot. # 5 for H  read from file:
     /storage/coda1/p-amedford6/0/shared/rich_project_chbe-medford/medford-share/data/pseudos_module/espresso/nninc/pbe/van/H.UPF
     MD5 check sum: b5ee9d7bfd3a09ee7748110bda690ff7
     Pseudo is Ultrasoft, Zval =  1.0
     Generated by new atomic code, or converted to UPF format
     Using radial grid of  615 points,  1 beta functions with:
                l(1) =   0
     Q(r) pseudized with  8 coefficients,  rinner =    0.800

     atomic species   valence    mass     pseudopotential
        Ti1           12.00    47.86700     Ti( 1.00)
        O1             6.00    15.99900     O ( 1.00)
        N1             5.00    14.00700     N ( 1.00)
        C1             4.00    12.01100     C ( 1.00)
        H1             1.00     1.00800     H ( 1.00)

     Starting magnetic structure
     atomic species   magnetization
        Ti1          0.000
        O1           0.000
        N1           0.000
        C1           0.025
        H1           0.000

     No symmetry found

   Cartesian axes

     site n.     atom                  positions (alat units)
         1           Ti1 tau(   1) = (   0.0004258   2.9801865   6.0000000  )
         2           Ti1 tau(   2) = (   3.2906075   1.4906267   6.0002472  )
         3           O1  tau(   3) = (   0.0006271   0.0005054   7.9858123  )
         4           O1  tau(   4) = (   3.2906025   0.0005020   7.3038282  )
         5           O1  tau(   5) = (   4.5942328   1.4918067   9.2879030  )
         6           O1  tau(   6) = (   1.9868534   1.4903216   9.2879459  )
         7           Ti1 tau(   7) = (   3.2907910   2.8959150   9.1758416  )
         8           Ti1 tau(   8) = (   0.0015273   1.4827037   9.2680791  )
         9           O1  tau(   9) = (   3.3019049   5.9598586  11.2958584  )
        10           O1  tau(  10) = (   0.0116148   5.9584955  10.6183126  )
        11           O1  tau(  11) = (   1.3346742   1.4914638  12.6145280  )
        12           O1  tau(  12) = (   5.3113054   1.4894223  12.6320738  )
        13           Ti1 tau(  13) = (   6.4919192   2.9607050  12.7581921  )
        14           Ti1 tau(  14) = (   3.1808934   1.4809541  12.4628303  )
        15           O1  tau(  15) = (   0.0259758   5.9327586  14.5948705  )
        16           O1  tau(  16) = (   3.3179433   0.0111293  13.8771559  )
        17           O1  tau(  17) = (   4.5450242   1.5254396  16.0425357  )
        18           O1  tau(  18) = (   2.0945915   1.5254857  16.0466093  )
        19           Ti1 tau(  19) = (   3.3175380   3.0118254  15.6854273  )
        20           Ti1 tau(  20) = (   0.0287691   1.6153805  16.0968480  )
        21           O1  tau(  21) = (   3.2904802   0.0005063   4.7018136  )
        22           O1  tau(  22) = (   0.0272082   0.0527987  17.2096484  )
        23           O1  tau(  23) = (   1.3043587   1.4918075   6.0039043  )
        24           O1  tau(  24) = (   5.2767064   1.4903225   6.0039473  )
        25           Ti1 tau(  25) = (   0.0000382   5.9609847   6.0000000  )
        26           Ti1 tau(  26) = (   3.2902200   4.4714249   6.0002472  )
        27           O1  tau(  27) = (   0.0002396   2.9813036   7.9858123  )
        28           O1  tau(  28) = (   3.2902150   2.9813002   7.3038282  )
        29           O1  tau(  29) = (   4.5938453   4.4726049   9.2879030  )
        30           O1  tau(  30) = (   1.9864658   4.4711199   9.2879459  )
        31           Ti1 tau(  31) = (   3.2891106   5.8743827   9.1763621  )
        32           Ti1 tau(  32) = (   0.0006254   4.4649316   9.2693709  )
        33           O1  tau(  33) = (   3.3007599   2.9794320  11.2948048  )
        34           O1  tau(  34) = (   0.0092240   2.9805883  10.6323155  )
        35           O1  tau(  35) = (   1.3367187   4.4652043  12.6121808  )
        36           O1  tau(  36) = (   5.3110114   4.4536366  12.6300246  )
        37           Ti1 tau(  37) = (   6.5175235   5.9394146  12.7678677  )
        38           Ti1 tau(  38) = (   3.1810223   4.4618757  12.4682998  )
        39           O1  tau(  39) = (   0.0141956   2.9656780  14.6533049  )
        40           O1  tau(  40) = (   3.3125561   2.9946134  13.8784269  )
        41           O1  tau(  41) = (   4.5469694   4.5079638  16.0550352  )
        42           O1  tau(  42) = (   2.0896055   4.5089645  16.0567747  )
        43           Ti1 tau(  43) = (   3.3249511   0.0336637  15.6879192  )
        44           Ti1 tau(  44) = (   0.0309337   4.5948497  16.1324869  )
        45           O1  tau(  45) = (   3.2900926   2.9813045   4.7018136  )
        46           O1  tau(  46) = (   1.3039711   4.4726057   6.0039043  )
        47           O1  tau(  47) = (   5.2763189   4.4711207   6.0039473  )
        48           N1  tau(  48) = (   0.0510883   3.0100077  17.3315927  )
        49           C1  tau(  49) = (   0.2149723   3.0659314  18.7643681  )
        50           H1  tau(  50) = (   6.1109748   3.7957518  19.2115106  )
        51           H1  tau(  51) = (   0.0391147   2.0919789  19.2277120  )
        52           H1  tau(  52) = (   1.2341903   3.3897193  19.0223879  )
        53           N1  tau(  53) = (   4.7617085   1.8344328  21.5424420  )
        54           H1  tau(  54) = (   4.4711387   2.7986659  21.4441960  )
        55           H1  tau(  55) = (   4.1840297   1.2822813  20.9257432  )
        56           H1  tau(  56) = (   4.5427024   1.5537098  22.4892962  )

     number of k points=    10  Fermi-Dirac smearing, width (Ry)=  0.0073
                       cart. coord. in units 2pi/alat
        k(    1) = (   0.0000000   0.0000000   0.0000000), wk =   0.0625000
        k(    2) = (   0.0000000   0.0419351   0.0000000), wk =   0.1250000
        k(    3) = (   0.0000000  -0.0838702   0.0000000), wk =   0.0625000
        k(    4) = (   0.0379955   0.0000049   0.0000000), wk =   0.1250000
        k(    5) = (   0.0379955   0.0419400   0.0000000), wk =   0.1250000
[...]
     %   T. Thonhauser et al., PRB 76, 125112 (2007).                       %
     %   K. Berland et al., Rep. Prog. Phys. 78, 066501 (2015).             %
     %   D.C. Langreth et al., J. Phys.: Condens. Matter 21, 084203 (2009). %
     %                                                                      %
     %                                                                      %
     % If you are calculating the stress with vdW-DF, please also cite:     %
     %                                                                      %
     %   R. Sabatini et al., J. Phys.: Condens. Matter 24, 424209 (2012).   %
     %                                                                      %
     %%%%%%%%%%%%%%%%%%%%%%%%%%%%%%%%%%%%%%%%%%%%%%%%%%%%%%%%%%%%%%%%%%%%%%%%

     Adding external electric field

     Computed dipole along edir(3) :
        Dipole              -11.2917 Ry au,        -28.7007 Debye
        Dipole field         -0.0213 Ry au,

        Potential amp.        1.9753 Ry
        Total length         46.3494 bohr

[...]

     Starting wfcs are  302 atomic wfcs
  @ DRIVER MODE: Message from server: STATUS
  @ DRIVER MODE: Message from server: POSDATA
  @ DRIVER MODE: Reading and sharing cell
  @ DRIVER MODE: Reading and sharing positions
  @ DRIVER MODE: Received positions

     Self-consistent Calculation

     iteration #  1     ecut=    29.40 Ry     beta= 0.05
     Davidson diagonalization with overlap
     c_bands:  1 eigenvalues not converged
     c_bands:  1 eigenvalues not converged
     c_bands:  2 eigenvalues not converged
     c_bands:  1 eigenvalues not converged
     c_bands:  1 eigenvalues not converged
     c_bands:  1 eigenvalues not converged
     c_bands:  2 eigenvalues not converged
     c_bands:  2 eigenvalues not converged
     c_bands:  1 eigenvalues not converged
     c_bands:  1 eigenvalues not converged
     c_bands:  2 eigenvalues not converged
     c_bands:  1 eigenvalues not converged
     c_bands:  1 eigenvalues not converged
     c_bands:  1 eigenvalues not converged
     c_bands:  2 eigenvalues not converged
     c_bands:  2 eigenvalues not converged
     ethr =  1.00E-05,  avg # of iterations = 19.6

[...]

     total energy              =   -2520.79447883 Ry
     estimated scf accuracy    <    4704.42879051 Ry

     total magnetization       =     0.00 Bohr mag/cell
     absolute magnetization    =     0.01 Bohr mag/cell

     iteration #  2     ecut=    29.40 Ry     beta= 0.05
     Davidson diagonalization with overlap
     ethr =  1.00E-02,  avg # of iterations = 22.1

[...]

     iteration # 47     ecut=    29.40 Ry     beta= 0.05
     Davidson diagonalization with overlap
     c_bands:  1 eigenvalues not converged
     c_bands:  1 eigenvalues not converged
     c_bands:  2 eigenvalues not converged
     c_bands:  2 eigenvalues not converged
     c_bands:  1 eigenvalues not converged
     c_bands:  1 eigenvalues not converged
     c_bands:  1 eigenvalues not converged
     c_bands:  2 eigenvalues not converged
     c_bands:  1 eigenvalues not converged
     ethr =  4.88E-07,  avg # of iterations = 17.7

[...]

     total energy              =   -2942.90771627 Ry
     estimated scf accuracy    <       0.00000012 Ry

[...]

     iteration # 77     ecut=    29.40 Ry     beta= 0.05
     Davidson diagonalization with overlap
     ethr =  2.34E-11,  avg # of iterations =  2.0

     negative rho (up, down):  5.678E-03 5.678E-03

[...]

     Adding external electric field

     Computed dipole along edir(3) :
        Dipole                0.4181 Ry au,          1.0628 Debye
        Dipole field          0.0008 Ry au,

        Potential amp.       -0.0731 Ry
        Total length         46.3494 bohr

     Magnetic moment per site  (integrated on atomic sphere of radius R)
     atom   1 (R=0.735)  charge=  8.0053  magn= -0.0001
     atom   2 (R=0.735)  charge=  8.0011  magn= -0.0001
     atom   3 (R=0.735)  charge=  4.9958  magn=  0.0000
     atom   4 (R=0.735)  charge=  5.0345  magn=  0.0000
     atom   5 (R=0.735)  charge=  4.9982  magn=  0.0000
     atom   6 (R=0.735)  charge=  4.9994  magn=  0.0000
     atom   7 (R=0.735)  charge=  7.9947  magn= -0.0000
     atom   8 (R=0.735)  charge=  7.9823  magn= -0.0000
     atom   9 (R=0.735)  charge=  5.0127  magn=  0.0000
     atom  10 (R=0.735)  charge=  4.9434  magn=  0.0000
     atom  11 (R=0.735)  charge=  4.9999  magn= -0.0000
     atom  12 (R=0.735)  charge=  5.0035  magn=  0.0000
     atom  13 (R=0.735)  charge=  7.9933  magn= -0.0000
     atom  14 (R=0.735)  charge=  8.0007  magn= -0.0000
     atom  15 (R=0.735)  charge=  4.9894  magn=  0.0000
     atom  16 (R=0.735)  charge=  5.0146  magn=  0.0000
     atom  17 (R=0.735)  charge=  4.9901  magn=  0.0001
     atom  18 (R=0.735)  charge=  4.9888  magn=  0.0001
     atom  19 (R=0.735)  charge=  8.0208  magn= -0.0000
     atom  20 (R=0.735)  charge=  8.0241  magn= -0.0003
     atom  21 (R=0.735)  charge=  4.8827  magn=  0.0001
     atom  22 (R=0.735)  charge=  4.9721  magn=  0.0000
     atom  23 (R=0.735)  charge=  4.9884  magn=  0.0001
     atom  24 (R=0.735)  charge=  4.9885  magn=  0.0000
     atom  25 (R=0.735)  charge=  8.0054  magn= -0.0001
     atom  26 (R=0.735)  charge=  8.0011  magn= -0.0001
     atom  27 (R=0.735)  charge=  4.9957  magn=  0.0000
     atom  28 (R=0.735)  charge=  5.0347  magn=  0.0000
     atom  29 (R=0.735)  charge=  4.9989  magn=  0.0000
     atom  30 (R=0.735)  charge=  5.0001  magn=  0.0000
     atom  31 (R=0.735)  charge=  7.9947  magn= -0.0000
     atom  32 (R=0.735)  charge=  7.9826  magn= -0.0000
     atom  33 (R=0.735)  charge=  5.0125  magn=  0.0000
     atom  34 (R=0.735)  charge=  4.9424  magn=  0.0000
     atom  35 (R=0.735)  charge=  5.0005  magn=  0.0000
     atom  36 (R=0.735)  charge=  5.0043  magn=  0.0000
     atom  37 (R=0.735)  charge=  7.9991  magn= -0.0000
     atom  38 (R=0.735)  charge=  8.0004  magn= -0.0000
     atom  39 (R=0.735)  charge=  4.9853  magn=  0.0000
     atom  40 (R=0.735)  charge=  5.0160  magn=  0.0000
     atom  41 (R=0.735)  charge=  4.9884  magn=  0.0001
     atom  42 (R=0.735)  charge=  4.9879  magn=  0.0001
     atom  43 (R=0.735)  charge=  8.0213  magn= -0.0000
     atom  44 (R=0.735)  charge=  8.0215  magn= -0.0002
     atom  45 (R=0.735)  charge=  4.8827  magn=  0.0001
     atom  46 (R=0.735)  charge=  4.9884  magn=  0.0001
     atom  47 (R=0.735)  charge=  4.9885  magn=  0.0001
     atom  48 (R=0.416)  charge=  1.2998  magn=  0.0005
     atom  49 (R=0.451)  charge=  0.8534  magn=  0.0000
     atom  50 (R=0.416)  charge=  0.4332  magn=  0.0000
     atom  51 (R=0.416)  charge=  0.4353  magn=  0.0000
     atom  52 (R=0.416)  charge=  0.4303  magn=  0.0001
     atom  53 (R=0.416)  charge=  1.3183  magn= -0.0000
     atom  54 (R=0.416)  charge=  0.4499  magn=  0.0000
     atom  55 (R=0.416)  charge=  0.4512  magn=  0.0000
     atom  56 (R=0.416)  charge=  0.4512  magn=  0.0000

     End of self-consistent calculation

 ------ SPIN UP ------------

          k = 0.0000 0.0000 0.0000 ( 18029 PWs)   bands (ev):

   -56.6314 -56.5978 -55.7561 -55.7441 -55.7212 -55.7112 -55.6110 -55.5756
   -55.3932 -55.3573 -55.2966 -55.2917 -55.2627 -55.1939 -54.7278 -54.6161
   -33.0593 -32.9060 -32.8779 -32.8071 -32.7160 -32.6853 -32.2267 -32.2206
   -32.1536 -32.0400 -31.9939 -31.9697 -31.9512 -31.9300 -31.8963 -31.8919
   -31.8909 -31.8851 -31.8594 -31.8569 -31.8454 -31.8185 -31.7937 -31.7786
   -31.7657 -31.7472 -31.7376 -31.7129 -31.6888 -31.6349 -31.6238 -31.6107
   -31.5345 -31.5313 -31.5074 -31.4674 -31.4592 -31.4239 -31.4219 -31.3976
   -31.3751 -31.3131 -31.2336 -30.9737 -30.9582 -30.8754 -30.8379 -30.7479
   -16.7966 -16.3645 -16.1339 -15.9946 -15.9288 -15.8727 -15.8299 -15.7044
   -15.6362 -15.6281 -15.5865 -15.5586 -15.4871 -15.3473 -15.2488 -15.1962
   -15.1517 -15.0312 -14.9701 -14.9378 -14.9274 -14.8846 -14.8750 -14.6811
   -14.6580 -14.5643 -14.5432 -14.4223 -14.1877 -13.7956 -13.7166 -13.6855
   -12.8020  -7.4996  -4.3617  -3.8603  -3.8079  -3.7957  -3.6218  -3.5354
    -3.4282  -3.4141  -3.3277  -3.2131  -3.1688  -3.1211  -3.0047  -3.0034
    -2.8551  -2.8107  -2.8075  -2.8052  -2.7563  -2.6970  -2.6737  -2.6416
    -2.6326  -2.6037  -2.4767  -2.3802  -2.3086  -2.2855  -2.2796  -2.2438
    -2.1687  -2.1392  -2.1305  -2.1269  -2.0196  -1.8743  -1.8679  -1.8447
    -1.8028  -1.7973  -1.7549  -1.7418  -1.6240  -1.5334  -1.4310  -1.4147
    -1.3708  -1.3142  -1.3066  -1.2168  -1.1385  -1.0478  -1.0466  -0.9370
    -0.8896  -0.8726  -0.7825  -0.7227  -0.6833  -0.6572  -0.6447  -0.5446
    -0.5220  -0.5119  -0.4278  -0.4160  -0.3669  -0.2779  -0.2551  -0.2463
    -0.1640  -0.1613  -0.0661  -0.0242   0.0158   0.0510   0.1670   0.1842
     0.2825   0.3112   0.3389   0.4517   0.4677   0.5330   0.6076   0.6703
     0.6980   0.7246   0.7538   0.7731   0.8477   0.9597   0.9688   1.0709
     1.1031   1.2772   1.3161   1.4228   1.6020   1.6368   2.3030   2.6432
     2.8026   3.1010   3.2885   3.4016   3.6176   3.6336   3.6386   3.8073
     3.8604

[...]

          k =-0.0760-0.0000 0.0000 ( 17886 PWs)   bands (ev):

[...]

 ------ SPIN DOWN ----------

[...]

          k = 0.0380-0.0419 0.0000 ( 17876 PWs)   bands (ev):

[...]

          k =-0.0760-0.0839 0.0000 ( 17948 PWs)   bands (ev):

   -56.6150 -56.6147 -55.7410 -55.7352 -55.7284 -55.7278 -55.5936 -55.5928
   -55.3795 -55.3711 -55.2885 -55.2799 -55.2797 -55.1971 -54.7253 -54.6194
   -32.8922 -32.8920 -32.8764 -32.8762 -32.7605 -32.7602 -32.0566 -32.0543
   -32.0452 -32.0385 -31.9855 -31.9844 -31.9419 -31.9415 -31.9392 -31.9381
   -31.9304 -31.9275 -31.9253 -31.9237 -31.8461 -31.8441 -31.7952 -31.7923
   -31.7303 -31.7199 -31.6611 -31.6531 -31.6240 -31.6239 -31.6177 -31.5779
   -31.5737 -31.5460 -31.5118 -31.5053 -31.5052 -31.4661 -31.4661 -31.4627
   -31.4394 -31.3999 -31.1140 -30.9938 -30.9582 -30.9276 -30.8411 -30.8039
   -16.1452 -16.1431 -16.1101 -16.1099 -15.8415 -15.8380 -15.7954 -15.7929
   -15.6192 -15.6130 -15.4064 -15.3978 -15.3911 -15.3897 -15.2617 -15.2559
   -15.1904 -15.1801 -15.0907 -15.0816 -15.0251 -15.0187 -14.9761 -14.9551
   -14.6449 -14.6357 -14.5149 -14.4975 -14.3313 -13.7886 -13.7885 -13.7159
   -12.8164  -7.4885  -3.8149  -3.8038  -3.2441  -3.2438  -3.1801  -3.1791
    -3.0578  -3.0538  -2.9747  -2.9740  -2.8762  -2.8749  -2.7612  -2.7322
    -2.7291  -2.7282  -2.7115  -2.6633  -2.5756  -2.5725  -2.5621  -2.5476
    -2.4892  -2.4873  -2.4651  -2.3993  -2.3856  -2.3542  -2.3164  -2.2022
    -2.1919  -2.1800  -2.1481  -2.0848  -2.0776  -2.0647  -2.0223  -1.9897
    -1.9129  -1.8404  -1.8022  -1.6888  -1.6842  -1.6723  -1.6605  -1.5068
    -1.4665  -1.4360  -1.4289  -1.4228  -1.3750  -1.2800  -1.2725  -1.1406
    -1.1389  -1.0649  -0.9833  -0.9621  -0.9337  -0.8050  -0.7610  -0.7265
    -0.7188  -0.6908  -0.6706  -0.6490  -0.6053  -0.4696  -0.4578  -0.4190
    -0.3845  -0.3623  -0.3280  -0.2703  -0.1844  -0.1059  -0.1054  -0.0509
     0.0176   0.0783   0.1655   0.1755   0.1809   0.4619   0.5407   0.6302
     0.7060   0.7721   0.8356   0.8666   0.9219   0.9667   1.1032   1.1064
     1.1258   1.1262   1.1851   1.1889   1.4052   1.6443   2.1963   3.2156
     3.2159   3.2827   3.2832   3.6068   3.6126   3.7208   3.7301   3.8370
     3.8420

     the Fermi energy is     2.4834 ev

!    total energy              =   -2942.90772732 Ry
     estimated scf accuracy    <       0.00000006 Ry
     smearing contrib. (-TS)   =      -0.00487919 Ry
     internal energy E=F+TS    =   -2942.90284813 Ry

     The total energy is F=E-TS. E is the sum of the following terms:
     one-electron contribution =  -23242.44764653 Ry
     hartree contribution      =   11711.42181247 Ry
     xc contribution           =    -487.48061291 Ry
     ewald contribution        =    9075.60326892 Ry
     electric field correction =       0.00032992 Ry

     total magnetization       =     0.00 Bohr mag/cell
     absolute magnetization    =     0.00 Bohr mag/cell

     convergence has been achieved in  77 iterations

     Forces acting on atoms (cartesian axes, Ry/au):

     atom    1 type  1   force =     0.00004140   -0.00040596    0.12406855
     atom    2 type  1   force =    -0.00010300   -0.00057148   -0.16066474
     atom    3 type  2   force =     0.00023190   -0.00026776   -0.06797877
     atom    4 type  2   force =     0.00001052   -0.00029351    0.02758941
     atom    5 type  2   force =    -0.01616167    0.00175505   -0.00936552
     atom    6 type  2   force =     0.01818941    0.00219427   -0.00898759
     atom    7 type  1   force =     0.00114961   -0.00377647    0.02170924
     atom    8 type  1   force =    -0.00057718   -0.00290747    0.11107457
     atom    9 type  2   force =    -0.00018362    0.00030821   -0.00046423
     atom   10 type  2   force =    -0.00196185    0.00129363   -0.07322214
     atom   11 type  2   force =     0.00022187   -0.00010771    0.00017026
     atom   12 type  2   force =    -0.00025902    0.00022246    0.00020697
     atom   13 type  1   force =    -0.00008375    0.00008418   -0.00042966
     atom   14 type  1   force =    -0.00058666    0.00044460    0.00040538
     atom   15 type  2   force =     0.00027195    0.00000162    0.00016609
     atom   16 type  2   force =    -0.00049028   -0.00036902    0.00057259
     atom   17 type  2   force =    -0.00060411    0.00024342    0.00008793
     atom   18 type  2   force =     0.00002811    0.00024658    0.00009314
     atom   19 type  1   force =     0.00037310   -0.00056233    0.00000434
     atom   20 type  1   force =    -0.00009927    0.00007739    0.00018140
     atom   21 type  2   force =     0.00004728   -0.00000587    0.09971627
     atom   22 type  2   force =     0.00026590   -0.00003404   -0.00037583
     atom   23 type  2   force =    -0.07914930    0.00000262   -0.03244067
     atom   24 type  2   force =     0.07902956    0.00043902   -0.03246180
     atom   25 type  1   force =     0.00001170   -0.00041217    0.12359013
     atom   26 type  1   force =    -0.00010412   -0.00046100   -0.16079472
     atom   27 type  2   force =     0.00032812   -0.00048242   -0.06702945
     atom   28 type  2   force =     0.00002537   -0.00012057    0.02731819
     atom   29 type  2   force =    -0.01663722    0.00127912   -0.00947150
     atom   30 type  2   force =     0.01856225    0.00165557   -0.00910624
     atom   31 type  1   force =     0.00116311   -0.00138535    0.02112510
     atom   32 type  1   force =    -0.00053745    0.00034441    0.11172386
     atom   33 type  2   force =    -0.00016232   -0.00024840    0.00006017
     atom   34 type  2   force =    -0.00132800    0.00066894   -0.07267393
     atom   35 type  2   force =    -0.00078637   -0.00043083   -0.00002383
     atom   36 type  2   force =     0.00010684   -0.00001865    0.00010937
     atom   37 type  1   force =     0.00006599    0.00063856    0.00020283
     atom   38 type  1   force =    -0.00021756    0.00003061   -0.00016418
     atom   39 type  2   force =     0.00012968   -0.00018287    0.00090873
     atom   40 type  2   force =    -0.00018321   -0.00046547    0.00033549
     atom   41 type  2   force =     0.00007508   -0.00009060    0.00006264
     atom   42 type  2   force =     0.00040157    0.00001970    0.00002237
     atom   43 type  1   force =    -0.00022399   -0.00013256    0.00006471
     atom   44 type  1   force =    -0.00027612    0.00049154    0.00008394
     atom   45 type  2   force =     0.00002344   -0.00003001    0.09974306
     atom   46 type  2   force =    -0.07915469    0.00005432   -0.03243996
     atom   47 type  2   force =     0.07902849    0.00047782   -0.03245647
     atom   48 type  3   force =     0.00089669    0.00074484   -0.00133462
     atom   49 type  4   force =     0.00010313   -0.00046758    0.00006382
     atom   50 type  5   force =    -0.00008649    0.00075695    0.00080742
     atom   51 type  5   force =     0.00024936    0.00049161   -0.00011398
     atom   52 type  5   force =    -0.00028436   -0.00025366   -0.00000033
     atom   53 type  3   force =     0.00873864    0.00098036    0.00307941
     atom   54 type  5   force =    -0.00183212    0.00342895   -0.00118856
     atom   55 type  5   force =    -0.00541116   -0.00383447   -0.00553305
     atom   56 type  5   force =    -0.00228519   -0.00105814    0.00337434

     Total force =     0.424588     Total SCF correction =     0.000511
  @ DRIVER MODE: Message from server: STATUS
  @ DRIVER MODE: Message from server: GETFORCE
  @ DRIVER MODE: Returning v,forces,stress,ensemble

     Writing output data file ./calc.save/
  @ DRIVER MODE: Message from server: EXIT
  @ DRIVE MODE: Exiting

     General routines

     Parallel routines

   This run was terminated on:   9:20: 0  16Jul2021

   JOB DONE.