     Program PWSCF v.6.7GPU starts on  8Sep2021 at 22:40:20

     R & G space division:  proc/nbgrp/npool/nimage =      10
     Reading input from /storage/home/hcoda1/3/ntian30/research/carbon/CxH_vib/CH2_calc/ads_slab/CH2OH_a/out_0003/pw.inp
Warning: card &CELL ignored
Warning: card   CELL_DYNAMICS='IPI', ignored
Warning: card / ignored

     Current dimensions of program PWSCF are:
     Max number of different atomic species (ntypx) = 10
     Max number of k-points (npk) =  40000
     Max angular momentum in pseudopotentials (lmaxx) =  3
     Presently no symmetry can be used with electric field

     Message from routine cell_base_init:
     DEPRECATED: use true lattice parameter, not A to a.u. conversion factor

     IMPORTANT: XC functional enforced from input :
     Exchange-correlation= BEEF-VDW
                           (   1   4  43  14   2   0   0)
     Any further DFT definition will be discarded
     Please, verify this is what you really want

  @ DRIVER MODE: Connecting to
 qe_1139763_2767393.sched-torque.pace.gatech.edun_zln1m2_scratch
  using UNIX socket
  @ DRIVER MODE: Message from server: STATUS
  @ DRIVER MODE: Message from server: INIT
  @ DRIVER MODE: Receiving replica           0          -1
  @ DRIVER MODE: Receiving encoded integer          25
  @ DRIVER MODE:  SCF:  T  FORCE:  T  STRESS:  F  VC:  F  ENSEMBLE:  F
  @ DRIVER MODE:  SCF:  T  FORCE:  T  STRESS:  F  VC:  F  ENSEMBLE:  F

     Using Slab Decomposition

     bravais-lattice index     =            0
     lattice parameter (alat)  =       1.8897  a.u.
     unit-cell volume          =    6658.9804 (a.u.)^3
     number of atoms/cell      =           52
     number of atomic types    =            4
     number of electrons       =       391.00
     number of Kohn-Sham states=          205
     kinetic-energy cutoff     =      29.3995  Ry
     charge density cutoff     =     293.9946  Ry
     scf convergence threshold =      7.3E-08
     mixing beta               =       0.0500
     number of iterations used =            8  plain     mixing
     Exchange-correlation= BEEF-VDW
                           (   1   4  43  14   2   0   0)

     celldm(1)=   1.889726  celldm(2)=   0.000000  celldm(3)=   0.000000
     celldm(4)=   0.000000  celldm(5)=   0.000000  celldm(6)=   0.000000

     crystal axes: (cart. coord. in units of alat)
               a(1) = (   6.579727   0.000000   0.000000 )
               a(2) = (  -0.000775   5.961596   0.000000 )
               a(3) = (   0.000000   0.000000  25.155947 )

     reciprocal axes: (cart. coord. in units 2 pi/alat)
               b(1) = (  0.151982  0.000020  0.000000 )
               b(2) = (  0.000000  0.167740  0.000000 )
               b(3) = (  0.000000  0.000000  0.039752 )

     PseudoPot. # 1 for Ti read from file:
     /storage/coda1/p-amedford6/0/shared/rich_project_chbe-medford/medford-share/data/pseudos_module/espresso/nninc/pbe/van/Ti.UPF
     MD5 check sum: 8e4df49b7f0d34bbd5052bf3f5ea0213
     Pseudo is Ultrasoft, Zval = 12.0
     Generated by new atomic code, or converted to UPF format
     Using radial grid of  851 points,  6 beta functions with:
                l(1) =   0
                l(2) =   0
                l(3) =   1
                l(4) =   1
                l(5) =   2
                l(6) =   2
     Q(r) pseudized with  8 coefficients,  rinner =    1.000   1.000   1.000
                                                       1.000   1.000

     PseudoPot. # 2 for O  read from file:
     /storage/coda1/p-amedford6/0/shared/rich_project_chbe-medford/medford-share/data/pseudos_module/espresso/nninc/pbe/van/O.UPF
     MD5 check sum: 78c19812648e8988a0fe644b0f25305e
     Pseudo is Ultrasoft, Zval =  6.0
     Generated by new atomic code, or converted to UPF format
     Using radial grid of  737 points,  4 beta functions with:
                l(1) =   0
                l(2) =   0
                l(3) =   1
                l(4) =   1
     Q(r) pseudized with  8 coefficients,  rinner =    0.800   0.800   0.800

     PseudoPot. # 3 for C  read from file:
     /storage/coda1/p-amedford6/0/shared/rich_project_chbe-medford/medford-share/data/pseudos_module/espresso/nninc/pbe/van/C.UPF
     MD5 check sum: 1a69bf6b8db32088f5b2163dbdb77a27
     Pseudo is Ultrasoft, Zval =  4.0
     Generated by new atomic code, or converted to UPF format
     Using radial grid of  721 points,  4 beta functions with:
                l(1) =   0
                l(2) =   0
                l(3) =   1
                l(4) =   1
     Q(r) pseudized with  8 coefficients,  rinner =    0.800   0.800   0.800

     PseudoPot. # 4 for H  read from file:
     /storage/coda1/p-amedford6/0/shared/rich_project_chbe-medford/medford-share/data/pseudos_module/espresso/nninc/pbe/van/H.UPF
     MD5 check sum: b5ee9d7bfd3a09ee7748110bda690ff7
     Pseudo is Ultrasoft, Zval =  1.0
     Generated by new atomic code, or converted to UPF format
     Using radial grid of  615 points,  1 beta functions with:
                l(1) =   0
     Q(r) pseudized with  8 coefficients,  rinner =    0.800

     atomic species   valence    mass     pseudopotential
        Ti1           12.00    47.86700     Ti( 1.00)
        O1             6.00    15.99900     O ( 1.00)
        C1             4.00    12.01100     C ( 1.00)
        H1             1.00     1.00800     H ( 1.00)

     No symmetry found

   Cartesian axes

     site n.     atom                  positions (alat units)
         1           Ti1 tau(   1) = (   0.0004258   2.9801865   6.0000000  )
         2           Ti1 tau(   2) = (   3.2906075   1.4906267   6.0002472  )
         3           O1  tau(   3) = (   0.0006271   0.0005054   7.9858123  )
         4           O1  tau(   4) = (   3.2906025   0.0005020   7.3038282  )
         5           O1  tau(   5) = (   4.5942328   1.4918067   9.2879030  )
         6           O1  tau(   6) = (   1.9868534   1.4903216   9.2879459  )
         7           Ti1 tau(   7) = (   3.2719207   3.0347534   9.1624208  )
         8           Ti1 tau(   8) = (   6.5479847   1.5485315   9.3114282  )
         9           O1  tau(   9) = (   3.3130468   5.9588651  11.3322545  )
        10           O1  tau(  10) = (   6.5779921   5.9597862  10.5854321  )
        11           O1  tau(  11) = (   1.2828316   1.4981946  12.5939292  )
        12           O1  tau(  12) = (   5.3076696   1.4616608  12.6584921  )
        13           Ti1 tau(  13) = (   0.0652608   2.9737989  12.6898254  )
        14           Ti1 tau(  14) = (   3.3390979   1.6191063  12.6104043  )
        15           O1  tau(  15) = (   0.1579450   5.9294946  14.6423442  )
        16           O1  tau(  16) = (   3.1680681   5.9402194  13.8972025  )
        17           O1  tau(  17) = (   4.6139792   1.3367142  15.8434034  )
        18           O1  tau(  18) = (   2.0781381   1.4994250  16.2203239  )
        19           Ti1 tau(  19) = (   3.3500823   2.9415657  15.9644494  )
        20           Ti1 tau(  20) = (   0.0003135   1.3236462  15.9137460  )
        21           O1  tau(  21) = (   3.2904802   0.0005063   4.7018136  )
        22           O1  tau(  22) = (   6.5745372   5.9170875  17.1494514  )
        23           O1  tau(  23) = (   1.3043587   1.4918075   6.0039043  )
        24           O1  tau(  24) = (   5.2767064   1.4903225   6.0039473  )
        25           Ti1 tau(  25) = (   0.0000382   5.9609847   6.0000000  )
        26           Ti1 tau(  26) = (   3.2902200   4.4714249   6.0002472  )
        27           O1  tau(  27) = (   0.0002396   2.9813036   7.9858123  )
        28           O1  tau(  28) = (   3.2902150   2.9813002   7.3038282  )
        29           O1  tau(  29) = (   4.5938453   4.4726049   9.2879030  )
        30           O1  tau(  30) = (   1.9864658   4.4711199   9.2879459  )
        31           Ti1 tau(  31) = (   3.2621523   0.0587977   9.1770015  )
        32           Ti1 tau(  32) = (   6.5480547   4.4734411   9.2675299  )
        33           O1  tau(  33) = (   3.3121001   2.9882390  11.3403144  )
        34           O1  tau(  34) = (   6.5676672   2.9758547  10.5865552  )
        35           O1  tau(  35) = (   1.2831373   4.4454538  12.5925867  )
        36           O1  tau(  36) = (   5.3039272   4.4828346  12.6569239  )
        37           Ti1 tau(  37) = (   0.0139245   5.9553196  12.4525254  )
        38           Ti1 tau(  38) = (   3.3396594   4.5312311  12.4471015  )
        39           O1  tau(  39) = (   0.0911754   2.9492527  14.7447760  )
        40           O1  tau(  40) = (   3.3148107   2.9226094  13.9462488  )
        41           O1  tau(  41) = (   4.6112453   4.5441982  15.8230962  )
        42           O1  tau(  42) = (   2.0803191   4.3866676  16.2083192  )
        43           Ti1 tau(  43) = (   3.2736722   5.9210238  15.6733724  )
        44           Ti1 tau(  44) = (   6.5729336   4.5444060  15.8763539  )
        45           O1  tau(  45) = (   3.2900926   2.9813045   4.7018136  )
        46           O1  tau(  46) = (   1.3039711   4.4726057   6.0039043  )
        47           O1  tau(  47) = (   5.2763189   4.4711207   6.0039473  )
        48           C1  tau(  48) = (   4.5191185   2.9421590  17.9045005  )
        49           O1  tau(  49) = (   5.9932199   2.9473452  17.4910416  )
        50           H1  tau(  50) = (   6.5492410   2.9805908  18.2871345  )
        51           H1  tau(  51) = (   4.3954453   2.0589761  18.5217578  )
        52           H1  tau(  52) = (   4.3955607   3.8562994  18.5052511  )

     number of k points=    10  Fermi-Dirac smearing, width (Ry)=  0.0073
                       cart. coord. in units 2pi/alat
        k(    1) = (   0.0000000   0.0000000   0.0000000), wk =   0.1250000
        k(    2) = (   0.0000000   0.0419351   0.0000000), wk =   0.2500000
        k(    3) = (   0.0000000  -0.0838702   0.0000000), wk =   0.1250000
        k(    4) = (   0.0379955   0.0000049   0.0000000), wk =   0.2500000
        k(    5) = (   0.0379955   0.0419400   0.0000000), wk =   0.2500000
        k(    6) = (   0.0379955  -0.0838652   0.0000000), wk =   0.2500000
        k(    7) = (   0.0379955  -0.0419301   0.0000000), wk =   0.2500000
        k(    8) = (  -0.0759910  -0.0000099   0.0000000), wk =   0.1250000
        k(    9) = (  -0.0759910   0.0419252   0.0000000), wk =   0.2500000
        k(   10) = (  -0.0759910  -0.0838800   0.0000000), wk =   0.1250000

     Initial potential from superposition of free atoms

     starting charge  374.99918, renormalised to  391.00000

     negative rho (up, down):  1.948E-02 0.000E+00

     %%%%%%%%%%%%%%%%%%%%%%%%%%%%%%%%%%%%%%%%%%%%%%%%%%%%%%%%%%%%%%%%%%%%%%%%
     %                                                                      %
     % You are using vdW-DF, which was implemented by the Thonhauser group. %
     % Please cite the following two papers that made this development      %
     % possible and the two reviews that describe the various versions:     %
     %                                                                      %
     %   T. Thonhauser et al., PRL 115, 136402 (2015).                      %
     %   T. Thonhauser et al., PRB 76, 125112 (2007).                       %
     %   K. Berland et al., Rep. Prog. Phys. 78, 066501 (2015).             %
     %   D.C. Langreth et al., J. Phys.: Condens. Matter 21, 084203 (2009). %
     %                                                                      %
     %                                                                      %
     % If you are calculating the stress with vdW-DF, please also cite:     %
     %                                                                      %
     %   R. Sabatini et al., J. Phys.: Condens. Matter 24, 424209 (2012).   %
     %                                                                      %
     %%%%%%%%%%%%%%%%%%%%%%%%%%%%%%%%%%%%%%%%%%%%%%%%%%%%%%%%%%%%%%%%%%%%%%%%

     Adding external electric field

     Computed dipole along edir(3) :
        Dipole               -5.2229 Ry au,        -13.2753 Debye
        Dipole field         -0.0099 Ry au,

        Potential amp.        0.9137 Ry
        Total length         46.3494 bohr

     Starting wfcs are  295 atomic wfcs
  @ DRIVER MODE: Message from server: STATUS
  @ DRIVER MODE: Message from server: POSDATA
  @ DRIVER MODE: Reading and sharing cell
  @ DRIVER MODE: Reading and sharing positions
  @ DRIVER MODE: Received positions

     Self-consistent Calculation

     iteration #  1     ecut=    29.40 Ry     beta= 0.05
     Davidson diagonalization with overlap
     c_bands:  1 eigenvalues not converged
     c_bands:  3 eigenvalues not converged
     c_bands:  2 eigenvalues not converged
     c_bands:  3 eigenvalues not converged
     c_bands:  4 eigenvalues not converged
     c_bands:  3 eigenvalues not converged
     c_bands:  1 eigenvalues not converged
     c_bands:  3 eigenvalues not converged
     ethr =  1.00E-05,  avg # of iterations = 19.6

[...]

     total energy              =   -2802.79910938 Ry
     estimated scf accuracy    <    1413.24986830 Ry

     iteration #  2     ecut=    29.40 Ry     beta= 0.05
     Davidson diagonalization with overlap
     ethr =  1.00E-02,  avg # of iterations = 16.7

[...]

     iteration # 54     ecut=    29.40 Ry     beta= 0.05
     Davidson diagonalization with overlap
     c_bands:  1 eigenvalues not converged
     ethr =  2.85E-09,  avg # of iterations = 12.5

[...]

     total energy              =   -2931.32982912 Ry
     estimated scf accuracy    <       0.00000012 Ry

     iteration # 62     ecut=    29.40 Ry     beta= 0.05
     Davidson diagonalization with overlap
     ethr =  3.03E-11,  avg # of iterations =  7.5

     negative rho (up, down):  1.893E-02 0.000E+00

     Adding external electric field

     Computed dipole along edir(3) :
        Dipole                0.9593 Ry au,          2.4382 Debye
        Dipole field          0.0018 Ry au,

        Potential amp.       -0.1678 Ry
        Total length         46.3494 bohr

     End of self-consistent calculation

          k = 0.0000 0.0000 0.0000 ( 18029 PWs)   bands (ev):

   -55.8482 -55.8092 -55.7661 -55.7513 -55.6965 -55.6874 -55.6782 -55.6679
   -55.6294 -55.6181 -55.5962 -55.5859 -55.5588 -55.5513 -54.8189 -54.7848
   -32.3691 -32.3202 -32.2353 -32.2134 -32.1573 -32.1301 -32.1176 -32.0849
   -32.0770 -32.0631 -32.0421 -32.0164 -32.0033 -31.9949 -31.9662 -31.9597
   -31.9422 -31.9405 -31.9220 -31.9090 -31.9077 -31.9014 -31.8768 -31.8569
   -31.8539 -31.8514 -31.8460 -31.8413 -31.8278 -31.8135 -31.8024 -31.8017
   -31.8001 -31.7933 -31.7840 -31.7835 -31.7604 -31.7429 -31.7410 -31.7280
   -31.6990 -31.6338 -31.2259 -31.1367 -31.1141 -31.0430 -30.9569 -30.8452
   -19.5691 -16.5533 -16.3315 -16.1534 -16.0561 -15.9938 -15.8301 -15.7484
   -15.5605 -15.4843 -15.4775 -15.4522 -15.3897 -15.3758 -15.3645 -15.3442
   -15.3432 -15.3125 -15.2493 -15.2365 -15.2295 -15.2004 -15.1302 -15.1203
   -14.9761 -14.9590 -14.9587 -14.9464 -14.8475 -14.7789 -13.3187 -13.2017
    -9.6181  -6.4679  -4.2191  -4.0119  -3.8653  -3.7622  -3.7550  -3.7196
    -3.5660  -3.4894  -3.2751  -3.1344  -3.0885  -3.0204  -2.9768  -2.9152
    -2.8340  -2.7662  -2.7205  -2.6745  -2.6610  -2.6358  -2.6244  -2.5755
    -2.5398  -2.5120  -2.4034  -2.3986  -2.3490  -2.2913  -2.2545  -2.2012
    -2.1635  -2.1445  -2.1217  -2.0921  -2.0622  -2.0433  -2.0233  -1.9687
    -1.9176  -1.8383  -1.8238  -1.5539  -1.4642  -1.3921  -1.3660  -1.2880
    -1.2624  -1.2411  -1.2106  -1.2066  -1.1829  -1.1045  -1.0990  -1.0062
    -0.9714  -0.8874  -0.8340  -0.7456  -0.7057  -0.6351  -0.6138  -0.5789
    -0.5608  -0.5449  -0.3991  -0.3803  -0.3553  -0.2359  -0.2169  -0.1609
    -0.1335  -0.0749  -0.0495   0.0152   0.0460   0.0930   0.1210   0.1412
     0.1620   0.1771   0.2222   0.3086   0.3850   0.4006   0.4257   0.4919
     0.6772   0.7068   0.8355   0.9008   1.1337   1.2062   1.2501   1.2971
     1.3921   1.7804   1.8357   3.3043   3.3592   3.4193   3.4243   3.4615
     3.5539   3.7351   3.7543   3.8088   3.8665

[...]

          k = 0.0380-0.0419 0.0000 ( 17876 PWs)   bands (ev):

[...]

          k =-0.0760-0.0000 0.0000 ( 17886 PWs)   bands (ev):

[...]

          k =-0.0760-0.0839 0.0000 ( 17948 PWs)   bands (ev):

   -55.8382 -55.8191 -55.7621 -55.7449 -55.7027 -55.6909 -55.6729 -55.6658
   -55.6235 -55.6206 -55.5944 -55.5858 -55.5693 -55.5535 -54.8019 -54.8017
   -32.2926 -32.1449 -32.1359 -32.1267 -32.1028 -32.0894 -32.0833 -32.0595
   -32.0215 -32.0095 -31.9959 -31.9911 -31.9775 -31.9710 -31.9673 -31.9639
   -31.9600 -31.9572 -31.9464 -31.9417 -31.9138 -31.9110 -31.8995 -31.8968
   -31.8913 -31.8855 -31.8825 -31.8725 -31.8653 -31.8630 -31.8546 -31.8341
   -31.8237 -31.8196 -31.8108 -31.8093 -31.7953 -31.7928 -31.7899 -31.7865
   -31.7786 -31.6353 -31.1271 -31.1266 -31.0396 -31.0384 -31.0000 -30.9994
   -19.5631 -16.1433 -15.9636 -15.8082 -15.7801 -15.7791 -15.6449 -15.6269
   -15.6054 -15.5718 -15.5334 -15.5051 -15.4797 -15.4735 -15.4299 -15.3746
   -15.3680 -15.3553 -15.3292 -15.2710 -15.2591 -15.2567 -15.2152 -15.1604
   -15.1379 -15.1281 -15.1202 -15.1065 -15.0766 -15.0548 -13.3058 -13.3012
    -9.6184  -6.4512  -4.2242  -3.8814  -3.2851  -3.2139  -3.0119  -3.0084
    -2.9256  -2.8864  -2.8751  -2.8333  -2.7670  -2.7608  -2.7425  -2.6745
    -2.6495  -2.6467  -2.6073  -2.5988  -2.5777  -2.5694  -2.5480  -2.5227
    -2.4879  -2.4485  -2.4316  -2.4219  -2.4033  -2.3946  -2.3884  -2.3459
    -2.3244  -2.2151  -2.1348  -2.0235  -2.0187  -1.9721  -1.9573  -1.9351
    -1.8995  -1.8852  -1.8792  -1.8439  -1.7628  -1.6188  -1.5196  -1.5007
    -1.4606  -1.4345  -1.4014  -1.3803  -1.2834  -1.2697  -1.2170  -1.1900
    -1.1848  -1.0692  -1.0593  -0.9625  -0.9262  -0.8174  -0.8087  -0.7824
    -0.7602  -0.7245  -0.7004  -0.6314  -0.6121  -0.5703  -0.5527  -0.4870
    -0.4482  -0.4323  -0.3557  -0.3162  -0.2544  -0.2054  -0.1720  -0.0212
     0.1590   0.1773   0.2087   0.3194   0.3576   0.4306   0.4864   0.5016
     0.5713   0.6050   0.6738   0.7048   0.7668   0.8064   1.2627   1.5672
     1.5776   1.6403   1.6539   3.5970   3.6448   3.7699   3.7862   3.8183
     3.8231   3.8337   3.8556   3.9180   3.9526

     the Fermi energy is     3.2945 ev

!    total energy              =   -2931.32986072 Ry
     estimated scf accuracy    <       0.00000006 Ry
     smearing contrib. (-TS)   =      -0.02177130 Ry
     internal energy E=F+TS    =   -2931.30808941 Ry

     The total energy is F=E-TS. E is the sum of the following terms:
     one-electron contribution =  -24940.46212154 Ry
     hartree contribution      =   12556.66874297 Ry
     xc contribution           =    -482.04587357 Ry
     ewald contribution        =    9934.52942615 Ry
     electric field correction =       0.00173657 Ry

     convergence has been achieved in  62 iterations

     Forces acting on atoms (cartesian axes, Ry/au):

     atom    1 type  1   force =     0.00041204   -0.00075222    0.09648963
     atom    2 type  1   force =     0.00022402   -0.00293161   -0.17614013
     atom    3 type  2   force =    -0.00037735   -0.00272778   -0.03077795
     atom    4 type  2   force =    -0.00049156    0.00065513    0.04968840
     atom    5 type  2   force =    -0.01530423   -0.00088587    0.00151312
     atom    6 type  2   force =     0.01484756    0.00155324    0.00315692
     atom    7 type  1   force =    -0.00060781   -0.00031061   -0.00011960
     atom    8 type  1   force =    -0.00056564    0.00059885    0.00064000
     atom    9 type  2   force =    -0.00018588    0.00025407    0.00046829
     atom   10 type  2   force =     0.00000157    0.00008256   -0.00067429
     atom   11 type  2   force =     0.00023081    0.00030170    0.00017338
     atom   12 type  2   force =    -0.00016946    0.00012878   -0.00021625
     atom   13 type  1   force =     0.00016129   -0.00018667    0.00050972
     atom   14 type  1   force =     0.00032720   -0.00058716    0.00039356
     atom   15 type  2   force =     0.00003112    0.00049003   -0.00028369
     atom   16 type  2   force =    -0.00015178   -0.00011279    0.00020886
     atom   17 type  2   force =     0.00026949   -0.00031171   -0.00027588
     atom   18 type  2   force =    -0.00004373    0.00018364    0.00011053
     atom   19 type  1   force =     0.00034019   -0.00065590    0.00115683
     atom   20 type  1   force =     0.00018242    0.00026844    0.00024654
     atom   21 type  2   force =     0.00016230    0.00023026    0.10301856
     atom   22 type  2   force =     0.00023929    0.00039700   -0.00014371
     atom   23 type  2   force =    -0.07094786    0.00144786   -0.02884448
     atom   24 type  2   force =     0.07107103    0.00186091   -0.02886105
     atom   25 type  1   force =     0.00033955    0.00079010    0.11232810
     atom   26 type  1   force =    -0.00012325    0.00362661   -0.17642617
     atom   27 type  2   force =    -0.00014820    0.00020197   -0.02744378
     atom   28 type  2   force =    -0.00030930    0.00087434    0.04914479
     atom   29 type  2   force =    -0.01336012   -0.00250178    0.00128825
     atom   30 type  2   force =     0.01439405   -0.00068152    0.00299167
     atom   31 type  1   force =     0.00019202   -0.00031473    0.00020306
     atom   32 type  1   force =    -0.00074177    0.00067754   -0.00045932
     atom   33 type  2   force =    -0.00025768   -0.00028840   -0.00024858
     atom   34 type  2   force =     0.00012220    0.00016874    0.00000656
     atom   35 type  2   force =    -0.00015523   -0.00006919    0.00029773
     atom   36 type  2   force =     0.00021788   -0.00009266    0.00030717
     atom   37 type  1   force =    -0.00025805   -0.00020070    0.00033848
     atom   38 type  1   force =     0.00028017    0.00035581    0.00029321
     atom   39 type  2   force =     0.00018118    0.00021106   -0.00022359
     atom   40 type  2   force =    -0.00010411   -0.00064905   -0.00084243
     atom   41 type  2   force =    -0.00044733   -0.00045531    0.00069536
     atom   42 type  2   force =     0.00001563   -0.00003975    0.00033198
     atom   43 type  1   force =     0.00033451    0.00039964    0.00015878
     atom   44 type  1   force =     0.00050576    0.00044901   -0.00020604
     atom   45 type  2   force =     0.00015508    0.00016603    0.10344492
     atom   46 type  2   force =    -0.07076119   -0.00175151   -0.02883379
     atom   47 type  2   force =     0.07087470   -0.00133985   -0.02885823
     atom   48 type  3   force =    -0.00027022    0.01980852    0.00008532
     atom   49 type  2   force =    -0.00004753   -0.00155126   -0.00007091
     atom   50 type  4   force =     0.00035969   -0.00034456   -0.00006069
     atom   51 type  4   force =    -0.00055879   -0.00845270    0.00485871
     atom   52 type  4   force =    -0.00008469   -0.00798654   -0.00453788

     Total force =     0.370034     Total SCF correction =     0.000516
  @ DRIVER MODE: Message from server: STATUS
  @ DRIVER MODE: Message from server: GETFORCE
  @ DRIVER MODE: Returning v,forces,stress,ensemble

     Writing output data file ./calc.save/
  @ DRIVER MODE: Message from server: EXIT
  @ DRIVE MODE: Exiting

     General routines

     Parallel routines

   This run was terminated on:  22:56:50   8Sep2021

   JOB DONE.