     Program PWSCF v.6.7GPU starts on 16Sep2021 at 10:16: 4

     R & G space division:  proc/nbgrp/npool/nimage =      10
     Reading input from /storage/home/hcoda1/3/ntian30/research/carbon/CxH_vib/H2O_calc/ads_slab/CH3NNHHHH2O_a/out_0053/pw.inp
Warning: card &CELL ignored
Warning: card   CELL_DYNAMICS='IPI', ignored
Warning: card / ignored

     Current dimensions of program PWSCF are:
     Max number of different atomic species (ntypx) = 10
     Max number of k-points (npk) =  40000
     Max angular momentum in pseudopotentials (lmaxx) =  3
     Presently no symmetry can be used with electric field

     Message from routine cell_base_init:
     DEPRECATED: use true lattice parameter, not A to a.u. conversion factor

     IMPORTANT: XC functional enforced from input :
     Exchange-correlation= BEEF-VDW
                           (   1   4  43  14   2   0   0)
     Any further DFT definition will be discarded
     Please, verify this is what you really want

  @ DRIVER MODE: Connecting to
 qe_1139763_2852622.sched-torque.pace.gatech.eduhzj5ym6f_scratch
  using UNIX socket
  @ DRIVER MODE: Message from server: STATUS
  @ DRIVER MODE: Message from server: INIT
  @ DRIVER MODE: Receiving replica           0          -1
  @ DRIVER MODE: Receiving encoded integer          25
  @ DRIVER MODE:  SCF:  T  FORCE:  T  STRESS:  F  VC:  F  ENSEMBLE:  F
  @ DRIVER MODE:  SCF:  T  FORCE:  T  STRESS:  F  VC:  F  ENSEMBLE:  F

     Using Slab Decomposition

     bravais-lattice index     =            0
     lattice parameter (alat)  =       1.8897  a.u.
     unit-cell volume          =    6658.9804 (a.u.)^3
     number of atoms/cell      =           59
     number of atomic types    =            5
     number of electrons       =       406.00
     number of Kohn-Sham states=          213
     kinetic-energy cutoff     =      29.3995  Ry
     charge density cutoff     =     293.9946  Ry
     scf convergence threshold =      7.3E-08
     mixing beta               =       0.0500
     number of iterations used =            8  plain     mixing
     Exchange-correlation= BEEF-VDW
                           (   1   4  43  14   2   0   0)

     celldm(1)=   1.889726  celldm(2)=   0.000000  celldm(3)=   0.000000
     celldm(4)=   0.000000  celldm(5)=   0.000000  celldm(6)=   0.000000

     crystal axes: (cart. coord. in units of alat)
               a(1) = (   6.579727   0.000000   0.000000 )
               a(2) = (  -0.000775   5.961596   0.000000 )
               a(3) = (   0.000000   0.000000  25.155947 )

     reciprocal axes: (cart. coord. in units 2 pi/alat)
               b(1) = (  0.151982  0.000020  0.000000 )
               b(2) = (  0.000000  0.167740  0.000000 )
               b(3) = (  0.000000  0.000000  0.039752 )

     PseudoPot. # 1 for Ti read from file:
     /storage/coda1/p-amedford6/0/shared/rich_project_chbe-medford/medford-share/data/pseudos_module/espresso/nninc/pbe/van/Ti.UPF
     MD5 check sum: 8e4df49b7f0d34bbd5052bf3f5ea0213
     Pseudo is Ultrasoft, Zval = 12.0
     Generated by new atomic code, or converted to UPF format
     Using radial grid of  851 points,  6 beta functions with:
                l(1) =   0
                l(2) =   0
                l(3) =   1
                l(4) =   1
                l(5) =   2
                l(6) =   2
     Q(r) pseudized with  8 coefficients,  rinner =    1.000   1.000   1.000
                                                       1.000   1.000

     PseudoPot. # 2 for O  read from file:
     /storage/coda1/p-amedford6/0/shared/rich_project_chbe-medford/medford-share/data/pseudos_module/espresso/nninc/pbe/van/O.UPF
     MD5 check sum: 78c19812648e8988a0fe644b0f25305e
     Pseudo is Ultrasoft, Zval =  6.0
     Generated by new atomic code, or converted to UPF format
     Using radial grid of  737 points,  4 beta functions with:
                l(1) =   0
                l(2) =   0
                l(3) =   1
                l(4) =   1
     Q(r) pseudized with  8 coefficients,  rinner =    0.800   0.800   0.800

     PseudoPot. # 3 for N  read from file:
     /storage/coda1/p-amedford6/0/shared/rich_project_chbe-medford/medford-share/data/pseudos_module/espresso/nninc/pbe/van/N.UPF
     MD5 check sum: 90d10febe142ad51ac9d5be1deb811c4
     Pseudo is Ultrasoft, Zval =  5.0
     Generated by new atomic code, or converted to UPF format
     Using radial grid of  729 points,  4 beta functions with:
                l(1) =   0
                l(2) =   0
                l(3) =   1
                l(4) =   1
     Q(r) pseudized with  8 coefficients,  rinner =    0.800   0.800   0.800

     PseudoPot. # 4 for C  read from file:
     /storage/coda1/p-amedford6/0/shared/rich_project_chbe-medford/medford-share/data/pseudos_module/espresso/nninc/pbe/van/C.UPF
     MD5 check sum: 1a69bf6b8db32088f5b2163dbdb77a27
     Pseudo is Ultrasoft, Zval =  4.0
     Generated by new atomic code, or converted to UPF format
     Using radial grid of  721 points,  4 beta functions with:
                l(1) =   0
                l(2) =   0
                l(3) =   1
                l(4) =   1
     Q(r) pseudized with  8 coefficients,  rinner =    0.800   0.800   0.800

     PseudoPot. # 5 for H  read from file:
     /storage/coda1/p-amedford6/0/shared/rich_project_chbe-medford/medford-share/data/pseudos_module/espresso/nninc/pbe/van/H.UPF
     MD5 check sum: b5ee9d7bfd3a09ee7748110bda690ff7
     Pseudo is Ultrasoft, Zval =  1.0
     Generated by new atomic code, or converted to UPF format
     Using radial grid of  615 points,  1 beta functions with:
                l(1) =   0
     Q(r) pseudized with  8 coefficients,  rinner =    0.800

     atomic species   valence    mass     pseudopotential
        Ti1           12.00    47.86700     Ti( 1.00)
        O1             6.00    15.99900     O ( 1.00)
        N1             5.00    14.00700     N ( 1.00)
        C1             4.00    12.01100     C ( 1.00)
        H1             1.00     1.00800     H ( 1.00)

     No symmetry found

   Cartesian axes

     site n.     atom                  positions (alat units)
         1           Ti1 tau(   1) = (   0.0004258   2.9801865   6.0000000  )
         2           Ti1 tau(   2) = (   3.2906075   1.4906267   6.0002472  )
         3           O1  tau(   3) = (   0.0006271   0.0005054   7.9858123  )
         4           O1  tau(   4) = (   3.2906025   0.0005020   7.3038282  )
         5           O1  tau(   5) = (   4.5942328   1.4918067   9.2879030  )
         6           O1  tau(   6) = (   1.9868534   1.4903216   9.2879459  )
         7           Ti1 tau(   7) = (   3.2907910   2.8959150   9.1758416  )
         8           Ti1 tau(   8) = (   0.0015273   1.4827037   9.2680791  )
         9           O1  tau(   9) = (   3.2800960   5.9426830  11.3808346  )
        10           O1  tau(  10) = (   0.0116148   5.9584955  10.6183126  )
        11           O1  tau(  11) = (   1.2797812   1.4911726  12.6624455  )
        12           O1  tau(  12) = (   5.2824698   1.4871998  12.6412817  )
        13           Ti1 tau(  13) = (   0.0041451   2.9720195  12.5119452  )
        14           Ti1 tau(  14) = (   3.3095611   1.4699318  12.5307708  )
        15           O1  tau(  15) = (   6.5436702   0.0697967  14.6864816  )
        16           O1  tau(  16) = (   3.2812162   5.9597207  14.0300411  )
        17           O1  tau(  17) = (   4.5129646   1.5046642  16.2361130  )
        18           O1  tau(  18) = (   1.9708392   1.5012857  16.1671103  )
        19           Ti1 tau(  19) = (   3.2655272   2.9480959  15.7331506  )
        20           Ti1 tau(  20) = (   6.5674642   1.4497656  15.9937491  )
        21           O1  tau(  21) = (   3.2904802   0.0005063   4.7018136  )
        22           O1  tau(  22) = (   6.5217933   5.8323795  17.2454964  )
        23           O1  tau(  23) = (   1.3043587   1.4918075   6.0039043  )
        24           O1  tau(  24) = (   5.2767064   1.4903225   6.0039473  )
        25           Ti1 tau(  25) = (   0.0000382   5.9609847   6.0000000  )
        26           Ti1 tau(  26) = (   3.2902200   4.4714249   6.0002472  )
        27           O1  tau(  27) = (   0.0002396   2.9813036   7.9858123  )
        28           O1  tau(  28) = (   3.2902150   2.9813002   7.3038282  )
        29           O1  tau(  29) = (   4.5938453   4.4726049   9.2879030  )
        30           O1  tau(  30) = (   1.9864658   4.4711199   9.2879459  )
        31           Ti1 tau(  31) = (   3.2891106   5.8743827   9.1763621  )
        32           Ti1 tau(  32) = (   0.0006254   4.4649316   9.2693709  )
        33           O1  tau(  33) = (   3.2830490   2.9749636  11.3746576  )
        34           O1  tau(  34) = (   0.0092240   2.9805883  10.6323155  )
        35           O1  tau(  35) = (   1.2760807   4.4612897  12.6946019  )
        36           O1  tau(  36) = (   5.2846406   4.4647657  12.6742532  )
        37           Ti1 tau(  37) = (   0.0173662   5.9591775  12.4970172  )
        38           Ti1 tau(  38) = (   3.3070294   4.4569304  12.5379467  )
        39           O1  tau(  39) = (   6.5190077   2.9374781  14.9220565  )
        40           O1  tau(  40) = (   3.2909943   2.9519766  13.9498127  )
        41           O1  tau(  41) = (   4.5146313   4.4149292  16.1460290  )
        42           O1  tau(  42) = (   1.9668235   4.4047650  16.1116202  )
        43           Ti1 tau(  43) = (   3.2426406   5.9218513  15.8539982  )
        44           Ti1 tau(  44) = (   6.5337747   4.6515477  15.8702276  )
        45           O1  tau(  45) = (   3.2900926   2.9813045   4.7018136  )
        46           O1  tau(  46) = (   1.3039711   4.4726057   6.0039043  )
        47           O1  tau(  47) = (   5.2763189   4.4711207   6.0039473  )
        48           N1  tau(  48) = (   1.0802268   3.0592680  18.8437747  )
        49           N1  tau(  49) = (   6.4825355   2.6367244  18.1156036  )
        50           C1  tau(  50) = (   0.7269815   3.7261681  20.0984356  )
        51           H1  tau(  51) = (   0.0344531   4.5672025  19.9493712  )
        52           H1  tau(  52) = (   0.2718923   3.0081313  20.7822053  )
        53           H1  tau(  53) = (   1.6424345   4.1087450  20.5485440  )
        54           H1  tau(  54) = (   5.7152520   3.3097272  18.2274121  )
        55           H1  tau(  55) = (   6.1788988   1.7551022  18.5268573  )
        56           H1  tau(  56) = (   1.5478348   3.7306874  18.2271031  )
        57           O1  tau(  57) = (   3.1661568   0.0027346  18.3937517  )
        58           H1  tau(  58) = (   4.0701885   0.3469208  18.4697374  )
        59           H1  tau(  59) = (   2.5798038   0.7742236  18.5044111  )

     number of k points=    10  Fermi-Dirac smearing, width (Ry)=  0.0073
                       cart. coord. in units 2pi/alat
        k(    1) = (   0.0000000   0.0000000   0.0000000), wk =   0.1250000
        k(    2) = (   0.0000000   0.0419351   0.0000000), wk =   0.2500000
        k(    3) = (   0.0000000  -0.0838702   0.0000000), wk =   0.1250000
        k(    4) = (   0.0379955   0.0000049   0.0000000), wk =   0.2500000
        k(    5) = (   0.0379955   0.0419400   0.0000000), wk =   0.2500000
        k(    6) = (   0.0379955  -0.0838652   0.0000000), wk =   0.2500000
        k(    7) = (   0.0379955  -0.0419301   0.0000000), wk =   0.2500000
        k(    8) = (  -0.0759910  -0.0000099   0.0000000), wk =   0.1250000
        k(    9) = (  -0.0759910   0.0419252   0.0000000), wk =   0.2500000
        k(   10) = (  -0.0759910  -0.0838800   0.0000000), wk =   0.1250000

     Initial potential from superposition of free atoms

     starting charge  389.99912, renormalised to  406.00000

     negative rho (up, down):  1.306E-02 0.000E+00

     %%%%%%%%%%%%%%%%%%%%%%%%%%%%%%%%%%%%%%%%%%%%%%%%%%%%%%%%%%%%%%%%%%%%%%%%
     %                                                                      %
     % You are using vdW-DF, which was implemented by the Thonhauser group. %
     % Please cite the following two papers that made this development      %
     % possible and the two reviews that describe the various versions:     %
     %                                                                      %
     %   T. Thonhauser et al., PRL 115, 136402 (2015).                      %
     %   T. Thonhauser et al., PRB 76, 125112 (2007).                       %
     %   K. Berland et al., Rep. Prog. Phys. 78, 066501 (2015).             %
     %   D.C. Langreth et al., J. Phys.: Condens. Matter 21, 084203 (2009). %
     %                                                                      %
     %                                                                      %
     % If you are calculating the stress with vdW-DF, please also cite:     %
     %                                                                      %
     %   R. Sabatini et al., J. Phys.: Condens. Matter 24, 424209 (2012).   %
     %                                                                      %
     %%%%%%%%%%%%%%%%%%%%%%%%%%%%%%%%%%%%%%%%%%%%%%%%%%%%%%%%%%%%%%%%%%%%%%%%

     Adding external electric field

     Computed dipole along edir(3) :
        Dipole              -16.1150 Ry au,        -40.9603 Debye
        Dipole field         -0.0304 Ry au,

        Potential amp.        2.8191 Ry
        Total length         46.3494 bohr

     Starting wfcs are  308 atomic wfcs
  @ DRIVER MODE: Message from server: STATUS
  @ DRIVER MODE: Message from server: POSDATA
  @ DRIVER MODE: Reading and sharing cell
  @ DRIVER MODE: Reading and sharing positions
  @ DRIVER MODE: Received positions

     Self-consistent Calculation

     iteration #  1     ecut=    29.40 Ry     beta= 0.05
     Davidson diagonalization with overlap
     c_bands:  2 eigenvalues not converged
     c_bands:  3 eigenvalues not converged
     c_bands:  2 eigenvalues not converged
     c_bands:  3 eigenvalues not converged
     c_bands:  4 eigenvalues not converged
     c_bands:  2 eigenvalues not converged
     c_bands:  1 eigenvalues not converged
     c_bands:  5 eigenvalues not converged
     c_bands:  1 eigenvalues not converged
     ethr =  1.00E-05,  avg # of iterations = 23.1

[...]

     total energy              =   -2140.66524953 Ry
     estimated scf accuracy    <    9598.72142348 Ry

     iteration #  2     ecut=    29.40 Ry     beta= 0.05
     Davidson diagonalization with overlap
     ethr =  1.00E-02,  avg # of iterations = 33.9

[...]

     iteration # 73     ecut=    29.40 Ry     beta= 0.05
     Davidson diagonalization with overlap
     c_bands:  1 eigenvalues not converged
     ethr =  1.10E-10,  avg # of iterations = 16.4

[...]

     total energy              =   -2977.70006546 Ry
     estimated scf accuracy    <       0.00000017 Ry

     iteration # 77     ecut=    29.40 Ry     beta= 0.05
     Davidson diagonalization with overlap
     ethr =  4.07E-11,  avg # of iterations = 12.1

     negative rho (up, down):  1.407E-02 0.000E+00

     Adding external electric field

     Computed dipole along edir(3) :
        Dipole                1.3372 Ry au,          3.3988 Debye
        Dipole field          0.0025 Ry au,

        Potential amp.       -0.2339 Ry
        Total length         46.3494 bohr

     End of self-consistent calculation

          k = 0.0000 0.0000 0.0000 ( 18029 PWs)   bands (ev):

   -55.1209 -55.0843 -55.0769 -55.0428 -55.0369 -55.0318 -55.0002 -54.9644
   -54.9459 -54.9111 -54.9072 -54.8903 -54.8735 -54.8396 -54.1065 -54.0724
   -31.6828 -31.5966 -31.5693 -31.4893 -31.4350 -31.4322 -31.4186 -31.4127
   -31.3659 -31.3429 -31.3325 -31.3217 -31.3147 -31.3121 -31.2937 -31.2856
   -31.2653 -31.2627 -31.2602 -31.2420 -31.2295 -31.2200 -31.2026 -31.1981
   -31.1907 -31.1790 -31.1759 -31.1468 -31.1341 -31.1311 -31.1262 -31.1057
   -31.1030 -31.0953 -31.0920 -31.0682 -31.0592 -31.0426 -31.0352 -31.0333
   -31.0182 -31.0169 -30.5159 -30.4216 -30.3995 -30.3323 -30.2455 -30.1346
   -18.8033 -17.8073 -15.9520 -15.6967 -15.5601 -15.4591 -15.3244 -15.2181
   -15.1367 -15.0226 -14.9728 -14.8573 -14.8257 -14.8216 -14.7808 -14.7496
   -14.7010 -14.6624 -14.6600 -14.6376 -14.6185 -14.6106 -14.5677 -14.5610
   -14.5216 -14.5193 -14.4996 -14.3632 -14.2818 -14.2119 -14.0289 -13.1826
   -12.6092 -12.4918  -9.7669  -6.5348  -6.3936  -5.4244  -4.9220  -3.5295
    -3.2855  -3.1408  -3.0878  -3.0523  -3.0173  -2.9595  -2.8829  -2.7953
    -2.6520  -2.5831  -2.5580  -2.4057  -2.3317  -2.3220  -2.2653  -2.1657
    -2.1409  -2.0943  -2.0518  -1.9874  -1.9497  -1.9266  -1.9045  -1.8694
    -1.8659  -1.8119  -1.7579  -1.6888  -1.5986  -1.5674  -1.5216  -1.4782
    -1.4559  -1.4533  -1.4131  -1.4068  -1.3939  -1.3520  -1.3451  -1.3154
    -1.2692  -1.1599  -1.0101  -0.9480  -0.8565  -0.7631  -0.7365  -0.7124
    -0.6922  -0.6301  -0.6077  -0.5782  -0.5031  -0.4545  -0.3753  -0.3280
    -0.3064  -0.2268  -0.1219  -0.1048  -0.0972  -0.0095   0.0825   0.0956
     0.1100   0.1198   0.2173   0.2831   0.3164   0.3586   0.4228   0.4319
     0.4902   0.5187   0.5704   0.6367   0.6696   0.7495   0.7889   0.8098
     0.8147   0.8371   0.8593   0.8719   0.9507   0.9587   0.9841   1.0729
     1.1773   1.3317   1.4776   1.4884   1.8217   1.8229   1.9161   2.0998
     2.4923   2.5406   3.9734   4.0491   4.1075   4.1187   4.1243   4.2092
     4.4583   4.4761   4.4876   4.4892   4.5241

[...]

          k = 0.0380-0.0419 0.0000 ( 17876 PWs)   bands (ev):

[...]

          k =-0.0760-0.0000 0.0000 ( 17886 PWs)   bands (ev):

[...]

          k =-0.0760-0.0839 0.0000 ( 17948 PWs)   bands (ev):

   -55.1065 -55.0985 -55.0599 -55.0597 -55.0342 -55.0307 -54.9874 -54.9771
   -54.9314 -54.9251 -54.8922 -54.8909 -54.8899 -54.8413 -54.0894 -54.0894
   -31.5119 -31.4925 -31.4827 -31.3844 -31.3843 -31.3788 -31.3722 -31.3512
   -31.3511 -31.3305 -31.3254 -31.3198 -31.3101 -31.2911 -31.2777 -31.2632
   -31.2589 -31.2577 -31.2541 -31.2477 -31.2457 -31.2420 -31.2300 -31.2289
   -31.1996 -31.1988 -31.1817 -31.1796 -31.1794 -31.1707 -31.1705 -31.1645
   -31.1561 -31.1438 -31.1382 -31.1226 -31.1211 -31.1049 -31.0711 -31.0706
   -31.0692 -31.0459 -30.4122 -30.4122 -30.3284 -30.3283 -30.2889 -30.2888
   -18.8018 -17.8039 -15.5321 -15.3935 -15.2543 -15.1507 -15.1358 -15.0824
   -15.0332 -14.9920 -14.9497 -14.9061 -14.8952 -14.8777 -14.8486 -14.8219
   -14.7976 -14.7383 -14.7219 -14.7063 -14.6840 -14.6374 -14.6296 -14.6267
   -14.6196 -14.5734 -14.5709 -14.5459 -14.4770 -14.4750 -14.2879 -13.1845
   -12.5933 -12.5932  -9.7638  -6.5854  -6.3166  -5.4221  -4.9328  -3.5026
    -2.9533  -2.8100  -2.6555  -2.6196  -2.4737  -2.3736  -2.3284  -2.3002
    -2.2465  -2.2008  -2.1407  -2.1254  -2.1073  -2.0485  -2.0235  -2.0044
    -1.9730  -1.9540  -1.9403  -1.9218  -1.9045  -1.8763  -1.8501  -1.8413
    -1.8365  -1.8070  -1.7918  -1.7526  -1.7457  -1.7379  -1.6947  -1.6828
    -1.6564  -1.5991  -1.4925  -1.4822  -1.3299  -1.3275  -1.2928  -1.2478
    -1.2272  -1.2175  -1.1574  -1.1494  -1.1373  -0.9010  -0.8740  -0.8640
    -0.8367  -0.7781  -0.7603  -0.6984  -0.6891  -0.6050  -0.5903  -0.4888
    -0.4724  -0.4152  -0.3328  -0.3247  -0.3128  -0.2009  -0.1518  -0.1143
    -0.0879  -0.0777  -0.0602  -0.0223  -0.0222   0.0678   0.1110   0.1414
     0.1566   0.1864   0.3510   0.3998   0.4090   0.5482   0.5617   0.7115
     0.7731   0.7869   0.8809   0.8956   0.9840   0.9929   1.0325   1.1720
     1.1835   1.2070   1.2539   1.2823   1.3343   1.3394   2.2725   2.2738
     2.3605   2.3607   4.1058   4.2311   4.2374   4.2981   4.4074   4.4409
     4.4868   4.5205   4.5577   4.5605   4.6291

     the Fermi energy is     4.0355 ev

!    total energy              =   -2977.70007778 Ry
     estimated scf accuracy    <       0.00000006 Ry
     smearing contrib. (-TS)   =      -0.03675034 Ry
     internal energy E=F+TS    =   -2977.66332744 Ry

     The total energy is F=E-TS. E is the sum of the following terms:
     one-electron contribution =  -23083.28081754 Ry
     hartree contribution      =   11640.77152240 Ry
     xc contribution           =    -496.61726322 Ry
     ewald contribution        =    8961.45985660 Ry
     electric field correction =       0.00337431 Ry

     convergence has been achieved in  77 iterations

     Forces acting on atoms (cartesian axes, Ry/au):

     atom    1 type  1   force =     0.00017988   -0.00019222    0.09313120
     atom    2 type  1   force =    -0.00010711   -0.00033157   -0.17818161
     atom    3 type  2   force =     0.00002118   -0.00017507   -0.02035706
     atom    4 type  2   force =    -0.00002676   -0.00200733    0.05899308
     atom    5 type  2   force =    -0.01059477   -0.00142258    0.00860041
     atom    6 type  2   force =     0.01185725   -0.00070361    0.00713239
     atom    7 type  1   force =    -0.00089123    0.00313434   -0.01230174
     atom    8 type  1   force =     0.00054770    0.00112541   -0.00450462
     atom    9 type  2   force =    -0.00007527   -0.00037100    0.00015951
     atom   10 type  2   force =    -0.00129222   -0.00050801   -0.00194979
     atom   11 type  2   force =    -0.00021852   -0.00021734   -0.00006199
     atom   12 type  2   force =     0.00060608   -0.00007442   -0.00024488
     atom   13 type  1   force =    -0.00102959   -0.00063066    0.00021753
     atom   14 type  1   force =     0.00011603   -0.00004758    0.00016617
     atom   15 type  2   force =    -0.00026106   -0.00053390   -0.00007317
     atom   16 type  2   force =    -0.00001779   -0.00008880    0.00067056
     atom   17 type  2   force =    -0.00032348    0.00024661    0.00049236
     atom   18 type  2   force =     0.00019128    0.00007326    0.00028516
     atom   19 type  1   force =     0.00037877   -0.00008754    0.00053922
     atom   20 type  1   force =    -0.00021514   -0.00018863    0.00039268
     atom   21 type  2   force =     0.00007119   -0.00001821    0.10394854
     atom   22 type  2   force =     0.00007738   -0.00027556   -0.00122584
     atom   23 type  2   force =    -0.07037358   -0.00010950   -0.02686323
     atom   24 type  2   force =     0.07025496    0.00033697   -0.02690668
     atom   25 type  1   force =     0.00000327   -0.00022420    0.09276941
     atom   26 type  1   force =    -0.00019818   -0.00037441   -0.17829145
     atom   27 type  2   force =     0.00010524   -0.00028883   -0.01932779
     atom   28 type  2   force =     0.00003822   -0.00162622    0.05806783
     atom   29 type  2   force =    -0.01067775   -0.00080920    0.00799842
     atom   30 type  2   force =     0.01179782   -0.00047931    0.00652520
     atom   31 type  1   force =    -0.00072797    0.00504008   -0.01493446
     atom   32 type  1   force =     0.00039802   -0.00138806   -0.00479111
     atom   33 type  2   force =    -0.00011145    0.00021390    0.00030418
     atom   34 type  2   force =    -0.00128817    0.00140338   -0.00091215
     atom   35 type  2   force =     0.00019779    0.00013841    0.00001871
     atom   36 type  2   force =     0.00011460   -0.00001407   -0.00012018
     atom   37 type  1   force =    -0.00103787    0.00056335    0.00004387
     atom   38 type  1   force =     0.00015192   -0.00014864   -0.00005066
     atom   39 type  2   force =    -0.00001503   -0.00015722    0.00008177
     atom   40 type  2   force =    -0.00021108    0.00021155    0.00025436
     atom   41 type  2   force =    -0.00004200   -0.00016105    0.00036633
     atom   42 type  2   force =    -0.00022453   -0.00013464    0.00021476
     atom   43 type  1   force =     0.00023252    0.00042872    0.00046548
     atom   44 type  1   force =    -0.00027902    0.00027518   -0.00034231
     atom   45 type  2   force =     0.00004164   -0.00004958    0.10393522
     atom   46 type  2   force =    -0.07036997   -0.00005695   -0.02689867
     atom   47 type  2   force =     0.07027647    0.00037360   -0.02692767
     atom   48 type  3   force =     0.00392329    0.00516785   -0.00713457
     atom   49 type  3   force =    -0.00156212   -0.00105002    0.00061155
     atom   50 type  4   force =     0.00119807    0.00113797   -0.00137004
     atom   51 type  5   force =     0.00012224   -0.00026302    0.00015579
     atom   52 type  5   force =     0.00036380   -0.00074975    0.00033455
     atom   53 type  5   force =     0.00057013    0.00011230   -0.00019976
     atom   54 type  5   force =     0.00077118   -0.00026021   -0.00027778
     atom   55 type  5   force =     0.00021277    0.00080265   -0.00002767
     atom   56 type  5   force =    -0.00332619   -0.00449712    0.00756006
     atom   57 type  2   force =    -0.00031538    0.00067375   -0.00067222
     atom   58 type  5   force =     0.00075586   -0.00041900    0.00014120
     atom   59 type  5   force =     0.00023668   -0.00032425    0.00037158

     Total force =     0.366274     Total SCF correction =     0.000776
  @ DRIVER MODE: Message from server: STATUS
  @ DRIVER MODE: Message from server: GETFORCE
  @ DRIVER MODE: Returning v,forces,stress,ensemble

     Writing output data file ./calc.save/
  @ DRIVER MODE: Message from server: EXIT
  @ DRIVE MODE: Exiting

     General routines

     Parallel routines

   This run was terminated on:  10:38:52  16Sep2021

   JOB DONE.