     Program PWSCF v.6.7GPU starts on 18Oct2021 at 14:58:52

     R & G space division:  proc/nbgrp/npool/nimage =       8
     Reading input from /storage/home/hcoda1/3/ntian30/research/carbon/CxH_vib/Thiel_calc/ads_slab/H2O_perslab/out_0007/pw.inp
Warning: card &CELL ignored
Warning: card   CELL_DYNAMICS='IPI', ignored
Warning: card / ignored

     Current dimensions of program PWSCF are:
     Max number of different atomic species (ntypx) = 10
     Max number of k-points (npk) =  40000
     Max angular momentum in pseudopotentials (lmaxx) =  3
     Presently no symmetry can be used with electric field

     Message from routine cell_base_init:
     DEPRECATED: use true lattice parameter, not A to a.u. conversion factor

     IMPORTANT: XC functional enforced from input :
     Exchange-correlation= BEEF-VDW
                           (   1   4  43  14   2   0   0)
     Any further DFT definition will be discarded
     Please, verify this is what you really want

  @ DRIVER MODE: Connecting to
 qe_1139763_3255129.sched-torque.pace.gatech.eduu0uvza1v_scratch
  using UNIX socket
  @ DRIVER MODE: Message from server: STATUS
  @ DRIVER MODE: Message from server: INIT
  @ DRIVER MODE: Receiving replica           0          -1
  @ DRIVER MODE: Receiving encoded integer          25
  @ DRIVER MODE:  SCF:  T  FORCE:  T  STRESS:  F  VC:  F  ENSEMBLE:  F
  @ DRIVER MODE:  SCF:  T  FORCE:  T  STRESS:  F  VC:  F  ENSEMBLE:  F

     Using Slab Decomposition

     bravais-lattice index     =            0
     lattice parameter (alat)  =       1.8897  a.u.
     unit-cell volume          =    9988.4706 (a.u.)^3
     number of atoms/cell      =           56
     number of atomic types    =            3
     number of electrons       =       434.00
     number of Kohn-Sham states=          227
     kinetic-energy cutoff     =      29.3995  Ry
     charge density cutoff     =     293.9946  Ry
     scf convergence threshold =      7.3E-08
     mixing beta               =       0.0500
     number of iterations used =            8  plain     mixing
     Exchange-correlation= BEEF-VDW
                           (   1   4  43  14   2   0   0)

     celldm(1)=   1.889726  celldm(2)=   0.000000  celldm(3)=   0.000000
     celldm(4)=   0.000000  celldm(5)=   0.000000  celldm(6)=   0.000000

     crystal axes: (cart. coord. in units of alat)
               a(1) = (   6.579727   0.000000   0.000000 )
               a(2) = (  -0.001163   8.942395   0.000000 )
               a(3) = (   0.000000   0.000000  25.155947 )

     reciprocal axes: (cart. coord. in units 2 pi/alat)
               b(1) = (  0.151982  0.000020  0.000000 )
               b(2) = (  0.000000  0.111827  0.000000 )
               b(3) = (  0.000000  0.000000  0.039752 )

     PseudoPot. # 1 for O  read from file:
     /storage/coda1/p-amedford6/0/shared/rich_project_chbe-medford/medford-share/data/pseudos_module/espresso/nninc/pbe/van/O.UPF
     MD5 check sum: 78c19812648e8988a0fe644b0f25305e
     Pseudo is Ultrasoft, Zval =  6.0
     Generated by new atomic code, or converted to UPF format
     Using radial grid of  737 points,  4 beta functions with:
                l(1) =   0
                l(2) =   0
                l(3) =   1
                l(4) =   1
     Q(r) pseudized with  8 coefficients,  rinner =    0.800   0.800   0.800

     PseudoPot. # 2 for Ti read from file:
     /storage/coda1/p-amedford6/0/shared/rich_project_chbe-medford/medford-share/data/pseudos_module/espresso/nninc/pbe/van/Ti.UPF
     MD5 check sum: 8e4df49b7f0d34bbd5052bf3f5ea0213
     Pseudo is Ultrasoft, Zval = 12.0
     Generated by new atomic code, or converted to UPF format
     Using radial grid of  851 points,  6 beta functions with:
                l(1) =   0
                l(2) =   0
                l(3) =   1
                l(4) =   1
                l(5) =   2
                l(6) =   2
     Q(r) pseudized with  8 coefficients,  rinner =    1.000   1.000   1.000
                                                       1.000   1.000

     PseudoPot. # 3 for H  read from file:
     /storage/coda1/p-amedford6/0/shared/rich_project_chbe-medford/medford-share/data/pseudos_module/espresso/nninc/pbe/van/H.UPF
     MD5 check sum: b5ee9d7bfd3a09ee7748110bda690ff7
     Pseudo is Ultrasoft, Zval =  1.0
     Generated by new atomic code, or converted to UPF format
     Using radial grid of  615 points,  1 beta functions with:
                l(1) =   0
     Q(r) pseudized with  8 coefficients,  rinner =    0.800

     atomic species   valence    mass     pseudopotential
        O1             6.00    15.99900     O ( 1.00)
        Ti1           12.00    47.86700     Ti( 1.00)
        H1             1.00     1.00800     H ( 1.00)

     No symmetry found

   Cartesian axes

     site n.     atom                  positions (alat units)
         1           O1  tau(   1) = (   0.0007354   0.0005023  10.5931620  )
         2           O1  tau(   2) = (   3.2893612   8.9201916  13.9062151  )
         3           O1  tau(   3) = (   0.0002691   0.0790924  17.2227650  )
         4           O1  tau(   4) = (   0.0006271   0.0005054   7.9858123  )
         5           O1  tau(   5) = (   3.2896170   8.9270158  11.1935980  )
         6           O1  tau(   6) = (   0.0007608   0.0261718  14.5986889  )
         7           O1  tau(   7) = (   1.9868534   1.4903216   9.2879459  )
         8           O1  tau(   8) = (   5.2355617   1.6099344  12.5867606  )
         9           O1  tau(   9) = (   2.0124575   1.5675184  16.0571645  )
        10           Ti1 tau(  10) = (   0.0007404   1.4906270   9.2895810  )
        11           Ti1 tau(  11) = (   3.2907640   1.3491771  12.5100009  )
        12           Ti1 tau(  12) = (   0.0006031   1.2961793  15.7979744  )
        13           O1  tau(  13) = (   4.5942328   1.4918067   9.2879030  )
        14           O1  tau(  14) = (   1.3450460   1.6097215  12.5866593  )
        15           O1  tau(  15) = (   4.5676758   1.5673980  16.0573758  )
        16           Ti1 tau(  16) = (   3.2902859   2.9801868   9.2893338  )
        17           Ti1 tau(  17) = (   0.0004777   2.8281306  12.4679355  )
        18           Ti1 tau(  18) = (   3.2902893   2.9338596  15.7282337  )
        19           O1  tau(  19) = (   0.0003479   2.9813005  10.5931620  )
        20           O1  tau(  20) = (   3.2902216   2.9696935  13.9120052  )
        21           O1  tau(  21) = (   0.0002396   2.9813036   7.9858123  )
        22           O1  tau(  22) = (   3.2903426   2.9637443  11.1940942  )
        23           O1  tau(  23) = (   0.0000089   3.0257264  14.7503890  )
        24           O1  tau(  24) = (   1.9864658   4.4711199   9.2879459  )
        25           O1  tau(  25) = (   5.2380434   4.5829059  12.5871764  )
        26           O1  tau(  26) = (   2.0235919   4.4928291  16.0795284  )
        27           Ti1 tau(  27) = (   0.0003529   4.4714252   9.2895810  )
        28           Ti1 tau(  28) = (   3.2907575   4.3192581  12.5172651  )
        29           Ti1 tau(  29) = (   0.0001526   4.6228845  15.7176810  )
        30           O1  tau(  30) = (   4.5938453   4.4726049   9.2879030  )
        31           O1  tau(  31) = (   1.3423985   4.5827316  12.5869633  )
        32           O1  tau(  32) = (   4.5556179   4.4928061  16.0795667  )
        33           Ti1 tau(  33) = (   3.2898983   5.9609850   9.2893338  )
        34           Ti1 tau(  34) = (   0.0006865   5.8113799  12.4503846  )
        35           Ti1 tau(  35) = (   3.2896120   5.9162390  15.7228808  )
        36           O1  tau(  36) = (  -0.0000397   5.9620987  10.5931620  )
        37           O1  tau(  37) = (   3.2898440   5.9521707  13.9141460  )
        38           O1  tau(  38) = (  -0.0005676   5.9070897  17.2365434  )
        39           O1  tau(  39) = (  -0.0001480   5.9621018   7.9858123  )
        40           O1  tau(  40) = (   3.2901216   5.9393065  11.1928121  )
        41           O1  tau(  41) = (  -0.0000075   6.0145546  14.6353165  )
        42           O1  tau(  42) = (   1.9860782   7.4519181   9.2879459  )
        43           O1  tau(  43) = (   5.2378119   7.5541029  12.5659338  )
        44           O1  tau(  44) = (   2.0283766   7.4974489  16.0624789  )
        45           Ti1 tau(  45) = (  -0.0000347   7.4522234   9.2895810  )
        46           Ti1 tau(  46) = (   3.2905324   7.3023941  12.5037744  )
        47           Ti1 tau(  47) = (  -0.0004371   7.4148098  16.3042026  )
        48           O1  tau(  48) = (   4.5934577   7.4534031   9.2879030  )
        49           O1  tau(  49) = (   1.3417460   7.5537513  12.5656965  )
        50           O1  tau(  50) = (   4.5502908   7.4974792  16.0621795  )
        51           Ti1 tau(  51) = (   3.2895107   8.9417832   9.2893338  )
        52           Ti1 tau(  52) = (   0.0002358   8.7760030  12.4676047  )
        53           Ti1 tau(  53) = (   3.2893608   8.8775079  15.7094031  )
        54           O1  tau(  54) = (   0.0008562   2.9808021  17.9281668  )
        55           H1  tau(  55) = (   6.5681910   2.2037314  18.5062466  )
        56           H1  tau(  56) = (   6.5786456   3.7766572  18.4802172  )

     number of k points=    10  Fermi-Dirac smearing, width (Ry)=  0.0073
                       cart. coord. in units 2pi/alat
        k(    1) = (   0.0000000   0.0000000   0.0000000), wk =   0.1250000
        k(    2) = (   0.0000000   0.0279567   0.0000000), wk =   0.2500000
        k(    3) = (   0.0000000  -0.0559134   0.0000000), wk =   0.1250000
        k(    4) = (   0.0379955   0.0000049   0.0000000), wk =   0.2500000
        k(    5) = (   0.0379955   0.0279617   0.0000000), wk =   0.2500000
        k(    6) = (   0.0379955  -0.0559085   0.0000000), wk =   0.2500000
        k(    7) = (   0.0379955  -0.0279518   0.0000000), wk =   0.2500000
        k(    8) = (  -0.0759910  -0.0000099   0.0000000), wk =   0.1250000
        k(    9) = (  -0.0759910   0.0279468   0.0000000), wk =   0.2500000
        k(   10) = (  -0.0759910  -0.0559233   0.0000000), wk =   0.1250000

     Initial potential from superposition of free atoms

     starting charge  415.99913, renormalised to  434.00000

     negative rho (up, down):  3.976E-02 0.000E+00

     %%%%%%%%%%%%%%%%%%%%%%%%%%%%%%%%%%%%%%%%%%%%%%%%%%%%%%%%%%%%%%%%%%%%%%%%
     %                                                                      %
     % You are using vdW-DF, which was implemented by the Thonhauser group. %
     % Please cite the following two papers that made this development      %
     % possible and the two reviews that describe the various versions:     %
     %                                                                      %
     %   T. Thonhauser et al., PRL 115, 136402 (2015).                      %
     %   T. Thonhauser et al., PRB 76, 125112 (2007).                       %
     %   K. Berland et al., Rep. Prog. Phys. 78, 066501 (2015).             %
     %   D.C. Langreth et al., J. Phys.: Condens. Matter 21, 084203 (2009). %
     %                                                                      %
     %                                                                      %
     % If you are calculating the stress with vdW-DF, please also cite:     %
     %                                                                      %
     %   R. Sabatini et al., J. Phys.: Condens. Matter 24, 424209 (2012).   %
     %                                                                      %
     %%%%%%%%%%%%%%%%%%%%%%%%%%%%%%%%%%%%%%%%%%%%%%%%%%%%%%%%%%%%%%%%%%%%%%%%

     Adding external electric field

     Computed dipole along edir(3) :
        Dipole               -2.8181 Ry au,         -7.1630 Debye
        Dipole field         -0.0035 Ry au,

        Potential amp.        0.3287 Ry
        Total length         46.3494 bohr

     Starting wfcs are  326 atomic wfcs
  @ DRIVER MODE: Message from server: STATUS
  @ DRIVER MODE: Message from server: POSDATA
  @ DRIVER MODE: Reading and sharing cell
  @ DRIVER MODE: Reading and sharing positions
  @ DRIVER MODE: Received positions

     Self-consistent Calculation

     iteration #  1     ecut=    29.40 Ry     beta= 0.05
     Davidson diagonalization with overlap
     c_bands:  2 eigenvalues not converged
     c_bands:  2 eigenvalues not converged
     c_bands:  1 eigenvalues not converged
     c_bands:  2 eigenvalues not converged
     c_bands:  2 eigenvalues not converged
     c_bands:  5 eigenvalues not converged
     c_bands:  2 eigenvalues not converged
     c_bands:  1 eigenvalues not converged
     c_bands:  1 eigenvalues not converged
     c_bands:  2 eigenvalues not converged
     ethr =  1.00E-05,  avg # of iterations = 20.0

[...]

     total energy              =   -3284.59297405 Ry
     estimated scf accuracy    <      14.39931787 Ry

     iteration #  2     ecut=    29.40 Ry     beta= 0.05
     Davidson diagonalization with overlap
     ethr =  3.32E-03,  avg # of iterations =  1.0

[...]

     iteration # 43     ecut=    29.40 Ry     beta= 0.05
     Davidson diagonalization with overlap
     c_bands:  1 eigenvalues not converged
     ethr =  1.21E-08,  avg # of iterations = 13.7

[...]

     total energy              =   -3283.10407760 Ry
     estimated scf accuracy    <       0.00000012 Ry

     iteration # 56     ecut=    29.40 Ry     beta= 0.05
     Davidson diagonalization with overlap
     ethr =  2.83E-11,  avg # of iterations =  5.7

     negative rho (up, down):  3.723E-02 0.000E+00

     Adding external electric field

     Computed dipole along edir(3) :
        Dipole                1.2774 Ry au,          3.2469 Debye
        Dipole field          0.0016 Ry au,

        Potential amp.       -0.1490 Ry
        Total length         46.3494 bohr

     End of self-consistent calculation

          k = 0.0000 0.0000 0.0000 ( 26871 PWs)   bands (ev):

   -58.0030 -57.9909 -57.9776 -57.9770 -57.9677 -57.8971 -57.8251 -57.8018
   -57.7970 -57.7890 -57.7664 -57.7423 -57.6145 -57.5750 -57.5053 -57.0238
   -57.0004 -56.9936 -34.3889 -34.3840 -34.3837 -34.3621 -34.3554 -34.3346
   -34.3164 -34.3143 -34.3133 -34.2810 -34.2538 -34.2391 -34.2126 -34.1987
   -34.1954 -34.1863 -34.1704 -34.1518 -34.1273 -34.1207 -34.1125 -34.0998
   -34.0990 -34.0957 -34.0943 -34.0699 -34.0526 -34.0354 -34.0292 -34.0176
   -34.0105 -33.9983 -33.9978 -33.9851 -33.9788 -33.9780 -33.9666 -33.9416
   -33.9378 -33.8731 -33.8156 -33.7853 -33.7740 -33.7687 -33.6463 -33.3396
   -33.3385 -33.3321 -33.3232 -33.3170 -33.2497 -33.1883 -33.1808 -33.0490
   -21.2501 -18.8501 -18.4155 -18.2702 -18.2454 -18.2173 -18.2049 -18.0918
   -18.0886 -17.8259 -17.8063 -17.7921 -17.7839 -17.7127 -17.6853 -17.6830
   -17.6715 -17.6444 -17.6374 -17.6097 -17.6008 -17.5190 -17.5115 -17.4686
   -17.4659 -17.4329 -17.4307 -17.3839 -17.2946 -17.2938 -17.1259 -16.9754
   -16.9080 -15.4895 -15.4329 -15.4287  -9.2628  -6.1817  -6.0156  -5.9185
    -5.8298  -5.7150  -5.4529  -5.4399  -5.3641  -5.3541  -5.3303  -5.2694
    -5.2543  -5.2493  -5.2150  -5.2018  -5.1202  -5.1150  -5.0359  -4.9434
    -4.9390  -4.9357  -4.9096  -4.8660  -4.8302  -4.8116  -4.7886  -4.7655
    -4.7362  -4.6975  -4.6636  -4.6300  -4.6217  -4.4926  -4.3473  -4.3202
    -4.2990  -4.2974  -4.2750  -4.2331  -4.2049  -4.1347  -4.0801  -4.0671
    -4.0445  -3.9964  -3.9416  -3.9192  -3.7812  -3.7501  -3.7207  -3.6970
    -3.5921  -3.5606  -3.5140  -3.3982  -3.3358  -3.3279  -3.2951  -3.2770
    -3.2041  -3.1847  -3.1363  -3.0868  -3.0768  -2.9760  -2.9747  -2.9246
    -2.8758  -2.8016  -2.7684  -2.7624  -2.7508  -2.6944  -2.6860  -2.6588
    -2.6303  -2.6009  -2.5423  -2.5331  -2.4616  -2.4242  -2.4168  -2.3715
    -2.3708  -2.3150  -2.2416  -2.2050  -2.1842  -2.1818  -2.0809  -2.0256
    -1.8592  -1.8545  -1.8423  -1.8299  -1.7493  -1.7034  -1.6365  -1.4631
    -1.2398  -1.0626  -0.7726  -0.7277  -0.7260  -0.4639  -0.4586  -0.3300
     0.9762   1.2251   1.2717   1.4418   1.4434   1.5402   1.5759   1.5912
     1.6742   1.7031   1.7412

[...]

          k = 0.0380-0.0280 0.0000 ( 26873 PWs)   bands (ev):

[...]

          k =-0.0760-0.0000 0.0000 ( 26902 PWs)   bands (ev):

[...]

          k =-0.0760-0.0559 0.0000 ( 26868 PWs)   bands (ev):

   -57.9947 -57.9941 -57.9896 -57.9693 -57.9688 -57.8967 -57.8181 -57.8144
   -57.7908 -57.7867 -57.7708 -57.7406 -57.6140 -57.5756 -57.5051 -57.0179
   -57.0118 -56.9881 -34.4775 -34.4412 -34.3776 -34.3663 -34.3432 -34.3319
   -34.3273 -34.3257 -34.2842 -34.2471 -34.1971 -34.1930 -34.1924 -34.1706
   -34.1644 -34.1502 -34.1440 -34.1435 -34.1368 -34.1311 -34.1307 -34.0843
   -34.0826 -34.0803 -34.0759 -34.0674 -34.0636 -34.0504 -34.0434 -34.0351
   -34.0271 -34.0172 -34.0126 -34.0119 -34.0014 -33.9940 -33.9666 -33.9641
   -33.9400 -33.8232 -33.8209 -33.7913 -33.7737 -33.7671 -33.6824 -33.4275
   -33.3394 -33.3339 -33.3112 -33.2317 -33.2244 -33.1630 -33.1494 -33.1424
   -21.2499 -18.5294 -18.5068 -18.2000 -18.1421 -18.0978 -18.0876 -18.0759
   -18.0247 -17.9220 -17.8663 -17.8643 -17.8135 -17.7844 -17.7797 -17.7273
   -17.7257 -17.7143 -17.7021 -17.6718 -17.6442 -17.6426 -17.5672 -17.4673
   -17.4292 -17.4021 -17.3843 -17.3714 -17.3316 -17.2384 -17.1596 -17.1111
   -16.7919 -15.4889 -15.4840 -15.3686  -9.2661  -5.8326  -5.7859  -5.7680
    -5.7673  -5.6944  -5.3932  -5.2850  -5.2847  -5.2727  -5.1755  -5.1647
    -5.1615  -5.1460  -5.1419  -5.1187  -5.1086  -5.0777  -5.0620  -5.0255
    -5.0102  -4.9450  -4.9253  -4.9170  -4.9036  -4.8795  -4.7461  -4.7429
    -4.6405  -4.6152  -4.5271  -4.5182  -4.5003  -4.4816  -4.4321  -4.3846
    -4.3550  -4.3406  -4.1659  -4.1523  -4.1409  -4.0764  -4.0341  -3.9777
    -3.9736  -3.8791  -3.6769  -3.6533  -3.6513  -3.6448  -3.6296  -3.6279
    -3.5917  -3.5490  -3.5024  -3.4822  -3.4456  -3.4406  -3.4377  -3.3891
    -3.3448  -3.2460  -3.1904  -3.1881  -3.1667  -3.1140  -3.1090  -3.0934
    -3.0738  -3.0535  -3.0257  -2.9425  -2.9108  -2.8893  -2.8471  -2.8369
    -2.7826  -2.7708  -2.7051  -2.5674  -2.5417  -2.5327  -2.5288  -2.4931
    -2.4014  -2.2555  -2.2392  -2.2378  -2.0894  -2.0846  -2.0140  -2.0069
    -1.9760  -1.9589  -1.7872  -1.7771  -1.6927  -1.6456  -1.5949  -1.5769
    -1.5675  -1.3488  -0.9389  -0.6603  -0.6422  -0.6183  -0.4630  -0.4602
     1.1451   1.2152   1.2244   1.3202   1.3258   1.3310   1.3854   1.4541
     1.4992   1.5431   1.7028

     the Fermi energy is     1.0798 ev

!    total energy              =   -3283.10413855 Ry
     estimated scf accuracy    <       0.00000007 Ry
     smearing contrib. (-TS)   =      -0.03226202 Ry
     internal energy E=F+TS    =   -3283.07187654 Ry

     The total energy is F=E-TS. E is the sum of the following terms:
     one-electron contribution =  -34306.61135250 Ry
     hartree contribution      =   17213.51867678 Ry
     xc contribution           =    -537.35163982 Ry
     ewald contribution        =   14347.37038605 Ry
     electric field correction =       0.00205295 Ry

     convergence has been achieved in  56 iterations

     Forces acting on atoms (cartesian axes, Ry/au):

     atom    1 type  1   force =     0.00002623    0.00631120    0.05655166
     atom    2 type  1   force =     0.00000028    0.00183262   -0.00348295
     atom    3 type  1   force =    -0.00006888   -0.00384017   -0.00158571
     atom    4 type  1   force =     0.00005564   -0.00038800    0.10678709
     atom    5 type  1   force =    -0.00001247   -0.00065244    0.00906852
     atom    6 type  1   force =    -0.00002097   -0.00082132    0.00311796
     atom    7 type  1   force =     0.06774710   -0.00026554   -0.02937778
     atom    8 type  1   force =     0.00478626   -0.02830954    0.00275777
     atom    9 type  1   force =     0.01038303   -0.02001777    0.00019231
     atom   10 type  2   force =    -0.00006604   -0.00358087   -0.18212418
     atom   11 type  2   force =    -0.00008633    0.02094072   -0.00708995
     atom   12 type  2   force =     0.00011621    0.01989127   -0.00375975
     atom   13 type  1   force =    -0.06783896   -0.00071234   -0.02936439
     atom   14 type  1   force =    -0.00478058   -0.02829052    0.00275808
     atom   15 type  1   force =    -0.01026600   -0.02001547    0.00031852
     atom   16 type  2   force =     0.00012561   -0.00159856    0.06617553
     atom   17 type  2   force =     0.00006846    0.03606931    0.00426897
     atom   18 type  2   force =    -0.00010790    0.01081996   -0.00274802
     atom   19 type  1   force =     0.00000365    0.00419440    0.06377916
     atom   20 type  1   force =     0.00000466    0.00140431   -0.00552700
     atom   21 type  1   force =     0.00005456    0.00123134    0.10740003
     atom   22 type  1   force =    -0.00000394   -0.00034112    0.00887302
     atom   23 type  1   force =    -0.00001100   -0.00543473    0.00286168
     atom   24 type  1   force =     0.06713120   -0.00043000   -0.02925915
     atom   25 type  1   force =     0.00491484   -0.02900525    0.00284116
     atom   26 type  1   force =     0.00925485    0.00316830   -0.00391350
     atom   27 type  2   force =    -0.00007760   -0.00328382   -0.18661499
     atom   28 type  2   force =    -0.00006032    0.02033368   -0.00730391
     atom   29 type  2   force =    -0.00005120   -0.00158524    0.01308300
     atom   30 type  1   force =    -0.06722068   -0.00089115   -0.02924788
     atom   31 type  1   force =    -0.00492386   -0.02898363    0.00284468
     atom   32 type  1   force =    -0.00926165    0.00319270   -0.00391581
     atom   33 type  2   force =     0.00012497   -0.00176277    0.06630852
     atom   34 type  2   force =     0.00008372    0.03629500    0.00441997
     atom   35 type  2   force =    -0.00001935   -0.00236815    0.00333025
     atom   36 type  1   force =     0.00002121    0.00318725    0.05469608
     atom   37 type  1   force =    -0.00000146    0.00043509   -0.00159557
     atom   38 type  1   force =     0.00001185   -0.00174044   -0.00082039
     atom   39 type  1   force =     0.00005328   -0.00027579    0.10750854
     atom   40 type  1   force =    -0.00001020   -0.00007560    0.00862365
     atom   41 type  1   force =    -0.00001952    0.00330095    0.00091602
     atom   42 type  1   force =     0.06735708   -0.00085064   -0.02899251
     atom   43 type  1   force =     0.00317925   -0.02860427    0.00231940
     atom   44 type  1   force =     0.01105266   -0.01051691    0.00423949
     atom   45 type  2   force =    -0.00009156    0.00336609   -0.18453964
     atom   46 type  2   force =    -0.00008021    0.02071275   -0.00745033
     atom   47 type  2   force =     0.00001108    0.00954428   -0.01312836
     atom   48 type  1   force =    -0.06744930   -0.00129688   -0.02898459
     atom   49 type  1   force =    -0.00318108   -0.02857645    0.00232604
     atom   50 type  1   force =    -0.01101680   -0.01053830    0.00426470
     atom   51 type  2   force =     0.00012477   -0.00089743    0.06684943
     atom   52 type  2   force =     0.00007421    0.03408621    0.00445407
     atom   53 type  2   force =    -0.00007171    0.02443443    0.00626652
     atom   54 type  1   force =     0.00012811    0.00027940   -0.00004534
     atom   55 type  3   force =    -0.00002688   -0.00037948    0.00041658
     atom   56 type  3   force =    -0.00006831    0.00129935    0.00025331

     Total force =     0.454608     Total SCF correction =     0.000445
  @ DRIVER MODE: Message from server: STATUS
  @ DRIVER MODE: Message from server: GETFORCE
  @ DRIVER MODE: Returning v,forces,stress,ensemble

     Writing output data file ./calc.save/
  @ DRIVER MODE: Message from server: EXIT
  @ DRIVE MODE: Exiting

     General routines

     Parallel routines

   This run was terminated on:  15:25:24  18Oct2021

   JOB DONE.