     Program PWSCF v.6.7GPU starts on 23Aug2021 at 19:19:56

     R & G space division:  proc/nbgrp/npool/nimage =       6
     Reading input from /storage/home/hcoda1/3/ntian30/research/carbon/CH_vib/ads_slab/CHN2H_a/out_0013/pw.inp
Warning: card &CELL ignored
Warning: card   CELL_DYNAMICS='IPI', ignored
Warning: card / ignored

     Current dimensions of program PWSCF are:
     Max number of different atomic species (ntypx) = 10
     Max number of k-points (npk) =  40000
     Max angular momentum in pseudopotentials (lmaxx) =  3
     Presently no symmetry can be used with electric field

     Message from routine cell_base_init:
     DEPRECATED: use true lattice parameter, not A to a.u. conversion factor

     IMPORTANT: XC functional enforced from input :
     Exchange-correlation= BEEF-VDW
                           (   1   4  43  14   2   0   0)
     Any further DFT definition will be discarded
     Please, verify this is what you really want

  @ DRIVER MODE: Connecting to
 qe_1139763_2632792.sched-torque.pace.gatech.eduxcch8611_scratch
  using UNIX socket
  @ DRIVER MODE: Message from server: STATUS
  @ DRIVER MODE: Message from server: INIT
  @ DRIVER MODE: Receiving replica           0          -1
  @ DRIVER MODE: Receiving encoded integer          25
  @ DRIVER MODE:  SCF:  T  FORCE:  T  STRESS:  F  VC:  F  ENSEMBLE:  F
  @ DRIVER MODE:  SCF:  T  FORCE:  T  STRESS:  F  VC:  F  ENSEMBLE:  F

     Using Slab Decomposition

     bravais-lattice index     =            0
     lattice parameter (alat)  =       1.8897  a.u.
     unit-cell volume          =    6658.9804 (a.u.)^3
     number of atoms/cell      =           52
     number of atomic types    =            5
     number of electrons       =       394.00
     number of Kohn-Sham states=          207
     kinetic-energy cutoff     =      29.3995  Ry
     charge density cutoff     =     293.9946  Ry
     scf convergence threshold =      7.3E-08
     mixing beta               =       0.0500
     number of iterations used =            8  plain     mixing
     Exchange-correlation= BEEF-VDW
                           (   1   4  43  14   2   0   0)

     celldm(1)=   1.889726  celldm(2)=   0.000000  celldm(3)=   0.000000
     celldm(4)=   0.000000  celldm(5)=   0.000000  celldm(6)=   0.000000

     crystal axes: (cart. coord. in units of alat)
               a(1) = (   6.579727   0.000000   0.000000 )
               a(2) = (  -0.000775   5.961596   0.000000 )
               a(3) = (   0.000000   0.000000  25.155947 )

     reciprocal axes: (cart. coord. in units 2 pi/alat)
               b(1) = (  0.151982  0.000020  0.000000 )
               b(2) = (  0.000000  0.167740  0.000000 )
               b(3) = (  0.000000  0.000000  0.039752 )

     PseudoPot. # 1 for Ti read from file:
     /storage/coda1/p-amedford6/0/shared/rich_project_chbe-medford/medford-share/data/pseudos_module/espresso/nninc/pbe/van/Ti.UPF
     MD5 check sum: 8e4df49b7f0d34bbd5052bf3f5ea0213
     Pseudo is Ultrasoft, Zval = 12.0
     Generated by new atomic code, or converted to UPF format
     Using radial grid of  851 points,  6 beta functions with:
                l(1) =   0
                l(2) =   0
                l(3) =   1
                l(4) =   1
                l(5) =   2
                l(6) =   2
     Q(r) pseudized with  8 coefficients,  rinner =    1.000   1.000   1.000
                                                       1.000   1.000

     PseudoPot. # 2 for O  read from file:
     /storage/coda1/p-amedford6/0/shared/rich_project_chbe-medford/medford-share/data/pseudos_module/espresso/nninc/pbe/van/O.UPF
     MD5 check sum: 78c19812648e8988a0fe644b0f25305e
     Pseudo is Ultrasoft, Zval =  6.0
     Generated by new atomic code, or converted to UPF format
     Using radial grid of  737 points,  4 beta functions with:
                l(1) =   0
                l(2) =   0
                l(3) =   1
                l(4) =   1
     Q(r) pseudized with  8 coefficients,  rinner =    0.800   0.800   0.800

     PseudoPot. # 3 for N  read from file:
     /storage/coda1/p-amedford6/0/shared/rich_project_chbe-medford/medford-share/data/pseudos_module/espresso/nninc/pbe/van/N.UPF
     MD5 check sum: 90d10febe142ad51ac9d5be1deb811c4
     Pseudo is Ultrasoft, Zval =  5.0
     Generated by new atomic code, or converted to UPF format
     Using radial grid of  729 points,  4 beta functions with:
                l(1) =   0
                l(2) =   0
                l(3) =   1
                l(4) =   1
     Q(r) pseudized with  8 coefficients,  rinner =    0.800   0.800   0.800

     PseudoPot. # 4 for C  read from file:
     /storage/coda1/p-amedford6/0/shared/rich_project_chbe-medford/medford-share/data/pseudos_module/espresso/nninc/pbe/van/C.UPF
     MD5 check sum: 1a69bf6b8db32088f5b2163dbdb77a27
     Pseudo is Ultrasoft, Zval =  4.0
     Generated by new atomic code, or converted to UPF format
     Using radial grid of  721 points,  4 beta functions with:
                l(1) =   0
                l(2) =   0
                l(3) =   1
                l(4) =   1
     Q(r) pseudized with  8 coefficients,  rinner =    0.800   0.800   0.800

     PseudoPot. # 5 for H  read from file:
     /storage/coda1/p-amedford6/0/shared/rich_project_chbe-medford/medford-share/data/pseudos_module/espresso/nninc/pbe/van/H.UPF
     MD5 check sum: b5ee9d7bfd3a09ee7748110bda690ff7
     Pseudo is Ultrasoft, Zval =  1.0
     Generated by new atomic code, or converted to UPF format
     Using radial grid of  615 points,  1 beta functions with:
                l(1) =   0
     Q(r) pseudized with  8 coefficients,  rinner =    0.800

     atomic species   valence    mass     pseudopotential
        Ti1           12.00    47.86700     Ti( 1.00)
        O1             6.00    15.99900     O ( 1.00)
        N1             5.00    14.00700     N ( 1.00)
        C1             4.00    12.01100     C ( 1.00)
        H1             1.00     1.00800     H ( 1.00)

     No symmetry found

   Cartesian axes

     site n.     atom                  positions (alat units)
         1           Ti1 tau(   1) = (   0.0004258   2.9801865   6.0000000  )
         2           Ti1 tau(   2) = (   3.2906075   1.4906267   6.0002472  )
         3           O1  tau(   3) = (   0.0006271   0.0005054   7.9858123  )
         4           O1  tau(   4) = (   3.2906025   0.0005020   7.3038282  )
         5           O1  tau(   5) = (   4.5942328   1.4918067   9.2879030  )
         6           O1  tau(   6) = (   1.9868534   1.4903216   9.2879459  )
         7           Ti1 tau(   7) = (   3.2907910   2.8959150   9.1758416  )
         8           Ti1 tau(   8) = (   0.0015273   1.4827037   9.2680791  )
         9           O1  tau(   9) = (   3.3079035   5.9465650  11.3667630  )
        10           O1  tau(  10) = (   0.0116148   5.9584955  10.6183126  )
        11           O1  tau(  11) = (   1.3159687   1.4802111  12.6598234  )
        12           O1  tau(  12) = (   5.3141237   1.4785834  12.6569702  )
        13           Ti1 tau(  13) = (   0.0356438   2.9569522  12.5500042  )
        14           Ti1 tau(  14) = (   3.3321116   1.4682926  12.5176941  )
        15           O1  tau(  15) = (   0.0287262   5.9365737  14.6848071  )
        16           O1  tau(  16) = (   3.3260766   5.9477468  13.9918032  )
        17           O1  tau(  17) = (   4.5788076   1.5006004  16.1778977  )
        18           O1  tau(  18) = (   2.0653823   1.4932191  16.1519216  )
        19           Ti1 tau(  19) = (   3.3252840   2.9629899  15.7366588  )
        20           Ti1 tau(  20) = (   0.0567170   1.3280226  15.9864722  )
        21           O1  tau(  21) = (   3.2904802   0.0005063   4.7018136  )
        22           O1  tau(  22) = (   0.0395201   5.9563027  17.2132275  )
        23           O1  tau(  23) = (   1.3043587   1.4918075   6.0039043  )
        24           O1  tau(  24) = (   5.2767064   1.4903225   6.0039473  )
        25           Ti1 tau(  25) = (   0.0000382   5.9609847   6.0000000  )
        26           Ti1 tau(  26) = (   3.2902200   4.4714249   6.0002472  )
        27           O1  tau(  27) = (   0.0002396   2.9813036   7.9858123  )
        28           O1  tau(  28) = (   3.2902150   2.9813002   7.3038282  )
        29           O1  tau(  29) = (   4.5938453   4.4726049   9.2879030  )
        30           O1  tau(  30) = (   1.9864658   4.4711199   9.2879459  )
        31           Ti1 tau(  31) = (   3.2891106   5.8743827   9.1763621  )
        32           Ti1 tau(  32) = (   0.0006254   4.4649316   9.2693709  )
        33           O1  tau(  33) = (   3.3109971   2.9638951  11.3609806  )
        34           O1  tau(  34) = (   0.0092240   2.9805883  10.6323155  )
        35           O1  tau(  35) = (   1.3172493   4.4579999  12.6547637  )
        36           O1  tau(  36) = (   5.3123203   4.4599931  12.6537913  )
        37           Ti1 tau(  37) = (   0.0349292   5.9384232  12.5038109  )
        38           Ti1 tau(  38) = (   3.3308216   4.4462378  12.5132791  )
        39           O1  tau(  39) = (   0.0262156   2.9786664  14.8481040  )
        40           O1  tau(  40) = (   3.3240488   2.9673873  13.9486158  )
        41           O1  tau(  41) = (   4.5778164   4.4375445  16.1741249  )
        42           O1  tau(  42) = (   2.0647505   4.4412733  16.1578575  )
        43           Ti1 tau(  43) = (   3.3314326   5.9455663  15.7867969  )
        44           Ti1 tau(  44) = (   0.0345939   4.5236910  15.9072353  )
        45           O1  tau(  45) = (   3.2900926   2.9813045   4.7018136  )
        46           O1  tau(  46) = (   1.3039711   4.4726057   6.0039043  )
        47           O1  tau(  47) = (   5.2763189   4.4711207   6.0039473  )
        48           N1  tau(  48) = (   0.8843530   3.1395628  18.6524426  )
        49           C1  tau(  49) = (   1.8908588   3.1194352  19.2834450  )
        50           H1  tau(  50) = (   2.4145030   3.8971110  19.8100181  )
        51           N1  tau(  51) = (   6.5588057   2.9807634  17.7841789  )
        52           H1  tau(  52) = (   5.6432114   2.8891999  18.2270943  )

     number of k points=    10  Fermi-Dirac smearing, width (Ry)=  0.0073
                       cart. coord. in units 2pi/alat
        k(    1) = (   0.0000000   0.0000000   0.0000000), wk =   0.1250000
        k(    2) = (   0.0000000   0.0419351   0.0000000), wk =   0.2500000
        k(    3) = (   0.0000000  -0.0838702   0.0000000), wk =   0.1250000
        k(    4) = (   0.0379955   0.0000049   0.0000000), wk =   0.2500000
        k(    5) = (   0.0379955   0.0419400   0.0000000), wk =   0.2500000
        k(    6) = (   0.0379955  -0.0838652   0.0000000), wk =   0.2500000
        k(    7) = (   0.0379955  -0.0419301   0.0000000), wk =   0.2500000
        k(    8) = (  -0.0759910  -0.0000099   0.0000000), wk =   0.1250000
        k(    9) = (  -0.0759910   0.0419252   0.0000000), wk =   0.2500000
        k(   10) = (  -0.0759910  -0.0838800   0.0000000), wk =   0.1250000

     Initial potential from superposition of free atoms

     starting charge  377.99917, renormalised to  394.00000

     negative rho (up, down):  1.653E-02 0.000E+00

     %%%%%%%%%%%%%%%%%%%%%%%%%%%%%%%%%%%%%%%%%%%%%%%%%%%%%%%%%%%%%%%%%%%%%%%%
     %                                                                      %
     % You are using vdW-DF, which was implemented by the Thonhauser group. %
     % Please cite the following two papers that made this development      %
     % possible and the two reviews that describe the various versions:     %
     %                                                                      %
     %   T. Thonhauser et al., PRL 115, 136402 (2015).                      %
     %   T. Thonhauser et al., PRB 76, 125112 (2007).                       %
     %   K. Berland et al., Rep. Prog. Phys. 78, 066501 (2015).             %
     %   D.C. Langreth et al., J. Phys.: Condens. Matter 21, 084203 (2009). %
     %                                                                      %
     %                                                                      %
     % If you are calculating the stress with vdW-DF, please also cite:     %
     %                                                                      %
     %   R. Sabatini et al., J. Phys.: Condens. Matter 24, 424209 (2012).   %
     %                                                                      %
     %%%%%%%%%%%%%%%%%%%%%%%%%%%%%%%%%%%%%%%%%%%%%%%%%%%%%%%%%%%%%%%%%%%%%%%%

     Adding external electric field

     Computed dipole along edir(3) :
        Dipole               -8.4995 Ry au,        -21.6035 Debye
        Dipole field         -0.0160 Ry au,

        Potential amp.        1.4869 Ry
        Total length         46.3494 bohr

     Starting wfcs are  298 atomic wfcs
  @ DRIVER MODE: Message from server: STATUS
  @ DRIVER MODE: Message from server: POSDATA
  @ DRIVER MODE: Reading and sharing cell
  @ DRIVER MODE: Reading and sharing positions
  @ DRIVER MODE: Received positions

     Self-consistent Calculation

     iteration #  1     ecut=    29.40 Ry     beta= 0.05
     Davidson diagonalization with overlap
     c_bands:  1 eigenvalues not converged
     c_bands:  1 eigenvalues not converged
     c_bands:  2 eigenvalues not converged
     c_bands:  2 eigenvalues not converged
     c_bands:  2 eigenvalues not converged
     c_bands:  1 eigenvalues not converged
     ethr =  1.00E-05,  avg # of iterations = 19.0

[...]

     total energy              =   -2624.25867915 Ry
     estimated scf accuracy    <    3488.44476480 Ry

[...]

     iteration #  3     ecut=    29.40 Ry     beta= 0.05
     Davidson diagonalization with overlap
     ethr =  1.00E-02,  avg # of iterations = 14.8

[...]

     iteration # 79     ecut=    29.40 Ry     beta= 0.05
     Davidson diagonalization with overlap
     ethr =  7.23E-11,  avg # of iterations =  9.4

[...]

     total energy              =   -2937.80855337 Ry
     estimated scf accuracy    <       0.00000012 Ry

     iteration # 81     ecut=    29.40 Ry     beta= 0.05
     Davidson diagonalization with overlap
     c_bands:  1 eigenvalues not converged
     ethr =  2.94E-11,  avg # of iterations = 10.1

     negative rho (up, down):  1.630E-02 0.000E+00

     Adding external electric field

     Computed dipole along edir(3) :
        Dipole                1.2898 Ry au,          3.2783 Debye
        Dipole field          0.0024 Ry au,

        Potential amp.       -0.2256 Ry
        Total length         46.3494 bohr

     End of self-consistent calculation

          k = 0.0000 0.0000 0.0000 ( 18029 PWs)   bands (ev):

   -55.4368 -55.4008 -55.4006 -55.3665 -55.3302 -55.3144 -55.2714 -55.2496
   -55.2458 -55.2348 -55.2271 -55.2151 -55.1937 -55.1672 -54.4190 -54.3850
   -32.0058 -31.8912 -31.8308 -31.8002 -31.7562 -31.7485 -31.7389 -31.7300
   -31.6901 -31.6835 -31.6459 -31.6451 -31.6378 -31.6105 -31.5912 -31.5729
   -31.5687 -31.5625 -31.5540 -31.5483 -31.5139 -31.5127 -31.5032 -31.4946
   -31.4800 -31.4577 -31.4519 -31.4504 -31.4455 -31.4412 -31.4380 -31.4238
   -31.4159 -31.4097 -31.4038 -31.3988 -31.3775 -31.3642 -31.3625 -31.3564
   -31.3358 -31.2744 -30.8279 -30.7349 -30.7128 -30.6444 -30.5576 -30.4467
   -20.2329 -16.2514 -15.9790 -15.8352 -15.7118 -15.6271 -15.5004 -15.4619
   -15.3458 -15.3415 -15.2290 -15.1534 -15.0862 -15.0839 -15.0666 -15.0394
   -14.9886 -14.9721 -14.9695 -14.9271 -14.9250 -14.8831 -14.8635 -14.8296
   -14.8117 -14.7927 -14.7751 -14.6529 -14.5834 -14.5247 -14.1636 -12.9217
   -12.8045  -8.8221  -7.1671  -5.4323  -4.7186  -3.5965  -3.4366  -3.3498
    -3.3333  -3.3308  -3.1648  -3.0368  -2.8094  -2.7725  -2.6980  -2.6436
    -2.6256  -2.6038  -2.4262  -2.4017  -2.3419  -2.3147  -2.2772  -2.2471
    -2.2223  -2.2026  -2.1946  -2.1763  -2.1626  -2.0017  -1.9031  -1.8723
    -1.8366  -1.8226  -1.7629  -1.7300  -1.7243  -1.7222  -1.7132  -1.6699
    -1.6504  -1.6024  -1.5011  -1.4705  -1.4455  -1.3197  -1.3024  -1.1545
    -1.0696  -0.9848  -0.9775  -0.9107  -0.9050  -0.8718  -0.8207  -0.7961
    -0.7723  -0.6386  -0.5684  -0.5113  -0.4957  -0.4512  -0.4059  -0.3700
    -0.2768  -0.2124  -0.2047  -0.1928  -0.0277  -0.0135   0.0334   0.0828
     0.1073   0.1560   0.1810   0.2507   0.2846   0.3303   0.3605   0.4571
     0.4966   0.5171   0.5308   0.5504   0.5627   0.6231   0.6899   0.7084
     0.7567   0.8131   0.9248   1.1222   1.1841   1.1973   1.5133   1.5476
     1.6035   1.7888   2.1786   2.2263   3.6632   3.7348   3.7985   3.8136
     3.8224   3.8988   4.0744   4.1465   4.1621   4.1687   4.1801

[...]

          k = 0.0380-0.0419 0.0000 ( 17876 PWs)   bands (ev):

[...]

          k =-0.0760-0.0000 0.0000 ( 17886 PWs)   bands (ev):

[...]

          k =-0.0760-0.0839 0.0000 ( 17948 PWs)   bands (ev):

   -55.4199 -55.4174 -55.3835 -55.3834 -55.3269 -55.3058 -55.2799 -55.2414
   -55.2381 -55.2332 -55.2309 -55.2108 -55.2104 -55.1714 -54.4020 -54.4018
   -31.8108 -31.8079 -31.7493 -31.7293 -31.7063 -31.7063 -31.6944 -31.6756
   -31.6755 -31.6473 -31.6380 -31.6326 -31.6294 -31.5890 -31.5671 -31.5640
   -31.5639 -31.5560 -31.5555 -31.5450 -31.5323 -31.5228 -31.5126 -31.5088
   -31.5045 -31.5031 -31.5028 -31.4981 -31.4743 -31.4663 -31.4660 -31.4637
   -31.4469 -31.4447 -31.4442 -31.4350 -31.4336 -31.4289 -31.3909 -31.3904
   -31.3853 -31.3658 -30.7255 -30.7254 -30.6406 -30.6404 -30.6011 -30.6010
   -20.2316 -15.7070 -15.6866 -15.6278 -15.4217 -15.4196 -15.4072 -15.3929
   -15.3736 -15.2341 -15.2152 -15.1989 -15.1814 -15.1392 -15.1358 -15.1201
   -15.1101 -15.0103 -15.0081 -15.0060 -15.0046 -14.9422 -14.9343 -14.9205
   -14.8860 -14.8828 -14.8537 -14.7839 -14.7809 -14.6483 -14.4842 -12.9061
   -12.9060  -8.8074  -7.1865  -5.4309  -4.7020  -2.9620  -2.8917  -2.8487
    -2.6390  -2.6163  -2.6016  -2.5187  -2.4695  -2.4074  -2.4000  -2.3937
    -2.3343  -2.2991  -2.2855  -2.2672  -2.2592  -2.2421  -2.2203  -2.2093
    -2.1634  -2.1520  -2.1423  -2.1075  -2.0942  -2.0758  -2.0519  -2.0345
    -2.0172  -2.0118  -1.9923  -1.8318  -1.7804  -1.7336  -1.6824  -1.6733
    -1.6287  -1.6212  -1.5271  -1.4925  -1.4637  -1.4359  -1.4277  -1.2361
    -1.2209  -1.1683  -1.1638  -1.1401  -0.9843  -0.9641  -0.9483  -0.9311
    -0.8856  -0.8034  -0.7966  -0.7593  -0.6520  -0.6219  -0.6151  -0.5648
    -0.4443  -0.4217  -0.3993  -0.3935  -0.3877  -0.2949  -0.2776  -0.2694
    -0.2366  -0.2031  -0.1524  -0.1459  -0.0931   0.0893   0.1338   0.1994
     0.2785   0.4472   0.4867   0.5138   0.5549   0.6162   0.6890   0.7053
     0.7699   0.8637   0.8784   0.9084   0.9808   1.0337   1.0416   1.0660
     1.9616   1.9623   2.0462   2.0463   3.8325   3.8452   3.9074   3.9440
     3.9933   4.0849   4.1822   4.1989   4.2421   4.2431   4.3246

     the Fermi energy is     3.7172 ev

!    total energy              =   -2937.80856036 Ry
     estimated scf accuracy    <       0.00000005 Ry
     smearing contrib. (-TS)   =      -0.03813863 Ry
     internal energy E=F+TS    =   -2937.77042173 Ry

     The total energy is F=E-TS. E is the sum of the following terms:
     one-electron contribution =  -24092.29602319 Ry
     hartree contribution      =   12136.19283276 Ry
     xc contribution           =    -484.38854335 Ry
     ewald contribution        =    9502.71817274 Ry
     electric field correction =       0.00313931 Ry

     convergence has been achieved in  81 iterations

     Forces acting on atoms (cartesian axes, Ry/au):

     atom    1 type  1   force =     0.00006140   -0.00011581    0.09406377
     atom    2 type  1   force =    -0.00016413   -0.00023335   -0.17762046
     atom    3 type  2   force =     0.00011053   -0.00020594   -0.02138400
     atom    4 type  2   force =     0.00002519   -0.00183962    0.05752468
     atom    5 type  2   force =    -0.01068371   -0.00139096    0.00632721
     atom    6 type  2   force =     0.01275081   -0.00074530    0.00661052
     atom    7 type  1   force =     0.00011525    0.00196757   -0.01404968
     atom    8 type  1   force =    -0.00046929    0.00581288    0.00396649
     atom    9 type  2   force =     0.00036144    0.00023058   -0.00007722
     atom   10 type  2   force =    -0.00023978    0.00022154   -0.00512232
     atom   11 type  2   force =     0.00005153   -0.00015147   -0.00045512
     atom   12 type  2   force =    -0.00029169    0.00000969    0.00007989
     atom   13 type  1   force =    -0.00025194    0.00001351   -0.00029075
     atom   14 type  1   force =    -0.00008898    0.00015280   -0.00015842
     atom   15 type  2   force =    -0.00049578   -0.00043107   -0.00018763
     atom   16 type  2   force =    -0.00018614    0.00019255    0.00003377
     atom   17 type  2   force =    -0.00000394   -0.00019415   -0.00016489
     atom   18 type  2   force =    -0.00043919   -0.00014245   -0.00050744
     atom   19 type  1   force =    -0.00018905    0.00011540   -0.00013167
     atom   20 type  1   force =    -0.00029744   -0.00009485    0.00062535
     atom   21 type  2   force =     0.00001833    0.00002100    0.10381280
     atom   22 type  2   force =     0.00003874    0.00012200   -0.00012896
     atom   23 type  2   force =    -0.07063815   -0.00007566   -0.02703349
     atom   24 type  2   force =     0.07052932    0.00036778   -0.02708510
     atom   25 type  1   force =     0.00001130   -0.00008361    0.09369395
     atom   26 type  1   force =    -0.00013699   -0.00015460   -0.17768191
     atom   27 type  2   force =     0.00013331   -0.00023866   -0.02037673
     atom   28 type  2   force =     0.00006754   -0.00155189    0.05699965
     atom   29 type  2   force =    -0.01103030   -0.00053667    0.00635077
     atom   30 type  2   force =     0.01295122   -0.00027195    0.00664436
     atom   31 type  1   force =     0.00029587    0.00520050   -0.01482887
     atom   32 type  1   force =    -0.00040118   -0.00656481    0.00413629
     atom   33 type  2   force =     0.00015767    0.00008012   -0.00031229
     atom   34 type  2   force =     0.00035921   -0.00102403   -0.00203671
     atom   35 type  2   force =    -0.00031259    0.00015250   -0.00021914
     atom   36 type  2   force =    -0.00004360   -0.00000007    0.00010826
     atom   37 type  1   force =    -0.00007139    0.00023394   -0.00014768
     atom   38 type  1   force =     0.00006424    0.00024778    0.00021825
     atom   39 type  2   force =    -0.00006279    0.00020279    0.00006561
     atom   40 type  2   force =    -0.00029939    0.00009487   -0.00022873
     atom   41 type  2   force =    -0.00019200   -0.00005257    0.00005266
     atom   42 type  2   force =    -0.00025698    0.00016519   -0.00021257
     atom   43 type  1   force =    -0.00013934    0.00013926   -0.00007305
     atom   44 type  1   force =    -0.00009608   -0.00040437   -0.00005414
     atom   45 type  2   force =     0.00001292   -0.00000327    0.10381993
     atom   46 type  2   force =    -0.07065977   -0.00004232   -0.02704697
     atom   47 type  2   force =     0.07053729    0.00039814   -0.02708396
     atom   48 type  3   force =    -0.00068295   -0.00051557   -0.00015386
     atom   49 type  4   force =    -0.00404943   -0.00362311   -0.00301302
     atom   50 type  5   force =     0.00390373    0.00444462    0.00316929
     atom   51 type  3   force =     0.00055164   -0.00016969   -0.00063261
     atom   52 type  5   force =    -0.00023444    0.00027082    0.00019586

     Total force =     0.366083     Total SCF correction =     0.000487
  @ DRIVER MODE: Message from server: STATUS
  @ DRIVER MODE: Message from server: GETFORCE
  @ DRIVER MODE: Returning v,forces,stress,ensemble

     Writing output data file ./calc.save/
  @ DRIVER MODE: Message from server: EXIT
  @ DRIVE MODE: Exiting

     General routines

     Parallel routines

   This run was terminated on:  19:54:41  23Aug2021

   JOB DONE.