     Program PWSCF v.6.7GPU starts on 26Sep2021 at 20:21:32

     R & G space division:  proc/nbgrp/npool/nimage =       8
     Reading input from /storage/home/hcoda1/3/ntian30/research/carbon/CxH_vib/CH_calc/ads_slab/CHONHH_a/out_0006/pw.inp
Warning: card &CELL ignored
Warning: card   CELL_DYNAMICS='IPI', ignored
Warning: card / ignored

     Current dimensions of program PWSCF are:
     Max number of different atomic species (ntypx) = 10
     Max number of k-points (npk) =  40000
     Max angular momentum in pseudopotentials (lmaxx) =  3
     Presently no symmetry can be used with electric field

     Message from routine cell_base_init:
     DEPRECATED: use true lattice parameter, not A to a.u. conversion factor

     IMPORTANT: XC functional enforced from input :
     Exchange-correlation= BEEF-VDW
                           (   1   4  43  14   2   0   0)
     Any further DFT definition will be discarded
     Please, verify this is what you really want

  @ DRIVER MODE: Connecting to
 qe_1139763_2982670.sched-torque.pace.gatech.edu8lpw2shu_scratch
  using UNIX socket
  @ DRIVER MODE: Message from server: STATUS
  @ DRIVER MODE: Message from server: INIT
  @ DRIVER MODE: Receiving replica           0          -1
  @ DRIVER MODE: Receiving encoded integer          25
  @ DRIVER MODE:  SCF:  T  FORCE:  T  STRESS:  F  VC:  F  ENSEMBLE:  F
  @ DRIVER MODE:  SCF:  T  FORCE:  T  STRESS:  F  VC:  F  ENSEMBLE:  F

     Using Slab Decomposition

     bravais-lattice index     =            0
     lattice parameter (alat)  =       1.8897  a.u.
     unit-cell volume          =    6658.9804 (a.u.)^3
     number of atoms/cell      =           53
     number of atomic types    =            5
     number of electrons       =       396.00
     number of Kohn-Sham states=          208
     kinetic-energy cutoff     =      29.3995  Ry
     charge density cutoff     =     293.9946  Ry
     scf convergence threshold =      7.3E-08
     mixing beta               =       0.0500
     number of iterations used =            8  plain     mixing
     Exchange-correlation= BEEF-VDW
                           (   1   4  43  14   2   0   0)

     celldm(1)=   1.889726  celldm(2)=   0.000000  celldm(3)=   0.000000
     celldm(4)=   0.000000  celldm(5)=   0.000000  celldm(6)=   0.000000

     crystal axes: (cart. coord. in units of alat)
               a(1) = (   6.579727   0.000000   0.000000 )
               a(2) = (  -0.000775   5.961596   0.000000 )
               a(3) = (   0.000000   0.000000  25.155947 )

     reciprocal axes: (cart. coord. in units 2 pi/alat)
               b(1) = (  0.151982  0.000020  0.000000 )
               b(2) = (  0.000000  0.167740  0.000000 )
               b(3) = (  0.000000  0.000000  0.039752 )

     PseudoPot. # 1 for O  read from file:
     /storage/coda1/p-amedford6/0/shared/rich_project_chbe-medford/medford-share/data/pseudos_module/espresso/nninc/pbe/van/O.UPF
     MD5 check sum: 78c19812648e8988a0fe644b0f25305e
     Pseudo is Ultrasoft, Zval =  6.0
     Generated by new atomic code, or converted to UPF format
     Using radial grid of  737 points,  4 beta functions with:
                l(1) =   0
                l(2) =   0
                l(3) =   1
                l(4) =   1
     Q(r) pseudized with  8 coefficients,  rinner =    0.800   0.800   0.800

     PseudoPot. # 2 for Ti read from file:
     /storage/coda1/p-amedford6/0/shared/rich_project_chbe-medford/medford-share/data/pseudos_module/espresso/nninc/pbe/van/Ti.UPF
     MD5 check sum: 8e4df49b7f0d34bbd5052bf3f5ea0213
     Pseudo is Ultrasoft, Zval = 12.0
     Generated by new atomic code, or converted to UPF format
     Using radial grid of  851 points,  6 beta functions with:
                l(1) =   0
                l(2) =   0
                l(3) =   1
                l(4) =   1
                l(5) =   2
                l(6) =   2
     Q(r) pseudized with  8 coefficients,  rinner =    1.000   1.000   1.000
                                                       1.000   1.000

     PseudoPot. # 3 for C  read from file:
     /storage/coda1/p-amedford6/0/shared/rich_project_chbe-medford/medford-share/data/pseudos_module/espresso/nninc/pbe/van/C.UPF
     MD5 check sum: 1a69bf6b8db32088f5b2163dbdb77a27
     Pseudo is Ultrasoft, Zval =  4.0
     Generated by new atomic code, or converted to UPF format
     Using radial grid of  721 points,  4 beta functions with:
                l(1) =   0
                l(2) =   0
                l(3) =   1
                l(4) =   1
     Q(r) pseudized with  8 coefficients,  rinner =    0.800   0.800   0.800

     PseudoPot. # 4 for H  read from file:
     /storage/coda1/p-amedford6/0/shared/rich_project_chbe-medford/medford-share/data/pseudos_module/espresso/nninc/pbe/van/H.UPF
     MD5 check sum: b5ee9d7bfd3a09ee7748110bda690ff7
     Pseudo is Ultrasoft, Zval =  1.0
     Generated by new atomic code, or converted to UPF format
     Using radial grid of  615 points,  1 beta functions with:
                l(1) =   0
     Q(r) pseudized with  8 coefficients,  rinner =    0.800

     PseudoPot. # 5 for N  read from file:
     /storage/coda1/p-amedford6/0/shared/rich_project_chbe-medford/medford-share/data/pseudos_module/espresso/nninc/pbe/van/N.UPF
     MD5 check sum: 90d10febe142ad51ac9d5be1deb811c4
     Pseudo is Ultrasoft, Zval =  5.0
     Generated by new atomic code, or converted to UPF format
     Using radial grid of  729 points,  4 beta functions with:
                l(1) =   0
                l(2) =   0
                l(3) =   1
                l(4) =   1
     Q(r) pseudized with  8 coefficients,  rinner =    0.800   0.800   0.800

     atomic species   valence    mass     pseudopotential
        O1             6.00    15.99900     O ( 1.00)
        Ti1           12.00    47.86700     Ti( 1.00)
        C1             4.00    12.01100     C ( 1.00)
        H1             1.00     1.00800     H ( 1.00)
        N1             5.00    14.00700     N ( 1.00)

     No symmetry found

   Cartesian axes

     site n.     atom                  positions (alat units)
         1           O1  tau(   1) = (   3.2904802   0.0005063   4.7018136  )
         2           O1  tau(   2) = (   3.2900926   2.9813045   4.7018136  )
         3           Ti1 tau(   3) = (   0.0004258   2.9801865   6.0000000  )
         4           Ti1 tau(   4) = (   0.0000382   5.9609847   6.0000000  )
         5           Ti1 tau(   5) = (   3.2906075   1.4906267   6.0002472  )
         6           Ti1 tau(   6) = (   3.2902200   4.4714249   6.0002472  )
         7           O1  tau(   7) = (   1.3043587   1.4918075   6.0039043  )
         8           O1  tau(   8) = (   1.3039711   4.4726057   6.0039043  )
         9           O1  tau(   9) = (   5.2767064   1.4903225   6.0039473  )
        10           O1  tau(  10) = (   5.2763189   4.4711207   6.0039473  )
        11           O1  tau(  11) = (   3.2906025   0.0005020   7.3038282  )
        12           O1  tau(  12) = (   3.2902150   2.9813002   7.3038282  )
        13           O1  tau(  13) = (   0.0006271   0.0005054   7.9858123  )
        14           O1  tau(  14) = (   0.0002396   2.9813036   7.9858123  )
        15           Ti1 tau(  15) = (   3.2907910   2.8959150   9.1758416  )
        16           Ti1 tau(  16) = (   3.2891106   5.8743827   9.1763621  )
        17           Ti1 tau(  17) = (   0.0015273   1.4827037   9.2680791  )
        18           Ti1 tau(  18) = (   0.0006254   4.4649316   9.2693709  )
        19           O1  tau(  19) = (   4.5942328   1.4918067   9.2879030  )
        20           O1  tau(  20) = (   4.5938453   4.4726049   9.2879030  )
        21           O1  tau(  21) = (   1.9868534   1.4903216   9.2879459  )
        22           O1  tau(  22) = (   1.9864658   4.4711199   9.2879459  )
        23           O1  tau(  23) = (   0.0116148   5.9584955  10.6183126  )
        24           O1  tau(  24) = (   0.0092240   2.9805883  10.6323155  )
        25           O1  tau(  25) = (   3.2982867   2.9605634  11.3629554  )
        26           O1  tau(  26) = (   3.2970280   5.9418052  11.3670498  )
        27           Ti1 tau(  27) = (   3.3197620   1.4647166  12.5186485  )
        28           Ti1 tau(  28) = (   3.3197371   4.4442548  12.5174675  )
        29           Ti1 tau(  29) = (   0.0247145   5.9392298  12.5050521  )
        30           Ti1 tau(  30) = (   0.0207888   2.9549252  12.5325712  )
        31           O1  tau(  31) = (   5.2994564   1.4737048  12.6581032  )
        32           O1  tau(  32) = (   5.2987173   4.4536623  12.6588755  )
        33           O1  tau(  33) = (   1.2980767   1.4735271  12.6640466  )
        34           O1  tau(  34) = (   1.2983722   4.4539272  12.6649509  )
        35           O1  tau(  35) = (   3.3003782   2.9593424  13.9572071  )
        36           O1  tau(  36) = (   3.3054355   5.9407569  13.9837565  )
        37           O1  tau(  37) = (   0.0046088   5.9251545  14.7309831  )
        38           O1  tau(  38) = (   0.0006132   2.9575759  14.8603695  )
        39           Ti1 tau(  39) = (   3.2921441   2.9479593  15.7473734  )
        40           Ti1 tau(  40) = (   3.3096684   5.9297328  15.7786280  )
        41           Ti1 tau(  41) = (   0.0292748   4.4653737  15.8834615  )
        42           Ti1 tau(  42) = (   0.0203033   1.2983705  16.0532229  )
        43           O1  tau(  43) = (   2.0312177   4.4313956  16.1584376  )
        44           O1  tau(  44) = (   2.0329186   1.4682422  16.1585226  )
        45           O1  tau(  45) = (   4.5395334   1.4708069  16.1744780  )
        46           O1  tau(  46) = (   4.5451706   4.4284814  16.1696510  )
        47           O1  tau(  47) = (   6.5626888   5.9521290  17.2995914  )
        48           C1  tau(  48) = (   6.0895709   3.0833951  18.7513599  )
        49           H1  tau(  49) = (   6.1064821   5.1028269  18.6976294  )
        50           H1  tau(  50) = (   5.8218695   2.1931775  19.3174373  )
        51           N1  tau(  51) = (   5.9176545   4.2705979  19.3036562  )
        52           H1  tau(  52) = (   5.4685665   4.3395963  20.1994452  )
        53           O1  tau(  53) = (   6.5488429   2.9572365  17.5815492  )

     number of k points=    10  Fermi-Dirac smearing, width (Ry)=  0.0073
                       cart. coord. in units 2pi/alat
        k(    1) = (   0.0000000   0.0000000   0.0000000), wk =   0.1250000
        k(    2) = (   0.0000000   0.0419351   0.0000000), wk =   0.2500000
        k(    3) = (   0.0000000  -0.0838702   0.0000000), wk =   0.1250000
        k(    4) = (   0.0379955   0.0000049   0.0000000), wk =   0.2500000
        k(    5) = (   0.0379955   0.0419400   0.0000000), wk =   0.2500000
        k(    6) = (   0.0379955  -0.0838652   0.0000000), wk =   0.2500000
        k(    7) = (   0.0379955  -0.0419301   0.0000000), wk =   0.2500000
        k(    8) = (  -0.0759910  -0.0000099   0.0000000), wk =   0.1250000
        k(    9) = (  -0.0759910   0.0419252   0.0000000), wk =   0.2500000
        k(   10) = (  -0.0759910  -0.0838800   0.0000000), wk =   0.1250000

     Initial potential from superposition of free atoms

     starting charge  379.99917, renormalised to  396.00000

     negative rho (up, down):  1.602E-02 0.000E+00

     %%%%%%%%%%%%%%%%%%%%%%%%%%%%%%%%%%%%%%%%%%%%%%%%%%%%%%%%%%%%%%%%%%%%%%%%
     %                                                                      %
     % You are using vdW-DF, which was implemented by the Thonhauser group. %
     % Please cite the following two papers that made this development      %
     % possible and the two reviews that describe the various versions:     %
     %                                                                      %
     %   T. Thonhauser et al., PRL 115, 136402 (2015).                      %
     %   T. Thonhauser et al., PRB 76, 125112 (2007).                       %
     %   K. Berland et al., Rep. Prog. Phys. 78, 066501 (2015).             %
     %   D.C. Langreth et al., J. Phys.: Condens. Matter 21, 084203 (2009). %
     %                                                                      %
     %                                                                      %
     % If you are calculating the stress with vdW-DF, please also cite:     %
     %                                                                      %
     %   R. Sabatini et al., J. Phys.: Condens. Matter 24, 424209 (2012).   %
     %                                                                      %
     %%%%%%%%%%%%%%%%%%%%%%%%%%%%%%%%%%%%%%%%%%%%%%%%%%%%%%%%%%%%%%%%%%%%%%%%

     Adding external electric field

     Computed dipole along edir(3) :
        Dipole               -9.7788 Ry au,        -24.8553 Debye
        Dipole field         -0.0185 Ry au,

        Potential amp.        1.7107 Ry
        Total length         46.3494 bohr

     Starting wfcs are  299 atomic wfcs
  @ DRIVER MODE: Message from server: STATUS
  @ DRIVER MODE: Message from server: POSDATA
  @ DRIVER MODE: Reading and sharing cell
  @ DRIVER MODE: Reading and sharing positions
  @ DRIVER MODE: Received positions

     Self-consistent Calculation

     iteration #  1     ecut=    29.40 Ry     beta= 0.05
     Davidson diagonalization with overlap
     c_bands:  1 eigenvalues not converged
     c_bands:  1 eigenvalues not converged
     c_bands:  2 eigenvalues not converged
     c_bands:  3 eigenvalues not converged
     c_bands:  2 eigenvalues not converged
     c_bands:  1 eigenvalues not converged
     c_bands:  2 eigenvalues not converged
     c_bands:  1 eigenvalues not converged
     c_bands:  2 eigenvalues not converged
     c_bands:  2 eigenvalues not converged
     ethr =  1.00E-05,  avg # of iterations = 20.0

[...]

     total energy              =   -2552.97859907 Ry
     estimated scf accuracy    <    4458.25595521 Ry

     iteration #  2     ecut=    29.40 Ry     beta= 0.05
     Davidson diagonalization with overlap
     ethr =  1.00E-02,  avg # of iterations = 25.5

[...]

     iteration # 67     ecut=    29.40 Ry     beta= 0.05
     Davidson diagonalization with overlap
     ethr =  2.75E-10,  avg # of iterations =  9.7

[...]

     total energy              =   -2951.54870027 Ry
     estimated scf accuracy    <       0.00000010 Ry

     iteration # 70     ecut=    29.40 Ry     beta= 0.05
     Davidson diagonalization with overlap
     c_bands:  2 eigenvalues not converged
     c_bands:  1 eigenvalues not converged
     ethr =  2.63E-11,  avg # of iterations = 13.5

     negative rho (up, down):  1.451E-02 0.000E+00

     Adding external electric field

     Computed dipole along edir(3) :
        Dipole                1.7541 Ry au,          4.4584 Debye
        Dipole field          0.0033 Ry au,

        Potential amp.       -0.3068 Ry
        Total length         46.3494 bohr

     End of self-consistent calculation

          k = 0.0000 0.0000 0.0000 ( 18029 PWs)   bands (ev):

   -55.1173 -55.0813 -55.0733 -55.0392 -54.9989 -54.9954 -54.9862 -54.9586
   -54.9409 -54.9292 -54.9195 -54.9004 -54.8948 -54.8668 -54.0951 -54.0611
   -31.6858 -31.5834 -31.5644 -31.4842 -31.4331 -31.4252 -31.4187 -31.4042
   -31.3626 -31.3569 -31.3269 -31.3225 -31.3177 -31.2964 -31.2895 -31.2721
   -31.2546 -31.2537 -31.2378 -31.2289 -31.2247 -31.2097 -31.1962 -31.1859
   -31.1743 -31.1597 -31.1405 -31.1316 -31.1306 -31.1271 -31.1256 -31.1147
   -31.0999 -31.0984 -31.0917 -31.0864 -31.0814 -31.0781 -31.0435 -31.0385
   -31.0290 -31.0101 -30.5041 -30.4109 -30.3888 -30.3206 -30.2338 -30.1229
   -20.2994 -16.9171 -15.9336 -15.6624 -15.5159 -15.3815 -15.3065 -15.1836
   -15.1344 -15.0289 -14.9290 -14.8371 -14.7971 -14.7687 -14.7561 -14.7444
   -14.7280 -14.6515 -14.6480 -14.6169 -14.6060 -14.5750 -14.5446 -14.5219
   -14.5038 -14.4883 -14.4534 -14.3441 -14.2648 -14.2017 -14.1188 -12.5975
   -12.4802  -9.5394  -7.9990  -6.3795  -5.0439  -4.2218  -3.2784  -3.1225
    -3.0265  -3.0255  -3.0087  -2.8443  -2.7155  -2.5210  -2.3940  -2.3747
    -2.3294  -2.3103  -2.2896  -2.1808  -2.0959  -2.0519  -2.0082  -1.9636
    -1.9253  -1.9002  -1.8912  -1.8775  -1.8584  -1.8548  -1.7494  -1.6477
    -1.5878  -1.5687  -1.5503  -1.5121  -1.4525  -1.4189  -1.3988  -1.3957
    -1.3596  -1.3438  -1.3237  -1.2983  -1.1487  -1.0535  -1.0345  -0.9713
    -0.8451  -0.8045  -0.7475  -0.6746  -0.6718  -0.5926  -0.5884  -0.5498
    -0.5282  -0.4954  -0.4525  -0.3171  -0.2101  -0.1931  -0.1487  -0.1040
    -0.0611  -0.0462   0.1054   0.1087   0.1205   0.1435   0.3196   0.3233
     0.3810   0.3990   0.4549   0.4622   0.4940   0.5614   0.6326   0.6648
     0.6993   0.7769   0.8274   0.8300   0.8376   0.8458   0.8772   0.9635
     0.9919   1.0125   1.0544   1.1931   1.3110   1.4993   1.5044   1.8367
     1.8516   1.9278   2.1124   2.5030   2.5509   3.9819   4.0558   4.1233
     4.1356   4.1418   4.2202   4.3303   4.4610   4.4707   4.4830   4.4898

[...]

          k = 0.0380-0.0419 0.0000 ( 17876 PWs)   bands (ev):

[...]

          k =-0.0760-0.0000 0.0000 ( 17886 PWs)   bands (ev):

[...]

          k =-0.0760-0.0839 0.0000 ( 17948 PWs)   bands (ev):

   -55.0994 -55.0990 -55.0564 -55.0560 -54.9943 -54.9836 -54.9790 -54.9702
   -54.9488 -54.9233 -54.9127 -54.9107 -54.8844 -54.8831 -54.0781 -54.0780
   -31.4895 -31.4891 -31.4850 -31.4023 -31.3798 -31.3793 -31.3755 -31.3480
   -31.3477 -31.3261 -31.3189 -31.3165 -31.3092 -31.2749 -31.2668 -31.2466
   -31.2462 -31.2434 -31.2411 -31.2401 -31.2366 -31.2283 -31.2196 -31.1950
   -31.1923 -31.1889 -31.1803 -31.1796 -31.1760 -31.1758 -31.1631 -31.1459
   -31.1445 -31.1436 -31.1305 -31.1263 -31.1238 -31.1111 -31.1105 -31.1096
   -31.0652 -31.0633 -30.4015 -30.4014 -30.3167 -30.3166 -30.2772 -30.2772
   -20.2950 -16.9200 -15.3649 -15.3538 -15.3210 -15.1060 -15.1058 -15.0896
   -15.0794 -14.9338 -14.9011 -14.8844 -14.8744 -14.8230 -14.8144 -14.8132
   -14.8046 -14.7027 -14.6994 -14.6976 -14.6907 -14.6227 -14.6155 -14.6056
   -14.5746 -14.5630 -14.5588 -14.4622 -14.4596 -14.4583 -14.4006 -12.5817
   -12.5817  -9.5695  -7.9902  -6.3406  -5.0161  -4.2243  -2.6265  -2.5868
    -2.5182  -2.3227  -2.3140  -2.2872  -2.2004  -2.1659  -2.1056  -2.0895
    -2.0771  -2.0354  -1.9966  -1.9878  -1.9503  -1.9417  -1.9315  -1.9105
    -1.8906  -1.8568  -1.8356  -1.8257  -1.7930  -1.7731  -1.7604  -1.7524
    -1.7250  -1.7010  -1.6882  -1.6745  -1.5973  -1.5053  -1.4645  -1.3921
    -1.3107  -1.3056  -1.2996  -1.2147  -1.1905  -1.1621  -1.1489  -1.0978
    -1.0427  -0.9670  -0.8866  -0.8553  -0.8485  -0.8190  -0.7183  -0.6915
    -0.6454  -0.6085  -0.5970  -0.5449  -0.4283  -0.4265  -0.3860  -0.3221
    -0.3032  -0.2411  -0.1320  -0.1029  -0.0720  -0.0694  -0.0210   0.0052
     0.0194   0.0844   0.1170   0.1509   0.1682   0.2314   0.3934   0.4031
     0.4939   0.5244   0.5911   0.7591   0.7884   0.8092   0.9334   0.9664
     0.9988   1.0496   1.0960   1.1909   1.1984   1.2876   1.3374   1.3516
     1.3580   2.2856   2.2861   2.3708   2.3710   4.1076   4.2351   4.2559
     4.2943   4.3367   4.5040   4.5111   4.5657   4.5667   4.6038   4.6430

     the Fermi energy is     4.0419 ev

!    total energy              =   -2951.54871925 Ry
     estimated scf accuracy    <       0.00000006 Ry
     smearing contrib. (-TS)   =      -0.03721476 Ry
     internal energy E=F+TS    =   -2951.51150448 Ry

     The total energy is F=E-TS. E is the sum of the following terms:
     one-electron contribution =  -23928.85171499 Ry
     hartree contribution      =   12058.72814454 Ry
     xc contribution           =    -487.45384362 Ry
     ewald contribution        =    9406.06010342 Ry
     electric field correction =       0.00580617 Ry

     convergence has been achieved in  70 iterations

     Forces acting on atoms (cartesian axes, Ry/au):

     atom    1 type  1   force =     0.00000207    0.00001874    0.10378124
     atom    2 type  1   force =    -0.00000674    0.00001383    0.10378228
     atom    3 type  2   force =     0.00003486   -0.00018440    0.09366109
     atom    4 type  2   force =    -0.00000739   -0.00013776    0.09334103
     atom    5 type  2   force =    -0.00020594   -0.00038202   -0.17780512
     atom    6 type  2   force =    -0.00018605   -0.00030370   -0.17789336
     atom    7 type  1   force =    -0.07063732   -0.00006407   -0.02703146
     atom    8 type  1   force =    -0.07064525   -0.00004309   -0.02702186
     atom    9 type  1   force =     0.07045946    0.00038147   -0.02707258
     atom   10 type  1   force =     0.07044995    0.00039050   -0.02703975
     atom   11 type  1   force =    -0.00003973   -0.00187219    0.05772749
     atom   12 type  1   force =     0.00001834   -0.00159714    0.05729540
     atom   13 type  1   force =     0.00003238   -0.00021956   -0.02103942
     atom   14 type  1   force =     0.00006256   -0.00035425   -0.02010992
     atom   15 type  2   force =    -0.00034585    0.00219859   -0.01417830
     atom   16 type  2   force =    -0.00014822    0.00520257   -0.01502087
     atom   17 type  2   force =    -0.00009360    0.00330227    0.00054466
     atom   18 type  2   force =     0.00004743   -0.00379516    0.00039713
     atom   19 type  1   force =    -0.01055011   -0.00135422    0.00704030
     atom   20 type  1   force =    -0.01085850   -0.00104040    0.00697993
     atom   21 type  1   force =     0.01217244   -0.00075002    0.00656694
     atom   22 type  1   force =     0.01237284   -0.00067172    0.00648895
     atom   23 type  1   force =    -0.00110759   -0.00065606   -0.00096715
     atom   24 type  1   force =    -0.00064578   -0.00141484   -0.00129605
     atom   25 type  1   force =     0.00001612    0.00022282    0.00027229
     atom   26 type  1   force =     0.00001593    0.00003397   -0.00010737
     atom   27 type  2   force =     0.00000769    0.00034127    0.00000052
     atom   28 type  2   force =     0.00006354   -0.00013854    0.00010416
     atom   29 type  2   force =    -0.00001224    0.00008378   -0.00017991
     atom   30 type  2   force =     0.00009402   -0.00004032   -0.00009897
     atom   31 type  1   force =    -0.00010321   -0.00010974   -0.00000280
     atom   32 type  1   force =    -0.00026048    0.00002573   -0.00006302
     atom   33 type  1   force =     0.00007611   -0.00002567   -0.00010597
     atom   34 type  1   force =     0.00011543   -0.00004438   -0.00008877
     atom   35 type  1   force =    -0.00000314   -0.00003639    0.00004493
     atom   36 type  1   force =    -0.00012242   -0.00020930   -0.00014486
     atom   37 type  1   force =     0.00009073   -0.00000005   -0.00045194
     atom   38 type  1   force =    -0.00016717    0.00028274   -0.00071879
     atom   39 type  2   force =     0.00018679    0.00001379    0.00053038
     atom   40 type  2   force =     0.00002994    0.00034345    0.00009644
     atom   41 type  2   force =    -0.00019111   -0.00044946    0.00123640
     atom   42 type  2   force =     0.00000952    0.00107984    0.00139939
     atom   43 type  1   force =     0.00032908    0.00033973   -0.00025857
     atom   44 type  1   force =     0.00024731    0.00025639   -0.00025504
     atom   45 type  1   force =    -0.00035571    0.00019364   -0.00032902
     atom   46 type  1   force =    -0.00043342    0.00035370   -0.00006435
     atom   47 type  1   force =    -0.00037312    0.00004290    0.00026381
     atom   48 type  3   force =     0.00846946   -0.00160731   -0.02865737
     atom   49 type  4   force =     0.00060329    0.00109561   -0.00122885
     atom   50 type  4   force =    -0.00071119   -0.00397887    0.00438810
     atom   51 type  5   force =    -0.00192396    0.00289965    0.00418973
     atom   52 type  4   force =    -0.00031489    0.00139556    0.00224061
     atom   53 type  1   force =    -0.00555714    0.00096808    0.01685825

     Total force =     0.367550     Total SCF correction =     0.000596
  @ DRIVER MODE: Message from server: STATUS
  @ DRIVER MODE: Message from server: GETFORCE
  @ DRIVER MODE: Returning v,forces,stress,ensemble

     Writing output data file ./calc.save/
  @ DRIVER MODE: Message from server: EXIT
  @ DRIVE MODE: Exiting

     General routines

     Parallel routines

   This run was terminated on:  22:56: 4  26Sep2021

   JOB DONE.