     Program PWSCF v.6.7GPU starts on  9Sep2021 at  8:12:36

     R & G space division:  proc/nbgrp/npool/nimage =      10
     Reading input from /storage/home/hcoda1/3/ntian30/research/carbon/CxH_vib/CH3_calc/ads_slab/CH3NNHHH_a/out_0031/pw.inp
Warning: card &CELL ignored
Warning: card   CELL_DYNAMICS='IPI', ignored
Warning: card / ignored

     Current dimensions of program PWSCF are:
     Max number of different atomic species (ntypx) = 10
     Max number of k-points (npk) =  40000
     Max angular momentum in pseudopotentials (lmaxx) =  3
     Presently no symmetry can be used with electric field

     Message from routine cell_base_init:
     DEPRECATED: use true lattice parameter, not A to a.u. conversion factor

     IMPORTANT: XC functional enforced from input :
     Exchange-correlation= BEEF-VDW
                           (   1   4  43  14   2   0   0)
     Any further DFT definition will be discarded
     Please, verify this is what you really want

  @ DRIVER MODE: Connecting to
 qe_1139763_2767399.sched-torque.pace.gatech.edu9o6xmbrz_scratch
  using UNIX socket
  @ DRIVER MODE: Message from server: STATUS
  @ DRIVER MODE: Message from server: INIT
  @ DRIVER MODE: Receiving replica           0          -1
  @ DRIVER MODE: Receiving encoded integer          25
  @ DRIVER MODE:  SCF:  T  FORCE:  T  STRESS:  F  VC:  F  ENSEMBLE:  F
  @ DRIVER MODE:  SCF:  T  FORCE:  T  STRESS:  F  VC:  F  ENSEMBLE:  F

     Using Slab Decomposition

     bravais-lattice index     =            0
     lattice parameter (alat)  =       1.8897  a.u.
     unit-cell volume          =    6658.9804 (a.u.)^3
     number of atoms/cell      =           56
     number of atomic types    =            5
     number of electrons       =       398.00
     number of Kohn-Sham states=          209
     kinetic-energy cutoff     =      29.3995  Ry
     charge density cutoff     =     293.9946  Ry
     scf convergence threshold =      7.3E-08
     mixing beta               =       0.0500
     number of iterations used =            8  plain     mixing
     Exchange-correlation= BEEF-VDW
                           (   1   4  43  14   2   0   0)

     celldm(1)=   1.889726  celldm(2)=   0.000000  celldm(3)=   0.000000
     celldm(4)=   0.000000  celldm(5)=   0.000000  celldm(6)=   0.000000

     crystal axes: (cart. coord. in units of alat)
               a(1) = (   6.579727   0.000000   0.000000 )
               a(2) = (  -0.000775   5.961596   0.000000 )
               a(3) = (   0.000000   0.000000  25.155947 )

     reciprocal axes: (cart. coord. in units 2 pi/alat)
               b(1) = (  0.151982  0.000020  0.000000 )
               b(2) = (  0.000000  0.167740  0.000000 )
               b(3) = (  0.000000  0.000000  0.039752 )

     PseudoPot. # 1 for Ti read from file:
     /storage/coda1/p-amedford6/0/shared/rich_project_chbe-medford/medford-share/data/pseudos_module/espresso/nninc/pbe/van/Ti.UPF
     MD5 check sum: 8e4df49b7f0d34bbd5052bf3f5ea0213
     Pseudo is Ultrasoft, Zval = 12.0
     Generated by new atomic code, or converted to UPF format
     Using radial grid of  851 points,  6 beta functions with:
                l(1) =   0
                l(2) =   0
                l(3) =   1
                l(4) =   1
                l(5) =   2
                l(6) =   2
     Q(r) pseudized with  8 coefficients,  rinner =    1.000   1.000   1.000
                                                       1.000   1.000

     PseudoPot. # 2 for O  read from file:
     /storage/coda1/p-amedford6/0/shared/rich_project_chbe-medford/medford-share/data/pseudos_module/espresso/nninc/pbe/van/O.UPF
     MD5 check sum: 78c19812648e8988a0fe644b0f25305e
     Pseudo is Ultrasoft, Zval =  6.0
     Generated by new atomic code, or converted to UPF format
     Using radial grid of  737 points,  4 beta functions with:
                l(1) =   0
                l(2) =   0
                l(3) =   1
                l(4) =   1
     Q(r) pseudized with  8 coefficients,  rinner =    0.800   0.800   0.800

     PseudoPot. # 3 for N  read from file:
     /storage/coda1/p-amedford6/0/shared/rich_project_chbe-medford/medford-share/data/pseudos_module/espresso/nninc/pbe/van/N.UPF
     MD5 check sum: 90d10febe142ad51ac9d5be1deb811c4
     Pseudo is Ultrasoft, Zval =  5.0
     Generated by new atomic code, or converted to UPF format
     Using radial grid of  729 points,  4 beta functions with:
                l(1) =   0
                l(2) =   0
                l(3) =   1
                l(4) =   1
     Q(r) pseudized with  8 coefficients,  rinner =    0.800   0.800   0.800

     PseudoPot. # 4 for C  read from file:
     /storage/coda1/p-amedford6/0/shared/rich_project_chbe-medford/medford-share/data/pseudos_module/espresso/nninc/pbe/van/C.UPF
     MD5 check sum: 1a69bf6b8db32088f5b2163dbdb77a27
     Pseudo is Ultrasoft, Zval =  4.0
     Generated by new atomic code, or converted to UPF format
     Using radial grid of  721 points,  4 beta functions with:
                l(1) =   0
                l(2) =   0
                l(3) =   1
                l(4) =   1
     Q(r) pseudized with  8 coefficients,  rinner =    0.800   0.800   0.800

     PseudoPot. # 5 for H  read from file:
     /storage/coda1/p-amedford6/0/shared/rich_project_chbe-medford/medford-share/data/pseudos_module/espresso/nninc/pbe/van/H.UPF
     MD5 check sum: b5ee9d7bfd3a09ee7748110bda690ff7
     Pseudo is Ultrasoft, Zval =  1.0
     Generated by new atomic code, or converted to UPF format
     Using radial grid of  615 points,  1 beta functions with:
                l(1) =   0
     Q(r) pseudized with  8 coefficients,  rinner =    0.800

     atomic species   valence    mass     pseudopotential
        Ti1           12.00    47.86700     Ti( 1.00)
        O1             6.00    15.99900     O ( 1.00)
        N1             5.00    14.00700     N ( 1.00)
        C1             4.00    12.01100     C ( 1.00)
        H1             1.00     1.00800     H ( 1.00)

     No symmetry found

   Cartesian axes

     site n.     atom                  positions (alat units)
         1           Ti1 tau(   1) = (   0.0004258   2.9801865   6.0000000  )
         2           Ti1 tau(   2) = (   3.2906075   1.4906267   6.0002472  )
         3           O1  tau(   3) = (   0.0006271   0.0005054   7.9858123  )
         4           O1  tau(   4) = (   3.2906025   0.0005020   7.3038282  )
         5           O1  tau(   5) = (   4.5942328   1.4918067   9.2879030  )
         6           O1  tau(   6) = (   1.9868534   1.4903216   9.2879459  )
         7           Ti1 tau(   7) = (   3.2907910   2.8959150   9.1758416  )
         8           Ti1 tau(   8) = (   0.0015273   1.4827037   9.2680791  )
         9           O1  tau(   9) = (   3.3120675   0.0079458  11.3762204  )
        10           O1  tau(  10) = (   0.0116148   5.9584955  10.6183126  )
        11           O1  tau(  11) = (   1.3148726   1.5133626  12.6447579  )
        12           O1  tau(  12) = (   5.3140862   1.5122126  12.6508301  )
        13           Ti1 tau(  13) = (   0.0289753   2.9995974  12.5105963  )
        14           Ti1 tau(  14) = (   3.3300932   1.5144954  12.5190352  )
        15           O1  tau(  15) = (   0.0303621   0.0967028  14.6836000  )
        16           O1  tau(  16) = (   3.3188409   0.0235386  14.0025835  )
        17           O1  tau(  17) = (   4.5661268   1.5053193  16.2317874  )
        18           O1  tau(  18) = (   2.0488868   1.5039614  16.2002260  )
        19           Ti1 tau(  19) = (   3.3211226   2.9745325  15.7560014  )
        20           Ti1 tau(  20) = (   0.0641794   1.4487855  16.0607878  )
        21           O1  tau(  21) = (   3.2904802   0.0005063   4.7018136  )
        22           O1  tau(  22) = (   0.0207051   5.8381987  17.2232637  )
        23           O1  tau(  23) = (   1.3043587   1.4918075   6.0039043  )
        24           O1  tau(  24) = (   5.2767064   1.4903225   6.0039473  )
        25           Ti1 tau(  25) = (   0.0000382   5.9609847   6.0000000  )
        26           Ti1 tau(  26) = (   3.2902200   4.4714249   6.0002472  )
        27           O1  tau(  27) = (   0.0002396   2.9813036   7.9858123  )
        28           O1  tau(  28) = (   3.2902150   2.9813002   7.3038282  )
        29           O1  tau(  29) = (   4.5938453   4.4726049   9.2879030  )
        30           O1  tau(  30) = (   1.9864658   4.4711199   9.2879459  )
        31           Ti1 tau(  31) = (   3.2891106   5.8743827   9.1763621  )
        32           Ti1 tau(  32) = (   0.0006254   4.4649316   9.2693709  )
        33           O1  tau(  33) = (   3.3137607   3.0039157  11.3695003  )
        34           O1  tau(  34) = (   0.0092240   2.9805883  10.6323155  )
        35           O1  tau(  35) = (   1.3103219   4.4840529  12.6837359  )
        36           O1  tau(  36) = (   5.3166572   4.4842854  12.6901167  )
        37           Ti1 tau(  37) = (   0.0376818   0.0300362  12.4998423  )
        38           Ti1 tau(  38) = (   3.3279277   4.4933691  12.5326681  )
        39           O1  tau(  39) = (   0.0236785   2.9473731  14.9547601  )
        40           O1  tau(  40) = (   3.3158584   2.9778716  13.9675922  )
        41           O1  tau(  41) = (   4.5769684   4.4551829  16.1482216  )
        42           O1  tau(  42) = (   2.0574928   4.4544973  16.1629196  )
        43           Ti1 tau(  43) = (   3.3270828   0.0048838  15.7999907  )
        44           Ti1 tau(  44) = (   0.0216784   4.6657176  15.8371636  )
        45           O1  tau(  45) = (   3.2900926   2.9813045   4.7018136  )
        46           O1  tau(  46) = (   1.3039711   4.4726057   6.0039043  )
        47           O1  tau(  47) = (   5.2763189   4.4711207   6.0039473  )
        48           N1  tau(  48) = (   1.0300599   3.1028741  18.8625222  )
        49           N1  tau(  49) = (   6.4529598   2.6395754  18.1308714  )
        50           C1  tau(  50) = (   0.6566364   3.8075245  20.0867497  )
        51           H1  tau(  51) = (   6.5334193   4.6337433  19.9095685  )
        52           H1  tau(  52) = (   0.2127083   3.1054723  20.7945791  )
        53           H1  tau(  53) = (   1.5544534   4.2160081  20.5287796  )
        54           H1  tau(  54) = (   5.6912064   3.3271340  18.1715891  )
        55           H1  tau(  55) = (   6.1153184   1.7991689  18.5966666  )
        56           H1  tau(  56) = (   1.4989484   3.7555826  18.2384742  )

     number of k points=    10  Fermi-Dirac smearing, width (Ry)=  0.0073
                       cart. coord. in units 2pi/alat
        k(    1) = (   0.0000000   0.0000000   0.0000000), wk =   0.1250000
        k(    2) = (   0.0000000   0.0419351   0.0000000), wk =   0.2500000
        k(    3) = (   0.0000000  -0.0838702   0.0000000), wk =   0.1250000
        k(    4) = (   0.0379955   0.0000049   0.0000000), wk =   0.2500000
        k(    5) = (   0.0379955   0.0419400   0.0000000), wk =   0.2500000
        k(    6) = (   0.0379955  -0.0838652   0.0000000), wk =   0.2500000
        k(    7) = (   0.0379955  -0.0419301   0.0000000), wk =   0.2500000
        k(    8) = (  -0.0759910  -0.0000099   0.0000000), wk =   0.1250000
        k(    9) = (  -0.0759910   0.0419252   0.0000000), wk =   0.2500000
        k(   10) = (  -0.0759910  -0.0838800   0.0000000), wk =   0.1250000

     Initial potential from superposition of free atoms

     starting charge  381.99914, renormalised to  398.00000

     negative rho (up, down):  1.340E-02 0.000E+00

     %%%%%%%%%%%%%%%%%%%%%%%%%%%%%%%%%%%%%%%%%%%%%%%%%%%%%%%%%%%%%%%%%%%%%%%%
     %                                                                      %
     % You are using vdW-DF, which was implemented by the Thonhauser group. %
     % Please cite the following two papers that made this development      %
     % possible and the two reviews that describe the various versions:     %
     %                                                                      %
     %   T. Thonhauser et al., PRL 115, 136402 (2015).                      %
     %   T. Thonhauser et al., PRB 76, 125112 (2007).                       %
     %   K. Berland et al., Rep. Prog. Phys. 78, 066501 (2015).             %
     %   D.C. Langreth et al., J. Phys.: Condens. Matter 21, 084203 (2009). %
     %                                                                      %
     %                                                                      %
     % If you are calculating the stress with vdW-DF, please also cite:     %
     %                                                                      %
     %   R. Sabatini et al., J. Phys.: Condens. Matter 24, 424209 (2012).   %
     %                                                                      %
     %%%%%%%%%%%%%%%%%%%%%%%%%%%%%%%%%%%%%%%%%%%%%%%%%%%%%%%%%%%%%%%%%%%%%%%%

     Adding external electric field

     Computed dipole along edir(3) :
        Dipole              -11.7464 Ry au,        -29.8564 Debye
        Dipole field         -0.0222 Ry au,

        Potential amp.        2.0549 Ry
        Total length         46.3494 bohr

     Starting wfcs are  302 atomic wfcs
  @ DRIVER MODE: Message from server: STATUS
  @ DRIVER MODE: Message from server: POSDATA
  @ DRIVER MODE: Reading and sharing cell
  @ DRIVER MODE: Reading and sharing positions
  @ DRIVER MODE: Received positions

     Self-consistent Calculation

     iteration #  1     ecut=    29.40 Ry     beta= 0.05
     Davidson diagonalization with overlap
     c_bands:  1 eigenvalues not converged
     c_bands:  1 eigenvalues not converged
     c_bands:  1 eigenvalues not converged
     c_bands:  3 eigenvalues not converged
     c_bands:  3 eigenvalues not converged
     c_bands:  3 eigenvalues not converged
     c_bands:  4 eigenvalues not converged
     c_bands:  2 eigenvalues not converged
     ethr =  1.00E-05,  avg # of iterations = 21.6

[...]

     total energy              =   -2428.06990286 Ry
     estimated scf accuracy    <    5789.77215026 Ry

     iteration #  2     ecut=    29.40 Ry     beta= 0.05
     Davidson diagonalization with overlap
     ethr =  1.00E-02,  avg # of iterations = 21.9

[...]

     iteration # 66     ecut=    29.40 Ry     beta= 0.05
     Davidson diagonalization with overlap
     c_bands:  1 eigenvalues not converged
     c_bands:  1 eigenvalues not converged
     ethr =  5.16E-11,  avg # of iterations = 15.4

[...]

     total energy              =   -2942.85965525 Ry
     estimated scf accuracy    <       0.00000013 Ry

     iteration # 69     ecut=    29.40 Ry     beta= 0.05
     Davidson diagonalization with overlap
     ethr =  3.28E-11,  avg # of iterations =  9.6

     negative rho (up, down):  1.466E-02 0.000E+00

     Adding external electric field

     Computed dipole along edir(3) :
        Dipole                1.2238 Ry au,          3.1106 Debye
        Dipole field          0.0023 Ry au,

        Potential amp.       -0.2141 Ry
        Total length         46.3494 bohr

     End of self-consistent calculation

          k = 0.0000 0.0000 0.0000 ( 18029 PWs)   bands (ev):

   -55.3487 -55.3118 -55.3009 -55.2696 -55.2668 -55.2326 -55.2254 -55.1901
   -55.1689 -55.1452 -55.1345 -55.1325 -55.0989 -55.0264 -54.3308 -54.2967
   -31.9172 -31.8012 -31.7934 -31.7140 -31.6644 -31.6583 -31.6517 -31.6381
   -31.5900 -31.5895 -31.5582 -31.5529 -31.5458 -31.5297 -31.5186 -31.5111
   -31.5040 -31.4887 -31.4861 -31.4661 -31.4534 -31.4455 -31.4187 -31.4147
   -31.4035 -31.4009 -31.3998 -31.3716 -31.3580 -31.3560 -31.3509 -31.3314
   -31.3283 -31.3201 -31.3189 -31.3167 -31.2826 -31.2687 -31.2608 -31.2438
   -31.2328 -31.2082 -30.7402 -30.6459 -30.6238 -30.5565 -30.4697 -30.3588
   -17.7982 -16.1848 -15.9172 -15.7772 -15.6674 -15.5484 -15.4299 -15.4104
   -15.2783 -15.1954 -15.0754 -15.0524 -15.0260 -15.0069 -14.9945 -14.9796
   -14.8942 -14.8880 -14.8706 -14.8433 -14.8369 -14.7942 -14.7868 -14.7473
   -14.7257 -14.7244 -14.5958 -14.5082 -14.4364 -14.1999 -13.1808 -12.8333
   -12.7159  -9.7462  -6.3720  -5.3920  -4.8980  -3.5373  -3.4959  -3.3687
    -3.2794  -3.2641  -3.2416  -3.1054  -2.9522  -2.7822  -2.7727  -2.7628
    -2.6386  -2.5609  -2.5546  -2.5299  -2.3785  -2.3569  -2.3058  -2.2404
    -2.2127  -2.1648  -2.1539  -2.1327  -2.1132  -2.0933  -2.0851  -1.9712
    -1.9203  -1.8276  -1.7717  -1.7444  -1.7087  -1.6808  -1.6658  -1.6384
    -1.6303  -1.5879  -1.5608  -1.5390  -1.4879  -1.3757  -1.2668  -1.2368
    -1.1392  -0.9872  -0.9547  -0.9411  -0.9298  -0.8531  -0.8360  -0.7882
    -0.7353  -0.7270  -0.6962  -0.5853  -0.5269  -0.4618  -0.3953  -0.3836
    -0.3368  -0.2751  -0.1627  -0.1384  -0.1159  -0.0909   0.0029   0.0424
     0.0873   0.1622   0.1814   0.1950   0.3018   0.3096   0.3897   0.4018
     0.4473   0.5338   0.5681   0.5904   0.5943   0.6078   0.6377   0.7049
     0.7291   0.7554   0.8305   0.9544   1.0249   1.1865   1.2495   1.2630
     1.5928   1.5969   1.6920   1.8758   2.2682   2.3165   3.7487   3.8182
     3.8931   3.8997   3.9118   3.9854   4.2227   4.2390   4.2513   4.2575
     4.2923

[...]

          k = 0.0380-0.0419 0.0000 ( 17876 PWs)   bands (ev):

[...]

          k =-0.0760-0.0000 0.0000 ( 17886 PWs)   bands (ev):

[...]

          k =-0.0760-0.0839 0.0000 ( 17948 PWs)   bands (ev):

   -55.3345 -55.3258 -55.2839 -55.2836 -55.2681 -55.2292 -55.2119 -55.2036
   -55.1533 -55.1495 -55.1486 -55.1159 -55.1156 -55.0277 -54.3137 -54.3137
   -31.7243 -31.7213 -31.7179 -31.6342 -31.6085 -31.6084 -31.6058 -31.5752
   -31.5751 -31.5571 -31.5497 -31.5473 -31.5413 -31.5111 -31.5045 -31.4863
   -31.4860 -31.4820 -31.4787 -31.4735 -31.4704 -31.4696 -31.4324 -31.4275
   -31.4253 -31.4205 -31.4165 -31.4052 -31.4035 -31.4033 -31.3965 -31.3869
   -31.3827 -31.3664 -31.3630 -31.3470 -31.3463 -31.3370 -31.2968 -31.2966
   -31.2861 -31.2375 -30.6364 -30.6364 -30.5527 -30.5526 -30.5131 -30.5131
   -17.7935 -15.7083 -15.5963 -15.5500 -15.3768 -15.3546 -15.3320 -15.3173
   -15.1892 -15.1708 -15.1429 -15.1165 -15.0914 -15.0639 -15.0527 -15.0477
   -14.9652 -14.9533 -14.9459 -14.9298 -14.8618 -14.8589 -14.8546 -14.8487
   -14.7980 -14.7955 -14.7147 -14.7017 -14.7002 -14.5022 -13.1818 -12.8174
   -12.8173  -9.7427  -6.3595  -5.3917  -4.9041  -3.4696  -2.8650  -2.8299
    -2.8061  -2.7956  -2.5924  -2.5544  -2.5174  -2.5050  -2.4058  -2.3636
    -2.3459  -2.3387  -2.2683  -2.2649  -2.2341  -2.2041  -2.1830  -2.1660
    -2.1521  -2.1303  -2.1054  -2.0761  -2.0700  -2.0548  -2.0009  -1.9982
    -1.9824  -1.9604  -1.9430  -1.9219  -1.9054  -1.8487  -1.7265  -1.7162
    -1.6622  -1.5557  -1.5512  -1.4711  -1.4659  -1.4221  -1.3940  -1.3819
    -1.3547  -1.1745  -1.1210  -1.0947  -1.0872  -1.0755  -0.9667  -0.9327
    -0.8747  -0.8589  -0.8328  -0.7350  -0.6846  -0.6801  -0.5989  -0.5670
    -0.5281  -0.4863  -0.3851  -0.3554  -0.3357  -0.3066  -0.3032  -0.2496
    -0.2442  -0.1675  -0.1197  -0.0836  -0.0692  -0.0381   0.1613   0.1709
     0.1893   0.3362   0.3589   0.4991   0.5431   0.5850   0.6458   0.6974
     0.7633   0.8040   0.9310   0.9587   0.9595   1.0298   1.0504   1.0555
     1.1079   1.1098   2.0485   2.0491   2.1363   2.1366   3.8918   3.9963
     4.0111   4.0565   4.1664   4.2403   4.2633   4.2902   4.3329   4.3357
     4.3999

     the Fermi energy is     3.8115 ev

!    total energy              =   -2942.85967935 Ry
     estimated scf accuracy    <       0.00000006 Ry
     smearing contrib. (-TS)   =      -0.03701473 Ry
     internal energy E=F+TS    =   -2942.82266462 Ry

     The total energy is F=E-TS. E is the sum of the following terms:
     one-electron contribution =  -23389.54566394 Ry
     hartree contribution      =   11787.31601766 Ry
     xc contribution           =    -487.76242562 Ry
     ewald contribution        =    9147.16658086 Ry
     electric field correction =       0.00282641 Ry

     convergence has been achieved in  69 iterations

     Forces acting on atoms (cartesian axes, Ry/au):

     atom    1 type  1   force =     0.00000109   -0.00025726    0.09311639
     atom    2 type  1   force =    -0.00014100   -0.00043394   -0.17825603
     atom    3 type  2   force =     0.00007431   -0.00009103   -0.02024079
     atom    4 type  2   force =     0.00001591   -0.00186814    0.05881151
     atom    5 type  2   force =    -0.01021368   -0.00054246    0.00774501
     atom    6 type  2   force =     0.01226412    0.00007561    0.00820302
     atom    7 type  1   force =     0.00038565    0.00327919   -0.01425663
     atom    8 type  1   force =    -0.00045557    0.00045874   -0.00455772
     atom    9 type  2   force =    -0.00002689   -0.00061904   -0.00036417
     atom   10 type  2   force =    -0.00059764    0.00091070   -0.00142131
     atom   11 type  2   force =    -0.00037867   -0.00012112    0.00021766
     atom   12 type  2   force =     0.00006873   -0.00006568    0.00002620
     atom   13 type  1   force =     0.00005406   -0.00032268    0.00016432
     atom   14 type  1   force =    -0.00036102    0.00013419    0.00040066
     atom   15 type  2   force =    -0.00015947    0.00080599    0.00022009
     atom   16 type  2   force =    -0.00008799   -0.00018905    0.00029845
     atom   17 type  2   force =    -0.00045377    0.00005498    0.00042969
     atom   18 type  2   force =     0.00014947   -0.00020584   -0.00008164
     atom   19 type  1   force =     0.00034719    0.00028552    0.00093491
     atom   20 type  1   force =    -0.00062326   -0.00069757    0.00034156
     atom   21 type  2   force =     0.00000213   -0.00010557    0.10392273
     atom   22 type  2   force =    -0.00019018    0.00002658   -0.00062566
     atom   23 type  2   force =    -0.07035217   -0.00022610   -0.02686965
     atom   24 type  2   force =     0.07025040    0.00020009   -0.02694989
     atom   25 type  1   force =     0.00001811   -0.00026926    0.09277706
     atom   26 type  1   force =    -0.00011714   -0.00044943   -0.17829271
     atom   27 type  2   force =     0.00013886   -0.00032760   -0.01926549
     atom   28 type  2   force =     0.00008241   -0.00154664    0.05820617
     atom   29 type  2   force =    -0.01021698   -0.00032873    0.00696410
     atom   30 type  2   force =     0.01216801   -0.00008604    0.00749789
     atom   31 type  1   force =     0.00039955    0.00496078   -0.01539587
     atom   32 type  1   force =    -0.00037613   -0.00033890   -0.00466485
     atom   33 type  2   force =    -0.00021958   -0.00047915    0.00016367
     atom   34 type  2   force =    -0.00014091    0.00364342   -0.00060709
     atom   35 type  2   force =     0.00002958   -0.00056508    0.00030693
     atom   36 type  2   force =    -0.00018737   -0.00053307   -0.00004407
     atom   37 type  1   force =    -0.00026049   -0.00050098    0.00047438
     atom   38 type  1   force =    -0.00019501   -0.00090295    0.00043949
     atom   39 type  2   force =    -0.00047884   -0.00051653    0.00052032
     atom   40 type  2   force =     0.00001554   -0.00048513   -0.00043722
     atom   41 type  2   force =    -0.00080314   -0.00012172   -0.00011630
     atom   42 type  2   force =     0.00031222   -0.00025900   -0.00030403
     atom   43 type  1   force =     0.00005574   -0.00031761   -0.00003683
     atom   44 type  1   force =    -0.00008160   -0.00064969    0.00071830
     atom   45 type  2   force =     0.00001261   -0.00014180    0.10390256
     atom   46 type  2   force =    -0.07039758   -0.00017980   -0.02688177
     atom   47 type  2   force =     0.07026191    0.00025991   -0.02695261
     atom   48 type  3   force =     0.00097680    0.00181331   -0.00030186
     atom   49 type  3   force =     0.00027023    0.00107021   -0.00017302
     atom   50 type  4   force =    -0.01078173   -0.00319582   -0.00336663
     atom   51 type  5   force =    -0.00114572   -0.00022633   -0.00017365
     atom   52 type  5   force =    -0.00008631   -0.00023639    0.00015173
     atom   53 type  5   force =     0.01050418    0.00364246    0.00454772
     atom   54 type  5   force =     0.00003642   -0.00054264   -0.00039015
     atom   55 type  5   force =     0.00052997   -0.00174562   -0.00032474
     atom   56 type  5   force =     0.00010466   -0.00093031   -0.00015015

     Total force =     0.366506     Total SCF correction =     0.000744
  @ DRIVER MODE: Message from server: STATUS
  @ DRIVER MODE: Message from server: GETFORCE
  @ DRIVER MODE: Returning v,forces,stress,ensemble

     Writing output data file ./calc.save/
  @ DRIVER MODE: Message from server: EXIT
  @ DRIVE MODE: Exiting

     General routines

     Parallel routines

   This run was terminated on:   8:31:49   9Sep2021

   JOB DONE.