     Program PWSCF v.6.7GPU starts on 11Sep2021 at  2:20:17

     R & G space division:  proc/nbgrp/npool/nimage =      10
     Reading input from /storage/home/hcoda1/3/ntian30/research/carbon/CxH_vib/CH2_calc/ads_slab/CH2N2H_e/out_0025/pw.inp
Warning: card &CELL ignored
Warning: card   CELL_DYNAMICS='IPI', ignored
Warning: card / ignored

     Current dimensions of program PWSCF are:
     Max number of different atomic species (ntypx) = 10
     Max number of k-points (npk) =  40000
     Max angular momentum in pseudopotentials (lmaxx) =  3
     Presently no symmetry can be used with electric field

     Message from routine cell_base_init:
     DEPRECATED: use true lattice parameter, not A to a.u. conversion factor

     IMPORTANT: XC functional enforced from input :
     Exchange-correlation= BEEF-VDW
                           (   1   4  43  14   2   0   0)
     Any further DFT definition will be discarded
     Please, verify this is what you really want

  @ DRIVER MODE: Connecting to
 qe_1139763_2792041.sched-torque.pace.gatech.eduprg2wd9i_scratch
  using UNIX socket
  @ DRIVER MODE: Message from server: STATUS
  @ DRIVER MODE: Message from server: INIT
  @ DRIVER MODE: Receiving replica           0          -1
  @ DRIVER MODE: Receiving encoded integer          25
  @ DRIVER MODE:  SCF:  T  FORCE:  T  STRESS:  F  VC:  F  ENSEMBLE:  F
  @ DRIVER MODE:  SCF:  T  FORCE:  T  STRESS:  F  VC:  F  ENSEMBLE:  F

     Using Slab Decomposition

     bravais-lattice index     =            0
     lattice parameter (alat)  =       1.8897  a.u.
     unit-cell volume          =    6658.9804 (a.u.)^3
     number of atoms/cell      =           53
     number of atomic types    =            5
     number of electrons       =       395.00
     number of Kohn-Sham states=          207
     kinetic-energy cutoff     =      29.3995  Ry
     charge density cutoff     =     293.9946  Ry
     scf convergence threshold =      7.3E-08
     mixing beta               =       0.0500
     number of iterations used =            8  plain     mixing
     Exchange-correlation= BEEF-VDW
                           (   1   4  43  14   2   0   0)

     celldm(1)=   1.889726  celldm(2)=   0.000000  celldm(3)=   0.000000
     celldm(4)=   0.000000  celldm(5)=   0.000000  celldm(6)=   0.000000

     crystal axes: (cart. coord. in units of alat)
               a(1) = (   6.579727   0.000000   0.000000 )
               a(2) = (  -0.000775   5.961596   0.000000 )
               a(3) = (   0.000000   0.000000  25.155947 )

     reciprocal axes: (cart. coord. in units 2 pi/alat)
               b(1) = (  0.151982  0.000020  0.000000 )
               b(2) = (  0.000000  0.167740  0.000000 )
               b(3) = (  0.000000  0.000000  0.039752 )

     PseudoPot. # 1 for Ti read from file:
     /storage/coda1/p-amedford6/0/shared/rich_project_chbe-medford/medford-share/data/pseudos_module/espresso/nninc/pbe/van/Ti.UPF
     MD5 check sum: 8e4df49b7f0d34bbd5052bf3f5ea0213
     Pseudo is Ultrasoft, Zval = 12.0
     Generated by new atomic code, or converted to UPF format
     Using radial grid of  851 points,  6 beta functions with:
                l(1) =   0
                l(2) =   0
                l(3) =   1
                l(4) =   1
                l(5) =   2
                l(6) =   2
     Q(r) pseudized with  8 coefficients,  rinner =    1.000   1.000   1.000
                                                       1.000   1.000

     PseudoPot. # 2 for O  read from file:
     /storage/coda1/p-amedford6/0/shared/rich_project_chbe-medford/medford-share/data/pseudos_module/espresso/nninc/pbe/van/O.UPF
     MD5 check sum: 78c19812648e8988a0fe644b0f25305e
     Pseudo is Ultrasoft, Zval =  6.0
     Generated by new atomic code, or converted to UPF format
     Using radial grid of  737 points,  4 beta functions with:
                l(1) =   0
                l(2) =   0
                l(3) =   1
                l(4) =   1
     Q(r) pseudized with  8 coefficients,  rinner =    0.800   0.800   0.800

     PseudoPot. # 3 for N  read from file:
     /storage/coda1/p-amedford6/0/shared/rich_project_chbe-medford/medford-share/data/pseudos_module/espresso/nninc/pbe/van/N.UPF
     MD5 check sum: 90d10febe142ad51ac9d5be1deb811c4
     Pseudo is Ultrasoft, Zval =  5.0
     Generated by new atomic code, or converted to UPF format
     Using radial grid of  729 points,  4 beta functions with:
                l(1) =   0
                l(2) =   0
                l(3) =   1
                l(4) =   1
     Q(r) pseudized with  8 coefficients,  rinner =    0.800   0.800   0.800

     PseudoPot. # 4 for C  read from file:
     /storage/coda1/p-amedford6/0/shared/rich_project_chbe-medford/medford-share/data/pseudos_module/espresso/nninc/pbe/van/C.UPF
     MD5 check sum: 1a69bf6b8db32088f5b2163dbdb77a27
     Pseudo is Ultrasoft, Zval =  4.0
     Generated by new atomic code, or converted to UPF format
     Using radial grid of  721 points,  4 beta functions with:
                l(1) =   0
                l(2) =   0
                l(3) =   1
                l(4) =   1
     Q(r) pseudized with  8 coefficients,  rinner =    0.800   0.800   0.800

     PseudoPot. # 5 for H  read from file:
     /storage/coda1/p-amedford6/0/shared/rich_project_chbe-medford/medford-share/data/pseudos_module/espresso/nninc/pbe/van/H.UPF
     MD5 check sum: b5ee9d7bfd3a09ee7748110bda690ff7
     Pseudo is Ultrasoft, Zval =  1.0
     Generated by new atomic code, or converted to UPF format
     Using radial grid of  615 points,  1 beta functions with:
                l(1) =   0
     Q(r) pseudized with  8 coefficients,  rinner =    0.800

     atomic species   valence    mass     pseudopotential
        Ti1           12.00    47.86700     Ti( 1.00)
        O1             6.00    15.99900     O ( 1.00)
        N1             5.00    14.00700     N ( 1.00)
        C1             4.00    12.01100     C ( 1.00)
        H1             1.00     1.00800     H ( 1.00)

     No symmetry found

   Cartesian axes

     site n.     atom                  positions (alat units)
         1           Ti1 tau(   1) = (   0.0004258   2.9801865   6.0000000  )
         2           Ti1 tau(   2) = (   3.2906075   1.4906267   6.0002472  )
         3           O1  tau(   3) = (   0.0006271   0.0005054   7.9858123  )
         4           O1  tau(   4) = (   3.2906025   0.0005020   7.3038282  )
         5           O1  tau(   5) = (   4.5942328   1.4918067   9.2879030  )
         6           O1  tau(   6) = (   1.9868534   1.4903216   9.2879459  )
         7           Ti1 tau(   7) = (   3.2907910   2.8959150   9.1758416  )
         8           Ti1 tau(   8) = (   0.0015273   1.4827037   9.2680791  )
         9           O1  tau(   9) = (   3.2922140   0.0036562  11.3253104  )
        10           O1  tau(  10) = (   0.0116148   5.9584955  10.6183126  )
        11           O1  tau(  11) = (   1.2860832   1.4889729  12.6258215  )
        12           O1  tau(  12) = (   5.2729595   1.4828594  12.6177116  )
        13           Ti1 tau(  13) = (   0.0641184   3.0073180  12.5883652  )
        14           Ti1 tau(  14) = (   3.3767723   1.4911129  12.4765728  )
        15           O1  tau(  15) = (   6.5781935   5.9569561  14.6821271  )
        16           O1  tau(  16) = (   3.2819581   0.0025077  13.9050320  )
        17           O1  tau(  17) = (   4.5172158   1.5234625  16.0337941  )
        18           O1  tau(  18) = (   2.0475084   1.5263597  16.0453316  )
        19           Ti1 tau(  19) = (   3.2743797   3.0127756  15.6984511  )
        20           Ti1 tau(  20) = (   6.5512008   1.5842238  15.7855373  )
        21           O1  tau(  21) = (   3.2904802   0.0005063   4.7018136  )
        22           O1  tau(  22) = (   6.5742344   0.0609322  17.2932839  )
        23           O1  tau(  23) = (   1.3043587   1.4918075   6.0039043  )
        24           O1  tau(  24) = (   5.2767064   1.4903225   6.0039473  )
        25           Ti1 tau(  25) = (   0.0000382   5.9609847   6.0000000  )
        26           Ti1 tau(  26) = (   3.2902200   4.4714249   6.0002472  )
        27           O1  tau(  27) = (   0.0002396   2.9813036   7.9858123  )
        28           O1  tau(  28) = (   3.2902150   2.9813002   7.3038282  )
        29           O1  tau(  29) = (   4.5938453   4.4726049   9.2879030  )
        30           O1  tau(  30) = (   1.9864658   4.4711199   9.2879459  )
        31           Ti1 tau(  31) = (   3.2891106   5.8743827   9.1763621  )
        32           Ti1 tau(  32) = (   0.0006254   4.4649316   9.2693709  )
        33           O1  tau(  33) = (   3.2917412   2.9831059  11.3263362  )
        34           O1  tau(  34) = (   0.0092240   2.9805883  10.6323155  )
        35           O1  tau(  35) = (   1.2859270   4.4784489  12.6216084  )
        36           O1  tau(  36) = (   5.2779610   4.4756213  12.6128944  )
        37           Ti1 tau(  37) = (   0.0616295   0.0157230  12.5710002  )
        38           Ti1 tau(  38) = (   3.3796684   4.4726909  12.4790056  )
        39           O1  tau(  39) = (   6.5693437   2.9756239  14.6354252  )
        40           O1  tau(  40) = (   3.2842310   3.0020566  13.9003041  )
        41           O1  tau(  41) = (   4.5171552   4.5052370  16.0986928  )
        42           O1  tau(  42) = (   2.0408908   4.5012300  16.0971631  )
        43           Ti1 tau(  43) = (   3.2680294   0.0293594  15.7040856  )
        44           Ti1 tau(  44) = (   6.5592110   4.6908586  16.1766550  )
        45           O1  tau(  45) = (   3.2900926   2.9813045   4.7018136  )
        46           O1  tau(  46) = (   1.3039711   4.4726057   6.0039043  )
        47           O1  tau(  47) = (   5.2763189   4.4711207   6.0039473  )
        48           N1  tau(  48) = (   0.0931655   2.5901963  18.5587852  )
        49           N1  tau(  49) = (   6.5755498   2.9338716  17.3126873  )
        50           C1  tau(  50) = (   0.1889803   3.3462807  19.6294495  )
        51           H1  tau(  51) = (   0.2540540   2.8541835  20.5836859  )
        52           H1  tau(  52) = (   0.1790997   4.4171571  19.5098884  )
        53           H1  tau(  53) = (   0.0969130   1.5623892  18.6894177  )

     number of k points=    10  Fermi-Dirac smearing, width (Ry)=  0.0073
                       cart. coord. in units 2pi/alat
        k(    1) = (   0.0000000   0.0000000   0.0000000), wk =   0.1250000
        k(    2) = (   0.0000000   0.0419351   0.0000000), wk =   0.2500000
        k(    3) = (   0.0000000  -0.0838702   0.0000000), wk =   0.1250000
        k(    4) = (   0.0379955   0.0000049   0.0000000), wk =   0.2500000
        k(    5) = (   0.0379955   0.0419400   0.0000000), wk =   0.2500000
        k(    6) = (   0.0379955  -0.0838652   0.0000000), wk =   0.2500000
        k(    7) = (   0.0379955  -0.0419301   0.0000000), wk =   0.2500000
        k(    8) = (  -0.0759910  -0.0000099   0.0000000), wk =   0.1250000
        k(    9) = (  -0.0759910   0.0419252   0.0000000), wk =   0.2500000
        k(   10) = (  -0.0759910  -0.0838800   0.0000000), wk =   0.1250000

     Initial potential from superposition of free atoms

     starting charge  378.99916, renormalised to  395.00000

     negative rho (up, down):  1.523E-02 0.000E+00

     %%%%%%%%%%%%%%%%%%%%%%%%%%%%%%%%%%%%%%%%%%%%%%%%%%%%%%%%%%%%%%%%%%%%%%%%
     %                                                                      %
     % You are using vdW-DF, which was implemented by the Thonhauser group. %
     % Please cite the following two papers that made this development      %
     % possible and the two reviews that describe the various versions:     %
     %                                                                      %
     %   T. Thonhauser et al., PRL 115, 136402 (2015).                      %
     %   T. Thonhauser et al., PRB 76, 125112 (2007).                       %
     %   K. Berland et al., Rep. Prog. Phys. 78, 066501 (2015).             %
     %   D.C. Langreth et al., J. Phys.: Condens. Matter 21, 084203 (2009). %
     %                                                                      %
     %                                                                      %
     % If you are calculating the stress with vdW-DF, please also cite:     %
     %                                                                      %
     %   R. Sabatini et al., J. Phys.: Condens. Matter 24, 424209 (2012).   %
     %                                                                      %
     %%%%%%%%%%%%%%%%%%%%%%%%%%%%%%%%%%%%%%%%%%%%%%%%%%%%%%%%%%%%%%%%%%%%%%%%

     Adding external electric field

     Computed dipole along edir(3) :
        Dipole               -8.7485 Ry au,        -22.2364 Debye
        Dipole field         -0.0165 Ry au,

        Potential amp.        1.5304 Ry
        Total length         46.3494 bohr

     Starting wfcs are  299 atomic wfcs
  @ DRIVER MODE: Message from server: STATUS
  @ DRIVER MODE: Message from server: POSDATA
  @ DRIVER MODE: Reading and sharing cell
  @ DRIVER MODE: Reading and sharing positions
  @ DRIVER MODE: Received positions

     Self-consistent Calculation

     iteration #  1     ecut=    29.40 Ry     beta= 0.05
     Davidson diagonalization with overlap
     c_bands:  2 eigenvalues not converged
     c_bands:  1 eigenvalues not converged
     c_bands:  1 eigenvalues not converged
     c_bands:  3 eigenvalues not converged
     c_bands:  2 eigenvalues not converged
     c_bands:  1 eigenvalues not converged
     c_bands:  1 eigenvalues not converged
     ethr =  1.00E-05,  avg # of iterations = 19.1

[...]

     total energy              =   -2617.00442425 Ry
     estimated scf accuracy    <    3577.48521953 Ry

     iteration #  2     ecut=    29.40 Ry     beta= 0.05
     Davidson diagonalization with overlap
     ethr =  1.00E-02,  avg # of iterations = 22.0

[...]

     iteration # 45     ecut=    29.40 Ry     beta= 0.05
     Davidson diagonalization with overlap
     c_bands:  1 eigenvalues not converged
     ethr =  2.33E-09,  avg # of iterations =  8.4

[...]

     total energy              =   -2939.15581322 Ry
     estimated scf accuracy    <       0.00000009 Ry

     iteration # 52     ecut=    29.40 Ry     beta= 0.05
     Davidson diagonalization with overlap
     ethr =  2.32E-11,  avg # of iterations =  2.0

     negative rho (up, down):  1.569E-02 0.000E+00

     Adding external electric field

     Computed dipole along edir(3) :
        Dipole                1.1192 Ry au,          2.8448 Debye
        Dipole field          0.0021 Ry au,

        Potential amp.       -0.1958 Ry
        Total length         46.3494 bohr

     End of self-consistent calculation

          k = 0.0000 0.0000 0.0000 ( 18029 PWs)   bands (ev):

   -55.5871 -55.5837 -55.5530 -55.5477 -55.4548 -55.4355 -55.4185 -55.4006
   -55.4003 -55.3667 -55.3618 -55.3281 -54.9565 -54.8686 -54.5650 -54.5310
   -32.1384 -32.0700 -31.9556 -31.8990 -31.8963 -31.8880 -31.8797 -31.8530
   -31.8308 -31.8110 -31.7790 -31.7694 -31.7629 -31.7393 -31.7365 -31.7235
   -31.6919 -31.6812 -31.6716 -31.6583 -31.6552 -31.6442 -31.6094 -31.6031
   -31.5932 -31.5896 -31.5853 -31.5769 -31.5661 -31.5638 -31.5393 -31.5295
   -31.5155 -31.5103 -31.5023 -31.4747 -31.4634 -31.1956 -31.1878 -31.1492
   -31.1013 -31.0475 -30.9721 -30.8840 -30.8616 -30.7889 -30.7024 -30.5913
   -18.9376 -16.3420 -16.0654 -15.8178 -15.7375 -15.7209 -15.6050 -15.4326
   -15.3162 -15.2649 -15.1619 -15.1610 -15.1244 -15.0902 -15.0421 -15.0388
   -15.0340 -15.0071 -14.9979 -14.9777 -14.9476 -14.9292 -14.8899 -14.7908
   -14.7724 -14.7228 -14.6939 -14.6679 -14.6476 -14.2639 -13.0674 -12.9510
   -12.7032  -8.8757  -6.3274  -4.8589  -3.7174  -3.6489  -3.5596  -3.4948
    -3.4598  -3.4285  -3.2323  -3.1917  -3.1425  -2.8360  -2.7753  -2.7569
    -2.7468  -2.7172  -2.4925  -2.4537  -2.4025  -2.3718  -2.3601  -2.3576
    -2.3561  -2.3264  -2.3080  -2.1670  -2.1323  -2.0420  -2.0026  -1.9960
    -1.9873  -1.9002  -1.8682  -1.8416  -1.8315  -1.8216  -1.7938  -1.7847
    -1.7761  -1.6420  -1.5631  -1.4114  -1.3909  -1.3505  -1.2192  -1.1952
    -1.0633  -1.0464  -1.0172  -0.9805  -0.9607  -0.8917  -0.7717  -0.7500
    -0.7143  -0.6993  -0.6088  -0.5706  -0.5028  -0.4686  -0.4443  -0.3967
    -0.3579  -0.3489  -0.3269  -0.2005  -0.0708  -0.0132  -0.0040   0.0232
     0.0917   0.1295   0.1899   0.2399   0.2498   0.2863   0.3378   0.3823
     0.3943   0.3967   0.4119   0.4500   0.5913   0.6077   0.6730   0.7184
     0.7617   0.8767   0.9286   1.0647   1.1566   1.3150   1.3844   1.4572
     1.5297   1.6494   2.0277   2.0464   2.0736   3.5431   3.6319   3.6760
     3.6814   3.7872   3.8824   3.9945   4.0142   4.0346   4.0899

[...]

          k = 0.0380-0.0419 0.0000 ( 17876 PWs)   bands (ev):

[...]

          k =-0.0760-0.0000 0.0000 ( 17886 PWs)   bands (ev):

[...]

          k =-0.0760-0.0839 0.0000 ( 17948 PWs)   bands (ev):

   -55.5702 -55.5697 -55.5659 -55.5652 -55.4422 -55.4310 -55.4211 -55.4144
   -55.3836 -55.3833 -55.3456 -55.3444 -54.9537 -54.8712 -54.5480 -54.5479
   -31.9417 -31.9401 -31.8855 -31.8850 -31.8654 -31.8648 -31.8380 -31.8377
   -31.8032 -31.7908 -31.7666 -31.7604 -31.7259 -31.7178 -31.7028 -31.7006
   -31.6984 -31.6956 -31.6897 -31.6894 -31.6859 -31.6832 -31.6555 -31.6478
   -31.6295 -31.6271 -31.6203 -31.6146 -31.5841 -31.5826 -31.5774 -31.5758
   -31.5612 -31.5606 -31.5603 -31.5584 -31.3662 -31.2322 -31.1964 -31.1632
   -31.1034 -31.0915 -30.8743 -30.8742 -30.7849 -30.7848 -30.7457 -30.7457
   -18.9338 -15.7722 -15.7575 -15.5312 -15.5158 -15.5048 -15.4958 -15.3484
   -15.3215 -15.2834 -15.2804 -15.2087 -15.1632 -15.1466 -15.1310 -15.1285
   -15.1099 -15.1018 -15.0533 -15.0465 -15.0452 -15.0272 -15.0207 -14.9063
   -14.9023 -14.8943 -14.8419 -14.7928 -14.6759 -14.3916 -13.0528 -13.0528
   -12.7090  -8.8758  -6.3217  -4.8201  -3.6638  -3.3331  -3.0598  -3.0485
    -2.7585  -2.7476  -2.7453  -2.7021  -2.5098  -2.5049  -2.4909  -2.4588
    -2.4253  -2.4140  -2.4043  -2.3900  -2.3844  -2.3359  -2.3139  -2.2687
    -2.2558  -2.2524  -2.2510  -2.2157  -2.2053  -2.1633  -2.1527  -2.1294
    -2.1172  -2.0853  -2.0544  -1.9075  -1.8212  -1.8022  -1.7282  -1.7214
    -1.6891  -1.6521  -1.6385  -1.5939  -1.5589  -1.4426  -1.3303  -1.2882
    -1.2737  -1.1736  -1.1373  -1.0992  -1.0465  -0.9723  -0.9643  -0.9352
    -0.8692  -0.7970  -0.7806  -0.7579  -0.6938  -0.6697  -0.5960  -0.5749
    -0.5498  -0.5449  -0.4883  -0.4228  -0.4069  -0.3552  -0.3471  -0.3060
    -0.2716  -0.2424  -0.2230  -0.0837  -0.0823  -0.0421   0.0926   0.1486
     0.3810   0.4305   0.4505   0.5219   0.6218   0.6702   0.6837   0.7254
     0.7347   0.7500   0.8099   0.9400   0.9455   1.0141   1.0550   1.1564
     1.8211   1.8216   1.8935   1.8935   1.9063   3.8392   3.8656   3.8785
     3.9023   4.0501   4.0600   4.0798   4.0805   4.2001   4.2214

     the Fermi energy is     3.5447 ev

!    total energy              =   -2939.15590019 Ry
     estimated scf accuracy    <       0.00000007 Ry
     smearing contrib. (-TS)   =      -0.02147542 Ry
     internal energy E=F+TS    =   -2939.13442477 Ry

     The total energy is F=E-TS. E is the sum of the following terms:
     one-electron contribution =  -24212.83350556 Ry
     hartree contribution      =   12196.25839377 Ry
     xc contribution           =    -485.25456295 Ry
     ewald contribution        =    9562.69288606 Ry
     electric field correction =       0.00236391 Ry

     convergence has been achieved in  52 iterations

     Forces acting on atoms (cartesian axes, Ry/au):

     atom    1 type  1   force =     0.00009037   -0.00018186    0.09644316
     atom    2 type  1   force =    -0.00019029   -0.00073345   -0.17537023
     atom    3 type  2   force =     0.00004580   -0.00013687   -0.02408790
     atom    4 type  2   force =     0.00007458   -0.00140958    0.05266785
     atom    5 type  2   force =    -0.01130688   -0.00007064    0.00339000
     atom    6 type  2   force =     0.01295696    0.00064282    0.00223653
     atom    7 type  1   force =    -0.00120123    0.00048490   -0.01225110
     atom    8 type  1   force =     0.00043439    0.00232722    0.02518717
     atom    9 type  2   force =    -0.00025197    0.00019243    0.00002992
     atom   10 type  2   force =    -0.00120876    0.00198712   -0.01305601
     atom   11 type  2   force =     0.00057803    0.00015929    0.00023774
     atom   12 type  2   force =    -0.00050560    0.00006303    0.00011268
     atom   13 type  1   force =    -0.00050349    0.00027708    0.00017926
     atom   14 type  1   force =     0.00061560   -0.00036777   -0.00027562
     atom   15 type  2   force =    -0.00007736    0.00029056    0.00005575
     atom   16 type  2   force =    -0.00001831    0.00017924    0.00058383
     atom   17 type  2   force =    -0.00055157   -0.00003990   -0.00006566
     atom   18 type  2   force =     0.00018743   -0.00011615   -0.00030706
     atom   19 type  1   force =     0.00013115    0.00075086    0.00049126
     atom   20 type  1   force =     0.00000238    0.00033859   -0.00013010
     atom   21 type  2   force =     0.00009692   -0.00012395    0.10314153
     atom   22 type  2   force =    -0.00027372    0.00016771    0.00009667
     atom   23 type  2   force =    -0.07152224   -0.00021471   -0.02773969
     atom   24 type  2   force =     0.07152209    0.00024900   -0.02774322
     atom   25 type  1   force =     0.00011860   -0.00026303    0.09596088
     atom   26 type  1   force =    -0.00011065   -0.00044747   -0.17552543
     atom   27 type  2   force =     0.00009674   -0.00013030   -0.02333111
     atom   28 type  2   force =     0.00010931   -0.00121825    0.05263229
     atom   29 type  2   force =    -0.01155197   -0.00029846    0.00346971
     atom   30 type  2   force =     0.01313861    0.00016488    0.00227436
     atom   31 type  1   force =    -0.00120349    0.00347054   -0.01235771
     atom   32 type  1   force =     0.00053769   -0.00379176    0.02546217
     atom   33 type  2   force =     0.00002617   -0.00017950   -0.00002462
     atom   34 type  2   force =    -0.00098829    0.00046517   -0.02168974
     atom   35 type  2   force =     0.00014426    0.00000889    0.00018246
     atom   36 type  2   force =    -0.00015174    0.00002192    0.00006534
     atom   37 type  1   force =    -0.00044470   -0.00032903    0.00015556
     atom   38 type  1   force =     0.00044426    0.00027078   -0.00028402
     atom   39 type  2   force =    -0.00001411   -0.00045454    0.00032710
     atom   40 type  2   force =    -0.00012529   -0.00008881    0.00012823
     atom   41 type  2   force =    -0.00082469   -0.00016092   -0.00025072
     atom   42 type  2   force =     0.00088469    0.00001489   -0.00001982
     atom   43 type  1   force =    -0.00001366   -0.00077909    0.00012571
     atom   44 type  1   force =    -0.00002595    0.00004397    0.00014099
     atom   45 type  2   force =     0.00010377   -0.00010723    0.10317365
     atom   46 type  2   force =    -0.07152311   -0.00015004   -0.02772510
     atom   47 type  2   force =     0.07152928    0.00029343   -0.02772951
     atom   48 type  3   force =     0.00055255   -0.00163876   -0.00068708
     atom   49 type  3   force =    -0.00000919   -0.00010792   -0.00018254
     atom   50 type  4   force =    -0.00112448    0.00086354    0.00091073
     atom   51 type  5   force =     0.00023536   -0.00040671    0.00026344
     atom   52 type  5   force =     0.00081463   -0.00060170    0.00048592
     atom   53 type  5   force =     0.00025114    0.00082051    0.00022206

     Total force =     0.366729     Total SCF correction =     0.000546
  @ DRIVER MODE: Message from server: STATUS
  @ DRIVER MODE: Message from server: GETFORCE
  @ DRIVER MODE: Returning v,forces,stress,ensemble

     Writing output data file ./calc.save/
  @ DRIVER MODE: Message from server: EXIT
  @ DRIVE MODE: Exiting

     General routines

     Parallel routines

   This run was terminated on:   2:36:14  11Sep2021

   JOB DONE.