     Program PWSCF v.6.7GPU starts on 23Aug2021 at 19:48:34

     R & G space division:  proc/nbgrp/npool/nimage =       6
     Reading input from /storage/home/hcoda1/3/ntian30/research/carbon/CH_vib/ads_slab/CHN2_a/out_0014/pw.inp
Warning: card &CELL ignored
Warning: card   CELL_DYNAMICS='IPI', ignored
Warning: card / ignored

     Current dimensions of program PWSCF are:
     Max number of different atomic species (ntypx) = 10
     Max number of k-points (npk) =  40000
     Max angular momentum in pseudopotentials (lmaxx) =  3
     Presently no symmetry can be used with electric field

     Message from routine cell_base_init:
     DEPRECATED: use true lattice parameter, not A to a.u. conversion factor

     IMPORTANT: XC functional enforced from input :
     Exchange-correlation= BEEF-VDW
                           (   1   4  43  14   2   0   0)
     Any further DFT definition will be discarded
     Please, verify this is what you really want

  @ DRIVER MODE: Connecting to
 qe_1139763_2632791.sched-torque.pace.gatech.edulilmjrou_scratch
  using UNIX socket
  @ DRIVER MODE: Message from server: STATUS
  @ DRIVER MODE: Message from server: INIT
  @ DRIVER MODE: Receiving replica           0          -1
  @ DRIVER MODE: Receiving encoded integer          25
  @ DRIVER MODE:  SCF:  T  FORCE:  T  STRESS:  F  VC:  F  ENSEMBLE:  F
  @ DRIVER MODE:  SCF:  T  FORCE:  T  STRESS:  F  VC:  F  ENSEMBLE:  F

     Using Slab Decomposition

     bravais-lattice index     =            0
     lattice parameter (alat)  =       1.8897  a.u.
     unit-cell volume          =    6658.9804 (a.u.)^3
     number of atoms/cell      =           51
     number of atomic types    =            5
     number of electrons       =       393.00
     number of Kohn-Sham states=          206
     kinetic-energy cutoff     =      29.3995  Ry
     charge density cutoff     =     293.9946  Ry
     scf convergence threshold =      7.3E-08
     mixing beta               =       0.0500
     number of iterations used =            8  plain     mixing
     Exchange-correlation= BEEF-VDW
                           (   1   4  43  14   2   0   0)

     celldm(1)=   1.889726  celldm(2)=   0.000000  celldm(3)=   0.000000
     celldm(4)=   0.000000  celldm(5)=   0.000000  celldm(6)=   0.000000

     crystal axes: (cart. coord. in units of alat)
               a(1) = (   6.579727   0.000000   0.000000 )
               a(2) = (  -0.000775   5.961596   0.000000 )
               a(3) = (   0.000000   0.000000  25.155947 )

     reciprocal axes: (cart. coord. in units 2 pi/alat)
               b(1) = (  0.151982  0.000020  0.000000 )
               b(2) = (  0.000000  0.167740  0.000000 )
               b(3) = (  0.000000  0.000000  0.039752 )

     PseudoPot. # 1 for Ti read from file:
     /storage/coda1/p-amedford6/0/shared/rich_project_chbe-medford/medford-share/data/pseudos_module/espresso/nninc/pbe/van/Ti.UPF
     MD5 check sum: 8e4df49b7f0d34bbd5052bf3f5ea0213
     Pseudo is Ultrasoft, Zval = 12.0
     Generated by new atomic code, or converted to UPF format
     Using radial grid of  851 points,  6 beta functions with:
                l(1) =   0
                l(2) =   0
                l(3) =   1
                l(4) =   1
                l(5) =   2
                l(6) =   2
     Q(r) pseudized with  8 coefficients,  rinner =    1.000   1.000   1.000
                                                       1.000   1.000

     PseudoPot. # 2 for O  read from file:
     /storage/coda1/p-amedford6/0/shared/rich_project_chbe-medford/medford-share/data/pseudos_module/espresso/nninc/pbe/van/O.UPF
     MD5 check sum: 78c19812648e8988a0fe644b0f25305e
     Pseudo is Ultrasoft, Zval =  6.0
     Generated by new atomic code, or converted to UPF format
     Using radial grid of  737 points,  4 beta functions with:
                l(1) =   0
                l(2) =   0
                l(3) =   1
                l(4) =   1
     Q(r) pseudized with  8 coefficients,  rinner =    0.800   0.800   0.800

     PseudoPot. # 3 for N  read from file:
     /storage/coda1/p-amedford6/0/shared/rich_project_chbe-medford/medford-share/data/pseudos_module/espresso/nninc/pbe/van/N.UPF
     MD5 check sum: 90d10febe142ad51ac9d5be1deb811c4
     Pseudo is Ultrasoft, Zval =  5.0
     Generated by new atomic code, or converted to UPF format
     Using radial grid of  729 points,  4 beta functions with:
                l(1) =   0
                l(2) =   0
                l(3) =   1
                l(4) =   1
     Q(r) pseudized with  8 coefficients,  rinner =    0.800   0.800   0.800

     PseudoPot. # 4 for C  read from file:
     /storage/coda1/p-amedford6/0/shared/rich_project_chbe-medford/medford-share/data/pseudos_module/espresso/nninc/pbe/van/C.UPF
     MD5 check sum: 1a69bf6b8db32088f5b2163dbdb77a27
     Pseudo is Ultrasoft, Zval =  4.0
     Generated by new atomic code, or converted to UPF format
     Using radial grid of  721 points,  4 beta functions with:
                l(1) =   0
                l(2) =   0
                l(3) =   1
                l(4) =   1
     Q(r) pseudized with  8 coefficients,  rinner =    0.800   0.800   0.800

     PseudoPot. # 5 for H  read from file:
     /storage/coda1/p-amedford6/0/shared/rich_project_chbe-medford/medford-share/data/pseudos_module/espresso/nninc/pbe/van/H.UPF
     MD5 check sum: b5ee9d7bfd3a09ee7748110bda690ff7
     Pseudo is Ultrasoft, Zval =  1.0
     Generated by new atomic code, or converted to UPF format
     Using radial grid of  615 points,  1 beta functions with:
                l(1) =   0
     Q(r) pseudized with  8 coefficients,  rinner =    0.800

     atomic species   valence    mass     pseudopotential
        Ti1           12.00    47.86700     Ti( 1.00)
        O1             6.00    15.99900     O ( 1.00)
        N1             5.00    14.00700     N ( 1.00)
        C1             4.00    12.01100     C ( 1.00)
        H1             1.00     1.00800     H ( 1.00)

     No symmetry found

   Cartesian axes

     site n.     atom                  positions (alat units)
         1           Ti1 tau(   1) = (   0.0004258   2.9801865   6.0000000  )
         2           Ti1 tau(   2) = (   3.2906075   1.4906267   6.0002472  )
         3           O1  tau(   3) = (   0.0006271   0.0005054   7.9858123  )
         4           O1  tau(   4) = (   3.2906025   0.0005020   7.3038282  )
         5           O1  tau(   5) = (   4.5942328   1.4918067   9.2879030  )
         6           O1  tau(   6) = (   1.9868534   1.4903216   9.2879459  )
         7           Ti1 tau(   7) = (   3.2907910   2.8959150   9.1758416  )
         8           Ti1 tau(   8) = (   0.0015273   1.4827037   9.2680791  )
         9           O1  tau(   9) = (   3.3035207   5.9473585  11.3310231  )
        10           O1  tau(  10) = (   0.0116148   5.9584955  10.6183126  )
        11           O1  tau(  11) = (   1.3208475   1.4758257  12.6111770  )
        12           O1  tau(  12) = (   5.3082752   1.4698866  12.6250687  )
        13           Ti1 tau(  13) = (   6.5356446   2.9641997  12.6185077  )
        14           Ti1 tau(  14) = (   3.2189969   1.4721334  12.4835407  )
        15           O1  tau(  15) = (   0.0393797   5.9575543  14.6615593  )
        16           O1  tau(  16) = (   3.2985004   5.9511915  13.9168519  )
        17           O1  tau(  17) = (   4.5692420   1.4945533  16.0479082  )
        18           O1  tau(  18) = (   2.0930108   1.4957509  16.0624375  )
        19           Ti1 tau(  19) = (   3.3255584   2.9801015  15.7018593  )
        20           Ti1 tau(  20) = (   6.5669960   1.4976744  15.8335939  )
        21           O1  tau(  21) = (   3.2904802   0.0005063   4.7018136  )
        22           O1  tau(  22) = (   0.0392190   0.0140749  17.2134629  )
        23           O1  tau(  23) = (   1.3043587   1.4918075   6.0039043  )
        24           O1  tau(  24) = (   5.2767064   1.4903225   6.0039473  )
        25           Ti1 tau(  25) = (   0.0000382   5.9609847   6.0000000  )
        26           Ti1 tau(  26) = (   3.2902200   4.4714249   6.0002472  )
        27           O1  tau(  27) = (   0.0002396   2.9813036   7.9858123  )
        28           O1  tau(  28) = (   3.2902150   2.9813002   7.3038282  )
        29           O1  tau(  29) = (   4.5938453   4.4726049   9.2879030  )
        30           O1  tau(  30) = (   1.9864658   4.4711199   9.2879459  )
        31           Ti1 tau(  31) = (   3.2891106   5.8743827   9.1763621  )
        32           Ti1 tau(  32) = (   0.0006254   4.4649316   9.2693709  )
        33           O1  tau(  33) = (   3.3031456   2.9698018  11.3313920  )
        34           O1  tau(  34) = (   0.0092240   2.9805883  10.6323155  )
        35           O1  tau(  35) = (   1.3161540   4.4602657  12.6201046  )
        36           O1  tau(  36) = (   5.3094940   4.4638127  12.6365964  )
        37           Ti1 tau(  37) = (   6.5345696   5.9399333  12.5489351  )
        38           Ti1 tau(  38) = (   3.2177077   4.4523588  12.4826418  )
        39           O1  tau(  39) = (   0.0172592   2.9259015  14.6604509  )
        40           O1  tau(  40) = (   3.3090452   2.9742471  13.9045505  )
        41           O1  tau(  41) = (   4.5663562   4.4668710  16.0744231  )
        42           O1  tau(  42) = (   2.0880155   4.4652721  16.0825153  )
        43           Ti1 tau(  43) = (   3.2840513   5.9573583  15.7162584  )
        44           Ti1 tau(  44) = (   0.0037803   4.6334615  16.1183230  )
        45           O1  tau(  45) = (   3.2900926   2.9813045   4.7018136  )
        46           O1  tau(  46) = (   1.3039711   4.4726057   6.0039043  )
        47           O1  tau(  47) = (   5.2763189   4.4711207   6.0039473  )
        48           N1  tau(  48) = (   0.6403421   2.7964730  18.4694378  )
        49           C1  tau(  49) = (   1.0548146   2.6213466  19.5673862  )
        50           H1  tau(  50) = (   1.9820372   2.4638087  20.0927579  )
        51           N1  tau(  51) = (   0.0785678   2.9476959  17.3929364  )

     number of k points=    10  Fermi-Dirac smearing, width (Ry)=  0.0073
                       cart. coord. in units 2pi/alat
        k(    1) = (   0.0000000   0.0000000   0.0000000), wk =   0.1250000
        k(    2) = (   0.0000000   0.0419351   0.0000000), wk =   0.2500000
        k(    3) = (   0.0000000  -0.0838702   0.0000000), wk =   0.1250000
        k(    4) = (   0.0379955   0.0000049   0.0000000), wk =   0.2500000
        k(    5) = (   0.0379955   0.0419400   0.0000000), wk =   0.2500000
        k(    6) = (   0.0379955  -0.0838652   0.0000000), wk =   0.2500000
        k(    7) = (   0.0379955  -0.0419301   0.0000000), wk =   0.2500000
        k(    8) = (  -0.0759910  -0.0000099   0.0000000), wk =   0.1250000
        k(    9) = (  -0.0759910   0.0419252   0.0000000), wk =   0.2500000
        k(   10) = (  -0.0759910  -0.0838800   0.0000000), wk =   0.1250000

     Initial potential from superposition of free atoms

     starting charge  376.99918, renormalised to  393.00000

     negative rho (up, down):  1.611E-02 0.000E+00

     %%%%%%%%%%%%%%%%%%%%%%%%%%%%%%%%%%%%%%%%%%%%%%%%%%%%%%%%%%%%%%%%%%%%%%%%
     %                                                                      %
     % You are using vdW-DF, which was implemented by the Thonhauser group. %
     % Please cite the following two papers that made this development      %
     % possible and the two reviews that describe the various versions:     %
     %                                                                      %
     %   T. Thonhauser et al., PRL 115, 136402 (2015).                      %
     %   T. Thonhauser et al., PRB 76, 125112 (2007).                       %
     %   K. Berland et al., Rep. Prog. Phys. 78, 066501 (2015).             %
     %   D.C. Langreth et al., J. Phys.: Condens. Matter 21, 084203 (2009). %
     %                                                                      %
     %                                                                      %
     % If you are calculating the stress with vdW-DF, please also cite:     %
     %                                                                      %
     %   R. Sabatini et al., J. Phys.: Condens. Matter 24, 424209 (2012).   %
     %                                                                      %
     %%%%%%%%%%%%%%%%%%%%%%%%%%%%%%%%%%%%%%%%%%%%%%%%%%%%%%%%%%%%%%%%%%%%%%%%

     Adding external electric field

     Computed dipole along edir(3) :
        Dipole               -7.3725 Ry au,        -18.7391 Debye
        Dipole field         -0.0139 Ry au,

        Potential amp.        1.2897 Ry
        Total length         46.3494 bohr

     Starting wfcs are  297 atomic wfcs
  @ DRIVER MODE: Message from server: STATUS
  @ DRIVER MODE: Message from server: POSDATA
  @ DRIVER MODE: Reading and sharing cell
  @ DRIVER MODE: Reading and sharing positions
  @ DRIVER MODE: Received positions

     Self-consistent Calculation

     iteration #  1     ecut=    29.40 Ry     beta= 0.05
     Davidson diagonalization with overlap
     c_bands:  1 eigenvalues not converged
     c_bands:  1 eigenvalues not converged
     c_bands:  1 eigenvalues not converged
     c_bands:  1 eigenvalues not converged
     ethr =  1.00E-05,  avg # of iterations = 18.6

[...]

     total energy              =   -2708.00524944 Ry
     estimated scf accuracy    <    2533.40575950 Ry

[...]

     iteration #  3     ecut=    29.40 Ry     beta= 0.05
     Davidson diagonalization with overlap
     ethr =  1.00E-02,  avg # of iterations = 16.7

[...]

     iteration # 64     ecut=    29.40 Ry     beta= 0.05
     Davidson diagonalization with overlap
     c_bands:  1 eigenvalues not converged
     ethr =  4.72E-10,  avg # of iterations = 12.4

[...]

     total energy              =   -2936.63864578 Ry
     estimated scf accuracy    <       0.00000013 Ry

     iteration # 72     ecut=    29.40 Ry     beta= 0.05
     Davidson diagonalization with overlap
     ethr =  3.32E-11,  avg # of iterations =  6.2

     negative rho (up, down):  1.641E-02 0.000E+00

     Adding external electric field

     Computed dipole along edir(3) :
        Dipole                0.6613 Ry au,          1.6808 Debye
        Dipole field          0.0012 Ry au,

        Potential amp.       -0.1157 Ry
        Total length         46.3494 bohr

     End of self-consistent calculation

          k = 0.0000 0.0000 0.0000 ( 18029 PWs)   bands (ev):

   -55.9529 -55.9481 -55.9188 -55.9121 -55.8157 -55.8113 -55.7805 -55.7750
   -55.7636 -55.7299 -55.7295 -55.6961 -55.5067 -55.2856 -54.9318 -54.8978
   -32.5024 -32.4357 -32.3148 -32.2723 -32.2626 -32.2553 -32.2456 -32.2207
   -32.1960 -32.1732 -32.1499 -32.1418 -32.1277 -32.1051 -32.0996 -32.0878
   -32.0576 -32.0510 -32.0465 -32.0210 -32.0172 -32.0101 -31.9887 -31.9700
   -31.9608 -31.9530 -31.9525 -31.9504 -31.9407 -31.9318 -31.9274 -31.9049
   -31.8945 -31.8830 -31.8796 -31.8705 -31.8422 -31.7355 -31.7261 -31.5566
   -31.5210 -31.5052 -31.3390 -31.2505 -31.2281 -31.1558 -31.0692 -30.9581
   -19.3003 -16.7018 -16.4316 -16.1982 -16.1080 -16.0838 -15.9634 -15.7991
   -15.6802 -15.6244 -15.5236 -15.5187 -15.4902 -15.4583 -15.4377 -15.4254
   -15.4012 -15.3974 -15.3741 -15.3604 -15.3156 -15.2948 -15.2784 -15.1848
   -15.1311 -15.0886 -15.0534 -15.0288 -15.0132 -14.5566 -14.0048 -13.4342
   -13.3177  -6.7090  -5.2367  -4.2807  -4.0744  -4.0528  -3.9174  -3.8601
    -3.8115  -3.7062  -3.5705  -3.5045  -3.1934  -3.1374  -3.1224  -3.1066
    -3.0747  -2.8612  -2.8064  -2.7690  -2.7419  -2.7318  -2.7236  -2.7179
    -2.7013  -2.6739  -2.5673  -2.4965  -2.4215  -2.4117  -2.3548  -2.3522
    -2.2661  -2.2429  -2.2206  -2.1990  -2.1948  -2.1841  -2.1579  -2.1362
    -2.0106  -1.9400  -1.8286  -1.7608  -1.7255  -1.5627  -1.5448  -1.4176
    -1.4138  -1.3823  -1.3465  -1.3283  -1.2547  -1.1549  -1.1205  -1.1051
    -1.0588  -0.9757  -0.9292  -0.8480  -0.8032  -0.7771  -0.7246  -0.7169
    -0.7087  -0.6618  -0.5100  -0.4344  -0.3806  -0.3676  -0.3329  -0.2597
    -0.2342  -0.1511  -0.1083  -0.0837  -0.0738  -0.0202   0.0195   0.0329
     0.0466   0.0557   0.0662   0.2443   0.2933   0.3181   0.3712   0.3926
     0.5704   0.6019   0.7010   0.7901   1.0167   1.0904   1.1693   1.2741
     1.2823   1.4869   1.6617   1.7073   3.1778   3.2677   3.3091   3.3139
     3.4195   3.4857   3.6327   3.6538   3.6782   3.7209

[...]

          k = 0.0380-0.0419 0.0000 ( 17876 PWs)   bands (ev):

[...]

          k =-0.0760-0.0000 0.0000 ( 17886 PWs)   bands (ev):

[...]

          k =-0.0760-0.0839 0.0000 ( 17948 PWs)   bands (ev):

   -55.9363 -55.9353 -55.9307 -55.9292 -55.8019 -55.7985 -55.7942 -55.7877
   -55.7472 -55.7454 -55.7145 -55.7117 -55.5055 -55.2867 -54.9148 -54.9147
   -32.3057 -32.3048 -32.2513 -32.2506 -32.2314 -32.2305 -32.2056 -32.2043
   -32.1603 -32.1559 -32.1348 -32.1320 -32.0853 -32.0821 -32.0795 -32.0728
   -32.0676 -32.0602 -32.0559 -32.0549 -32.0530 -32.0500 -32.0179 -32.0077
   -32.0065 -31.9946 -31.9886 -31.9782 -31.9482 -31.9475 -31.9454 -31.9430
   -31.9290 -31.9274 -31.9238 -31.9212 -31.8805 -31.7378 -31.7231 -31.6254
   -31.5309 -31.5215 -31.2409 -31.2408 -31.1518 -31.1516 -31.1125 -31.1125
   -19.2975 -16.1339 -16.1119 -15.9082 -15.8728 -15.8674 -15.8552 -15.7447
   -15.6672 -15.6492 -15.6470 -15.5762 -15.5496 -15.5308 -15.4936 -15.4884
   -15.4746 -15.4712 -15.4399 -15.4181 -15.4112 -15.3936 -15.3856 -15.3080
   -15.2728 -15.2683 -15.2473 -15.1365 -14.9975 -14.7359 -14.0107 -13.4196
   -13.4194  -6.7080  -5.2065  -4.2489  -4.0424  -3.4238  -3.3989  -3.1491
    -3.1125  -3.1043  -3.0480  -2.8759  -2.8597  -2.8445  -2.8189  -2.7876
    -2.7820  -2.7756  -2.7617  -2.7432  -2.7080  -2.6751  -2.6496  -2.6272
    -2.6221  -2.6128  -2.5824  -2.5689  -2.5431  -2.5241  -2.5015  -2.4856
    -2.4715  -2.4610  -2.2806  -2.1959  -2.1596  -2.0960  -2.0868  -2.0622
    -2.0189  -2.0103  -1.9908  -1.9450  -1.8098  -1.6971  -1.6562  -1.6379
    -1.5602  -1.5223  -1.4476  -1.3847  -1.3445  -1.3362  -1.2876  -1.2236
    -1.1768  -1.1605  -1.1017  -1.0692  -1.0200  -1.0037  -0.9548  -0.9148
    -0.9106  -0.8351  -0.7816  -0.7615  -0.7245  -0.7199  -0.6813  -0.6260
    -0.6090  -0.5752  -0.4581  -0.4333  -0.3221  -0.2416  -0.1912   0.0076
     0.0813   0.1182   0.1727   0.2385   0.3203   0.3424   0.3540   0.3642
     0.4156   0.4661   0.5735   0.5847   0.6195   0.7435   1.1854   1.4006
     1.4541   1.4547   1.5271   1.5273   3.4797   3.4966   3.5192   3.5342
     3.6873   3.6925   3.7140   3.7148   3.8421   3.8578

     the Fermi energy is     3.1797 ev

!    total energy              =   -2936.63866493 Ry
     estimated scf accuracy    <       0.00000006 Ry
     smearing contrib. (-TS)   =      -0.02150089 Ry
     internal energy E=F+TS    =   -2936.61716404 Ry

     The total energy is F=E-TS. E is the sum of the following terms:
     one-electron contribution =  -24412.51079797 Ry
     hartree contribution      =   12291.60529081 Ry
     xc contribution           =    -483.58562719 Ry
     ewald contribution        =    9667.87314504 Ry
     electric field correction =       0.00082527 Ry

     convergence has been achieved in  72 iterations

     Forces acting on atoms (cartesian axes, Ry/au):

     atom    1 type  1   force =     0.00001143   -0.00025147    0.09650859
     atom    2 type  1   force =     0.00006490   -0.00048241   -0.17541085
     atom    3 type  2   force =     0.00017617   -0.00006151   -0.02448192
     atom    4 type  2   force =     0.00003345   -0.00142393    0.05285745
     atom    5 type  2   force =    -0.01165874   -0.00078042    0.00291486
     atom    6 type  2   force =     0.01353108   -0.00029703    0.00322862
     atom    7 type  1   force =     0.00094914    0.00041896   -0.01152812
     atom    8 type  1   force =    -0.00000509    0.00993058    0.02614833
     atom    9 type  2   force =    -0.00030734    0.00021199    0.00026263
     atom   10 type  2   force =    -0.00267251    0.00000326   -0.01399490
     atom   11 type  2   force =     0.00069523    0.00022002    0.00031647
     atom   12 type  2   force =    -0.00057804    0.00000476   -0.00002693
     atom   13 type  1   force =     0.00035770   -0.00029869    0.00039295
     atom   14 type  1   force =    -0.00059870   -0.00056060   -0.00050515
     atom   15 type  2   force =    -0.00014243   -0.00016686    0.00058854
     atom   16 type  2   force =     0.00023340   -0.00010853   -0.00033466
     atom   17 type  2   force =     0.00002796    0.00012031   -0.00020580
     atom   18 type  2   force =    -0.00028776    0.00027953   -0.00026175
     atom   19 type  1   force =    -0.00047808   -0.00003607   -0.00072272
     atom   20 type  1   force =     0.00045041   -0.00001033    0.00008784
     atom   21 type  2   force =     0.00005816    0.00001835    0.10326450
     atom   22 type  2   force =     0.00014619   -0.00036241   -0.00024457
     atom   23 type  2   force =    -0.07145847   -0.00007010   -0.02763392
     atom   24 type  2   force =     0.07143607    0.00039743   -0.02771305
     atom   25 type  1   force =     0.00025342   -0.00024482    0.09597106
     atom   26 type  1   force =     0.00009817   -0.00026958   -0.17570923
     atom   27 type  2   force =     0.00020207   -0.00017545   -0.02351827
     atom   28 type  2   force =     0.00004740   -0.00120902    0.05300747
     atom   29 type  2   force =    -0.01183140   -0.00001826    0.00276124
     atom   30 type  2   force =     0.01360604    0.00035788    0.00305495
     atom   31 type  1   force =     0.00086394    0.00349921   -0.01215241
     atom   32 type  1   force =     0.00012208   -0.01160233    0.02662332
     atom   33 type  2   force =    -0.00010209    0.00007345   -0.00032459
     atom   34 type  2   force =    -0.00274311   -0.00024793   -0.02148948
     atom   35 type  2   force =     0.00043133   -0.00003584    0.00029403
     atom   36 type  2   force =    -0.00033989   -0.00023053   -0.00022254
     atom   37 type  1   force =     0.00045790   -0.00076861   -0.00039367
     atom   38 type  1   force =    -0.00058624    0.00095400    0.00010258
     atom   39 type  2   force =    -0.00029652   -0.00017570    0.00072183
     atom   40 type  2   force =     0.00009833    0.00020241    0.00001161
     atom   41 type  2   force =     0.00000941    0.00026065   -0.00008830
     atom   42 type  2   force =     0.00004063    0.00014816   -0.00004788
     atom   43 type  1   force =    -0.00002377    0.00058261   -0.00067538
     atom   44 type  1   force =     0.00030179    0.00106112   -0.00088628
     atom   45 type  2   force =     0.00006250    0.00002186    0.10324049
     atom   46 type  2   force =    -0.07150001   -0.00000629   -0.02766241
     atom   47 type  2   force =     0.07144372    0.00037287   -0.02771867
     atom   48 type  3   force =     0.00037143    0.00041918   -0.00036360
     atom   49 type  4   force =     0.01048874   -0.00182916    0.00681465
     atom   50 type  5   force =    -0.01137982    0.00287851   -0.00575132
     atom   51 type  3   force =    -0.00008018   -0.00071321    0.00089437

     Total force =     0.367910     Total SCF correction =     0.000562
  @ DRIVER MODE: Message from server: STATUS
  @ DRIVER MODE: Message from server: GETFORCE
  @ DRIVER MODE: Returning v,forces,stress,ensemble

     Writing output data file ./calc.save/
  @ DRIVER MODE: Message from server: EXIT
  @ DRIVE MODE: Exiting

     General routines

     Parallel routines

   This run was terminated on:  20:20:24  23Aug2021

   JOB DONE.