     Program PWSCF v.6.7GPU starts on  2Aug2021 at 15:26:37

     R & G space division:  proc/nbgrp/npool/nimage =      16
     Reading input from /storage/home/hcoda1/3/ntian30/research/carbon/02Aug_vib_paired/ads_slab/CH3NH_a/out_0014/pw.inp
Warning: card &CELL ignored
Warning: card   CELL_DYNAMICS='IPI', ignored
Warning: card / ignored

     Current dimensions of program PWSCF are:
     Max number of different atomic species (ntypx) = 10
     Max number of k-points (npk) =  40000
     Max angular momentum in pseudopotentials (lmaxx) =  3
     Presently no symmetry can be used with electric field

     Message from routine cell_base_init:
     DEPRECATED: use true lattice parameter, not A to a.u. conversion factor

     IMPORTANT: XC functional enforced from input :
     Exchange-correlation= BEEF-VDW
                           (   1   4  43  14   2   0   0)
     Any further DFT definition will be discarded
     Please, verify this is what you really want

  @ DRIVER MODE: Connecting to
 qe_1139763_2482540.sched-torque.pace.gatech.edu1tmqkzi0_scratch
  using UNIX socket
  @ DRIVER MODE: Message from server: STATUS
  @ DRIVER MODE: Message from server: INIT
  @ DRIVER MODE: Receiving replica           0          -1
  @ DRIVER MODE: Receiving encoded integer          25
  @ DRIVER MODE:  SCF:  T  FORCE:  T  STRESS:  F  VC:  F  ENSEMBLE:  F
  @ DRIVER MODE:  SCF:  T  FORCE:  T  STRESS:  F  VC:  F  ENSEMBLE:  F

     Using Slab Decomposition

     bravais-lattice index     =            0
     lattice parameter (alat)  =       1.8897  a.u.
     unit-cell volume          =    6658.9804 (a.u.)^3
     number of atoms/cell      =           53
     number of atomic types    =            5
     number of electrons       =       391.00
     number of Kohn-Sham states=          205
     kinetic-energy cutoff     =      29.3995  Ry
     charge density cutoff     =     293.9946  Ry
     scf convergence threshold =      7.3E-08
     mixing beta               =       0.0500
     number of iterations used =            8  plain     mixing
     Exchange-correlation= BEEF-VDW
                           (   1   4  43  14   2   0   0)

     celldm(1)=   1.889726  celldm(2)=   0.000000  celldm(3)=   0.000000
     celldm(4)=   0.000000  celldm(5)=   0.000000  celldm(6)=   0.000000

     crystal axes: (cart. coord. in units of alat)
               a(1) = (   6.579727   0.000000   0.000000 )
               a(2) = (  -0.000775   5.961596   0.000000 )
               a(3) = (   0.000000   0.000000  25.155947 )

     reciprocal axes: (cart. coord. in units 2 pi/alat)
               b(1) = (  0.151982  0.000020  0.000000 )
               b(2) = (  0.000000  0.167740  0.000000 )
               b(3) = (  0.000000  0.000000  0.039752 )

     PseudoPot. # 1 for Ti read from file:
     /storage/coda1/p-amedford6/0/shared/rich_project_chbe-medford/medford-share/data/pseudos_module/espresso/nninc/pbe/van/Ti.UPF
     MD5 check sum: 8e4df49b7f0d34bbd5052bf3f5ea0213
     Pseudo is Ultrasoft, Zval = 12.0
     Generated by new atomic code, or converted to UPF format
     Using radial grid of  851 points,  6 beta functions with:
                l(1) =   0
                l(2) =   0
                l(3) =   1
                l(4) =   1
                l(5) =   2
                l(6) =   2
     Q(r) pseudized with  8 coefficients,  rinner =    1.000   1.000   1.000
                                                       1.000   1.000

     PseudoPot. # 2 for O  read from file:
     /storage/coda1/p-amedford6/0/shared/rich_project_chbe-medford/medford-share/data/pseudos_module/espresso/nninc/pbe/van/O.UPF
     MD5 check sum: 78c19812648e8988a0fe644b0f25305e
     Pseudo is Ultrasoft, Zval =  6.0
     Generated by new atomic code, or converted to UPF format
     Using radial grid of  737 points,  4 beta functions with:
                l(1) =   0
                l(2) =   0
                l(3) =   1
                l(4) =   1
     Q(r) pseudized with  8 coefficients,  rinner =    0.800   0.800   0.800

     PseudoPot. # 3 for H  read from file:
     /storage/coda1/p-amedford6/0/shared/rich_project_chbe-medford/medford-share/data/pseudos_module/espresso/nninc/pbe/van/H.UPF
     MD5 check sum: b5ee9d7bfd3a09ee7748110bda690ff7
     Pseudo is Ultrasoft, Zval =  1.0
     Generated by new atomic code, or converted to UPF format
     Using radial grid of  615 points,  1 beta functions with:
                l(1) =   0
     Q(r) pseudized with  8 coefficients,  rinner =    0.800

     PseudoPot. # 4 for N  read from file:
     /storage/coda1/p-amedford6/0/shared/rich_project_chbe-medford/medford-share/data/pseudos_module/espresso/nninc/pbe/van/N.UPF
     MD5 check sum: 90d10febe142ad51ac9d5be1deb811c4
     Pseudo is Ultrasoft, Zval =  5.0
     Generated by new atomic code, or converted to UPF format
     Using radial grid of  729 points,  4 beta functions with:
                l(1) =   0
                l(2) =   0
                l(3) =   1
                l(4) =   1
     Q(r) pseudized with  8 coefficients,  rinner =    0.800   0.800   0.800

     PseudoPot. # 5 for C  read from file:
     /storage/coda1/p-amedford6/0/shared/rich_project_chbe-medford/medford-share/data/pseudos_module/espresso/nninc/pbe/van/C.UPF
     MD5 check sum: 1a69bf6b8db32088f5b2163dbdb77a27
     Pseudo is Ultrasoft, Zval =  4.0
     Generated by new atomic code, or converted to UPF format
     Using radial grid of  721 points,  4 beta functions with:
                l(1) =   0
                l(2) =   0
                l(3) =   1
                l(4) =   1
     Q(r) pseudized with  8 coefficients,  rinner =    0.800   0.800   0.800

     atomic species   valence    mass     pseudopotential
        Ti1           12.00    47.86700     Ti( 1.00)
        O1             6.00    15.99900     O ( 1.00)
        H1             1.00     1.00800     H ( 1.00)
        N1             5.00    14.00700     N ( 1.00)
        C1             4.00    12.01100     C ( 1.00)

     No symmetry found

   Cartesian axes

     site n.     atom                  positions (alat units)
         1           Ti1 tau(   1) = (   0.0004258   2.9801865   6.0000000  )
         2           Ti1 tau(   2) = (   3.2906075   1.4906267   6.0002472  )
         3           O1  tau(   3) = (   0.0006271   0.0005054   7.9858123  )
         4           O1  tau(   4) = (   3.2906025   0.0005020   7.3038282  )
         5           O1  tau(   5) = (   4.5942328   1.4918067   9.2879030  )
         6           O1  tau(   6) = (   1.9868534   1.4903216   9.2879459  )
         7           Ti1 tau(   7) = (   3.2907910   2.8959150   9.1758416  )
         8           Ti1 tau(   8) = (   0.0015273   1.4827037   9.2680791  )
         9           O1  tau(   9) = (   3.2884659   0.0075485  11.3235732  )
        10           O1  tau(  10) = (   0.0116148   5.9584955  10.6183126  )
        11           O1  tau(  11) = (   1.3171120   1.5008813  12.6157184  )
        12           O1  tau(  12) = (   5.2946386   1.4924346  12.6071097  )
        13           Ti1 tau(  13) = (   6.5241923   2.9548932  12.6217359  )
        14           Ti1 tau(  14) = (   3.2094326   1.4975571  12.4685497  )
        15           O1  tau(  15) = (   6.5712017   0.0435206  14.6415704  )
        16           O1  tau(  16) = (   3.3105969   0.0188825  13.9167609  )
        17           O1  tau(  17) = (   4.5276945   1.5520673  16.0775932  )
        18           O1  tau(  18) = (   2.0451199   1.5488911  16.0433559  )
        19           Ti1 tau(  19) = (   3.3056363   3.0248959  15.6834923  )
        20           Ti1 tau(  20) = (   0.0598299   1.5678558  15.8702049  )
        21           O1  tau(  21) = (   3.2904802   0.0005063   4.7018136  )
        22           O1  tau(  22) = (   0.0261329   0.0581799  17.1997403  )
        23           O1  tau(  23) = (   1.3043587   1.4918075   6.0039043  )
        24           O1  tau(  24) = (   5.2767064   1.4903225   6.0039473  )
        25           Ti1 tau(  25) = (   0.0000382   5.9609847   6.0000000  )
        26           Ti1 tau(  26) = (   3.2902200   4.4714249   6.0002472  )
        27           O1  tau(  27) = (   0.0002396   2.9813036   7.9858123  )
        28           O1  tau(  28) = (   3.2902150   2.9813002   7.3038282  )
        29           O1  tau(  29) = (   4.5938453   4.4726049   9.2879030  )
        30           O1  tau(  30) = (   1.9864658   4.4711199   9.2879459  )
        31           Ti1 tau(  31) = (   3.2891106   5.8743827   9.1763621  )
        32           Ti1 tau(  32) = (   0.0006254   4.4649316   9.2693709  )
        33           O1  tau(  33) = (   3.2900467   2.9919642  11.3219399  )
        34           O1  tau(  34) = (   0.0092240   2.9805883  10.6323155  )
        35           O1  tau(  35) = (   1.3109590   4.4888342  12.6262493  )
        36           O1  tau(  36) = (   5.2962169   4.4808628  12.6191006  )
        37           Ti1 tau(  37) = (   6.5213093   5.9327278  12.5667326  )
        38           Ti1 tau(  38) = (   3.2063601   4.4772876  12.4706241  )
        39           O1  tau(  39) = (   6.5765807   2.9606619  14.6437028  )
        40           O1  tau(  40) = (   3.3047873   3.0036736  13.8926904  )
        41           O1  tau(  41) = (   4.5386289   4.5058657  16.0833063  )
        42           O1  tau(  42) = (   2.0584685   4.5123608  16.0729366  )
        43           Ti1 tau(  43) = (   3.3398093   0.0384087  15.7085799  )
        44           Ti1 tau(  44) = (   0.0478225   4.6849499  16.0879628  )
        45           O1  tau(  45) = (   3.2900926   2.9813045   4.7018136  )
        46           O1  tau(  46) = (   1.3039711   4.4726057   6.0039043  )
        47           O1  tau(  47) = (   5.2763189   4.4711207   6.0039473  )
        48           H1  tau(  48) = (   5.6109407   2.9912845  17.7881963  )
        49           N1  tau(  49) = (   6.5652763   3.0051276  17.4431066  )
        50           C1  tau(  50) = (   0.8963280   2.9891452  18.6126320  )
        51           H1  tau(  51) = (   1.3596840   3.9617220  18.7724638  )
        52           H1  tau(  52) = (   0.3315535   2.7344040  19.5171108  )
        53           H1  tau(  53) = (   1.6705027   2.2407838  18.4910999  )

     number of k points=    10  Fermi-Dirac smearing, width (Ry)=  0.0073
                       cart. coord. in units 2pi/alat
        k(    1) = (   0.0000000   0.0000000   0.0000000), wk =   0.1250000
        k(    2) = (   0.0000000   0.0419351   0.0000000), wk =   0.2500000
        k(    3) = (   0.0000000  -0.0838702   0.0000000), wk =   0.1250000
        k(    4) = (   0.0379955   0.0000049   0.0000000), wk =   0.2500000
        k(    5) = (   0.0379955   0.0419400   0.0000000), wk =   0.2500000
        k(    6) = (   0.0379955  -0.0838652   0.0000000), wk =   0.2500000
        k(    7) = (   0.0379955  -0.0419301   0.0000000), wk =   0.2500000
        k(    8) = (  -0.0759910  -0.0000099   0.0000000), wk =   0.1250000
        k(    9) = (  -0.0759910   0.0419252   0.0000000), wk =   0.2500000
        k(   10) = (  -0.0759910  -0.0838800   0.0000000), wk =   0.1250000

     Initial potential from superposition of free atoms

     starting charge  374.99916, renormalised to  391.00000

     negative rho (up, down):  1.779E-02 0.000E+00

     %%%%%%%%%%%%%%%%%%%%%%%%%%%%%%%%%%%%%%%%%%%%%%%%%%%%%%%%%%%%%%%%%%%%%%%%
     %                                                                      %
     % You are using vdW-DF, which was implemented by the Thonhauser group. %
     % Please cite the following two papers that made this development      %
     % possible and the two reviews that describe the various versions:     %
     %                                                                      %
     %   T. Thonhauser et al., PRL 115, 136402 (2015).                      %
     %   T. Thonhauser et al., PRB 76, 125112 (2007).                       %
     %   K. Berland et al., Rep. Prog. Phys. 78, 066501 (2015).             %
     %   D.C. Langreth et al., J. Phys.: Condens. Matter 21, 084203 (2009). %
     %                                                                      %
     %                                                                      %
     % If you are calculating the stress with vdW-DF, please also cite:     %
     %                                                                      %
     %   R. Sabatini et al., J. Phys.: Condens. Matter 24, 424209 (2012).   %
     %                                                                      %
     %%%%%%%%%%%%%%%%%%%%%%%%%%%%%%%%%%%%%%%%%%%%%%%%%%%%%%%%%%%%%%%%%%%%%%%%

     Adding external electric field

     Computed dipole along edir(3) :
        Dipole               -5.8084 Ry au,        -14.7635 Debye
        Dipole field         -0.0110 Ry au,

        Potential amp.        1.0161 Ry
        Total length         46.3494 bohr

     Starting wfcs are  296 atomic wfcs
  @ DRIVER MODE: Message from server: STATUS
  @ DRIVER MODE: Message from server: POSDATA
  @ DRIVER MODE: Reading and sharing cell
  @ DRIVER MODE: Reading and sharing positions
  @ DRIVER MODE: Received positions

     Self-consistent Calculation

     iteration #  1     ecut=    29.40 Ry     beta= 0.05
     Davidson diagonalization with overlap
     c_bands:  3 eigenvalues not converged
     c_bands:  1 eigenvalues not converged
     c_bands:  1 eigenvalues not converged
     c_bands:  2 eigenvalues not converged
     c_bands:  4 eigenvalues not converged
     c_bands:  2 eigenvalues not converged
     c_bands:  1 eigenvalues not converged
     c_bands:  1 eigenvalues not converged
     c_bands:  2 eigenvalues not converged
     ethr =  1.00E-05,  avg # of iterations = 19.5

[...]

     total energy              =   -2770.80891899 Ry
     estimated scf accuracy    <    1639.71827967 Ry

     iteration #  2     ecut=    29.40 Ry     beta= 0.05
     Davidson diagonalization with overlap
     ethr =  1.00E-02,  avg # of iterations = 19.0

[...]

     iteration # 57     ecut=    29.40 Ry     beta= 0.05
     Davidson diagonalization with overlap
     ethr =  4.46E-11,  avg # of iterations =  5.9

[...]

     total energy              =   -2920.41970678 Ry
     estimated scf accuracy    <       0.00000008 Ry

     iteration # 58     ecut=    29.40 Ry     beta= 0.05
     Davidson diagonalization with overlap
     c_bands:  1 eigenvalues not converged
     ethr =  2.15E-11,  avg # of iterations = 11.4

     negative rho (up, down):  1.825E-02 0.000E+00

     Adding external electric field

     Computed dipole along edir(3) :
        Dipole                0.6982 Ry au,          1.7746 Debye
        Dipole field          0.0013 Ry au,

        Potential amp.       -0.1221 Ry
        Total length         46.3494 bohr

     End of self-consistent calculation

          k = 0.0000 0.0000 0.0000 ( 18029 PWs)   bands (ev):

   -55.9799 -55.9712 -55.9458 -55.9351 -55.8833 -55.8226 -55.8176 -55.7850
   -55.7830 -55.7510 -55.7441 -55.7104 -55.5524 -55.2718 -54.9526 -54.9185
   -32.5312 -32.4615 -32.3325 -32.3189 -32.2986 -32.2842 -32.2730 -32.2352
   -32.2214 -32.2188 -32.1943 -32.1874 -32.1545 -32.1320 -32.1230 -32.1162
   -32.1142 -32.0835 -32.0629 -32.0370 -32.0288 -32.0248 -32.0093 -31.9866
   -31.9777 -31.9758 -31.9713 -31.9610 -31.9476 -31.9410 -31.9381 -31.9330
   -31.9211 -31.9152 -31.8974 -31.8919 -31.8567 -31.8175 -31.7214 -31.5464
   -31.5400 -31.4684 -31.3594 -31.2718 -31.2494 -31.1763 -31.0898 -30.9786
   -16.7407 -16.4575 -16.2784 -16.1351 -16.1018 -16.0169 -15.8164 -15.6912
   -15.6782 -15.5751 -15.5374 -15.5145 -15.5069 -15.4801 -15.4766 -15.4171
   -15.4146 -15.4019 -15.3897 -15.3338 -15.3098 -15.2696 -15.1761 -15.1515
   -15.1362 -15.1098 -15.0288 -15.0214 -14.5809 -14.0634 -13.4551 -13.3388
    -8.9574  -4.3405  -4.1114  -3.9344  -3.8944  -3.8824  -3.8338  -3.5819
    -3.5667  -3.3398  -3.1950  -3.1731  -3.1658  -3.1489  -3.1355  -3.1157
    -2.8789  -2.8109  -2.7949  -2.7727  -2.7655  -2.7621  -2.7500  -2.7461
    -2.7037  -2.6448  -2.5260  -2.5142  -2.4069  -2.3595  -2.3377  -2.2895
    -2.2461  -2.2397  -2.2274  -2.2101  -2.1966  -2.1761  -2.1582  -2.0234
    -1.9602  -1.8322  -1.7846  -1.7784  -1.5806  -1.5365  -1.4471  -1.4228
    -1.4063  -1.3989  -1.3667  -1.2865  -1.1952  -1.1378  -1.1240  -1.0714
    -0.9947  -0.9834  -0.8728  -0.8681  -0.7997  -0.7492  -0.7392  -0.7300
    -0.6868  -0.6101  -0.5411  -0.4643  -0.4151  -0.3942  -0.3663  -0.2878
    -0.2575  -0.1611  -0.1420  -0.0964  -0.0925  -0.0436  -0.0016   0.0083
     0.0149   0.0293   0.0475   0.1959   0.3030   0.3599   0.3938   0.4047
     0.5594   0.5952   0.6834   0.7709   0.9963   1.0695   1.1633   1.2623
     1.3170   1.6402   1.6855   3.1632   3.2420   3.2953   3.3039   3.4052
     3.4077   3.6130   3.6256   3.6361   3.7057

[...]

          k = 0.0380-0.0419 0.0000 ( 17876 PWs)   bands (ev):

[...]

          k =-0.0760-0.0000 0.0000 ( 17886 PWs)   bands (ev):

[...]

          k =-0.0760-0.0839 0.0000 ( 17948 PWs)   bands (ev):

   -55.9631 -55.9624 -55.9540 -55.9521 -55.8779 -55.8279 -55.8024 -55.7982
   -55.7686 -55.7669 -55.7279 -55.7267 -55.5514 -55.2727 -54.9355 -54.9354
   -32.3355 -32.3327 -32.2771 -32.2766 -32.2641 -32.2587 -32.2580 -32.2437
   -32.1813 -32.1804 -32.1737 -32.1699 -32.1469 -32.1187 -32.0999 -32.0958
   -32.0854 -32.0825 -32.0819 -32.0818 -32.0799 -32.0679 -32.0655 -32.0341
   -32.0228 -32.0171 -31.9927 -31.9834 -31.9654 -31.9650 -31.9609 -31.9597
   -31.9429 -31.9422 -31.9402 -31.9383 -31.8852 -31.8202 -31.7165 -31.6095
   -31.5421 -31.4939 -31.2621 -31.2620 -31.1722 -31.1721 -31.1331 -31.1331
   -16.1927 -16.1593 -15.9238 -15.9142 -15.9054 -15.8892 -15.7444 -15.6927
   -15.6842 -15.6776 -15.6534 -15.6297 -15.5785 -15.5478 -15.5138 -15.5074
   -15.5008 -15.4953 -15.4391 -15.4326 -15.4103 -15.4029 -15.2894 -15.2852
   -15.2834 -15.2072 -15.1429 -15.0093 -14.7516 -14.0839 -13.4406 -13.4406
    -8.9613  -4.3510  -3.4872  -3.4490  -3.3134  -3.1861  -3.1637  -3.1504
    -3.1300  -3.0495  -2.8904  -2.8756  -2.8573  -2.8441  -2.8039  -2.7988
    -2.7873  -2.7737  -2.7666  -2.7486  -2.7147  -2.6747  -2.6454  -2.6384
    -2.6294  -2.6048  -2.5926  -2.5655  -2.5606  -2.5278  -2.5195  -2.5005
    -2.4769  -2.2152  -2.1964  -2.1794  -2.1102  -2.1033  -2.0686  -2.0605
    -2.0414  -2.0280  -1.9759  -1.8743  -1.7121  -1.6786  -1.6667  -1.6489
    -1.5836  -1.5634  -1.4141  -1.3864  -1.3694  -1.3303  -1.2805  -1.2511
    -1.2138  -1.1747  -1.1368  -1.0765  -1.0698  -0.9897  -0.9393  -0.9389
    -0.9114  -0.8420  -0.7626  -0.7458  -0.7339  -0.6933  -0.6793  -0.5977
    -0.5751  -0.4767  -0.4638  -0.3927  -0.3658  -0.2979  -0.0879   0.0052
     0.0640   0.0880   0.1409   0.2383   0.2921   0.3072   0.3398   0.3447
     0.4048   0.4451   0.5597   0.5672   0.6358   0.7394   1.2665   1.4338
     1.4344   1.5053   1.5054   3.4251   3.4308   3.4803   3.5112   3.6628
     3.6671   3.6899   3.6910   3.8124   3.8306

     the Fermi energy is     3.1563 ev

!    total energy              =   -2920.41975701 Ry
     estimated scf accuracy    <       0.00000006 Ry
     smearing contrib. (-TS)   =      -0.02202392 Ry
     internal energy E=F+TS    =   -2920.39773309 Ry

     The total energy is F=E-TS. E is the sum of the following terms:
     one-electron contribution =  -24727.65298994 Ry
     hartree contribution      =   12448.51091861 Ry
     xc contribution           =    -480.87493017 Ry
     ewald contribution        =    9839.61834854 Ry
     electric field correction =       0.00091987 Ry

     convergence has been achieved in  58 iterations

     Forces acting on atoms (cartesian axes, Ry/au):

     atom    1 type  1   force =     0.00011938   -0.00017534    0.09687373
     atom    2 type  1   force =     0.00004574   -0.00047928   -0.17503311
     atom    3 type  2   force =     0.00012800    0.00000462   -0.02535053
     atom    4 type  2   force =    -0.00003598   -0.00127958    0.05236037
     atom    5 type  2   force =    -0.01223278   -0.00000753    0.00299364
     atom    6 type  2   force =     0.01367002    0.00058609    0.00232679
     atom    7 type  1   force =     0.00057351    0.00034316   -0.01301848
     atom    8 type  1   force =     0.00045928    0.00730562    0.03072563
     atom    9 type  2   force =     0.00055996    0.00003420   -0.00020960
     atom   10 type  2   force =    -0.00267604    0.00210729   -0.01738386
     atom   11 type  2   force =    -0.00013173    0.00006916   -0.00002908
     atom   12 type  2   force =     0.00046376    0.00033577    0.00018038
     atom   13 type  1   force =    -0.00010085   -0.00054154   -0.00011340
     atom   14 type  1   force =    -0.00043769    0.00002858    0.00078935
     atom   15 type  2   force =    -0.00001050   -0.00079512    0.00069072
     atom   16 type  2   force =     0.00025764    0.00063041   -0.00044110
     atom   17 type  2   force =     0.00063324    0.00009885    0.00066980
     atom   18 type  2   force =    -0.00003808   -0.00009189    0.00007905
     atom   19 type  1   force =     0.00003279    0.00048688   -0.00039817
     atom   20 type  1   force =    -0.00025762   -0.00028071    0.00027124
     atom   21 type  2   force =     0.00006012   -0.00002657    0.10308004
     atom   22 type  2   force =     0.00018819   -0.00083189    0.00116228
     atom   23 type  2   force =    -0.07166207   -0.00015662   -0.02782145
     atom   24 type  2   force =     0.07155584    0.00034097   -0.02787969
     atom   25 type  1   force =     0.00007812   -0.00013077    0.09659295
     atom   26 type  1   force =     0.00009313   -0.00019269   -0.17515576
     atom   27 type  2   force =     0.00011758   -0.00011242   -0.02440770
     atom   28 type  2   force =     0.00004323   -0.00103887    0.05227686
     atom   29 type  2   force =    -0.01243077    0.00063747    0.00278277
     atom   30 type  2   force =     0.01373752    0.00098101    0.00213005
     atom   31 type  1   force =     0.00045761    0.00316135   -0.01357856
     atom   32 type  1   force =     0.00032047   -0.00952033    0.03110066
     atom   33 type  2   force =    -0.00006904    0.00030851   -0.00060335
     atom   34 type  2   force =    -0.00206276    0.00182467   -0.02538869
     atom   35 type  2   force =    -0.00017330   -0.00029152    0.00037357
     atom   36 type  2   force =     0.00025679   -0.00078190    0.00040361
     atom   37 type  1   force =     0.00004646    0.00026901    0.00107700
     atom   38 type  1   force =    -0.00021997    0.00038904    0.00076126
     atom   39 type  2   force =    -0.00005033   -0.00016993   -0.00075845
     atom   40 type  2   force =     0.00041837    0.00006856    0.00062449
     atom   41 type  2   force =     0.00026961   -0.00025962   -0.00000940
     atom   42 type  2   force =    -0.00045341   -0.00039586   -0.00033637
     atom   43 type  1   force =    -0.00076366   -0.00021977    0.00030176
     atom   44 type  1   force =    -0.00039390   -0.00102905    0.00060612
     atom   45 type  2   force =     0.00004268   -0.00005068    0.10309288
     atom   46 type  2   force =    -0.07165896   -0.00006984   -0.02781641
     atom   47 type  2   force =     0.07157635    0.00035112   -0.02788645
     atom   48 type  3   force =     0.00072396   -0.00046961    0.00120293
     atom   49 type  4   force =     0.00415677   -0.00007953    0.00058160
     atom   50 type  5   force =    -0.01897491   -0.00035406    0.00288885
     atom   51 type  3   force =     0.00241210    0.00373204    0.00057636
     atom   52 type  3   force =     0.00471332    0.00058294   -0.00443504
     atom   53 type  3   force =     0.00662281   -0.00484480   -0.00152207

     Total force =     0.369116     Total SCF correction =     0.000506
  @ DRIVER MODE: Message from server: STATUS
  @ DRIVER MODE: Message from server: GETFORCE
  @ DRIVER MODE: Returning v,forces,stress,ensemble

     Writing output data file ./calc.save/
  @ DRIVER MODE: Message from server: EXIT
  @ DRIVE MODE: Exiting

     General routines

     Parallel routines

   This run was terminated on:  15:39:31   2Aug2021

   JOB DONE.