     Program PWSCF v.6.7GPU starts on 23Sep2021 at  3:33: 7

     R & G space division:  proc/nbgrp/npool/nimage =      10
     Reading input from /storage/home/hcoda1/3/ntian30/research/carbon/CxH_vib/H2O_calc/ads_slab/CHON2HO_d/out_0034/pw.inp
Warning: card &CELL ignored
Warning: card   CELL_DYNAMICS='IPI', ignored
Warning: card / ignored

     Current dimensions of program PWSCF are:
     Max number of different atomic species (ntypx) = 10
     Max number of k-points (npk) =  40000
     Max angular momentum in pseudopotentials (lmaxx) =  3
     Presently no symmetry can be used with electric field

     Message from routine cell_base_init:
     DEPRECATED: use true lattice parameter, not A to a.u. conversion factor

     IMPORTANT: XC functional enforced from input :
     Exchange-correlation= BEEF-VDW
                           (   1   4  43  14   2   0   0)
     Any further DFT definition will be discarded
     Please, verify this is what you really want

  @ DRIVER MODE: Connecting to
 qe_1139763_2937317.sched-torque.pace.gatech.edu3emk5k7m_scratch
  using UNIX socket
  @ DRIVER MODE: Message from server: STATUS
  @ DRIVER MODE: Message from server: INIT
  @ DRIVER MODE: Receiving replica           0          -1
  @ DRIVER MODE: Receiving encoded integer          25
  @ DRIVER MODE:  SCF:  T  FORCE:  T  STRESS:  F  VC:  F  ENSEMBLE:  F
  @ DRIVER MODE:  SCF:  T  FORCE:  T  STRESS:  F  VC:  F  ENSEMBLE:  F

     Using Slab Decomposition

     bravais-lattice index     =            0
     lattice parameter (alat)  =       1.8897  a.u.
     unit-cell volume          =    6658.9804 (a.u.)^3
     number of atoms/cell      =           54
     number of atomic types    =            5
     number of electrons       =       406.00
     number of Kohn-Sham states=          213
     kinetic-energy cutoff     =      29.3995  Ry
     charge density cutoff     =     293.9946  Ry
     scf convergence threshold =      7.3E-08
     mixing beta               =       0.0500
     number of iterations used =            8  plain     mixing
     Exchange-correlation= BEEF-VDW
                           (   1   4  43  14   2   0   0)

     celldm(1)=   1.889726  celldm(2)=   0.000000  celldm(3)=   0.000000
     celldm(4)=   0.000000  celldm(5)=   0.000000  celldm(6)=   0.000000

     crystal axes: (cart. coord. in units of alat)
               a(1) = (   6.579727   0.000000   0.000000 )
               a(2) = (  -0.000775   5.961596   0.000000 )
               a(3) = (   0.000000   0.000000  25.155947 )

     reciprocal axes: (cart. coord. in units 2 pi/alat)
               b(1) = (  0.151982  0.000020  0.000000 )
               b(2) = (  0.000000  0.167740  0.000000 )
               b(3) = (  0.000000  0.000000  0.039752 )

     PseudoPot. # 1 for O  read from file:
     /storage/coda1/p-amedford6/0/shared/rich_project_chbe-medford/medford-share/data/pseudos_module/espresso/nninc/pbe/van/O.UPF
     MD5 check sum: 78c19812648e8988a0fe644b0f25305e
     Pseudo is Ultrasoft, Zval =  6.0
     Generated by new atomic code, or converted to UPF format
     Using radial grid of  737 points,  4 beta functions with:
                l(1) =   0
                l(2) =   0
                l(3) =   1
                l(4) =   1
     Q(r) pseudized with  8 coefficients,  rinner =    0.800   0.800   0.800

     PseudoPot. # 2 for Ti read from file:
     /storage/coda1/p-amedford6/0/shared/rich_project_chbe-medford/medford-share/data/pseudos_module/espresso/nninc/pbe/van/Ti.UPF
     MD5 check sum: 8e4df49b7f0d34bbd5052bf3f5ea0213
     Pseudo is Ultrasoft, Zval = 12.0
     Generated by new atomic code, or converted to UPF format
     Using radial grid of  851 points,  6 beta functions with:
                l(1) =   0
                l(2) =   0
                l(3) =   1
                l(4) =   1
                l(5) =   2
                l(6) =   2
     Q(r) pseudized with  8 coefficients,  rinner =    1.000   1.000   1.000
                                                       1.000   1.000

     PseudoPot. # 3 for C  read from file:
     /storage/coda1/p-amedford6/0/shared/rich_project_chbe-medford/medford-share/data/pseudos_module/espresso/nninc/pbe/van/C.UPF
     MD5 check sum: 1a69bf6b8db32088f5b2163dbdb77a27
     Pseudo is Ultrasoft, Zval =  4.0
     Generated by new atomic code, or converted to UPF format
     Using radial grid of  721 points,  4 beta functions with:
                l(1) =   0
                l(2) =   0
                l(3) =   1
                l(4) =   1
     Q(r) pseudized with  8 coefficients,  rinner =    0.800   0.800   0.800

     PseudoPot. # 4 for H  read from file:
     /storage/coda1/p-amedford6/0/shared/rich_project_chbe-medford/medford-share/data/pseudos_module/espresso/nninc/pbe/van/H.UPF
     MD5 check sum: b5ee9d7bfd3a09ee7748110bda690ff7
     Pseudo is Ultrasoft, Zval =  1.0
     Generated by new atomic code, or converted to UPF format
     Using radial grid of  615 points,  1 beta functions with:
                l(1) =   0
     Q(r) pseudized with  8 coefficients,  rinner =    0.800

     PseudoPot. # 5 for N  read from file:
     /storage/coda1/p-amedford6/0/shared/rich_project_chbe-medford/medford-share/data/pseudos_module/espresso/nninc/pbe/van/N.UPF
     MD5 check sum: 90d10febe142ad51ac9d5be1deb811c4
     Pseudo is Ultrasoft, Zval =  5.0
     Generated by new atomic code, or converted to UPF format
     Using radial grid of  729 points,  4 beta functions with:
                l(1) =   0
                l(2) =   0
                l(3) =   1
                l(4) =   1
     Q(r) pseudized with  8 coefficients,  rinner =    0.800   0.800   0.800

     atomic species   valence    mass     pseudopotential
        O1             6.00    15.99900     O ( 1.00)
        Ti1           12.00    47.86700     Ti( 1.00)
        C1             4.00    12.01100     C ( 1.00)
        H1             1.00     1.00800     H ( 1.00)
        N1             5.00    14.00700     N ( 1.00)

     No symmetry found

   Cartesian axes

     site n.     atom                  positions (alat units)
         1           O1  tau(   1) = (   3.2904802   0.0005063   4.7018136  )
         2           O1  tau(   2) = (   3.2900926   2.9813045   4.7018136  )
         3           Ti1 tau(   3) = (   0.0004258   2.9801865   6.0000000  )
         4           Ti1 tau(   4) = (   0.0000382   5.9609847   6.0000000  )
         5           Ti1 tau(   5) = (   3.2906075   1.4906267   6.0002472  )
         6           Ti1 tau(   6) = (   3.2902200   4.4714249   6.0002472  )
         7           O1  tau(   7) = (   1.3043587   1.4918075   6.0039043  )
         8           O1  tau(   8) = (   1.3039711   4.4726057   6.0039043  )
         9           O1  tau(   9) = (   5.2767064   1.4903225   6.0039473  )
        10           O1  tau(  10) = (   5.2763189   4.4711207   6.0039473  )
        11           O1  tau(  11) = (   3.2906025   0.0005020   7.3038282  )
        12           O1  tau(  12) = (   3.2902150   2.9813002   7.3038282  )
        13           O1  tau(  13) = (   0.0006271   0.0005054   7.9858123  )
        14           O1  tau(  14) = (   0.0002396   2.9813036   7.9858123  )
        15           Ti1 tau(  15) = (   3.2350752   0.0608747   9.1773017  )
        16           Ti1 tau(  16) = (   3.2297482   3.0449837   9.2258248  )
        17           Ti1 tau(  17) = (   6.5035314   4.4790947   9.3419400  )
        18           O1  tau(  18) = (   4.5942328   1.4918067   9.2879030  )
        19           O1  tau(  19) = (   4.5938453   4.4726049   9.2879030  )
        20           O1  tau(  20) = (   1.9868534   1.4903216   9.2879459  )
        21           O1  tau(  21) = (   1.9864658   4.4711199   9.2879459  )
        22           Ti1 tau(  22) = (   6.5047199   1.5482117   9.3251357  )
        23           O1  tau(  23) = (   6.5709586   2.9893791  10.5365161  )
        24           O1  tau(  24) = (   6.5791863   0.0068326  10.5847705  )
        25           O1  tau(  25) = (   3.2737170   2.9471243  11.2864913  )
        26           O1  tau(  26) = (   3.2757665   0.0160177  11.3056520  )
        27           Ti1 tau(  27) = (   3.3024496   1.5456137  12.4328335  )
        28           Ti1 tau(  28) = (   0.0381823   0.0558990  12.5328616  )
        29           Ti1 tau(  29) = (   3.2867454   4.6490159  12.6676011  )
        30           O1  tau(  30) = (   1.2579511   1.4933188  12.6274103  )
        31           O1  tau(  31) = (   5.2930440   1.4968169  12.6131059  )
        32           O1  tau(  32) = (   1.2503383   4.4760527  12.6363980  )
        33           O1  tau(  33) = (   5.2887019   4.4660859  12.6249461  )
        34           Ti1 tau(  34) = (   6.5320965   3.0346479  12.8073368  )
        35           O1  tau(  35) = (   3.2762579   2.9735537  13.8874883  )
        36           O1  tau(  36) = (   3.2793791   5.9387796  13.8789893  )
        37           O1  tau(  37) = (   6.5412754   2.9812497  14.6926498  )
        38           O1  tau(  38) = (   6.5531526   0.0082392  14.6823945  )
        39           Ti1 tau(  39) = (   3.2668636   2.9663550  15.6683660  )
        40           Ti1 tau(  40) = (   3.2982107   5.9440960  16.3508785  )
        41           Ti1 tau(  41) = (   0.0141158   4.5598071  15.9269461  )
        42           O1  tau(  42) = (   4.5124726   4.4172202  16.0573870  )
        43           O1  tau(  43) = (   1.9821766   4.4208814  16.0404589  )
        44           O1  tau(  44) = (   4.4954461   1.5000296  16.1066544  )
        45           O1  tau(  45) = (   1.9782815   1.5221889  16.0619205  )
        46           Ti1 tau(  46) = (   0.0269324   1.3869748  16.0447141  )
        47           O1  tau(  47) = (   6.5379229   5.9414530  17.1901000  )
        48           O1  tau(  48) = (   6.5175113   2.9840192  17.3772383  )
        49           C1  tau(  49) = (   5.9742390   3.1768082  18.5865123  )
        50           H1  tau(  50) = (   5.8341806   4.1706531  18.9840957  )
        51           N1  tau(  51) = (   5.5886240   2.1683037  19.3003467  )
        52           N1  tau(  52) = (   5.2398892   1.2394158  19.8970451  )
        53           O1  tau(  53) = (   3.2183551   5.8934210  18.1446619  )
        54           H1  tau(  54) = (   3.7026433   0.4006729  18.8445816  )

     number of k points=    10  Fermi-Dirac smearing, width (Ry)=  0.0073
                       cart. coord. in units 2pi/alat
        k(    1) = (   0.0000000   0.0000000   0.0000000), wk =   0.1250000
        k(    2) = (   0.0000000   0.0419351   0.0000000), wk =   0.2500000
        k(    3) = (   0.0000000  -0.0838702   0.0000000), wk =   0.1250000
        k(    4) = (   0.0379955   0.0000049   0.0000000), wk =   0.2500000
        k(    5) = (   0.0379955   0.0419400   0.0000000), wk =   0.2500000
        k(    6) = (   0.0379955  -0.0838652   0.0000000), wk =   0.2500000
        k(    7) = (   0.0379955  -0.0419301   0.0000000), wk =   0.2500000
        k(    8) = (  -0.0759910  -0.0000099   0.0000000), wk =   0.1250000
        k(    9) = (  -0.0759910   0.0419252   0.0000000), wk =   0.2500000
        k(   10) = (  -0.0759910  -0.0838800   0.0000000), wk =   0.1250000

     Initial potential from superposition of free atoms

     starting charge  389.99917, renormalised to  406.00000

     negative rho (up, down):  1.659E-02 0.000E+00

     %%%%%%%%%%%%%%%%%%%%%%%%%%%%%%%%%%%%%%%%%%%%%%%%%%%%%%%%%%%%%%%%%%%%%%%%
     %                                                                      %
     % You are using vdW-DF, which was implemented by the Thonhauser group. %
     % Please cite the following two papers that made this development      %
     % possible and the two reviews that describe the various versions:     %
     %                                                                      %
     %   T. Thonhauser et al., PRL 115, 136402 (2015).                      %
     %   T. Thonhauser et al., PRB 76, 125112 (2007).                       %
     %   K. Berland et al., Rep. Prog. Phys. 78, 066501 (2015).             %
     %   D.C. Langreth et al., J. Phys.: Condens. Matter 21, 084203 (2009). %
     %                                                                      %
     %                                                                      %
     % If you are calculating the stress with vdW-DF, please also cite:     %
     %                                                                      %
     %   R. Sabatini et al., J. Phys.: Condens. Matter 24, 424209 (2012).   %
     %                                                                      %
     %%%%%%%%%%%%%%%%%%%%%%%%%%%%%%%%%%%%%%%%%%%%%%%%%%%%%%%%%%%%%%%%%%%%%%%%

     Adding external electric field

     Computed dipole along edir(3) :
        Dipole              -13.7787 Ry au,        -35.0219 Debye
        Dipole field         -0.0260 Ry au,

        Potential amp.        2.4104 Ry
        Total length         46.3494 bohr

     Starting wfcs are  306 atomic wfcs
  @ DRIVER MODE: Message from server: STATUS
  @ DRIVER MODE: Message from server: POSDATA
  @ DRIVER MODE: Reading and sharing cell
  @ DRIVER MODE: Reading and sharing positions
  @ DRIVER MODE: Received positions

     Self-consistent Calculation

     iteration #  1     ecut=    29.40 Ry     beta= 0.05
     Davidson diagonalization with overlap
     c_bands:  1 eigenvalues not converged
     c_bands:  1 eigenvalues not converged
     c_bands:  5 eigenvalues not converged
     c_bands:  5 eigenvalues not converged
     ethr =  1.00E-05,  avg # of iterations = 31.2

[...]

     total energy              =   -2310.94656288 Ry
     estimated scf accuracy    <    7863.95890253 Ry

     iteration #  2     ecut=    29.40 Ry     beta= 0.05
     Davidson diagonalization with overlap
     ethr =  1.00E-02,  avg # of iterations = 24.6

[...]

     iteration # 56     ecut=    29.40 Ry     beta= 0.05
     Davidson diagonalization with overlap
     c_bands:  1 eigenvalues not converged
     c_bands:  1 eigenvalues not converged
     c_bands:  1 eigenvalues not converged
     c_bands:  1 eigenvalues not converged
     c_bands:  1 eigenvalues not converged
     c_bands:  2 eigenvalues not converged
     c_bands:  1 eigenvalues not converged
     ethr =  2.51E-07,  avg # of iterations = 17.1

[...]

     total energy              =   -3002.64636018 Ry
     estimated scf accuracy    <       0.00000007 Ry

     iteration # 77     ecut=    29.40 Ry     beta= 0.05
     Davidson diagonalization with overlap
     ethr =  1.82E-11,  avg # of iterations =  5.5

     negative rho (up, down):  1.646E-02 0.000E+00

     Adding external electric field

     Computed dipole along edir(3) :
        Dipole                0.4168 Ry au,          1.0594 Debye
        Dipole field          0.0008 Ry au,

        Potential amp.       -0.0729 Ry
        Total length         46.3494 bohr

     End of self-consistent calculation

          k = 0.0000 0.0000 0.0000 ( 18029 PWs)   bands (ev):

   -56.2503 -56.1936 -55.7640 -55.7132 -55.7051 -55.6896 -55.6575 -55.6503
   -55.6210 -55.6113 -55.5706 -55.5539 -55.4891 -55.3184 -54.9014 -54.8675
   -32.6654 -32.5264 -32.4610 -32.4204 -32.3220 -32.2900 -32.2455 -32.2159
   -32.2006 -32.0981 -32.0672 -32.0051 -32.0012 -31.9943 -31.9865 -31.9620
   -31.9554 -31.9481 -31.9278 -31.9199 -31.8679 -31.8631 -31.8593 -31.8575
   -31.8541 -31.8366 -31.8336 -31.8157 -31.8133 -31.8089 -31.8015 -31.7715
   -31.7694 -31.7685 -31.7434 -31.7314 -31.7253 -31.7182 -31.6908 -31.5783
   -31.5369 -31.5285 -31.2981 -31.2393 -31.2151 -31.1146 -31.0293 -30.9181
   -20.5475 -18.6839 -16.5313 -16.4670 -16.3087 -16.1028 -15.9436 -15.8702
   -15.6785 -15.5898 -15.5322 -15.5015 -15.4684 -15.3879 -15.3530 -15.3015
   -15.2559 -15.2413 -15.2184 -15.2009 -15.1901 -15.1871 -15.1828 -15.1539
   -15.1125 -15.0148 -14.9471 -14.9107 -14.8908 -14.8813 -14.8405 -14.5326
   -13.5414 -13.4036 -13.2940  -6.9401  -5.8957  -4.9333  -4.3753  -3.9588
    -3.7848  -3.6922  -3.6428  -3.5682  -3.5284  -3.3393  -3.3058  -3.1485
    -3.0264  -2.9442  -2.8725  -2.8551  -2.8296  -2.7923  -2.7342  -2.6991
    -2.6682  -2.6383  -2.5807  -2.5405  -2.5134  -2.4818  -2.4674  -2.4305
    -2.4121  -2.4060  -2.2666  -2.2200  -2.1766  -2.1714  -2.1472  -2.1256
    -2.1038  -2.0686  -2.0559  -2.0068  -1.9291  -1.8426  -1.8262  -1.7443
    -1.7103  -1.5372  -1.4727  -1.3982  -1.3674  -1.2032  -1.1759  -1.1678
    -1.1460  -1.1257  -1.0033  -0.9703  -0.9357  -0.9257  -0.8905  -0.8653
    -0.8416  -0.7340  -0.6699  -0.6304  -0.6151  -0.5496  -0.4534  -0.3821
    -0.3529  -0.3207  -0.2897  -0.1845  -0.1526  -0.1116  -0.1035  -0.0422
    -0.0090   0.0144   0.0713   0.0980   0.1522   0.1663   0.1865   0.2258
     0.2359   0.2819   0.3491   0.4140   0.5111   0.5309   0.5569   0.5933
     0.6732   0.7479   0.8291   1.0094   1.1163   1.1563   1.3201   1.3666
     1.6671   1.7148   2.5309   3.0403   3.1921   3.4547   3.5070   3.5421
     3.5815   3.6384   3.7689   3.8788   3.9363

[...]

          k = 0.0380-0.0419 0.0000 ( 17876 PWs)   bands (ev):

[...]

          k =-0.0760-0.0000 0.0000 ( 17886 PWs)   bands (ev):

[...]

          k =-0.0760-0.0839 0.0000 ( 17948 PWs)   bands (ev):

   -56.2448 -56.1991 -55.7615 -55.7118 -55.6975 -55.6852 -55.6649 -55.6527
   -55.6254 -55.6022 -55.5796 -55.5549 -55.4874 -55.3200 -54.8846 -54.8842
   -32.5228 -32.5009 -32.4635 -32.4620 -32.3886 -32.3507 -32.1492 -32.0659
   -32.0563 -32.0193 -32.0140 -31.9819 -31.9780 -31.9734 -31.9508 -31.9446
   -31.9367 -31.9328 -31.9298 -31.9201 -31.9101 -31.9040 -31.8800 -31.8749
   -31.8731 -31.8662 -31.8658 -31.8596 -31.8414 -31.8369 -31.8223 -31.8188
   -31.8152 -31.8052 -31.7982 -31.7732 -31.7583 -31.7236 -31.6945 -31.6524
   -31.5771 -31.5312 -31.2282 -31.2280 -31.1136 -31.1114 -31.0714 -31.0703
   -20.5460 -18.6723 -16.5142 -15.8304 -15.8215 -15.7881 -15.7481 -15.7006
   -15.6871 -15.6199 -15.6106 -15.5828 -15.5023 -15.4392 -15.3854 -15.3625
   -15.3588 -15.3358 -15.3088 -15.2673 -15.2459 -15.2366 -15.2268 -15.1713
   -15.1495 -15.1479 -15.1201 -15.0998 -15.0766 -15.0322 -14.8959 -14.6911
   -13.5486 -13.3985 -13.3966  -6.9120  -5.9110  -4.9313  -4.3651  -3.6184
    -3.2920  -3.0893  -3.0598  -2.9785  -2.9223  -2.8243  -2.8052  -2.7871
    -2.7712  -2.7581  -2.7320  -2.7030  -2.6540  -2.6250  -2.5907  -2.5793
    -2.5720  -2.5518  -2.5445  -2.5130  -2.4968  -2.4788  -2.4605  -2.4426
    -2.4292  -2.4146  -2.3436  -2.3113  -2.2775  -2.1113  -2.0978  -2.0949
    -2.0701  -2.0531  -2.0435  -1.9821  -1.9198  -1.9101  -1.8591  -1.8437
    -1.7648  -1.6990  -1.5377  -1.4992  -1.4714  -1.3957  -1.3363  -1.3040
    -1.2810  -1.2483  -1.2147  -1.2063  -1.1618  -1.1110  -1.0321  -1.0109
    -0.9588  -0.9514  -0.9422  -0.8627  -0.7889  -0.7720  -0.7258  -0.7076
    -0.6840  -0.6462  -0.5911  -0.5566  -0.5436  -0.5309  -0.4345  -0.3832
    -0.3294  -0.2285  -0.1906  -0.1312  -0.0195   0.0633   0.0745   0.1733
     0.2147   0.3141   0.3530   0.4035   0.4428   0.4711   0.5003   0.6182
     0.6362   0.6820   0.7604   0.7777   0.8050   0.8562   1.5053   1.5128
     1.5232   1.5248   2.4506   3.5622   3.5899   3.6085   3.6473   3.8443
     3.8746   3.8931   3.9224   3.9395   3.9921

     the Fermi energy is     2.8425 ev

!    total energy              =   -3002.64637310 Ry
     estimated scf accuracy    <       0.00000003 Ry
     smearing contrib. (-TS)   =      -0.00427098 Ry
     internal energy E=F+TS    =   -3002.64210212 Ry

     The total energy is F=E-TS. E is the sum of the following terms:
     one-electron contribution =  -23370.37750351 Ry
     hartree contribution      =   11779.04252521 Ry
     xc contribution           =    -498.79487291 Ry
     ewald contribution        =    9087.48742123 Ry
     electric field correction =       0.00032786 Ry

     convergence has been achieved in  77 iterations

     Forces acting on atoms (cartesian axes, Ry/au):

     atom    1 type  1   force =     0.00016659    0.00010319    0.09955488
     atom    2 type  1   force =     0.00014806    0.00020871    0.09906348
     atom    3 type  2   force =     0.00018688    0.00034242    0.12389592
     atom    4 type  2   force =     0.00044177    0.00004561    0.13847479
     atom    5 type  2   force =    -0.00009520    0.00965460   -0.15997626
     atom    6 type  2   force =     0.00009345   -0.00873773   -0.15976352
     atom    7 type  1   force =    -0.07908410    0.00145986   -0.03321742
     atom    8 type  1   force =    -0.07911281   -0.00181564   -0.03325663
     atom    9 type  1   force =     0.07904067    0.00179031   -0.03329487
     atom   10 type  1   force =     0.07906908   -0.00146986   -0.03327365
     atom   11 type  1   force =    -0.00114368    0.00062967    0.04294176
     atom   12 type  1   force =    -0.00115033    0.00003602    0.04559915
     atom   13 type  1   force =    -0.00039699   -0.00173826   -0.05061153
     atom   14 type  1   force =    -0.00086117    0.00123305   -0.04782108
     atom   15 type  2   force =    -0.00033569   -0.00004474    0.00004420
     atom   16 type  2   force =    -0.00033071    0.00005195   -0.00023770
     atom   17 type  2   force =     0.00023542   -0.00039262   -0.00021650
     atom   18 type  1   force =    -0.01155770   -0.00689761   -0.00022817
     atom   19 type  1   force =    -0.01368509    0.00098341    0.00212911
     atom   20 type  1   force =     0.01285171   -0.00248357   -0.00224645
     atom   21 type  1   force =     0.01410773    0.00576548    0.00038172
     atom   22 type  2   force =     0.00031421    0.00005812    0.00019590
     atom   23 type  1   force =    -0.00010101   -0.00008774   -0.00004205
     atom   24 type  1   force =    -0.00025551    0.00000139    0.00040138
     atom   25 type  1   force =     0.00023528    0.00031664   -0.00012831
     atom   26 type  1   force =     0.00035082    0.00011350   -0.00029549
     atom   27 type  2   force =    -0.00030713   -0.00042088    0.00033841
     atom   28 type  2   force =     0.00052577   -0.00028771   -0.00004534
     atom   29 type  2   force =    -0.00015484    0.00022793    0.00015926
     atom   30 type  1   force =    -0.00032612   -0.00035090   -0.00024451
     atom   31 type  1   force =     0.00048753   -0.00003776    0.00012529
     atom   32 type  1   force =    -0.00029078    0.00039647    0.00000852
     atom   33 type  1   force =     0.00022502    0.00034307    0.00011204
     atom   34 type  2   force =     0.00041117    0.00016723   -0.00031295
     atom   35 type  1   force =     0.00006095   -0.00009327   -0.00043671
     atom   36 type  1   force =     0.00008871   -0.00002344    0.00038630
     atom   37 type  1   force =    -0.00000104   -0.00017202    0.00055787
     atom   38 type  1   force =     0.00003828    0.00040453   -0.00007264
     atom   39 type  2   force =    -0.00000242    0.00003278    0.00038432
     atom   40 type  2   force =    -0.00015156    0.00039150   -0.00023337
     atom   41 type  2   force =    -0.00020824    0.00040233   -0.00013722
     atom   42 type  1   force =     0.00011161    0.00041756    0.00024166
     atom   43 type  1   force =    -0.00033816    0.00021216    0.00007906
     atom   44 type  1   force =     0.00057377    0.00014037    0.00013047
     atom   45 type  1   force =    -0.00079267    0.00010390    0.00009206
     atom   46 type  2   force =    -0.00010011    0.00032411   -0.00017838
     atom   47 type  1   force =     0.00000210    0.00016106    0.00010910
     atom   48 type  1   force =     0.00037821    0.00004352   -0.00059980
     atom   49 type  3   force =     0.00024819    0.00046751   -0.00033906
     atom   50 type  4   force =    -0.00007037    0.00029198    0.00061897
     atom   51 type  5   force =    -0.00044796   -0.00110653    0.00056726
     atom   52 type  5   force =     0.00068407   -0.00010249    0.00016398
     atom   53 type  1   force =    -0.00392714   -0.00484857   -0.00578699
     atom   54 type  4   force =     0.00415151    0.00378944    0.00623973

     Total force =     0.380396     Total SCF correction =     0.000438
  @ DRIVER MODE: Message from server: STATUS
  @ DRIVER MODE: Message from server: GETFORCE
  @ DRIVER MODE: Returning v,forces,stress,ensemble

     Writing output data file ./calc.save/
  @ DRIVER MODE: Message from server: EXIT
  @ DRIVE MODE: Exiting

     General routines

     Parallel routines

   This run was terminated on:   3:54:25  23Sep2021

   JOB DONE.