     Program PWSCF v.6.7GPU starts on  9Sep2021 at  2:51: 8

     R & G space division:  proc/nbgrp/npool/nimage =      10
     Reading input from /storage/home/hcoda1/3/ntian30/research/carbon/CxH_vib/CH3_calc/ads_slab/CH3NNH3_a/out_0015/pw.inp
Warning: card &CELL ignored
Warning: card   CELL_DYNAMICS='IPI', ignored
Warning: card / ignored

     Current dimensions of program PWSCF are:
     Max number of different atomic species (ntypx) = 10
     Max number of k-points (npk) =  40000
     Max angular momentum in pseudopotentials (lmaxx) =  3
     Presently no symmetry can be used with electric field

     Message from routine cell_base_init:
     DEPRECATED: use true lattice parameter, not A to a.u. conversion factor

     IMPORTANT: XC functional enforced from input :
     Exchange-correlation= BEEF-VDW
                           (   1   4  43  14   2   0   0)
     Any further DFT definition will be discarded
     Please, verify this is what you really want

  @ DRIVER MODE: Connecting to
 qe_1139763_2767402.sched-torque.pace.gatech.edu40e8tx6d_scratch
  using UNIX socket
  @ DRIVER MODE: Message from server: STATUS
  @ DRIVER MODE: Message from server: INIT
  @ DRIVER MODE: Receiving replica           0          -1
  @ DRIVER MODE: Receiving encoded integer          25
  @ DRIVER MODE:  SCF:  T  FORCE:  T  STRESS:  F  VC:  F  ENSEMBLE:  F
  @ DRIVER MODE:  SCF:  T  FORCE:  T  STRESS:  F  VC:  F  ENSEMBLE:  F

     Using Slab Decomposition

     bravais-lattice index     =            0
     lattice parameter (alat)  =       1.8897  a.u.
     unit-cell volume          =    6658.9804 (a.u.)^3
     number of atoms/cell      =           56
     number of atomic types    =            5
     number of electrons       =       398.00
     number of Kohn-Sham states=          209
     kinetic-energy cutoff     =      29.3995  Ry
     charge density cutoff     =     293.9946  Ry
     scf convergence threshold =      7.3E-08
     mixing beta               =       0.0500
     number of iterations used =            8  plain     mixing
     Exchange-correlation= BEEF-VDW
                           (   1   4  43  14   2   0   0)

     celldm(1)=   1.889726  celldm(2)=   0.000000  celldm(3)=   0.000000
     celldm(4)=   0.000000  celldm(5)=   0.000000  celldm(6)=   0.000000

     crystal axes: (cart. coord. in units of alat)
               a(1) = (   6.579727   0.000000   0.000000 )
               a(2) = (  -0.000775   5.961596   0.000000 )
               a(3) = (   0.000000   0.000000  25.155947 )

     reciprocal axes: (cart. coord. in units 2 pi/alat)
               b(1) = (  0.151982  0.000020  0.000000 )
               b(2) = (  0.000000  0.167740  0.000000 )
               b(3) = (  0.000000  0.000000  0.039752 )

     PseudoPot. # 1 for Ti read from file:
     /storage/coda1/p-amedford6/0/shared/rich_project_chbe-medford/medford-share/data/pseudos_module/espresso/nninc/pbe/van/Ti.UPF
     MD5 check sum: 8e4df49b7f0d34bbd5052bf3f5ea0213
     Pseudo is Ultrasoft, Zval = 12.0
     Generated by new atomic code, or converted to UPF format
     Using radial grid of  851 points,  6 beta functions with:
                l(1) =   0
                l(2) =   0
                l(3) =   1
                l(4) =   1
                l(5) =   2
                l(6) =   2
     Q(r) pseudized with  8 coefficients,  rinner =    1.000   1.000   1.000
                                                       1.000   1.000

     PseudoPot. # 2 for O  read from file:
     /storage/coda1/p-amedford6/0/shared/rich_project_chbe-medford/medford-share/data/pseudos_module/espresso/nninc/pbe/van/O.UPF
     MD5 check sum: 78c19812648e8988a0fe644b0f25305e
     Pseudo is Ultrasoft, Zval =  6.0
     Generated by new atomic code, or converted to UPF format
     Using radial grid of  737 points,  4 beta functions with:
                l(1) =   0
                l(2) =   0
                l(3) =   1
                l(4) =   1
     Q(r) pseudized with  8 coefficients,  rinner =    0.800   0.800   0.800

     PseudoPot. # 3 for N  read from file:
     /storage/coda1/p-amedford6/0/shared/rich_project_chbe-medford/medford-share/data/pseudos_module/espresso/nninc/pbe/van/N.UPF
     MD5 check sum: 90d10febe142ad51ac9d5be1deb811c4
     Pseudo is Ultrasoft, Zval =  5.0
     Generated by new atomic code, or converted to UPF format
     Using radial grid of  729 points,  4 beta functions with:
                l(1) =   0
                l(2) =   0
                l(3) =   1
                l(4) =   1
     Q(r) pseudized with  8 coefficients,  rinner =    0.800   0.800   0.800

     PseudoPot. # 4 for C  read from file:
     /storage/coda1/p-amedford6/0/shared/rich_project_chbe-medford/medford-share/data/pseudos_module/espresso/nninc/pbe/van/C.UPF
     MD5 check sum: 1a69bf6b8db32088f5b2163dbdb77a27
     Pseudo is Ultrasoft, Zval =  4.0
     Generated by new atomic code, or converted to UPF format
     Using radial grid of  721 points,  4 beta functions with:
                l(1) =   0
                l(2) =   0
                l(3) =   1
                l(4) =   1
     Q(r) pseudized with  8 coefficients,  rinner =    0.800   0.800   0.800

     PseudoPot. # 5 for H  read from file:
     /storage/coda1/p-amedford6/0/shared/rich_project_chbe-medford/medford-share/data/pseudos_module/espresso/nninc/pbe/van/H.UPF
     MD5 check sum: b5ee9d7bfd3a09ee7748110bda690ff7
     Pseudo is Ultrasoft, Zval =  1.0
     Generated by new atomic code, or converted to UPF format
     Using radial grid of  615 points,  1 beta functions with:
                l(1) =   0
     Q(r) pseudized with  8 coefficients,  rinner =    0.800

     atomic species   valence    mass     pseudopotential
        Ti1           12.00    47.86700     Ti( 1.00)
        O1             6.00    15.99900     O ( 1.00)
        N1             5.00    14.00700     N ( 1.00)
        C1             4.00    12.01100     C ( 1.00)
        H1             1.00     1.00800     H ( 1.00)

     No symmetry found

   Cartesian axes

     site n.     atom                  positions (alat units)
         1           Ti1 tau(   1) = (   0.0004258   2.9801865   6.0000000  )
         2           Ti1 tau(   2) = (   3.2906075   1.4906267   6.0002472  )
         3           O1  tau(   3) = (   0.0006271   0.0005054   7.9858123  )
         4           O1  tau(   4) = (   3.2906025   0.0005020   7.3038282  )
         5           O1  tau(   5) = (   4.5942328   1.4918067   9.2879030  )
         6           O1  tau(   6) = (   1.9868534   1.4903216   9.2879459  )
         7           Ti1 tau(   7) = (   3.2907910   2.8959150   9.1758416  )
         8           Ti1 tau(   8) = (   0.0015273   1.4827037   9.2680791  )
         9           O1  tau(   9) = (   3.2915376   0.0135470  11.3011085  )
        10           O1  tau(  10) = (   0.0116148   5.9584955  10.6183126  )
        11           O1  tau(  11) = (   1.3264285   1.5112823  12.6233503  )
        12           O1  tau(  12) = (   5.3038506   1.5117067  12.6402039  )
        13           Ti1 tau(  13) = (   6.4820107   2.9926285  12.7699842  )
        14           Ti1 tau(  14) = (   3.1705855   1.5046985  12.4703807  )
        15           O1  tau(  15) = (   0.0265921   0.0018185  14.6022993  )
        16           O1  tau(  16) = (   3.3077976   0.0231332  13.8844522  )
        17           O1  tau(  17) = (   4.5431088   1.5356983  16.0582573  )
        18           O1  tau(  18) = (   2.0919096   1.5355568  16.0602035  )
        19           Ti1 tau(  19) = (   3.3160089   3.0194793  15.6930983  )
        20           Ti1 tau(  20) = (   0.0166562   1.5958061  16.1043543  )
        21           O1  tau(  21) = (   3.2904802   0.0005063   4.7018136  )
        22           O1  tau(  22) = (   0.0292894   0.0555714  17.2141426  )
        23           O1  tau(  23) = (   1.3043587   1.4918075   6.0039043  )
        24           O1  tau(  24) = (   5.2767064   1.4903225   6.0039473  )
        25           Ti1 tau(  25) = (   0.0000382   5.9609847   6.0000000  )
        26           Ti1 tau(  26) = (   3.2902200   4.4714249   6.0002472  )
        27           O1  tau(  27) = (   0.0002396   2.9813036   7.9858123  )
        28           O1  tau(  28) = (   3.2902150   2.9813002   7.3038282  )
        29           O1  tau(  29) = (   4.5938453   4.4726049   9.2879030  )
        30           O1  tau(  30) = (   1.9864658   4.4711199   9.2879459  )
        31           Ti1 tau(  31) = (   3.2891106   5.8743827   9.1763621  )
        32           Ti1 tau(  32) = (   0.0006254   4.4649316   9.2693709  )
        33           O1  tau(  33) = (   3.2938734   2.9940915  11.3014364  )
        34           O1  tau(  34) = (   0.0092240   2.9805883  10.6323155  )
        35           O1  tau(  35) = (   1.3265148   4.4779228  12.6213786  )
        36           O1  tau(  36) = (   5.3043665   4.4729268  12.6387898  )
        37           Ti1 tau(  37) = (   6.5102921   0.0103953  12.7821347  )
        38           Ti1 tau(  38) = (   3.1702703   4.4844908  12.4724723  )
        39           O1  tau(  39) = (   0.0044238   2.9856840  14.6711682  )
        40           O1  tau(  40) = (   3.3052367   3.0047533  13.8869641  )
        41           O1  tau(  41) = (   4.5463945   4.5179403  16.0573015  )
        42           O1  tau(  42) = (   2.0913021   4.5186677  16.0620504  )
        43           Ti1 tau(  43) = (   3.3128124   0.0388915  15.6953448  )
        44           Ti1 tau(  44) = (   0.0191476   4.5695365  16.1495174  )
        45           O1  tau(  45) = (   3.2900926   2.9813045   4.7018136  )
        46           O1  tau(  46) = (   1.3039711   4.4726057   6.0039043  )
        47           O1  tau(  47) = (   5.2763189   4.4711207   6.0039473  )
        48           N1  tau(  48) = (   0.0657769   3.0188755  17.3428317  )
        49           N1  tau(  49) = (   6.3710133   2.5762042  22.6422586  )
        50           C1  tau(  50) = (   0.3130180   2.9907025  18.7658599  )
        51           H1  tau(  51) = (   0.2928038   4.0066326  19.1970245  )
        52           H1  tau(  52) = (   6.1505335   2.3845869  19.2855718  )
        53           H1  tau(  53) = (   1.2957935   2.5555442  18.9776258  )
        54           H1  tau(  54) = (   5.9555952   3.1943721  23.3306195  )
        55           H1  tau(  55) = (   0.0098814   1.7053999  23.1148127  )
        56           H1  tau(  56) = (   0.6724875   2.9916800  22.3598805  )

     number of k points=    10  Fermi-Dirac smearing, width (Ry)=  0.0073
                       cart. coord. in units 2pi/alat
        k(    1) = (   0.0000000   0.0000000   0.0000000), wk =   0.1250000
        k(    2) = (   0.0000000   0.0419351   0.0000000), wk =   0.2500000
        k(    3) = (   0.0000000  -0.0838702   0.0000000), wk =   0.1250000
        k(    4) = (   0.0379955   0.0000049   0.0000000), wk =   0.2500000
        k(    5) = (   0.0379955   0.0419400   0.0000000), wk =   0.2500000
        k(    6) = (   0.0379955  -0.0838652   0.0000000), wk =   0.2500000
        k(    7) = (   0.0379955  -0.0419301   0.0000000), wk =   0.2500000
        k(    8) = (  -0.0759910  -0.0000099   0.0000000), wk =   0.1250000
        k(    9) = (  -0.0759910   0.0419252   0.0000000), wk =   0.2500000
        k(   10) = (  -0.0759910  -0.0838800   0.0000000), wk =   0.1250000

     Initial potential from superposition of free atoms

     starting charge  381.99914, renormalised to  398.00000

     negative rho (up, down):  7.227E-03 0.000E+00

     %%%%%%%%%%%%%%%%%%%%%%%%%%%%%%%%%%%%%%%%%%%%%%%%%%%%%%%%%%%%%%%%%%%%%%%%
     %                                                                      %
     % You are using vdW-DF, which was implemented by the Thonhauser group. %
     % Please cite the following two papers that made this development      %
     % possible and the two reviews that describe the various versions:     %
     %                                                                      %
     %   T. Thonhauser et al., PRL 115, 136402 (2015).                      %
     %   T. Thonhauser et al., PRB 76, 125112 (2007).                       %
     %   K. Berland et al., Rep. Prog. Phys. 78, 066501 (2015).             %
     %   D.C. Langreth et al., J. Phys.: Condens. Matter 21, 084203 (2009). %
     %                                                                      %
     %                                                                      %
     % If you are calculating the stress with vdW-DF, please also cite:     %
     %                                                                      %
     %   R. Sabatini et al., J. Phys.: Condens. Matter 24, 424209 (2012).   %
     %                                                                      %
     %%%%%%%%%%%%%%%%%%%%%%%%%%%%%%%%%%%%%%%%%%%%%%%%%%%%%%%%%%%%%%%%%%%%%%%%

     Adding external electric field

     Computed dipole along edir(3) :
        Dipole              -12.0378 Ry au,        -30.5970 Debye
        Dipole field         -0.0227 Ry au,

        Potential amp.        2.1058 Ry
        Total length         46.3494 bohr

     Starting wfcs are  302 atomic wfcs
  @ DRIVER MODE: Message from server: STATUS
  @ DRIVER MODE: Message from server: POSDATA
  @ DRIVER MODE: Reading and sharing cell
  @ DRIVER MODE: Reading and sharing positions
  @ DRIVER MODE: Received positions

     Self-consistent Calculation

     iteration #  1     ecut=    29.40 Ry     beta= 0.05
     Davidson diagonalization with overlap
     c_bands:  1 eigenvalues not converged
     c_bands:  1 eigenvalues not converged
     c_bands:  1 eigenvalues not converged
     c_bands:  1 eigenvalues not converged
     c_bands:  1 eigenvalues not converged
     c_bands:  1 eigenvalues not converged
     c_bands:  1 eigenvalues not converged
     c_bands:  2 eigenvalues not converged
     c_bands:  1 eigenvalues not converged
     ethr =  1.00E-05,  avg # of iterations = 19.6

[...]

     total energy              =   -2520.03877477 Ry
     estimated scf accuracy    <    4725.46692110 Ry

     iteration #  2     ecut=    29.40 Ry     beta= 0.05
     Davidson diagonalization with overlap
     ethr =  1.00E-02,  avg # of iterations = 21.7

[...]

     iteration # 44     ecut=    29.40 Ry     beta= 0.05
     Davidson diagonalization with overlap
     c_bands:  1 eigenvalues not converged
     ethr =  6.72E-07,  avg # of iterations =  9.7

[...]

     total energy              =   -2942.90418795 Ry
     estimated scf accuracy    <       0.00000045 Ry

     iteration # 72     ecut=    29.40 Ry     beta= 0.05
     Davidson diagonalization with overlap
     ethr =  3.95E-11,  avg # of iterations =  5.0

     negative rho (up, down):  9.745E-03 0.000E+00

     Adding external electric field

     Computed dipole along edir(3) :
        Dipole                0.6758 Ry au,          1.7177 Debye
        Dipole field          0.0013 Ry au,

        Potential amp.       -0.1182 Ry
        Total length         46.3494 bohr

     End of self-consistent calculation

          k = 0.0000 0.0000 0.0000 ( 18029 PWs)   bands (ev):

   -56.5089 -56.4753 -55.6160 -55.6070 -55.5807 -55.5745 -55.4765 -55.4410
   -55.2612 -55.2260 -55.1717 -55.1635 -55.1378 -55.0503 -54.6106 -54.5656
   -32.9363 -32.7826 -32.7545 -32.6858 -32.5947 -32.5624 -32.0951 -32.0735
   -32.0180 -31.9038 -31.8626 -31.8232 -31.8210 -31.7875 -31.7586 -31.7565
   -31.7561 -31.7383 -31.7258 -31.7236 -31.7025 -31.6851 -31.6589 -31.6450
   -31.6320 -31.6119 -31.6049 -31.5810 -31.5640 -31.5102 -31.4927 -31.4861
   -31.4052 -31.4001 -31.3825 -31.3368 -31.3283 -31.2991 -31.2803 -31.2564
   -31.2373 -31.1883 -31.1371 -30.8544 -30.8316 -30.8130 -30.7872 -30.6678
   -16.6698 -16.2268 -15.9983 -15.8698 -15.7956 -15.7479 -15.6947 -15.5760
   -15.5002 -15.4981 -15.4618 -15.4230 -15.3542 -15.2122 -15.1143 -15.0566
   -15.0143 -14.8996 -14.8349 -14.8066 -14.7964 -14.7649 -14.7473 -14.5493
   -14.5055 -14.4146 -14.4068 -14.2695 -14.0660 -13.9922 -13.6703 -13.5602
   -12.6943  -7.4272  -4.2370  -4.0876  -4.0681  -3.7230  -3.4804  -3.3949
    -3.2912  -3.2802  -3.2044  -3.0876  -3.0337  -2.9881  -2.8735  -2.8698
    -2.7278  -2.6835  -2.6798  -2.6718  -2.6250  -2.5988  -2.5574  -2.5257
    -2.5043  -2.4955  -2.3450  -2.2452  -2.1760  -2.1501  -2.1343  -2.1059
    -2.0288  -2.0038  -1.9947  -1.9868  -1.8962  -1.7500  -1.7431  -1.7137
    -1.6705  -1.6685  -1.6273  -1.6128  -1.4721  -1.3971  -1.2869  -1.2821
    -1.2448  -1.1797  -1.1777  -1.0716  -1.0040  -0.9519  -0.9142  -0.8086
    -0.7628  -0.7367  -0.6506  -0.5810  -0.5473  -0.5303  -0.5079  -0.4117
    -0.3951  -0.3706  -0.2872  -0.2779  -0.2302  -0.1425  -0.1223  -0.1184
    -0.0301  -0.0215   0.0823   0.1166   0.1597   0.1874   0.2781   0.3062
     0.4081   0.4508   0.4680   0.5886   0.6065   0.6661   0.7415   0.8022
     0.8225   0.8497   0.8833   0.8933   0.9768   1.0948   1.1012   1.1407
     1.2041   1.2503   1.4037   1.4425   1.7387   1.7423   2.4098   2.7666
     2.9282   3.2268   3.4285   3.5353   3.7438   3.7572   3.7631   3.9414
     3.9915

[...]

          k = 0.0380-0.0419 0.0000 ( 17876 PWs)   bands (ev):

[...]

          k =-0.0760-0.0000 0.0000 ( 17886 PWs)   bands (ev):

[...]

          k =-0.0760-0.0839 0.0000 ( 17948 PWs)   bands (ev):

   -56.4922 -56.4919 -55.5979 -55.5971 -55.5942 -55.5887 -55.4607 -55.4567
   -55.2462 -55.2410 -55.1607 -55.1548 -55.1547 -55.0530 -54.6021 -54.5741
   -32.7685 -32.7682 -32.7533 -32.7530 -32.6388 -32.6385 -31.9239 -31.9215
   -31.8981 -31.8918 -31.8529 -31.8520 -31.8095 -31.8077 -31.8069 -31.8068
   -31.7845 -31.7826 -31.7811 -31.7775 -31.7119 -31.7084 -31.6631 -31.6575
   -31.5969 -31.5883 -31.5285 -31.5237 -31.4991 -31.4990 -31.4898 -31.4449
   -31.4438 -31.4128 -31.3803 -31.3802 -31.3739 -31.3410 -31.3410 -31.3323
   -31.2961 -31.2580 -30.9997 -30.9260 -30.8280 -30.8003 -30.7944 -30.7524
   -16.0166 -16.0147 -15.9849 -15.9846 -15.7102 -15.7066 -15.6580 -15.6560
   -15.4863 -15.4800 -15.2709 -15.2624 -15.2580 -15.2539 -15.1257 -15.1192
   -15.0600 -15.0424 -14.9586 -14.9545 -14.8931 -14.8830 -14.8468 -14.8283
   -14.5075 -14.4866 -14.3690 -14.3502 -14.2139 -13.9915 -13.6637 -13.6637
   -12.7107  -7.4177  -4.0983  -4.0721  -3.1168  -3.1162  -3.0452  -3.0442
    -2.9207  -2.9155  -2.8489  -2.8481  -2.7364  -2.7340  -2.6396  -2.6082
    -2.6005  -2.5980  -2.5808  -2.5771  -2.4477  -2.4392  -2.4268  -2.4083
    -2.3638  -2.3608  -2.3492  -2.2683  -2.2546  -2.2184  -2.1786  -2.0721
    -2.0603  -2.0447  -2.0154  -1.9545  -1.9455  -1.9300  -1.8808  -1.8664
    -1.7799  -1.7232  -1.6604  -1.5550  -1.5511  -1.5409  -1.5283  -1.3743
    -1.3348  -1.3066  -1.3013  -1.2911  -1.2466  -1.1496  -1.1420  -0.9992
    -0.9987  -0.9257  -0.8460  -0.8305  -0.8005  -0.6696  -0.6271  -0.5863
    -0.5797  -0.5571  -0.5327  -0.5132  -0.4794  -0.3339  -0.3212  -0.2913
    -0.2508  -0.2428  -0.1975  -0.1287  -0.0419   0.0206   0.0223   0.0908
     0.1514   0.2103   0.2921   0.3060   0.3102   0.5925   0.6748   0.7639
     0.8401   0.9082   0.9719   0.9950   1.0631   1.0952   1.1401   1.2303
     1.2343   1.2510   1.2514   1.3239   1.3258   1.7159   2.3014   3.3407
     3.3411   3.4090   3.4095   3.7334   3.7389   3.8494   3.8597   3.9712
     3.9752

     the Fermi energy is     2.5984 ev

!    total energy              =   -2942.90420520 Ry
     estimated scf accuracy    <       0.00000004 Ry
     smearing contrib. (-TS)   =      -0.00452518 Ry
     internal energy E=F+TS    =   -2942.89968002 Ry

     The total energy is F=E-TS. E is the sum of the following terms:
     one-electron contribution =  -23042.96299238 Ry
     hartree contribution      =   11612.09017798 Ry
     xc contribution           =    -487.44221245 Ry
     ewald contribution        =    8975.41448500 Ry
     electric field correction =       0.00086183 Ry

     convergence has been achieved in  72 iterations

     Forces acting on atoms (cartesian axes, Ry/au):

     atom    1 type  1   force =     0.00000872   -0.00050711    0.12500678
     atom    2 type  1   force =    -0.00013006   -0.00062694   -0.16059504
     atom    3 type  2   force =     0.00017194   -0.00022437   -0.06941613
     atom    4 type  2   force =    -0.00004144   -0.00027718    0.02758971
     atom    5 type  2   force =    -0.01718851    0.00222618   -0.00890024
     atom    6 type  2   force =     0.01887213    0.00287672   -0.00922228
     atom    7 type  1   force =     0.00088143   -0.00375751    0.02240687
     atom    8 type  1   force =    -0.00037024   -0.00329150    0.11361552
     atom    9 type  2   force =     0.00050148   -0.00039777    0.00000424
     atom   10 type  2   force =    -0.00234452    0.00260073   -0.07326632
     atom   11 type  2   force =     0.00014147   -0.00094929   -0.00012994
     atom   12 type  2   force =     0.00000432   -0.00057107   -0.00004783
     atom   13 type  1   force =     0.00019557   -0.00019181   -0.00019476
     atom   14 type  1   force =    -0.00008493   -0.00054365    0.00001607
     atom   15 type  2   force =    -0.00035076   -0.00106579    0.00070742
     atom   16 type  2   force =    -0.00013567   -0.00016875    0.00039972
     atom   17 type  2   force =     0.00085557   -0.00043045   -0.00035576
     atom   18 type  2   force =    -0.00055059   -0.00046247   -0.00032224
     atom   19 type  1   force =    -0.00024228    0.00006623   -0.00049359
     atom   20 type  1   force =     0.00049846   -0.00108503   -0.00106828
     atom   21 type  2   force =     0.00005262   -0.00006461    0.09971363
     atom   22 type  2   force =     0.00014725   -0.00041909   -0.00103627
     atom   23 type  2   force =    -0.07923441   -0.00006023   -0.03252806
     atom   24 type  2   force =     0.07909183    0.00037132   -0.03255536
     atom   25 type  1   force =     0.00002571   -0.00049849    0.12434523
     atom   26 type  1   force =    -0.00013415   -0.00048225   -0.16060808
     atom   27 type  2   force =     0.00028242   -0.00044562   -0.06842048
     atom   28 type  2   force =     0.00000424   -0.00013421    0.02744619
     atom   29 type  2   force =    -0.01764800    0.00173723   -0.00897345
     atom   30 type  2   force =     0.01922308    0.00200054   -0.00931035
     atom   31 type  1   force =     0.00080209   -0.00117026    0.02202582
     atom   32 type  1   force =    -0.00029220    0.00070864    0.11424280
     atom   33 type  2   force =    -0.00007908    0.00003797   -0.00061547
     atom   34 type  2   force =    -0.00201628    0.00206373   -0.07192149
     atom   35 type  2   force =     0.00003165   -0.00021416    0.00010462
     atom   36 type  2   force =    -0.00051598    0.00019464    0.00019282
     atom   37 type  1   force =     0.00088605    0.00095027   -0.00008861
     atom   38 type  1   force =    -0.00021612    0.00026792   -0.00011543
     atom   39 type  2   force =    -0.00002314   -0.00028411   -0.00003427
     atom   40 type  2   force =    -0.00001583   -0.00019493   -0.00030394
     atom   41 type  2   force =     0.00023776   -0.00042299   -0.00034641
     atom   42 type  2   force =     0.00001394   -0.00037921   -0.00040911
     atom   43 type  1   force =    -0.00035975    0.00006859   -0.00037576
     atom   44 type  1   force =     0.00009863    0.00066758    0.00071718
     atom   45 type  2   force =     0.00003991   -0.00007326    0.09973129
     atom   46 type  2   force =    -0.07923760   -0.00002744   -0.03253258
     atom   47 type  2   force =     0.07909332    0.00041680   -0.03253415
     atom   48 type  3   force =    -0.00040005   -0.00064375   -0.00127889
     atom   49 type  3   force =    -0.00074847   -0.00086639    0.00013798
     atom   50 type  4   force =     0.00017190    0.02008489    0.00169812
     atom   51 type  5   force =    -0.00028914   -0.00994792   -0.00327928
     atom   52 type  5   force =    -0.00367972   -0.00448203    0.00214899
     atom   53 type  5   force =     0.00311616   -0.00270175    0.00039192
     atom   54 type  5   force =     0.00050844   -0.00007984   -0.00012170
     atom   55 type  5   force =     0.00031411    0.00096098   -0.00053267
     atom   56 type  5   force =     0.00005672   -0.00015776   -0.00070873

     Total force =     0.427429     Total SCF correction =     0.000529
  @ DRIVER MODE: Message from server: STATUS
  @ DRIVER MODE: Message from server: GETFORCE
  @ DRIVER MODE: Returning v,forces,stress,ensemble

     Writing output data file ./calc.save/
  @ DRIVER MODE: Message from server: EXIT
  @ DRIVE MODE: Exiting

     General routines

     Parallel routines

   This run was terminated on:   3:10:30   9Sep2021

   JOB DONE.