     Program PWSCF v.6.7GPU starts on  9Sep2021 at  3:55: 9

     R & G space division:  proc/nbgrp/npool/nimage =      10
     Reading input from /storage/home/hcoda1/3/ntian30/research/carbon/CxH_vib/CH2_calc/ads_slab/CH2NNHHH_a/out_0018/pw.inp
Warning: card &CELL ignored
Warning: card   CELL_DYNAMICS='IPI', ignored
Warning: card / ignored

     Current dimensions of program PWSCF are:
     Max number of different atomic species (ntypx) = 10
     Max number of k-points (npk) =  40000
     Max angular momentum in pseudopotentials (lmaxx) =  3
     Presently no symmetry can be used with electric field

     Message from routine cell_base_init:
     DEPRECATED: use true lattice parameter, not A to a.u. conversion factor

     IMPORTANT: XC functional enforced from input :
     Exchange-correlation= BEEF-VDW
                           (   1   4  43  14   2   0   0)
     Any further DFT definition will be discarded
     Please, verify this is what you really want

  @ DRIVER MODE: Connecting to
 qe_1139763_2767390.sched-torque.pace.gatech.eduz2pzo0os_scratch
  using UNIX socket
  @ DRIVER MODE: Message from server: STATUS
  @ DRIVER MODE: Message from server: INIT
  @ DRIVER MODE: Receiving replica           0          -1
  @ DRIVER MODE: Receiving encoded integer          25
  @ DRIVER MODE:  SCF:  T  FORCE:  T  STRESS:  F  VC:  F  ENSEMBLE:  F
  @ DRIVER MODE:  SCF:  T  FORCE:  T  STRESS:  F  VC:  F  ENSEMBLE:  F

     Using Slab Decomposition

     bravais-lattice index     =            0
     lattice parameter (alat)  =       1.8897  a.u.
     unit-cell volume          =    6658.9804 (a.u.)^3
     number of atoms/cell      =           55
     number of atomic types    =            5
     number of electrons       =       397.00
     number of Kohn-Sham states=          208
     kinetic-energy cutoff     =      29.3995  Ry
     charge density cutoff     =     293.9946  Ry
     scf convergence threshold =      7.3E-08
     mixing beta               =       0.0500
     number of iterations used =            8  plain     mixing
     Exchange-correlation= BEEF-VDW
                           (   1   4  43  14   2   0   0)

     celldm(1)=   1.889726  celldm(2)=   0.000000  celldm(3)=   0.000000
     celldm(4)=   0.000000  celldm(5)=   0.000000  celldm(6)=   0.000000

     crystal axes: (cart. coord. in units of alat)
               a(1) = (   6.579727   0.000000   0.000000 )
               a(2) = (  -0.000775   5.961596   0.000000 )
               a(3) = (   0.000000   0.000000  25.155947 )

     reciprocal axes: (cart. coord. in units 2 pi/alat)
               b(1) = (  0.151982  0.000020  0.000000 )
               b(2) = (  0.000000  0.167740  0.000000 )
               b(3) = (  0.000000  0.000000  0.039752 )

     PseudoPot. # 1 for Ti read from file:
     /storage/coda1/p-amedford6/0/shared/rich_project_chbe-medford/medford-share/data/pseudos_module/espresso/nninc/pbe/van/Ti.UPF
     MD5 check sum: 8e4df49b7f0d34bbd5052bf3f5ea0213
     Pseudo is Ultrasoft, Zval = 12.0
     Generated by new atomic code, or converted to UPF format
     Using radial grid of  851 points,  6 beta functions with:
                l(1) =   0
                l(2) =   0
                l(3) =   1
                l(4) =   1
                l(5) =   2
                l(6) =   2
     Q(r) pseudized with  8 coefficients,  rinner =    1.000   1.000   1.000
                                                       1.000   1.000

     PseudoPot. # 2 for O  read from file:
     /storage/coda1/p-amedford6/0/shared/rich_project_chbe-medford/medford-share/data/pseudos_module/espresso/nninc/pbe/van/O.UPF
     MD5 check sum: 78c19812648e8988a0fe644b0f25305e
     Pseudo is Ultrasoft, Zval =  6.0
     Generated by new atomic code, or converted to UPF format
     Using radial grid of  737 points,  4 beta functions with:
                l(1) =   0
                l(2) =   0
                l(3) =   1
                l(4) =   1
     Q(r) pseudized with  8 coefficients,  rinner =    0.800   0.800   0.800

     PseudoPot. # 3 for N  read from file:
     /storage/coda1/p-amedford6/0/shared/rich_project_chbe-medford/medford-share/data/pseudos_module/espresso/nninc/pbe/van/N.UPF
     MD5 check sum: 90d10febe142ad51ac9d5be1deb811c4
     Pseudo is Ultrasoft, Zval =  5.0
     Generated by new atomic code, or converted to UPF format
     Using radial grid of  729 points,  4 beta functions with:
                l(1) =   0
                l(2) =   0
                l(3) =   1
                l(4) =   1
     Q(r) pseudized with  8 coefficients,  rinner =    0.800   0.800   0.800

     PseudoPot. # 4 for C  read from file:
     /storage/coda1/p-amedford6/0/shared/rich_project_chbe-medford/medford-share/data/pseudos_module/espresso/nninc/pbe/van/C.UPF
     MD5 check sum: 1a69bf6b8db32088f5b2163dbdb77a27
     Pseudo is Ultrasoft, Zval =  4.0
     Generated by new atomic code, or converted to UPF format
     Using radial grid of  721 points,  4 beta functions with:
                l(1) =   0
                l(2) =   0
                l(3) =   1
                l(4) =   1
     Q(r) pseudized with  8 coefficients,  rinner =    0.800   0.800   0.800

     PseudoPot. # 5 for H  read from file:
     /storage/coda1/p-amedford6/0/shared/rich_project_chbe-medford/medford-share/data/pseudos_module/espresso/nninc/pbe/van/H.UPF
     MD5 check sum: b5ee9d7bfd3a09ee7748110bda690ff7
     Pseudo is Ultrasoft, Zval =  1.0
     Generated by new atomic code, or converted to UPF format
     Using radial grid of  615 points,  1 beta functions with:
                l(1) =   0
     Q(r) pseudized with  8 coefficients,  rinner =    0.800

     atomic species   valence    mass     pseudopotential
        Ti1           12.00    47.86700     Ti( 1.00)
        O1             6.00    15.99900     O ( 1.00)
        N1             5.00    14.00700     N ( 1.00)
        C1             4.00    12.01100     C ( 1.00)
        H1             1.00     1.00800     H ( 1.00)

     No symmetry found

   Cartesian axes

     site n.     atom                  positions (alat units)
         1           Ti1 tau(   1) = (   0.0004258   2.9801865   6.0000000  )
         2           Ti1 tau(   2) = (   3.2906075   1.4906267   6.0002472  )
         3           O1  tau(   3) = (   0.0006271   0.0005054   7.9858123  )
         4           O1  tau(   4) = (   3.2906025   0.0005020   7.3038282  )
         5           O1  tau(   5) = (   4.5942328   1.4918067   9.2879030  )
         6           O1  tau(   6) = (   1.9868534   1.4903216   9.2879459  )
         7           Ti1 tau(   7) = (   3.2907910   2.8959150   9.1758416  )
         8           Ti1 tau(   8) = (   0.0015273   1.4827037   9.2680791  )
         9           O1  tau(   9) = (   3.2797308   5.9473376  11.3602069  )
        10           O1  tau(  10) = (   0.0116148   5.9584955  10.6183126  )
        11           O1  tau(  11) = (   1.2902197   1.4970218  12.6485984  )
        12           O1  tau(  12) = (   5.2825647   1.4998509  12.6204812  )
        13           Ti1 tau(  13) = (   6.5707130   2.9731531  12.5352273  )
        14           Ti1 tau(  14) = (   3.2824754   1.4851695  12.4964603  )
        15           O1  tau(  15) = (   6.5335774   0.0914421  14.6722524  )
        16           O1  tau(  16) = (   3.3157438   0.0180770  13.9903400  )
        17           O1  tau(  17) = (   4.5084513   1.5196572  16.2619966  )
        18           O1  tau(  18) = (   2.0062152   1.4815140  16.1839734  )
        19           Ti1 tau(  19) = (   3.2259906   2.9465836  15.7211513  )
        20           Ti1 tau(  20) = (   6.5090593   1.4075841  16.1508600  )
        21           O1  tau(  21) = (   3.2904802   0.0005063   4.7018136  )
        22           O1  tau(  22) = (   6.5630310   5.8123487  17.2302531  )
        23           O1  tau(  23) = (   1.3043587   1.4918075   6.0039043  )
        24           O1  tau(  24) = (   5.2767064   1.4903225   6.0039473  )
        25           Ti1 tau(  25) = (   0.0000382   5.9609847   6.0000000  )
        26           Ti1 tau(  26) = (   3.2902200   4.4714249   6.0002472  )
        27           O1  tau(  27) = (   0.0002396   2.9813036   7.9858123  )
        28           O1  tau(  28) = (   3.2902150   2.9813002   7.3038282  )
        29           O1  tau(  29) = (   4.5938453   4.4726049   9.2879030  )
        30           O1  tau(  30) = (   1.9864658   4.4711199   9.2879459  )
        31           Ti1 tau(  31) = (   3.2891106   5.8743827   9.1763621  )
        32           Ti1 tau(  32) = (   0.0006254   4.4649316   9.2693709  )
        33           O1  tau(  33) = (   3.2783824   2.9878764  11.3535400  )
        34           O1  tau(  34) = (   0.0092240   2.9805883  10.6323155  )
        35           O1  tau(  35) = (   1.2857266   4.4729298  12.7006550  )
        36           O1  tau(  36) = (   5.2845514   4.4687958  12.6640455  )
        37           Ti1 tau(  37) = (   6.5734551   0.0101047  12.5124135  )
        38           Ti1 tau(  38) = (   3.2852174   4.4611384  12.5175569  )
        39           O1  tau(  39) = (   6.5279837   2.9480221  14.9030702  )
        40           O1  tau(  40) = (   3.2956390   2.9588503  13.9390168  )
        41           O1  tau(  41) = (   4.4992944   4.4159585  16.2207858  )
        42           O1  tau(  42) = (   2.0104883   4.4624356  16.0673450  )
        43           Ti1 tau(  43) = (   3.2790961   0.0058003  15.7788240  )
        44           Ti1 tau(  44) = (   0.0606790   4.6093333  15.7554573  )
        45           O1  tau(  45) = (   3.2900926   2.9813045   4.7018136  )
        46           O1  tau(  46) = (   1.3039711   4.4726057   6.0039043  )
        47           O1  tau(  47) = (   5.2763189   4.4711207   6.0039473  )
        48           N1  tau(  48) = (   0.0403274   2.7191540  18.0026804  )
        49           C1  tau(  49) = (   0.9398849   2.4944932  18.9664025  )
        50           H1  tau(  50) = (   0.9073005   3.0183022  19.9242263  )
        51           H1  tau(  51) = (   1.7098349   1.7704235  18.7615287  )
        52           N1  tau(  52) = (   5.5765855   3.6054979  18.4816711  )
        53           H1  tau(  53) = (   5.9881759   4.5320851  18.7147717  )
        54           H1  tau(  54) = (   4.9344470   3.8465857  17.6610935  )
        55           H1  tau(  55) = (   5.0674124   3.1947177  19.2767304  )

     number of k points=    10  Fermi-Dirac smearing, width (Ry)=  0.0073
                       cart. coord. in units 2pi/alat
        k(    1) = (   0.0000000   0.0000000   0.0000000), wk =   0.1250000
        k(    2) = (   0.0000000   0.0419351   0.0000000), wk =   0.2500000
        k(    3) = (   0.0000000  -0.0838702   0.0000000), wk =   0.1250000
        k(    4) = (   0.0379955   0.0000049   0.0000000), wk =   0.2500000
        k(    5) = (   0.0379955   0.0419400   0.0000000), wk =   0.2500000
        k(    6) = (   0.0379955  -0.0838652   0.0000000), wk =   0.2500000
        k(    7) = (   0.0379955  -0.0419301   0.0000000), wk =   0.2500000
        k(    8) = (  -0.0759910  -0.0000099   0.0000000), wk =   0.1250000
        k(    9) = (  -0.0759910   0.0419252   0.0000000), wk =   0.2500000
        k(   10) = (  -0.0759910  -0.0838800   0.0000000), wk =   0.1250000

     Initial potential from superposition of free atoms

     starting charge  380.99914, renormalised to  397.00000

     negative rho (up, down):  1.587E-02 0.000E+00

     %%%%%%%%%%%%%%%%%%%%%%%%%%%%%%%%%%%%%%%%%%%%%%%%%%%%%%%%%%%%%%%%%%%%%%%%
     %                                                                      %
     % You are using vdW-DF, which was implemented by the Thonhauser group. %
     % Please cite the following two papers that made this development      %
     % possible and the two reviews that describe the various versions:     %
     %                                                                      %
     %   T. Thonhauser et al., PRL 115, 136402 (2015).                      %
     %   T. Thonhauser et al., PRB 76, 125112 (2007).                       %
     %   K. Berland et al., Rep. Prog. Phys. 78, 066501 (2015).             %
     %   D.C. Langreth et al., J. Phys.: Condens. Matter 21, 084203 (2009). %
     %                                                                      %
     %                                                                      %
     % If you are calculating the stress with vdW-DF, please also cite:     %
     %                                                                      %
     %   R. Sabatini et al., J. Phys.: Condens. Matter 24, 424209 (2012).   %
     %                                                                      %
     %%%%%%%%%%%%%%%%%%%%%%%%%%%%%%%%%%%%%%%%%%%%%%%%%%%%%%%%%%%%%%%%%%%%%%%%

     Adding external electric field

     Computed dipole along edir(3) :
        Dipole              -10.3130 Ry au,        -26.2131 Debye
        Dipole field         -0.0195 Ry au,

        Potential amp.        1.8041 Ry
        Total length         46.3494 bohr

     Starting wfcs are  301 atomic wfcs
  @ DRIVER MODE: Message from server: STATUS
  @ DRIVER MODE: Message from server: POSDATA
  @ DRIVER MODE: Reading and sharing cell
  @ DRIVER MODE: Reading and sharing positions
  @ DRIVER MODE: Received positions

     Self-consistent Calculation

     iteration #  1     ecut=    29.40 Ry     beta= 0.05
     Davidson diagonalization with overlap
     c_bands:  3 eigenvalues not converged
     c_bands:  2 eigenvalues not converged
     c_bands:  3 eigenvalues not converged
     c_bands:  2 eigenvalues not converged
     c_bands:  3 eigenvalues not converged
     c_bands:  2 eigenvalues not converged
     c_bands:  3 eigenvalues not converged
     c_bands:  2 eigenvalues not converged
     c_bands:  2 eigenvalues not converged
     c_bands:  3 eigenvalues not converged
     ethr =  1.00E-05,  avg # of iterations = 20.0

[...]

     total energy              =   -2480.08987626 Ry
     estimated scf accuracy    <    5159.10623287 Ry

     iteration #  2     ecut=    29.40 Ry     beta= 0.05
     Davidson diagonalization with overlap
     ethr =  1.00E-02,  avg # of iterations = 22.0

[...]

     iteration # 99     ecut=    29.40 Ry     beta= 0.05
     Davidson diagonalization with overlap
     c_bands:  1 eigenvalues not converged
     ethr =  1.24E-10,  avg # of iterations = 10.9

[...]

     total energy              =   -2941.49079704 Ry
     estimated scf accuracy    <       0.00000013 Ry

     iteration #103     ecut=    29.40 Ry     beta= 0.05
     Davidson diagonalization with overlap
     ethr =  3.37E-11,  avg # of iterations =  5.5

     negative rho (up, down):  1.344E-02 0.000E+00

     Adding external electric field

     Computed dipole along edir(3) :
        Dipole                1.3648 Ry au,          3.4689 Debye
        Dipole field          0.0026 Ry au,

        Potential amp.       -0.2387 Ry
        Total length         46.3494 bohr

     End of self-consistent calculation

          k = 0.0000 0.0000 0.0000 ( 18029 PWs)   bands (ev):

   -55.2833 -55.2444 -55.2443 -55.2102 -55.1589 -55.1568 -55.1202 -55.0935
   -55.0762 -55.0751 -55.0588 -55.0418 -54.9561 -54.7905 -54.2623 -54.2283
   -31.8555 -31.7351 -31.6452 -31.6102 -31.5834 -31.5808 -31.5783 -31.5341
   -31.5313 -31.4912 -31.4895 -31.4887 -31.4569 -31.4537 -31.4397 -31.4182
   -31.4028 -31.3980 -31.3937 -31.3925 -31.3566 -31.3512 -31.3376 -31.3241
   -31.3012 -31.2961 -31.2896 -31.2858 -31.2733 -31.2702 -31.2603 -31.2503
   -31.2436 -31.2386 -31.2086 -31.2041 -31.1971 -31.1849 -31.1477 -31.1051
   -31.0613 -30.9320 -30.6711 -30.5784 -30.5563 -30.4877 -30.4009 -30.2899
   -19.2264 -16.1251 -15.8629 -15.7350 -15.5435 -15.4773 -15.3817 -15.2440
   -15.1925 -15.1315 -15.0820 -15.0418 -15.0287 -14.9631 -14.9060 -14.8173
   -14.8158 -14.7988 -14.7889 -14.7770 -14.7736 -14.7113 -14.7086 -14.6814
   -14.6667 -14.6566 -14.5160 -14.4319 -14.3704 -14.2765 -14.0251 -12.7651
   -12.6479  -9.1349  -7.7995  -7.0633  -5.9776  -3.8151  -3.4627  -3.2899
    -3.2432  -3.2029  -3.1781  -3.0095  -2.9279  -2.6606  -2.5918  -2.5528
    -2.5053  -2.4941  -2.4685  -2.2962  -2.2659  -2.2262  -2.1896  -2.1658
    -2.1261  -2.0982  -2.0822  -2.0530  -2.0399  -2.0377  -1.8554  -1.7845
    -1.7624  -1.7016  -1.6843  -1.6681  -1.6106  -1.5816  -1.5686  -1.5662
    -1.5434  -1.5262  -1.5036  -1.4606  -1.3741  -1.2821  -1.2378  -1.2165
    -1.1031  -1.0394  -0.9145  -0.8724  -0.8583  -0.8309  -0.7592  -0.6929
    -0.6651  -0.6293  -0.4893  -0.4846  -0.4002  -0.3906  -0.3173  -0.3006
    -0.2606  -0.2149  -0.1034  -0.0699  -0.0485   0.0033   0.0666   0.0886
     0.1705   0.2247   0.2814   0.2954   0.3749   0.4147   0.4524   0.4741
     0.5612   0.6030   0.6625   0.6688   0.7059   0.7092   0.7343   0.8209
     0.8342   0.8538   0.8947   1.0641   1.2646   1.3165   1.3373   1.6700
     1.6892   1.7601   1.9454   2.3349   2.3824   3.8179   3.8833   3.9539
     3.9683   3.9786   4.0503   4.0955   4.2852   4.3143   4.3173   4.3390

[...]

          k = 0.0380-0.0419 0.0000 ( 17876 PWs)   bands (ev):

[...]

          k =-0.0760-0.0000 0.0000 ( 17886 PWs)   bands (ev):

[...]

          k =-0.0760-0.0839 0.0000 ( 17948 PWs)   bands (ev):

   -55.2712 -55.2562 -55.2274 -55.2270 -55.1552 -55.1450 -55.1320 -55.0798
   -55.0772 -55.0743 -55.0591 -55.0583 -54.9546 -54.7919 -54.2453 -54.2452
   -31.6650 -31.6520 -31.5782 -31.5504 -31.5501 -31.5465 -31.5196 -31.5192
   -31.4919 -31.4835 -31.4788 -31.4751 -31.4207 -31.4118 -31.4117 -31.4083
   -31.4063 -31.4020 -31.3954 -31.3805 -31.3681 -31.3575 -31.3532 -31.3466
   -31.3464 -31.3445 -31.3430 -31.3272 -31.3106 -31.3076 -31.2914 -31.2886
   -31.2837 -31.2821 -31.2819 -31.2511 -31.2394 -31.2380 -31.1650 -31.0919
   -31.0621 -31.0096 -30.5689 -30.5689 -30.4837 -30.4836 -30.4443 -30.4443
   -19.2226 -15.5902 -15.5138 -15.4580 -15.3679 -15.2900 -15.2700 -15.2600
   -15.2268 -15.1600 -15.1367 -15.0715 -15.0366 -14.9909 -14.9880 -14.9729
   -14.8883 -14.8691 -14.8540 -14.8498 -14.7887 -14.7872 -14.7603 -14.7379
   -14.7312 -14.7275 -14.6276 -14.6266 -14.4627 -14.4312 -14.1973 -12.7494
   -12.7494  -9.1219  -7.8095  -7.0474  -5.9882  -3.8381  -2.8514  -2.7648
    -2.6750  -2.5188  -2.4814  -2.4717  -2.4153  -2.3256  -2.2997  -2.2865
    -2.2662  -2.2589  -2.1860  -2.1808  -2.1368  -2.1153  -2.1043  -2.0985
    -2.0646  -2.0513  -2.0377  -2.0010  -1.9926  -1.9765  -1.9421  -1.9225
    -1.8980  -1.8702  -1.8561  -1.8269  -1.7033  -1.6742  -1.6303  -1.5682
    -1.5432  -1.4762  -1.4710  -1.3695  -1.3568  -1.3459  -1.3048  -1.2908
    -1.2721  -1.1079  -1.0634  -1.0279  -1.0163  -1.0104  -0.8546  -0.8381
    -0.7700  -0.7542  -0.7393  -0.6630  -0.6216  -0.6057  -0.5253  -0.4857
    -0.4558  -0.4350  -0.2927  -0.2801  -0.2547  -0.2401  -0.2335  -0.1409
    -0.1204  -0.0845  -0.0504  -0.0123   0.0041   0.0632   0.2166   0.2430
     0.2799   0.4241   0.4395   0.5248   0.5721   0.6993   0.7639   0.7661
     0.8476   0.9175   1.0195   1.0319   1.0515   1.1371   1.1833   1.1883
     1.1896   2.1182   2.1190   2.2024   2.2027   3.6946   3.9573   4.0796
     4.0860   4.1283   4.2510   4.3347   4.3582   4.3960   4.3983   4.4729

     the Fermi energy is     3.8728 ev

!    total energy              =   -2941.49079872 Ry
     estimated scf accuracy    <       0.00000007 Ry
     smearing contrib. (-TS)   =      -0.04232709 Ry
     internal energy E=F+TS    =   -2941.44847163 Ry

     The total energy is F=E-TS. E is the sum of the following terms:
     one-electron contribution =  -23921.52910989 Ry
     hartree contribution      =   12053.93993032 Ry
     xc contribution           =    -486.85337648 Ry
     ewald contribution        =    9412.99056938 Ry
     electric field correction =       0.00351505 Ry

     convergence has been achieved in 103 iterations

     Forces acting on atoms (cartesian axes, Ry/au):

     atom    1 type  1   force =     0.00016566   -0.00016388    0.09402397
     atom    2 type  1   force =    -0.00005145   -0.00043122   -0.17754834
     atom    3 type  2   force =     0.00006558   -0.00004302   -0.02100190
     atom    4 type  2   force =     0.00001759   -0.00180331    0.05734211
     atom    5 type  2   force =    -0.01085606   -0.00090567    0.00782582
     atom    6 type  2   force =     0.01206966   -0.00033560    0.00622090
     atom    7 type  1   force =    -0.00064867    0.00289891   -0.01530738
     atom    8 type  1   force =     0.00059276    0.00229271    0.00234105
     atom    9 type  2   force =    -0.00010334    0.00013276    0.00092330
     atom   10 type  2   force =    -0.00165497   -0.00049483   -0.00376486
     atom   11 type  2   force =    -0.00004367   -0.00023776    0.00021579
     atom   12 type  2   force =    -0.00019524   -0.00039911    0.00028546
     atom   13 type  1   force =     0.00042048    0.00109149    0.00060406
     atom   14 type  1   force =     0.00020585   -0.00061600    0.00037395
     atom   15 type  2   force =    -0.00018300    0.00035837    0.00054359
     atom   16 type  2   force =    -0.00016355   -0.00024726   -0.00118256
     atom   17 type  2   force =     0.00010075   -0.00024594    0.00015990
     atom   18 type  2   force =    -0.00079684   -0.00031752    0.00009558
     atom   19 type  1   force =    -0.00054185    0.00108455   -0.00045065
     atom   20 type  1   force =    -0.00033182    0.00117686   -0.00124882
     atom   21 type  2   force =     0.00010909   -0.00004016    0.10374047
     atom   22 type  2   force =     0.00007654    0.00023607    0.00050952
     atom   23 type  2   force =    -0.07062725   -0.00018723   -0.02704488
     atom   24 type  2   force =     0.07057048    0.00028783   -0.02708257
     atom   25 type  1   force =     0.00014723   -0.00024623    0.09334130
     atom   26 type  1   force =    -0.00000997   -0.00037041   -0.17776688
     atom   27 type  2   force =     0.00010999   -0.00040295   -0.01999631
     atom   28 type  2   force =     0.00003456   -0.00146651    0.05682680
     atom   29 type  2   force =    -0.01075754   -0.00066688    0.00674378
     atom   30 type  2   force =     0.01187728   -0.00017202    0.00509721
     atom   31 type  1   force =    -0.00063015    0.00409507   -0.01561972
     atom   32 type  1   force =     0.00067310   -0.00274328    0.00211723
     atom   33 type  2   force =     0.00015399   -0.00022009   -0.00057812
     atom   34 type  2   force =    -0.00109244    0.00272260   -0.00202403
     atom   35 type  2   force =     0.00009972    0.00020167    0.00010038
     atom   36 type  2   force =    -0.00033943    0.00034082   -0.00006945
     atom   37 type  1   force =     0.00046338   -0.00008855    0.00030066
     atom   38 type  1   force =     0.00009740    0.00089466    0.00016226
     atom   39 type  2   force =    -0.00004183   -0.00098380    0.00043468
     atom   40 type  2   force =    -0.00023518   -0.00043202    0.00062713
     atom   41 type  2   force =    -0.00027578   -0.00007421   -0.00018192
     atom   42 type  2   force =     0.00012935   -0.00000055    0.00022960
     atom   43 type  1   force =    -0.00000155   -0.00146762    0.00090059
     atom   44 type  1   force =    -0.00007140   -0.00080522   -0.00136234
     atom   45 type  2   force =     0.00009641   -0.00008116    0.10373429
     atom   46 type  2   force =    -0.07064137   -0.00008746   -0.02705481
     atom   47 type  2   force =     0.07059177    0.00029569   -0.02709201
     atom   48 type  3   force =    -0.00065740    0.00011827    0.00087771
     atom   49 type  4   force =     0.00021230    0.00389672    0.01045597
     atom   50 type  5   force =     0.00073922   -0.00484592   -0.01094717
     atom   51 type  5   force =    -0.00013000    0.00057464   -0.00014123
     atom   52 type  3   force =    -0.00024718    0.00042549    0.00031099
     atom   53 type  5   force =     0.00038111   -0.00154860   -0.00066718
     atom   54 type  5   force =     0.00045235   -0.00022943    0.00103592
     atom   55 type  5   force =     0.00067533    0.00027627   -0.00036886

     Total force =     0.366039     Total SCF correction =     0.000802
  @ DRIVER MODE: Message from server: STATUS
  @ DRIVER MODE: Message from server: GETFORCE
  @ DRIVER MODE: Returning v,forces,stress,ensemble

     Writing output data file ./calc.save/
  @ DRIVER MODE: Message from server: EXIT
  @ DRIVE MODE: Exiting

     General routines

     Parallel routines

   This run was terminated on:   4:19:53   9Sep2021

   JOB DONE.