     Program PWSCF v.6.7GPU starts on 10Sep2021 at  4: 3:24

     R & G space division:  proc/nbgrp/npool/nimage =      10
     Reading input from /storage/home/hcoda1/3/ntian30/research/carbon/CxH_vib/CH3_calc/ads_slab/CH3N2OH_j/out_0022/pw.inp
Warning: card &CELL ignored
Warning: card   CELL_DYNAMICS='IPI', ignored
Warning: card / ignored

     Current dimensions of program PWSCF are:
     Max number of different atomic species (ntypx) = 10
     Max number of k-points (npk) =  40000
     Max angular momentum in pseudopotentials (lmaxx) =  3
     Presently no symmetry can be used with electric field

     Message from routine cell_base_init:
     DEPRECATED: use true lattice parameter, not A to a.u. conversion factor

     IMPORTANT: XC functional enforced from input :
     Exchange-correlation= BEEF-VDW
                           (   1   4  43  14   2   0   0)
     Any further DFT definition will be discarded
     Please, verify this is what you really want

  @ DRIVER MODE: Connecting to
 qe_1139763_2779713.sched-torque.pace.gatech.edum28t1mqh_scratch
  using UNIX socket
  @ DRIVER MODE: Message from server: STATUS
  @ DRIVER MODE: Message from server: INIT
  @ DRIVER MODE: Receiving replica           0          -1
  @ DRIVER MODE: Receiving encoded integer          25
  @ DRIVER MODE:  SCF:  T  FORCE:  T  STRESS:  F  VC:  F  ENSEMBLE:  F
  @ DRIVER MODE:  SCF:  T  FORCE:  T  STRESS:  F  VC:  F  ENSEMBLE:  F

     Using Slab Decomposition

     bravais-lattice index     =            0
     lattice parameter (alat)  =       1.8897  a.u.
     unit-cell volume          =    6658.9804 (a.u.)^3
     number of atoms/cell      =           55
     number of atomic types    =            5
     number of electrons       =       402.00
     number of Kohn-Sham states=          211
     kinetic-energy cutoff     =      29.3995  Ry
     charge density cutoff     =     293.9946  Ry
     scf convergence threshold =      7.3E-08
     mixing beta               =       0.0500
     number of iterations used =            8  plain     mixing
     Exchange-correlation= BEEF-VDW
                           (   1   4  43  14   2   0   0)

     celldm(1)=   1.889726  celldm(2)=   0.000000  celldm(3)=   0.000000
     celldm(4)=   0.000000  celldm(5)=   0.000000  celldm(6)=   0.000000

     crystal axes: (cart. coord. in units of alat)
               a(1) = (   6.579727   0.000000   0.000000 )
               a(2) = (  -0.000775   5.961596   0.000000 )
               a(3) = (   0.000000   0.000000  25.155947 )

     reciprocal axes: (cart. coord. in units 2 pi/alat)
               b(1) = (  0.151982  0.000020  0.000000 )
               b(2) = (  0.000000  0.167740  0.000000 )
               b(3) = (  0.000000  0.000000  0.039752 )

     PseudoPot. # 1 for Ti read from file:
     /storage/coda1/p-amedford6/0/shared/rich_project_chbe-medford/medford-share/data/pseudos_module/espresso/nninc/pbe/van/Ti.UPF
     MD5 check sum: 8e4df49b7f0d34bbd5052bf3f5ea0213
     Pseudo is Ultrasoft, Zval = 12.0
     Generated by new atomic code, or converted to UPF format
     Using radial grid of  851 points,  6 beta functions with:
                l(1) =   0
                l(2) =   0
                l(3) =   1
                l(4) =   1
                l(5) =   2
                l(6) =   2
     Q(r) pseudized with  8 coefficients,  rinner =    1.000   1.000   1.000
                                                       1.000   1.000

     PseudoPot. # 2 for O  read from file:
     /storage/coda1/p-amedford6/0/shared/rich_project_chbe-medford/medford-share/data/pseudos_module/espresso/nninc/pbe/van/O.UPF
     MD5 check sum: 78c19812648e8988a0fe644b0f25305e
     Pseudo is Ultrasoft, Zval =  6.0
     Generated by new atomic code, or converted to UPF format
     Using radial grid of  737 points,  4 beta functions with:
                l(1) =   0
                l(2) =   0
                l(3) =   1
                l(4) =   1
     Q(r) pseudized with  8 coefficients,  rinner =    0.800   0.800   0.800

     PseudoPot. # 3 for N  read from file:
     /storage/coda1/p-amedford6/0/shared/rich_project_chbe-medford/medford-share/data/pseudos_module/espresso/nninc/pbe/van/N.UPF
     MD5 check sum: 90d10febe142ad51ac9d5be1deb811c4
     Pseudo is Ultrasoft, Zval =  5.0
     Generated by new atomic code, or converted to UPF format
     Using radial grid of  729 points,  4 beta functions with:
                l(1) =   0
                l(2) =   0
                l(3) =   1
                l(4) =   1
     Q(r) pseudized with  8 coefficients,  rinner =    0.800   0.800   0.800

     PseudoPot. # 4 for C  read from file:
     /storage/coda1/p-amedford6/0/shared/rich_project_chbe-medford/medford-share/data/pseudos_module/espresso/nninc/pbe/van/C.UPF
     MD5 check sum: 1a69bf6b8db32088f5b2163dbdb77a27
     Pseudo is Ultrasoft, Zval =  4.0
     Generated by new atomic code, or converted to UPF format
     Using radial grid of  721 points,  4 beta functions with:
                l(1) =   0
                l(2) =   0
                l(3) =   1
                l(4) =   1
     Q(r) pseudized with  8 coefficients,  rinner =    0.800   0.800   0.800

     PseudoPot. # 5 for H  read from file:
     /storage/coda1/p-amedford6/0/shared/rich_project_chbe-medford/medford-share/data/pseudos_module/espresso/nninc/pbe/van/H.UPF
     MD5 check sum: b5ee9d7bfd3a09ee7748110bda690ff7
     Pseudo is Ultrasoft, Zval =  1.0
     Generated by new atomic code, or converted to UPF format
     Using radial grid of  615 points,  1 beta functions with:
                l(1) =   0
     Q(r) pseudized with  8 coefficients,  rinner =    0.800

     atomic species   valence    mass     pseudopotential
        Ti1           12.00    47.86700     Ti( 1.00)
        O1             6.00    15.99900     O ( 1.00)
        N1             5.00    14.00700     N ( 1.00)
        C1             4.00    12.01100     C ( 1.00)
        H1             1.00     1.00800     H ( 1.00)

     No symmetry found

   Cartesian axes

     site n.     atom                  positions (alat units)
         1           Ti1 tau(   1) = (   0.0004258   2.9801865   6.0000000  )
         2           Ti1 tau(   2) = (   3.2906075   1.4906267   6.0002472  )
         3           O1  tau(   3) = (   0.0006271   0.0005054   7.9858123  )
         4           O1  tau(   4) = (   3.2906025   0.0005020   7.3038282  )
         5           O1  tau(   5) = (   4.5942328   1.4918067   9.2879030  )
         6           O1  tau(   6) = (   1.9868534   1.4903216   9.2879459  )
         7           Ti1 tau(   7) = (   3.2907910   2.8959150   9.1758416  )
         8           Ti1 tau(   8) = (   0.0015273   1.4827037   9.2680791  )
         9           O1  tau(   9) = (   3.2817971   0.0424577  11.2706337  )
        10           O1  tau(  10) = (   0.0116148   5.9584955  10.6183126  )
        11           O1  tau(  11) = (   1.2813654   1.4951502  12.6332405  )
        12           O1  tau(  12) = (   5.2815101   1.4921423  12.6269808  )
        13           Ti1 tau(  13) = (   6.5662594   2.8603684  12.6843660  )
        14           Ti1 tau(  14) = (   3.2717346   1.4252475  12.4210995  )
        15           O1  tau(  15) = (   6.5710910   0.0045200  14.6317625  )
        16           O1  tau(  16) = (   3.2759495   0.0084639  13.8932321  )
        17           O1  tau(  17) = (   4.5517014   1.4983445  16.0008815  )
        18           O1  tau(  18) = (   2.0271237   1.5070609  16.0478782  )
        19           Ti1 tau(  19) = (   3.2345769   3.0092735  16.2435900  )
        20           Ti1 tau(  20) = (   6.4941389   1.4975806  15.8145731  )
        21           O1  tau(  21) = (   3.2904802   0.0005063   4.7018136  )
        22           O1  tau(  22) = (   6.5579512   0.0396517  17.1742205  )
        23           O1  tau(  23) = (   1.3043587   1.4918075   6.0039043  )
        24           O1  tau(  24) = (   5.2767064   1.4903225   6.0039473  )
        25           Ti1 tau(  25) = (   0.0000382   5.9609847   6.0000000  )
        26           Ti1 tau(  26) = (   3.2902200   4.4714249   6.0002472  )
        27           O1  tau(  27) = (   0.0002396   2.9813036   7.9858123  )
        28           O1  tau(  28) = (   3.2902150   2.9813002   7.3038282  )
        29           O1  tau(  29) = (   4.5938453   4.4726049   9.2879030  )
        30           O1  tau(  30) = (   1.9864658   4.4711199   9.2879459  )
        31           Ti1 tau(  31) = (   3.2891106   5.8743827   9.1763621  )
        32           Ti1 tau(  32) = (   0.0006254   4.4649316   9.2693709  )
        33           O1  tau(  33) = (   3.2800217   2.9666125  11.2981572  )
        34           O1  tau(  34) = (   0.0092240   2.9805883  10.6323155  )
        35           O1  tau(  35) = (   1.2755083   4.4823741  12.6262202  )
        36           O1  tau(  36) = (   5.2848398   4.4807727  12.6177486  )
        37           Ti1 tau(  37) = (   6.5672004   5.8338186  12.5551636  )
        38           Ti1 tau(  38) = (   3.2732152   4.2974050  12.6602233  )
        39           O1  tau(  39) = (   6.5693882   2.9786051  14.6782399  )
        40           O1  tau(  40) = (   3.2805734   3.0393479  13.9038923  )
        41           O1  tau(  41) = (   4.5335661   4.5240572  16.0872286  )
        42           O1  tau(  42) = (   2.0073973   4.5295938  16.0607137  )
        43           Ti1 tau(  43) = (   3.2598295   0.0330142  15.6732764  )
        44           Ti1 tau(  44) = (   6.5464637   4.6748829  16.0422594  )
        45           O1  tau(  45) = (   3.2900926   2.9813045   4.7018136  )
        46           O1  tau(  46) = (   1.3039711   4.4726057   6.0039043  )
        47           O1  tau(  47) = (   5.2763189   4.4711207   6.0039473  )
        48           N1  tau(  48) = (   0.1126456   2.6876119  18.6539570  )
        49           N1  tau(  49) = (   0.0165868   2.9082207  17.4746156  )
        50           C1  tau(  50) = (   0.2746321   3.7930379  19.6319179  )
        51           H1  tau(  51) = (   0.1055085   4.7842840  19.1878107  )
        52           H1  tau(  52) = (   6.1760284   3.5871646  20.4591619  )
        53           H1  tau(  53) = (   1.2982147   3.7051261  19.9977701  )
        54           O1  tau(  54) = (   3.2987527   2.9937385  18.0942264  )
        55           H1  tau(  55) = (   3.7476408   3.7324850  18.5320624  )

     number of k points=    10  Fermi-Dirac smearing, width (Ry)=  0.0073
                       cart. coord. in units 2pi/alat
        k(    1) = (   0.0000000   0.0000000   0.0000000), wk =   0.1250000
        k(    2) = (   0.0000000   0.0419351   0.0000000), wk =   0.2500000
        k(    3) = (   0.0000000  -0.0838702   0.0000000), wk =   0.1250000
        k(    4) = (   0.0379955   0.0000049   0.0000000), wk =   0.2500000
        k(    5) = (   0.0379955   0.0419400   0.0000000), wk =   0.2500000
        k(    6) = (   0.0379955  -0.0838652   0.0000000), wk =   0.2500000
        k(    7) = (   0.0379955  -0.0419301   0.0000000), wk =   0.2500000
        k(    8) = (  -0.0759910  -0.0000099   0.0000000), wk =   0.1250000
        k(    9) = (  -0.0759910   0.0419252   0.0000000), wk =   0.2500000
        k(   10) = (  -0.0759910  -0.0838800   0.0000000), wk =   0.1250000

     Initial potential from superposition of free atoms

     starting charge  385.99915, renormalised to  402.00000

     negative rho (up, down):  1.467E-02 0.000E+00

     %%%%%%%%%%%%%%%%%%%%%%%%%%%%%%%%%%%%%%%%%%%%%%%%%%%%%%%%%%%%%%%%%%%%%%%%
     %                                                                      %
     % You are using vdW-DF, which was implemented by the Thonhauser group. %
     % Please cite the following two papers that made this development      %
     % possible and the two reviews that describe the various versions:     %
     %                                                                      %
     %   T. Thonhauser et al., PRL 115, 136402 (2015).                      %
     %   T. Thonhauser et al., PRB 76, 125112 (2007).                       %
     %   K. Berland et al., Rep. Prog. Phys. 78, 066501 (2015).             %
     %   D.C. Langreth et al., J. Phys.: Condens. Matter 21, 084203 (2009). %
     %                                                                      %
     %                                                                      %
     % If you are calculating the stress with vdW-DF, please also cite:     %
     %                                                                      %
     %   R. Sabatini et al., J. Phys.: Condens. Matter 24, 424209 (2012).   %
     %                                                                      %
     %%%%%%%%%%%%%%%%%%%%%%%%%%%%%%%%%%%%%%%%%%%%%%%%%%%%%%%%%%%%%%%%%%%%%%%%

     Adding external electric field

     Computed dipole along edir(3) :
        Dipole              -11.9798 Ry au,        -30.4497 Debye
        Dipole field         -0.0226 Ry au,

        Potential amp.        2.0957 Ry
        Total length         46.3494 bohr

     Starting wfcs are  304 atomic wfcs
  @ DRIVER MODE: Message from server: STATUS
  @ DRIVER MODE: Message from server: POSDATA
  @ DRIVER MODE: Reading and sharing cell
  @ DRIVER MODE: Reading and sharing positions
  @ DRIVER MODE: Received positions

     Self-consistent Calculation

     iteration #  1     ecut=    29.40 Ry     beta= 0.05
     Davidson diagonalization with overlap
     c_bands:  4 eigenvalues not converged
     c_bands:  3 eigenvalues not converged
     c_bands:  5 eigenvalues not converged
     c_bands:  5 eigenvalues not converged
     c_bands:  3 eigenvalues not converged
     c_bands:  4 eigenvalues not converged
     c_bands:  2 eigenvalues not converged
     c_bands:  1 eigenvalues not converged
     ethr =  1.00E-05,  avg # of iterations = 25.4

[...]

     total energy              =   -2401.04141755 Ry
     estimated scf accuracy    <    6440.96475353 Ry

     iteration #  2     ecut=    29.40 Ry     beta= 0.05
     Davidson diagonalization with overlap
     ethr =  1.00E-02,  avg # of iterations = 22.6

[...]

     iteration # 58     ecut=    29.40 Ry     beta= 0.05
     Davidson diagonalization with overlap
     c_bands:  1 eigenvalues not converged
     c_bands:  1 eigenvalues not converged
     ethr =  3.12E-07,  avg # of iterations =  8.4

[...]

     total energy              =   -2972.74449298 Ry
     estimated scf accuracy    <       0.00000008 Ry

     iteration # 78     ecut=    29.40 Ry     beta= 0.05
     Davidson diagonalization with overlap
     ethr =  2.06E-11,  avg # of iterations =  5.7

     negative rho (up, down):  1.548E-02 0.000E+00

     Adding external electric field

     Computed dipole along edir(3) :
        Dipole                0.6075 Ry au,          1.5440 Debye
        Dipole field          0.0011 Ry au,

        Potential amp.       -0.1063 Ry
        Total length         46.3494 bohr

     End of self-consistent calculation

          k = 0.0000 0.0000 0.0000 ( 18029 PWs)   bands (ev):

   -56.2401 -56.2063 -55.8250 -55.7914 -55.5923 -55.5327 -55.4811 -55.4059
   -55.3821 -55.3271 -55.2369 -55.1643 -55.0844 -55.0124 -54.9908 -54.9784
   -32.6904 -32.5325 -32.5055 -32.3986 -32.3146 -32.3060 -32.3042 -32.0723
   -32.0440 -32.0249 -31.9727 -31.9663 -31.9323 -31.8982 -31.8700 -31.8184
   -31.8091 -31.7931 -31.7555 -31.7360 -31.7283 -31.7077 -31.6950 -31.6931
   -31.6913 -31.6514 -31.6038 -31.5749 -31.5554 -31.5371 -31.5360 -31.4985
   -31.4888 -31.4286 -31.4184 -31.4092 -31.3685 -31.3455 -31.3401 -31.3219
   -31.3159 -31.2924 -31.2397 -31.2278 -31.2275 -31.2126 -31.1432 -31.0313
   -18.8582 -16.5342 -16.3528 -16.1988 -15.9874 -15.8197 -15.7274 -15.7194
   -15.6718 -15.5508 -15.5228 -15.4286 -15.3373 -15.2639 -15.2628 -15.2386
   -15.1420 -15.0854 -15.0588 -15.0187 -14.9988 -14.9915 -14.9788 -14.8805
   -14.8641 -14.8586 -14.7163 -14.6938 -14.6087 -14.3605 -14.2639 -13.5103
   -13.3980 -11.5143  -6.9266  -4.4100  -4.1642  -4.0435  -3.9985  -3.8300
    -3.7495  -3.5320  -3.4326  -3.3553  -3.2341  -3.1481  -2.9585  -2.9473
    -2.8935  -2.8239  -2.7490  -2.6898  -2.6380  -2.6270  -2.5536  -2.5151
    -2.4745  -2.4674  -2.4048  -2.3887  -2.3012  -2.2901  -2.2170  -2.1827
    -2.1527  -2.1202  -2.1031  -2.0426  -2.0348  -2.0033  -1.9721  -1.9206
    -1.8538  -1.8111  -1.7243  -1.6687  -1.6548  -1.5647  -1.5454  -1.5328
    -1.5174  -1.3224  -1.2487  -1.2266  -1.2160  -1.0684  -1.0254  -1.0006
    -0.9208  -0.8962  -0.8499  -0.8092  -0.7616  -0.7051  -0.6742  -0.6681
    -0.6433  -0.5917  -0.4041  -0.3716  -0.3225  -0.2932  -0.2554  -0.1990
    -0.1685  -0.1367  -0.0548  -0.0496  -0.0407  -0.0032   0.0469   0.1277
     0.1877   0.2081   0.3004   0.3069   0.3487   0.3834   0.4397   0.4670
     0.5509   0.5948   0.6100   0.6646   0.6851   0.8732   0.9103   0.9470
     0.9846   1.0120   1.0577   1.1727   1.2409   1.5427   1.5599   1.5994
     2.7507   2.9864   3.1151   3.2712   3.4185   3.5135   3.8247   3.8873
     3.9457   3.9736   3.9857

[...]

          k = 0.0380-0.0419 0.0000 ( 17876 PWs)   bands (ev):

[...]

          k =-0.0760-0.0000 0.0000 ( 17886 PWs)   bands (ev):

[...]

          k =-0.0760-0.0839 0.0000 ( 17948 PWs)   bands (ev):

   -56.2236 -56.2226 -55.8094 -55.8069 -55.5870 -55.5379 -55.4783 -55.4085
   -55.3761 -55.3328 -55.2351 -55.1627 -55.0862 -54.9957 -54.9950 -54.9923
   -32.5186 -32.5173 -32.5068 -32.5061 -32.3510 -32.3499 -32.1289 -32.1250
   -32.0037 -32.0015 -31.9982 -31.9965 -31.8925 -31.8539 -31.8169 -31.8104
   -31.8052 -31.7656 -31.7539 -31.7481 -31.7218 -31.7073 -31.6995 -31.6683
   -31.6624 -31.6265 -31.6220 -31.6026 -31.5955 -31.5656 -31.5594 -31.5457
   -31.4893 -31.4349 -31.4324 -31.4220 -31.3663 -31.3449 -31.3350 -31.3345
   -31.2968 -31.2964 -31.2463 -31.2293 -31.2244 -31.2233 -31.1860 -31.1853
   -18.8544 -16.3400 -15.9440 -15.9317 -15.8084 -15.8018 -15.6295 -15.6131
   -15.5914 -15.5349 -15.5133 -15.4660 -15.3258 -15.3163 -15.2562 -15.2231
   -15.1981 -15.1820 -15.1527 -15.1523 -15.1330 -15.0592 -15.0318 -15.0047
   -14.9559 -14.9517 -14.7859 -14.7203 -14.7063 -14.4923 -14.4608 -13.5011
   -13.5009 -11.5123  -6.9404  -4.3573  -4.0321  -3.9801  -3.9354  -3.1123
    -3.0576  -2.9473  -2.9206  -2.8464  -2.8240  -2.7166  -2.6928  -2.6520
    -2.6384  -2.6347  -2.5793  -2.5567  -2.5348  -2.4905  -2.4786  -2.4658
    -2.4411  -2.3927  -2.3819  -2.3638  -2.3483  -2.3321  -2.2379  -2.2324
    -2.2149  -2.1710  -2.1674  -2.1544  -2.0756  -2.0064  -1.9640  -1.9582
    -1.9260  -1.8692  -1.7890  -1.6775  -1.6557  -1.6075  -1.5776  -1.5008
    -1.4737  -1.4290  -1.3341  -1.3270  -1.2999  -1.2826  -1.2216  -1.2072
    -1.0644  -1.0316  -1.0257  -1.0180  -1.0164  -0.9187  -0.8569  -0.7976
    -0.7445  -0.6630  -0.6497  -0.6286  -0.6097  -0.6001  -0.5809  -0.5567
    -0.4954  -0.4540  -0.4036  -0.3867  -0.2825  -0.2030  -0.1688  -0.1024
    -0.0250   0.0639   0.1422   0.1557   0.1935   0.2480   0.3364   0.3784
     0.4208   0.4896   0.5315   0.6048   0.6663   0.7512   0.7752   0.8639
     0.9752   0.9919   1.0424   1.1296   1.4024   1.4091   1.4156   1.4164
     2.7575   3.5341   3.5380   3.5677   3.5760   3.7759   3.7879   3.9139
     3.9753   4.0300   4.0311

     the Fermi energy is     2.9230 ev

!    total energy              =   -2972.74450724 Ry
     estimated scf accuracy    <       0.00000004 Ry
     smearing contrib. (-TS)   =      -0.01283290 Ry
     internal energy E=F+TS    =   -2972.73167433 Ry

     The total energy is F=E-TS. E is the sum of the following terms:
     one-electron contribution =  -23700.57940252 Ry
     hartree contribution      =   11943.57216681 Ry
     xc contribution           =    -493.11840504 Ry
     ewald contribution        =    9277.39327003 Ry
     electric field correction =       0.00069638 Ry

     convergence has been achieved in  78 iterations

     Forces acting on atoms (cartesian axes, Ry/au):

     atom    1 type  1   force =     0.00009098   -0.00038351    0.10704060
     atom    2 type  1   force =    -0.00004727   -0.00169694   -0.16538391
     atom    3 type  2   force =     0.00003547   -0.00025821   -0.03868470
     atom    4 type  2   force =     0.00004527    0.00076180    0.03117092
     atom    5 type  2   force =    -0.00356360    0.00294804   -0.00840233
     atom    6 type  2   force =     0.00470274    0.00361624   -0.01017139
     atom    7 type  1   force =    -0.00073248    0.00048605    0.02124332
     atom    8 type  1   force =     0.00101028    0.01539802    0.06096573
     atom    9 type  2   force =     0.00011338   -0.00014837    0.00007711
     atom   10 type  2   force =    -0.00289402    0.00226700   -0.04715856
     atom   11 type  2   force =    -0.00004786   -0.00020440   -0.00002424
     atom   12 type  2   force =     0.00001320   -0.00002761    0.00019713
     atom   13 type  1   force =     0.00028369   -0.00013914    0.00014474
     atom   14 type  1   force =     0.00040251   -0.00015343    0.00025769
     atom   15 type  2   force =     0.00015964    0.00012306   -0.00032004
     atom   16 type  2   force =     0.00014396   -0.00015432    0.00000614
     atom   17 type  2   force =     0.00018012    0.00015434    0.00024992
     atom   18 type  2   force =     0.00012808    0.00025244    0.00006704
     atom   19 type  1   force =     0.00004880   -0.00013461   -0.00009758
     atom   20 type  1   force =    -0.00033259    0.00024893    0.00006161
     atom   21 type  2   force =     0.00010345    0.00000187    0.10029524
     atom   22 type  2   force =     0.00002507    0.00010972   -0.00027317
     atom   23 type  2   force =    -0.07668659   -0.00004548   -0.03006109
     atom   24 type  2   force =     0.07667298    0.00038616   -0.03008596
     atom   25 type  1   force =     0.00005134   -0.00043315    0.10698653
     atom   26 type  1   force =    -0.00010615    0.00063053   -0.16568385
     atom   27 type  2   force =     0.00012183   -0.00027178   -0.03749777
     atom   28 type  2   force =     0.00004478   -0.00043833    0.03534732
     atom   29 type  2   force =    -0.00570288   -0.00043474   -0.00598640
     atom   30 type  2   force =     0.00686676    0.00006368   -0.00767601
     atom   31 type  1   force =    -0.00057259   -0.00239714    0.03462793
     atom   32 type  1   force =     0.00111295   -0.01877843    0.06149071
     atom   33 type  2   force =     0.00022518   -0.00012747    0.00003422
     atom   34 type  2   force =    -0.00253723    0.00012807   -0.05387142
     atom   35 type  2   force =     0.00021303   -0.00024596   -0.00011845
     atom   36 type  2   force =     0.00018601   -0.00002075    0.00027907
     atom   37 type  1   force =     0.00035330   -0.00019799   -0.00010093
     atom   38 type  1   force =     0.00047153   -0.00021732    0.00030529
     atom   39 type  2   force =     0.00015858   -0.00046272    0.00023742
     atom   40 type  2   force =    -0.00019081   -0.00004698   -0.00014469
     atom   41 type  2   force =     0.00010744   -0.00037668    0.00010357
     atom   42 type  2   force =     0.00022074   -0.00040989    0.00011751
     atom   43 type  1   force =    -0.00025508    0.00003761   -0.00023426
     atom   44 type  1   force =    -0.00006248   -0.00032912    0.00031008
     atom   45 type  2   force =     0.00009469    0.00010955    0.10049877
     atom   46 type  2   force =    -0.07666727   -0.00006129   -0.03007345
     atom   47 type  2   force =     0.07665801    0.00035919   -0.03010148
     atom   48 type  3   force =     0.00018858    0.00077246    0.00047911
     atom   49 type  3   force =     0.00012722   -0.00008629   -0.00126750
     atom   50 type  4   force =    -0.00211995    0.01058197   -0.00380678
     atom   51 type  5   force =     0.00176780   -0.01100682    0.00444755
     atom   52 type  5   force =     0.00014093    0.00011577   -0.00060956
     atom   53 type  5   force =    -0.00036275   -0.00015315    0.00063538
     atom   54 type  2   force =     0.00043303    0.00121860    0.00063435
     atom   55 type  5   force =    -0.00082176   -0.00092910   -0.00047646

     Total force =     0.381722     Total SCF correction =     0.000487
  @ DRIVER MODE: Message from server: STATUS
  @ DRIVER MODE: Message from server: GETFORCE
  @ DRIVER MODE: Returning v,forces,stress,ensemble

     Writing output data file ./calc.save/
  @ DRIVER MODE: Message from server: EXIT
  @ DRIVE MODE: Exiting

     General routines

     Parallel routines

   This run was terminated on:   4:23:47  10Sep2021

   JOB DONE.