     Program PWSCF v.6.7GPU starts on  8Sep2021 at 21:51:42

     R & G space division:  proc/nbgrp/npool/nimage =      10
     Reading input from /storage/home/hcoda1/3/ntian30/research/carbon/CxH_vib/CH3_calc/ads_slab/CH3OH_e/out_0000/pw.inp
Warning: card &CELL ignored
Warning: card   CELL_DYNAMICS='IPI', ignored
Warning: card / ignored

     Current dimensions of program PWSCF are:
     Max number of different atomic species (ntypx) = 10
     Max number of k-points (npk) =  40000
     Max angular momentum in pseudopotentials (lmaxx) =  3
     Presently no symmetry can be used with electric field

     Message from routine cell_base_init:
     DEPRECATED: use true lattice parameter, not A to a.u. conversion factor

     IMPORTANT: XC functional enforced from input :
     Exchange-correlation= BEEF-VDW
                           (   1   4  43  14   2   0   0)
     Any further DFT definition will be discarded
     Please, verify this is what you really want

  @ DRIVER MODE: Connecting to
 qe_1139763_2767404.sched-torque.pace.gatech.edudhy8kb3u_scratch
  using UNIX socket
  @ DRIVER MODE: Message from server: STATUS
  @ DRIVER MODE: Message from server: INIT
  @ DRIVER MODE: Receiving replica           0          -1
  @ DRIVER MODE: Receiving encoded integer          25
  @ DRIVER MODE:  SCF:  T  FORCE:  T  STRESS:  F  VC:  F  ENSEMBLE:  F
  @ DRIVER MODE:  SCF:  T  FORCE:  T  STRESS:  F  VC:  F  ENSEMBLE:  F

     Using Slab Decomposition

     bravais-lattice index     =            0
     lattice parameter (alat)  =       1.8897  a.u.
     unit-cell volume          =    6658.9804 (a.u.)^3
     number of atoms/cell      =           53
     number of atomic types    =            4
     number of electrons       =       392.00
     number of Kohn-Sham states=          206
     kinetic-energy cutoff     =      29.3995  Ry
     charge density cutoff     =     293.9946  Ry
     scf convergence threshold =      7.3E-08
     mixing beta               =       0.0500
     number of iterations used =            8  plain     mixing
     Exchange-correlation= BEEF-VDW
                           (   1   4  43  14   2   0   0)

     celldm(1)=   1.889726  celldm(2)=   0.000000  celldm(3)=   0.000000
     celldm(4)=   0.000000  celldm(5)=   0.000000  celldm(6)=   0.000000

     crystal axes: (cart. coord. in units of alat)
               a(1) = (   6.579727   0.000000   0.000000 )
               a(2) = (  -0.000775   5.961596   0.000000 )
               a(3) = (   0.000000   0.000000  25.155947 )

     reciprocal axes: (cart. coord. in units 2 pi/alat)
               b(1) = (  0.151982  0.000020  0.000000 )
               b(2) = (  0.000000  0.167740  0.000000 )
               b(3) = (  0.000000  0.000000  0.039752 )

     PseudoPot. # 1 for Ti read from file:
     /storage/coda1/p-amedford6/0/shared/rich_project_chbe-medford/medford-share/data/pseudos_module/espresso/nninc/pbe/van/Ti.UPF
     MD5 check sum: 8e4df49b7f0d34bbd5052bf3f5ea0213
     Pseudo is Ultrasoft, Zval = 12.0
     Generated by new atomic code, or converted to UPF format
     Using radial grid of  851 points,  6 beta functions with:
                l(1) =   0
                l(2) =   0
                l(3) =   1
                l(4) =   1
                l(5) =   2
                l(6) =   2
     Q(r) pseudized with  8 coefficients,  rinner =    1.000   1.000   1.000
                                                       1.000   1.000

     PseudoPot. # 2 for O  read from file:
     /storage/coda1/p-amedford6/0/shared/rich_project_chbe-medford/medford-share/data/pseudos_module/espresso/nninc/pbe/van/O.UPF
     MD5 check sum: 78c19812648e8988a0fe644b0f25305e
     Pseudo is Ultrasoft, Zval =  6.0
     Generated by new atomic code, or converted to UPF format
     Using radial grid of  737 points,  4 beta functions with:
                l(1) =   0
                l(2) =   0
                l(3) =   1
                l(4) =   1
     Q(r) pseudized with  8 coefficients,  rinner =    0.800   0.800   0.800

     PseudoPot. # 3 for C  read from file:
     /storage/coda1/p-amedford6/0/shared/rich_project_chbe-medford/medford-share/data/pseudos_module/espresso/nninc/pbe/van/C.UPF
     MD5 check sum: 1a69bf6b8db32088f5b2163dbdb77a27
     Pseudo is Ultrasoft, Zval =  4.0
     Generated by new atomic code, or converted to UPF format
     Using radial grid of  721 points,  4 beta functions with:
                l(1) =   0
                l(2) =   0
                l(3) =   1
                l(4) =   1
     Q(r) pseudized with  8 coefficients,  rinner =    0.800   0.800   0.800

     PseudoPot. # 4 for H  read from file:
     /storage/coda1/p-amedford6/0/shared/rich_project_chbe-medford/medford-share/data/pseudos_module/espresso/nninc/pbe/van/H.UPF
     MD5 check sum: b5ee9d7bfd3a09ee7748110bda690ff7
     Pseudo is Ultrasoft, Zval =  1.0
     Generated by new atomic code, or converted to UPF format
     Using radial grid of  615 points,  1 beta functions with:
                l(1) =   0
     Q(r) pseudized with  8 coefficients,  rinner =    0.800

     atomic species   valence    mass     pseudopotential
        Ti1           12.00    47.86700     Ti( 1.00)
        O1             6.00    15.99900     O ( 1.00)
        C1             4.00    12.01100     C ( 1.00)
        H1             1.00     1.00800     H ( 1.00)

     No symmetry found

   Cartesian axes

     site n.     atom                  positions (alat units)
         1           Ti1 tau(   1) = (   0.0004258   2.9801865   6.0000000  )
         2           Ti1 tau(   2) = (   3.2906075   1.4906267   6.0002472  )
         3           O1  tau(   3) = (   0.0006271   0.0005054   7.9858123  )
         4           O1  tau(   4) = (   3.2906025   0.0005020   7.3038282  )
         5           O1  tau(   5) = (   4.5942328   1.4918067   9.2879030  )
         6           O1  tau(   6) = (   1.9868534   1.4903216   9.2879459  )
         7           Ti1 tau(   7) = (   3.3184627   3.0104606   9.1553648  )
         8           Ti1 tau(   8) = (   0.0346466   1.5145919   9.2725854  )
         9           O1  tau(   9) = (   3.3323670   0.0074739  11.3628161  )
        10           O1  tau(  10) = (   0.0072146   0.0022432  10.6032180  )
        11           O1  tau(  11) = (   1.3334854   1.5010653  12.6312402  )
        12           O1  tau(  12) = (   5.3322653   1.4967215  12.6661074  )
        13           Ti1 tau(  13) = (   0.0399007   3.0049294  12.5399032  )
        14           Ti1 tau(  14) = (   3.3257882   1.5006484  12.5017209  )
        15           O1  tau(  15) = (   0.0958175   0.0109015  14.6781201  )
        16           O1  tau(  16) = (   3.3209445   0.0065530  13.9947117  )
        17           O1  tau(  17) = (   4.6470289   1.5235192  16.1521327  )
        18           O1  tau(  18) = (   2.1274687   1.5288575  16.1863263  )
        19           Ti1 tau(  19) = (   3.3866828   2.9872137  15.7186651  )
        20           Ti1 tau(  20) = (   0.0851359   1.3433488  15.9962781  )
        21           O1  tau(  21) = (   3.2904802   0.0005063   4.7018136  )
        22           O1  tau(  22) = (   0.0861787   0.0156205  17.2101336  )
        23           O1  tau(  23) = (   1.3043587   1.4918075   6.0039043  )
        24           O1  tau(  24) = (   5.2767064   1.4903225   6.0039473  )
        25           Ti1 tau(  25) = (   0.0000382   5.9609847   6.0000000  )
        26           Ti1 tau(  26) = (   3.2902200   4.4714249   6.0002472  )
        27           O1  tau(  27) = (   0.0002396   2.9813036   7.9858123  )
        28           O1  tau(  28) = (   3.2902150   2.9813002   7.3038282  )
        29           O1  tau(  29) = (   4.5938453   4.4726049   9.2879030  )
        30           O1  tau(  30) = (   1.9864658   4.4711199   9.2879459  )
        31           Ti1 tau(  31) = (   3.3160408   0.0312979   9.1533790  )
        32           Ti1 tau(  32) = (   0.0342031   4.4824714   9.2635914  )
        33           O1  tau(  33) = (   3.3296961   2.9874083  11.3532073  )
        34           O1  tau(  34) = (   0.0071558   2.9827229  10.6249429  )
        35           O1  tau(  35) = (   1.3339759   4.4780823  12.6303471  )
        36           O1  tau(  36) = (   5.3316377   4.4803543  12.6653953  )
        37           Ti1 tau(  37) = (   0.0318003   0.0267859  12.4824326  )
        38           Ti1 tau(  38) = (   3.3243002   4.4792164  12.4996646  )
        39           O1  tau(  39) = (   0.1017966   3.0039049  14.8467192  )
        40           O1  tau(  40) = (   3.3365867   2.9884115  13.9371009  )
        41           O1  tau(  41) = (   4.6519449   4.4651455  16.1366910  )
        42           O1  tau(  42) = (   2.1329502   4.4467914  16.2189938  )
        43           Ti1 tau(  43) = (   3.3530478   0.0116223  15.7847896  )
        44           Ti1 tau(  44) = (   0.0420906   4.5503417  15.8661587  )
        45           O1  tau(  45) = (   3.2900926   2.9813045   4.7018136  )
        46           O1  tau(  46) = (   1.3039711   4.4726057   6.0039043  )
        47           O1  tau(  47) = (   5.2763189   4.4711207   6.0039473  )
        48           C1  tau(  48) = (   6.0571888   3.1179766  18.9039971  )
        49           O1  tau(  49) = (   0.2335693   3.0433622  17.6694830  )
        50           H1  tau(  50) = (   5.0284728   2.8969007  18.6408099  )
        51           H1  tau(  51) = (   1.1757692   3.2348548  17.8288520  )
        52           H1  tau(  52) = (   6.4315421   2.3664480  19.5988381  )
        53           H1  tau(  53) = (   6.1352977   4.1238860  19.3131673  )

     number of k points=    10  Fermi-Dirac smearing, width (Ry)=  0.0073
                       cart. coord. in units 2pi/alat
        k(    1) = (   0.0000000   0.0000000   0.0000000), wk =   0.1250000
        k(    2) = (   0.0000000   0.0419351   0.0000000), wk =   0.2500000
        k(    3) = (   0.0000000  -0.0838702   0.0000000), wk =   0.1250000
        k(    4) = (   0.0379955   0.0000049   0.0000000), wk =   0.2500000
        k(    5) = (   0.0379955   0.0419400   0.0000000), wk =   0.2500000
        k(    6) = (   0.0379955  -0.0838652   0.0000000), wk =   0.2500000
        k(    7) = (   0.0379955  -0.0419301   0.0000000), wk =   0.2500000
        k(    8) = (  -0.0759910  -0.0000099   0.0000000), wk =   0.1250000
        k(    9) = (  -0.0759910   0.0419252   0.0000000), wk =   0.2500000
        k(   10) = (  -0.0759910  -0.0838800   0.0000000), wk =   0.1250000

     Initial potential from superposition of free atoms

     starting charge  375.99917, renormalised to  392.00000

     negative rho (up, down):  1.694E-02 0.000E+00

     %%%%%%%%%%%%%%%%%%%%%%%%%%%%%%%%%%%%%%%%%%%%%%%%%%%%%%%%%%%%%%%%%%%%%%%%
     %                                                                      %
     % You are using vdW-DF, which was implemented by the Thonhauser group. %
     % Please cite the following two papers that made this development      %
     % possible and the two reviews that describe the various versions:     %
     %                                                                      %
     %   T. Thonhauser et al., PRL 115, 136402 (2015).                      %
     %   T. Thonhauser et al., PRB 76, 125112 (2007).                       %
     %   K. Berland et al., Rep. Prog. Phys. 78, 066501 (2015).             %
     %   D.C. Langreth et al., J. Phys.: Condens. Matter 21, 084203 (2009). %
     %                                                                      %
     %                                                                      %
     % If you are calculating the stress with vdW-DF, please also cite:     %
     %                                                                      %
     %   R. Sabatini et al., J. Phys.: Condens. Matter 24, 424209 (2012).   %
     %                                                                      %
     %%%%%%%%%%%%%%%%%%%%%%%%%%%%%%%%%%%%%%%%%%%%%%%%%%%%%%%%%%%%%%%%%%%%%%%%

     Adding external electric field

     Computed dipole along edir(3) :
        Dipole               -7.1856 Ry au,        -18.2640 Debye
        Dipole field         -0.0136 Ry au,

        Potential amp.        1.2570 Ry
        Total length         46.3494 bohr

     Starting wfcs are  296 atomic wfcs
  @ DRIVER MODE: Message from server: STATUS
  @ DRIVER MODE: Message from server: POSDATA
  @ DRIVER MODE: Reading and sharing cell
  @ DRIVER MODE: Reading and sharing positions
  @ DRIVER MODE: Received positions

     Self-consistent Calculation

     iteration #  1     ecut=    29.40 Ry     beta= 0.05
     Davidson diagonalization with overlap
     ethr =  1.00E-02,  avg # of iterations =  2.0

[...]

     total energy              =   -2698.76429264 Ry
     estimated scf accuracy    <    2583.38784357 Ry

     iteration #  2     ecut=    29.40 Ry     beta= 0.05
     Davidson diagonalization with overlap
     c_bands:  1 eigenvalues not converged
     c_bands:  5 eigenvalues not converged
     c_bands:  1 eigenvalues not converged
     c_bands:  5 eigenvalues not converged
     c_bands:  4 eigenvalues not converged
     ethr =  1.00E-02,  avg # of iterations = 20.7

[...]

     iteration # 70     ecut=    29.40 Ry     beta= 0.05
     Davidson diagonalization with overlap
     c_bands:  1 eigenvalues not converged
     ethr =  3.02E-11,  avg # of iterations = 13.4

[...]

     total energy              =   -2932.64534501 Ry
     estimated scf accuracy    <       0.00000010 Ry

     iteration # 71     ecut=    29.40 Ry     beta= 0.05
     Davidson diagonalization with overlap
     ethr =  2.56E-11,  avg # of iterations =  8.8

     negative rho (up, down):  1.738E-02 0.000E+00

     Adding external electric field

     Computed dipole along edir(3) :
        Dipole                1.3725 Ry au,          3.4884 Debye
        Dipole field          0.0026 Ry au,

        Potential amp.       -0.2401 Ry
        Total length         46.3494 bohr

     End of self-consistent calculation

          k = 0.0000 0.0000 0.0000 ( 18029 PWs)   bands (ev):

   -55.4007 -55.3685 -55.3645 -55.3341 -55.2952 -55.2891 -55.2873 -55.2434
   -55.2272 -55.2267 -55.1928 -55.1851 -55.1811 -55.1510 -54.4586 -54.4245
   -31.9763 -31.9079 -31.8635 -31.7741 -31.7282 -31.7046 -31.6974 -31.6962
   -31.6576 -31.6568 -31.6123 -31.6112 -31.6077 -31.6009 -31.5787 -31.5571
   -31.5528 -31.5353 -31.5304 -31.5225 -31.5204 -31.5092 -31.4855 -31.4846
   -31.4844 -31.4649 -31.4594 -31.4560 -31.4258 -31.4195 -31.4108 -31.3911
   -31.3892 -31.3889 -31.3690 -31.3635 -31.3545 -31.3438 -31.3290 -31.3217
   -31.3109 -31.2968 -30.8706 -30.7683 -30.7467 -30.6871 -30.6008 -30.4895
   -20.2573 -16.2481 -15.9812 -15.8464 -15.7420 -15.6197 -15.4917 -15.4798
   -15.3473 -15.2202 -15.1538 -15.1324 -15.0955 -15.0795 -15.0466 -15.0416
   -15.0267 -14.9552 -14.9289 -14.9102 -14.8841 -14.8802 -14.8425 -14.8317
   -14.7909 -14.7841 -14.6383 -14.5589 -14.4979 -14.2595 -12.9591 -12.8397
   -11.2431  -6.9998  -5.2162  -5.0643  -3.5830  -3.4117  -3.3602  -3.3323
    -3.3264  -3.1978  -3.0903  -3.0356  -2.8290  -2.7016  -2.6671  -2.6603
    -2.6240  -2.5850  -2.4706  -2.3810  -2.3547  -2.3417  -2.2950  -2.2882
    -2.2715  -2.2181  -2.1965  -2.1767  -2.1707  -2.0109  -1.9465  -1.8978
    -1.8853  -1.8387  -1.8007  -1.7407  -1.7374  -1.7221  -1.6847  -1.6806
    -1.6597  -1.6274  -1.6127  -1.4402  -1.3930  -1.3640  -1.2698  -1.1763
    -1.0890  -0.9907  -0.9740  -0.9597  -0.9149  -0.8473  -0.8390  -0.8054
    -0.7671  -0.6473  -0.5801  -0.5329  -0.4797  -0.4025  -0.4018  -0.3429
    -0.2049  -0.1905  -0.1825  -0.1668  -0.0635   0.0161   0.0288   0.0882
     0.1378   0.1606   0.2332   0.2528   0.3181   0.3412   0.4064   0.4237
     0.5108   0.5319   0.5459   0.5658   0.5835   0.6753   0.7014   0.7484
     0.7556   0.9105   1.0386   1.1622   1.1760   1.4567   1.5478   1.5676
     1.7268   2.1535   2.2083   3.6971   3.7615   3.8101   3.8187   3.8298
     3.9077   4.1863   4.1928   4.1985   4.2138   4.2229

[...]

          k = 0.0380-0.0419 0.0000 ( 17876 PWs)   bands (ev):

[...]

          k =-0.0760-0.0000 0.0000 ( 17886 PWs)   bands (ev):

[...]

          k =-0.0760-0.0839 0.0000 ( 17948 PWs)   bands (ev):

   -55.3834 -55.3815 -55.3532 -55.3493 -55.2890 -55.2856 -55.2814 -55.2510
   -55.2317 -55.2119 -55.2077 -55.1837 -55.1702 -55.1660 -54.4416 -54.4415
   -31.8259 -31.7793 -31.7778 -31.7043 -31.6803 -31.6766 -31.6640 -31.6465
   -31.6392 -31.6193 -31.6060 -31.6019 -31.5967 -31.5784 -31.5506 -31.5408
   -31.5316 -31.5284 -31.5282 -31.5254 -31.5241 -31.5207 -31.5126 -31.4857
   -31.4790 -31.4760 -31.4732 -31.4728 -31.4712 -31.4695 -31.4653 -31.4509
   -31.4423 -31.4369 -31.4232 -31.4123 -31.4106 -31.3923 -31.3879 -31.3710
   -31.3580 -31.3539 -30.7593 -30.7592 -30.6833 -30.6832 -30.6440 -30.6440
   -20.2538 -15.7762 -15.6852 -15.6105 -15.4212 -15.4100 -15.4010 -15.3945
   -15.2821 -15.2531 -15.2216 -15.1807 -15.1647 -15.1607 -15.1442 -15.1364
   -14.9994 -14.9956 -14.9905 -14.9890 -14.9181 -14.9133 -14.8988 -14.8840
   -14.8458 -14.8412 -14.8255 -14.8196 -14.7190 -14.5771 -12.9410 -12.9403
   -11.2449  -7.0002  -5.2061  -5.0542  -3.1091  -2.9630  -2.8819  -2.8713
    -2.6355  -2.6287  -2.5888  -2.5282  -2.4768  -2.4251  -2.3998  -2.3967
    -2.3191  -2.3151  -2.3082  -2.3027  -2.2705  -2.2671  -2.2237  -2.1997
    -2.1764  -2.1216  -2.1043  -2.0940  -2.0707  -2.0661  -2.0572  -2.0321
    -2.0274  -2.0087  -1.9409  -1.8615  -1.7903  -1.7732  -1.7384  -1.6250
    -1.6148  -1.5785  -1.5380  -1.4948  -1.4742  -1.4496  -1.4031  -1.3506
    -1.2486  -1.1954  -1.1877  -1.1478  -1.0802  -1.0342  -1.0007  -0.9518
    -0.9028  -0.8705  -0.8294  -0.7624  -0.7121  -0.6223  -0.6164  -0.5727
    -0.4324  -0.4269  -0.4015  -0.3908  -0.3880  -0.3023  -0.2884  -0.2430
    -0.1970  -0.1429  -0.1183  -0.1101   0.0860   0.0955   0.1803   0.2726
     0.2827   0.4378   0.4533   0.5202   0.5918   0.6353   0.6758   0.7391
     0.8382   0.8706   0.8937   0.9874   1.0292   1.0348   1.0615   1.9195
     1.9207   2.0225   2.0255   3.8387   3.9112   3.9437   4.0151   4.0760
     4.2061   4.2188   4.2490   4.2550   4.3330   4.3426

     the Fermi energy is     3.7521 ev

!    total energy              =   -2932.64535945 Ry
     estimated scf accuracy    <       0.00000005 Ry
     smearing contrib. (-TS)   =      -0.03689687 Ry
     internal energy E=F+TS    =   -2932.60846258 Ry

     The total energy is F=E-TS. E is the sum of the following terms:
     one-electron contribution =  -24389.38325135 Ry
     hartree contribution      =   12284.46476792 Ry
     xc contribution           =    -483.01806026 Ry
     ewald contribution        =    9655.32452641 Ry
     electric field correction =       0.00355469 Ry

     convergence has been achieved in  71 iterations

     Forces acting on atoms (cartesian axes, Ry/au):

     atom    1 type  1   force =    -0.00033839   -0.00014701    0.09278354
     atom    2 type  1   force =    -0.00024109    0.00065786   -0.18342988
     atom    3 type  2   force =     0.00047668    0.00086112   -0.02414438
     atom    4 type  2   force =     0.00075534    0.00051807    0.04951918
     atom    5 type  2   force =    -0.01311517    0.00029681    0.00324077
     atom    6 type  2   force =     0.01564828   -0.00028298    0.00543419
     atom    7 type  1   force =     0.00018744    0.00090173   -0.00001689
     atom    8 type  1   force =    -0.00021572   -0.00026599   -0.00040288
     atom    9 type  2   force =    -0.00005906    0.00022961   -0.00025473
     atom   10 type  2   force =     0.00013982    0.00048653    0.00162815
     atom   11 type  2   force =    -0.00000637   -0.00045998    0.00002806
     atom   12 type  2   force =    -0.00055526    0.00041061   -0.00027811
     atom   13 type  1   force =     0.00101833   -0.00065116    0.00010001
     atom   14 type  1   force =    -0.00081093    0.00093463    0.00067734
     atom   15 type  2   force =    -0.00064978   -0.00023140   -0.00025817
     atom   16 type  2   force =     0.00065080   -0.00023994   -0.00046906
     atom   17 type  2   force =    -0.00062253    0.00005453    0.00094482
     atom   18 type  2   force =    -0.00044732   -0.00020370    0.00017107
     atom   19 type  1   force =    -0.00011020   -0.00086057    0.00007740
     atom   20 type  1   force =    -0.00042264    0.00017442   -0.00013100
     atom   21 type  2   force =    -0.00005237    0.00001339    0.10501069
     atom   22 type  2   force =    -0.00019657   -0.00135095    0.00103444
     atom   23 type  2   force =    -0.06795412   -0.00004085   -0.02677986
     atom   24 type  2   force =     0.06772854    0.00039695   -0.02686390
     atom   25 type  1   force =    -0.00037592    0.00013797    0.09636358
     atom   26 type  1   force =    -0.00022399   -0.00047082   -0.18356101
     atom   27 type  2   force =     0.00042136    0.00058749   -0.02278352
     atom   28 type  2   force =     0.00079453    0.00033287    0.04922515
     atom   29 type  2   force =    -0.01325858    0.00067878    0.00321022
     atom   30 type  2   force =     0.01572445    0.00023719    0.00535757
     atom   31 type  1   force =     0.00029651   -0.00138062   -0.00018161
     atom   32 type  1   force =    -0.00005649   -0.00014785    0.00028859
     atom   33 type  2   force =     0.00033615   -0.00009551    0.00076393
     atom   34 type  2   force =     0.00036520    0.00036384    0.00037180
     atom   35 type  2   force =    -0.00036008    0.00004690    0.00012859
     atom   36 type  2   force =    -0.00025703    0.00028267    0.00001304
     atom   37 type  1   force =     0.00137043   -0.00001257   -0.00051515
     atom   38 type  1   force =    -0.00076971   -0.00077895    0.00093346
     atom   39 type  2   force =    -0.00065238    0.00019507   -0.00057321
     atom   40 type  2   force =    -0.00062732    0.00037104   -0.00015831
     atom   41 type  2   force =    -0.00064154   -0.00007886    0.00072674
     atom   42 type  2   force =    -0.00078886   -0.00026526    0.00023014
     atom   43 type  1   force =    -0.00038824    0.00098192    0.00036387
     atom   44 type  1   force =     0.00030132    0.00019124    0.00063473
     atom   45 type  2   force =    -0.00005302    0.00003089    0.10498977
     atom   46 type  2   force =    -0.06790962   -0.00057558   -0.02679152
     atom   47 type  2   force =     0.06768678   -0.00010027   -0.02687094
     atom   48 type  3   force =     0.00004116   -0.00094429   -0.00044858
     atom   49 type  2   force =    -0.00073855   -0.00073747   -0.00028498
     atom   50 type  4   force =    -0.00003694   -0.00019343    0.00095470
     atom   51 type  4   force =    -0.00020518   -0.00028639    0.00042044
     atom   52 type  4   force =    -0.00055115    0.00032163   -0.00019771
     atom   53 type  4   force =    -0.00025099    0.00010670   -0.00023058

     Total force =     0.368098     Total SCF correction =     0.000606
  @ DRIVER MODE: Message from server: STATUS
  @ DRIVER MODE: Message from server: GETFORCE
  @ DRIVER MODE: Returning v,forces,stress,ensemble

     Writing output data file ./calc.save/
  @ DRIVER MODE: Message from server: EXIT
  @ DRIVE MODE: Exiting

     General routines

     Parallel routines

   This run was terminated on:  22:10:12   8Sep2021

   JOB DONE.