     Program PWSCF v.6.7GPU starts on 15Jul2021 at 17:27: 4

     R & G space division:  proc/nbgrp/npool/nimage =      16
     Reading input from /storage/home/hcoda1/3/ntian30/research/carbon/15Jul_vib/ads_slab/CH3NNH3_a/out_0002/pw.inp
Warning: card &CELL ignored
Warning: card   CELL_DYNAMICS='IPI', ignored
Warning: card / ignored

     Current dimensions of program PWSCF are:
     Max number of different atomic species (ntypx) = 10
     Max number of k-points (npk) =  40000
     Max angular momentum in pseudopotentials (lmaxx) =  3
     Presently no symmetry can be used with electric field

     Message from routine cell_base_init:
     DEPRECATED: use true lattice parameter, not A to a.u. conversion factor

     IMPORTANT: XC functional enforced from input :
     Exchange-correlation= BEEF-VDW
                           (   1   4  43  14   2   0   0)
     Any further DFT definition will be discarded
     Please, verify this is what you really want

  @ DRIVER MODE: Connecting to
 qe_1139763_2351650.sched-torque.pace.gatech.edurop7gzo2_scratch
  using UNIX socket
  @ DRIVER MODE: Message from server: STATUS
  @ DRIVER MODE: Message from server: INIT
  @ DRIVER MODE: Receiving replica           0          -1
  @ DRIVER MODE: Receiving encoded integer          25
  @ DRIVER MODE:  SCF:  T  FORCE:  T  STRESS:  F  VC:  F  ENSEMBLE:  F
  @ DRIVER MODE:  SCF:  T  FORCE:  T  STRESS:  F  VC:  F  ENSEMBLE:  F

     Using Slab Decomposition

     bravais-lattice index     =            0
     lattice parameter (alat)  =       1.8897  a.u.
     unit-cell volume          =    6658.9804 (a.u.)^3
     number of atoms/cell      =           56
     number of atomic types    =            5
     number of electrons       =       398.00
     number of Kohn-Sham states=          209
     kinetic-energy cutoff     =      29.3995  Ry
     charge density cutoff     =     293.9946  Ry
     scf convergence threshold =      7.3E-08
     mixing beta               =       0.0500
     number of iterations used =            8  plain     mixing
     Exchange-correlation= BEEF-VDW
                           (   1   4  43  14   2   0   0)

     celldm(1)=   1.889726  celldm(2)=   0.000000  celldm(3)=   0.000000
     celldm(4)=   0.000000  celldm(5)=   0.000000  celldm(6)=   0.000000

     crystal axes: (cart. coord. in units of alat)
               a(1) = (   6.579727   0.000000   0.000000 )
               a(2) = (  -0.000775   5.961596   0.000000 )
               a(3) = (   0.000000   0.000000  25.155947 )

     reciprocal axes: (cart. coord. in units 2 pi/alat)
               b(1) = (  0.151982  0.000020  0.000000 )
               b(2) = (  0.000000  0.167740  0.000000 )
               b(3) = (  0.000000  0.000000  0.039752 )

     PseudoPot. # 1 for Ti read from file:
     /storage/coda1/p-amedford6/0/shared/rich_project_chbe-medford/medford-share/data/pseudos_module/espresso/nninc/pbe/van/Ti.UPF
     MD5 check sum: 8e4df49b7f0d34bbd5052bf3f5ea0213
     Pseudo is Ultrasoft, Zval = 12.0
     Generated by new atomic code, or converted to UPF format
     Using radial grid of  851 points,  6 beta functions with:
                l(1) =   0
                l(2) =   0
                l(3) =   1
                l(4) =   1
                l(5) =   2
                l(6) =   2
     Q(r) pseudized with  8 coefficients,  rinner =    1.000   1.000   1.000
                                                       1.000   1.000

     PseudoPot. # 2 for O  read from file:
     /storage/coda1/p-amedford6/0/shared/rich_project_chbe-medford/medford-share/data/pseudos_module/espresso/nninc/pbe/van/O.UPF
     MD5 check sum: 78c19812648e8988a0fe644b0f25305e
     Pseudo is Ultrasoft, Zval =  6.0
     Generated by new atomic code, or converted to UPF format
     Using radial grid of  737 points,  4 beta functions with:
                l(1) =   0
                l(2) =   0
                l(3) =   1
                l(4) =   1
     Q(r) pseudized with  8 coefficients,  rinner =    0.800   0.800   0.800

     PseudoPot. # 3 for N  read from file:
     /storage/coda1/p-amedford6/0/shared/rich_project_chbe-medford/medford-share/data/pseudos_module/espresso/nninc/pbe/van/N.UPF
     MD5 check sum: 90d10febe142ad51ac9d5be1deb811c4
     Pseudo is Ultrasoft, Zval =  5.0
     Generated by new atomic code, or converted to UPF format
     Using radial grid of  729 points,  4 beta functions with:
                l(1) =   0
                l(2) =   0
                l(3) =   1
                l(4) =   1
     Q(r) pseudized with  8 coefficients,  rinner =    0.800   0.800   0.800

     PseudoPot. # 4 for C  read from file:
     /storage/coda1/p-amedford6/0/shared/rich_project_chbe-medford/medford-share/data/pseudos_module/espresso/nninc/pbe/van/C.UPF
     MD5 check sum: 1a69bf6b8db32088f5b2163dbdb77a27
     Pseudo is Ultrasoft, Zval =  4.0
     Generated by new atomic code, or converted to UPF format
     Using radial grid of  721 points,  4 beta functions with:
                l(1) =   0
                l(2) =   0
                l(3) =   1
                l(4) =   1
     Q(r) pseudized with  8 coefficients,  rinner =    0.800   0.800   0.800

     PseudoPot. # 5 for H  read from file:
     /storage/coda1/p-amedford6/0/shared/rich_project_chbe-medford/medford-share/data/pseudos_module/espresso/nninc/pbe/van/H.UPF
     MD5 check sum: b5ee9d7bfd3a09ee7748110bda690ff7
     Pseudo is Ultrasoft, Zval =  1.0
     Generated by new atomic code, or converted to UPF format
     Using radial grid of  615 points,  1 beta functions with:
                l(1) =   0
     Q(r) pseudized with  8 coefficients,  rinner =    0.800

     atomic species   valence    mass     pseudopotential
        Ti1           12.00    47.86700     Ti( 1.00)
        O1             6.00    15.99900     O ( 1.00)
        N1             5.00    14.00700     N ( 1.00)
        C1             4.00    12.01100     C ( 1.00)
        H1             1.00     1.00800     H ( 1.00)

     Starting magnetic structure
     atomic species   magnetization
        Ti1          0.000
        O1           0.000
        N1           0.000
        C1           0.025
        H1           0.000

     No symmetry found

   Cartesian axes

     site n.     atom                  positions (alat units)
         1           Ti1 tau(   1) = (   0.0004258   2.9801865   6.0000000  )
         2           Ti1 tau(   2) = (   3.2906075   1.4906267   6.0002472  )
         3           O1  tau(   3) = (   0.0006271   0.0005054   7.9858123  )
         4           O1  tau(   4) = (   3.2906025   0.0005020   7.3038282  )
         5           O1  tau(   5) = (   4.5942328   1.4918067   9.2879030  )
         6           O1  tau(   6) = (   1.9868534   1.4903216   9.2879459  )
         7           Ti1 tau(   7) = (   3.2907910   2.8959150   9.1758416  )
         8           Ti1 tau(   8) = (   0.0015273   1.4827037   9.2680791  )
         9           O1  tau(   9) = (   3.3019049   5.9598586  11.2958584  )
        10           O1  tau(  10) = (   0.0116148   5.9584955  10.6183126  )
        11           O1  tau(  11) = (   1.3346742   1.4914638  12.6145280  )
        12           O1  tau(  12) = (   5.3113054   1.4894223  12.6320738  )
        13           Ti1 tau(  13) = (   6.4919192   2.9607050  12.7581921  )
        14           Ti1 tau(  14) = (   3.1808934   1.4809541  12.4628303  )
        15           O1  tau(  15) = (   0.0259758   5.9327586  14.5948705  )
        16           O1  tau(  16) = (   3.3179433   0.0111293  13.8771559  )
        17           O1  tau(  17) = (   4.5450242   1.5254396  16.0425357  )
        18           O1  tau(  18) = (   2.0945915   1.5254857  16.0466093  )
        19           Ti1 tau(  19) = (   3.3175380   3.0118254  15.6854273  )
        20           Ti1 tau(  20) = (   0.0287691   1.6153805  16.0968480  )
        21           O1  tau(  21) = (   3.2904802   0.0005063   4.7018136  )
        22           O1  tau(  22) = (   0.0272082   0.0527987  17.2096484  )
        23           O1  tau(  23) = (   1.3043587   1.4918075   6.0039043  )
        24           O1  tau(  24) = (   5.2767064   1.4903225   6.0039473  )
        25           Ti1 tau(  25) = (   0.0000382   5.9609847   6.0000000  )
        26           Ti1 tau(  26) = (   3.2902200   4.4714249   6.0002472  )
        27           O1  tau(  27) = (   0.0002396   2.9813036   7.9858123  )
        28           O1  tau(  28) = (   3.2902150   2.9813002   7.3038282  )
        29           O1  tau(  29) = (   4.5938453   4.4726049   9.2879030  )
        30           O1  tau(  30) = (   1.9864658   4.4711199   9.2879459  )
        31           Ti1 tau(  31) = (   3.2891106   5.8743827   9.1763621  )
        32           Ti1 tau(  32) = (   0.0006254   4.4649316   9.2693709  )
        33           O1  tau(  33) = (   3.3007599   2.9794320  11.2948048  )
        34           O1  tau(  34) = (   0.0092240   2.9805883  10.6323155  )
        35           O1  tau(  35) = (   1.3367187   4.4652043  12.6121808  )
        36           O1  tau(  36) = (   5.3110114   4.4536366  12.6300246  )
        37           Ti1 tau(  37) = (   6.5175235   5.9394146  12.7678677  )
        38           Ti1 tau(  38) = (   3.1810223   4.4618757  12.4682998  )
        39           O1  tau(  39) = (   0.0141956   2.9656780  14.6533049  )
        40           O1  tau(  40) = (   3.3125561   2.9946134  13.8784269  )
        41           O1  tau(  41) = (   4.5469694   4.5079638  16.0550352  )
        42           O1  tau(  42) = (   2.0896055   4.5089645  16.0567747  )
        43           Ti1 tau(  43) = (   3.3249511   0.0336637  15.6879192  )
        44           Ti1 tau(  44) = (   0.0309337   4.5948497  16.1324869  )
        45           O1  tau(  45) = (   3.2900926   2.9813045   4.7018136  )
        46           O1  tau(  46) = (   1.3039711   4.4726057   6.0039043  )
        47           O1  tau(  47) = (   5.2763189   4.4711207   6.0039473  )
        48           N1  tau(  48) = (   0.0610883   3.0100077  17.3315927  )
        49           C1  tau(  49) = (   0.2149723   3.0659314  18.7643681  )
        50           H1  tau(  50) = (   6.1109748   3.7957518  19.2115106  )
        51           H1  tau(  51) = (   0.0391147   2.0919789  19.2277120  )
        52           H1  tau(  52) = (   1.2341903   3.3897193  19.0223879  )
        53           N1  tau(  53) = (   4.7717085   1.8344328  21.5424420  )
        54           H1  tau(  54) = (   4.4711387   2.7986659  21.4441960  )
        55           H1  tau(  55) = (   4.1840297   1.2822813  20.9257432  )
        56           H1  tau(  56) = (   4.5427024   1.5537098  22.4892962  )

     number of k points=    10  Fermi-Dirac smearing, width (Ry)=  0.0073
                       cart. coord. in units 2pi/alat
        k(    1) = (   0.0000000   0.0000000   0.0000000), wk =   0.0625000
        k(    2) = (   0.0000000   0.0419351   0.0000000), wk =   0.1250000
        k(    3) = (   0.0000000  -0.0838702   0.0000000), wk =   0.0625000
        k(    4) = (   0.0379955   0.0000049   0.0000000), wk =   0.1250000
        k(    5) = (   0.0379955   0.0419400   0.0000000), wk =   0.1250000
[...]
     % You are using vdW-DF, which was implemented by the Thonhauser group. %
     % Please cite the following two papers that made this development      %
     % possible and the two reviews that describe the various versions:     %
     %                                                                      %
     %   T. Thonhauser et al., PRL 115, 136402 (2015).                      %
     %   T. Thonhauser et al., PRB 76, 125112 (2007).                       %
     %   K. Berland et al., Rep. Prog. Phys. 78, 066501 (2015).             %
     %   D.C. Langreth et al., J. Phys.: Condens. Matter 21, 084203 (2009). %
     %                                                                      %
     %                                                                      %
     % If you are calculating the stress with vdW-DF, please also cite:     %
     %                                                                      %
     %   R. Sabatini et al., J. Phys.: Condens. Matter 24, 424209 (2012).   %
     %                                                                      %
     %%%%%%%%%%%%%%%%%%%%%%%%%%%%%%%%%%%%%%%%%%%%%%%%%%%%%%%%%%%%%%%%%%%%%%%%

     Adding external electric field

     Computed dipole along edir(3) :
        Dipole              -11.2917 Ry au,        -28.7007 Debye
        Dipole field         -0.0213 Ry au,

        Potential amp.        1.9753 Ry
        Total length         46.3494 bohr

[...]

     Starting wfcs are  302 atomic wfcs
  @ DRIVER MODE: Message from server: STATUS
  @ DRIVER MODE: Message from server: POSDATA
  @ DRIVER MODE: Reading and sharing cell
  @ DRIVER MODE: Reading and sharing positions
  @ DRIVER MODE: Received positions

     Self-consistent Calculation

     iteration #  1     ecut=    29.40 Ry     beta= 0.05
     Davidson diagonalization with overlap
     c_bands:  1 eigenvalues not converged
     c_bands:  1 eigenvalues not converged
     c_bands:  2 eigenvalues not converged
     c_bands:  1 eigenvalues not converged
     c_bands:  1 eigenvalues not converged
     c_bands:  1 eigenvalues not converged
     c_bands:  2 eigenvalues not converged
     c_bands:  2 eigenvalues not converged
     c_bands:  1 eigenvalues not converged
     c_bands:  1 eigenvalues not converged
     c_bands:  2 eigenvalues not converged
     c_bands:  1 eigenvalues not converged
     c_bands:  1 eigenvalues not converged
     c_bands:  1 eigenvalues not converged
     c_bands:  2 eigenvalues not converged
     c_bands:  2 eigenvalues not converged
     ethr =  1.00E-05,  avg # of iterations = 19.6

[...]

     total energy              =   -2520.83146013 Ry
     estimated scf accuracy    <    4704.34844842 Ry

     total magnetization       =     0.00 Bohr mag/cell
     absolute magnetization    =     0.01 Bohr mag/cell

     iteration #  2     ecut=    29.40 Ry     beta= 0.05
     Davidson diagonalization with overlap
     ethr =  1.00E-02,  avg # of iterations = 21.9

[...]

     iteration # 38     ecut=    29.40 Ry     beta= 0.05
     Davidson diagonalization with overlap
     c_bands:  1 eigenvalues not converged
     ethr =  1.18E-07,  avg # of iterations =  9.2

[...]

     total energy              =   -2942.90774812 Ry
     estimated scf accuracy    <       0.00000009 Ry

[...]

     iteration # 61     ecut=    29.40 Ry     beta= 0.05
     Davidson diagonalization with overlap
     ethr =  2.12E-11,  avg # of iterations =  5.2

     negative rho (up, down):  5.678E-03 5.678E-03

[...]

     Adding external electric field

     Computed dipole along edir(3) :
        Dipole                0.4199 Ry au,          1.0674 Debye
        Dipole field          0.0008 Ry au,

        Potential amp.       -0.0735 Ry
        Total length         46.3494 bohr

     Magnetic moment per site  (integrated on atomic sphere of radius R)
     atom   1 (R=0.735)  charge=  8.0053  magn= -0.0003
     atom   2 (R=0.735)  charge=  8.0011  magn= -0.0001
     atom   3 (R=0.735)  charge=  4.9958  magn=  0.0000
     atom   4 (R=0.735)  charge=  5.0345  magn=  0.0000
     atom   5 (R=0.735)  charge=  4.9982  magn=  0.0000
     atom   6 (R=0.735)  charge=  4.9994  magn=  0.0000
     atom   7 (R=0.735)  charge=  7.9947  magn= -0.0000
     atom   8 (R=0.735)  charge=  7.9823  magn= -0.0000
     atom   9 (R=0.735)  charge=  5.0128  magn=  0.0000
     atom  10 (R=0.735)  charge=  4.9434  magn=  0.0000
     atom  11 (R=0.735)  charge=  4.9999  magn= -0.0000
     atom  12 (R=0.735)  charge=  5.0035  magn= -0.0000
     atom  13 (R=0.735)  charge=  7.9933  magn=  0.0000
     atom  14 (R=0.735)  charge=  8.0007  magn=  0.0000
     atom  15 (R=0.735)  charge=  4.9894  magn= -0.0000
     atom  16 (R=0.735)  charge=  5.0146  magn= -0.0000
     atom  17 (R=0.735)  charge=  4.9901  magn= -0.0000
     atom  18 (R=0.735)  charge=  4.9888  magn= -0.0000
     atom  19 (R=0.735)  charge=  8.0209  magn=  0.0000
     atom  20 (R=0.735)  charge=  8.0242  magn=  0.0000
     atom  21 (R=0.735)  charge=  4.8827  magn=  0.0002
     atom  22 (R=0.735)  charge=  4.9720  magn= -0.0000
     atom  23 (R=0.735)  charge=  4.9884  magn=  0.0001
     atom  24 (R=0.735)  charge=  4.9885  magn=  0.0001
     atom  25 (R=0.735)  charge=  8.0054  magn= -0.0003
     atom  26 (R=0.735)  charge=  8.0011  magn= -0.0001
     atom  27 (R=0.735)  charge=  4.9957  magn=  0.0001
     atom  28 (R=0.735)  charge=  5.0347  magn=  0.0000
     atom  29 (R=0.735)  charge=  4.9989  magn=  0.0000
     atom  30 (R=0.735)  charge=  5.0001  magn=  0.0000
     atom  31 (R=0.735)  charge=  7.9948  magn= -0.0000
     atom  32 (R=0.735)  charge=  7.9826  magn= -0.0000
     atom  33 (R=0.735)  charge=  5.0125  magn= -0.0000
     atom  34 (R=0.735)  charge=  4.9424  magn=  0.0000
     atom  35 (R=0.735)  charge=  5.0006  magn= -0.0000
     atom  36 (R=0.735)  charge=  5.0043  magn= -0.0000
     atom  37 (R=0.735)  charge=  7.9990  magn=  0.0000
     atom  38 (R=0.735)  charge=  8.0004  magn=  0.0000
     atom  39 (R=0.735)  charge=  4.9853  magn= -0.0000
     atom  40 (R=0.735)  charge=  5.0160  magn= -0.0000
     atom  41 (R=0.735)  charge=  4.9884  magn= -0.0000
     atom  42 (R=0.735)  charge=  4.9878  magn= -0.0000
     atom  43 (R=0.735)  charge=  8.0214  magn=  0.0000
     atom  44 (R=0.735)  charge=  8.0216  magn=  0.0000
     atom  45 (R=0.735)  charge=  4.8827  magn=  0.0002
     atom  46 (R=0.735)  charge=  4.9884  magn=  0.0002
     atom  47 (R=0.735)  charge=  4.9885  magn=  0.0002
     atom  48 (R=0.418)  charge=  1.3140  magn= -0.0001
     atom  49 (R=0.451)  charge=  0.8536  magn=  0.0000
     atom  50 (R=0.418)  charge=  0.4371  magn= -0.0000
     atom  51 (R=0.418)  charge=  0.4391  magn= -0.0000
     atom  52 (R=0.418)  charge=  0.4340  magn= -0.0000
     atom  53 (R=0.418)  charge=  1.3298  magn= -0.0000
     atom  54 (R=0.418)  charge=  0.4522  magn=  0.0000
     atom  55 (R=0.418)  charge=  0.4511  magn=  0.0000
     atom  56 (R=0.418)  charge=  0.4537  magn=  0.0000

     End of self-consistent calculation

 ------ SPIN UP ------------

          k = 0.0000 0.0000 0.0000 ( 18029 PWs)   bands (ev):

   -56.6283 -56.5947 -55.7542 -55.7421 -55.7193 -55.7092 -55.6097 -55.5743
   -55.3921 -55.3563 -55.2943 -55.2905 -55.2603 -55.1928 -54.7279 -54.6160
   -33.0563 -32.9029 -32.8748 -32.8040 -32.7129 -32.6823 -32.2248 -32.2187
   -32.1523 -32.0381 -31.9920 -31.9678 -31.9492 -31.9281 -31.8944 -31.8899
   -31.8895 -31.8832 -31.8575 -31.8559 -31.8435 -31.8171 -31.7923 -31.7773
   -31.7644 -31.7459 -31.7365 -31.7118 -31.6865 -31.6325 -31.6228 -31.6084
   -31.5333 -31.5303 -31.5051 -31.4663 -31.4581 -31.4216 -31.4207 -31.3965
   -31.3739 -31.3107 -31.2337 -30.9736 -30.9580 -30.8751 -30.8377 -30.7479
   -16.7942 -16.3626 -16.1322 -15.9922 -15.9267 -15.8703 -15.8275 -15.7032
   -15.6344 -15.6259 -15.5841 -15.5572 -15.4853 -15.3453 -15.2468 -15.1947
   -15.1503 -15.0298 -14.9681 -14.9370 -14.9261 -14.8838 -14.8737 -14.6797
   -14.6568 -14.5625 -14.5420 -14.4209 -14.1872 -13.7934 -13.7049 -13.6833
   -12.8100  -7.4968  -4.3592  -3.8583  -3.7718  -3.7469  -3.6202  -3.5334
    -3.4266  -3.4118  -3.3268  -3.2105  -3.1668  -3.1189  -3.0025  -3.0016
    -2.8529  -2.8102  -2.8049  -2.8034  -2.7555  -2.6954  -2.6689  -2.6402
    -2.6325  -2.6110  -2.4758  -2.3782  -2.3074  -2.2838  -2.2781  -2.2418
    -2.1672  -2.1377  -2.1284  -2.1247  -2.0184  -1.8718  -1.8663  -1.8434
    -1.8015  -1.7950  -1.7542  -1.7407  -1.6236  -1.5318  -1.4298  -1.4130
    -1.3691  -1.3122  -1.3043  -1.2154  -1.1367  -1.0468  -1.0444  -0.9347
    -0.8885  -0.8711  -0.7816  -0.7208  -0.6816  -0.6562  -0.6430  -0.5434
    -0.5196  -0.5095  -0.4263  -0.4153  -0.3651  -0.2760  -0.2535  -0.2447
    -0.1622  -0.1596  -0.0648  -0.0224   0.0171   0.0524   0.1682   0.1855
     0.2842   0.3128   0.3405   0.4530   0.4692   0.5345   0.6086   0.6719
     0.6998   0.7268   0.7555   0.7751   0.8489   0.9612   0.9709   1.0719
     1.1047   1.2793   1.3183   1.3890   1.6032   1.6352   2.3085   2.6461
     2.8055   3.1040   3.2906   3.4036   3.6203   3.6365   3.6415   3.8086
     3.8622

[...]

          k =-0.0760-0.0000 0.0000 ( 17886 PWs)   bands (ev):

[...]

 ------ SPIN DOWN ----------

[...]

          k = 0.0380-0.0419 0.0000 ( 17876 PWs)   bands (ev):

[...]

          k =-0.0760-0.0839 0.0000 ( 17948 PWs)   bands (ev):

   -56.6126 -56.6123 -55.7391 -55.7333 -55.7264 -55.7259 -55.5922 -55.5915
   -55.3782 -55.3698 -55.2873 -55.2777 -55.2776 -55.1958 -54.7248 -54.6187
   -32.8898 -32.8896 -32.8740 -32.8738 -32.7581 -32.7578 -32.0547 -32.0524
   -32.0433 -32.0367 -31.9837 -31.9827 -31.9403 -31.9400 -31.9373 -31.9362
   -31.9285 -31.9256 -31.9234 -31.9218 -31.8447 -31.8427 -31.7937 -31.7908
   -31.7290 -31.7187 -31.6598 -31.6519 -31.6219 -31.6218 -31.6164 -31.5766
   -31.5724 -31.5447 -31.5105 -31.5030 -31.5030 -31.4640 -31.4639 -31.4615
   -31.4381 -31.3986 -31.1137 -30.9932 -30.9575 -30.9269 -30.8400 -30.8030
   -16.1426 -16.1405 -16.1075 -16.1073 -15.8390 -15.8354 -15.7936 -15.7911
   -15.6176 -15.6114 -15.4044 -15.3958 -15.3893 -15.3878 -15.2599 -15.2540
   -15.1892 -15.1788 -15.0899 -15.0807 -15.0240 -15.0175 -14.9751 -14.9542
   -14.6439 -14.6344 -14.5135 -14.4963 -14.3311 -13.7861 -13.7861 -13.7042
   -12.8265  -7.4869  -3.7791  -3.7552  -3.2417  -3.2413  -3.1777  -3.1766
    -3.0561  -3.0520  -2.9721  -2.9714  -2.8743  -2.8730  -2.7622  -2.7303
    -2.7271  -2.7263  -2.7102  -2.6654  -2.5737  -2.5721  -2.5605  -2.5456
    -2.4868  -2.4848  -2.4657  -2.3983  -2.3843  -2.3527  -2.3149  -2.2008
    -2.1904  -2.1793  -2.1467  -2.0849  -2.0751  -2.0629  -2.0205  -1.9881
    -1.9125  -1.8413  -1.8011  -1.6870  -1.6822  -1.6707  -1.6592  -1.5049
    -1.4645  -1.4344  -1.4265  -1.4210  -1.3739  -1.2776  -1.2703  -1.1387
    -1.1369  -1.0637  -0.9816  -0.9598  -0.9325  -0.8033  -0.7594  -0.7247
    -0.7170  -0.6894  -0.6694  -0.6476  -0.6042  -0.4684  -0.4564  -0.4175
    -0.3833  -0.3609  -0.3279  -0.2689  -0.1827  -0.1037  -0.1035  -0.0495
     0.0188   0.0798   0.1672   0.1775   0.1826   0.4635   0.5426   0.6316
     0.7071   0.7729   0.8369   0.8677   0.9230   0.9676   1.1053   1.1086
     1.1283   1.1287   1.1868   1.1906   1.3717   1.6408   2.1981   3.2179
     3.2182   3.2849   3.2853   3.6091   3.6149   3.7231   3.7323   3.8387
     3.8436

     the Fermi energy is     2.4864 ev

!    total energy              =   -2942.90779523 Ry
     estimated scf accuracy    <       0.00000005 Ry
     smearing contrib. (-TS)   =      -0.00489341 Ry
     internal energy E=F+TS    =   -2942.90290181 Ry

     The total energy is F=E-TS. E is the sum of the following terms:
     one-electron contribution =  -23242.40765746 Ry
     hartree contribution      =   11711.40852209 Ry
     xc contribution           =    -487.47296411 Ry
     ewald contribution        =    9075.56886488 Ry
     electric field correction =       0.00033279 Ry

     total magnetization       =    -0.00 Bohr mag/cell
     absolute magnetization    =     0.00 Bohr mag/cell

     convergence has been achieved in  61 iterations

     Forces acting on atoms (cartesian axes, Ry/au):

     atom    1 type  1   force =     0.00003744   -0.00041325    0.12406275
     atom    2 type  1   force =    -0.00009808   -0.00057236   -0.16065815
     atom    3 type  2   force =     0.00023360   -0.00026872   -0.06793980
     atom    4 type  2   force =     0.00001314   -0.00029363    0.02761221
     atom    5 type  2   force =    -0.01616705    0.00175625   -0.00936256
     atom    6 type  2   force =     0.01819733    0.00219408   -0.00898493
     atom    7 type  1   force =     0.00115414   -0.00377634    0.02164772
     atom    8 type  1   force =    -0.00058067   -0.00291377    0.11102043
     atom    9 type  2   force =    -0.00018184    0.00030529   -0.00041869
     atom   10 type  2   force =    -0.00196098    0.00129272   -0.07318824
     atom   11 type  2   force =     0.00020820   -0.00010574    0.00018271
     atom   12 type  2   force =    -0.00023494    0.00021238    0.00022596
     atom   13 type  1   force =    -0.00008654    0.00008300   -0.00048733
     atom   14 type  1   force =    -0.00060138    0.00045162    0.00039387
     atom   15 type  2   force =     0.00040189    0.00001520    0.00025487
     atom   16 type  2   force =    -0.00046802   -0.00036970    0.00060534
     atom   17 type  2   force =    -0.00021105    0.00049701    0.00041357
     atom   18 type  2   force =     0.00051639   -0.00002848   -0.00024991
     atom   19 type  1   force =     0.00009101   -0.00056032   -0.00002263
     atom   20 type  1   force =     0.00049443    0.00017159    0.00016726
     atom   21 type  2   force =     0.00005036   -0.00001104    0.09971454
     atom   22 type  2   force =     0.00011621   -0.00004222   -0.00040086
     atom   23 type  2   force =    -0.07914736    0.00000075   -0.03242936
     atom   24 type  2   force =     0.07902959    0.00043933   -0.03244925
     atom   25 type  1   force =     0.00001560   -0.00041793    0.12358758
     atom   26 type  1   force =    -0.00009484   -0.00045705   -0.16079174
     atom   27 type  2   force =     0.00032921   -0.00048408   -0.06699165
     atom   28 type  2   force =     0.00002792   -0.00012299    0.02733671
     atom   29 type  2   force =    -0.01664228    0.00127885   -0.00946929
     atom   30 type  2   force =     0.01857068    0.00165662   -0.00910420
     atom   31 type  1   force =     0.00116274   -0.00138060    0.02107340
     atom   32 type  1   force =    -0.00053934    0.00034559    0.11165727
     atom   33 type  2   force =    -0.00016291   -0.00024900    0.00010484
     atom   34 type  2   force =    -0.00132919    0.00066900   -0.07264186
     atom   35 type  2   force =    -0.00080446   -0.00042896   -0.00000809
     atom   36 type  2   force =     0.00013139   -0.00001582    0.00012882
     atom   37 type  1   force =     0.00006876    0.00063859    0.00016319
     atom   38 type  1   force =    -0.00021504    0.00003214   -0.00019982
     atom   39 type  2   force =     0.00007978   -0.00018924    0.00100419
     atom   40 type  2   force =    -0.00017809   -0.00046570    0.00036875
     atom   41 type  2   force =     0.00047864   -0.00031757    0.00034149
     atom   42 type  2   force =     0.00086058    0.00026450   -0.00026815
     atom   43 type  1   force =    -0.00053596   -0.00011222    0.00004479
     atom   44 type  1   force =    -0.00001643    0.00047096    0.00005243
     atom   45 type  2   force =     0.00002491   -0.00003344    0.09973997
     atom   46 type  2   force =    -0.07915154    0.00005425   -0.03242817
     atom   47 type  2   force =     0.07903156    0.00047531   -0.03244484
     atom   48 type  3   force =    -0.00264134    0.00066464   -0.00235627
     atom   49 type  4   force =     0.00206135   -0.00053880    0.00059804
     atom   50 type  5   force =    -0.00030629    0.00086149    0.00018177
     atom   51 type  5   force =     0.00016062    0.00044165   -0.00022030
     atom   52 type  5   force =    -0.00028990   -0.00022830    0.00110735
     atom   53 type  3   force =     0.00003495   -0.00086039   -0.00011746
     atom   54 type  5   force =    -0.00003026    0.00019471   -0.00054854
     atom   55 type  5   force =     0.00015407    0.00032844   -0.00082451
     atom   56 type  5   force =    -0.00106072   -0.00013834    0.00121476

     Total force =     0.424314     Total SCF correction =     0.000530
  @ DRIVER MODE: Message from server: STATUS
  @ DRIVER MODE: Message from server: GETFORCE
  @ DRIVER MODE: Returning v,forces,stress,ensemble

     Writing output data file ./calc.save/
  @ DRIVER MODE: Message from server: EXIT
  @ DRIVE MODE: Exiting

     General routines

     Parallel routines

   This run was terminated on:  17:57: 3  15Jul2021

   JOB DONE.