     Program PWSCF v.6.7GPU starts on 16Sep2021 at  0:24: 5

     R & G space division:  proc/nbgrp/npool/nimage =      10
     Reading input from /storage/home/hcoda1/3/ntian30/research/carbon/CxH_vib/H2O_calc/ads_slab/CH2N2HH2O_a/out_0027/pw.inp
Warning: card &CELL ignored
Warning: card   CELL_DYNAMICS='IPI', ignored
Warning: card / ignored

     Current dimensions of program PWSCF are:
     Max number of different atomic species (ntypx) = 10
     Max number of k-points (npk) =  40000
     Max angular momentum in pseudopotentials (lmaxx) =  3
     Presently no symmetry can be used with electric field

     Message from routine cell_base_init:
     DEPRECATED: use true lattice parameter, not A to a.u. conversion factor

     IMPORTANT: XC functional enforced from input :
     Exchange-correlation= BEEF-VDW
                           (   1   4  43  14   2   0   0)
     Any further DFT definition will be discarded
     Please, verify this is what you really want

  @ DRIVER MODE: Connecting to
 qe_1139763_2852606.sched-torque.pace.gatech.edu74ce_crj_scratch
  using UNIX socket
  @ DRIVER MODE: Message from server: STATUS
  @ DRIVER MODE: Message from server: INIT
  @ DRIVER MODE: Receiving replica           0          -1
  @ DRIVER MODE: Receiving encoded integer          25
  @ DRIVER MODE:  SCF:  T  FORCE:  T  STRESS:  F  VC:  F  ENSEMBLE:  F
  @ DRIVER MODE:  SCF:  T  FORCE:  T  STRESS:  F  VC:  F  ENSEMBLE:  F

     Using Slab Decomposition

     bravais-lattice index     =            0
     lattice parameter (alat)  =       1.8897  a.u.
     unit-cell volume          =    6658.9804 (a.u.)^3
     number of atoms/cell      =           56
     number of atomic types    =            5
     number of electrons       =       403.00
     number of Kohn-Sham states=          211
     kinetic-energy cutoff     =      29.3995  Ry
     charge density cutoff     =     293.9946  Ry
     scf convergence threshold =      7.3E-08
     mixing beta               =       0.0500
     number of iterations used =            8  plain     mixing
     Exchange-correlation= BEEF-VDW
                           (   1   4  43  14   2   0   0)

     celldm(1)=   1.889726  celldm(2)=   0.000000  celldm(3)=   0.000000
     celldm(4)=   0.000000  celldm(5)=   0.000000  celldm(6)=   0.000000

     crystal axes: (cart. coord. in units of alat)
               a(1) = (   6.579727   0.000000   0.000000 )
               a(2) = (  -0.000775   5.961596   0.000000 )
               a(3) = (   0.000000   0.000000  25.155947 )

     reciprocal axes: (cart. coord. in units 2 pi/alat)
               b(1) = (  0.151982  0.000020  0.000000 )
               b(2) = (  0.000000  0.167740  0.000000 )
               b(3) = (  0.000000  0.000000  0.039752 )

     PseudoPot. # 1 for Ti read from file:
     /storage/coda1/p-amedford6/0/shared/rich_project_chbe-medford/medford-share/data/pseudos_module/espresso/nninc/pbe/van/Ti.UPF
     MD5 check sum: 8e4df49b7f0d34bbd5052bf3f5ea0213
     Pseudo is Ultrasoft, Zval = 12.0
     Generated by new atomic code, or converted to UPF format
     Using radial grid of  851 points,  6 beta functions with:
                l(1) =   0
                l(2) =   0
                l(3) =   1
                l(4) =   1
                l(5) =   2
                l(6) =   2
     Q(r) pseudized with  8 coefficients,  rinner =    1.000   1.000   1.000
                                                       1.000   1.000

     PseudoPot. # 2 for O  read from file:
     /storage/coda1/p-amedford6/0/shared/rich_project_chbe-medford/medford-share/data/pseudos_module/espresso/nninc/pbe/van/O.UPF
     MD5 check sum: 78c19812648e8988a0fe644b0f25305e
     Pseudo is Ultrasoft, Zval =  6.0
     Generated by new atomic code, or converted to UPF format
     Using radial grid of  737 points,  4 beta functions with:
                l(1) =   0
                l(2) =   0
                l(3) =   1
                l(4) =   1
     Q(r) pseudized with  8 coefficients,  rinner =    0.800   0.800   0.800

     PseudoPot. # 3 for N  read from file:
     /storage/coda1/p-amedford6/0/shared/rich_project_chbe-medford/medford-share/data/pseudos_module/espresso/nninc/pbe/van/N.UPF
     MD5 check sum: 90d10febe142ad51ac9d5be1deb811c4
     Pseudo is Ultrasoft, Zval =  5.0
     Generated by new atomic code, or converted to UPF format
     Using radial grid of  729 points,  4 beta functions with:
                l(1) =   0
                l(2) =   0
                l(3) =   1
                l(4) =   1
     Q(r) pseudized with  8 coefficients,  rinner =    0.800   0.800   0.800

     PseudoPot. # 4 for C  read from file:
     /storage/coda1/p-amedford6/0/shared/rich_project_chbe-medford/medford-share/data/pseudos_module/espresso/nninc/pbe/van/C.UPF
     MD5 check sum: 1a69bf6b8db32088f5b2163dbdb77a27
     Pseudo is Ultrasoft, Zval =  4.0
     Generated by new atomic code, or converted to UPF format
     Using radial grid of  721 points,  4 beta functions with:
                l(1) =   0
                l(2) =   0
                l(3) =   1
                l(4) =   1
     Q(r) pseudized with  8 coefficients,  rinner =    0.800   0.800   0.800

     PseudoPot. # 5 for H  read from file:
     /storage/coda1/p-amedford6/0/shared/rich_project_chbe-medford/medford-share/data/pseudos_module/espresso/nninc/pbe/van/H.UPF
     MD5 check sum: b5ee9d7bfd3a09ee7748110bda690ff7
     Pseudo is Ultrasoft, Zval =  1.0
     Generated by new atomic code, or converted to UPF format
     Using radial grid of  615 points,  1 beta functions with:
                l(1) =   0
     Q(r) pseudized with  8 coefficients,  rinner =    0.800

     atomic species   valence    mass     pseudopotential
        Ti1           12.00    47.86700     Ti( 1.00)
        O1             6.00    15.99900     O ( 1.00)
        N1             5.00    14.00700     N ( 1.00)
        C1             4.00    12.01100     C ( 1.00)
        H1             1.00     1.00800     H ( 1.00)

     No symmetry found

   Cartesian axes

     site n.     atom                  positions (alat units)
         1           Ti1 tau(   1) = (   0.0004258   2.9801865   6.0000000  )
         2           Ti1 tau(   2) = (   3.2906075   1.4906267   6.0002472  )
         3           O1  tau(   3) = (   0.0006271   0.0005054   7.9858123  )
         4           O1  tau(   4) = (   3.2906025   0.0005020   7.3038282  )
         5           O1  tau(   5) = (   4.5942328   1.4918067   9.2879030  )
         6           O1  tau(   6) = (   1.9868534   1.4903216   9.2879459  )
         7           Ti1 tau(   7) = (   3.2907910   2.8959150   9.1758416  )
         8           Ti1 tau(   8) = (   0.0015273   1.4827037   9.2680791  )
         9           O1  tau(   9) = (   3.2932810   5.9556063  11.3276769  )
        10           O1  tau(  10) = (   0.0116148   5.9584955  10.6183126  )
        11           O1  tau(  11) = (   1.2966828   1.5020869  12.6141357  )
        12           O1  tau(  12) = (   5.2995835   1.4923495  12.6341875  )
        13           Ti1 tau(  13) = (   6.5470072   2.9473109  12.5798724  )
        14           Ti1 tau(  14) = (   3.2302912   1.4573256  12.5082679  )
        15           O1  tau(  15) = (   0.0525813   0.0137714  14.6435187  )
        16           O1  tau(  16) = (   3.2708393   0.0302713  13.9228694  )
        17           O1  tau(  17) = (   4.5627544   1.5900677  16.0055000  )
        18           O1  tau(  18) = (   2.0437599   1.5040777  16.0764052  )
        19           Ti1 tau(  19) = (   3.3063064   2.9825517  15.6619520  )
        20           Ti1 tau(  20) = (   6.5607061   1.3194196  15.9785141  )
        21           O1  tau(  21) = (   3.2904802   0.0005063   4.7018136  )
        22           O1  tau(  22) = (   6.3855286   5.9589440  17.1610702  )
        23           O1  tau(  23) = (   1.3043587   1.4918075   6.0039043  )
        24           O1  tau(  24) = (   5.2767064   1.4903225   6.0039473  )
        25           Ti1 tau(  25) = (   0.0000382   5.9609847   6.0000000  )
        26           Ti1 tau(  26) = (   3.2902200   4.4714249   6.0002472  )
        27           O1  tau(  27) = (   0.0002396   2.9813036   7.9858123  )
        28           O1  tau(  28) = (   3.2902150   2.9813002   7.3038282  )
        29           O1  tau(  29) = (   4.5938453   4.4726049   9.2879030  )
        30           O1  tau(  30) = (   1.9864658   4.4711199   9.2879459  )
        31           Ti1 tau(  31) = (   3.2891106   5.8743827   9.1763621  )
        32           Ti1 tau(  32) = (   0.0006254   4.4649316   9.2693709  )
        33           O1  tau(  33) = (   3.2946552   2.9814125  11.3288906  )
        34           O1  tau(  34) = (   0.0092240   2.9805883  10.6323155  )
        35           O1  tau(  35) = (   1.2978438   4.4726441  12.6233041  )
        36           O1  tau(  36) = (   5.2969606   4.4732664  12.6435870  )
        37           Ti1 tau(  37) = (   6.5415350   5.9305516  12.5357152  )
        38           Ti1 tau(  38) = (   3.2303862   4.4559975  12.4807118  )
        39           O1  tau(  39) = (   0.0164246   2.9899045  14.7829194  )
        40           O1  tau(  40) = (   3.2688228   2.9752494  13.8698570  )
        41           O1  tau(  41) = (   4.5210259   4.4573316  15.9082071  )
        42           O1  tau(  42) = (   2.0412773   4.4882057  16.0214637  )
        43           Ti1 tau(  43) = (   3.2233344   5.9452837  15.7820064  )
        44           Ti1 tau(  44) = (   6.5355943   4.4735413  15.8975681  )
        45           O1  tau(  45) = (   3.2900926   2.9813045   4.7018136  )
        46           O1  tau(  46) = (   1.3039711   4.4726057   6.0039043  )
        47           O1  tau(  47) = (   5.2763189   4.4711207   6.0039473  )
        48           N1  tau(  48) = (   0.2167872   2.3688911  18.0161765  )
        49           C1  tau(  49) = (   0.4968348   1.8934616  19.1878903  )
        50           H1  tau(  50) = (   0.5617972   2.5522217  20.0513624  )
        51           H1  tau(  51) = (   0.6371857   0.8299532  19.2874115  )
        52           N1  tau(  52) = (   6.5661014   3.6286027  17.7750644  )
        53           H1  tau(  53) = (   0.0713089   4.2532688  18.5884219  )
        54           O1  tau(  54) = (   3.6608114   5.9026821  18.0962282  )
        55           H1  tau(  55) = (   4.6425638   0.0038819  18.0438526  )
        56           H1  tau(  56) = (   3.3558581   0.7595698  18.5153002  )

     number of k points=    10  Fermi-Dirac smearing, width (Ry)=  0.0073
                       cart. coord. in units 2pi/alat
        k(    1) = (   0.0000000   0.0000000   0.0000000), wk =   0.1250000
        k(    2) = (   0.0000000   0.0419351   0.0000000), wk =   0.2500000
        k(    3) = (   0.0000000  -0.0838702   0.0000000), wk =   0.1250000
        k(    4) = (   0.0379955   0.0000049   0.0000000), wk =   0.2500000
        k(    5) = (   0.0379955   0.0419400   0.0000000), wk =   0.2500000
        k(    6) = (   0.0379955  -0.0838652   0.0000000), wk =   0.2500000
        k(    7) = (   0.0379955  -0.0419301   0.0000000), wk =   0.2500000
        k(    8) = (  -0.0759910  -0.0000099   0.0000000), wk =   0.1250000
        k(    9) = (  -0.0759910   0.0419252   0.0000000), wk =   0.2500000
        k(   10) = (  -0.0759910  -0.0838800   0.0000000), wk =   0.1250000

     Initial potential from superposition of free atoms

     starting charge  386.99914, renormalised to  403.00000

     negative rho (up, down):  1.554E-02 0.000E+00

     %%%%%%%%%%%%%%%%%%%%%%%%%%%%%%%%%%%%%%%%%%%%%%%%%%%%%%%%%%%%%%%%%%%%%%%%
     %                                                                      %
     % You are using vdW-DF, which was implemented by the Thonhauser group. %
     % Please cite the following two papers that made this development      %
     % possible and the two reviews that describe the various versions:     %
     %                                                                      %
     %   T. Thonhauser et al., PRL 115, 136402 (2015).                      %
     %   T. Thonhauser et al., PRB 76, 125112 (2007).                       %
     %   K. Berland et al., Rep. Prog. Phys. 78, 066501 (2015).             %
     %   D.C. Langreth et al., J. Phys.: Condens. Matter 21, 084203 (2009). %
     %                                                                      %
     %                                                                      %
     % If you are calculating the stress with vdW-DF, please also cite:     %
     %                                                                      %
     %   R. Sabatini et al., J. Phys.: Condens. Matter 24, 424209 (2012).   %
     %                                                                      %
     %%%%%%%%%%%%%%%%%%%%%%%%%%%%%%%%%%%%%%%%%%%%%%%%%%%%%%%%%%%%%%%%%%%%%%%%

     Adding external electric field

     Computed dipole along edir(3) :
        Dipole              -12.7952 Ry au,        -32.5221 Debye
        Dipole field         -0.0241 Ry au,

        Potential amp.        2.2383 Ry
        Total length         46.3494 bohr

     Starting wfcs are  305 atomic wfcs
  @ DRIVER MODE: Message from server: STATUS
  @ DRIVER MODE: Message from server: POSDATA
  @ DRIVER MODE: Reading and sharing cell
  @ DRIVER MODE: Reading and sharing positions
  @ DRIVER MODE: Received positions

     Self-consistent Calculation

     iteration #  1     ecut=    29.40 Ry     beta= 0.05
     Davidson diagonalization with overlap
     c_bands:  3 eigenvalues not converged
     c_bands:  3 eigenvalues not converged
     c_bands:  3 eigenvalues not converged
     c_bands:  5 eigenvalues not converged
     c_bands:  1 eigenvalues not converged
     c_bands:  1 eigenvalues not converged
     c_bands:  4 eigenvalues not converged
     c_bands:  3 eigenvalues not converged
     ethr =  1.00E-05,  avg # of iterations = 27.5

[...]

     total energy              =   -2369.06303670 Ry
     estimated scf accuracy    <    6884.38902689 Ry

     iteration #  2     ecut=    29.40 Ry     beta= 0.05
     Davidson diagonalization with overlap
     ethr =  1.00E-02,  avg # of iterations = 23.7

[...]

     iteration # 64     ecut=    29.40 Ry     beta= 0.05
     Davidson diagonalization with overlap
     c_bands:  1 eigenvalues not converged
     c_bands:  1 eigenvalues not converged
     ethr =  8.40E-11,  avg # of iterations = 16.3

[...]

     total energy              =   -2973.98313553 Ry
     estimated scf accuracy    <       0.00000009 Ry

     iteration # 69     ecut=    29.40 Ry     beta= 0.05
     Davidson diagonalization with overlap
     ethr =  2.25E-11,  avg # of iterations =  9.2

     negative rho (up, down):  1.540E-02 0.000E+00

     Adding external electric field

     Computed dipole along edir(3) :
        Dipole                0.9135 Ry au,          2.3220 Debye
        Dipole field          0.0017 Ry au,

        Potential amp.       -0.1598 Ry
        Total length         46.3494 bohr

     End of self-consistent calculation

          k = 0.0000 0.0000 0.0000 ( 18029 PWs)   bands (ev):

   -55.6203 -55.5923 -55.5862 -55.5543 -55.5015 -55.4903 -55.4598 -55.4377
   -55.4037 -55.3994 -55.3654 -55.3425 -55.0487 -54.9989 -54.6000 -54.5659
   -32.1363 -32.1044 -31.9923 -31.9375 -31.9243 -31.9121 -31.8907 -31.8778
   -31.8647 -31.8238 -31.7728 -31.7688 -31.7403 -31.7399 -31.7362 -31.7263
   -31.7217 -31.7184 -31.7153 -31.7129 -31.6823 -31.6777 -31.6687 -31.6409
   -31.6316 -31.6307 -31.6234 -31.6203 -31.6050 -31.5968 -31.5796 -31.5664
   -31.5541 -31.5477 -31.5428 -31.5128 -31.5104 -31.3122 -31.2730 -31.2502
   -31.1966 -31.1545 -31.0068 -30.9189 -30.8965 -30.8239 -30.7374 -30.6260
   -18.6643 -18.0053 -16.3401 -16.0978 -15.8585 -15.7811 -15.7486 -15.5350
   -15.4321 -15.3764 -15.2411 -15.1922 -15.1786 -15.1585 -15.1335 -15.0996
   -15.0732 -15.0595 -15.0526 -15.0361 -15.0108 -14.9840 -14.9637 -14.9599
   -14.9187 -14.8499 -14.7806 -14.7550 -14.6932 -14.6810 -14.2406 -13.1010
   -12.9845 -12.0597  -7.8389  -6.4484  -5.3043  -4.5006  -3.7138  -3.5758
    -3.5282  -3.4792  -3.4698  -3.2807  -3.1948  -3.0678  -2.9055  -2.8685
    -2.7889  -2.7511  -2.7167  -2.6473  -2.6075  -2.5008  -2.4620  -2.4328
    -2.4175  -2.3727  -2.3672  -2.3641  -2.3034  -2.2654  -2.1864  -2.1601
    -2.0824  -2.0110  -1.9823  -1.9558  -1.9343  -1.9169  -1.9100  -1.8645
    -1.8636  -1.8616  -1.7896  -1.7373  -1.6682  -1.6225  -1.5656  -1.4218
    -1.3831  -1.2744  -1.2278  -1.1063  -1.1024  -1.0788  -1.0554  -1.0165
    -1.0078  -0.8850  -0.7998  -0.7511  -0.7146  -0.6522  -0.5471  -0.5255
    -0.4396  -0.4332  -0.3805  -0.3669  -0.3515  -0.3221  -0.2449  -0.1293
    -0.1120  -0.0522  -0.0033   0.0596   0.1032   0.1282   0.1679   0.2163
     0.2397   0.2810   0.3088   0.3182   0.3514   0.3898   0.4116   0.4898
     0.5634   0.6122   0.6611   0.7024   0.7073   0.8831   0.9958   1.0345
     1.1655   1.2088   1.3561   1.4238   1.4937   1.6155   1.9939   2.0395
     2.2311   3.4875   3.6011   3.6256   3.6355   3.7388   3.8717   3.9551
     3.9957   4.0203   4.0597

[...]

          k = 0.0380-0.0419 0.0000 ( 17876 PWs)   bands (ev):

[...]

          k =-0.0760-0.0000 0.0000 ( 17886 PWs)   bands (ev):

[...]

          k =-0.0760-0.0839 0.0000 ( 17948 PWs)   bands (ev):

   -55.6033 -55.6031 -55.5796 -55.5667 -55.4925 -55.4882 -55.4688 -55.4210
   -55.4200 -55.3850 -55.3799 -55.3444 -55.0417 -55.0058 -54.5830 -54.5827
   -31.9527 -31.9274 -31.9197 -31.9196 -31.8976 -31.8974 -31.8324 -31.8278
   -31.8195 -31.8144 -31.7959 -31.7457 -31.7419 -31.7387 -31.7294 -31.7281
   -31.7260 -31.7232 -31.7225 -31.7208 -31.7191 -31.7068 -31.6973 -31.6825
   -31.6800 -31.6752 -31.6542 -31.6251 -31.6241 -31.6146 -31.6058 -31.6016
   -31.5984 -31.5974 -31.5960 -31.5514 -31.5255 -31.3011 -31.2754 -31.2698
   -31.2542 -31.1981 -30.9093 -30.9091 -30.8197 -30.8194 -30.7807 -30.7806
   -18.6622 -17.9936 -15.7810 -15.6879 -15.6008 -15.5588 -15.4802 -15.4616
   -15.4078 -15.3427 -15.3046 -15.2859 -15.2445 -15.2162 -15.1714 -15.1587
   -15.1513 -15.1276 -15.1035 -15.0793 -15.0680 -15.0620 -15.0572 -15.0439
   -15.0102 -14.9784 -14.9417 -14.9378 -14.9093 -14.6664 -14.5883 -13.0864
   -13.0862 -12.0142  -7.7619  -6.4423  -5.3687  -4.5711  -3.1918  -3.0690
    -2.9141  -2.8602  -2.8200  -2.7574  -2.7492  -2.6950  -2.5705  -2.5613
    -2.5301  -2.4660  -2.4427  -2.4397  -2.4310  -2.4271  -2.4062  -2.3696
    -2.3686  -2.3139  -2.3046  -2.2935  -2.2882  -2.2690  -2.2524  -2.2496
    -2.2260  -2.1796  -2.1641  -2.1492  -2.0439  -1.9417  -1.8837  -1.8447
    -1.8146  -1.7689  -1.7640  -1.7439  -1.7284  -1.6899  -1.6738  -1.6180
    -1.5022  -1.4247  -1.3369  -1.3082  -1.2781  -1.2088  -1.1631  -1.0988
    -1.0588  -1.0534  -0.9693  -0.8546  -0.8417  -0.8047  -0.7770  -0.7009
    -0.6719  -0.6392  -0.5789  -0.5722  -0.5440  -0.5150  -0.4737  -0.3879
    -0.3710  -0.3645  -0.3343  -0.3255  -0.3147  -0.2714  -0.2034  -0.1018
    -0.0306  -0.0232   0.0825   0.2078   0.3064   0.4386   0.4667   0.5135
     0.5687   0.6112   0.6854   0.6931   0.7175   0.7829   0.8270   0.8952
     0.9179   0.9335   1.0218   1.0351   1.7876   1.7889   1.8595   1.8596
     2.1758   3.8521   3.8803   3.9008   3.9453   4.0229   4.0470   4.0478
     4.0536   4.1699   4.1773

     the Fermi energy is     3.5064 ev

!    total energy              =   -2973.98315466 Ry
     estimated scf accuracy    <       0.00000005 Ry
     smearing contrib. (-TS)   =      -0.02040498 Ry
     internal energy E=F+TS    =   -2973.96274968 Ry

     The total energy is F=E-TS. E is the sum of the following terms:
     one-electron contribution =  -24204.24747916 Ry
     hartree contribution      =   12196.67923413 Ry
     xc contribution           =    -494.26469092 Ry
     ewald contribution        =    9527.86861136 Ry
     electric field correction =       0.00157491 Ry

     convergence has been achieved in  69 iterations

     Forces acting on atoms (cartesian axes, Ry/au):

     atom    1 type  1   force =    -0.00005767   -0.00019614    0.09552665
     atom    2 type  1   force =     0.00001926   -0.00036899   -0.17556942
     atom    3 type  2   force =     0.00009489   -0.00012533   -0.02315311
     atom    4 type  2   force =     0.00000537   -0.00139095    0.05289646
     atom    5 type  2   force =    -0.01000035   -0.00075167    0.00325386
     atom    6 type  2   force =     0.01153077   -0.00009347    0.00283012
     atom    7 type  1   force =     0.00046182    0.00027876   -0.00664057
     atom    8 type  1   force =     0.00029624    0.00536546    0.01758469
     atom    9 type  2   force =    -0.00014919   -0.00015475   -0.00039017
     atom   10 type  2   force =    -0.00346354    0.00075543   -0.01266114
     atom   11 type  2   force =    -0.00080613   -0.00032293    0.00009529
     atom   12 type  2   force =     0.00032760   -0.00016776    0.00010022
     atom   13 type  1   force =    -0.00025964    0.00038962   -0.00020961
     atom   14 type  1   force =     0.00021760    0.00002977    0.00066365
     atom   15 type  2   force =    -0.00011418   -0.00007750   -0.00035176
     atom   16 type  2   force =    -0.00003048   -0.00024072   -0.00006958
     atom   17 type  2   force =     0.00052035   -0.00012391   -0.00010651
     atom   18 type  2   force =    -0.00026643   -0.00036554   -0.00010517
     atom   19 type  1   force =    -0.00010591   -0.00026869    0.00034375
     atom   20 type  1   force =     0.00051381    0.00032797   -0.00033861
     atom   21 type  2   force =     0.00006992    0.00003364    0.10318005
     atom   22 type  2   force =     0.00015403   -0.00162467    0.00007243
     atom   23 type  2   force =    -0.07161082   -0.00013693   -0.02755243
     atom   24 type  2   force =     0.07153602    0.00036450   -0.02759303
     atom   25 type  1   force =     0.00018222   -0.00008979    0.09519257
     atom   26 type  1   force =     0.00008057   -0.00039457   -0.17576237
     atom   27 type  2   force =     0.00011127   -0.00023949   -0.02207085
     atom   28 type  2   force =     0.00002744   -0.00099098    0.05229955
     atom   29 type  2   force =    -0.01015109    0.00037198    0.00285993
     atom   30 type  2   force =     0.01155007    0.00074879    0.00248116
     atom   31 type  1   force =     0.00027767    0.00393744   -0.01132299
     atom   32 type  1   force =     0.00045678   -0.00672622    0.01787584
     atom   33 type  2   force =    -0.00007893    0.00005208   -0.00019403
     atom   34 type  2   force =    -0.00395590    0.00073764   -0.01213964
     atom   35 type  2   force =    -0.00021373    0.00008430   -0.00016967
     atom   36 type  2   force =     0.00000122    0.00003516   -0.00007961
     atom   37 type  1   force =    -0.00004789   -0.00040825    0.00038782
     atom   38 type  1   force =     0.00005639    0.00002152    0.00040053
     atom   39 type  2   force =     0.00035977   -0.00032684    0.00015693
     atom   40 type  2   force =    -0.00050156    0.00027926   -0.00006830
     atom   41 type  2   force =     0.00029183    0.00004693   -0.00003663
     atom   42 type  2   force =     0.00002334    0.00008890    0.00044945
     atom   43 type  1   force =    -0.00010221   -0.00013586    0.00017025
     atom   44 type  1   force =    -0.00020107   -0.00048787    0.00032749
     atom   45 type  2   force =     0.00007306   -0.00000409    0.10313825
     atom   46 type  2   force =    -0.07161053   -0.00003565   -0.02752618
     atom   47 type  2   force =     0.07154205    0.00035399   -0.02761435
     atom   48 type  3   force =     0.00219796   -0.01272211    0.00223971
     atom   49 type  4   force =     0.00162823   -0.00243967    0.00197856
     atom   50 type  5   force =     0.00013950   -0.00007326    0.00020957
     atom   51 type  5   force =     0.00052704   -0.00008206    0.00014447
     atom   52 type  3   force =    -0.00214339    0.02208227    0.00080616
     atom   53 type  5   force =    -0.00016516   -0.00508403   -0.00601819
     atom   54 type  2   force =    -0.00053201   -0.00136277   -0.00086647
     atom   55 type  5   force =     0.00166493    0.00004601    0.00027119
     atom   56 type  5   force =    -0.00037118    0.00158205    0.00067377

     Total force =     0.365743     Total SCF correction =     0.000459
  @ DRIVER MODE: Message from server: STATUS
  @ DRIVER MODE: Message from server: GETFORCE
  @ DRIVER MODE: Returning v,forces,stress,ensemble

     Writing output data file ./calc.save/
  @ DRIVER MODE: Message from server: EXIT
  @ DRIVE MODE: Exiting

     General routines

     Parallel routines

   This run was terminated on:   0:44: 2  16Sep2021

   JOB DONE.