     Program PWSCF v.6.7GPU starts on 21Sep2021 at 23: 4:47

     R & G space division:  proc/nbgrp/npool/nimage =      10
     Reading input from /storage/home/hcoda1/3/ntian30/research/carbon/CxH_vib/CH_calc/ads_slab/CHNHNH2H2O_b/out_0003/pw.inp
Warning: card &CELL ignored
Warning: card   CELL_DYNAMICS='IPI', ignored
Warning: card / ignored

     Current dimensions of program PWSCF are:
     Max number of different atomic species (ntypx) = 10
     Max number of k-points (npk) =  40000
     Max angular momentum in pseudopotentials (lmaxx) =  3
     Presently no symmetry can be used with electric field

     Message from routine cell_base_init:
     DEPRECATED: use true lattice parameter, not A to a.u. conversion factor

     IMPORTANT: XC functional enforced from input :
     Exchange-correlation= BEEF-VDW
                           (   1   4  43  14   2   0   0)
     Any further DFT definition will be discarded
     Please, verify this is what you really want

  @ DRIVER MODE: Connecting to
 qe_1139763_2927425.sched-torque.pace.gatech.eduwkz5el9p_scratch
  using UNIX socket
  @ DRIVER MODE: Message from server: STATUS
  @ DRIVER MODE: Message from server: INIT
  @ DRIVER MODE: Receiving replica           0          -1
  @ DRIVER MODE: Receiving encoded integer          25
  @ DRIVER MODE:  SCF:  T  FORCE:  T  STRESS:  F  VC:  F  ENSEMBLE:  F
  @ DRIVER MODE:  SCF:  T  FORCE:  T  STRESS:  F  VC:  F  ENSEMBLE:  F

     Using Slab Decomposition

     bravais-lattice index     =            0
     lattice parameter (alat)  =       1.8897  a.u.
     unit-cell volume          =    6658.9804 (a.u.)^3
     number of atoms/cell      =           57
     number of atomic types    =            5
     number of electrons       =       404.00
     number of Kohn-Sham states=          212
     kinetic-energy cutoff     =      29.3995  Ry
     charge density cutoff     =     293.9946  Ry
     scf convergence threshold =      7.3E-08
     mixing beta               =       0.0500
     number of iterations used =            8  plain     mixing
     Exchange-correlation= BEEF-VDW
                           (   1   4  43  14   2   0   0)

     celldm(1)=   1.889726  celldm(2)=   0.000000  celldm(3)=   0.000000
     celldm(4)=   0.000000  celldm(5)=   0.000000  celldm(6)=   0.000000

     crystal axes: (cart. coord. in units of alat)
               a(1) = (   6.579727   0.000000   0.000000 )
               a(2) = (  -0.000775   5.961596   0.000000 )
               a(3) = (   0.000000   0.000000  25.155947 )

     reciprocal axes: (cart. coord. in units 2 pi/alat)
               b(1) = (  0.151982  0.000020  0.000000 )
               b(2) = (  0.000000  0.167740  0.000000 )
               b(3) = (  0.000000  0.000000  0.039752 )

     PseudoPot. # 1 for Ti read from file:
     /storage/coda1/p-amedford6/0/shared/rich_project_chbe-medford/medford-share/data/pseudos_module/espresso/nninc/pbe/van/Ti.UPF
     MD5 check sum: 8e4df49b7f0d34bbd5052bf3f5ea0213
     Pseudo is Ultrasoft, Zval = 12.0
     Generated by new atomic code, or converted to UPF format
     Using radial grid of  851 points,  6 beta functions with:
                l(1) =   0
                l(2) =   0
                l(3) =   1
                l(4) =   1
                l(5) =   2
                l(6) =   2
     Q(r) pseudized with  8 coefficients,  rinner =    1.000   1.000   1.000
                                                       1.000   1.000

     PseudoPot. # 2 for O  read from file:
     /storage/coda1/p-amedford6/0/shared/rich_project_chbe-medford/medford-share/data/pseudos_module/espresso/nninc/pbe/van/O.UPF
     MD5 check sum: 78c19812648e8988a0fe644b0f25305e
     Pseudo is Ultrasoft, Zval =  6.0
     Generated by new atomic code, or converted to UPF format
     Using radial grid of  737 points,  4 beta functions with:
                l(1) =   0
                l(2) =   0
                l(3) =   1
                l(4) =   1
     Q(r) pseudized with  8 coefficients,  rinner =    0.800   0.800   0.800

     PseudoPot. # 3 for N  read from file:
     /storage/coda1/p-amedford6/0/shared/rich_project_chbe-medford/medford-share/data/pseudos_module/espresso/nninc/pbe/van/N.UPF
     MD5 check sum: 90d10febe142ad51ac9d5be1deb811c4
     Pseudo is Ultrasoft, Zval =  5.0
     Generated by new atomic code, or converted to UPF format
     Using radial grid of  729 points,  4 beta functions with:
                l(1) =   0
                l(2) =   0
                l(3) =   1
                l(4) =   1
     Q(r) pseudized with  8 coefficients,  rinner =    0.800   0.800   0.800

     PseudoPot. # 4 for C  read from file:
     /storage/coda1/p-amedford6/0/shared/rich_project_chbe-medford/medford-share/data/pseudos_module/espresso/nninc/pbe/van/C.UPF
     MD5 check sum: 1a69bf6b8db32088f5b2163dbdb77a27
     Pseudo is Ultrasoft, Zval =  4.0
     Generated by new atomic code, or converted to UPF format
     Using radial grid of  721 points,  4 beta functions with:
                l(1) =   0
                l(2) =   0
                l(3) =   1
                l(4) =   1
     Q(r) pseudized with  8 coefficients,  rinner =    0.800   0.800   0.800

     PseudoPot. # 5 for H  read from file:
     /storage/coda1/p-amedford6/0/shared/rich_project_chbe-medford/medford-share/data/pseudos_module/espresso/nninc/pbe/van/H.UPF
     MD5 check sum: b5ee9d7bfd3a09ee7748110bda690ff7
     Pseudo is Ultrasoft, Zval =  1.0
     Generated by new atomic code, or converted to UPF format
     Using radial grid of  615 points,  1 beta functions with:
                l(1) =   0
     Q(r) pseudized with  8 coefficients,  rinner =    0.800

     atomic species   valence    mass     pseudopotential
        Ti1           12.00    47.86700     Ti( 1.00)
        O1             6.00    15.99900     O ( 1.00)
        N1             5.00    14.00700     N ( 1.00)
        C1             4.00    12.01100     C ( 1.00)
        H1             1.00     1.00800     H ( 1.00)

     No symmetry found

   Cartesian axes

     site n.     atom                  positions (alat units)
         1           Ti1 tau(   1) = (   0.0004258   2.9801865   6.0000000  )
         2           Ti1 tau(   2) = (   3.2906075   1.4906267   6.0002472  )
         3           O1  tau(   3) = (   0.0006271   0.0005054   7.9858123  )
         4           O1  tau(   4) = (   3.2906025   0.0005020   7.3038282  )
         5           O1  tau(   5) = (   4.5942328   1.4918067   9.2879030  )
         6           O1  tau(   6) = (   1.9868534   1.4903216   9.2879459  )
         7           Ti1 tau(   7) = (   3.2907910   2.8959150   9.1758416  )
         8           Ti1 tau(   8) = (   0.0015273   1.4827037   9.2680791  )
         9           O1  tau(   9) = (   3.3066417   5.9496923  11.3845403  )
        10           O1  tau(  10) = (   0.0116148   5.9584955  10.6183126  )
        11           O1  tau(  11) = (   1.3010148   1.4986442  12.6442229  )
        12           O1  tau(  12) = (   5.3085967   1.5001388  12.6592367  )
        13           Ti1 tau(  13) = (   0.0282779   2.9853959  12.5065338  )
        14           Ti1 tau(  14) = (   3.3279724   1.4707331  12.5413945  )
        15           O1  tau(  15) = (   0.0378505   0.0859181  14.6860672  )
        16           O1  tau(  16) = (   3.3018867   0.0259462  14.0338077  )
        17           O1  tau(  17) = (   4.5998927   1.5484098  16.1661054  )
        18           O1  tau(  18) = (   2.0454451   1.5021798  16.2221046  )
        19           Ti1 tau(  19) = (   3.3206312   2.9825829  15.7321521  )
        20           Ti1 tau(  20) = (   0.0140791   1.4435866  15.9983415  )
        21           O1  tau(  21) = (   3.2904802   0.0005063   4.7018136  )
        22           O1  tau(  22) = (   6.5273045   5.8164216  17.2577718  )
        23           O1  tau(  23) = (   1.3043587   1.4918075   6.0039043  )
        24           O1  tau(  24) = (   5.2767064   1.4903225   6.0039473  )
        25           Ti1 tau(  25) = (   0.0000382   5.9609847   6.0000000  )
        26           Ti1 tau(  26) = (   3.2902200   4.4714249   6.0002472  )
        27           O1  tau(  27) = (   0.0002396   2.9813036   7.9858123  )
        28           O1  tau(  28) = (   3.2902150   2.9813002   7.3038282  )
        29           O1  tau(  29) = (   4.5938453   4.4726049   9.2879030  )
        30           O1  tau(  30) = (   1.9864658   4.4711199   9.2879459  )
        31           Ti1 tau(  31) = (   3.2891106   5.8743827   9.1763621  )
        32           Ti1 tau(  32) = (   0.0006254   4.4649316   9.2693709  )
        33           O1  tau(  33) = (   3.3068470   2.9864458  11.3814114  )
        34           O1  tau(  34) = (   0.0092240   2.9805883  10.6323155  )
        35           O1  tau(  35) = (   1.2982948   4.4740332  12.6840172  )
        36           O1  tau(  36) = (   5.3097620   4.4704985  12.6972095  )
        37           Ti1 tau(  37) = (   0.0348817   0.0130325  12.4954113  )
        38           Ti1 tau(  38) = (   3.3270268   4.4633798  12.5435021  )
        39           O1  tau(  39) = (   0.0563025   2.9439880  14.9425960  )
        40           O1  tau(  40) = (   3.2900316   2.9661073  13.9503945  )
        41           O1  tau(  41) = (   4.5967999   4.4093095  16.0633277  )
        42           O1  tau(  42) = (   2.0412097   4.4536800  16.1303113  )
        43           Ti1 tau(  43) = (   3.2964201   5.9600488  15.8742613  )
        44           Ti1 tau(  44) = (   0.0241369   4.6516137  15.8518307  )
        45           O1  tau(  45) = (   3.2900926   2.9813045   4.7018136  )
        46           O1  tau(  46) = (   1.3039711   4.4726057   6.0039043  )
        47           O1  tau(  47) = (   5.2763189   4.4711207   6.0039473  )
        48           N1  tau(  48) = (   1.4509408   2.7009095  18.7602185  )
        49           N1  tau(  49) = (   0.0917387   2.5303350  18.2207845  )
        50           C1  tau(  50) = (   1.9503960   3.7723240  19.2784661  )
        51           H1  tau(  51) = (   1.1612915   4.5273475  19.4152495  )
        52           H1  tau(  52) = (   2.0208952   1.9183395  18.4664618  )
        53           H1  tau(  53) = (   6.1377449   3.3539424  18.4987646  )
        54           H1  tau(  54) = (   6.2616785   1.7135167  18.6767212  )
        55           O1  tau(  55) = (   3.7012217   5.9496235  18.2853534  )
        56           H1  tau(  56) = (   4.6684668   5.8470116  18.1670174  )
        57           H1  tau(  57) = (   3.3852657   5.1278045  18.7338684  )

     number of k points=    10  Fermi-Dirac smearing, width (Ry)=  0.0073
                       cart. coord. in units 2pi/alat
        k(    1) = (   0.0000000   0.0000000   0.0000000), wk =   0.1250000
        k(    2) = (   0.0000000   0.0419351   0.0000000), wk =   0.2500000
        k(    3) = (   0.0000000  -0.0838702   0.0000000), wk =   0.1250000
        k(    4) = (   0.0379955   0.0000049   0.0000000), wk =   0.2500000
        k(    5) = (   0.0379955   0.0419400   0.0000000), wk =   0.2500000
        k(    6) = (   0.0379955  -0.0838652   0.0000000), wk =   0.2500000
        k(    7) = (   0.0379955  -0.0419301   0.0000000), wk =   0.2500000
        k(    8) = (  -0.0759910  -0.0000099   0.0000000), wk =   0.1250000
        k(    9) = (  -0.0759910   0.0419252   0.0000000), wk =   0.2500000
        k(   10) = (  -0.0759910  -0.0838800   0.0000000), wk =   0.1250000

     Initial potential from superposition of free atoms

     starting charge  387.99913, renormalised to  404.00000

     negative rho (up, down):  1.598E-02 0.000E+00

     %%%%%%%%%%%%%%%%%%%%%%%%%%%%%%%%%%%%%%%%%%%%%%%%%%%%%%%%%%%%%%%%%%%%%%%%
     %                                                                      %
     % You are using vdW-DF, which was implemented by the Thonhauser group. %
     % Please cite the following two papers that made this development      %
     % possible and the two reviews that describe the various versions:     %
     %                                                                      %
     %   T. Thonhauser et al., PRL 115, 136402 (2015).                      %
     %   T. Thonhauser et al., PRB 76, 125112 (2007).                       %
     %   K. Berland et al., Rep. Prog. Phys. 78, 066501 (2015).             %
     %   D.C. Langreth et al., J. Phys.: Condens. Matter 21, 084203 (2009). %
     %                                                                      %
     %                                                                      %
     % If you are calculating the stress with vdW-DF, please also cite:     %
     %                                                                      %
     %   R. Sabatini et al., J. Phys.: Condens. Matter 24, 424209 (2012).   %
     %                                                                      %
     %%%%%%%%%%%%%%%%%%%%%%%%%%%%%%%%%%%%%%%%%%%%%%%%%%%%%%%%%%%%%%%%%%%%%%%%

     Adding external electric field

     Computed dipole along edir(3) :
        Dipole              -14.3585 Ry au,        -36.4957 Debye
        Dipole field         -0.0271 Ry au,

        Potential amp.        2.5118 Ry
        Total length         46.3494 bohr

     Starting wfcs are  306 atomic wfcs
  @ DRIVER MODE: Message from server: STATUS
  @ DRIVER MODE: Message from server: POSDATA
  @ DRIVER MODE: Reading and sharing cell
  @ DRIVER MODE: Reading and sharing positions
  @ DRIVER MODE: Received positions

     Self-consistent Calculation

     iteration #  1     ecut=    29.40 Ry     beta= 0.05
     Davidson diagonalization with overlap
     c_bands:  3 eigenvalues not converged
     c_bands:  4 eigenvalues not converged
     c_bands:  4 eigenvalues not converged
     c_bands:  4 eigenvalues not converged
     c_bands:  5 eigenvalues not converged
     c_bands:  3 eigenvalues not converged
     c_bands:  2 eigenvalues not converged
     c_bands:  4 eigenvalues not converged
     ethr =  1.00E-05,  avg # of iterations = 21.9

[...]

     total energy              =   -2220.95520102 Ry
     estimated scf accuracy    <    8587.34239802 Ry

     iteration #  2     ecut=    29.40 Ry     beta= 0.05
     Davidson diagonalization with overlap
     ethr =  1.00E-02,  avg # of iterations = 28.2

[...]

     iteration # 89     ecut=    29.40 Ry     beta= 0.05
     Davidson diagonalization with overlap
     c_bands:  1 eigenvalues not converged
     ethr =  3.11E-11,  avg # of iterations =  9.8

[...]

     total energy              =   -2975.10500824 Ry
     estimated scf accuracy    <       0.00000008 Ry

     iteration # 90     ecut=    29.40 Ry     beta= 0.05
     Davidson diagonalization with overlap
     ethr =  1.98E-11,  avg # of iterations = 13.6

     negative rho (up, down):  1.578E-02 0.000E+00

     Adding external electric field

     Computed dipole along edir(3) :
        Dipole                1.0229 Ry au,          2.6001 Debye
        Dipole field          0.0019 Ry au,

        Potential amp.       -0.1789 Ry
        Total length         46.3494 bohr

     End of self-consistent calculation

          k = 0.0000 0.0000 0.0000 ( 18029 PWs)   bands (ev):

   -55.3857 -55.3499 -55.3459 -55.3118 -55.3085 -55.3028 -55.2678 -55.2325
   -55.2170 -55.1821 -55.1754 -55.1604 -55.1417 -55.1127 -54.3773 -54.3432
   -31.9447 -31.8807 -31.8386 -31.7575 -31.7084 -31.7056 -31.6813 -31.6787
   -31.6346 -31.5988 -31.5917 -31.5904 -31.5834 -31.5799 -31.5617 -31.5597
   -31.5351 -31.5270 -31.5241 -31.5124 -31.4987 -31.4920 -31.4730 -31.4682
   -31.4600 -31.4467 -31.4463 -31.4172 -31.4033 -31.3995 -31.3959 -31.3739
   -31.3704 -31.3658 -31.3622 -31.3413 -31.3301 -31.3183 -31.3034 -31.3032
   -31.2931 -31.2865 -30.7867 -30.6923 -30.6702 -30.6031 -30.5163 -30.4054
   -18.8729 -18.4540 -16.2204 -15.9730 -15.8370 -15.7326 -15.5953 -15.4971
   -15.3879 -15.2746 -15.2515 -15.1575 -15.0835 -15.0796 -15.0422 -15.0168
   -14.9541 -14.9326 -14.9089 -14.9030 -14.8885 -14.8781 -14.8416 -14.8306
   -14.7948 -14.7869 -14.7697 -14.6307 -14.6154 -14.5521 -14.4818 -14.3422
   -12.8797 -12.7622  -9.8532  -6.9846  -6.3773  -6.1111  -4.4512  -3.7247
    -3.5437  -3.4106  -3.3319  -3.3011  -3.2860  -3.1543  -3.0603  -2.9020
    -2.8634  -2.8065  -2.6741  -2.5982  -2.5918  -2.5039  -2.4314  -2.4078
    -2.3750  -2.2659  -2.2596  -2.2092  -2.1925  -2.1694  -2.1601  -2.1133
    -2.0674  -2.0404  -1.9552  -1.8537  -1.8099  -1.7903  -1.7536  -1.7309
    -1.7259  -1.6828  -1.6768  -1.6528  -1.6141  -1.5896  -1.5439  -1.4321
    -1.3907  -1.2312  -1.1941  -1.0404  -1.0199  -0.9806  -0.9601  -0.9148
    -0.8927  -0.8768  -0.8546  -0.7729  -0.7143  -0.6470  -0.5838  -0.4929
    -0.4824  -0.4084  -0.3830  -0.3175  -0.2296  -0.1857  -0.1760  -0.1514
    -0.1480  -0.0340   0.0107   0.0708   0.0895   0.1470   0.1630   0.1850
     0.2549   0.3085   0.3780   0.4088   0.4878   0.5060   0.5411   0.5503
     0.5826   0.5929   0.6693   0.6841   0.7124   0.8150   0.9127   1.0059
     1.2157   1.2180   1.2532   1.5505   1.5526   1.6457   1.8291   2.2221
     2.2705   3.7042   3.7825   3.8321   3.8496   3.8544   3.9392   4.1937
     4.2080   4.2207   4.2269   4.2677

[...]

          k = 0.0380-0.0419 0.0000 ( 17876 PWs)   bands (ev):

[...]

          k =-0.0760-0.0000 0.0000 ( 17886 PWs)   bands (ev):

[...]

          k =-0.0760-0.0839 0.0000 ( 17948 PWs)   bands (ev):

   -55.3688 -55.3665 -55.3290 -55.3287 -55.3055 -55.3019 -55.2541 -55.2463
   -55.2027 -55.1960 -55.1622 -55.1595 -55.1578 -55.1145 -54.3602 -54.3602
   -31.7953 -31.7571 -31.7430 -31.6538 -31.6536 -31.6391 -31.6271 -31.6200
   -31.6197 -31.5990 -31.5938 -31.5909 -31.5678 -31.5601 -31.5481 -31.5341
   -31.5311 -31.5282 -31.5246 -31.5165 -31.5118 -31.5098 -31.5087 -31.5009
   -31.4690 -31.4675 -31.4488 -31.4486 -31.4481 -31.4431 -31.4406 -31.4357
   -31.4262 -31.4148 -31.4090 -31.3923 -31.3905 -31.3809 -31.3395 -31.3385
   -31.3379 -31.3191 -30.6829 -30.6829 -30.5993 -30.5991 -30.5597 -30.5597
   -18.8669 -18.4565 -15.8400 -15.6534 -15.5020 -15.4300 -15.4097 -15.3266
   -15.2712 -15.2680 -15.1948 -15.1766 -15.1644 -15.1428 -15.1331 -15.0860
   -15.0488 -15.0121 -14.9934 -14.9708 -14.9276 -14.9048 -14.9031 -14.8963
   -14.8887 -14.8484 -14.8433 -14.8399 -14.7482 -14.7463 -14.6877 -14.5451
   -12.8637 -12.8635  -9.8624  -6.9731  -6.3523  -6.0874  -4.4640  -3.6495
    -3.0235  -2.9115  -2.9007  -2.6719  -2.6535  -2.5926  -2.5798  -2.4921
    -2.4763  -2.4157  -2.3921  -2.3421  -2.3190  -2.2814  -2.2675  -2.2457
    -2.2247  -2.2110  -2.1843  -2.1683  -2.1511  -2.1316  -2.1204  -2.1091
    -2.0534  -2.0485  -2.0395  -2.0142  -1.9911  -1.9551  -1.9452  -1.9274
    -1.7733  -1.7576  -1.7362  -1.6006  -1.5962  -1.5601  -1.5221  -1.4945
    -1.4368  -1.4284  -1.3998  -1.3409  -1.1457  -1.1362  -1.1247  -1.1059
    -1.0351  -0.9799  -0.9662  -0.9480  -0.8947  -0.8166  -0.7792  -0.7300
    -0.6343  -0.5894  -0.5790  -0.5539  -0.4325  -0.4096  -0.3673  -0.3494
    -0.3331  -0.2987  -0.2971  -0.2378  -0.1867  -0.1517  -0.1286  -0.1143
    -0.0774   0.0776   0.1294   0.1457   0.2601   0.2893   0.4677   0.5103
     0.5319   0.6371   0.7203   0.7486   0.7627   0.8886   0.9104   0.9127
     0.9811   1.0033   1.0634   1.0692   1.2112   2.0018   2.0031   2.0903
     2.0905   3.8294   3.9521   3.9963   4.0322   4.1081   4.1610   4.2180
     4.2771   4.2910   4.2923   4.3593

     the Fermi energy is     3.7662 ev

!    total energy              =   -2975.10501568 Ry
     estimated scf accuracy    <       0.00000004 Ry
     smearing contrib. (-TS)   =      -0.03671059 Ry
     internal energy E=F+TS    =   -2975.06830509 Ry

     The total energy is F=E-TS. E is the sum of the following terms:
     one-electron contribution =  -23505.33840217 Ry
     hartree contribution      =   11848.68219824 Ry
     xc contribution           =    -494.91464209 Ry
     ewald contribution        =    9176.50056618 Ry
     electric field correction =       0.00197474 Ry

     convergence has been achieved in  90 iterations

     Forces acting on atoms (cartesian axes, Ry/au):

     atom    1 type  1   force =     0.00003323   -0.00025125    0.09310985
     atom    2 type  1   force =    -0.00019916   -0.00030416   -0.17837797
     atom    3 type  2   force =     0.00006060   -0.00016069   -0.02026312
     atom    4 type  2   force =     0.00001696   -0.00203629    0.05924253
     atom    5 type  2   force =    -0.01031212   -0.00109386    0.00809170
     atom    6 type  2   force =     0.01215303   -0.00053881    0.00817118
     atom    7 type  1   force =     0.00014993    0.00327787   -0.01111863
     atom    8 type  1   force =    -0.00029562    0.00052659   -0.00562035
     atom    9 type  2   force =     0.00003930    0.00017691   -0.00013787
     atom   10 type  2   force =    -0.00146338   -0.00002967   -0.00170801
     atom   11 type  2   force =     0.00038466   -0.00002672   -0.00005836
     atom   12 type  2   force =    -0.00010629    0.00011349   -0.00008884
     atom   13 type  1   force =    -0.00009553   -0.00017300   -0.00026757
     atom   14 type  1   force =    -0.00020712   -0.00035553    0.00034206
     atom   15 type  2   force =     0.00006947   -0.00049078    0.00008960
     atom   16 type  2   force =     0.00022185    0.00008765    0.00024956
     atom   17 type  2   force =     0.00036687   -0.00015734    0.00016690
     atom   18 type  2   force =    -0.00006336   -0.00016362   -0.00021884
     atom   19 type  1   force =    -0.00029595   -0.00047590    0.00005869
     atom   20 type  1   force =     0.00004967    0.00027291    0.00047985
     atom   21 type  2   force =    -0.00000552   -0.00007643    0.10403137
     atom   22 type  2   force =    -0.00006620   -0.00007258   -0.00009220
     atom   23 type  2   force =    -0.07038240   -0.00015527   -0.02682920
     atom   24 type  2   force =     0.07025028    0.00029009   -0.02690678
     atom   25 type  1   force =     0.00001675   -0.00016228    0.09277828
     atom   26 type  1   force =    -0.00015930   -0.00042084   -0.17833571
     atom   27 type  2   force =     0.00011112   -0.00031124   -0.01920499
     atom   28 type  2   force =     0.00004591   -0.00163429    0.05839142
     atom   29 type  2   force =    -0.01026797   -0.00063389    0.00729493
     atom   30 type  2   force =     0.01200386   -0.00030170    0.00743224
     atom   31 type  1   force =     0.00007685    0.00514722   -0.01465235
     atom   32 type  1   force =    -0.00013898   -0.00052257   -0.00596393
     atom   33 type  2   force =     0.00012793   -0.00039402   -0.00022645
     atom   34 type  2   force =    -0.00078806    0.00260046   -0.00102991
     atom   35 type  2   force =    -0.00006381   -0.00012213   -0.00011838
     atom   36 type  2   force =     0.00022903   -0.00000582   -0.00014565
     atom   37 type  1   force =    -0.00043577    0.00008586    0.00001363
     atom   38 type  1   force =    -0.00003132   -0.00024804   -0.00024509
     atom   39 type  2   force =    -0.00030220   -0.00020987   -0.00016798
     atom   40 type  2   force =    -0.00013540   -0.00005493   -0.00004532
     atom   41 type  2   force =    -0.00011474   -0.00015793    0.00037450
     atom   42 type  2   force =    -0.00009694   -0.00026241    0.00020265
     atom   43 type  1   force =    -0.00000025   -0.00026362    0.00013312
     atom   44 type  1   force =     0.00000808   -0.00000856    0.00016792
     atom   45 type  2   force =     0.00000813   -0.00011047    0.10400032
     atom   46 type  2   force =    -0.07040560   -0.00012429   -0.02685321
     atom   47 type  2   force =     0.07024805    0.00031078   -0.02691192
     atom   48 type  3   force =    -0.00405479    0.03033640    0.01067647
     atom   49 type  3   force =     0.00047789   -0.00492385    0.00022229
     atom   50 type  4   force =    -0.00206543   -0.01317532   -0.00516369
     atom   51 type  5   force =    -0.00085707   -0.00206889   -0.00111359
     atom   52 type  5   force =     0.00605692   -0.01076325   -0.00389145
     atom   53 type  5   force =     0.00120736    0.00025056    0.00051112
     atom   54 type  5   force =    -0.00090107    0.00065599   -0.00073188
     atom   55 type  2   force =     0.00016375   -0.00003295    0.00048941
     atom   56 type  5   force =     0.00021963   -0.00035925   -0.00042255
     atom   57 type  5   force =    -0.00048573   -0.00029848    0.00019023

     Total force =     0.368210     Total SCF correction =     0.000600
  @ DRIVER MODE: Message from server: STATUS
  @ DRIVER MODE: Message from server: GETFORCE
  @ DRIVER MODE: Returning v,forces,stress,ensemble

     Writing output data file ./calc.save/
  @ DRIVER MODE: Message from server: EXIT
  @ DRIVE MODE: Exiting

     General routines

     Parallel routines

   This run was terminated on:  23:28:46  21Sep2021

   JOB DONE.