     Program PWSCF v.6.7GPU starts on 23Sep2021 at 17: 8:30

     R & G space division:  proc/nbgrp/npool/nimage =       8
     Reading input from /storage/home/hcoda1/3/ntian30/research/carbon/CxH_vib/H2O_calc/ads_slab/CH3OHHO_e/out_0048/pw.inp
Warning: card &CELL ignored
Warning: card   CELL_DYNAMICS='IPI', ignored
Warning: card / ignored

     Current dimensions of program PWSCF are:
     Max number of different atomic species (ntypx) = 10
     Max number of k-points (npk) =  40000
     Max angular momentum in pseudopotentials (lmaxx) =  3
     Presently no symmetry can be used with electric field

     Message from routine cell_base_init:
     DEPRECATED: use true lattice parameter, not A to a.u. conversion factor

     IMPORTANT: XC functional enforced from input :
     Exchange-correlation= BEEF-VDW
                           (   1   4  43  14   2   0   0)
     Any further DFT definition will be discarded
     Please, verify this is what you really want

  @ DRIVER MODE: Connecting to
 qe_1139763_2941008.sched-torque.pace.gatech.edutlszts2e_scratch
  using UNIX socket
  @ DRIVER MODE: Message from server: STATUS
  @ DRIVER MODE: Message from server: INIT
  @ DRIVER MODE: Receiving replica           0          -1
  @ DRIVER MODE: Receiving encoded integer          25
  @ DRIVER MODE:  SCF:  T  FORCE:  T  STRESS:  F  VC:  F  ENSEMBLE:  F
  @ DRIVER MODE:  SCF:  T  FORCE:  T  STRESS:  F  VC:  F  ENSEMBLE:  F

     Using Slab Decomposition

     bravais-lattice index     =            0
     lattice parameter (alat)  =       1.8897  a.u.
     unit-cell volume          =    6658.9804 (a.u.)^3
     number of atoms/cell      =           55
     number of atomic types    =            4
     number of electrons       =       399.00
     number of Kohn-Sham states=          209
     kinetic-energy cutoff     =      29.3995  Ry
     charge density cutoff     =     293.9946  Ry
     scf convergence threshold =      7.3E-08
     mixing beta               =       0.0500
     number of iterations used =            8  plain     mixing
     Exchange-correlation= BEEF-VDW
                           (   1   4  43  14   2   0   0)

     celldm(1)=   1.889726  celldm(2)=   0.000000  celldm(3)=   0.000000
     celldm(4)=   0.000000  celldm(5)=   0.000000  celldm(6)=   0.000000

     crystal axes: (cart. coord. in units of alat)
               a(1) = (   6.579727   0.000000   0.000000 )
               a(2) = (  -0.000775   5.961596   0.000000 )
               a(3) = (   0.000000   0.000000  25.155947 )

     reciprocal axes: (cart. coord. in units 2 pi/alat)
               b(1) = (  0.151982  0.000020  0.000000 )
               b(2) = (  0.000000  0.167740  0.000000 )
               b(3) = (  0.000000  0.000000  0.039752 )

     PseudoPot. # 1 for Ti read from file:
     /storage/coda1/p-amedford6/0/shared/rich_project_chbe-medford/medford-share/data/pseudos_module/espresso/nninc/pbe/van/Ti.UPF
     MD5 check sum: 8e4df49b7f0d34bbd5052bf3f5ea0213
     Pseudo is Ultrasoft, Zval = 12.0
     Generated by new atomic code, or converted to UPF format
     Using radial grid of  851 points,  6 beta functions with:
                l(1) =   0
                l(2) =   0
                l(3) =   1
                l(4) =   1
                l(5) =   2
                l(6) =   2
     Q(r) pseudized with  8 coefficients,  rinner =    1.000   1.000   1.000
                                                       1.000   1.000

     PseudoPot. # 2 for O  read from file:
     /storage/coda1/p-amedford6/0/shared/rich_project_chbe-medford/medford-share/data/pseudos_module/espresso/nninc/pbe/van/O.UPF
     MD5 check sum: 78c19812648e8988a0fe644b0f25305e
     Pseudo is Ultrasoft, Zval =  6.0
     Generated by new atomic code, or converted to UPF format
     Using radial grid of  737 points,  4 beta functions with:
                l(1) =   0
                l(2) =   0
                l(3) =   1
                l(4) =   1
     Q(r) pseudized with  8 coefficients,  rinner =    0.800   0.800   0.800

     PseudoPot. # 3 for C  read from file:
     /storage/coda1/p-amedford6/0/shared/rich_project_chbe-medford/medford-share/data/pseudos_module/espresso/nninc/pbe/van/C.UPF
     MD5 check sum: 1a69bf6b8db32088f5b2163dbdb77a27
     Pseudo is Ultrasoft, Zval =  4.0
     Generated by new atomic code, or converted to UPF format
     Using radial grid of  721 points,  4 beta functions with:
                l(1) =   0
                l(2) =   0
                l(3) =   1
                l(4) =   1
     Q(r) pseudized with  8 coefficients,  rinner =    0.800   0.800   0.800

     PseudoPot. # 4 for H  read from file:
     /storage/coda1/p-amedford6/0/shared/rich_project_chbe-medford/medford-share/data/pseudos_module/espresso/nninc/pbe/van/H.UPF
     MD5 check sum: b5ee9d7bfd3a09ee7748110bda690ff7
     Pseudo is Ultrasoft, Zval =  1.0
     Generated by new atomic code, or converted to UPF format
     Using radial grid of  615 points,  1 beta functions with:
                l(1) =   0
     Q(r) pseudized with  8 coefficients,  rinner =    0.800

     atomic species   valence    mass     pseudopotential
        Ti1           12.00    47.86700     Ti( 1.00)
        O1             6.00    15.99900     O ( 1.00)
        C1             4.00    12.01100     C ( 1.00)
        H1             1.00     1.00800     H ( 1.00)

     No symmetry found

   Cartesian axes

     site n.     atom                  positions (alat units)
         1           Ti1 tau(   1) = (   0.0004258   2.9801865   6.0000000  )
         2           Ti1 tau(   2) = (   3.2906075   1.4906267   6.0002472  )
         3           O1  tau(   3) = (   0.0006271   0.0005054   7.9858123  )
         4           O1  tau(   4) = (   3.2906025   0.0005020   7.3038282  )
         5           O1  tau(   5) = (   4.5942328   1.4918067   9.2879030  )
         6           O1  tau(   6) = (   1.9868534   1.4903216   9.2879459  )
         7           Ti1 tau(   7) = (   3.3364693   3.0244086   9.1899460  )
         8           Ti1 tau(   8) = (   0.0614121   1.5180315   9.2736979  )
         9           O1  tau(   9) = (   3.3192415   0.0109611  11.3574448  )
        10           O1  tau(  10) = (   0.0135824   0.0030625  10.5923660  )
        11           O1  tau(  11) = (   1.3113730   1.4888140  12.6397483  )
        12           O1  tau(  12) = (   5.3365169   1.4868518  12.6422516  )
        13           Ti1 tau(  13) = (   0.0249591   3.0356721  12.5595363  )
        14           Ti1 tau(  14) = (   3.3216347   1.5719315  12.4302660  )
        15           O1  tau(  15) = (   0.0475996   5.9320359  14.6592625  )
        16           O1  tau(  16) = (   3.3253441   5.8716044  14.0084122  )
        17           O1  tau(  17) = (   4.6294077   1.4993822  16.1384749  )
        18           O1  tau(  18) = (   2.0712093   1.5368213  16.0656395  )
        19           Ti1 tau(  19) = (   3.3420502   2.9337026  15.6791356  )
        20           Ti1 tau(  20) = (   0.0819182   1.3209985  15.9439250  )
        21           O1  tau(  21) = (   3.2904802   0.0005063   4.7018136  )
        22           O1  tau(  22) = (   0.1121901   0.0005398  17.1797988  )
        23           O1  tau(  23) = (   1.3043587   1.4918075   6.0039043  )
        24           O1  tau(  24) = (   5.2767064   1.4903225   6.0039473  )
        25           Ti1 tau(  25) = (   0.0000382   5.9609847   6.0000000  )
        26           Ti1 tau(  26) = (   3.2902200   4.4714249   6.0002472  )
        27           O1  tau(  27) = (   0.0002396   2.9813036   7.9858123  )
        28           O1  tau(  28) = (   3.2902150   2.9813002   7.3038282  )
        29           O1  tau(  29) = (   4.5938453   4.4726049   9.2879030  )
        30           O1  tau(  30) = (   1.9864658   4.4711199   9.2879459  )
        31           Ti1 tau(  31) = (   3.3365859   0.0383882   9.1683042  )
        32           Ti1 tau(  32) = (   0.0607984   4.4756772   9.2727477  )
        33           O1  tau(  33) = (   3.3154497   2.9528697  11.3100477  )
        34           O1  tau(  34) = (   0.0130381   2.9821538  10.6068333  )
        35           O1  tau(  35) = (   1.3079814   4.4632751  12.6339740  )
        36           O1  tau(  36) = (   5.3374838   4.4678533  12.6371107  )
        37           Ti1 tau(  37) = (   0.0367351   0.0553833  12.4739561  )
        38           Ti1 tau(  38) = (   3.3178111   4.6524667  12.7070490  )
        39           O1  tau(  39) = (   0.0226182   2.9861015  14.7894940  )
        40           O1  tau(  40) = (   3.3464301   2.9603322  13.9061577  )
        41           O1  tau(  41) = (   4.6320376   4.4053937  16.1659747  )
        42           O1  tau(  42) = (   2.0651706   4.3480327  16.1155179  )
        43           Ti1 tau(  43) = (   3.4032537   5.9185344  16.2710929  )
        44           Ti1 tau(  44) = (   0.0646745   4.5145260  15.8553686  )
        45           O1  tau(  45) = (   3.2900926   2.9813045   4.7018136  )
        46           O1  tau(  46) = (   1.3039711   4.4726057   6.0039043  )
        47           O1  tau(  47) = (   5.2763189   4.4711207   6.0039473  )
        48           C1  tau(  48) = (   5.9353497   3.0583042  18.8699169  )
        49           O1  tau(  49) = (   0.1856485   3.0014673  17.6677584  )
        50           H1  tau(  50) = (   4.9577780   2.6849493  18.5881267  )
        51           H1  tau(  51) = (   1.1185258   3.1466834  17.9024234  )
        52           H1  tau(  52) = (   6.3707541   2.4080388  19.6265123  )
        53           H1  tau(  53) = (   5.8722695   4.0904670  19.2075282  )
        54           O1  tau(  54) = (   3.1419305   5.9539177  18.1124628  )
        55           H1  tau(  55) = (   2.2021640   0.0520986  18.3590109  )

     number of k points=    10  Fermi-Dirac smearing, width (Ry)=  0.0073
                       cart. coord. in units 2pi/alat
        k(    1) = (   0.0000000   0.0000000   0.0000000), wk =   0.1250000
        k(    2) = (   0.0000000   0.0419351   0.0000000), wk =   0.2500000
        k(    3) = (   0.0000000  -0.0838702   0.0000000), wk =   0.1250000
        k(    4) = (   0.0379955   0.0000049   0.0000000), wk =   0.2500000
        k(    5) = (   0.0379955   0.0419400   0.0000000), wk =   0.2500000
        k(    6) = (   0.0379955  -0.0838652   0.0000000), wk =   0.2500000
        k(    7) = (   0.0379955  -0.0419301   0.0000000), wk =   0.2500000
        k(    8) = (  -0.0759910  -0.0000099   0.0000000), wk =   0.1250000
        k(    9) = (  -0.0759910   0.0419252   0.0000000), wk =   0.2500000
        k(   10) = (  -0.0759910  -0.0838800   0.0000000), wk =   0.1250000

     Initial potential from superposition of free atoms

     starting charge  382.99916, renormalised to  399.00000

     negative rho (up, down):  1.653E-02 0.000E+00

     %%%%%%%%%%%%%%%%%%%%%%%%%%%%%%%%%%%%%%%%%%%%%%%%%%%%%%%%%%%%%%%%%%%%%%%%
     %                                                                      %
     % You are using vdW-DF, which was implemented by the Thonhauser group. %
     % Please cite the following two papers that made this development      %
     % possible and the two reviews that describe the various versions:     %
     %                                                                      %
     %   T. Thonhauser et al., PRL 115, 136402 (2015).                      %
     %   T. Thonhauser et al., PRB 76, 125112 (2007).                       %
     %   K. Berland et al., Rep. Prog. Phys. 78, 066501 (2015).             %
     %   D.C. Langreth et al., J. Phys.: Condens. Matter 21, 084203 (2009). %
     %                                                                      %
     %                                                                      %
     % If you are calculating the stress with vdW-DF, please also cite:     %
     %                                                                      %
     %   R. Sabatini et al., J. Phys.: Condens. Matter 24, 424209 (2012).   %
     %                                                                      %
     %%%%%%%%%%%%%%%%%%%%%%%%%%%%%%%%%%%%%%%%%%%%%%%%%%%%%%%%%%%%%%%%%%%%%%%%

     Adding external electric field

     Computed dipole along edir(3) :
        Dipole              -10.2329 Ry au,        -26.0096 Debye
        Dipole field         -0.0193 Ry au,

        Potential amp.        1.7901 Ry
        Total length         46.3494 bohr

     Starting wfcs are  301 atomic wfcs
  @ DRIVER MODE: Message from server: STATUS
  @ DRIVER MODE: Message from server: POSDATA
  @ DRIVER MODE: Reading and sharing cell
  @ DRIVER MODE: Reading and sharing positions
  @ DRIVER MODE: Received positions

     Self-consistent Calculation

     iteration #  1     ecut=    29.40 Ry     beta= 0.05
     Davidson diagonalization with overlap
     c_bands:  3 eigenvalues not converged
     c_bands:  3 eigenvalues not converged
     c_bands:  4 eigenvalues not converged
     c_bands:  1 eigenvalues not converged
     c_bands:  5 eigenvalues not converged
     c_bands:  5 eigenvalues not converged
     c_bands:  4 eigenvalues not converged
     c_bands:  4 eigenvalues not converged
     c_bands:  4 eigenvalues not converged
     ethr =  1.00E-05,  avg # of iterations = 21.1

[...]

     total energy              =   -2463.86013209 Ry
     estimated scf accuracy    <    5598.11022512 Ry

     iteration #  2     ecut=    29.40 Ry     beta= 0.05
     Davidson diagonalization with overlap
     ethr =  1.00E-02,  avg # of iterations = 24.7

[...]

     iteration # 57     ecut=    29.40 Ry     beta= 0.05
     Davidson diagonalization with overlap
     c_bands:  1 eigenvalues not converged
     ethr =  4.69E-08,  avg # of iterations = 13.3

[...]

     total energy              =   -2966.27815146 Ry
     estimated scf accuracy    <       0.00000013 Ry

     iteration # 74     ecut=    29.40 Ry     beta= 0.05
     Davidson diagonalization with overlap
     ethr =  2.04E-11,  avg # of iterations =  2.3

     negative rho (up, down):  1.670E-02 0.000E+00

     Adding external electric field

     Computed dipole along edir(3) :
        Dipole                1.0494 Ry au,          2.6673 Debye
        Dipole field          0.0020 Ry au,

        Potential amp.       -0.1836 Ry
        Total length         46.3494 bohr

     End of self-consistent calculation

          k = 0.0000 0.0000 0.0000 ( 18029 PWs)   bands (ev):

   -55.6995 -55.6291 -55.5942 -55.5149 -55.4910 -55.4639 -55.4317 -55.4243
   -55.4200 -55.4075 -55.3953 -55.3679 -55.2821 -55.2103 -54.5871 -54.5531
   -32.1081 -32.0903 -32.0106 -31.9995 -31.9564 -31.9471 -31.9191 -31.9168
   -31.8894 -31.8728 -31.8637 -31.7911 -31.7885 -31.7826 -31.7554 -31.7375
   -31.7302 -31.7185 -31.7083 -31.6953 -31.6920 -31.6877 -31.6436 -31.6428
   -31.6412 -31.6337 -31.6288 -31.6219 -31.6098 -31.5936 -31.5888 -31.5789
   -31.5730 -31.5577 -31.5536 -31.5440 -31.5333 -31.5096 -31.4707 -31.4543
   -31.4220 -31.4148 -30.9933 -30.9074 -30.8848 -30.8103 -30.7239 -30.6123
   -20.0622 -16.4989 -16.2817 -16.1022 -15.9011 -15.8379 -15.7794 -15.5911
   -15.5158 -15.3750 -15.2302 -15.2176 -15.1631 -15.1628 -15.1541 -15.1310
   -15.1001 -15.0561 -15.0466 -15.0406 -15.0350 -14.9795 -14.9376 -14.9292
   -14.9228 -14.8821 -14.7538 -14.7134 -14.6572 -14.4870 -14.4430 -13.0871
   -12.9710 -10.9315  -6.7714  -4.9667  -4.7717  -4.0104  -3.6344  -3.5338
    -3.5159  -3.4535  -3.3973  -3.1848  -3.0664  -3.0131  -2.9007  -2.7740
    -2.7351  -2.6804  -2.6550  -2.5633  -2.5414  -2.5110  -2.4866  -2.4284
    -2.3991  -2.3910  -2.3787  -2.3067  -2.2970  -2.1671  -2.1629  -2.0896
    -2.0213  -2.0003  -1.9815  -1.9635  -1.9319  -1.9313  -1.8852  -1.8645
    -1.8431  -1.8106  -1.7396  -1.7190  -1.6582  -1.6178  -1.3839  -1.2228
    -1.2002  -1.1300  -1.1126  -1.0809  -1.0435  -1.0286  -1.0227  -0.9846
    -0.9681  -0.8588  -0.7633  -0.7510  -0.6901  -0.6506  -0.6495  -0.5164
    -0.4671  -0.3947  -0.3687  -0.3431  -0.3202  -0.2280  -0.1853  -0.1680
    -0.1044  -0.0735   0.0374   0.0770   0.0947   0.1335   0.1889   0.2572
     0.2874   0.3241   0.3320   0.3643   0.4133   0.4380   0.4708   0.4980
     0.5365   0.6413   0.6809   0.6963   0.8403   0.8419   0.9295   1.0565
     1.1046   1.3856   1.4377   1.4756   1.6306   2.0053   2.0514   3.4897
     3.6067   3.6173   3.6356   3.7060   3.7962   3.9518   3.9799   4.0513
     4.1459

[...]

          k = 0.0380-0.0419 0.0000 ( 17876 PWs)   bands (ev):

[...]

          k =-0.0760-0.0000 0.0000 ( 17886 PWs)   bands (ev):

[...]

          k =-0.0760-0.0839 0.0000 ( 17948 PWs)   bands (ev):

   -55.6987 -55.6156 -55.6076 -55.5080 -55.4862 -55.4705 -55.4250 -55.4245
   -55.4191 -55.4074 -55.3983 -55.3773 -55.2781 -55.2142 -54.5703 -54.5699
   -32.0098 -31.9516 -31.9426 -31.9274 -31.9196 -31.9157 -31.9118 -31.8978
   -31.8310 -31.8298 -31.7944 -31.7644 -31.7599 -31.7523 -31.7358 -31.7354
   -31.7304 -31.7274 -31.7248 -31.7147 -31.7123 -31.7098 -31.6979 -31.6960
   -31.6686 -31.6663 -31.6326 -31.6277 -31.6265 -31.6263 -31.6161 -31.6120
   -31.6056 -31.6037 -31.5968 -31.5957 -31.5937 -31.5574 -31.5376 -31.4750
   -31.4614 -31.4188 -30.8977 -30.8974 -30.8070 -30.8055 -30.7673 -30.7664
   -20.0586 -16.4727 -15.8980 -15.7539 -15.5913 -15.5731 -15.4956 -15.3999
   -15.3832 -15.3543 -15.3447 -15.3243 -15.2988 -15.2964 -15.2479 -15.1935
   -15.1516 -15.1287 -15.1243 -15.0783 -15.0689 -15.0653 -15.0096 -14.9970
   -14.9877 -14.9491 -14.8892 -14.8606 -14.7827 -14.7544 -14.6022 -13.0732
   -13.0726 -10.9336  -6.7725  -4.9481  -4.7644  -3.9739  -3.0478  -2.9748
    -2.9044  -2.8143  -2.7334  -2.6760  -2.6251  -2.6062  -2.5631  -2.5429
    -2.4724  -2.4386  -2.4311  -2.4095  -2.4073  -2.3807  -2.3649  -2.3524
    -2.3297  -2.2997  -2.2856  -2.2717  -2.2533  -2.2327  -2.2120  -2.1926
    -2.1797  -2.1690  -2.1493  -2.0415  -2.0180  -1.9815  -1.8281  -1.8166
    -1.7511  -1.7187  -1.6882  -1.6829  -1.6502  -1.6423  -1.5992  -1.4899
    -1.4616  -1.4139  -1.3591  -1.2664  -1.2614  -1.2144  -1.1618  -1.1225
    -1.0932  -1.0460  -1.0431  -0.9975  -0.8566  -0.8297  -0.7908  -0.6669
    -0.5947  -0.5794  -0.5654  -0.5483  -0.5223  -0.4751  -0.4699  -0.4133
    -0.3913  -0.3198  -0.3166  -0.2932  -0.2690  -0.1623  -0.0472   0.0438
     0.0783   0.1344   0.1744   0.2079   0.2929   0.3644   0.4477   0.5338
     0.5603   0.5709   0.6923   0.7198   0.7707   0.8229   0.8388   0.8988
     0.9316   0.9745   1.0027   1.7988   1.8121   1.8679   1.8727   3.6776
     3.9269   3.9788   3.9970   4.0097   4.0432   4.0632   4.1099   4.1277
     4.1534

     the Fermi energy is     3.5031 ev

!    total energy              =   -2966.27816616 Ry
     estimated scf accuracy    <       0.00000007 Ry
     smearing contrib. (-TS)   =      -0.02073089 Ry
     internal energy E=F+TS    =   -2966.25743526 Ry

     The total energy is F=E-TS. E is the sum of the following terms:
     one-electron contribution =  -24038.45005138 Ry
     hartree contribution      =   12111.76675550 Ry
     xc contribution           =    -490.94111103 Ry
     ewald contribution        =    9451.36489346 Ry
     electric field correction =       0.00207818 Ry

     convergence has been achieved in  74 iterations

     Forces acting on atoms (cartesian axes, Ry/au):

     atom    1 type  1   force =    -0.00039509    0.00005507    0.09455080
     atom    2 type  1   force =    -0.00032354    0.00499137   -0.17464127
     atom    3 type  2   force =     0.00082237   -0.00023646   -0.02593809
     atom    4 type  2   force =     0.00125475    0.00075023    0.05284854
     atom    5 type  2   force =    -0.01096508   -0.00285353    0.00048926
     atom    6 type  2   force =     0.01163724   -0.00410179    0.00186666
     atom    7 type  1   force =     0.00052048    0.00038533   -0.00014450
     atom    8 type  1   force =    -0.00045011    0.00019895    0.00078323
     atom    9 type  2   force =    -0.00044454    0.00027104   -0.00024376
     atom   10 type  2   force =     0.00031752   -0.00035291   -0.00045640
     atom   11 type  2   force =     0.00061950    0.00031998   -0.00023347
     atom   12 type  2   force =    -0.00038749   -0.00046169   -0.00038497
     atom   13 type  1   force =    -0.00129878   -0.00080543    0.00032829
     atom   14 type  1   force =     0.00028948    0.00012425    0.00057377
     atom   15 type  2   force =     0.00048219    0.00067178    0.00016837
     atom   16 type  2   force =    -0.00048470    0.00054601    0.00068927
     atom   17 type  2   force =     0.00004788    0.00033644    0.00008849
     atom   18 type  2   force =    -0.00027955    0.00004646    0.00032509
     atom   19 type  1   force =    -0.00048086    0.00111912   -0.00021530
     atom   20 type  1   force =    -0.00009489   -0.00034764   -0.00067052
     atom   21 type  2   force =    -0.00001545    0.00005314    0.10307211
     atom   22 type  2   force =    -0.00047237   -0.00058164   -0.00049478
     atom   23 type  2   force =    -0.07205243    0.00004661   -0.02789590
     atom   24 type  2   force =     0.07190986    0.00053675   -0.02800347
     atom   25 type  1   force =    -0.00043922   -0.00000071    0.10113805
     atom   26 type  1   force =    -0.00006651   -0.00461045   -0.17490326
     atom   27 type  2   force =     0.00089659    0.00114530   -0.02442631
     atom   28 type  2   force =     0.00113639    0.00014999    0.05241577
     atom   29 type  2   force =    -0.01184940    0.00306420    0.00195734
     atom   30 type  2   force =     0.01325685    0.00116371    0.00309195
     atom   31 type  1   force =     0.00058136    0.00002645   -0.00053911
     atom   32 type  1   force =    -0.00036450    0.00070328    0.00048410
     atom   33 type  2   force =    -0.00020163    0.00093439    0.00018236
     atom   34 type  2   force =     0.00013922   -0.00012620   -0.00095822
     atom   35 type  2   force =     0.00034969    0.00007743    0.00053588
     atom   36 type  2   force =     0.00008445    0.00016738    0.00047346
     atom   37 type  1   force =    -0.00145362   -0.00059900    0.00030594
     atom   38 type  1   force =     0.00077707   -0.00029615   -0.00015208
     atom   39 type  2   force =     0.00044249   -0.00021558    0.00122121
     atom   40 type  2   force =    -0.00010664    0.00034671    0.00049215
     atom   41 type  2   force =    -0.00051350   -0.00001129   -0.00065670
     atom   42 type  2   force =    -0.00001904   -0.00024582   -0.00058158
     atom   43 type  1   force =    -0.00053062   -0.00024134   -0.00021230
     atom   44 type  1   force =    -0.00018794   -0.00038896   -0.00115146
     atom   45 type  2   force =    -0.00001315    0.00013027    0.10265329
     atom   46 type  2   force =    -0.07202257   -0.00056310   -0.02787697
     atom   47 type  2   force =     0.07187483   -0.00007324   -0.02796013
     atom   48 type  3   force =     0.00012678   -0.00094328   -0.00135636
     atom   49 type  2   force =    -0.00079198   -0.00043022   -0.00082101
     atom   50 type  4   force =     0.00011934   -0.00012025   -0.00004952
     atom   51 type  4   force =    -0.00008293   -0.00010238   -0.00034452
     atom   52 type  4   force =    -0.00006621   -0.00000887   -0.00000273
     atom   53 type  4   force =    -0.00081501    0.00056598   -0.00005823
     atom   54 type  2   force =    -0.00329232    0.00035451    0.00232431
     atom   55 type  4   force =     0.00327537   -0.00056419   -0.00168675

     Total force =     0.364424     Total SCF correction =     0.000627
  @ DRIVER MODE: Message from server: STATUS
  @ DRIVER MODE: Message from server: GETFORCE
  @ DRIVER MODE: Returning v,forces,stress,ensemble

     Writing output data file ./calc.save/
  @ DRIVER MODE: Message from server: EXIT
  @ DRIVE MODE: Exiting

     General routines

     Parallel routines

   This run was terminated on:  17:32:58  23Sep2021

   JOB DONE.