     Program PWSCF v.6.7GPU starts on 28Sep2021 at  1:15:34

     R & G space division:  proc/nbgrp/npool/nimage =       8
     Reading input from /storage/home/hcoda1/3/ntian30/research/carbon/CxH_vib/CH_calc/ads_slab/CHONH_a/out_0008/pw.inp
Warning: card &CELL ignored
Warning: card   CELL_DYNAMICS='IPI', ignored
Warning: card / ignored

     Current dimensions of program PWSCF are:
     Max number of different atomic species (ntypx) = 10
     Max number of k-points (npk) =  40000
     Max angular momentum in pseudopotentials (lmaxx) =  3
     Presently no symmetry can be used with electric field

     Message from routine cell_base_init:
     DEPRECATED: use true lattice parameter, not A to a.u. conversion factor

     IMPORTANT: XC functional enforced from input :
     Exchange-correlation= BEEF-VDW
                           (   1   4  43  14   2   0   0)
     Any further DFT definition will be discarded
     Please, verify this is what you really want

  @ DRIVER MODE: Connecting to
 qe_1139763_3003539.sched-torque.pace.gatech.eduxmy3ewk3_scratch
  using UNIX socket
  @ DRIVER MODE: Message from server: STATUS
  @ DRIVER MODE: Message from server: INIT
  @ DRIVER MODE: Receiving replica           0          -1
  @ DRIVER MODE: Receiving encoded integer          25
  @ DRIVER MODE:  SCF:  T  FORCE:  T  STRESS:  F  VC:  F  ENSEMBLE:  F
  @ DRIVER MODE:  SCF:  T  FORCE:  T  STRESS:  F  VC:  F  ENSEMBLE:  F

     Using Slab Decomposition

     bravais-lattice index     =            0
     lattice parameter (alat)  =       1.8897  a.u.
     unit-cell volume          =    6658.9804 (a.u.)^3
     number of atoms/cell      =           52
     number of atomic types    =            5
     number of electrons       =       395.00
     number of Kohn-Sham states=          207
     kinetic-energy cutoff     =      29.3995  Ry
     charge density cutoff     =     293.9946  Ry
     scf convergence threshold =      7.3E-08
     mixing beta               =       0.0500
     number of iterations used =            8  plain     mixing
     Exchange-correlation= BEEF-VDW
                           (   1   4  43  14   2   0   0)

     celldm(1)=   1.889726  celldm(2)=   0.000000  celldm(3)=   0.000000
     celldm(4)=   0.000000  celldm(5)=   0.000000  celldm(6)=   0.000000

     crystal axes: (cart. coord. in units of alat)
               a(1) = (   6.579727   0.000000   0.000000 )
               a(2) = (  -0.000775   5.961596   0.000000 )
               a(3) = (   0.000000   0.000000  25.155947 )

     reciprocal axes: (cart. coord. in units 2 pi/alat)
               b(1) = (  0.151982  0.000020  0.000000 )
               b(2) = (  0.000000  0.167740  0.000000 )
               b(3) = (  0.000000  0.000000  0.039752 )

     PseudoPot. # 1 for O  read from file:
     /storage/coda1/p-amedford6/0/shared/rich_project_chbe-medford/medford-share/data/pseudos_module/espresso/nninc/pbe/van/O.UPF
     MD5 check sum: 78c19812648e8988a0fe644b0f25305e
     Pseudo is Ultrasoft, Zval =  6.0
     Generated by new atomic code, or converted to UPF format
     Using radial grid of  737 points,  4 beta functions with:
                l(1) =   0
                l(2) =   0
                l(3) =   1
                l(4) =   1
     Q(r) pseudized with  8 coefficients,  rinner =    0.800   0.800   0.800

     PseudoPot. # 2 for Ti read from file:
     /storage/coda1/p-amedford6/0/shared/rich_project_chbe-medford/medford-share/data/pseudos_module/espresso/nninc/pbe/van/Ti.UPF
     MD5 check sum: 8e4df49b7f0d34bbd5052bf3f5ea0213
     Pseudo is Ultrasoft, Zval = 12.0
     Generated by new atomic code, or converted to UPF format
     Using radial grid of  851 points,  6 beta functions with:
                l(1) =   0
                l(2) =   0
                l(3) =   1
                l(4) =   1
                l(5) =   2
                l(6) =   2
     Q(r) pseudized with  8 coefficients,  rinner =    1.000   1.000   1.000
                                                       1.000   1.000

     PseudoPot. # 3 for N  read from file:
     /storage/coda1/p-amedford6/0/shared/rich_project_chbe-medford/medford-share/data/pseudos_module/espresso/nninc/pbe/van/N.UPF
     MD5 check sum: 90d10febe142ad51ac9d5be1deb811c4
     Pseudo is Ultrasoft, Zval =  5.0
     Generated by new atomic code, or converted to UPF format
     Using radial grid of  729 points,  4 beta functions with:
                l(1) =   0
                l(2) =   0
                l(3) =   1
                l(4) =   1
     Q(r) pseudized with  8 coefficients,  rinner =    0.800   0.800   0.800

     PseudoPot. # 4 for H  read from file:
     /storage/coda1/p-amedford6/0/shared/rich_project_chbe-medford/medford-share/data/pseudos_module/espresso/nninc/pbe/van/H.UPF
     MD5 check sum: b5ee9d7bfd3a09ee7748110bda690ff7
     Pseudo is Ultrasoft, Zval =  1.0
     Generated by new atomic code, or converted to UPF format
     Using radial grid of  615 points,  1 beta functions with:
                l(1) =   0
     Q(r) pseudized with  8 coefficients,  rinner =    0.800

     PseudoPot. # 5 for C  read from file:
     /storage/coda1/p-amedford6/0/shared/rich_project_chbe-medford/medford-share/data/pseudos_module/espresso/nninc/pbe/van/C.UPF
     MD5 check sum: 1a69bf6b8db32088f5b2163dbdb77a27
     Pseudo is Ultrasoft, Zval =  4.0
     Generated by new atomic code, or converted to UPF format
     Using radial grid of  721 points,  4 beta functions with:
                l(1) =   0
                l(2) =   0
                l(3) =   1
                l(4) =   1
     Q(r) pseudized with  8 coefficients,  rinner =    0.800   0.800   0.800

     atomic species   valence    mass     pseudopotential
        O1             6.00    15.99900     O ( 1.00)
        Ti1           12.00    47.86700     Ti( 1.00)
        N1             5.00    14.00700     N ( 1.00)
        H1             1.00     1.00800     H ( 1.00)
        C1             4.00    12.01100     C ( 1.00)

     No symmetry found

   Cartesian axes

     site n.     atom                  positions (alat units)
         1           O1  tau(   1) = (   3.2904802   0.0005063   4.7018136  )
         2           O1  tau(   2) = (   3.2900926   2.9813045   4.7018136  )
         3           Ti1 tau(   3) = (   0.0004258   2.9801865   6.0000000  )
         4           Ti1 tau(   4) = (   0.0000382   5.9609847   6.0000000  )
         5           Ti1 tau(   5) = (   3.2906075   1.4906267   6.0002472  )
         6           Ti1 tau(   6) = (   3.2902200   4.4714249   6.0002472  )
         7           O1  tau(   7) = (   1.3043587   1.4918075   6.0039043  )
         8           O1  tau(   8) = (   1.3039711   4.4726057   6.0039043  )
         9           O1  tau(   9) = (   5.2767064   1.4903225   6.0039473  )
        10           O1  tau(  10) = (   5.2763189   4.4711207   6.0039473  )
        11           O1  tau(  11) = (   3.2906025   0.0005020   7.3038282  )
        12           O1  tau(  12) = (   3.2902150   2.9813002   7.3038282  )
        13           O1  tau(  13) = (   0.0006271   0.0005054   7.9858123  )
        14           O1  tau(  14) = (   0.0002396   2.9813036   7.9858123  )
        15           Ti1 tau(  15) = (   3.2907910   2.8959150   9.1758416  )
        16           Ti1 tau(  16) = (   3.2891106   5.8743827   9.1763621  )
        17           Ti1 tau(  17) = (   0.0015273   1.4827037   9.2680791  )
        18           Ti1 tau(  18) = (   0.0006254   4.4649316   9.2693709  )
        19           O1  tau(  19) = (   4.5942328   1.4918067   9.2879030  )
        20           O1  tau(  20) = (   4.5938453   4.4726049   9.2879030  )
        21           O1  tau(  21) = (   1.9868534   1.4903216   9.2879459  )
        22           O1  tau(  22) = (   1.9864658   4.4711199   9.2879459  )
        23           O1  tau(  23) = (   0.0116148   5.9584955  10.6183126  )
        24           O1  tau(  24) = (   0.0092240   2.9805883  10.6323155  )
        25           O1  tau(  25) = (   3.2907787   2.9729778  11.3304428  )
        26           O1  tau(  26) = (   3.2919079   5.9474133  11.3321580  )
        27           Ti1 tau(  27) = (   3.2097987   4.4572658  12.4865812  )
        28           Ti1 tau(  28) = (   3.2119315   1.4761680  12.4799496  )
        29           Ti1 tau(  29) = (   6.5264509   5.9216213  12.6328416  )
        30           O1  tau(  30) = (   5.2968352   1.4901136  12.6152109  )
        31           O1  tau(  31) = (   1.3135328   1.4919602  12.6192607  )
        32           O1  tau(  32) = (   5.3002941   4.4568025  12.6330795  )
        33           O1  tau(  33) = (   1.3069994   4.4674097  12.6333468  )
        34           Ti1 tau(  34) = (   6.5276633   2.9456522  12.5459445  )
        35           O1  tau(  35) = (   3.2998384   2.9660209  13.9106595  )
        36           O1  tau(  36) = (   3.3025942   5.9420417  13.9122833  )
        37           O1  tau(  37) = (   6.5640883   0.0415230  14.6395465  )
        38           O1  tau(  38) = (   0.0106891   2.9491072  14.6900936  )
        39           Ti1 tau(  39) = (   3.2736000   2.9502234  15.7069571  )
        40           Ti1 tau(  40) = (   3.3003751   5.9266233  15.7109206  )
        41           Ti1 tau(  41) = (   6.5634422   4.2760099  16.1499291  )
        42           O1  tau(  42) = (   2.0584629   4.4329444  16.0623798  )
        43           O1  tau(  43) = (   4.5473560   4.4405029  16.0785460  )
        44           O1  tau(  44) = (   2.0586626   1.4574935  16.0341320  )
        45           O1  tau(  45) = (   4.5465401   1.4531303  16.0599029  )
        46           Ti1 tau(  46) = (   6.5663670   1.4428561  15.8472210  )
        47           O1  tau(  47) = (   0.0528285   5.9376273  17.3175539  )
        48           N1  tau(  48) = (   2.9241058   0.2315137  18.9516947  )
        49           H1  tau(  49) = (   0.7923102   0.0278888  17.9584184  )
        50           H1  tau(  50) = (   4.9006910   1.2352932  19.1031722  )
        51           C1  tau(  51) = (   3.9482889   0.7533229  19.0539995  )
        52           O1  tau(  52) = (   0.0046524   2.9249380  17.2371169  )

     number of k points=    10  Fermi-Dirac smearing, width (Ry)=  0.0073
                       cart. coord. in units 2pi/alat
        k(    1) = (   0.0000000   0.0000000   0.0000000), wk =   0.1250000
        k(    2) = (   0.0000000   0.0419351   0.0000000), wk =   0.2500000
        k(    3) = (   0.0000000  -0.0838702   0.0000000), wk =   0.1250000
        k(    4) = (   0.0379955   0.0000049   0.0000000), wk =   0.2500000
        k(    5) = (   0.0379955   0.0419400   0.0000000), wk =   0.2500000
        k(    6) = (   0.0379955  -0.0838652   0.0000000), wk =   0.2500000
        k(    7) = (   0.0379955  -0.0419301   0.0000000), wk =   0.2500000
        k(    8) = (  -0.0759910  -0.0000099   0.0000000), wk =   0.1250000
        k(    9) = (  -0.0759910   0.0419252   0.0000000), wk =   0.2500000
        k(   10) = (  -0.0759910  -0.0838800   0.0000000), wk =   0.1250000

     Initial potential from superposition of free atoms

     starting charge  378.99918, renormalised to  395.00000

     negative rho (up, down):  1.730E-02 0.000E+00

     %%%%%%%%%%%%%%%%%%%%%%%%%%%%%%%%%%%%%%%%%%%%%%%%%%%%%%%%%%%%%%%%%%%%%%%%
     %                                                                      %
     % You are using vdW-DF, which was implemented by the Thonhauser group. %
     % Please cite the following two papers that made this development      %
     % possible and the two reviews that describe the various versions:     %
     %                                                                      %
     %   T. Thonhauser et al., PRL 115, 136402 (2015).                      %
     %   T. Thonhauser et al., PRB 76, 125112 (2007).                       %
     %   K. Berland et al., Rep. Prog. Phys. 78, 066501 (2015).             %
     %   D.C. Langreth et al., J. Phys.: Condens. Matter 21, 084203 (2009). %
     %                                                                      %
     %                                                                      %
     % If you are calculating the stress with vdW-DF, please also cite:     %
     %                                                                      %
     %   R. Sabatini et al., J. Phys.: Condens. Matter 24, 424209 (2012).   %
     %                                                                      %
     %%%%%%%%%%%%%%%%%%%%%%%%%%%%%%%%%%%%%%%%%%%%%%%%%%%%%%%%%%%%%%%%%%%%%%%%

     Adding external electric field

     Computed dipole along edir(3) :
        Dipole               -8.2751 Ry au,        -21.0333 Debye
        Dipole field         -0.0156 Ry au,

        Potential amp.        1.4476 Ry
        Total length         46.3494 bohr

     Starting wfcs are  298 atomic wfcs
  @ DRIVER MODE: Message from server: STATUS
  @ DRIVER MODE: Message from server: POSDATA
  @ DRIVER MODE: Reading and sharing cell
  @ DRIVER MODE: Reading and sharing positions
  @ DRIVER MODE: Received positions

     Self-consistent Calculation

     iteration #  1     ecut=    29.40 Ry     beta= 0.05
     Davidson diagonalization with overlap
     c_bands:  1 eigenvalues not converged
     c_bands:  1 eigenvalues not converged
     c_bands:  1 eigenvalues not converged
     c_bands:  3 eigenvalues not converged
     c_bands:  3 eigenvalues not converged
     c_bands:  2 eigenvalues not converged
     c_bands:  1 eigenvalues not converged
     ethr =  1.00E-05,  avg # of iterations = 19.3

[...]

     total energy              =   -2630.91949666 Ry
     estimated scf accuracy    <    3535.35881739 Ry

[...]

     iteration #  3     ecut=    29.40 Ry     beta= 0.05
     Davidson diagonalization with overlap
     ethr =  1.00E-02,  avg # of iterations = 14.5

[...]

     iteration # 65     ecut=    29.40 Ry     beta= 0.05
     Davidson diagonalization with overlap
     c_bands:  3 eigenvalues not converged
     c_bands:  1 eigenvalues not converged
     ethr =  1.99E-11,  avg # of iterations = 16.0

[...]

     total energy              =   -2950.31357487 Ry
     estimated scf accuracy    <       0.00000008 Ry

     iteration # 66     ecut=    29.40 Ry     beta= 0.05
     Davidson diagonalization with overlap
     ethr =  1.99E-11,  avg # of iterations = 10.5

     negative rho (up, down):  1.724E-02 0.000E+00

     Adding external electric field

     Computed dipole along edir(3) :
        Dipole                0.6457 Ry au,          1.6412 Debye
        Dipole field          0.0012 Ry au,

        Potential amp.       -0.1130 Ry
        Total length         46.3494 bohr

     End of self-consistent calculation

          k = 0.0000 0.0000 0.0000 ( 18029 PWs)   bands (ev):

   -55.9713 -55.9645 -55.9372 -55.9284 -55.8466 -55.8228 -55.8083 -55.7882
   -55.7799 -55.7460 -55.7448 -55.7109 -55.6684 -55.4324 -54.9486 -54.9145
   -32.5185 -32.4537 -32.3220 -32.3052 -32.2793 -32.2764 -32.2642 -32.2354
   -32.2140 -32.1884 -32.1796 -32.1689 -32.1442 -32.1234 -32.1154 -32.1136
   -32.1040 -32.0850 -32.0756 -32.0615 -32.0346 -32.0284 -32.0284 -31.9831
   -31.9790 -31.9763 -31.9692 -31.9682 -31.9600 -31.9467 -31.9362 -31.9200
   -31.9147 -31.9133 -31.8977 -31.8879 -31.8844 -31.8800 -31.8569 -31.6971
   -31.6651 -31.6488 -31.3557 -31.2674 -31.2450 -31.1724 -31.0859 -30.9749
   -17.0306 -16.7052 -16.4426 -16.2040 -16.1536 -16.1105 -16.0876 -15.9784
   -15.8118 -15.6919 -15.6395 -15.5387 -15.5301 -15.5073 -15.4731 -15.4577
   -15.4216 -15.4145 -15.4042 -15.3937 -15.3802 -15.3308 -15.3116 -15.2981
   -15.1958 -15.1459 -15.1060 -15.0861 -15.0279 -15.0163 -14.6510 -13.4510
   -13.3346  -7.8375  -4.7797  -4.0870  -3.9284  -3.8771  -3.8277  -3.8109
    -3.5799  -3.5218  -3.2105  -3.1561  -3.1413  -3.1221  -3.0921  -2.8803
    -2.8497  -2.8003  -2.7819  -2.7614  -2.7492  -2.7308  -2.7171  -2.6980
    -2.6701  -2.6125  -2.5268  -2.4843  -2.3927  -2.3622  -2.3440  -2.3026
    -2.2833  -2.2439  -2.2212  -2.2122  -2.2054  -2.1682  -2.1628  -2.1048
    -2.0450  -1.9948  -1.9644  -1.9056  -1.8341  -1.7686  -1.7039  -1.5783
    -1.4582  -1.4418  -1.3990  -1.3721  -1.3625  -1.2731  -1.2169  -1.1509
    -1.1255  -1.1199  -1.0373  -0.9917  -0.9498  -0.9367  -0.8483  -0.8158
    -0.7372  -0.7317  -0.7190  -0.6778  -0.4587  -0.4233  -0.3915  -0.3708
    -0.3155  -0.2571  -0.2237  -0.1917  -0.1519  -0.0909  -0.0750  -0.0277
    -0.0052   0.0028   0.0227   0.0427   0.0698   0.1859   0.2173   0.2785
     0.3097   0.3821   0.4360   0.5720   0.6111   0.6865   0.7939   0.9999
     1.0735   1.1612   1.2657   1.6447   1.6903   3.1643   3.2505   3.2965
     3.3041   3.4058   3.4101   3.6160   3.6374   3.6506   3.7074

[...]

          k = 0.0380-0.0419 0.0000 ( 17876 PWs)   bands (ev):

[...]

          k =-0.0760-0.0000 0.0000 ( 17886 PWs)   bands (ev):

[...]

          k =-0.0760-0.0839 0.0000 ( 17948 PWs)   bands (ev):

   -55.9550 -55.9534 -55.9480 -55.9448 -55.8357 -55.8190 -55.8078 -55.8031
   -55.7634 -55.7620 -55.7302 -55.7258 -55.6673 -55.4334 -54.9315 -54.9315
   -32.3236 -32.3196 -32.2693 -32.2685 -32.2501 -32.2491 -32.2315 -32.2250
   -32.1730 -32.1670 -32.1609 -32.1557 -32.1158 -32.1048 -32.0988 -32.0929
   -32.0814 -32.0791 -32.0746 -32.0726 -32.0690 -32.0639 -32.0406 -32.0305
   -32.0274 -32.0165 -32.0157 -32.0027 -31.9801 -31.9643 -31.9616 -31.9608
   -31.9577 -31.9450 -31.9411 -31.9386 -31.9355 -31.8876 -31.8845 -31.7595
   -31.6816 -31.6658 -31.2577 -31.2577 -31.1684 -31.1684 -31.1292 -31.1291
   -16.9634 -16.1692 -16.1419 -16.1293 -15.9167 -15.8919 -15.8800 -15.8740
   -15.7545 -15.6759 -15.6659 -15.6637 -15.5917 -15.5672 -15.5621 -15.5104
   -15.5027 -15.4954 -15.4842 -15.4566 -15.4323 -15.4264 -15.4078 -15.4026
   -15.3216 -15.2876 -15.2843 -15.2565 -15.1354 -15.0139 -14.8219 -13.4366
   -13.4363  -7.8356  -4.7349  -3.4326  -3.4246  -3.1702  -3.1276  -3.1200
    -3.0632  -2.9133  -2.8765  -2.8705  -2.8358  -2.8162  -2.7986  -2.7914
    -2.7795  -2.7581  -2.7330  -2.7125  -2.7032  -2.6677  -2.6405  -2.6295
    -2.6166  -2.6002  -2.5842  -2.5687  -2.5494  -2.5254  -2.5084  -2.4935
    -2.4569  -2.3145  -2.2205  -2.1735  -2.1157  -2.1033  -2.1001  -2.0868
    -2.0617  -2.0346  -2.0252  -1.9721  -1.9385  -1.8281  -1.7683  -1.7044
    -1.6683  -1.6551  -1.5812  -1.5306  -1.4682  -1.4032  -1.3758  -1.3593
    -1.3087  -1.2526  -1.1874  -1.1709  -1.1399  -1.0947  -1.0477  -0.9684
    -0.9605  -0.9304  -0.9269  -0.8867  -0.8233  -0.7610  -0.7350  -0.7341
    -0.7066  -0.6468  -0.5854  -0.5669  -0.4607  -0.4544  -0.3378  -0.2953
    -0.0470   0.0092   0.0531   0.1009   0.1152   0.1799   0.2146   0.3342
     0.3436   0.3553   0.3941   0.4109   0.4280   0.5620   0.5756   0.6047
     0.7431   1.4376   1.4378   1.5097   1.5105   3.4647   3.4727   3.4998
     3.5176   3.6723   3.6756   3.6962   3.6975   3.8185   3.8440

     the Fermi energy is     3.1628 ev

!    total energy              =   -2950.31359812 Ry
     estimated scf accuracy    <       0.00000002 Ry
     smearing contrib. (-TS)   =      -0.02173446 Ry
     internal energy E=F+TS    =   -2950.29186366 Ry

     The total energy is F=E-TS. E is the sum of the following terms:
     one-electron contribution =  -24387.16433667 Ry
     hartree contribution      =   12280.64469969 Ry
     xc contribution           =    -486.33308517 Ry
     ewald contribution        =    9642.56007169 Ry
     electric field correction =       0.00078680 Ry

     convergence has been achieved in  66 iterations

     Forces acting on atoms (cartesian axes, Ry/au):

     atom    1 type  1   force =     0.00006685    0.00002387    0.10324239
     atom    2 type  1   force =     0.00007215    0.00004483    0.10321431
     atom    3 type  2   force =     0.00013691   -0.00031893    0.09681928
     atom    4 type  2   force =    -0.00007495   -0.00021702    0.09611251
     atom    5 type  2   force =     0.00012663   -0.00039464   -0.17538265
     atom    6 type  2   force =    -0.00001257   -0.00041305   -0.17548884
     atom    7 type  1   force =    -0.07150189   -0.00009005   -0.02769095
     atom    8 type  1   force =    -0.07153777   -0.00004024   -0.02770760
     atom    9 type  1   force =     0.07141306    0.00035547   -0.02776371
     atom   10 type  1   force =     0.07143290    0.00042345   -0.02775311
     atom   11 type  1   force =    -0.00001293   -0.00140776    0.05312803
     atom   12 type  1   force =     0.00001208   -0.00120362    0.05250728
     atom   13 type  1   force =     0.00009078   -0.00013948   -0.02457791
     atom   14 type  1   force =     0.00019652   -0.00012320   -0.02392149
     atom   15 type  2   force =     0.00042950    0.00062562   -0.01183193
     atom   16 type  2   force =     0.00057484    0.00308703   -0.01206161
     atom   17 type  2   force =     0.00035134   -0.01478327    0.02783354
     atom   18 type  2   force =     0.00037478    0.01324693    0.02790466
     atom   19 type  1   force =    -0.01207083    0.00073159    0.00326312
     atom   20 type  1   force =    -0.01218948   -0.00138466    0.00304759
     atom   21 type  1   force =     0.01357138    0.00131198    0.00277635
     atom   22 type  1   force =     0.01356231   -0.00098688    0.00248509
     atom   23 type  1   force =    -0.00335839    0.00071137   -0.01815007
     atom   24 type  1   force =    -0.00198052    0.00036710   -0.02016268
     atom   25 type  1   force =    -0.00014025   -0.00000306    0.00005766
     atom   26 type  1   force =    -0.00001986    0.00010505    0.00006013
     atom   27 type  2   force =     0.00004692   -0.00003321   -0.00009220
     atom   28 type  2   force =     0.00010003    0.00004221   -0.00003457
     atom   29 type  2   force =    -0.00012519    0.00000672   -0.00001653
     atom   30 type  1   force =     0.00004288   -0.00003426    0.00000688
     atom   31 type  1   force =     0.00008520   -0.00000564    0.00003738
     atom   32 type  1   force =    -0.00000607   -0.00010077   -0.00005754
     atom   33 type  1   force =     0.00006628    0.00004563    0.00005906
     atom   34 type  2   force =    -0.00007302   -0.00010144    0.00010187
     atom   35 type  1   force =     0.00004334    0.00006459   -0.00002626
     atom   36 type  1   force =    -0.00003495    0.00002573   -0.00014443
     atom   37 type  1   force =    -0.00001295   -0.00010358   -0.00016998
     atom   38 type  1   force =     0.00011441    0.00002903   -0.00020331
     atom   39 type  2   force =    -0.00000984    0.00007225   -0.00020968
     atom   40 type  2   force =     0.00016529    0.00003547   -0.00009077
     atom   41 type  2   force =     0.00011731    0.00023673    0.00000489
     atom   42 type  1   force =     0.00005619    0.00008652    0.00002518
     atom   43 type  1   force =     0.00004417    0.00005611    0.00007563
     atom   44 type  1   force =     0.00012473   -0.00000249    0.00016027
     atom   45 type  1   force =     0.00005298    0.00001915    0.00004012
     atom   46 type  2   force =     0.00006598   -0.00001735    0.00003044
     atom   47 type  1   force =     0.01051411    0.00063008    0.00908284
     atom   48 type  3   force =    -0.00032126    0.00150616    0.00085080
     atom   49 type  4   force =    -0.01064704   -0.00069080   -0.00883255
     atom   50 type  4   force =     0.00018722   -0.00064345   -0.00025761
     atom   51 type  5   force =    -0.00024620   -0.00061947   -0.00027935
     atom   52 type  1   force =     0.00013688   -0.00003235   -0.00001997

     Total force =     0.368557     Total SCF correction =     0.000334
  @ DRIVER MODE: Message from server: STATUS
  @ DRIVER MODE: Message from server: GETFORCE
  @ DRIVER MODE: Returning v,forces,stress,ensemble

     Writing output data file ./calc.save/
  @ DRIVER MODE: Message from server: EXIT
  @ DRIVE MODE: Exiting

     General routines

     Parallel routines

   This run was terminated on:   1:39:49  28Sep2021

   JOB DONE.