     Program PWSCF v.6.7GPU starts on 27Sep2021 at  7:30:36

     R & G space division:  proc/nbgrp/npool/nimage =       8
     Reading input from /storage/home/hcoda1/3/ntian30/research/carbon/CxH_vib/CH_calc/ads_slab/CHONNHH_a/out_0035/pw.inp
Warning: card &CELL ignored
Warning: card   CELL_DYNAMICS='IPI', ignored
Warning: card / ignored

     Current dimensions of program PWSCF are:
     Max number of different atomic species (ntypx) = 10
     Max number of k-points (npk) =  40000
     Max angular momentum in pseudopotentials (lmaxx) =  3
     Presently no symmetry can be used with electric field

     Message from routine cell_base_init:
     DEPRECATED: use true lattice parameter, not A to a.u. conversion factor

     IMPORTANT: XC functional enforced from input :
     Exchange-correlation= BEEF-VDW
                           (   1   4  43  14   2   0   0)
     Any further DFT definition will be discarded
     Please, verify this is what you really want

  @ DRIVER MODE: Connecting to
 qe_1139763_2985878.sched-torque.pace.gatech.edurg0jiy_b_scratch
  using UNIX socket
  @ DRIVER MODE: Message from server: STATUS
  @ DRIVER MODE: Message from server: INIT
  @ DRIVER MODE: Receiving replica           0          -1
  @ DRIVER MODE: Receiving encoded integer          25
  @ DRIVER MODE:  SCF:  T  FORCE:  T  STRESS:  F  VC:  F  ENSEMBLE:  F
  @ DRIVER MODE:  SCF:  T  FORCE:  T  STRESS:  F  VC:  F  ENSEMBLE:  F

     Using Slab Decomposition

     bravais-lattice index     =            0
     lattice parameter (alat)  =       1.8897  a.u.
     unit-cell volume          =    6658.9804 (a.u.)^3
     number of atoms/cell      =           54
     number of atomic types    =            5
     number of electrons       =       401.00
     number of Kohn-Sham states=          210
     kinetic-energy cutoff     =      29.3995  Ry
     charge density cutoff     =     293.9946  Ry
     scf convergence threshold =      7.3E-08
     mixing beta               =       0.0500
     number of iterations used =            8  plain     mixing
     Exchange-correlation= BEEF-VDW
                           (   1   4  43  14   2   0   0)

     celldm(1)=   1.889726  celldm(2)=   0.000000  celldm(3)=   0.000000
     celldm(4)=   0.000000  celldm(5)=   0.000000  celldm(6)=   0.000000

     crystal axes: (cart. coord. in units of alat)
               a(1) = (   6.579727   0.000000   0.000000 )
               a(2) = (  -0.000775   5.961596   0.000000 )
               a(3) = (   0.000000   0.000000  25.155947 )

     reciprocal axes: (cart. coord. in units 2 pi/alat)
               b(1) = (  0.151982  0.000020  0.000000 )
               b(2) = (  0.000000  0.167740  0.000000 )
               b(3) = (  0.000000  0.000000  0.039752 )

     PseudoPot. # 1 for O  read from file:
     /storage/coda1/p-amedford6/0/shared/rich_project_chbe-medford/medford-share/data/pseudos_module/espresso/nninc/pbe/van/O.UPF
     MD5 check sum: 78c19812648e8988a0fe644b0f25305e
     Pseudo is Ultrasoft, Zval =  6.0
     Generated by new atomic code, or converted to UPF format
     Using radial grid of  737 points,  4 beta functions with:
                l(1) =   0
                l(2) =   0
                l(3) =   1
                l(4) =   1
     Q(r) pseudized with  8 coefficients,  rinner =    0.800   0.800   0.800

     PseudoPot. # 2 for Ti read from file:
     /storage/coda1/p-amedford6/0/shared/rich_project_chbe-medford/medford-share/data/pseudos_module/espresso/nninc/pbe/van/Ti.UPF
     MD5 check sum: 8e4df49b7f0d34bbd5052bf3f5ea0213
     Pseudo is Ultrasoft, Zval = 12.0
     Generated by new atomic code, or converted to UPF format
     Using radial grid of  851 points,  6 beta functions with:
                l(1) =   0
                l(2) =   0
                l(3) =   1
                l(4) =   1
                l(5) =   2
                l(6) =   2
     Q(r) pseudized with  8 coefficients,  rinner =    1.000   1.000   1.000
                                                       1.000   1.000

     PseudoPot. # 3 for N  read from file:
     /storage/coda1/p-amedford6/0/shared/rich_project_chbe-medford/medford-share/data/pseudos_module/espresso/nninc/pbe/van/N.UPF
     MD5 check sum: 90d10febe142ad51ac9d5be1deb811c4
     Pseudo is Ultrasoft, Zval =  5.0
     Generated by new atomic code, or converted to UPF format
     Using radial grid of  729 points,  4 beta functions with:
                l(1) =   0
                l(2) =   0
                l(3) =   1
                l(4) =   1
     Q(r) pseudized with  8 coefficients,  rinner =    0.800   0.800   0.800

     PseudoPot. # 4 for H  read from file:
     /storage/coda1/p-amedford6/0/shared/rich_project_chbe-medford/medford-share/data/pseudos_module/espresso/nninc/pbe/van/H.UPF
     MD5 check sum: b5ee9d7bfd3a09ee7748110bda690ff7
     Pseudo is Ultrasoft, Zval =  1.0
     Generated by new atomic code, or converted to UPF format
     Using radial grid of  615 points,  1 beta functions with:
                l(1) =   0
     Q(r) pseudized with  8 coefficients,  rinner =    0.800

     PseudoPot. # 5 for C  read from file:
     /storage/coda1/p-amedford6/0/shared/rich_project_chbe-medford/medford-share/data/pseudos_module/espresso/nninc/pbe/van/C.UPF
     MD5 check sum: 1a69bf6b8db32088f5b2163dbdb77a27
     Pseudo is Ultrasoft, Zval =  4.0
     Generated by new atomic code, or converted to UPF format
     Using radial grid of  721 points,  4 beta functions with:
                l(1) =   0
                l(2) =   0
                l(3) =   1
                l(4) =   1
     Q(r) pseudized with  8 coefficients,  rinner =    0.800   0.800   0.800

     atomic species   valence    mass     pseudopotential
        O1             6.00    15.99900     O ( 1.00)
        Ti1           12.00    47.86700     Ti( 1.00)
        N1             5.00    14.00700     N ( 1.00)
        H1             1.00     1.00800     H ( 1.00)
        C1             4.00    12.01100     C ( 1.00)

     No symmetry found

   Cartesian axes

     site n.     atom                  positions (alat units)
         1           O1  tau(   1) = (   3.2904802   0.0005063   4.7018136  )
         2           O1  tau(   2) = (   3.2900926   2.9813045   4.7018136  )
         3           Ti1 tau(   3) = (   0.0004258   2.9801865   6.0000000  )
         4           Ti1 tau(   4) = (   0.0000382   5.9609847   6.0000000  )
         5           Ti1 tau(   5) = (   3.2906075   1.4906267   6.0002472  )
         6           Ti1 tau(   6) = (   3.2902200   4.4714249   6.0002472  )
         7           O1  tau(   7) = (   1.3043587   1.4918075   6.0039043  )
         8           O1  tau(   8) = (   1.3039711   4.4726057   6.0039043  )
         9           O1  tau(   9) = (   5.2767064   1.4903225   6.0039473  )
        10           O1  tau(  10) = (   5.2763189   4.4711207   6.0039473  )
        11           O1  tau(  11) = (   3.2906025   0.0005020   7.3038282  )
        12           O1  tau(  12) = (   3.2902150   2.9813002   7.3038282  )
        13           O1  tau(  13) = (   0.0006271   0.0005054   7.9858123  )
        14           O1  tau(  14) = (   0.0002396   2.9813036   7.9858123  )
        15           Ti1 tau(  15) = (   3.2907910   2.8959150   9.1758416  )
        16           Ti1 tau(  16) = (   3.2891106   5.8743827   9.1763621  )
        17           Ti1 tau(  17) = (   0.0015273   1.4827037   9.2680791  )
        18           Ti1 tau(  18) = (   0.0006254   4.4649316   9.2693709  )
        19           O1  tau(  19) = (   4.5942328   1.4918067   9.2879030  )
        20           O1  tau(  20) = (   4.5938453   4.4726049   9.2879030  )
        21           O1  tau(  21) = (   1.9868534   1.4903216   9.2879459  )
        22           O1  tau(  22) = (   1.9864658   4.4711199   9.2879459  )
        23           O1  tau(  23) = (   0.0116148   5.9584955  10.6183126  )
        24           O1  tau(  24) = (   0.0092240   2.9805883  10.6323155  )
        25           O1  tau(  25) = (   3.2871924   0.0092975  11.3134720  )
        26           O1  tau(  26) = (   3.2854473   2.9899114  11.3140924  )
        27           Ti1 tau(  27) = (   3.1645864   1.5001695  12.4631195  )
        28           Ti1 tau(  28) = (   3.1630299   4.4806833  12.4603605  )
        29           Ti1 tau(  29) = (   6.4825016   0.0268845  12.6761456  )
        30           O1  tau(  30) = (   5.2927839   4.4803479  12.6175172  )
        31           O1  tau(  31) = (   5.2917030   1.4958386  12.6158568  )
        32           O1  tau(  32) = (   1.3125566   4.4752595  12.6102184  )
        33           O1  tau(  33) = (   1.3147444   1.4884423  12.6074978  )
        34           Ti1 tau(  34) = (   6.4947133   3.0086745  12.6771613  )
        35           O1  tau(  35) = (   3.2927928   3.0034821  13.8909844  )
        36           O1  tau(  36) = (   3.2984538   0.0179784  13.8891953  )
        37           O1  tau(  37) = (   6.5782462   5.9542408  14.6113871  )
        38           O1  tau(  38) = (   0.0063130   2.9565225  14.5996091  )
        39           Ti1 tau(  39) = (   3.2946075   3.0248150  15.6873259  )
        40           Ti1 tau(  40) = (   3.3096140   0.0407809  15.6830396  )
        41           Ti1 tau(  41) = (   0.0052144   1.6347595  16.0230390  )
        42           O1  tau(  42) = (   2.0681981   1.5365669  16.0503333  )
        43           O1  tau(  43) = (   4.5323643   4.5197138  16.0585785  )
        44           O1  tau(  44) = (   2.0637162   4.5219542  16.0519313  )
        45           O1  tau(  45) = (   4.5361195   1.5375365  16.0414673  )
        46           Ti1 tau(  46) = (   0.0121038   4.6470822  16.0779317  )
        47           O1  tau(  47) = (   0.0166110   0.0790660  17.1873875  )
        48           N1  tau(  48) = (   3.1258632   2.7928715  18.8711073  )
        49           H1  tau(  49) = (   5.2135379   2.8994874  18.6379610  )
        50           N1  tau(  50) = (   1.8800116   2.5028027  19.3023652  )
        51           H1  tau(  51) = (   1.1979237   2.7808332  18.5810318  )
        52           C1  tau(  52) = (   4.2825308   2.7641870  19.1985473  )
        53           H1  tau(  53) = (   1.7950530   1.5048916  19.4910168  )
        54           O1  tau(  54) = (   0.0080391   3.0388675  17.2016835  )

     number of k points=    10  Fermi-Dirac smearing, width (Ry)=  0.0073
                       cart. coord. in units 2pi/alat
        k(    1) = (   0.0000000   0.0000000   0.0000000), wk =   0.1250000
        k(    2) = (   0.0000000   0.0419351   0.0000000), wk =   0.2500000
        k(    3) = (   0.0000000  -0.0838702   0.0000000), wk =   0.1250000
        k(    4) = (   0.0379955   0.0000049   0.0000000), wk =   0.2500000
        k(    5) = (   0.0379955   0.0419400   0.0000000), wk =   0.2500000
        k(    6) = (   0.0379955  -0.0838652   0.0000000), wk =   0.2500000
        k(    7) = (   0.0379955  -0.0419301   0.0000000), wk =   0.2500000
        k(    8) = (  -0.0759910  -0.0000099   0.0000000), wk =   0.1250000
        k(    9) = (  -0.0759910   0.0419252   0.0000000), wk =   0.2500000
        k(   10) = (  -0.0759910  -0.0838800   0.0000000), wk =   0.1250000

     Initial potential from superposition of free atoms

     starting charge  384.99916, renormalised to  401.00000

     negative rho (up, down):  1.610E-02 0.000E+00

     %%%%%%%%%%%%%%%%%%%%%%%%%%%%%%%%%%%%%%%%%%%%%%%%%%%%%%%%%%%%%%%%%%%%%%%%
     %                                                                      %
     % You are using vdW-DF, which was implemented by the Thonhauser group. %
     % Please cite the following two papers that made this development      %
     % possible and the two reviews that describe the various versions:     %
     %                                                                      %
     %   T. Thonhauser et al., PRL 115, 136402 (2015).                      %
     %   T. Thonhauser et al., PRB 76, 125112 (2007).                       %
     %   K. Berland et al., Rep. Prog. Phys. 78, 066501 (2015).             %
     %   D.C. Langreth et al., J. Phys.: Condens. Matter 21, 084203 (2009). %
     %                                                                      %
     %                                                                      %
     % If you are calculating the stress with vdW-DF, please also cite:     %
     %                                                                      %
     %   R. Sabatini et al., J. Phys.: Condens. Matter 24, 424209 (2012).   %
     %                                                                      %
     %%%%%%%%%%%%%%%%%%%%%%%%%%%%%%%%%%%%%%%%%%%%%%%%%%%%%%%%%%%%%%%%%%%%%%%%

     Adding external electric field

     Computed dipole along edir(3) :
        Dipole              -11.7427 Ry au,        -29.8469 Debye
        Dipole field         -0.0222 Ry au,

        Potential amp.        2.0542 Ry
        Total length         46.3494 bohr

     Starting wfcs are  303 atomic wfcs
  @ DRIVER MODE: Message from server: STATUS
  @ DRIVER MODE: Message from server: POSDATA
  @ DRIVER MODE: Reading and sharing cell
  @ DRIVER MODE: Reading and sharing positions
  @ DRIVER MODE: Received positions

     Self-consistent Calculation

     iteration #  1     ecut=    29.40 Ry     beta= 0.05
     Davidson diagonalization with overlap
     c_bands:  5 eigenvalues not converged
     c_bands:  1 eigenvalues not converged
     c_bands:  2 eigenvalues not converged
     c_bands:  4 eigenvalues not converged
     c_bands:  3 eigenvalues not converged
     c_bands:  1 eigenvalues not converged
     c_bands:  5 eigenvalues not converged
     ethr =  1.00E-05,  avg # of iterations = 22.9

[...]

     total energy              =   -2427.39840336 Ry
     estimated scf accuracy    <    6121.77685284 Ry

     iteration #  2     ecut=    29.40 Ry     beta= 0.05
     Davidson diagonalization with overlap
     ethr =  1.00E-02,  avg # of iterations = 23.7

[...]

     iteration # 51     ecut=    29.40 Ry     beta= 0.05
     Davidson diagonalization with overlap
     c_bands:  1 eigenvalues not converged
     c_bands:  3 eigenvalues not converged
     c_bands:  3 eigenvalues not converged
     c_bands:  2 eigenvalues not converged
     c_bands:  1 eigenvalues not converged
     c_bands:  2 eigenvalues not converged
     c_bands:  1 eigenvalues not converged
     ethr =  7.96E-07,  avg # of iterations = 19.2

[...]

     total energy              =   -2971.44233799 Ry
     estimated scf accuracy    <       0.00000015 Ry

     iteration # 78     ecut=    29.40 Ry     beta= 0.05
     Davidson diagonalization with overlap
     ethr =  3.73E-11,  avg # of iterations =  5.7

     negative rho (up, down):  1.476E-02 0.000E+00

     Adding external electric field

     Computed dipole along edir(3) :
        Dipole                0.6316 Ry au,          1.6055 Debye
        Dipole field          0.0012 Ry au,

        Potential amp.       -0.1105 Ry
        Total length         46.3494 bohr

     End of self-consistent calculation

          k = 0.0000 0.0000 0.0000 ( 18029 PWs)   bands (ev):

   -55.9336 -55.8996 -55.7393 -55.7033 -55.6253 -55.6220 -55.5884 -55.5883
   -55.5702 -55.5365 -55.5140 -55.4782 -55.2721 -55.1694 -54.8403 -54.8063
   -32.3998 -32.2891 -32.2276 -32.2030 -32.0892 -32.0871 -32.0848 -32.0581
   -32.0578 -32.0250 -32.0225 -31.9951 -31.9677 -31.9558 -31.9501 -31.9271
   -31.9057 -31.8868 -31.8749 -31.8616 -31.8376 -31.7998 -31.7959 -31.7733
   -31.7646 -31.7563 -31.7509 -31.7456 -31.7421 -31.7238 -31.7218 -31.6941
   -31.6926 -31.6808 -31.6700 -31.6334 -31.6327 -31.5117 -31.5046 -31.4105
   -31.3940 -31.3169 -31.2447 -31.1633 -31.1404 -31.0615 -30.9754 -30.8645
   -19.1891 -16.4812 -16.2899 -16.0363 -15.9388 -15.8231 -15.7465 -15.6103
   -15.5107 -15.4279 -15.4245 -15.3340 -15.3083 -15.3060 -15.2553 -15.2140
   -15.2086 -15.1981 -15.1736 -15.1689 -15.1391 -15.0943 -15.0220 -14.9017
   -14.8935 -14.8442 -14.8186 -14.7516 -14.6929 -14.6357 -14.5100 -14.3959
   -13.3422 -13.2271  -8.5918  -6.6569  -5.7404  -4.0390  -3.8634  -3.7903
    -3.6803  -3.6108  -3.5871  -3.3125  -3.3086  -2.9845  -2.9296  -2.9199
    -2.8960  -2.8571  -2.6811  -2.6451  -2.6303  -2.5843  -2.5728  -2.5667
    -2.5643  -2.5254  -2.4714  -2.4701  -2.3770  -2.3633  -2.3160  -2.2112
    -2.2109  -2.1918  -2.1242  -2.0984  -2.0470  -2.0029  -1.9838  -1.9789
    -1.9440  -1.9203  -1.7905  -1.7334  -1.6789  -1.5869  -1.5221  -1.4588
    -1.4370  -1.3004  -1.1861  -1.1790  -1.1456  -1.1053  -1.0892  -1.0632
    -0.9396  -0.8774  -0.8616  -0.8078  -0.7500  -0.6931  -0.6860  -0.6321
    -0.6007  -0.5864  -0.5637  -0.5403  -0.4772  -0.3041  -0.2248  -0.1330
    -0.1230  -0.0784  -0.0644  -0.0495   0.0066   0.0288   0.0438   0.1034
     0.1201   0.1714   0.1986   0.2125   0.2226   0.2986   0.3926   0.4158
     0.5248   0.5363   0.5964   0.6141   0.7875   0.8431   0.8600   0.9050
     1.0203   1.0834   1.1277   1.1812   1.3844   1.4898   1.7481   1.7914
     3.2646   3.2669   3.3531   3.4805   3.5941   3.6462   3.6951   3.7042
     3.8770   3.9357

[...]

          k = 0.0380-0.0419 0.0000 ( 17876 PWs)   bands (ev):

[...]

          k =-0.0760-0.0000 0.0000 ( 17886 PWs)   bands (ev):

[...]

          k =-0.0760-0.0839 0.0000 ( 17948 PWs)   bands (ev):

   -55.9166 -55.9165 -55.7224 -55.7200 -55.6132 -55.6060 -55.6039 -55.6004
   -55.5539 -55.5528 -55.5006 -55.4916 -55.2689 -55.1725 -54.8233 -54.8232
   -32.2157 -32.2156 -32.2126 -32.2124 -32.0941 -32.0922 -32.0401 -32.0400
   -32.0109 -32.0076 -31.9422 -31.9401 -31.9347 -31.9330 -31.9123 -31.9085
   -31.8949 -31.8906 -31.8888 -31.8845 -31.8272 -31.8187 -31.8145 -31.8035
   -31.7952 -31.7931 -31.7896 -31.7892 -31.7861 -31.7846 -31.7671 -31.7663
   -31.7375 -31.7284 -31.6577 -31.6498 -31.5778 -31.5255 -31.5062 -31.4563
   -31.4134 -31.4042 -31.1532 -31.1531 -31.0579 -31.0577 -31.0185 -31.0185
   -19.1868 -15.9148 -15.9095 -15.7358 -15.7291 -15.6750 -15.6731 -15.5385
   -15.5377 -15.4352 -15.4328 -15.3763 -15.3734 -15.3604 -15.3492 -15.2889
   -15.2713 -15.2688 -15.2621 -15.2211 -15.2188 -15.2136 -15.2115 -15.1213
   -15.1146 -14.9422 -14.8350 -14.7952 -14.6937 -14.6476 -14.5955 -14.5493
   -13.3293 -13.3292  -8.5417  -6.6257  -5.8878  -4.0301  -3.2149  -3.2065
    -2.9225  -2.9207  -2.8773  -2.8716  -2.6676  -2.6668  -2.6446  -2.6367
    -2.6020  -2.5909  -2.5679  -2.5641  -2.5103  -2.4864  -2.4730  -2.4703
    -2.4673  -2.4576  -2.4476  -2.4382  -2.4104  -2.4011  -2.3966  -2.3912
    -2.3517  -2.2883  -2.2737  -2.1801  -2.1622  -1.9437  -1.9431  -1.9199
    -1.9156  -1.8995  -1.8864  -1.8605  -1.8511  -1.7017  -1.6573  -1.4902
    -1.4871  -1.4211  -1.4046  -1.3526  -1.3176  -1.2533  -1.2304  -1.1324
    -1.1204  -1.0500  -1.0416  -0.9843  -0.9409  -0.9330  -0.9224  -0.8291
    -0.8267  -0.8073  -0.7678  -0.7012  -0.6904  -0.6180  -0.6122  -0.5620
    -0.5606  -0.4930  -0.4858  -0.3172  -0.3138  -0.2223  -0.1952  -0.0996
    -0.0838   0.1156   0.2062   0.2294   0.2604   0.2654   0.4516   0.4655
     0.4829   0.4887   0.5144   0.5510   0.6755   0.6960   0.7620   0.7755
     0.8110   0.8171   1.0451   1.0614   1.5536   1.5539   1.6096   1.6098
     3.3887   3.6664   3.6822   3.7684   3.7690   3.7880   3.7886   3.8172
     3.8219   4.0421

     the Fermi energy is     3.2284 ev

!    total energy              =   -2971.44234799 Ry
     estimated scf accuracy    <       0.00000004 Ry
     smearing contrib. (-TS)   =      -0.01959475 Ry
     internal energy E=F+TS    =   -2971.42275324 Ry

     The total energy is F=E-TS. E is the sum of the following terms:
     one-electron contribution =  -23900.40822998 Ry
     hartree contribution      =   12042.33213474 Ry
     xc contribution           =    -492.30740285 Ry
     ewald contribution        =    9378.95999194 Ry
     electric field correction =       0.00075291 Ry

     convergence has been achieved in  78 iterations

     Forces acting on atoms (cartesian axes, Ry/au):

     atom    1 type  1   force =     0.00003455   -0.00007761    0.10233332
     atom    2 type  1   force =     0.00004296   -0.00006777    0.10234781
     atom    3 type  2   force =     0.00001657   -0.00024241    0.10286871
     atom    4 type  2   force =     0.00008085   -0.00018933    0.10228988
     atom    5 type  2   force =    -0.00009769   -0.00057508   -0.17194386
     atom    6 type  2   force =    -0.00009412   -0.00033996   -0.17211817
     atom    7 type  1   force =    -0.07285624   -0.00013509   -0.02896178
     atom    8 type  1   force =    -0.07286941   -0.00008103   -0.02896831
     atom    9 type  1   force =     0.07272861    0.00030294   -0.02904833
     atom   10 type  1   force =     0.07275106    0.00033675   -0.02905970
     atom   11 type  1   force =    -0.00004107   -0.00106280    0.04704592
     atom   12 type  1   force =    -0.00001429   -0.00087206    0.04700606
     atom   13 type  1   force =     0.00020339    0.00004854   -0.03511384
     atom   14 type  1   force =     0.00023415   -0.00007656   -0.03431750
     atom   15 type  2   force =     0.00066181   -0.00145218   -0.00642862
     atom   16 type  2   force =     0.00063293    0.00162727   -0.00654813
     atom   17 type  2   force =     0.00001980   -0.00076624    0.06349242
     atom   18 type  2   force =    -0.00004481   -0.00153608    0.06388159
     atom   19 type  1   force =    -0.01510279    0.00120009   -0.00075674
     atom   20 type  1   force =    -0.01543778    0.00065000   -0.00079542
     atom   21 type  1   force =     0.01663306    0.00174375   -0.00153442
     atom   22 type  1   force =     0.01685734    0.00105209   -0.00154947
     atom   23 type  1   force =    -0.00339401    0.00175209   -0.03962845
     atom   24 type  1   force =    -0.00233951    0.00099815   -0.04611131
     atom   25 type  1   force =     0.00003938   -0.00007046    0.00015213
     atom   26 type  1   force =     0.00030485   -0.00004216    0.00006708
     atom   27 type  2   force =    -0.00005057   -0.00009086   -0.00003315
     atom   28 type  2   force =     0.00019481   -0.00002306    0.00034189
     atom   29 type  2   force =     0.00065332   -0.00028990    0.00047801
     atom   30 type  1   force =    -0.00039653   -0.00010190    0.00030500
     atom   31 type  1   force =    -0.00024221    0.00008866   -0.00018786
     atom   32 type  1   force =     0.00042885   -0.00013284    0.00017332
     atom   33 type  1   force =     0.00036688    0.00008179    0.00009858
     atom   34 type  2   force =    -0.00006459   -0.00017062    0.00046599
     atom   35 type  1   force =     0.00007627   -0.00025690   -0.00019441
     atom   36 type  1   force =    -0.00003724    0.00011869   -0.00024069
     atom   37 type  1   force =     0.00012397   -0.00022695    0.00000932
     atom   38 type  1   force =    -0.00016890   -0.00032817    0.00005340
     atom   39 type  2   force =    -0.00002883   -0.00034567   -0.00012547
     atom   40 type  2   force =    -0.00026971   -0.00003989    0.00040093
     atom   41 type  2   force =    -0.00026871    0.00024025    0.00009112
     atom   42 type  1   force =     0.00002862    0.00003662   -0.00007754
     atom   43 type  1   force =    -0.00013408   -0.00004430   -0.00049414
     atom   44 type  1   force =     0.00037056   -0.00041583    0.00025081
     atom   45 type  1   force =    -0.00010910   -0.00012170   -0.00030778
     atom   46 type  2   force =    -0.00013801   -0.00078213    0.00004933
     atom   47 type  1   force =     0.00016278   -0.00006757    0.00006776
     atom   48 type  3   force =     0.00081547    0.00049168    0.00106124
     atom   49 type  4   force =     0.00063134    0.00074193   -0.00042143
     atom   50 type  3   force =     0.00092795    0.00067179   -0.00170675
     atom   51 type  4   force =    -0.00092051    0.00097356    0.00002811
     atom   52 type  5   force =    -0.00075801   -0.00043106   -0.00041481
     atom   53 type  4   force =     0.00040254   -0.00214467    0.00197944
     atom   54 type  1   force =    -0.00054595    0.00044421   -0.00025110

     Total force =     0.381536     Total SCF correction =     0.000763
  @ DRIVER MODE: Message from server: STATUS
  @ DRIVER MODE: Message from server: GETFORCE
  @ DRIVER MODE: Returning v,forces,stress,ensemble

     Writing output data file ./calc.save/
  @ DRIVER MODE: Message from server: EXIT
  @ DRIVE MODE: Exiting

     General routines

     Parallel routines

   This run was terminated on:   7:54:23  27Sep2021

   JOB DONE.