     Program PWSCF v.6.7GPU starts on  2Aug2021 at 17:59:49

     R & G space division:  proc/nbgrp/npool/nimage =      16
     Reading input from /storage/home/hcoda1/3/ntian30/research/carbon/02Aug_vib_paired/ads_slab/CH3NH3_a/out_0016/pw.inp
Warning: card &CELL ignored
Warning: card   CELL_DYNAMICS='IPI', ignored
Warning: card / ignored

     Current dimensions of program PWSCF are:
     Max number of different atomic species (ntypx) = 10
     Max number of k-points (npk) =  40000
     Max angular momentum in pseudopotentials (lmaxx) =  3
     Presently no symmetry can be used with electric field

     Message from routine cell_base_init:
     DEPRECATED: use true lattice parameter, not A to a.u. conversion factor

     IMPORTANT: XC functional enforced from input :
     Exchange-correlation= BEEF-VDW
                           (   1   4  43  14   2   0   0)
     Any further DFT definition will be discarded
     Please, verify this is what you really want

  @ DRIVER MODE: Connecting to
 qe_1139763_2482539.sched-torque.pace.gatech.eduhbfusrj0_scratch
  using UNIX socket
  @ DRIVER MODE: Message from server: STATUS
  @ DRIVER MODE: Message from server: INIT
  @ DRIVER MODE: Receiving replica           0          -1
  @ DRIVER MODE: Receiving encoded integer          25
  @ DRIVER MODE:  SCF:  T  FORCE:  T  STRESS:  F  VC:  F  ENSEMBLE:  F
  @ DRIVER MODE:  SCF:  T  FORCE:  T  STRESS:  F  VC:  F  ENSEMBLE:  F

     Using Slab Decomposition

     bravais-lattice index     =            0
     lattice parameter (alat)  =       1.8897  a.u.
     unit-cell volume          =    6658.9804 (a.u.)^3
     number of atoms/cell      =           55
     number of atomic types    =            5
     number of electrons       =       393.00
     number of Kohn-Sham states=          206
     kinetic-energy cutoff     =      29.3995  Ry
     charge density cutoff     =     293.9946  Ry
     scf convergence threshold =      7.3E-08
     mixing beta               =       0.0500
     number of iterations used =            8  plain     mixing
     Exchange-correlation= BEEF-VDW
                           (   1   4  43  14   2   0   0)

     celldm(1)=   1.889726  celldm(2)=   0.000000  celldm(3)=   0.000000
     celldm(4)=   0.000000  celldm(5)=   0.000000  celldm(6)=   0.000000

     crystal axes: (cart. coord. in units of alat)
               a(1) = (   6.579727   0.000000   0.000000 )
               a(2) = (  -0.000775   5.961596   0.000000 )
               a(3) = (   0.000000   0.000000  25.155947 )

     reciprocal axes: (cart. coord. in units 2 pi/alat)
               b(1) = (  0.151982  0.000020  0.000000 )
               b(2) = (  0.000000  0.167740  0.000000 )
               b(3) = (  0.000000  0.000000  0.039752 )

     PseudoPot. # 1 for Ti read from file:
     /storage/coda1/p-amedford6/0/shared/rich_project_chbe-medford/medford-share/data/pseudos_module/espresso/nninc/pbe/van/Ti.UPF
     MD5 check sum: 8e4df49b7f0d34bbd5052bf3f5ea0213
     Pseudo is Ultrasoft, Zval = 12.0
     Generated by new atomic code, or converted to UPF format
     Using radial grid of  851 points,  6 beta functions with:
                l(1) =   0
                l(2) =   0
                l(3) =   1
                l(4) =   1
                l(5) =   2
                l(6) =   2
     Q(r) pseudized with  8 coefficients,  rinner =    1.000   1.000   1.000
                                                       1.000   1.000

     PseudoPot. # 2 for O  read from file:
     /storage/coda1/p-amedford6/0/shared/rich_project_chbe-medford/medford-share/data/pseudos_module/espresso/nninc/pbe/van/O.UPF
     MD5 check sum: 78c19812648e8988a0fe644b0f25305e
     Pseudo is Ultrasoft, Zval =  6.0
     Generated by new atomic code, or converted to UPF format
     Using radial grid of  737 points,  4 beta functions with:
                l(1) =   0
                l(2) =   0
                l(3) =   1
                l(4) =   1
     Q(r) pseudized with  8 coefficients,  rinner =    0.800   0.800   0.800

     PseudoPot. # 3 for C  read from file:
     /storage/coda1/p-amedford6/0/shared/rich_project_chbe-medford/medford-share/data/pseudos_module/espresso/nninc/pbe/van/C.UPF
     MD5 check sum: 1a69bf6b8db32088f5b2163dbdb77a27
     Pseudo is Ultrasoft, Zval =  4.0
     Generated by new atomic code, or converted to UPF format
     Using radial grid of  721 points,  4 beta functions with:
                l(1) =   0
                l(2) =   0
                l(3) =   1
                l(4) =   1
     Q(r) pseudized with  8 coefficients,  rinner =    0.800   0.800   0.800

     PseudoPot. # 4 for H  read from file:
     /storage/coda1/p-amedford6/0/shared/rich_project_chbe-medford/medford-share/data/pseudos_module/espresso/nninc/pbe/van/H.UPF
     MD5 check sum: b5ee9d7bfd3a09ee7748110bda690ff7
     Pseudo is Ultrasoft, Zval =  1.0
     Generated by new atomic code, or converted to UPF format
     Using radial grid of  615 points,  1 beta functions with:
                l(1) =   0
     Q(r) pseudized with  8 coefficients,  rinner =    0.800

     PseudoPot. # 5 for N  read from file:
     /storage/coda1/p-amedford6/0/shared/rich_project_chbe-medford/medford-share/data/pseudos_module/espresso/nninc/pbe/van/N.UPF
     MD5 check sum: 90d10febe142ad51ac9d5be1deb811c4
     Pseudo is Ultrasoft, Zval =  5.0
     Generated by new atomic code, or converted to UPF format
     Using radial grid of  729 points,  4 beta functions with:
                l(1) =   0
                l(2) =   0
                l(3) =   1
                l(4) =   1
     Q(r) pseudized with  8 coefficients,  rinner =    0.800   0.800   0.800

     atomic species   valence    mass     pseudopotential
        Ti1           12.00    47.86700     Ti( 1.00)
        O1             6.00    15.99900     O ( 1.00)
        C1             4.00    12.01100     C ( 1.00)
        H1             1.00     1.00800     H ( 1.00)
        N1             5.00    14.00700     N ( 1.00)

     No symmetry found

   Cartesian axes

     site n.     atom                  positions (alat units)
         1           Ti1 tau(   1) = (   0.0004258   2.9801865   6.0000000  )
         2           Ti1 tau(   2) = (   3.2906075   1.4906267   6.0002472  )
         3           O1  tau(   3) = (   0.0006271   0.0005054   7.9858123  )
         4           O1  tau(   4) = (   3.2906025   0.0005020   7.3038282  )
         5           O1  tau(   5) = (   4.5942328   1.4918067   9.2879030  )
         6           O1  tau(   6) = (   1.9868534   1.4903216   9.2879459  )
         7           Ti1 tau(   7) = (   3.2907910   2.8959150   9.1758416  )
         8           Ti1 tau(   8) = (   0.0015273   1.4827037   9.2680791  )
         9           O1  tau(   9) = (   3.2981156   0.0012339  11.3300471  )
        10           O1  tau(  10) = (   0.0116148   5.9584955  10.6183126  )
        11           O1  tau(  11) = (   1.3033605   1.5036236  12.6199488  )
        12           O1  tau(  12) = (   5.2811161   1.5074500  12.6162500  )
        13           Ti1 tau(  13) = (   0.0407500   2.9455431  12.6352795  )
        14           Ti1 tau(  14) = (   3.3444429   1.4910927  12.4779025  )
        15           O1  tau(  15) = (   0.0052662   0.0451097  14.6026341  )
        16           O1  tau(  16) = (   3.2946143   0.0124870  13.9210852  )
        17           O1  tau(  17) = (   4.5465206   1.5046604  16.0624161  )
        18           O1  tau(  18) = (   2.0546879   1.5048301  16.0609706  )
        19           Ti1 tau(  19) = (   3.2991624   2.9918142  15.6995589  )
        20           Ti1 tau(  20) = (   6.5707204   1.4025535  15.8059435  )
        21           O1  tau(  21) = (   3.2904802   0.0005063   4.7018136  )
        22           O1  tau(  22) = (   0.0164654   0.0145536  17.1360041  )
        23           O1  tau(  23) = (   1.3043587   1.4918075   6.0039043  )
        24           O1  tau(  24) = (   5.2767064   1.4903225   6.0039473  )
        25           Ti1 tau(  25) = (   0.0000382   5.9609847   6.0000000  )
        26           Ti1 tau(  26) = (   3.2902200   4.4714249   6.0002472  )
        27           O1  tau(  27) = (   0.0002396   2.9813036   7.9858123  )
        28           O1  tau(  28) = (   3.2902150   2.9813002   7.3038282  )
        29           O1  tau(  29) = (   4.5938453   4.4726049   9.2879030  )
        30           O1  tau(  30) = (   1.9864658   4.4711199   9.2879459  )
        31           Ti1 tau(  31) = (   3.2891106   5.8743827   9.1763621  )
        32           Ti1 tau(  32) = (   0.0006254   4.4649316   9.2693709  )
        33           O1  tau(  33) = (   3.2977166   2.9913250  11.3287690  )
        34           O1  tau(  34) = (   0.0092240   2.9805883  10.6323155  )
        35           O1  tau(  35) = (   1.3008534   4.4801743  12.6308489  )
        36           O1  tau(  36) = (   5.2850400   4.4860598  12.6280017  )
        37           Ti1 tau(  37) = (   0.0409916   5.9178611  12.5441859  )
        38           Ti1 tau(  38) = (   3.3442415   4.4710906  12.4862270  )
        39           O1  tau(  39) = (   0.0109228   2.9791018  14.7123696  )
        40           O1  tau(  40) = (   3.2998940   2.9912248  13.9043662  )
        41           O1  tau(  41) = (   4.5474046   4.4713503  16.0779382  )
        42           O1  tau(  42) = (   2.0618872   4.4767818  16.0643778  )
        43           Ti1 tau(  43) = (   3.2722838   0.0128901  15.7174356  )
        44           Ti1 tau(  44) = (   6.5592075   4.4947239  16.1563676  )
        45           O1  tau(  45) = (   3.2900926   2.9813045   4.7018136  )
        46           O1  tau(  46) = (   1.3039711   4.4726057   6.0039043  )
        47           O1  tau(  47) = (   5.2763189   4.4711207   6.0039473  )
        48           C1  tau(  48) = (   0.0359503   3.0870652  17.8341721  )
        49           H1  tau(  49) = (   5.8142062   3.6010452  18.3763092  )
        50           H1  tau(  50) = (   6.4784518   2.0405676  18.0614951  )
        51           H1  tau(  51) = (   0.9863100   3.3782628  18.2908018  )
        52           N1  tau(  52) = (   4.7642638   1.7931862  21.6370373  )
        53           H1  tau(  53) = (   4.5527921   2.7808570  21.5386679  )
        54           H1  tau(  54) = (   4.1042548   1.2952780  21.0483319  )
        55           H1  tau(  55) = (   4.5435699   1.5432347  22.5953497  )

     number of k points=    10  Fermi-Dirac smearing, width (Ry)=  0.0073
                       cart. coord. in units 2pi/alat
        k(    1) = (   0.0000000   0.0000000   0.0000000), wk =   0.1250000
        k(    2) = (   0.0000000   0.0419351   0.0000000), wk =   0.2500000
        k(    3) = (   0.0000000  -0.0838702   0.0000000), wk =   0.1250000
        k(    4) = (   0.0379955   0.0000049   0.0000000), wk =   0.2500000
        k(    5) = (   0.0379955   0.0419400   0.0000000), wk =   0.2500000
        k(    6) = (   0.0379955  -0.0838652   0.0000000), wk =   0.2500000
        k(    7) = (   0.0379955  -0.0419301   0.0000000), wk =   0.2500000
        k(    8) = (  -0.0759910  -0.0000099   0.0000000), wk =   0.1250000
        k(    9) = (  -0.0759910   0.0419252   0.0000000), wk =   0.2500000
        k(   10) = (  -0.0759910  -0.0838800   0.0000000), wk =   0.1250000

     Initial potential from superposition of free atoms

     starting charge  376.99914, renormalised to  393.00000

     negative rho (up, down):  1.001E-02 0.000E+00

     %%%%%%%%%%%%%%%%%%%%%%%%%%%%%%%%%%%%%%%%%%%%%%%%%%%%%%%%%%%%%%%%%%%%%%%%
     %                                                                      %
     % You are using vdW-DF, which was implemented by the Thonhauser group. %
     % Please cite the following two papers that made this development      %
     % possible and the two reviews that describe the various versions:     %
     %                                                                      %
     %   T. Thonhauser et al., PRL 115, 136402 (2015).                      %
     %   T. Thonhauser et al., PRB 76, 125112 (2007).                       %
     %   K. Berland et al., Rep. Prog. Phys. 78, 066501 (2015).             %
     %   D.C. Langreth et al., J. Phys.: Condens. Matter 21, 084203 (2009). %
     %                                                                      %
     %                                                                      %
     % If you are calculating the stress with vdW-DF, please also cite:     %
     %                                                                      %
     %   R. Sabatini et al., J. Phys.: Condens. Matter 24, 424209 (2012).   %
     %                                                                      %
     %%%%%%%%%%%%%%%%%%%%%%%%%%%%%%%%%%%%%%%%%%%%%%%%%%%%%%%%%%%%%%%%%%%%%%%%

     Adding external electric field

     Computed dipole along edir(3) :
        Dipole               -9.0616 Ry au,        -23.0322 Debye
        Dipole field         -0.0171 Ry au,

        Potential amp.        1.5852 Ry
        Total length         46.3494 bohr

     Starting wfcs are  298 atomic wfcs
  @ DRIVER MODE: Message from server: STATUS
  @ DRIVER MODE: Message from server: POSDATA
  @ DRIVER MODE: Reading and sharing cell
  @ DRIVER MODE: Reading and sharing positions
  @ DRIVER MODE: Received positions

     Self-consistent Calculation

     iteration #  1     ecut=    29.40 Ry     beta= 0.05
     Davidson diagonalization with overlap
     c_bands:  1 eigenvalues not converged
     c_bands:  1 eigenvalues not converged
     c_bands:  1 eigenvalues not converged
     ethr =  1.00E-05,  avg # of iterations = 17.7

[...]

     total energy              =   -2692.42117643 Ry
     estimated scf accuracy    <    2566.18764423 Ry

[...]

     iteration #  5     ecut=    29.40 Ry     beta= 0.05
     Davidson diagonalization with overlap
     ethr =  1.00E-02,  avg # of iterations =  9.1

[...]

     iteration # 50     ecut=    29.40 Ry     beta= 0.05
     Davidson diagonalization with overlap
     c_bands:  1 eigenvalues not converged
     c_bands:  2 eigenvalues not converged
     c_bands:  2 eigenvalues not converged
     c_bands:  1 eigenvalues not converged
     ethr =  3.87E-08,  avg # of iterations = 17.7

[...]

     total energy              =   -2922.78943236 Ry
     estimated scf accuracy    <       0.00000012 Ry

     iteration # 66     ecut=    29.40 Ry     beta= 0.05
     Davidson diagonalization with overlap
     ethr =  3.10E-11,  avg # of iterations =  8.9

     negative rho (up, down):  1.131E-02 0.000E+00

     Adding external electric field

     Computed dipole along edir(3) :
        Dipole                0.5501 Ry au,          1.3983 Debye
        Dipole field          0.0010 Ry au,

        Potential amp.       -0.0962 Ry
        Total length         46.3494 bohr

     End of self-consistent calculation

          k = 0.0000 0.0000 0.0000 ( 18029 PWs)   bands (ev):

   -56.0341 -56.0303 -56.0000 -55.9938 -55.9014 -55.8667 -55.8666 -55.8422
   -55.8235 -55.8082 -55.8035 -55.7698 -55.5687 -55.4019 -55.0094 -54.9753
   -32.5886 -32.5160 -32.3610 -32.3552 -32.3414 -32.3401 -32.3271 -32.2942
   -32.2766 -32.2395 -32.2337 -32.2328 -32.2097 -32.1863 -32.1734 -32.1673
   -32.1379 -32.1352 -32.1217 -32.0912 -32.0813 -32.0703 -32.0385 -32.0341
   -32.0297 -32.0278 -32.0135 -32.0121 -32.0057 -31.9801 -31.9800 -31.9772
   -31.9721 -31.9714 -31.9567 -31.9471 -31.9158 -31.8475 -31.7829 -31.6895
   -31.6302 -31.5194 -31.4164 -31.3283 -31.3058 -31.2331 -31.1466 -31.0356
   -16.7686 -16.5053 -16.2731 -16.1826 -16.1329 -16.0463 -15.8689 -15.7524
   -15.7038 -15.6030 -15.5703 -15.5506 -15.5340 -15.5035 -15.4952 -15.4706
   -15.4590 -15.4526 -15.4182 -15.3902 -15.3652 -15.3503 -15.2304 -15.1782
   -15.1620 -15.1308 -15.0831 -15.0667 -14.6111 -13.6565 -13.5122 -13.3959
    -9.0739  -4.1433  -3.9632  -3.9377  -3.8895  -3.8475  -3.7151  -3.6980
    -3.6451  -3.5846  -3.2672  -3.2099  -3.2017  -3.1609  -3.1462  -2.9896
    -2.9251  -2.8506  -2.8341  -2.8287  -2.8032  -2.7979  -2.7933  -2.7505
    -2.7085  -2.6539  -2.6294  -2.5592  -2.5183  -2.4441  -2.3712  -2.3436
    -2.3016  -2.2986  -2.2624  -2.2504  -2.2420  -2.2320  -2.1968  -2.1809
    -2.0016  -1.9514  -1.8866  -1.8168  -1.8040  -1.6384  -1.5320  -1.4850
    -1.4654  -1.4584  -1.4399  -1.4232  -1.3274  -1.2095  -1.1764  -1.1273
    -1.0791  -1.0307  -1.0005  -0.9002  -0.8837  -0.7925  -0.7794  -0.7607
    -0.6491  -0.6260  -0.4914  -0.4707  -0.4644  -0.4043  -0.3886  -0.3156
    -0.2913  -0.2354  -0.1697  -0.1575  -0.0893  -0.0632  -0.0600  -0.0033
     0.0009   0.0465   0.0598   0.1700   0.2266   0.2758   0.3298   0.4355
     0.5161   0.6306   0.6778   0.7368   0.9385   1.0122   1.1214   1.1814
     1.2052   1.4652   1.5834   1.6289   3.1045   3.1895   3.2112   3.2369
     3.3443   3.3697   3.5550   3.5717   3.6061   3.6260

[...]

          k = 0.0380-0.0419 0.0000 ( 17876 PWs)   bands (ev):

[...]

          k =-0.0760-0.0000 0.0000 ( 17886 PWs)   bands (ev):

[...]

          k =-0.0760-0.0839 0.0000 ( 17948 PWs)   bands (ev):

   -56.0177 -56.0163 -56.0149 -56.0090 -55.8865 -55.8815 -55.8582 -55.8320
   -55.8258 -55.8239 -55.7880 -55.7855 -55.5672 -55.4033 -54.9924 -54.9922
   -32.3945 -32.3880 -32.3318 -32.3308 -32.3131 -32.3119 -32.2933 -32.2886
   -32.2223 -32.2214 -32.2183 -32.2076 -32.1671 -32.1660 -32.1471 -32.1427
   -32.1386 -32.1372 -32.1357 -32.1278 -32.1271 -32.1242 -32.0879 -32.0774
   -32.0731 -32.0508 -32.0466 -32.0328 -32.0242 -32.0232 -32.0195 -32.0176
   -32.0025 -32.0011 -31.9966 -31.9904 -31.9255 -31.8303 -31.7851 -31.6923
   -31.6745 -31.5637 -31.3186 -31.3185 -31.2293 -31.2291 -31.1899 -31.1899
   -16.2105 -16.1875 -15.9812 -15.9469 -15.9435 -15.9363 -15.8055 -15.7252
   -15.7247 -15.6989 -15.6377 -15.6263 -15.6046 -15.5660 -15.5417 -15.5392
   -15.5205 -15.5157 -15.4895 -15.4794 -15.4665 -15.4593 -15.3667 -15.3471
   -15.3433 -15.2935 -15.1484 -15.0017 -14.8913 -13.6558 -13.4977 -13.4976
    -9.0881  -3.7174  -3.7088  -3.5067  -3.4753  -3.2331  -3.1947  -3.1816
    -3.1126  -2.9561  -2.9166  -2.8985  -2.8909  -2.8464  -2.8388  -2.8337
    -2.8220  -2.7938  -2.7765  -2.7397  -2.7335  -2.7184  -2.7107  -2.6997
    -2.6826  -2.6525  -2.6441  -2.6159  -2.6083  -2.5890  -2.5718  -2.5437
    -2.5390  -2.4141  -2.2524  -2.2285  -2.1679  -2.1604  -2.1134  -2.1008
    -2.0943  -2.0669  -2.0376  -2.0114  -1.8514  -1.7410  -1.7261  -1.7094
    -1.6410  -1.6127  -1.5310  -1.4375  -1.3968  -1.3793  -1.3119  -1.3061
    -1.2564  -1.2318  -1.2105  -1.1436  -1.0871  -1.0513  -0.9928  -0.9868
    -0.9786  -0.9087  -0.8663  -0.7913  -0.7825  -0.7457  -0.7108  -0.6553
    -0.6212  -0.6098  -0.5198  -0.4873  -0.3749  -0.3262  -0.0681  -0.0222
     0.0329   0.0616   0.1270   0.1848   0.1888   0.2862   0.2900   0.3256
     0.4060   0.4276   0.4979   0.5171   0.5672   0.7290   1.2761   1.3762
     1.3770   1.4485   1.4488   1.4556   3.4024   3.4142   3.4213   3.4659
     3.6110   3.6156   3.6343   3.6360   3.7749   3.8012

     the Fermi energy is     3.1011 ev

!    total energy              =   -2922.78946483 Ry
     estimated scf accuracy    <       0.00000005 Ry
     smearing contrib. (-TS)   =      -0.02169393 Ry
     internal energy E=F+TS    =   -2922.76777090 Ry

     The total energy is F=E-TS. E is the sum of the following terms:
     one-electron contribution =  -23651.38753343 Ry
     hartree contribution      =   11909.90255500 Ry
     xc contribution           =    -482.26968662 Ry
     ewald contribution        =    9300.98632303 Ry
     electric field correction =       0.00057112 Ry

     convergence has been achieved in  66 iterations

     Forces acting on atoms (cartesian axes, Ry/au):

     atom    1 type  1   force =     0.00004601   -0.00022938    0.09685808
     atom    2 type  1   force =    -0.00017347   -0.00055885   -0.17514499
     atom    3 type  2   force =     0.00002118   -0.00004737   -0.02502592
     atom    4 type  2   force =     0.00002822   -0.00139841    0.05264370
     atom    5 type  2   force =    -0.01206441   -0.00051441    0.00329709
     atom    6 type  2   force =     0.01379792    0.00008301    0.00269634
     atom    7 type  1   force =    -0.00058240    0.00057014   -0.01156560
     atom    8 type  1   force =     0.00020224    0.01201851    0.02900869
     atom    9 type  2   force =    -0.00029530    0.00057096    0.00056390
     atom   10 type  2   force =    -0.00153455    0.00252823   -0.01947441
     atom   11 type  2   force =    -0.00018626   -0.00038081   -0.00014078
     atom   12 type  2   force =    -0.00089382    0.00002763   -0.00029580
     atom   13 type  1   force =     0.00054405   -0.00096835    0.00110700
     atom   14 type  1   force =     0.00146065    0.00058069   -0.00067218
     atom   15 type  2   force =    -0.00014512   -0.00109853    0.00040738
     atom   16 type  2   force =    -0.00020867   -0.00020081   -0.00146826
     atom   17 type  2   force =    -0.00062455    0.00076819    0.00003097
     atom   18 type  2   force =     0.00047835    0.00093656    0.00003742
     atom   19 type  1   force =    -0.00020962   -0.00110317    0.00058900
     atom   20 type  1   force =    -0.00010129    0.00028484   -0.00013842
     atom   21 type  2   force =     0.00004709   -0.00003939    0.10323101
     atom   22 type  2   force =     0.00026185    0.00002208    0.00094829
     atom   23 type  2   force =    -0.07153262   -0.00013983   -0.02770779
     atom   24 type  2   force =     0.07142476    0.00027192   -0.02773894
     atom   25 type  1   force =     0.00005677   -0.00028099    0.09644984
     atom   26 type  1   force =    -0.00019641   -0.00028159   -0.17537137
     atom   27 type  2   force =     0.00008611   -0.00017041   -0.02381679
     atom   28 type  2   force =     0.00004550   -0.00113991    0.05272448
     atom   29 type  2   force =    -0.01210796    0.00084787    0.00276620
     atom   30 type  2   force =     0.01375554    0.00123676    0.00218286
     atom   31 type  1   force =    -0.00047422    0.00303727   -0.01242608
     atom   32 type  1   force =     0.00018594   -0.01422357    0.02941650
     atom   33 type  2   force =    -0.00023019   -0.00062494    0.00041576
     atom   34 type  2   force =    -0.00098303    0.00175881   -0.02268292
     atom   35 type  2   force =    -0.00067407   -0.00060008   -0.00012052
     atom   36 type  2   force =     0.00003559   -0.00014619   -0.00033589
     atom   37 type  1   force =     0.00064749    0.00027343    0.00056171
     atom   38 type  1   force =     0.00150671    0.00018641   -0.00066913
     atom   39 type  2   force =     0.00006483    0.00016193   -0.00126233
     atom   40 type  2   force =    -0.00034818   -0.00010155    0.00175709
     atom   41 type  2   force =    -0.00076449   -0.00106144   -0.00013410
     atom   42 type  2   force =     0.00028062   -0.00145984    0.00025189
     atom   43 type  1   force =     0.00022422    0.00063981    0.00107063
     atom   44 type  1   force =     0.00045100   -0.00014338    0.00080840
     atom   45 type  2   force =     0.00005696   -0.00009381    0.10318812
     atom   46 type  2   force =    -0.07151911   -0.00011835   -0.02770632
     atom   47 type  2   force =     0.07142649    0.00031113   -0.02774029
     atom   48 type  3   force =     0.00160377    0.01195404   -0.00257707
     atom   49 type  4   force =    -0.00070990    0.00059073   -0.00062457
     atom   50 type  4   force =    -0.00172176   -0.01281524    0.00305784
     atom   51 type  4   force =    -0.00080175    0.00018293   -0.00031881
     atom   52 type  5   force =    -0.00009199   -0.00017857   -0.00037152
     atom   53 type  4   force =     0.00064329   -0.00004404   -0.00036224
     atom   54 type  4   force =     0.00007031    0.00019873   -0.00010204
     atom   55 type  4   force =    -0.00027831    0.00012060   -0.00007513

     Total force =     0.368788     Total SCF correction =     0.000631
  @ DRIVER MODE: Message from server: STATUS
  @ DRIVER MODE: Message from server: GETFORCE
  @ DRIVER MODE: Returning v,forces,stress,ensemble

     Writing output data file ./calc.save/
  @ DRIVER MODE: Message from server: EXIT
  @ DRIVE MODE: Exiting

     General routines

     Parallel routines

   This run was terminated on:  18:13:40   2Aug2021

   JOB DONE.