     Program PWSCF v.6.7GPU starts on 15Sep2021 at 18:23:22

     R & G space division:  proc/nbgrp/npool/nimage =      10
     Reading input from /storage/home/hcoda1/3/ntian30/research/carbon/CxH_vib/H2O_calc/ads_slab/CH3NH2NHH2O_c/out_0008/pw.inp
Warning: card &CELL ignored
Warning: card   CELL_DYNAMICS='IPI', ignored
Warning: card / ignored

     Current dimensions of program PWSCF are:
     Max number of different atomic species (ntypx) = 10
     Max number of k-points (npk) =  40000
     Max angular momentum in pseudopotentials (lmaxx) =  3
     Presently no symmetry can be used with electric field

     Message from routine cell_base_init:
     DEPRECATED: use true lattice parameter, not A to a.u. conversion factor

     IMPORTANT: XC functional enforced from input :
     Exchange-correlation= BEEF-VDW
                           (   1   4  43  14   2   0   0)
     Any further DFT definition will be discarded
     Please, verify this is what you really want

  @ DRIVER MODE: Connecting to
 qe_1139763_2852614.sched-torque.pace.gatech.edu04c11xzq_scratch
  using UNIX socket
  @ DRIVER MODE: Message from server: STATUS
  @ DRIVER MODE: Message from server: INIT
  @ DRIVER MODE: Receiving replica           0          -1
  @ DRIVER MODE: Receiving encoded integer          25
  @ DRIVER MODE:  SCF:  T  FORCE:  T  STRESS:  F  VC:  F  ENSEMBLE:  F
  @ DRIVER MODE:  SCF:  T  FORCE:  T  STRESS:  F  VC:  F  ENSEMBLE:  F

     Using Slab Decomposition

     bravais-lattice index     =            0
     lattice parameter (alat)  =       1.8897  a.u.
     unit-cell volume          =    6658.9804 (a.u.)^3
     number of atoms/cell      =           59
     number of atomic types    =            5
     number of electrons       =       406.00
     number of Kohn-Sham states=          213
     kinetic-energy cutoff     =      29.3995  Ry
     charge density cutoff     =     293.9946  Ry
     scf convergence threshold =      7.3E-08
     mixing beta               =       0.0500
     number of iterations used =            8  plain     mixing
     Exchange-correlation= BEEF-VDW
                           (   1   4  43  14   2   0   0)

     celldm(1)=   1.889726  celldm(2)=   0.000000  celldm(3)=   0.000000
     celldm(4)=   0.000000  celldm(5)=   0.000000  celldm(6)=   0.000000

     crystal axes: (cart. coord. in units of alat)
               a(1) = (   6.579727   0.000000   0.000000 )
               a(2) = (  -0.000775   5.961596   0.000000 )
               a(3) = (   0.000000   0.000000  25.155947 )

     reciprocal axes: (cart. coord. in units 2 pi/alat)
               b(1) = (  0.151982  0.000020  0.000000 )
               b(2) = (  0.000000  0.167740  0.000000 )
               b(3) = (  0.000000  0.000000  0.039752 )

     PseudoPot. # 1 for Ti read from file:
     /storage/coda1/p-amedford6/0/shared/rich_project_chbe-medford/medford-share/data/pseudos_module/espresso/nninc/pbe/van/Ti.UPF
     MD5 check sum: 8e4df49b7f0d34bbd5052bf3f5ea0213
     Pseudo is Ultrasoft, Zval = 12.0
     Generated by new atomic code, or converted to UPF format
     Using radial grid of  851 points,  6 beta functions with:
                l(1) =   0
                l(2) =   0
                l(3) =   1
                l(4) =   1
                l(5) =   2
                l(6) =   2
     Q(r) pseudized with  8 coefficients,  rinner =    1.000   1.000   1.000
                                                       1.000   1.000

     PseudoPot. # 2 for O  read from file:
     /storage/coda1/p-amedford6/0/shared/rich_project_chbe-medford/medford-share/data/pseudos_module/espresso/nninc/pbe/van/O.UPF
     MD5 check sum: 78c19812648e8988a0fe644b0f25305e
     Pseudo is Ultrasoft, Zval =  6.0
     Generated by new atomic code, or converted to UPF format
     Using radial grid of  737 points,  4 beta functions with:
                l(1) =   0
                l(2) =   0
                l(3) =   1
                l(4) =   1
     Q(r) pseudized with  8 coefficients,  rinner =    0.800   0.800   0.800

     PseudoPot. # 3 for N  read from file:
     /storage/coda1/p-amedford6/0/shared/rich_project_chbe-medford/medford-share/data/pseudos_module/espresso/nninc/pbe/van/N.UPF
     MD5 check sum: 90d10febe142ad51ac9d5be1deb811c4
     Pseudo is Ultrasoft, Zval =  5.0
     Generated by new atomic code, or converted to UPF format
     Using radial grid of  729 points,  4 beta functions with:
                l(1) =   0
                l(2) =   0
                l(3) =   1
                l(4) =   1
     Q(r) pseudized with  8 coefficients,  rinner =    0.800   0.800   0.800

     PseudoPot. # 4 for C  read from file:
     /storage/coda1/p-amedford6/0/shared/rich_project_chbe-medford/medford-share/data/pseudos_module/espresso/nninc/pbe/van/C.UPF
     MD5 check sum: 1a69bf6b8db32088f5b2163dbdb77a27
     Pseudo is Ultrasoft, Zval =  4.0
     Generated by new atomic code, or converted to UPF format
     Using radial grid of  721 points,  4 beta functions with:
                l(1) =   0
                l(2) =   0
                l(3) =   1
                l(4) =   1
     Q(r) pseudized with  8 coefficients,  rinner =    0.800   0.800   0.800

     PseudoPot. # 5 for H  read from file:
     /storage/coda1/p-amedford6/0/shared/rich_project_chbe-medford/medford-share/data/pseudos_module/espresso/nninc/pbe/van/H.UPF
     MD5 check sum: b5ee9d7bfd3a09ee7748110bda690ff7
     Pseudo is Ultrasoft, Zval =  1.0
     Generated by new atomic code, or converted to UPF format
     Using radial grid of  615 points,  1 beta functions with:
                l(1) =   0
     Q(r) pseudized with  8 coefficients,  rinner =    0.800

     atomic species   valence    mass     pseudopotential
        Ti1           12.00    47.86700     Ti( 1.00)
        O1             6.00    15.99900     O ( 1.00)
        N1             5.00    14.00700     N ( 1.00)
        C1             4.00    12.01100     C ( 1.00)
        H1             1.00     1.00800     H ( 1.00)

     No symmetry found

   Cartesian axes

     site n.     atom                  positions (alat units)
         1           Ti1 tau(   1) = (   0.0004258   2.9801865   6.0000000  )
         2           Ti1 tau(   2) = (   3.2906075   1.4906267   6.0002472  )
         3           O1  tau(   3) = (   0.0006271   0.0005054   7.9858123  )
         4           O1  tau(   4) = (   3.2906025   0.0005020   7.3038282  )
         5           O1  tau(   5) = (   4.5942328   1.4918067   9.2879030  )
         6           O1  tau(   6) = (   1.9868534   1.4903216   9.2879459  )
         7           Ti1 tau(   7) = (   3.2907910   2.8959150   9.1758416  )
         8           Ti1 tau(   8) = (   0.0015273   1.4827037   9.2680791  )
         9           O1  tau(   9) = (   3.2795193   0.0050042  11.3600746  )
        10           O1  tau(  10) = (   0.0116148   5.9584955  10.6183126  )
        11           O1  tau(  11) = (   1.2764768   1.4833402  12.6625751  )
        12           O1  tau(  12) = (   5.2691860   1.4824858  12.6730715  )
        13           Ti1 tau(  13) = (   6.5785005   2.9712200  12.5432933  )
        14           Ti1 tau(  14) = (   3.2815129   1.4861921  12.5133659  )
        15           O1  tau(  15) = (   0.0084525   5.9333602  14.7514412  )
        16           O1  tau(  16) = (   3.2474592   5.9449689  14.0025778  )
        17           O1  tau(  17) = (   4.5272503   1.5270814  16.0535473  )
        18           O1  tau(  18) = (   2.0088677   1.5398698  16.1918835  )
        19           Ti1 tau(  19) = (   3.2695027   3.0127370  15.7044713  )
        20           Ti1 tau(  20) = (   6.4897317   1.5391078  15.7731133  )
        21           O1  tau(  21) = (   3.2904802   0.0005063   4.7018136  )
        22           O1  tau(  22) = (   6.4943121   0.0104379  17.3746616  )
        23           O1  tau(  23) = (   1.3043587   1.4918075   6.0039043  )
        24           O1  tau(  24) = (   5.2767064   1.4903225   6.0039473  )
        25           Ti1 tau(  25) = (   0.0000382   5.9609847   6.0000000  )
        26           Ti1 tau(  26) = (   3.2902200   4.4714249   6.0002472  )
        27           O1  tau(  27) = (   0.0002396   2.9813036   7.9858123  )
        28           O1  tau(  28) = (   3.2902150   2.9813002   7.3038282  )
        29           O1  tau(  29) = (   4.5938453   4.4726049   9.2879030  )
        30           O1  tau(  30) = (   1.9864658   4.4711199   9.2879459  )
        31           Ti1 tau(  31) = (   3.2891106   5.8743827   9.1763621  )
        32           Ti1 tau(  32) = (   0.0006254   4.4649316   9.2693709  )
        33           O1  tau(  33) = (   3.2806081   2.9711243  11.3509633  )
        34           O1  tau(  34) = (   0.0092240   2.9805883  10.6323155  )
        35           O1  tau(  35) = (   1.2760424   4.4718827  12.6381679  )
        36           O1  tau(  36) = (   5.2690016   4.4731519  12.6446470  )
        37           Ti1 tau(  37) = (   6.5708669   5.9382087  12.5160675  )
        38           Ti1 tau(  38) = (   3.2845625   4.4656782  12.4980923  )
        39           O1  tau(  39) = (   6.5779858   3.0049062  14.7590937  )
        40           O1  tau(  40) = (   3.2501146   3.0001303  13.9242794  )
        41           O1  tau(  41) = (   4.5300198   4.4412671  16.1793791  )
        42           O1  tau(  42) = (   2.0030354   4.4482434  16.2507355  )
        43           Ti1 tau(  43) = (   3.2558399   0.0045369  15.7947069  )
        44           Ti1 tau(  44) = (   0.0024851   4.6597080  16.1671864  )
        45           O1  tau(  45) = (   3.2900926   2.9813045   4.7018136  )
        46           O1  tau(  46) = (   1.3039711   4.4726057   6.0039043  )
        47           O1  tau(  47) = (   5.2763189   4.4711207   6.0039473  )
        48           N1  tau(  48) = (   0.8610865   2.3037131  18.4629187  )
        49           N1  tau(  49) = (   6.4742385   2.8627238  17.5618644  )
        50           C1  tau(  50) = (   1.1134797   3.0572184  19.7121060  )
        51           H1  tau(  51) = (   0.2160447   3.0254214  20.3281890  )
        52           H1  tau(  52) = (   1.9467850   2.5864873  20.2353232  )
        53           H1  tau(  53) = (   1.3463996   4.0866186  19.4485780  )
        54           H1  tau(  54) = (   0.5832711   1.3114681  18.6183785  )
        55           H1  tau(  55) = (   5.5643591   2.7461405  18.0238738  )
        56           H1  tau(  56) = (   1.7079168   2.1891883  17.8702682  )
        57           O1  tau(  57) = (   4.0734316   0.3075885  18.7765601  )
        58           H1  tau(  58) = (   4.9241673   0.1787741  18.2816895  )
        59           H1  tau(  59) = (   3.8734322   5.3936830  19.1372508  )

     number of k points=    10  Fermi-Dirac smearing, width (Ry)=  0.0073
                       cart. coord. in units 2pi/alat
        k(    1) = (   0.0000000   0.0000000   0.0000000), wk =   0.1250000
        k(    2) = (   0.0000000   0.0419351   0.0000000), wk =   0.2500000
        k(    3) = (   0.0000000  -0.0838702   0.0000000), wk =   0.1250000
        k(    4) = (   0.0379955   0.0000049   0.0000000), wk =   0.2500000
        k(    5) = (   0.0379955   0.0419400   0.0000000), wk =   0.2500000
        k(    6) = (   0.0379955  -0.0838652   0.0000000), wk =   0.2500000
        k(    7) = (   0.0379955  -0.0419301   0.0000000), wk =   0.2500000
        k(    8) = (  -0.0759910  -0.0000099   0.0000000), wk =   0.1250000
        k(    9) = (  -0.0759910   0.0419252   0.0000000), wk =   0.2500000
        k(   10) = (  -0.0759910  -0.0838800   0.0000000), wk =   0.1250000

     Initial potential from superposition of free atoms

     starting charge  389.99912, renormalised to  406.00000

     negative rho (up, down):  1.392E-02 0.000E+00

     %%%%%%%%%%%%%%%%%%%%%%%%%%%%%%%%%%%%%%%%%%%%%%%%%%%%%%%%%%%%%%%%%%%%%%%%
     %                                                                      %
     % You are using vdW-DF, which was implemented by the Thonhauser group. %
     % Please cite the following two papers that made this development      %
     % possible and the two reviews that describe the various versions:     %
     %                                                                      %
     %   T. Thonhauser et al., PRL 115, 136402 (2015).                      %
     %   T. Thonhauser et al., PRB 76, 125112 (2007).                       %
     %   K. Berland et al., Rep. Prog. Phys. 78, 066501 (2015).             %
     %   D.C. Langreth et al., J. Phys.: Condens. Matter 21, 084203 (2009). %
     %                                                                      %
     %                                                                      %
     % If you are calculating the stress with vdW-DF, please also cite:     %
     %                                                                      %
     %   R. Sabatini et al., J. Phys.: Condens. Matter 24, 424209 (2012).   %
     %                                                                      %
     %%%%%%%%%%%%%%%%%%%%%%%%%%%%%%%%%%%%%%%%%%%%%%%%%%%%%%%%%%%%%%%%%%%%%%%%

     Adding external electric field

     Computed dipole along edir(3) :
        Dipole              -15.6809 Ry au,        -39.8568 Debye
        Dipole field         -0.0296 Ry au,

        Potential amp.        2.7431 Ry
        Total length         46.3494 bohr

     Starting wfcs are  308 atomic wfcs
  @ DRIVER MODE: Message from server: STATUS
  @ DRIVER MODE: Message from server: POSDATA
  @ DRIVER MODE: Reading and sharing cell
  @ DRIVER MODE: Reading and sharing positions
  @ DRIVER MODE: Received positions

     Self-consistent Calculation

     iteration #  1     ecut=    29.40 Ry     beta= 0.05
     Davidson diagonalization with overlap
     c_bands:  2 eigenvalues not converged
     c_bands:  5 eigenvalues not converged
     c_bands:  2 eigenvalues not converged
     c_bands:  4 eigenvalues not converged
     c_bands:  4 eigenvalues not converged
     c_bands:  5 eigenvalues not converged
     c_bands:  5 eigenvalues not converged
     c_bands:  1 eigenvalues not converged
     ethr =  1.00E-05,  avg # of iterations = 22.5

[...]

     total energy              =   -2140.13313819 Ry
     estimated scf accuracy    <    9575.56242297 Ry

     iteration #  2     ecut=    29.40 Ry     beta= 0.05
     Davidson diagonalization with overlap
     ethr =  1.00E-02,  avg # of iterations = 32.4

[...]

     iteration # 71     ecut=    29.40 Ry     beta= 0.05
     Davidson diagonalization with overlap
     c_bands:  2 eigenvalues not converged
     ethr =  8.53E-11,  avg # of iterations = 12.2

[...]

     total energy              =   -2977.68474164 Ry
     estimated scf accuracy    <       0.00000011 Ry

     iteration # 73     ecut=    29.40 Ry     beta= 0.05
     Davidson diagonalization with overlap
     ethr =  2.75E-11,  avg # of iterations =  7.5

     negative rho (up, down):  1.243E-02 0.000E+00

     Adding external electric field

     Computed dipole along edir(3) :
        Dipole                1.6060 Ry au,          4.0821 Debye
        Dipole field          0.0030 Ry au,

        Potential amp.       -0.2810 Ry
        Total length         46.3494 bohr

     End of self-consistent calculation

          k = 0.0000 0.0000 0.0000 ( 18029 PWs)   bands (ev):

   -54.9544 -54.9179 -54.9150 -54.8838 -54.8441 -54.8342 -54.7941 -54.7625
   -54.7589 -54.7471 -54.7273 -54.7224 -54.7138 -54.6603 -53.9334 -53.8994
   -31.5263 -31.4080 -31.3208 -31.2821 -31.2660 -31.2519 -31.2493 -31.2442
   -31.2096 -31.2078 -31.1632 -31.1629 -31.1575 -31.1270 -31.1084 -31.0885
   -31.0782 -31.0724 -31.0709 -31.0636 -31.0295 -31.0253 -31.0192 -31.0127
   -30.9930 -30.9748 -30.9644 -30.9633 -30.9564 -30.9558 -30.9453 -30.9368
   -30.9210 -30.9203 -30.9118 -30.9106 -30.8850 -30.8779 -30.8760 -30.8758
   -30.8567 -30.8560 -30.3421 -30.2496 -30.2275 -30.1587 -30.0719 -29.9609
   -19.0084 -18.2085 -15.7895 -15.5219 -15.3966 -15.1964 -15.1431 -15.0383
   -14.8784 -14.8179 -14.7529 -14.7286 -14.7214 -14.6952 -14.6226 -14.5670
   -14.5385 -14.4857 -14.4850 -14.4489 -14.4418 -14.4367 -14.3824 -14.3785
   -14.3420 -14.3282 -14.3206 -14.1775 -14.0989 -14.0521 -14.0402 -13.1856
   -12.4359 -12.3188 -10.9692  -7.6066  -6.4043  -5.9728  -5.7535  -4.0106
    -3.8475  -3.1332  -2.9612  -2.9497  -2.8729  -2.8493  -2.6781  -2.6187
    -2.5091  -2.3881  -2.3180  -2.2208  -2.1769  -2.1584  -2.1451  -2.0306
    -1.9459  -1.9087  -1.8685  -1.8311  -1.8137  -1.7683  -1.7470  -1.7369
    -1.7043  -1.6792  -1.5259  -1.4511  -1.4151  -1.3808  -1.3405  -1.2830
    -1.2612  -1.2455  -1.2400  -1.2321  -1.2159  -1.1916  -1.1564  -1.1234
    -1.0550  -0.9712  -0.9622  -0.8502  -0.7670  -0.6338  -0.5810  -0.5230
    -0.4926  -0.4261  -0.3835  -0.3366  -0.3011  -0.2947  -0.2472  -0.1603
    -0.1465  -0.0901  -0.0713   0.0133   0.0600   0.0651   0.0762   0.2527
     0.2629   0.2807   0.3834   0.4646   0.5033   0.5200   0.5773   0.6400
     0.6421   0.6806   0.7031   0.7327   0.8162   0.9197   0.9447   0.9830
     0.9975   1.0228   1.0400   1.0668   1.1061   1.1874   1.1935   1.2705
     1.3625   1.3739   1.6371   1.6692   1.9999   2.0270   2.0892   2.2750
     2.6638   2.7113   4.1476   4.2096   4.2551   4.2805   4.2986   4.3803
     4.4001   4.6154   4.6418   4.6427   4.6520

[...]

          k = 0.0380-0.0419 0.0000 ( 17876 PWs)   bands (ev):

[...]

          k =-0.0760-0.0000 0.0000 ( 17886 PWs)   bands (ev):

[...]

          k =-0.0760-0.0839 0.0000 ( 17948 PWs)   bands (ev):

   -54.9425 -54.9266 -54.9008 -54.9007 -54.8416 -54.8246 -54.8036 -54.7564
   -54.7472 -54.7417 -54.7323 -54.7292 -54.7247 -54.6627 -53.9164 -53.9162
   -31.3351 -31.3236 -31.2578 -31.2232 -31.2231 -31.2168 -31.1932 -31.1932
   -31.1688 -31.1657 -31.1564 -31.1528 -31.1448 -31.0948 -31.0812 -31.0805
   -31.0763 -31.0749 -31.0719 -31.0690 -31.0424 -31.0319 -31.0297 -31.0233
   -31.0222 -31.0201 -31.0201 -31.0192 -30.9981 -30.9807 -30.9747 -30.9687
   -30.9614 -30.9558 -30.9541 -30.9502 -30.9499 -30.9231 -30.9159 -30.9126
   -30.9079 -30.8982 -30.2402 -30.2400 -30.1548 -30.1546 -30.1153 -30.1153
   -19.0037 -18.2090 -15.2802 -15.1533 -15.0548 -14.9989 -14.9520 -14.9364
   -14.9188 -14.8654 -14.8351 -14.7753 -14.7522 -14.7037 -14.6594 -14.6555
   -14.6278 -14.5482 -14.5329 -14.5205 -14.5130 -14.4621 -14.4481 -14.4253
   -14.4027 -14.3986 -14.3802 -14.3078 -14.2980 -14.2939 -14.2559 -13.1945
   -12.4205 -12.4202 -10.9699  -7.6177  -6.3949  -5.9723  -5.7382  -3.9890
    -3.8417  -2.5615  -2.5399  -2.4046  -2.3800  -2.2799  -2.1876  -2.1370
    -2.1314  -1.9928  -1.9599  -1.9441  -1.9287  -1.9164  -1.8678  -1.8442
    -1.8088  -1.7898  -1.7813  -1.7713  -1.7556  -1.7354  -1.6841  -1.6780
    -1.6685  -1.6543  -1.6101  -1.5947  -1.5635  -1.5527  -1.5246  -1.5019
    -1.4350  -1.3405  -1.2930  -1.2501  -1.1949  -1.1427  -1.1367  -1.0582
    -1.0403  -1.0085  -0.9776  -0.9526  -0.8571  -0.7835  -0.6889  -0.6865
    -0.6830  -0.5638  -0.5225  -0.5057  -0.4925  -0.4632  -0.3782  -0.3681
    -0.3087  -0.2342  -0.2074  -0.2032  -0.1765  -0.0578  -0.0316   0.0273
     0.0577   0.0904   0.0926   0.1721   0.1851   0.2443   0.2587   0.2720
     0.3169   0.3346   0.4329   0.5228   0.5584   0.6613   0.7540   0.7836
     0.8786   0.9363   1.0402   1.0617   1.0853   1.1814   1.1893   1.2248
     1.3541   1.3609   1.4770   1.5166   1.5267   1.5292   2.4473   2.4488
     2.5313   2.5314   4.2744   4.3971   4.4123   4.4586   4.5129   4.6543
     4.6777   4.7249   4.7270   4.8012   4.8105

     the Fermi energy is     4.1999 ev

!    total energy              =   -2977.68476262 Ry
     estimated scf accuracy    <       0.00000006 Ry
     smearing contrib. (-TS)   =      -0.03700076 Ry
     internal energy E=F+TS    =   -2977.64776186 Ry

     The total energy is F=E-TS. E is the sum of the following terms:
     one-electron contribution =  -23305.85190434 Ry
     hartree contribution      =   11753.91214185 Ry
     xc contribution           =    -496.60750151 Ry
     ewald contribution        =    9070.89463459 Ry
     electric field correction =       0.00486755 Ry

     convergence has been achieved in  73 iterations

     Forces acting on atoms (cartesian axes, Ry/au):

     atom    1 type  1   force =     0.00009222   -0.00025596    0.09413690
     atom    2 type  1   force =    -0.00007671   -0.00045235   -0.17748218
     atom    3 type  2   force =     0.00006298   -0.00033539   -0.02123355
     atom    4 type  2   force =     0.00003707   -0.00179371    0.05729257
     atom    5 type  2   force =    -0.01080164   -0.00101070    0.00668200
     atom    6 type  2   force =     0.01199842   -0.00033255    0.00503728
     atom    7 type  1   force =    -0.00060316    0.00105534   -0.01461238
     atom    8 type  1   force =     0.00086214    0.00330766    0.00460735
     atom    9 type  2   force =     0.00000914   -0.00005289    0.00013676
     atom   10 type  2   force =    -0.00368538    0.00210853   -0.00164387
     atom   11 type  2   force =    -0.00017505    0.00062022   -0.00009868
     atom   12 type  2   force =     0.00018847    0.00028010   -0.00021523
     atom   13 type  1   force =    -0.00020116   -0.00027077    0.00009692
     atom   14 type  1   force =     0.00024821   -0.00022733   -0.00038352
     atom   15 type  2   force =     0.00031262    0.00033244   -0.00006423
     atom   16 type  2   force =    -0.00011384    0.00025930   -0.00018735
     atom   17 type  2   force =     0.00021864   -0.00012976    0.00055655
     atom   18 type  2   force =     0.00033874   -0.00005152   -0.00007518
     atom   19 type  1   force =    -0.00011665    0.00025368   -0.00039712
     atom   20 type  1   force =     0.00075447   -0.00006977   -0.00013679
     atom   21 type  2   force =     0.00011635   -0.00008191    0.10377047
     atom   22 type  2   force =     0.00049195   -0.00016259   -0.00066395
     atom   23 type  2   force =    -0.07067900   -0.00014744   -0.02714526
     atom   24 type  2   force =     0.07063993    0.00031602   -0.02714648
     atom   25 type  1   force =     0.00011709   -0.00016981    0.09374984
     atom   26 type  1   force =    -0.00006613   -0.00053732   -0.17771690
     atom   27 type  2   force =     0.00006693   -0.00005046   -0.02033473
     atom   28 type  2   force =     0.00006563   -0.00146059    0.05629057
     atom   29 type  2   force =    -0.01130910   -0.00039052    0.00736484
     atom   30 type  2   force =     0.01241705    0.00000580    0.00575214
     atom   31 type  1   force =    -0.00073496    0.00573057   -0.01564230
     atom   32 type  1   force =     0.00081451   -0.00459471    0.00435265
     atom   33 type  2   force =     0.00001933    0.00015025    0.00029673
     atom   34 type  2   force =    -0.00321555   -0.00102792   -0.00519082
     atom   35 type  2   force =    -0.00011803   -0.00039990    0.00007729
     atom   36 type  2   force =     0.00021503   -0.00006335   -0.00009608
     atom   37 type  1   force =    -0.00010918    0.00043514   -0.00013475
     atom   38 type  1   force =     0.00008979    0.00015500   -0.00014158
     atom   39 type  2   force =    -0.00055968   -0.00028597   -0.00015639
     atom   40 type  2   force =     0.00013378   -0.00008579    0.00029475
     atom   41 type  2   force =     0.00019804    0.00011213   -0.00002407
     atom   42 type  2   force =     0.00072396    0.00026240   -0.00046810
     atom   43 type  1   force =    -0.00029754   -0.00006248   -0.00010823
     atom   44 type  1   force =     0.00071978    0.00041754    0.00020478
     atom   45 type  2   force =     0.00010411   -0.00006589    0.10377203
     atom   46 type  2   force =    -0.07067233   -0.00007016   -0.02711516
     atom   47 type  2   force =     0.07064880    0.00033229   -0.02713899
     atom   48 type  3   force =     0.00560774   -0.00226503    0.00264341
     atom   49 type  3   force =    -0.01953206   -0.00009108    0.00374777
     atom   50 type  4   force =     0.00063846    0.00040916    0.00027362
     atom   51 type  5   force =     0.00054460    0.00078248   -0.00032421
     atom   52 type  5   force =    -0.00012354    0.00032913    0.00023822
     atom   53 type  5   force =     0.00013337   -0.00055362   -0.00055388
     atom   54 type  5   force =     0.00041590   -0.00043035    0.00037381
     atom   55 type  5   force =     0.01185764    0.00139977   -0.00649601
     atom   56 type  5   force =     0.00139893   -0.00086352    0.00128363
     atom   57 type  2   force =    -0.00079771    0.00078849    0.00146688
     atom   58 type  5   force =     0.00030274   -0.00062942   -0.00102186
     atom   59 type  5   force =     0.00038380   -0.00037094   -0.00034994

     Total force =     0.366715     Total SCF correction =     0.000493
  @ DRIVER MODE: Message from server: STATUS
  @ DRIVER MODE: Message from server: GETFORCE
  @ DRIVER MODE: Returning v,forces,stress,ensemble

     Writing output data file ./calc.save/
  @ DRIVER MODE: Message from server: EXIT
  @ DRIVE MODE: Exiting

     General routines

     Parallel routines

   This run was terminated on:  18:44: 8  15Sep2021

   JOB DONE.