     Program PWSCF v.6.7GPU starts on 15Sep2021 at 18:50:23

     R & G space division:  proc/nbgrp/npool/nimage =      10
     Reading input from /storage/home/hcoda1/3/ntian30/research/carbon/CxH_vib/H2O_calc/ads_slab/CH2N2HH2O_a/out_0010/pw.inp
Warning: card &CELL ignored
Warning: card   CELL_DYNAMICS='IPI', ignored
Warning: card / ignored

     Current dimensions of program PWSCF are:
     Max number of different atomic species (ntypx) = 10
     Max number of k-points (npk) =  40000
     Max angular momentum in pseudopotentials (lmaxx) =  3
     Presently no symmetry can be used with electric field

     Message from routine cell_base_init:
     DEPRECATED: use true lattice parameter, not A to a.u. conversion factor

     IMPORTANT: XC functional enforced from input :
     Exchange-correlation= BEEF-VDW
                           (   1   4  43  14   2   0   0)
     Any further DFT definition will be discarded
     Please, verify this is what you really want

  @ DRIVER MODE: Connecting to
 qe_1139763_2852606.sched-torque.pace.gatech.eduun8k2sw1_scratch
  using UNIX socket
  @ DRIVER MODE: Message from server: STATUS
  @ DRIVER MODE: Message from server: INIT
  @ DRIVER MODE: Receiving replica           0          -1
  @ DRIVER MODE: Receiving encoded integer          25
  @ DRIVER MODE:  SCF:  T  FORCE:  T  STRESS:  F  VC:  F  ENSEMBLE:  F
  @ DRIVER MODE:  SCF:  T  FORCE:  T  STRESS:  F  VC:  F  ENSEMBLE:  F

     Using Slab Decomposition

     bravais-lattice index     =            0
     lattice parameter (alat)  =       1.8897  a.u.
     unit-cell volume          =    6658.9804 (a.u.)^3
     number of atoms/cell      =           56
     number of atomic types    =            5
     number of electrons       =       403.00
     number of Kohn-Sham states=          211
     kinetic-energy cutoff     =      29.3995  Ry
     charge density cutoff     =     293.9946  Ry
     scf convergence threshold =      7.3E-08
     mixing beta               =       0.0500
     number of iterations used =            8  plain     mixing
     Exchange-correlation= BEEF-VDW
                           (   1   4  43  14   2   0   0)

     celldm(1)=   1.889726  celldm(2)=   0.000000  celldm(3)=   0.000000
     celldm(4)=   0.000000  celldm(5)=   0.000000  celldm(6)=   0.000000

     crystal axes: (cart. coord. in units of alat)
               a(1) = (   6.579727   0.000000   0.000000 )
               a(2) = (  -0.000775   5.961596   0.000000 )
               a(3) = (   0.000000   0.000000  25.155947 )

     reciprocal axes: (cart. coord. in units 2 pi/alat)
               b(1) = (  0.151982  0.000020  0.000000 )
               b(2) = (  0.000000  0.167740  0.000000 )
               b(3) = (  0.000000  0.000000  0.039752 )

     PseudoPot. # 1 for Ti read from file:
     /storage/coda1/p-amedford6/0/shared/rich_project_chbe-medford/medford-share/data/pseudos_module/espresso/nninc/pbe/van/Ti.UPF
     MD5 check sum: 8e4df49b7f0d34bbd5052bf3f5ea0213
     Pseudo is Ultrasoft, Zval = 12.0
     Generated by new atomic code, or converted to UPF format
     Using radial grid of  851 points,  6 beta functions with:
                l(1) =   0
                l(2) =   0
                l(3) =   1
                l(4) =   1
                l(5) =   2
                l(6) =   2
     Q(r) pseudized with  8 coefficients,  rinner =    1.000   1.000   1.000
                                                       1.000   1.000

     PseudoPot. # 2 for O  read from file:
     /storage/coda1/p-amedford6/0/shared/rich_project_chbe-medford/medford-share/data/pseudos_module/espresso/nninc/pbe/van/O.UPF
     MD5 check sum: 78c19812648e8988a0fe644b0f25305e
     Pseudo is Ultrasoft, Zval =  6.0
     Generated by new atomic code, or converted to UPF format
     Using radial grid of  737 points,  4 beta functions with:
                l(1) =   0
                l(2) =   0
                l(3) =   1
                l(4) =   1
     Q(r) pseudized with  8 coefficients,  rinner =    0.800   0.800   0.800

     PseudoPot. # 3 for N  read from file:
     /storage/coda1/p-amedford6/0/shared/rich_project_chbe-medford/medford-share/data/pseudos_module/espresso/nninc/pbe/van/N.UPF
     MD5 check sum: 90d10febe142ad51ac9d5be1deb811c4
     Pseudo is Ultrasoft, Zval =  5.0
     Generated by new atomic code, or converted to UPF format
     Using radial grid of  729 points,  4 beta functions with:
                l(1) =   0
                l(2) =   0
                l(3) =   1
                l(4) =   1
     Q(r) pseudized with  8 coefficients,  rinner =    0.800   0.800   0.800

     PseudoPot. # 4 for C  read from file:
     /storage/coda1/p-amedford6/0/shared/rich_project_chbe-medford/medford-share/data/pseudos_module/espresso/nninc/pbe/van/C.UPF
     MD5 check sum: 1a69bf6b8db32088f5b2163dbdb77a27
     Pseudo is Ultrasoft, Zval =  4.0
     Generated by new atomic code, or converted to UPF format
     Using radial grid of  721 points,  4 beta functions with:
                l(1) =   0
                l(2) =   0
                l(3) =   1
                l(4) =   1
     Q(r) pseudized with  8 coefficients,  rinner =    0.800   0.800   0.800

     PseudoPot. # 5 for H  read from file:
     /storage/coda1/p-amedford6/0/shared/rich_project_chbe-medford/medford-share/data/pseudos_module/espresso/nninc/pbe/van/H.UPF
     MD5 check sum: b5ee9d7bfd3a09ee7748110bda690ff7
     Pseudo is Ultrasoft, Zval =  1.0
     Generated by new atomic code, or converted to UPF format
     Using radial grid of  615 points,  1 beta functions with:
                l(1) =   0
     Q(r) pseudized with  8 coefficients,  rinner =    0.800

     atomic species   valence    mass     pseudopotential
        Ti1           12.00    47.86700     Ti( 1.00)
        O1             6.00    15.99900     O ( 1.00)
        N1             5.00    14.00700     N ( 1.00)
        C1             4.00    12.01100     C ( 1.00)
        H1             1.00     1.00800     H ( 1.00)

     No symmetry found

   Cartesian axes

     site n.     atom                  positions (alat units)
         1           Ti1 tau(   1) = (   0.0004258   2.9801865   6.0000000  )
         2           Ti1 tau(   2) = (   3.2906075   1.4906267   6.0002472  )
         3           O1  tau(   3) = (   0.0006271   0.0005054   7.9858123  )
         4           O1  tau(   4) = (   3.2906025   0.0005020   7.3038282  )
         5           O1  tau(   5) = (   4.5942328   1.4918067   9.2879030  )
         6           O1  tau(   6) = (   1.9868534   1.4903216   9.2879459  )
         7           Ti1 tau(   7) = (   3.2907910   2.8959150   9.1758416  )
         8           Ti1 tau(   8) = (   0.0015273   1.4827037   9.2680791  )
         9           O1  tau(   9) = (   3.2932810   5.9556063  11.3276769  )
        10           O1  tau(  10) = (   0.0116148   5.9584955  10.6183126  )
        11           O1  tau(  11) = (   1.2966828   1.5020869  12.6141357  )
        12           O1  tau(  12) = (   5.2995835   1.4923495  12.6341875  )
        13           Ti1 tau(  13) = (   6.5470072   2.9473109  12.5798724  )
        14           Ti1 tau(  14) = (   3.2302912   1.4573256  12.5082679  )
        15           O1  tau(  15) = (   0.0525813   0.0137714  14.6435187  )
        16           O1  tau(  16) = (   3.2708393   0.0302713  13.9228694  )
        17           O1  tau(  17) = (   4.5627544   1.5900677  16.0055000  )
        18           O1  tau(  18) = (   2.0437599   1.5040777  16.0764052  )
        19           Ti1 tau(  19) = (   3.3063064   2.9825517  15.6619520  )
        20           Ti1 tau(  20) = (   6.5607061   1.3194196  15.9785141  )
        21           O1  tau(  21) = (   3.2904802   0.0005063   4.7018136  )
        22           O1  tau(  22) = (   6.3855286   5.9589440  17.1610702  )
        23           O1  tau(  23) = (   1.3043587   1.4918075   6.0039043  )
        24           O1  tau(  24) = (   5.2767064   1.4903225   6.0039473  )
        25           Ti1 tau(  25) = (   0.0000382   5.9609847   6.0000000  )
        26           Ti1 tau(  26) = (   3.2902200   4.4714249   6.0002472  )
        27           O1  tau(  27) = (   0.0002396   2.9813036   7.9858123  )
        28           O1  tau(  28) = (   3.2902150   2.9813002   7.3038282  )
        29           O1  tau(  29) = (   4.5938453   4.4726049   9.2879030  )
        30           O1  tau(  30) = (   1.9864658   4.4711199   9.2879459  )
        31           Ti1 tau(  31) = (   3.2891106   5.8743827   9.1763621  )
        32           Ti1 tau(  32) = (   0.0006254   4.4649316   9.2693709  )
        33           O1  tau(  33) = (   3.2946552   2.9814125  11.3288906  )
        34           O1  tau(  34) = (   0.0092240   2.9805883  10.6323155  )
        35           O1  tau(  35) = (   1.2978438   4.4726441  12.6233041  )
        36           O1  tau(  36) = (   5.2969606   4.4732664  12.6435870  )
        37           Ti1 tau(  37) = (   6.5415350   5.9305516  12.5357152  )
        38           Ti1 tau(  38) = (   3.2303862   4.4559975  12.4807118  )
        39           O1  tau(  39) = (   0.0164246   2.9899045  14.7829194  )
        40           O1  tau(  40) = (   3.2688228   2.9752494  13.8698570  )
        41           O1  tau(  41) = (   4.5210259   4.4573316  15.9082071  )
        42           O1  tau(  42) = (   2.0412773   4.4882057  16.0214637  )
        43           Ti1 tau(  43) = (   3.2233344   5.9452837  15.7820064  )
        44           Ti1 tau(  44) = (   6.5355943   4.4735413  15.8975681  )
        45           O1  tau(  45) = (   3.2900926   2.9813045   4.7018136  )
        46           O1  tau(  46) = (   1.3039711   4.4726057   6.0039043  )
        47           O1  tau(  47) = (   5.2763189   4.4711207   6.0039473  )
        48           N1  tau(  48) = (   0.2167872   2.3688911  18.0161765  )
        49           C1  tau(  49) = (   0.4968348   1.9034616  19.1878903  )
        50           H1  tau(  50) = (   0.5617972   2.5522217  20.0513624  )
        51           H1  tau(  51) = (   0.6371857   0.8299532  19.2874115  )
        52           N1  tau(  52) = (   6.5661014   3.6386027  17.7750644  )
        53           H1  tau(  53) = (   0.0713089   4.2532688  18.5884219  )
        54           O1  tau(  54) = (   3.6608114   5.9026821  18.0962282  )
        55           H1  tau(  55) = (   4.6425638   0.0038819  18.0438526  )
        56           H1  tau(  56) = (   3.3558581   0.7595698  18.5153002  )

     number of k points=    10  Fermi-Dirac smearing, width (Ry)=  0.0073
                       cart. coord. in units 2pi/alat
        k(    1) = (   0.0000000   0.0000000   0.0000000), wk =   0.1250000
        k(    2) = (   0.0000000   0.0419351   0.0000000), wk =   0.2500000
        k(    3) = (   0.0000000  -0.0838702   0.0000000), wk =   0.1250000
        k(    4) = (   0.0379955   0.0000049   0.0000000), wk =   0.2500000
        k(    5) = (   0.0379955   0.0419400   0.0000000), wk =   0.2500000
        k(    6) = (   0.0379955  -0.0838652   0.0000000), wk =   0.2500000
        k(    7) = (   0.0379955  -0.0419301   0.0000000), wk =   0.2500000
        k(    8) = (  -0.0759910  -0.0000099   0.0000000), wk =   0.1250000
        k(    9) = (  -0.0759910   0.0419252   0.0000000), wk =   0.2500000
        k(   10) = (  -0.0759910  -0.0838800   0.0000000), wk =   0.1250000

     Initial potential from superposition of free atoms

     starting charge  386.99914, renormalised to  403.00000

     negative rho (up, down):  1.554E-02 0.000E+00

     %%%%%%%%%%%%%%%%%%%%%%%%%%%%%%%%%%%%%%%%%%%%%%%%%%%%%%%%%%%%%%%%%%%%%%%%
     %                                                                      %
     % You are using vdW-DF, which was implemented by the Thonhauser group. %
     % Please cite the following two papers that made this development      %
     % possible and the two reviews that describe the various versions:     %
     %                                                                      %
     %   T. Thonhauser et al., PRL 115, 136402 (2015).                      %
     %   T. Thonhauser et al., PRB 76, 125112 (2007).                       %
     %   K. Berland et al., Rep. Prog. Phys. 78, 066501 (2015).             %
     %   D.C. Langreth et al., J. Phys.: Condens. Matter 21, 084203 (2009). %
     %                                                                      %
     %                                                                      %
     % If you are calculating the stress with vdW-DF, please also cite:     %
     %                                                                      %
     %   R. Sabatini et al., J. Phys.: Condens. Matter 24, 424209 (2012).   %
     %                                                                      %
     %%%%%%%%%%%%%%%%%%%%%%%%%%%%%%%%%%%%%%%%%%%%%%%%%%%%%%%%%%%%%%%%%%%%%%%%

     Adding external electric field

     Computed dipole along edir(3) :
        Dipole              -12.7952 Ry au,        -32.5221 Debye
        Dipole field         -0.0241 Ry au,

        Potential amp.        2.2383 Ry
        Total length         46.3494 bohr

     Starting wfcs are  305 atomic wfcs
  @ DRIVER MODE: Message from server: STATUS
  @ DRIVER MODE: Message from server: POSDATA
  @ DRIVER MODE: Reading and sharing cell
  @ DRIVER MODE: Reading and sharing positions
  @ DRIVER MODE: Received positions

     Self-consistent Calculation

     iteration #  1     ecut=    29.40 Ry     beta= 0.05
     Davidson diagonalization with overlap
     c_bands:  3 eigenvalues not converged
     c_bands:  3 eigenvalues not converged
     c_bands:  4 eigenvalues not converged
     c_bands:  5 eigenvalues not converged
     c_bands:  1 eigenvalues not converged
     c_bands:  1 eigenvalues not converged
     c_bands:  4 eigenvalues not converged
     c_bands:  3 eigenvalues not converged
     ethr =  1.00E-05,  avg # of iterations = 27.5

[...]

     total energy              =   -2369.05869115 Ry
     estimated scf accuracy    <    6884.40261908 Ry

     iteration #  2     ecut=    29.40 Ry     beta= 0.05
     Davidson diagonalization with overlap
     ethr =  1.00E-02,  avg # of iterations = 24.0

[...]

     iteration # 60     ecut=    29.40 Ry     beta= 0.05
     Davidson diagonalization with overlap
     c_bands:  1 eigenvalues not converged
     ethr =  1.06E-10,  avg # of iterations = 16.7

[...]

     total energy              =   -2973.98307493 Ry
     estimated scf accuracy    <       0.00000014 Ry

     iteration # 63     ecut=    29.40 Ry     beta= 0.05
     Davidson diagonalization with overlap
     ethr =  3.44E-11,  avg # of iterations = 14.0

     negative rho (up, down):  1.542E-02 0.000E+00

     Adding external electric field

     Computed dipole along edir(3) :
        Dipole                0.9278 Ry au,          2.3582 Debye
        Dipole field          0.0018 Ry au,

        Potential amp.       -0.1623 Ry
        Total length         46.3494 bohr

     End of self-consistent calculation

          k = 0.0000 0.0000 0.0000 ( 18029 PWs)   bands (ev):

   -55.6108 -55.5831 -55.5767 -55.5450 -55.4924 -55.4809 -55.4508 -55.4286
   -55.3946 -55.3902 -55.3562 -55.3329 -55.0401 -54.9876 -54.5906 -54.5565
   -32.1271 -32.0947 -31.9832 -31.9283 -31.9148 -31.9026 -31.8815 -31.8685
   -31.8552 -31.8146 -31.7633 -31.7595 -31.7311 -31.7307 -31.7269 -31.7166
   -31.7125 -31.7091 -31.7059 -31.7038 -31.6731 -31.6682 -31.6596 -31.6318
   -31.6224 -31.6215 -31.6143 -31.6112 -31.5959 -31.5877 -31.5704 -31.5572
   -31.5449 -31.5386 -31.5332 -31.5036 -31.5009 -31.3039 -31.2640 -31.2391
   -31.1857 -31.1444 -30.9974 -30.9095 -30.8871 -30.8145 -30.7280 -30.6166
   -18.6660 -17.9258 -16.3309 -16.0885 -15.8490 -15.7718 -15.7395 -15.5258
   -15.4229 -15.3673 -15.2320 -15.1832 -15.1695 -15.1493 -15.1243 -15.0900
   -15.0640 -15.0505 -15.0434 -15.0270 -15.0016 -14.9750 -14.9545 -14.9508
   -14.9097 -14.8409 -14.7715 -14.7458 -14.6841 -14.6718 -14.2321 -13.0920
   -12.9755 -12.0791  -7.8462  -6.4500  -5.3195  -4.4869  -3.7046  -3.5666
    -3.5189  -3.4691  -3.4604  -3.2715  -3.1885  -3.0581  -2.8957  -2.8521
    -2.7782  -2.7404  -2.7035  -2.6382  -2.5971  -2.4905  -2.4534  -2.4236
    -2.4082  -2.3633  -2.3580  -2.3541  -2.2927  -2.2559  -2.1776  -2.1511
    -2.0721  -2.0019  -1.9734  -1.9460  -1.9249  -1.9080  -1.9020  -1.8553
    -1.8542  -1.8524  -1.7791  -1.7284  -1.6587  -1.6100  -1.5465  -1.4167
    -1.3742  -1.2633  -1.2185  -1.0973  -1.0935  -1.0706  -1.0463  -1.0072
    -0.9992  -0.8759  -0.7907  -0.7402  -0.7058  -0.6438  -0.5413  -0.5208
    -0.4309  -0.4259  -0.3713  -0.3583  -0.3432  -0.3134  -0.2361  -0.1233
    -0.1037  -0.0431   0.0059   0.0689   0.1125   0.1373   0.1750   0.2251
     0.2486   0.2893   0.3158   0.3274   0.3606   0.3980   0.4205   0.4986
     0.5714   0.6209   0.6702   0.7100   0.7137   0.8923   1.0046   1.0436
     1.1745   1.1896   1.3652   1.4329   1.5028   1.6246   2.0030   2.0486
     2.2201   3.4967   3.6103   3.6348   3.6447   3.7480   3.8816   3.9643
     4.0049   4.0294   4.0684

[...]

          k = 0.0380-0.0419 0.0000 ( 17876 PWs)   bands (ev):

[...]

          k =-0.0760-0.0000 0.0000 ( 17886 PWs)   bands (ev):

[...]

          k =-0.0760-0.0839 0.0000 ( 17948 PWs)   bands (ev):

   -55.5937 -55.5936 -55.5703 -55.5575 -55.4834 -55.4788 -55.4598 -55.4119
   -55.4108 -55.3758 -55.3707 -55.3348 -55.0335 -54.9941 -54.5737 -54.5733
   -31.9434 -31.9182 -31.9101 -31.9099 -31.8880 -31.8879 -31.8232 -31.8185
   -31.8102 -31.8053 -31.7864 -31.7366 -31.7327 -31.7296 -31.7203 -31.7189
   -31.7168 -31.7137 -31.7132 -31.7115 -31.7098 -31.6973 -31.6881 -31.6735
   -31.6708 -31.6662 -31.6446 -31.6159 -31.6150 -31.6054 -31.5966 -31.5925
   -31.5893 -31.5883 -31.5869 -31.5418 -31.5167 -31.2922 -31.2657 -31.2612
   -31.2431 -31.1865 -30.8999 -30.8997 -30.8104 -30.8100 -30.7714 -30.7712
   -18.6640 -17.9134 -15.7717 -15.6788 -15.5917 -15.5496 -15.4710 -15.4526
   -15.3985 -15.3336 -15.2951 -15.2768 -15.2352 -15.2064 -15.1622 -15.1500
   -15.1419 -15.1185 -15.0946 -15.0701 -15.0588 -15.0528 -15.0481 -15.0348
   -15.0012 -14.9695 -14.9325 -14.9286 -14.9002 -14.6574 -14.5815 -13.0774
   -13.0772 -12.0321  -7.7700  -6.4439  -5.3814  -4.5583  -3.1869  -3.0597
    -2.8942  -2.8498  -2.8061  -2.7481  -2.7399  -2.6858  -2.5613  -2.5520
    -2.5201  -2.4571  -2.4335  -2.4302  -2.4217  -2.4176  -2.3966  -2.3602
    -2.3593  -2.3033  -2.2957  -2.2844  -2.2789  -2.2576  -2.2432  -2.2400
    -2.2162  -2.1704  -2.1543  -2.1402  -2.0341  -1.9276  -1.8740  -1.8333
    -1.8033  -1.7596  -1.7548  -1.7348  -1.7193  -1.6804  -1.6646  -1.6086
    -1.4943  -1.4156  -1.3297  -1.2991  -1.2702  -1.1997  -1.1547  -1.0905
    -1.0500  -1.0443  -0.9609  -0.8467  -0.8337  -0.7962  -0.7679  -0.6917
    -0.6632  -0.6306  -0.5698  -0.5631  -0.5356  -0.5076  -0.4726  -0.3801
    -0.3616  -0.3555  -0.3258  -0.3169  -0.3055  -0.2654  -0.1908  -0.0929
    -0.0213  -0.0150   0.0907   0.2173   0.3157   0.4472   0.4759   0.5242
     0.5767   0.6073   0.6943   0.7023   0.7276   0.7923   0.8346   0.9027
     0.9272   0.9424   1.0254   1.0341   1.7967   1.7980   1.8686   1.8688
     2.1637   3.8610   3.8894   3.9099   3.9550   4.0323   4.0562   4.0572
     4.0632   4.1792   4.1911

     the Fermi energy is     3.5156 ev

!    total energy              =   -2973.98311572 Ry
     estimated scf accuracy    <       0.00000007 Ry
     smearing contrib. (-TS)   =      -0.02040328 Ry
     internal energy E=F+TS    =   -2973.96271244 Ry

     The total energy is F=E-TS. E is the sum of the following terms:
     one-electron contribution =  -24204.36224844 Ry
     hartree contribution      =   12196.83095098 Ry
     xc contribution           =    -494.26312699 Ry
     ewald contribution        =    9527.83008754 Ry
     electric field correction =       0.00162447 Ry

     convergence has been achieved in  63 iterations

     Forces acting on atoms (cartesian axes, Ry/au):

     atom    1 type  1   force =    -0.00006398   -0.00019954    0.09558411
     atom    2 type  1   force =     0.00002655   -0.00035610   -0.17557310
     atom    3 type  2   force =     0.00009449   -0.00012504   -0.02314421
     atom    4 type  2   force =     0.00000540   -0.00139153    0.05289667
     atom    5 type  2   force =    -0.01000232   -0.00075241    0.00325004
     atom    6 type  2   force =     0.01153231   -0.00009350    0.00282511
     atom    7 type  1   force =     0.00045704    0.00027166   -0.00665020
     atom    8 type  1   force =     0.00028943    0.00536388    0.01757231
     atom    9 type  2   force =    -0.00015124   -0.00015736   -0.00038478
     atom   10 type  2   force =    -0.00346623    0.00075398   -0.01265775
     atom   11 type  2   force =    -0.00081220   -0.00032916    0.00009197
     atom   12 type  2   force =     0.00032569   -0.00017317    0.00009723
     atom   13 type  1   force =    -0.00026085    0.00039176   -0.00020011
     atom   14 type  1   force =     0.00021832    0.00003788    0.00068165
     atom   15 type  2   force =    -0.00014074    0.00033822   -0.00030657
     atom   16 type  2   force =    -0.00004061   -0.00021495   -0.00006050
     atom   17 type  2   force =     0.00054167   -0.00013665   -0.00005032
     atom   18 type  2   force =    -0.00031609   -0.00034858    0.00000720
     atom   19 type  1   force =    -0.00008143    0.00000385    0.00026336
     atom   20 type  1   force =     0.00050910   -0.00038353   -0.00065173
     atom   21 type  2   force =     0.00007038    0.00003325    0.10317604
     atom   22 type  2   force =     0.00005742    0.00025900    0.00001844
     atom   23 type  2   force =    -0.07160457   -0.00013339   -0.02754241
     atom   24 type  2   force =     0.07152727    0.00036882   -0.02758027
     atom   25 type  1   force =     0.00018017   -0.00008612    0.09520368
     atom   26 type  1   force =     0.00008284   -0.00039261   -0.17575218
     atom   27 type  2   force =     0.00011134   -0.00023975   -0.02206190
     atom   28 type  2   force =     0.00002767   -0.00099001    0.05229830
     atom   29 type  2   force =    -0.01015208    0.00037197    0.00285562
     atom   30 type  2   force =     0.01155032    0.00074692    0.00247633
     atom   31 type  1   force =     0.00027294    0.00394450   -0.01132670
     atom   32 type  1   force =     0.00045390   -0.00672773    0.01787175
     atom   33 type  2   force =    -0.00008226    0.00005173   -0.00019326
     atom   34 type  2   force =    -0.00395656    0.00073639   -0.01214540
     atom   35 type  2   force =    -0.00021935    0.00008590   -0.00016412
     atom   36 type  2   force =    -0.00000490    0.00003572   -0.00007610
     atom   37 type  1   force =    -0.00004067   -0.00041921    0.00034697
     atom   38 type  1   force =     0.00005924    0.00001769    0.00040320
     atom   39 type  2   force =     0.00036326   -0.00038320    0.00025505
     atom   40 type  2   force =    -0.00050552    0.00026559   -0.00007486
     atom   41 type  2   force =    -0.00003859    0.00011914   -0.00022229
     atom   42 type  2   force =     0.00041137    0.00021119    0.00019842
     atom   43 type  1   force =    -0.00012392   -0.00045366   -0.00007032
     atom   44 type  1   force =    -0.00014279   -0.00043349    0.00064249
     atom   45 type  2   force =     0.00006943   -0.00000484    0.10313912
     atom   46 type  2   force =    -0.07160542   -0.00003583   -0.02751262
     atom   47 type  2   force =     0.07153348    0.00035514   -0.02760386
     atom   48 type  3   force =    -0.00086966    0.00539729   -0.00330406
     atom   49 type  4   force =     0.00390882   -0.02566923    0.00171146
     atom   50 type  5   force =     0.00041539    0.00578750    0.00507345
     atom   51 type  5   force =    -0.00083340    0.01181014   -0.00030351
     atom   52 type  3   force =    -0.00104371    0.00237162   -0.00311227
     atom   53 type  5   force =     0.00055968    0.00028372   -0.00035938
     atom   54 type  2   force =    -0.00053374   -0.00133477   -0.00053922
     atom   55 type  5   force =     0.00176273   -0.00001018    0.00014032
     atom   56 type  5   force =    -0.00032486    0.00156111    0.00054369

     Total force =     0.366010     Total SCF correction =     0.000527
  @ DRIVER MODE: Message from server: STATUS
  @ DRIVER MODE: Message from server: GETFORCE
  @ DRIVER MODE: Returning v,forces,stress,ensemble

     Writing output data file ./calc.save/
  @ DRIVER MODE: Message from server: EXIT
  @ DRIVE MODE: Exiting

     General routines

     Parallel routines

   This run was terminated on:  19: 8:17  15Sep2021

   JOB DONE.