     Program PWSCF v.6.7GPU starts on 15Sep2021 at 22:25:41

     R & G space division:  proc/nbgrp/npool/nimage =      10
     Reading input from /storage/home/hcoda1/3/ntian30/research/carbon/CxH_vib/H2O_calc/ads_slab/CHH2O_a/out_0029/pw.inp
Warning: card &CELL ignored
Warning: card   CELL_DYNAMICS='IPI', ignored
Warning: card / ignored

     Current dimensions of program PWSCF are:
     Max number of different atomic species (ntypx) = 10
     Max number of k-points (npk) =  40000
     Max angular momentum in pseudopotentials (lmaxx) =  3
     Presently no symmetry can be used with electric field

     Message from routine cell_base_init:
     DEPRECATED: use true lattice parameter, not A to a.u. conversion factor

     IMPORTANT: XC functional enforced from input :
     Exchange-correlation= BEEF-VDW
                           (   1   4  43  14   2   0   0)
     Any further DFT definition will be discarded
     Please, verify this is what you really want

  @ DRIVER MODE: Connecting to
 qe_1139763_2852624.sched-torque.pace.gatech.edubbmh7ls6_scratch
  using UNIX socket
  @ DRIVER MODE: Message from server: STATUS
  @ DRIVER MODE: Message from server: INIT
  @ DRIVER MODE: Receiving replica           0          -1
  @ DRIVER MODE: Receiving encoded integer          25
  @ DRIVER MODE:  SCF:  T  FORCE:  T  STRESS:  F  VC:  F  ENSEMBLE:  F
  @ DRIVER MODE:  SCF:  T  FORCE:  T  STRESS:  F  VC:  F  ENSEMBLE:  F

     Using Slab Decomposition

     bravais-lattice index     =            0
     lattice parameter (alat)  =       1.8897  a.u.
     unit-cell volume          =    6658.9804 (a.u.)^3
     number of atoms/cell      =           52
     number of atomic types    =            4
     number of electrons       =       391.00
     number of Kohn-Sham states=          205
     kinetic-energy cutoff     =      29.3995  Ry
     charge density cutoff     =     293.9946  Ry
     scf convergence threshold =      7.3E-08
     mixing beta               =       0.0500
     number of iterations used =            8  plain     mixing
     Exchange-correlation= BEEF-VDW
                           (   1   4  43  14   2   0   0)

     celldm(1)=   1.889726  celldm(2)=   0.000000  celldm(3)=   0.000000
     celldm(4)=   0.000000  celldm(5)=   0.000000  celldm(6)=   0.000000

     crystal axes: (cart. coord. in units of alat)
               a(1) = (   6.579727   0.000000   0.000000 )
               a(2) = (  -0.000775   5.961596   0.000000 )
               a(3) = (   0.000000   0.000000  25.155947 )

     reciprocal axes: (cart. coord. in units 2 pi/alat)
               b(1) = (  0.151982  0.000020  0.000000 )
               b(2) = (  0.000000  0.167740  0.000000 )
               b(3) = (  0.000000  0.000000  0.039752 )

     PseudoPot. # 1 for Ti read from file:
     /storage/coda1/p-amedford6/0/shared/rich_project_chbe-medford/medford-share/data/pseudos_module/espresso/nninc/pbe/van/Ti.UPF
     MD5 check sum: 8e4df49b7f0d34bbd5052bf3f5ea0213
     Pseudo is Ultrasoft, Zval = 12.0
     Generated by new atomic code, or converted to UPF format
     Using radial grid of  851 points,  6 beta functions with:
                l(1) =   0
                l(2) =   0
                l(3) =   1
                l(4) =   1
                l(5) =   2
                l(6) =   2
     Q(r) pseudized with  8 coefficients,  rinner =    1.000   1.000   1.000
                                                       1.000   1.000

     PseudoPot. # 2 for O  read from file:
     /storage/coda1/p-amedford6/0/shared/rich_project_chbe-medford/medford-share/data/pseudos_module/espresso/nninc/pbe/van/O.UPF
     MD5 check sum: 78c19812648e8988a0fe644b0f25305e
     Pseudo is Ultrasoft, Zval =  6.0
     Generated by new atomic code, or converted to UPF format
     Using radial grid of  737 points,  4 beta functions with:
                l(1) =   0
                l(2) =   0
                l(3) =   1
                l(4) =   1
     Q(r) pseudized with  8 coefficients,  rinner =    0.800   0.800   0.800

     PseudoPot. # 3 for C  read from file:
     /storage/coda1/p-amedford6/0/shared/rich_project_chbe-medford/medford-share/data/pseudos_module/espresso/nninc/pbe/van/C.UPF
     MD5 check sum: 1a69bf6b8db32088f5b2163dbdb77a27
     Pseudo is Ultrasoft, Zval =  4.0
     Generated by new atomic code, or converted to UPF format
     Using radial grid of  721 points,  4 beta functions with:
                l(1) =   0
                l(2) =   0
                l(3) =   1
                l(4) =   1
     Q(r) pseudized with  8 coefficients,  rinner =    0.800   0.800   0.800

     PseudoPot. # 4 for H  read from file:
     /storage/coda1/p-amedford6/0/shared/rich_project_chbe-medford/medford-share/data/pseudos_module/espresso/nninc/pbe/van/H.UPF
     MD5 check sum: b5ee9d7bfd3a09ee7748110bda690ff7
     Pseudo is Ultrasoft, Zval =  1.0
     Generated by new atomic code, or converted to UPF format
     Using radial grid of  615 points,  1 beta functions with:
                l(1) =   0
     Q(r) pseudized with  8 coefficients,  rinner =    0.800

     atomic species   valence    mass     pseudopotential
        Ti1           12.00    47.86700     Ti( 1.00)
        O1             6.00    15.99900     O ( 1.00)
        C1             4.00    12.01100     C ( 1.00)
        H1             1.00     1.00800     H ( 1.00)

     No symmetry found

   Cartesian axes

     site n.     atom                  positions (alat units)
         1           Ti1 tau(   1) = (   0.0004258   2.9801865   6.0000000  )
         2           Ti1 tau(   2) = (   3.2906075   1.4906267   6.0002472  )
         3           O1  tau(   3) = (   0.0006271   0.0005054   7.9858123  )
         4           O1  tau(   4) = (   3.2906025   0.0005020   7.3038282  )
         5           O1  tau(   5) = (   4.5942328   1.4918067   9.2879030  )
         6           O1  tau(   6) = (   1.9868534   1.4903216   9.2879459  )
         7           Ti1 tau(   7) = (   3.2871774   2.8648350   9.1721854  )
         8           Ti1 tau(   8) = (  -0.0000353   1.4301884   9.3769680  )
         9           O1  tau(   9) = (   3.2813214   0.0053726  11.3480220  )
        10           O1  tau(  10) = (  -0.0004909   5.9494466  10.5591019  )
        11           O1  tau(  11) = (   1.2709337   1.5062281  12.6398922  )
        12           O1  tau(  12) = (   5.2659652   1.5004022  12.6256763  )
        13           Ti1 tau(  13) = (   0.0747037   2.9811850  12.8215060  )
        14           Ti1 tau(  14) = (   3.3904977   1.4744036  12.5039750  )
        15           O1  tau(  15) = (   6.5763451   5.9564350  14.6046450  )
        16           O1  tau(  16) = (   3.2806839   0.0238217  13.9603601  )
        17           O1  tau(  17) = (   4.5226094   1.5694261  16.0518702  )
        18           O1  tau(  18) = (   2.0202940   1.5641231  16.0352509  )
        19           Ti1 tau(  19) = (   3.2640091   3.0260151  15.6942499  )
        20           Ti1 tau(  20) = (   6.5358820   1.5903963  16.1090211  )
        21           O1  tau(  21) = (   3.2904802   0.0005063   4.7018136  )
        22           O1  tau(  22) = (   6.5569505   0.0478586  17.2430089  )
        23           O1  tau(  23) = (   1.3043587   1.4918075   6.0039043  )
        24           O1  tau(  24) = (   5.2767064   1.4903225   6.0039473  )
        25           Ti1 tau(  25) = (   0.0000382   5.9609847   6.0000000  )
        26           Ti1 tau(  26) = (   3.2902200   4.4714249   6.0002472  )
        27           O1  tau(  27) = (   0.0002396   2.9813036   7.9858123  )
        28           O1  tau(  28) = (   3.2902150   2.9813002   7.3038282  )
        29           O1  tau(  29) = (   4.5938453   4.4726049   9.2879030  )
        30           O1  tau(  30) = (   1.9864658   4.4711199   9.2879459  )
        31           Ti1 tau(  31) = (   3.2859829   5.8469316   9.1661464  )
        32           Ti1 tau(  32) = (  -0.0001559   4.4089299   9.3799519  )
        33           O1  tau(  33) = (   3.2865236   2.9807090  11.3458169  )
        34           O1  tau(  34) = (   6.5781283   2.9667683  10.5610256  )
        35           O1  tau(  35) = (   1.2712900   4.4620179  12.6345536  )
        36           O1  tau(  36) = (   5.2651022   4.4720110  12.6184623  )
        37           Ti1 tau(  37) = (   0.0601624   5.9591143  12.7910897  )
        38           Ti1 tau(  38) = (   3.3902089   4.4660181  12.4873354  )
        39           O1  tau(  39) = (   6.5660314   2.9936061  14.6787526  )
        40           O1  tau(  40) = (   3.2777068   3.0094971  13.9036223  )
        41           O1  tau(  41) = (   4.5190982   4.4944638  16.0861991  )
        42           O1  tau(  42) = (   2.0255100   4.4980322  16.0740450  )
        43           Ti1 tau(  43) = (   3.2415938   0.0554625  15.8014791  )
        44           Ti1 tau(  44) = (   6.5310484   4.6110724  16.1360643  )
        45           O1  tau(  45) = (   3.2900926   2.9813045   4.7018136  )
        46           O1  tau(  46) = (   1.3039711   4.4726057   6.0039043  )
        47           O1  tau(  47) = (   5.2763189   4.4711207   6.0039473  )
        48           C1  tau(  48) = (   0.0160176   3.0093394  17.4896075  )
        49           H1  tau(  49) = (   0.0793418   3.1169436  18.5737113  )
        50           O1  tau(  50) = (   3.2580281   0.1500328  18.1801156  )
        51           H1  tau(  51) = (   4.0450954   5.6463884  18.5036456  )
        52           H1  tau(  52) = (   2.4770123   5.6427573  18.5075526  )

     number of k points=    10  Fermi-Dirac smearing, width (Ry)=  0.0073
                       cart. coord. in units 2pi/alat
        k(    1) = (   0.0000000   0.0000000   0.0000000), wk =   0.1250000
        k(    2) = (   0.0000000   0.0419351   0.0000000), wk =   0.2500000
        k(    3) = (   0.0000000  -0.0838702   0.0000000), wk =   0.1250000
        k(    4) = (   0.0379955   0.0000049   0.0000000), wk =   0.2500000
        k(    5) = (   0.0379955   0.0419400   0.0000000), wk =   0.2500000
        k(    6) = (   0.0379955  -0.0838652   0.0000000), wk =   0.2500000
        k(    7) = (   0.0379955  -0.0419301   0.0000000), wk =   0.2500000
        k(    8) = (  -0.0759910  -0.0000099   0.0000000), wk =   0.1250000
        k(    9) = (  -0.0759910   0.0419252   0.0000000), wk =   0.2500000
        k(   10) = (  -0.0759910  -0.0838800   0.0000000), wk =   0.1250000

     Initial potential from superposition of free atoms

     starting charge  374.99918, renormalised to  391.00000

     negative rho (up, down):  1.887E-02 0.000E+00

     %%%%%%%%%%%%%%%%%%%%%%%%%%%%%%%%%%%%%%%%%%%%%%%%%%%%%%%%%%%%%%%%%%%%%%%%
     %                                                                      %
     % You are using vdW-DF, which was implemented by the Thonhauser group. %
     % Please cite the following two papers that made this development      %
     % possible and the two reviews that describe the various versions:     %
     %                                                                      %
     %   T. Thonhauser et al., PRL 115, 136402 (2015).                      %
     %   T. Thonhauser et al., PRB 76, 125112 (2007).                       %
     %   K. Berland et al., Rep. Prog. Phys. 78, 066501 (2015).             %
     %   D.C. Langreth et al., J. Phys.: Condens. Matter 21, 084203 (2009). %
     %                                                                      %
     %                                                                      %
     % If you are calculating the stress with vdW-DF, please also cite:     %
     %                                                                      %
     %   R. Sabatini et al., J. Phys.: Condens. Matter 24, 424209 (2012).   %
     %                                                                      %
     %%%%%%%%%%%%%%%%%%%%%%%%%%%%%%%%%%%%%%%%%%%%%%%%%%%%%%%%%%%%%%%%%%%%%%%%

     Adding external electric field

     Computed dipole along edir(3) :
        Dipole               -4.6199 Ry au,        -11.7425 Debye
        Dipole field         -0.0087 Ry au,

        Potential amp.        0.8082 Ry
        Total length         46.3494 bohr

     Starting wfcs are  295 atomic wfcs
  @ DRIVER MODE: Message from server: STATUS
  @ DRIVER MODE: Message from server: POSDATA
  @ DRIVER MODE: Reading and sharing cell
  @ DRIVER MODE: Reading and sharing positions
  @ DRIVER MODE: Received positions

     Self-consistent Calculation

     iteration #  1     ecut=    29.40 Ry     beta= 0.05
     Davidson diagonalization with overlap
     c_bands:  4 eigenvalues not converged
     c_bands:  1 eigenvalues not converged
     c_bands:  1 eigenvalues not converged
     c_bands:  1 eigenvalues not converged
     c_bands:  2 eigenvalues not converged
     c_bands:  1 eigenvalues not converged
     c_bands:  3 eigenvalues not converged
     c_bands:  1 eigenvalues not converged
     ethr =  1.00E-05,  avg # of iterations = 19.4

[...]

     total energy              =   -2877.73124213 Ry
     estimated scf accuracy    <     610.07376927 Ry

     iteration #  2     ecut=    29.40 Ry     beta= 0.05
     Davidson diagonalization with overlap
     ethr =  1.00E-02,  avg # of iterations = 14.8

[...]

     iteration # 24     ecut=    29.40 Ry     beta= 0.05
     Davidson diagonalization with overlap
     c_bands:  1 eigenvalues not converged
     c_bands:  1 eigenvalues not converged
     c_bands:  1 eigenvalues not converged
     ethr =  1.03E-06,  avg # of iterations = 10.7

[...]

     total energy              =   -2931.21616620 Ry
     estimated scf accuracy    <       0.00000021 Ry

     iteration # 47     ecut=    29.40 Ry     beta= 0.05
     Davidson diagonalization with overlap
     ethr =  3.04E-11,  avg # of iterations =  6.9

     negative rho (up, down):  1.827E-02 0.000E+00

     Adding external electric field

     Computed dipole along edir(3) :
        Dipole                0.7828 Ry au,          1.9896 Debye
        Dipole field          0.0015 Ry au,

        Potential amp.       -0.1369 Ry
        Total length         46.3494 bohr

     End of self-consistent calculation

          k = 0.0000 0.0000 0.0000 ( 18029 PWs)   bands (ev):

   -56.2800 -56.2463 -55.9097 -55.8904 -55.8711 -55.7107 -55.6594 -55.6524
   -55.6183 -55.5729 -55.5694 -55.5375 -55.0522 -55.0289 -55.0182 -54.9694
   -32.7068 -32.5281 -32.5000 -32.4710 -32.4457 -32.3799 -32.3337 -32.3027
   -32.2103 -32.1427 -32.1355 -32.1331 -32.1204 -32.1157 -32.0917 -32.0782
   -32.0746 -32.0666 -32.0313 -31.9270 -31.9059 -31.8957 -31.8896 -31.8842
   -31.8780 -31.8652 -31.8232 -31.8098 -31.7986 -31.7893 -31.7680 -31.7519
   -31.7479 -31.7367 -31.7307 -31.6767 -31.5647 -31.4516 -31.3794 -31.3556
   -31.2981 -31.2699 -31.2650 -31.2612 -31.1849 -31.1702 -31.0731 -31.0387
   -19.2512 -16.5809 -16.4306 -16.1923 -16.0568 -15.9624 -15.7869 -15.6442
   -15.6169 -15.5234 -15.5194 -15.4345 -15.4251 -15.3828 -15.3764 -15.3726
   -15.3557 -15.3260 -15.2866 -15.2773 -15.2701 -15.2388 -15.1775 -15.0850
   -15.0580 -15.0112 -14.9072 -14.8953 -14.8626 -14.6842 -13.5459 -13.4326
    -7.5499  -7.0901  -4.0244  -3.9405  -3.8229  -3.7817  -3.6922  -3.5789
    -3.3542  -3.3490  -3.0756  -3.0393  -2.9848  -2.9574  -2.9437  -2.8770
    -2.8030  -2.7599  -2.7217  -2.7025  -2.6839  -2.6607  -2.6558  -2.5901
    -2.5486  -2.4923  -2.4812  -2.4623  -2.3763  -2.3069  -2.2515  -2.2226
    -2.2158  -2.1761  -2.0986  -2.0810  -2.0678  -2.0153  -1.9007  -1.8186
    -1.7482  -1.7164  -1.6482  -1.6146  -1.5352  -1.4369  -1.3881  -1.3104
    -1.2922  -1.2875  -1.2251  -1.2075  -1.1312  -1.0412  -0.9820  -0.9296
    -0.8404  -0.8184  -0.7906  -0.7429  -0.7259  -0.6882  -0.6594  -0.6234
    -0.5695  -0.5580  -0.4738  -0.3259  -0.3089  -0.2838  -0.2678  -0.2262
    -0.1917  -0.1311  -0.1086  -0.0601  -0.0398   0.0038   0.0163   0.0551
     0.0839   0.1431   0.2597   0.2801   0.2986   0.3740   0.4879   0.5344
     0.5870   0.6893   0.7016   0.9030   0.9268   0.9754   1.1903   1.2314
     1.5605   1.6332   1.8880   2.6338   2.9920   3.1755   3.4648   3.4801
     3.5130   3.5857   3.7131   3.7471   3.8142

[...]

          k = 0.0380-0.0419 0.0000 ( 17876 PWs)   bands (ev):

[...]

          k =-0.0760-0.0000 0.0000 ( 17886 PWs)   bands (ev):

[...]

          k =-0.0760-0.0839 0.0000 ( 17948 PWs)   bands (ev):

   -56.2646 -56.2615 -55.8977 -55.8887 -55.8829 -55.7123 -55.6559 -55.6367
   -55.6337 -55.5729 -55.5574 -55.5528 -55.0352 -55.0351 -55.0235 -54.9747
   -32.5257 -32.5230 -32.5154 -32.5118 -32.4250 -32.4224 -32.2607 -32.2415
   -32.1796 -32.1701 -32.1545 -32.1064 -32.1053 -32.0983 -32.0863 -32.0614
   -32.0190 -31.9720 -31.9654 -31.9636 -31.9141 -31.9041 -31.8948 -31.8903
   -31.8844 -31.8739 -31.8720 -31.8638 -31.8471 -31.8443 -31.8138 -31.8065
   -31.7724 -31.7673 -31.7632 -31.7587 -31.4541 -31.3685 -31.3685 -31.3266
   -31.2945 -31.2674 -31.2659 -31.2656 -31.2275 -31.2274 -31.1853 -31.0782
   -19.2504 -16.0591 -15.9592 -15.8178 -15.7839 -15.7463 -15.7452 -15.6996
   -15.6655 -15.6364 -15.6321 -15.5441 -15.5142 -15.4894 -15.4844 -15.4188
   -15.4120 -15.4059 -15.4023 -15.3324 -15.3269 -15.2290 -15.2200 -15.1391
   -15.1317 -15.0966 -15.0781 -15.0347 -15.0323 -14.8300 -13.5350 -13.5349
    -7.5553  -7.0817  -3.6432  -3.3521  -3.1588  -3.0287  -2.9870  -2.8989
    -2.8736  -2.8643  -2.8638  -2.8008  -2.7567  -2.7459  -2.7056  -2.6794
    -2.6731  -2.6507  -2.6465  -2.6154  -2.6134  -2.6082  -2.6060  -2.5927
    -2.5569  -2.5088  -2.5059  -2.4938  -2.4866  -2.4384  -2.3690  -2.3321
    -2.2581  -2.1642  -2.1631  -2.0908  -2.0554  -1.9816  -1.9721  -1.9666
    -1.9478  -1.9219  -1.7830  -1.6759  -1.6526  -1.6360  -1.5849  -1.5767
    -1.5225  -1.3293  -1.3119  -1.2527  -1.1848  -1.1619  -1.1225  -1.1112
    -1.0505  -1.0463  -1.0261  -0.9904  -0.9818  -0.9366  -0.9087  -0.8215
    -0.7992  -0.7711  -0.7513  -0.6823  -0.6564  -0.6148  -0.5770  -0.5495
    -0.5315  -0.5075  -0.4362  -0.3934  -0.3279  -0.2841  -0.2190   0.0228
     0.0305   0.2198   0.2964   0.3863   0.4520   0.4720   0.4864   0.5485
     0.6174   0.6241   0.6401   0.6612   0.7357   0.7404   1.3615   1.3640
     1.4148   1.4153   2.1032   2.5270   3.5371   3.5418   3.5567   3.5775
     3.5855   3.6305   3.6463   3.6797   3.9471

     the Fermi energy is     2.4956 ev

!    total energy              =   -2931.21630486 Ry
     estimated scf accuracy    <       0.00000004 Ry
     smearing contrib. (-TS)   =      -0.01054065 Ry
     internal energy E=F+TS    =   -2931.20576421 Ry

     The total energy is F=E-TS. E is the sum of the following terms:
     one-electron contribution =  -24526.31029445 Ry
     hartree contribution      =   12349.61199174 Ry
     xc contribution           =    -481.85252374 Ry
     ewald contribution        =    9727.34390589 Ry
     electric field correction =       0.00115635 Ry

     convergence has been achieved in  47 iterations

     Forces acting on atoms (cartesian axes, Ry/au):

     atom    1 type  1   force =     0.00016735   -0.00009316    0.14782081
     atom    2 type  1   force =     0.00001303    0.00056290   -0.16852027
     atom    3 type  2   force =     0.00012284    0.00257760   -0.06042121
     atom    4 type  2   force =    -0.00023205   -0.00139761    0.04034273
     atom    5 type  2   force =    -0.02184439    0.00009337    0.00384053
     atom    6 type  2   force =     0.02069127   -0.00003701    0.00305001
     atom    7 type  1   force =     0.00105844    0.00044164    0.00001166
     atom    8 type  1   force =    -0.00060514    0.00110580   -0.00047420
     atom    9 type  2   force =    -0.00007473    0.00015561   -0.00038378
     atom   10 type  2   force =     0.00022762   -0.00015587    0.00046498
     atom   11 type  2   force =     0.00009979   -0.00022856    0.00009766
     atom   12 type  2   force =    -0.00027399   -0.00027036   -0.00006349
     atom   13 type  1   force =     0.00015697   -0.00045541   -0.00051799
     atom   14 type  1   force =     0.00022939   -0.00025370    0.00057504
     atom   15 type  2   force =     0.00006031   -0.00021853    0.00020687
     atom   16 type  2   force =    -0.00003543    0.00011149   -0.00002851
     atom   17 type  2   force =    -0.00016878    0.00021617   -0.00046410
     atom   18 type  2   force =    -0.00034484   -0.00014366    0.00000195
     atom   19 type  1   force =     0.00060917    0.00079150   -0.00010917
     atom   20 type  1   force =    -0.00049754   -0.00066792    0.00118591
     atom   21 type  2   force =     0.00009171   -0.00010148    0.10202765
     atom   22 type  2   force =     0.00004864    0.00034891   -0.00027736
     atom   23 type  2   force =    -0.07529128    0.00018293   -0.03472415
     atom   24 type  2   force =     0.07531619    0.00062110   -0.03481382
     atom   25 type  1   force =    -0.00003139   -0.00011658    0.14837007
     atom   26 type  1   force =     0.00005986   -0.00186633   -0.16843956
     atom   27 type  2   force =     0.00016155    0.00246475   -0.05953048
     atom   28 type  2   force =    -0.00017128   -0.00144582    0.04094665
     atom   29 type  2   force =    -0.02195024    0.00144809    0.00420188
     atom   30 type  2   force =     0.02064962    0.00073175    0.00338701
     atom   31 type  1   force =     0.00110303   -0.00044868    0.00003358
     atom   32 type  1   force =    -0.00066436   -0.00068238   -0.00042978
     atom   33 type  2   force =     0.00011198   -0.00013989   -0.00061282
     atom   34 type  2   force =     0.00021737    0.00062625   -0.00052833
     atom   35 type  2   force =    -0.00015380    0.00015666   -0.00015478
     atom   36 type  2   force =     0.00053409   -0.00031230   -0.00012238
     atom   37 type  1   force =     0.00006745    0.00047569    0.00011750
     atom   38 type  1   force =    -0.00006614    0.00035332    0.00045865
     atom   39 type  2   force =     0.00002540   -0.00057994    0.00048745
     atom   40 type  2   force =    -0.00006617   -0.00042750    0.00046566
     atom   41 type  2   force =    -0.00065590   -0.00094775   -0.00022306
     atom   42 type  2   force =     0.00043812   -0.00052620    0.00024098
     atom   43 type  1   force =     0.00112388   -0.00085640   -0.00023143
     atom   44 type  1   force =    -0.00065587   -0.00020019    0.00012886
     atom   45 type  2   force =     0.00008488   -0.00008991    0.10197532
     atom   46 type  2   force =    -0.07530818    0.00010085   -0.03473327
     atom   47 type  2   force =     0.07534057    0.00054254   -0.03483573
     atom   48 type  3   force =     0.00000223   -0.00087076   -0.00044265
     atom   49 type  4   force =     0.00027783   -0.00014691    0.00024025
     atom   50 type  2   force =     0.00488295    0.00379436   -0.00248084
     atom   51 type  4   force =    -0.00037294   -0.00064807    0.00030309
     atom   52 type  4   force =    -0.00450910   -0.00357444    0.00258042

     Total force =     0.401827     Total SCF correction =     0.000715
  @ DRIVER MODE: Message from server: STATUS
  @ DRIVER MODE: Message from server: GETFORCE
  @ DRIVER MODE: Returning v,forces,stress,ensemble

     Writing output data file ./calc.save/
  @ DRIVER MODE: Message from server: EXIT
  @ DRIVE MODE: Exiting

     General routines

     Parallel routines

   This run was terminated on:  22:37:48  15Sep2021

   JOB DONE.