     Program PWSCF v.6.7GPU starts on 22Sep2021 at 18: 0:38

     R & G space division:  proc/nbgrp/npool/nimage =      10
     Reading input from /storage/home/hcoda1/3/ntian30/research/carbon/CxH_vib/H2O_calc/ads_slab/CH2NHNHO_a/out_0005/pw.inp
Warning: card &CELL ignored
Warning: card   CELL_DYNAMICS='IPI', ignored
Warning: card / ignored

     Current dimensions of program PWSCF are:
     Max number of different atomic species (ntypx) = 10
     Max number of k-points (npk) =  40000
     Max angular momentum in pseudopotentials (lmaxx) =  3
     Presently no symmetry can be used with electric field

     Message from routine cell_base_init:
     DEPRECATED: use true lattice parameter, not A to a.u. conversion factor

     IMPORTANT: XC functional enforced from input :
     Exchange-correlation= BEEF-VDW
                           (   1   4  43  14   2   0   0)
     Any further DFT definition will be discarded
     Please, verify this is what you really want

  @ DRIVER MODE: Connecting to
 qe_1139763_2937322.sched-torque.pace.gatech.eduu1w9rpxs_scratch
  using UNIX socket
  @ DRIVER MODE: Message from server: STATUS
  @ DRIVER MODE: Message from server: INIT
  @ DRIVER MODE: Receiving replica           0          -1
  @ DRIVER MODE: Receiving encoded integer          25
  @ DRIVER MODE:  SCF:  T  FORCE:  T  STRESS:  F  VC:  F  ENSEMBLE:  F
  @ DRIVER MODE:  SCF:  T  FORCE:  T  STRESS:  F  VC:  F  ENSEMBLE:  F

     Using Slab Decomposition

     bravais-lattice index     =            0
     lattice parameter (alat)  =       1.8897  a.u.
     unit-cell volume          =    6658.9804 (a.u.)^3
     number of atoms/cell      =           55
     number of atomic types    =            5
     number of electrons       =       402.00
     number of Kohn-Sham states=          211
     kinetic-energy cutoff     =      29.3995  Ry
     charge density cutoff     =     293.9946  Ry
     scf convergence threshold =      7.3E-08
     mixing beta               =       0.0500
     number of iterations used =            8  plain     mixing
     Exchange-correlation= BEEF-VDW
                           (   1   4  43  14   2   0   0)

     celldm(1)=   1.889726  celldm(2)=   0.000000  celldm(3)=   0.000000
     celldm(4)=   0.000000  celldm(5)=   0.000000  celldm(6)=   0.000000

     crystal axes: (cart. coord. in units of alat)
               a(1) = (   6.579727   0.000000   0.000000 )
               a(2) = (  -0.000775   5.961596   0.000000 )
               a(3) = (   0.000000   0.000000  25.155947 )

     reciprocal axes: (cart. coord. in units 2 pi/alat)
               b(1) = (  0.151982  0.000020  0.000000 )
               b(2) = (  0.000000  0.167740  0.000000 )
               b(3) = (  0.000000  0.000000  0.039752 )

     PseudoPot. # 1 for Ti read from file:
     /storage/coda1/p-amedford6/0/shared/rich_project_chbe-medford/medford-share/data/pseudos_module/espresso/nninc/pbe/van/Ti.UPF
     MD5 check sum: 8e4df49b7f0d34bbd5052bf3f5ea0213
     Pseudo is Ultrasoft, Zval = 12.0
     Generated by new atomic code, or converted to UPF format
     Using radial grid of  851 points,  6 beta functions with:
                l(1) =   0
                l(2) =   0
                l(3) =   1
                l(4) =   1
                l(5) =   2
                l(6) =   2
     Q(r) pseudized with  8 coefficients,  rinner =    1.000   1.000   1.000
                                                       1.000   1.000

     PseudoPot. # 2 for O  read from file:
     /storage/coda1/p-amedford6/0/shared/rich_project_chbe-medford/medford-share/data/pseudos_module/espresso/nninc/pbe/van/O.UPF
     MD5 check sum: 78c19812648e8988a0fe644b0f25305e
     Pseudo is Ultrasoft, Zval =  6.0
     Generated by new atomic code, or converted to UPF format
     Using radial grid of  737 points,  4 beta functions with:
                l(1) =   0
                l(2) =   0
                l(3) =   1
                l(4) =   1
     Q(r) pseudized with  8 coefficients,  rinner =    0.800   0.800   0.800

     PseudoPot. # 3 for N  read from file:
     /storage/coda1/p-amedford6/0/shared/rich_project_chbe-medford/medford-share/data/pseudos_module/espresso/nninc/pbe/van/N.UPF
     MD5 check sum: 90d10febe142ad51ac9d5be1deb811c4
     Pseudo is Ultrasoft, Zval =  5.0
     Generated by new atomic code, or converted to UPF format
     Using radial grid of  729 points,  4 beta functions with:
                l(1) =   0
                l(2) =   0
                l(3) =   1
                l(4) =   1
     Q(r) pseudized with  8 coefficients,  rinner =    0.800   0.800   0.800

     PseudoPot. # 4 for C  read from file:
     /storage/coda1/p-amedford6/0/shared/rich_project_chbe-medford/medford-share/data/pseudos_module/espresso/nninc/pbe/van/C.UPF
     MD5 check sum: 1a69bf6b8db32088f5b2163dbdb77a27
     Pseudo is Ultrasoft, Zval =  4.0
     Generated by new atomic code, or converted to UPF format
     Using radial grid of  721 points,  4 beta functions with:
                l(1) =   0
                l(2) =   0
                l(3) =   1
                l(4) =   1
     Q(r) pseudized with  8 coefficients,  rinner =    0.800   0.800   0.800

     PseudoPot. # 5 for H  read from file:
     /storage/coda1/p-amedford6/0/shared/rich_project_chbe-medford/medford-share/data/pseudos_module/espresso/nninc/pbe/van/H.UPF
     MD5 check sum: b5ee9d7bfd3a09ee7748110bda690ff7
     Pseudo is Ultrasoft, Zval =  1.0
     Generated by new atomic code, or converted to UPF format
     Using radial grid of  615 points,  1 beta functions with:
                l(1) =   0
     Q(r) pseudized with  8 coefficients,  rinner =    0.800

     atomic species   valence    mass     pseudopotential
        Ti1           12.00    47.86700     Ti( 1.00)
        O1             6.00    15.99900     O ( 1.00)
        N1             5.00    14.00700     N ( 1.00)
        C1             4.00    12.01100     C ( 1.00)
        H1             1.00     1.00800     H ( 1.00)

     No symmetry found

   Cartesian axes

     site n.     atom                  positions (alat units)
         1           Ti1 tau(   1) = (   0.0004258   2.9801865   6.0000000  )
         2           Ti1 tau(   2) = (   3.2906075   1.4906267   6.0002472  )
         3           O1  tau(   3) = (   0.0006271   0.0005054   7.9858123  )
         4           O1  tau(   4) = (   3.2906025   0.0005020   7.3038282  )
         5           O1  tau(   5) = (   4.5942328   1.4918067   9.2879030  )
         6           O1  tau(   6) = (   1.9868534   1.4903216   9.2879459  )
         7           Ti1 tau(   7) = (   3.2907910   2.8959150   9.1758416  )
         8           Ti1 tau(   8) = (   0.0015273   1.4827037   9.2680791  )
         9           O1  tau(   9) = (   3.2865774   0.0244666  11.2672233  )
        10           O1  tau(  10) = (   0.0116148   5.9584955  10.6183126  )
        11           O1  tau(  11) = (   1.2851059   1.4881214  12.6284388  )
        12           O1  tau(  12) = (   5.2821296   1.4859116  12.6239949  )
        13           Ti1 tau(  13) = (   6.5757640   3.1226837  12.6583379  )
        14           Ti1 tau(  14) = (   3.2808560   1.5553189  12.4169499  )
        15           O1  tau(  15) = (   6.5631415   0.0020138  14.6662933  )
        16           O1  tau(  16) = (   3.2768600   5.9282172  13.8639556  )
        17           O1  tau(  17) = (   4.5247100   1.5609280  15.9911388  )
        18           O1  tau(  18) = (   2.0319249   1.5505618  16.0334288  )
        19           Ti1 tau(  19) = (   3.2655126   3.0139642  15.6417618  )
        20           Ti1 tau(  20) = (   6.4701730   1.5779936  15.7979382  )
        21           O1  tau(  21) = (   3.2904802   0.0005063   4.7018136  )
        22           O1  tau(  22) = (   6.5470303   0.0764028  17.2486596  )
        23           O1  tau(  23) = (   1.3043587   1.4918075   6.0039043  )
        24           O1  tau(  24) = (   5.2767064   1.4903225   6.0039473  )
        25           Ti1 tau(  25) = (   0.0000382   5.9609847   6.0000000  )
        26           Ti1 tau(  26) = (   3.2902200   4.4714249   6.0002472  )
        27           O1  tau(  27) = (   0.0002396   2.9813036   7.9858123  )
        28           O1  tau(  28) = (   3.2902150   2.9813002   7.3038282  )
        29           O1  tau(  29) = (   4.5938453   4.4726049   9.2879030  )
        30           O1  tau(  30) = (   1.9864658   4.4711199   9.2879459  )
        31           Ti1 tau(  31) = (   3.2891106   5.8743827   9.1763621  )
        32           Ti1 tau(  32) = (   0.0006254   4.4649316   9.2693709  )
        33           O1  tau(  33) = (   3.2856154   2.9374191  11.2445503  )
        34           O1  tau(  34) = (   0.0092240   2.9805883  10.6323155  )
        35           O1  tau(  35) = (   1.2776263   4.4762221  12.6158080  )
        36           O1  tau(  36) = (   5.2889682   4.4773653  12.6103441  )
        37           Ti1 tau(  37) = (   6.5721904   0.1276321  12.6579576  )
        38           Ti1 tau(  38) = (   3.2825792   4.6513186  12.6446142  )
        39           O1  tau(  39) = (   6.5601178   2.9984380  14.6401328  )
        40           O1  tau(  40) = (   3.2784952   3.0022753  13.8540846  )
        41           O1  tau(  41) = (   4.5130724   4.4679886  16.1105769  )
        42           O1  tau(  42) = (   2.0068779   4.4712703  16.0772645  )
        43           Ti1 tau(  43) = (   3.1879138   0.0422448  16.2953621  )
        44           Ti1 tau(  44) = (   6.5239028   4.6756254  16.1574449  )
        45           O1  tau(  45) = (   3.2900926   2.9813045   4.7018136  )
        46           O1  tau(  46) = (   1.3039711   4.4726057   6.0039043  )
        47           O1  tau(  47) = (   5.2763189   4.4711207   6.0039473  )
        48           N1  tau(  48) = (   0.1470516   2.5879757  18.5511170  )
        49           N1  tau(  49) = (   6.5778558   2.9357776  17.3215245  )
        50           C1  tau(  50) = (   0.2601206   3.3452726  19.6311682  )
        51           H1  tau(  51) = (   0.3627438   2.8498571  20.5812141  )
        52           H1  tau(  52) = (   0.2464683   4.4174571  19.5160682  )
        53           H1  tau(  53) = (   0.1772712   1.5612145  18.6921905  )
        54           O1  tau(  54) = (   3.2326362   0.0923429  18.1472848  )
        55           H1  tau(  55) = (   3.6209404   5.2806276  18.5811828  )

     number of k points=    10  Fermi-Dirac smearing, width (Ry)=  0.0073
                       cart. coord. in units 2pi/alat
        k(    1) = (   0.0000000   0.0000000   0.0000000), wk =   0.1250000
        k(    2) = (   0.0000000   0.0419351   0.0000000), wk =   0.2500000
        k(    3) = (   0.0000000  -0.0838702   0.0000000), wk =   0.1250000
        k(    4) = (   0.0379955   0.0000049   0.0000000), wk =   0.2500000
        k(    5) = (   0.0379955   0.0419400   0.0000000), wk =   0.2500000
        k(    6) = (   0.0379955  -0.0838652   0.0000000), wk =   0.2500000
        k(    7) = (   0.0379955  -0.0419301   0.0000000), wk =   0.2500000
        k(    8) = (  -0.0759910  -0.0000099   0.0000000), wk =   0.1250000
        k(    9) = (  -0.0759910   0.0419252   0.0000000), wk =   0.2500000
        k(   10) = (  -0.0759910  -0.0838800   0.0000000), wk =   0.1250000

     Initial potential from superposition of free atoms

     starting charge  385.99915, renormalised to  402.00000

     negative rho (up, down):  1.462E-02 0.000E+00

     %%%%%%%%%%%%%%%%%%%%%%%%%%%%%%%%%%%%%%%%%%%%%%%%%%%%%%%%%%%%%%%%%%%%%%%%
     %                                                                      %
     % You are using vdW-DF, which was implemented by the Thonhauser group. %
     % Please cite the following two papers that made this development      %
     % possible and the two reviews that describe the various versions:     %
     %                                                                      %
     %   T. Thonhauser et al., PRL 115, 136402 (2015).                      %
     %   T. Thonhauser et al., PRB 76, 125112 (2007).                       %
     %   K. Berland et al., Rep. Prog. Phys. 78, 066501 (2015).             %
     %   D.C. Langreth et al., J. Phys.: Condens. Matter 21, 084203 (2009). %
     %                                                                      %
     %                                                                      %
     % If you are calculating the stress with vdW-DF, please also cite:     %
     %                                                                      %
     %   R. Sabatini et al., J. Phys.: Condens. Matter 24, 424209 (2012).   %
     %                                                                      %
     %%%%%%%%%%%%%%%%%%%%%%%%%%%%%%%%%%%%%%%%%%%%%%%%%%%%%%%%%%%%%%%%%%%%%%%%

     Adding external electric field

     Computed dipole along edir(3) :
        Dipole              -11.6251 Ry au,        -29.5481 Debye
        Dipole field         -0.0219 Ry au,

        Potential amp.        2.0336 Ry
        Total length         46.3494 bohr

     Starting wfcs are  304 atomic wfcs
  @ DRIVER MODE: Message from server: STATUS
  @ DRIVER MODE: Message from server: POSDATA
  @ DRIVER MODE: Reading and sharing cell
  @ DRIVER MODE: Reading and sharing positions
  @ DRIVER MODE: Received positions

     Self-consistent Calculation

     iteration #  1     ecut=    29.40 Ry     beta= 0.05
     Davidson diagonalization with overlap
     c_bands:  3 eigenvalues not converged
     c_bands:  2 eigenvalues not converged
     c_bands:  3 eigenvalues not converged
     c_bands:  4 eigenvalues not converged
     c_bands:  1 eigenvalues not converged
     c_bands:  4 eigenvalues not converged
     c_bands:  5 eigenvalues not converged
     c_bands:  5 eigenvalues not converged
     c_bands:  5 eigenvalues not converged
     ethr =  1.00E-05,  avg # of iterations = 23.9

[...]

     total energy              =   -2412.17708858 Ry
     estimated scf accuracy    <    6292.97527285 Ry

     iteration #  2     ecut=    29.40 Ry     beta= 0.05
     Davidson diagonalization with overlap
     ethr =  1.00E-02,  avg # of iterations = 22.5

[...]

     iteration # 27     ecut=    29.40 Ry     beta= 0.05
     Davidson diagonalization with overlap
     c_bands:  1 eigenvalues not converged
     ethr =  2.78E-06,  avg # of iterations = 11.4

[...]

     total energy              =   -2972.74077724 Ry
     estimated scf accuracy    <       0.00000008 Ry

     iteration # 53     ecut=    29.40 Ry     beta= 0.05
     Davidson diagonalization with overlap
     ethr =  1.87E-11,  avg # of iterations =  4.4

     negative rho (up, down):  1.521E-02 0.000E+00

     Adding external electric field

     Computed dipole along edir(3) :
        Dipole                0.6543 Ry au,          1.6630 Debye
        Dipole field          0.0012 Ry au,

        Potential amp.       -0.1145 Ry
        Total length         46.3494 bohr

     End of self-consistent calculation

          k = 0.0000 0.0000 0.0000 ( 18029 PWs)   bands (ev):

   -56.5044 -56.4708 -55.7081 -55.6740 -55.4490 -55.3927 -55.1524 -55.1185
   -55.0942 -55.0603 -55.0450 -54.9953 -54.9921 -54.7977 -54.7694 -54.6571
   -32.9283 -32.7822 -32.7542 -32.6780 -32.5874 -32.5548 -32.1914 -31.9301
   -31.9292 -31.8994 -31.8481 -31.8435 -31.8239 -31.6782 -31.6701 -31.6229
   -31.6027 -31.5952 -31.5533 -31.5273 -31.4822 -31.4703 -31.4390 -31.4147
   -31.3844 -31.3839 -31.3813 -31.3706 -31.3167 -31.3011 -31.2860 -31.2603
   -31.2416 -31.2273 -31.2193 -31.2131 -31.1978 -31.1826 -31.1714 -31.1076
   -31.0576 -31.0370 -31.0080 -31.0005 -30.9858 -30.9334 -30.8721 -30.8482
   -18.7079 -16.6401 -16.1351 -16.0853 -15.8423 -15.7832 -15.7255 -15.7200
   -15.6799 -15.4335 -15.3981 -15.3707 -15.3208 -15.2285 -15.0945 -14.9978
   -14.8116 -14.7554 -14.7532 -14.7201 -14.6983 -14.6646 -14.6449 -14.6098
   -14.6064 -14.5735 -14.5165 -14.3453 -14.2834 -14.0713 -14.0558 -13.5919
   -13.4839 -12.4003  -8.5419  -5.9772  -4.5828  -4.2060  -3.6484  -3.6150
    -3.4369  -3.3620  -3.2555  -3.1776  -3.0757  -3.0466  -2.9713  -2.9287
    -2.9124  -2.8550  -2.8234  -2.6595  -2.6352  -2.6162  -2.5296  -2.5019
    -2.3384  -2.3166  -2.2333  -2.1609  -2.1418  -2.0830  -2.0684  -2.0111
    -1.9591  -1.9423  -1.8748  -1.8677  -1.8579  -1.7450  -1.7215  -1.6905
    -1.6452  -1.5786  -1.5745  -1.5186  -1.4322  -1.4191  -1.2880  -1.1995
    -1.1572  -1.1535  -1.1132  -1.0718  -1.0299  -0.8913  -0.8801  -0.7705
    -0.7519  -0.7497  -0.6829  -0.5865  -0.5650  -0.5329  -0.4572  -0.4202
    -0.3728  -0.3311  -0.2711  -0.1494  -0.1439  -0.1271  -0.0802  -0.0386
    -0.0220   0.0516   0.1405   0.1591   0.2619   0.2782   0.3264   0.4208
     0.5030   0.5111   0.5299   0.5907   0.6350   0.6686   0.7438   0.7635
     0.8033   0.8152   0.8629   0.9276   0.9507   1.0500   1.1010   1.1172
     1.1499   1.2028   1.2785   1.3607   1.4624   1.5040   1.5243   1.8012
     2.3271   2.7781   2.9404   3.2181   3.3275   3.6377   3.7653   3.7656
     3.7766   3.9773   4.1261

[...]

          k = 0.0380-0.0419 0.0000 ( 17876 PWs)   bands (ev):

[...]

          k =-0.0760-0.0000 0.0000 ( 17886 PWs)   bands (ev):

[...]

          k =-0.0760-0.0839 0.0000 ( 17948 PWs)   bands (ev):

   -56.4878 -56.4873 -55.6940 -55.6879 -55.4433 -55.3983 -55.1511 -55.1141
   -55.0774 -55.0770 -55.0492 -54.9958 -54.9912 -54.7991 -54.7672 -54.6592
   -32.7681 -32.7677 -32.7456 -32.7451 -32.6315 -32.6309 -32.0138 -32.0090
   -31.8888 -31.8833 -31.8783 -31.8684 -31.7505 -31.7157 -31.6715 -31.6646
   -31.6246 -31.6208 -31.4582 -31.4463 -31.4278 -31.4276 -31.3955 -31.3882
   -31.3744 -31.3658 -31.3540 -31.3328 -31.3114 -31.2990 -31.2984 -31.2855
   -31.2687 -31.2606 -31.2602 -31.2508 -31.2320 -31.2015 -31.1895 -31.1636
   -31.1451 -31.0615 -31.0212 -31.0120 -31.0016 -30.9645 -30.8872 -30.8742
   -18.7042 -16.0757 -16.0094 -16.0067 -15.9460 -15.9442 -15.7121 -15.7082
   -15.4736 -15.4454 -15.2924 -15.1949 -15.1770 -15.1151 -15.0766 -15.0285
   -14.9735 -14.9435 -14.8374 -14.7988 -14.7670 -14.7285 -14.7027 -14.6812
   -14.6190 -14.5823 -14.5633 -14.4637 -14.4361 -14.2031 -14.1957 -13.5881
   -13.5878 -12.4047  -8.5442  -5.9726  -4.5386  -3.6713  -3.3535  -3.0775
    -3.0731  -3.0665  -3.0614  -3.0209  -2.8224  -2.8188  -2.6687  -2.6340
    -2.6224  -2.5969  -2.5662  -2.4627  -2.3878  -2.3694  -2.3677  -2.3629
    -2.3131  -2.3052  -2.2568  -2.1816  -2.1173  -2.1100  -2.0749  -2.0124
    -1.9555  -1.9057  -1.9016  -1.8615  -1.8378  -1.8079  -1.7878  -1.7696
    -1.7255  -1.6425  -1.5159  -1.4389  -1.4078  -1.3886  -1.3513  -1.3067
    -1.2890  -1.2807  -1.2270  -1.2128  -1.1464  -1.1165  -1.0780  -0.9831
    -0.9241  -0.8924  -0.8665  -0.7636  -0.7253  -0.6483  -0.6012  -0.5684
    -0.5337  -0.5099  -0.4487  -0.4392  -0.3567  -0.2886  -0.2597  -0.2047
    -0.1913  -0.1790  -0.1599  -0.1170  -0.0143   0.0040   0.0406   0.1391
     0.1998   0.2733   0.2910   0.3810   0.4128   0.4820   0.5982   0.6352
     0.7057   0.7673   0.8409   0.9262   0.9733   1.0195   1.1241   1.2102
     1.2259   1.2741   1.3026   1.3104   1.3115   1.3631   1.3821   1.5018
     2.1665   3.3612   3.3629   3.4197   3.4244   3.7236   3.7290   3.8353
     3.8387   4.0862   4.1072

     the Fermi energy is     2.5915 ev

!    total energy              =   -2972.74086558 Ry
     estimated scf accuracy    <       0.00000003 Ry
     smearing contrib. (-TS)   =      -0.00427392 Ry
     internal energy E=F+TS    =   -2972.73659166 Ry

     The total energy is F=E-TS. E is the sum of the following terms:
     one-electron contribution =  -23702.29367222 Ry
     hartree contribution      =   11946.34830346 Ry
     xc contribution           =    -493.12418671 Ry
     ewald contribution        =    9276.33215598 Ry
     electric field correction =       0.00080783 Ry

     convergence has been achieved in  53 iterations

     Forces acting on atoms (cartesian axes, Ry/au):

     atom    1 type  1   force =     0.00017173   -0.00043008    0.12191452
     atom    2 type  1   force =    -0.00003432    0.00027718   -0.15644324
     atom    3 type  2   force =     0.00004736   -0.00048152   -0.06034204
     atom    4 type  2   force =     0.00005139    0.00071085    0.01983804
     atom    5 type  2   force =    -0.00086783   -0.00259703   -0.01514349
     atom    6 type  2   force =     0.00221729   -0.00197842   -0.01650600
     atom    7 type  1   force =    -0.00029578   -0.00088980    0.05393278
     atom    8 type  1   force =     0.00082414    0.00107478    0.08988909
     atom    9 type  2   force =    -0.00035940   -0.00028024    0.00021661
     atom   10 type  2   force =    -0.00296430    0.00317145   -0.05912815
     atom   11 type  2   force =    -0.00029004    0.00018397    0.00010472
     atom   12 type  2   force =    -0.00019964    0.00013496   -0.00032621
     atom   13 type  1   force =    -0.00051051    0.00040452    0.00005462
     atom   14 type  1   force =     0.00006102    0.00140222   -0.00129526
     atom   15 type  2   force =    -0.00003267   -0.00065671   -0.00117112
     atom   16 type  2   force =     0.00012075    0.00068756    0.00057442
     atom   17 type  2   force =    -0.00056533   -0.00027680    0.00000842
     atom   18 type  2   force =     0.00020482    0.00029642   -0.00023262
     atom   19 type  1   force =     0.00001589    0.00126704   -0.00024578
     atom   20 type  1   force =    -0.00002142   -0.00024742   -0.00104854
     atom   21 type  2   force =     0.00009033   -0.00002969    0.09827746
     atom   22 type  2   force =     0.00030379   -0.00053315   -0.00034777
     atom   23 type  2   force =    -0.08158912   -0.00004935   -0.03246657
     atom   24 type  2   force =     0.08157237    0.00036760   -0.03249871
     atom   25 type  1   force =     0.00002981   -0.00029423    0.12157932
     atom   26 type  1   force =     0.00003955   -0.00154826   -0.15647655
     atom   27 type  2   force =     0.00012966    0.00021078   -0.05930954
     atom   28 type  2   force =     0.00005275    0.00038830    0.01470655
     atom   29 type  2   force =    -0.00457538    0.00218145   -0.01157735
     atom   30 type  2   force =     0.00590545    0.00262703   -0.01288489
     atom   31 type  1   force =    -0.00043193   -0.00211410    0.03994141
     atom   32 type  1   force =     0.00078216   -0.00226041    0.09090445
     atom   33 type  2   force =    -0.00012638    0.00034275    0.00024651
     atom   34 type  2   force =    -0.00235323    0.00049849   -0.06864415
     atom   35 type  2   force =    -0.00023177    0.00005011    0.00031981
     atom   36 type  2   force =     0.00060615   -0.00027613    0.00008309
     atom   37 type  1   force =    -0.00002650    0.00021798   -0.00103438
     atom   38 type  1   force =     0.00013146    0.00107645   -0.00064858
     atom   39 type  2   force =    -0.00048869   -0.00128190    0.00057002
     atom   40 type  2   force =    -0.00001566    0.00044912    0.00007424
     atom   41 type  2   force =     0.00099334   -0.00055393    0.00008386
     atom   42 type  2   force =    -0.00082263   -0.00088378   -0.00062511
     atom   43 type  1   force =    -0.00014891   -0.00129228    0.00063659
     atom   44 type  1   force =    -0.00015632    0.00012503   -0.00009856
     atom   45 type  2   force =     0.00009349    0.00008745    0.09808409
     atom   46 type  2   force =    -0.08154030   -0.00002476   -0.03245428
     atom   47 type  2   force =     0.08152452    0.00041115   -0.03247467
     atom   48 type  3   force =     0.00280056    0.00181547    0.02935402
     atom   49 type  3   force =    -0.00148952    0.00147031   -0.01271737
     atom   50 type  4   force =    -0.00067374   -0.00459151   -0.01124645
     atom   51 type  5   force =     0.00062187   -0.00063067   -0.00158594
     atom   52 type  5   force =     0.00054773   -0.00100166    0.00009146
     atom   53 type  5   force =    -0.00002257    0.00229834   -0.00205322
     atom   54 type  2   force =    -0.00047512    0.00102589   -0.00159915
     atom   55 type  5   force =     0.00136962   -0.00005084    0.00113961

     Total force =     0.409499     Total SCF correction =     0.000402
  @ DRIVER MODE: Message from server: STATUS
  @ DRIVER MODE: Message from server: GETFORCE
  @ DRIVER MODE: Returning v,forces,stress,ensemble

     Writing output data file ./calc.save/
  @ DRIVER MODE: Message from server: EXIT
  @ DRIVE MODE: Exiting

     General routines

     Parallel routines

   This run was terminated on:  18:15:41  22Sep2021

   JOB DONE.