     Program PWSCF v.6.7GPU starts on 16Jul2021 at  3:29: 0

     R & G space division:  proc/nbgrp/npool/nimage =      16
     Reading input from /storage/home/hcoda1/3/ntian30/research/carbon/15Jul_vib/ads_slab/CH3NH_b/out_0022/pw.inp
Warning: card &CELL ignored
Warning: card   CELL_DYNAMICS='IPI', ignored
Warning: card / ignored

     Current dimensions of program PWSCF are:
     Max number of different atomic species (ntypx) = 10
     Max number of k-points (npk) =  40000
     Max angular momentum in pseudopotentials (lmaxx) =  3
     Presently no symmetry can be used with electric field

     Message from routine cell_base_init:
     DEPRECATED: use true lattice parameter, not A to a.u. conversion factor

     IMPORTANT: XC functional enforced from input :
     Exchange-correlation= BEEF-VDW
                           (   1   4  43  14   2   0   0)
     Any further DFT definition will be discarded
     Please, verify this is what you really want

  @ DRIVER MODE: Connecting to
 qe_1139763_2351649.sched-torque.pace.gatech.educht6f4zd_scratch
  using UNIX socket
  @ DRIVER MODE: Message from server: STATUS
  @ DRIVER MODE: Message from server: INIT
  @ DRIVER MODE: Receiving replica           0          -1
  @ DRIVER MODE: Receiving encoded integer          25
  @ DRIVER MODE:  SCF:  T  FORCE:  T  STRESS:  F  VC:  F  ENSEMBLE:  F
  @ DRIVER MODE:  SCF:  T  FORCE:  T  STRESS:  F  VC:  F  ENSEMBLE:  F

     Using Slab Decomposition

     bravais-lattice index     =            0
     lattice parameter (alat)  =       1.8897  a.u.
     unit-cell volume          =    6658.9804 (a.u.)^3
     number of atoms/cell      =           53
     number of atomic types    =            5
     number of electrons       =       391.00
     number of Kohn-Sham states=          205
     kinetic-energy cutoff     =      29.3995  Ry
     charge density cutoff     =     293.9946  Ry
     scf convergence threshold =      7.3E-08
     mixing beta               =       0.0500
     number of iterations used =            8  plain     mixing
     Exchange-correlation= BEEF-VDW
                           (   1   4  43  14   2   0   0)

     celldm(1)=   1.889726  celldm(2)=   0.000000  celldm(3)=   0.000000
     celldm(4)=   0.000000  celldm(5)=   0.000000  celldm(6)=   0.000000

     crystal axes: (cart. coord. in units of alat)
               a(1) = (   6.579727   0.000000   0.000000 )
               a(2) = (  -0.000775   5.961596   0.000000 )
               a(3) = (   0.000000   0.000000  25.155947 )

     reciprocal axes: (cart. coord. in units 2 pi/alat)
               b(1) = (  0.151982  0.000020  0.000000 )
               b(2) = (  0.000000  0.167740  0.000000 )
               b(3) = (  0.000000  0.000000  0.039752 )

     PseudoPot. # 1 for Ti read from file:
     /storage/coda1/p-amedford6/0/shared/rich_project_chbe-medford/medford-share/data/pseudos_module/espresso/nninc/pbe/van/Ti.UPF
     MD5 check sum: 8e4df49b7f0d34bbd5052bf3f5ea0213
     Pseudo is Ultrasoft, Zval = 12.0
     Generated by new atomic code, or converted to UPF format
     Using radial grid of  851 points,  6 beta functions with:
                l(1) =   0
                l(2) =   0
                l(3) =   1
                l(4) =   1
                l(5) =   2
                l(6) =   2
     Q(r) pseudized with  8 coefficients,  rinner =    1.000   1.000   1.000
                                                       1.000   1.000

     PseudoPot. # 2 for O  read from file:
     /storage/coda1/p-amedford6/0/shared/rich_project_chbe-medford/medford-share/data/pseudos_module/espresso/nninc/pbe/van/O.UPF
     MD5 check sum: 78c19812648e8988a0fe644b0f25305e
     Pseudo is Ultrasoft, Zval =  6.0
     Generated by new atomic code, or converted to UPF format
     Using radial grid of  737 points,  4 beta functions with:
                l(1) =   0
                l(2) =   0
                l(3) =   1
                l(4) =   1
     Q(r) pseudized with  8 coefficients,  rinner =    0.800   0.800   0.800

     PseudoPot. # 3 for H  read from file:
     /storage/coda1/p-amedford6/0/shared/rich_project_chbe-medford/medford-share/data/pseudos_module/espresso/nninc/pbe/van/H.UPF
     MD5 check sum: b5ee9d7bfd3a09ee7748110bda690ff7
     Pseudo is Ultrasoft, Zval =  1.0
     Generated by new atomic code, or converted to UPF format
     Using radial grid of  615 points,  1 beta functions with:
                l(1) =   0
     Q(r) pseudized with  8 coefficients,  rinner =    0.800

     PseudoPot. # 4 for N  read from file:
     /storage/coda1/p-amedford6/0/shared/rich_project_chbe-medford/medford-share/data/pseudos_module/espresso/nninc/pbe/van/N.UPF
     MD5 check sum: 90d10febe142ad51ac9d5be1deb811c4
     Pseudo is Ultrasoft, Zval =  5.0
     Generated by new atomic code, or converted to UPF format
     Using radial grid of  729 points,  4 beta functions with:
                l(1) =   0
                l(2) =   0
                l(3) =   1
                l(4) =   1
     Q(r) pseudized with  8 coefficients,  rinner =    0.800   0.800   0.800

     PseudoPot. # 5 for C  read from file:
     /storage/coda1/p-amedford6/0/shared/rich_project_chbe-medford/medford-share/data/pseudos_module/espresso/nninc/pbe/van/C.UPF
     MD5 check sum: 1a69bf6b8db32088f5b2163dbdb77a27
     Pseudo is Ultrasoft, Zval =  4.0
     Generated by new atomic code, or converted to UPF format
     Using radial grid of  721 points,  4 beta functions with:
                l(1) =   0
                l(2) =   0
                l(3) =   1
                l(4) =   1
     Q(r) pseudized with  8 coefficients,  rinner =    0.800   0.800   0.800

     atomic species   valence    mass     pseudopotential
        Ti1           12.00    47.86700     Ti( 1.00)
        O1             6.00    15.99900     O ( 1.00)
        H1             1.00     1.00800     H ( 1.00)
        N1             5.00    14.00700     N ( 1.00)
        C1             4.00    12.01100     C ( 1.00)

     Starting magnetic structure
     atomic species   magnetization
        Ti1          0.000
        O1           0.000
        H1           0.000
        N1           0.000
        C1           0.025

     No symmetry found

   Cartesian axes

     site n.     atom                  positions (alat units)
         1           Ti1 tau(   1) = (   0.0004258   2.9801865   6.0000000  )
         2           Ti1 tau(   2) = (   3.2906075   1.4906267   6.0002472  )
         3           O1  tau(   3) = (   0.0006271   0.0005054   7.9858123  )
         4           O1  tau(   4) = (   3.2906025   0.0005020   7.3038282  )
         5           O1  tau(   5) = (   4.5942328   1.4918067   9.2879030  )
         6           O1  tau(   6) = (   1.9868534   1.4903216   9.2879459  )
         7           Ti1 tau(   7) = (   3.2907910   2.8959150   9.1758416  )
         8           Ti1 tau(   8) = (   0.0015273   1.4827037   9.2680791  )
         9           O1  tau(   9) = (   3.2906183   5.9580730  11.3246990  )
        10           O1  tau(  10) = (   0.0116148   5.9584955  10.6183126  )
        11           O1  tau(  11) = (   1.3160896   1.4863360  12.6200149  )
        12           O1  tau(  12) = (   5.2947061   1.4800608  12.6053981  )
        13           Ti1 tau(  13) = (   6.5224157   2.9421717  12.6196007  )
        14           Ti1 tau(  14) = (   3.2076970   1.4879367  12.4696142  )
        15           O1  tau(  15) = (   6.5517659   0.0158556  14.6493665  )
        16           O1  tau(  16) = (   3.3109316   0.0069331  13.9179417  )
        17           O1  tau(  17) = (   4.5083530   1.5297238  16.0872293  )
        18           O1  tau(  18) = (   2.0274073   1.5273405  16.0409094  )
        19           Ti1 tau(  19) = (   3.2920608   3.0081397  15.6838061  )
        20           Ti1 tau(  20) = (   0.0536170   1.5416865  15.8648894  )
        21           O1  tau(  21) = (   3.2904802   0.0005063   4.7018136  )
        22           O1  tau(  22) = (   0.0122827   0.0301012  17.2134340  )
        23           O1  tau(  23) = (   1.3043587   1.4918075   6.0039043  )
        24           O1  tau(  24) = (   5.2767064   1.4903225   6.0039473  )
        25           Ti1 tau(  25) = (   0.0000382   5.9609847   6.0000000  )
        26           Ti1 tau(  26) = (   3.2902200   4.4714249   6.0002472  )
        27           O1  tau(  27) = (   0.0002396   2.9813036   7.9858123  )
        28           O1  tau(  28) = (   3.2902150   2.9813002   7.3038282  )
        29           O1  tau(  29) = (   4.5938453   4.4726049   9.2879030  )
        30           O1  tau(  30) = (   1.9864658   4.4711199   9.2879459  )
        31           Ti1 tau(  31) = (   3.2891106   5.8743827   9.1763621  )
        32           Ti1 tau(  32) = (   0.0006254   4.4649316   9.2693709  )
        33           O1  tau(  33) = (   3.2866862   2.9837957  11.3234553  )
        34           O1  tau(  34) = (   0.0092240   2.9805883  10.6323155  )
        35           O1  tau(  35) = (   1.3095649   4.4762946  12.6335636  )
        36           O1  tau(  36) = (   5.2963019   4.4650584  12.6194355  )
        37           Ti1 tau(  37) = (   6.5192018   5.9199268  12.5733442  )
        38           Ti1 tau(  38) = (   3.2055211   4.4685508  12.4747853  )
        39           O1  tau(  39) = (   6.5624772   2.9349094  14.6472044  )
        40           O1  tau(  40) = (   3.3065106   2.9879112  13.8942307  )
        41           O1  tau(  41) = (   4.5199725   4.4841037  16.0899424  )
        42           O1  tau(  42) = (   2.0389375   4.4882992  16.0664246  )
        43           Ti1 tau(  43) = (   3.3279474   0.0221627  15.7114356  )
        44           Ti1 tau(  44) = (   0.0314192   4.6578676  16.1055029  )
        45           O1  tau(  45) = (   3.2900926   2.9813045   4.7018136  )
        46           O1  tau(  46) = (   1.3039711   4.4726057   6.0039043  )
        47           O1  tau(  47) = (   5.2763189   4.4711207   6.0039473  )
        48           H1  tau(  48) = (   5.5751926   2.9245997  17.7795037  )
        49           N1  tau(  49) = (   6.5345126   2.9709300  17.4463781  )
        50           C1  tau(  50) = (   0.8205834   2.9192471  18.6315588  )
        51           H1  tau(  51) = (   0.6379014   3.7826647  19.2931901  )
        52           H1  tau(  52) = (   0.6616828   1.9903841  19.1881566  )
        53           H1  tau(  53) = (   1.8691752   2.9530840  18.3388921  )

     number of k points=    10  Fermi-Dirac smearing, width (Ry)=  0.0073
                       cart. coord. in units 2pi/alat
        k(    1) = (   0.0000000   0.0000000   0.0000000), wk =   0.0625000
        k(    2) = (   0.0000000   0.0419351   0.0000000), wk =   0.1250000
        k(    3) = (   0.0000000  -0.0838702   0.0000000), wk =   0.0625000
        k(    4) = (   0.0379955   0.0000049   0.0000000), wk =   0.1250000
        k(    5) = (   0.0379955   0.0419400   0.0000000), wk =   0.1250000
        k(    6) = (   0.0379955  -0.0838652   0.0000000), wk =   0.1250000
        k(    7) = (   0.0379955  -0.0419301   0.0000000), wk =   0.1250000
        k(    8) = (  -0.0759910  -0.0000099   0.0000000), wk =   0.0625000
[...]

     Initial potential from superposition of free atoms

     starting charge  374.99916, renormalised to  391.00000

     negative rho (up, down):  8.888E-03 8.895E-03

     %%%%%%%%%%%%%%%%%%%%%%%%%%%%%%%%%%%%%%%%%%%%%%%%%%%%%%%%%%%%%%%%%%%%%%%%
     %                                                                      %
     % You are using vdW-DF, which was implemented by the Thonhauser group. %
     % Please cite the following two papers that made this development      %
     % possible and the two reviews that describe the various versions:     %
     %                                                                      %
     %   T. Thonhauser et al., PRL 115, 136402 (2015).                      %
     %   T. Thonhauser et al., PRB 76, 125112 (2007).                       %
     %   K. Berland et al., Rep. Prog. Phys. 78, 066501 (2015).             %
     %   D.C. Langreth et al., J. Phys.: Condens. Matter 21, 084203 (2009). %
     %                                                                      %
     %                                                                      %
     % If you are calculating the stress with vdW-DF, please also cite:     %
     %                                                                      %
     %   R. Sabatini et al., J. Phys.: Condens. Matter 24, 424209 (2012).   %
     %                                                                      %
     %%%%%%%%%%%%%%%%%%%%%%%%%%%%%%%%%%%%%%%%%%%%%%%%%%%%%%%%%%%%%%%%%%%%%%%%

     Adding external electric field

     Computed dipole along edir(3) :
        Dipole               -5.8162 Ry au,        -14.7834 Debye
        Dipole field         -0.0110 Ry au,

        Potential amp.        1.0175 Ry
        Total length         46.3494 bohr

[...]

     Starting wfcs are  296 atomic wfcs
  @ DRIVER MODE: Message from server: STATUS
  @ DRIVER MODE: Message from server: POSDATA
  @ DRIVER MODE: Reading and sharing cell
  @ DRIVER MODE: Reading and sharing positions
  @ DRIVER MODE: Received positions

     Self-consistent Calculation

     iteration #  1     ecut=    29.40 Ry     beta= 0.05
     Davidson diagonalization with overlap
     c_bands:  3 eigenvalues not converged
     c_bands:  1 eigenvalues not converged
     c_bands:  1 eigenvalues not converged
     c_bands:  2 eigenvalues not converged
     c_bands:  4 eigenvalues not converged
     c_bands:  2 eigenvalues not converged
     c_bands:  1 eigenvalues not converged
     c_bands:  1 eigenvalues not converged
     c_bands:  2 eigenvalues not converged
     c_bands:  3 eigenvalues not converged
     c_bands:  1 eigenvalues not converged
     c_bands:  1 eigenvalues not converged
     c_bands:  3 eigenvalues not converged
     c_bands:  4 eigenvalues not converged
     c_bands:  3 eigenvalues not converged
     c_bands:  1 eigenvalues not converged
     c_bands:  1 eigenvalues not converged
     c_bands:  2 eigenvalues not converged
     ethr =  1.00E-05,  avg # of iterations = 19.5

[...]

     total energy              =   -2770.74056429 Ry
     estimated scf accuracy    <    1640.78240141 Ry

     total magnetization       =     0.01 Bohr mag/cell
     absolute magnetization    =     0.03 Bohr mag/cell

[...]

     iteration #  3     ecut=    29.40 Ry     beta= 0.05
     Davidson diagonalization with overlap
     ethr =  1.00E-02,  avg # of iterations = 15.0

[...]

     iteration # 67     ecut=    29.40 Ry     beta= 0.05
     Davidson diagonalization with overlap
     c_bands:  1 eigenvalues not converged
     ethr =  3.17E-11,  avg # of iterations = 12.4

[...]

     total energy              =   -2920.42454099 Ry
     estimated scf accuracy    <       0.00000013 Ry

[...]

     iteration # 69     ecut=    29.40 Ry     beta= 0.05
     Davidson diagonalization with overlap
     ethr =  2.59E-11,  avg # of iterations =  5.0

     negative rho (up, down):  9.088E-03 9.087E-03

[...]

     Adding external electric field

     Computed dipole along edir(3) :
        Dipole                0.6825 Ry au,          1.7348 Debye
        Dipole field          0.0013 Ry au,

        Potential amp.       -0.1194 Ry
        Total length         46.3494 bohr

     Magnetic moment per site  (integrated on atomic sphere of radius R)
     atom   1 (R=0.715)  charge=  7.8451  magn= -0.0056
     atom   2 (R=0.715)  charge=  7.8287  magn= -0.0003
     atom   3 (R=0.715)  charge=  4.8552  magn=  0.0004
     atom   4 (R=0.715)  charge=  4.8904  magn=  0.0001
     atom   5 (R=0.715)  charge=  4.8609  magn=  0.0001
     atom   6 (R=0.715)  charge=  4.8616  magn=  0.0001
     atom   7 (R=0.715)  charge=  7.8276  magn= -0.0002
     atom   8 (R=0.715)  charge=  7.8194  magn= -0.0015
     atom   9 (R=0.715)  charge=  4.8766  magn= -0.0000
     atom  10 (R=0.715)  charge=  4.8485  magn=  0.0001
     atom  11 (R=0.715)  charge=  4.8624  magn= -0.0000
     atom  12 (R=0.715)  charge=  4.8618  magn=  0.0000
     atom  13 (R=0.715)  charge=  7.8170  magn= -0.0002
     atom  14 (R=0.715)  charge=  7.8304  magn=  0.0001
     atom  15 (R=0.715)  charge=  4.8497  magn=  0.0000
     atom  16 (R=0.715)  charge=  4.8722  magn= -0.0001
     atom  17 (R=0.715)  charge=  4.8476  magn= -0.0001
     atom  18 (R=0.715)  charge=  4.8546  magn= -0.0001
     atom  19 (R=0.715)  charge=  7.8557  magn=  0.0003
     atom  20 (R=0.715)  charge=  7.8308  magn=  0.0000
     atom  21 (R=0.715)  charge=  4.7479  magn=  0.0003
     atom  22 (R=0.715)  charge=  4.8259  magn=  0.0001
     atom  23 (R=0.715)  charge=  4.8532  magn=  0.0007
     atom  24 (R=0.715)  charge=  4.8532  magn=  0.0007
     atom  25 (R=0.715)  charge=  7.8451  magn= -0.0057
     atom  26 (R=0.715)  charge=  7.8287  magn= -0.0003
     atom  27 (R=0.715)  charge=  4.8545  magn=  0.0004
     atom  28 (R=0.715)  charge=  4.8906  magn=  0.0001
     atom  29 (R=0.715)  charge=  4.8616  magn=  0.0001
     atom  30 (R=0.715)  charge=  4.8623  magn=  0.0001
     atom  31 (R=0.715)  charge=  7.8277  magn= -0.0002
     atom  32 (R=0.715)  charge=  7.8194  magn= -0.0015
     atom  33 (R=0.715)  charge=  4.8755  magn= -0.0000
     atom  34 (R=0.715)  charge=  4.8372  magn=  0.0001
     atom  35 (R=0.715)  charge=  4.8620  magn=  0.0000
     atom  36 (R=0.715)  charge=  4.8623  magn=  0.0000
     atom  37 (R=0.715)  charge=  7.8196  magn= -0.0002
     atom  38 (R=0.715)  charge=  7.8303  magn=  0.0001
     atom  39 (R=0.715)  charge=  4.8445  magn= -0.0000
     atom  40 (R=0.715)  charge=  4.8783  magn= -0.0001
     atom  41 (R=0.715)  charge=  4.8509  magn= -0.0001
     atom  42 (R=0.715)  charge=  4.8518  magn= -0.0001
     atom  43 (R=0.715)  charge=  7.8537  magn=  0.0003
     atom  44 (R=0.715)  charge=  7.8554  magn= -0.0000
     atom  45 (R=0.715)  charge=  4.7479  magn=  0.0003
     atom  46 (R=0.715)  charge=  4.8532  magn=  0.0007
     atom  47 (R=0.715)  charge=  4.8532  magn=  0.0007
     atom  48 (R=0.419)  charge=  0.4545  magn=  0.0000
     atom  49 (R=0.419)  charge=  1.3288  magn= -0.0001
     atom  50 (R=0.449)  charge=  0.8445  magn=  0.0000
     atom  51 (R=0.419)  charge=  0.4376  magn= -0.0000
     atom  52 (R=0.419)  charge=  0.4410  magn= -0.0000
     atom  53 (R=0.419)  charge=  0.4478  magn= -0.0000

     End of self-consistent calculation

 ------ SPIN UP ------------

          k = 0.0000 0.0000 0.0000 ( 18029 PWs)   bands (ev):

   -55.9913 -55.9891 -55.9572 -55.9530 -55.9043 -55.8395 -55.8389 -55.8045
   -55.7988 -55.7649 -55.7603 -55.7266 -55.5403 -55.2729 -54.9685 -54.9344
   -32.5479 -32.4757 -32.3513 -32.3406 -32.3166 -32.2968 -32.2835 -32.2512
   -32.2371 -32.2327 -32.2128 -32.2055 -32.1717 -32.1421 -32.1410 -32.1355
   -32.1314 -32.0975 -32.0778 -32.0493 -32.0470 -32.0411 -32.0270 -31.9993
   -31.9920 -31.9915 -31.9853 -31.9778 -31.9634 -31.9587 -31.9546 -31.9445
   -31.9361 -31.9286 -31.9133 -31.9060 -31.8727 -31.8095 -31.7113 -31.5476
   -31.5427 -31.4679 -31.3753 -31.2873 -31.2649 -31.1919 -31.1054 -30.9945
   -16.7567 -16.4737 -16.2939 -16.1511 -16.1187 -16.0331 -15.8324 -15.7059
   -15.6933 -15.5896 -15.5566 -15.5310 -15.5237 -15.4972 -15.4925 -15.4314
   -15.4294 -15.4161 -15.4068 -15.3497 -15.3251 -15.2717 -15.1922 -15.1593
   -15.1539 -15.1268 -15.0444 -15.0392 -14.5858 -14.1748 -13.4717 -13.3554
    -8.9143  -4.3494  -4.1277  -3.9534  -3.9140  -3.8985  -3.8486  -3.5943
    -3.5795  -3.3262  -3.2291  -3.1931  -3.1788  -3.1698  -3.1497  -3.1387
    -2.8923  -2.8246  -2.8104  -2.7885  -2.7806  -2.7745  -2.7624  -2.7617
    -2.7223  -2.6592  -2.5342  -2.4976  -2.4207  -2.3836  -2.3530  -2.3055
    -2.2616  -2.2546  -2.2437  -2.2248  -2.2121  -2.1883  -2.1720  -2.0380
    -1.9721  -1.8368  -1.8021  -1.7826  -1.5967  -1.5375  -1.4727  -1.4345
    -1.4213  -1.4142  -1.3825  -1.3008  -1.2090  -1.1531  -1.1424  -1.0866
    -1.0092  -0.9978  -0.8897  -0.8840  -0.8554  -0.7670  -0.7571  -0.7458
    -0.7261  -0.6575  -0.5581  -0.4812  -0.4358  -0.4057  -0.3752  -0.3056
    -0.2755  -0.1732  -0.1574  -0.1095  -0.1043  -0.0628  -0.0180  -0.0082
     0.0007   0.0086   0.0339   0.1763   0.2872   0.3426   0.3825   0.3885
     0.5429   0.5703   0.6671   0.7558   0.9803   1.0530   1.1466   1.2459
     1.3228   1.6234   1.6691   3.1501   3.2317   3.2812   3.2883   3.3918
     3.3958   3.5998   3.6066   3.6198   3.6867

[...]

          k =-0.0760-0.0000 0.0000 ( 17886 PWs)   bands (ev):

[...]

 ------ SPIN DOWN ----------

[...]

          k = 0.0380-0.0419 0.0000 ( 17876 PWs)   bands (ev):

[...]

          k =-0.0760-0.0839 0.0000 ( 17948 PWs)   bands (ev):

   -55.9853 -55.9846 -55.9720 -55.9692 -55.8981 -55.8435 -55.8227 -55.8212
   -55.7853 -55.7835 -55.7445 -55.7434 -55.5391 -55.2738 -54.9521 -54.9520
   -32.3526 -32.3488 -32.2959 -32.2953 -32.2818 -32.2812 -32.2804 -32.2609
   -32.1990 -32.1981 -32.1933 -32.1889 -32.1652 -32.1340 -32.1197 -32.1155
   -32.1056 -32.1049 -32.1021 -32.1014 -32.0965 -32.0842 -32.0819 -32.0494
   -32.0423 -32.0412 -32.0119 -32.0009 -31.9817 -31.9813 -31.9771 -31.9762
   -31.9592 -31.9586 -31.9579 -31.9548 -31.8786 -31.8118 -31.7066 -31.6122
   -31.5446 -31.4924 -31.2784 -31.2783 -31.1885 -31.1883 -31.1493 -31.1493
   -16.2105 -16.1753 -15.9386 -15.9272 -15.9206 -15.9048 -15.7591 -15.7123
   -15.7006 -15.6935 -15.6707 -15.6477 -15.5901 -15.5612 -15.5322 -15.5234
   -15.5173 -15.5153 -15.4536 -15.4484 -15.4252 -15.4184 -15.3048 -15.3010
   -15.2916 -15.2156 -15.1611 -15.0213 -14.7473 -14.1984 -13.4566 -13.4564
    -8.9190  -4.3605  -3.5045  -3.4644  -3.2773  -3.2456  -3.1793  -3.1627
    -3.1386  -3.0704  -2.9061  -2.8893  -2.8779  -2.8627  -2.8205  -2.8143
    -2.8040  -2.7913  -2.7847  -2.7656  -2.7322  -2.6993  -2.6609  -2.6536
    -2.6450  -2.6201  -2.6091  -2.5870  -2.5756  -2.5447  -2.5356  -2.5180
    -2.4885  -2.2268  -2.2069  -2.1960  -2.1249  -2.1183  -2.0848  -2.0669
    -2.0573  -2.0441  -1.9867  -1.8828  -1.7261  -1.6945  -1.6816  -1.6694
    -1.5855  -1.5764  -1.4235  -1.4023  -1.3820  -1.3445  -1.2904  -1.2683
    -1.2278  -1.1690  -1.1517  -1.0878  -1.0708  -1.0119  -0.9565  -0.9547
    -0.9336  -0.8581  -0.7767  -0.7616  -0.7481  -0.7085  -0.6988  -0.6120
    -0.5883  -0.4950  -0.4808  -0.4215  -0.3961  -0.2957  -0.1366  -0.0120
     0.0416   0.0675   0.1251   0.2236   0.2680   0.2799   0.3240   0.3302
     0.3918   0.4320   0.5453   0.5511   0.6259   0.7172   1.2592   1.4177
     1.4184   1.4893   1.4893   3.4105   3.4157   3.4626   3.4919   3.6438
     3.6483   3.6712   3.6723   3.7984   3.8164

     the Fermi energy is     3.1399 ev

!    total energy              =   -2920.42455824 Ry
     estimated scf accuracy    <       0.00000005 Ry
     smearing contrib. (-TS)   =      -0.02202797 Ry
     internal energy E=F+TS    =   -2920.40253027 Ry

     The total energy is F=E-TS. E is the sum of the following terms:
     one-electron contribution =  -24701.68322354 Ry
     hartree contribution      =   12435.43777839 Ry
     xc contribution           =    -480.86645586 Ry
     ewald contribution        =    9826.70849161 Ry
     electric field correction =       0.00087913 Ry

     total magnetization       =    -0.02 Bohr mag/cell
     absolute magnetization    =     0.03 Bohr mag/cell

     convergence has been achieved in  69 iterations

     Forces acting on atoms (cartesian axes, Ry/au):

     atom    1 type  1   force =     0.00011013   -0.00026312    0.09689171
     atom    2 type  1   force =     0.00001753   -0.00055516   -0.17507625
     atom    3 type  2   force =     0.00013506   -0.00007916   -0.02545349
     atom    4 type  2   force =    -0.00000654   -0.00137103    0.05230209
     atom    5 type  2   force =    -0.01236062   -0.00013352    0.00302537
     atom    6 type  2   force =     0.01377950    0.00023253    0.00238920
     atom    7 type  1   force =     0.00059852    0.00032908   -0.01265887
     atom    8 type  1   force =     0.00047384    0.00593876    0.03106290
     atom    9 type  2   force =    -0.00033283    0.00023656    0.00041135
     atom   10 type  2   force =    -0.00269642    0.00069280   -0.01624833
     atom   11 type  2   force =    -0.00041009    0.00012356    0.00016781
     atom   12 type  2   force =     0.00013967    0.00013465    0.00019399
     atom   13 type  1   force =    -0.00014119    0.00022343    0.00024609
     atom   14 type  1   force =    -0.00002398   -0.00020294   -0.00013162
     atom   15 type  2   force =     0.00020651    0.00008959    0.00032996
     atom   16 type  2   force =    -0.00006452    0.00027285    0.00021588
     atom   17 type  2   force =    -0.00007307   -0.00021092   -0.00024469
     atom   18 type  2   force =     0.00034158   -0.00010898    0.00023073
     atom   19 type  1   force =    -0.00004016    0.00021548   -0.00001578
     atom   20 type  1   force =    -0.00004256   -0.00001808   -0.00038536
     atom   21 type  2   force =     0.00006667   -0.00005576    0.10308293
     atom   22 type  2   force =    -0.00011649   -0.00001037    0.00029263
     atom   23 type  2   force =    -0.07162621   -0.00015888   -0.02783053
     atom   24 type  2   force =     0.07155226    0.00032454   -0.02789162
     atom   25 type  1   force =     0.00011428   -0.00024097    0.09667491
     atom   26 type  1   force =     0.00012170   -0.00031923   -0.17524377
     atom   27 type  2   force =     0.00013398   -0.00023281   -0.02453240
     atom   28 type  2   force =     0.00002758   -0.00112855    0.05221803
     atom   29 type  2   force =    -0.01248180    0.00014821    0.00267862
     atom   30 type  2   force =     0.01378983    0.00069316    0.00202345
     atom   31 type  1   force =     0.00050088    0.00289621   -0.01337747
     atom   32 type  1   force =     0.00030329   -0.00821497    0.03148096
     atom   33 type  2   force =    -0.00005695   -0.00006098   -0.00010393
     atom   34 type  2   force =    -0.00184004    0.00055988   -0.02456590
     atom   35 type  2   force =    -0.00013804    0.00010237    0.00004718
     atom   36 type  2   force =    -0.00024332    0.00020446    0.00012002
     atom   37 type  1   force =    -0.00008137    0.00027995    0.00024201
     atom   38 type  1   force =    -0.00023201   -0.00003959   -0.00015132
     atom   39 type  2   force =     0.00006012    0.00022007   -0.00015890
     atom   40 type  2   force =    -0.00016735    0.00027222   -0.00016703
     atom   41 type  2   force =     0.00005729    0.00006380    0.00022835
     atom   42 type  2   force =    -0.00010348   -0.00001458    0.00038249
     atom   43 type  1   force =    -0.00019641   -0.00019014    0.00051924
     atom   44 type  1   force =     0.00031575   -0.00026190    0.00009206
     atom   45 type  2   force =     0.00004959   -0.00006415    0.10309151
     atom   46 type  2   force =    -0.07163509   -0.00008705   -0.02782773
     atom   47 type  2   force =     0.07156688    0.00033607   -0.02790355
     atom   48 type  3   force =    -0.00048240    0.00017721    0.00002426
     atom   49 type  4   force =     0.00051847   -0.00064045   -0.00036055
     atom   50 type  5   force =     0.00003594    0.00774591    0.00383283
     atom   51 type  3   force =     0.00092247   -0.00907008   -0.00487517
     atom   52 type  3   force =     0.00003725    0.00142597    0.00050442
     atom   53 type  3   force =    -0.00038363   -0.00020594    0.00020129

     Total force =     0.368598     Total SCF correction =     0.000507
  @ DRIVER MODE: Message from server: STATUS
  @ DRIVER MODE: Message from server: GETFORCE
  @ DRIVER MODE: Returning v,forces,stress,ensemble

     Writing output data file ./calc.save/
  @ DRIVER MODE: Message from server: EXIT
  @ DRIVE MODE: Exiting

     General routines

     Parallel routines

   This run was terminated on:   4: 2:10  16Jul2021

   JOB DONE.