     Program PWSCF v.6.7GPU starts on 23Aug2021 at 21:53:12

     R & G space division:  proc/nbgrp/npool/nimage =       6
     Reading input from /storage/home/hcoda1/3/ntian30/research/carbon/CH_vib/ads_slab/CHNH_a/out_0020/pw.inp
Warning: card &CELL ignored
Warning: card   CELL_DYNAMICS='IPI', ignored
Warning: card / ignored

     Current dimensions of program PWSCF are:
     Max number of different atomic species (ntypx) = 10
     Max number of k-points (npk) =  40000
     Max angular momentum in pseudopotentials (lmaxx) =  3
     Presently no symmetry can be used with electric field

     Message from routine cell_base_init:
     DEPRECATED: use true lattice parameter, not A to a.u. conversion factor

     IMPORTANT: XC functional enforced from input :
     Exchange-correlation= BEEF-VDW
                           (   1   4  43  14   2   0   0)
     Any further DFT definition will be discarded
     Please, verify this is what you really want

  @ DRIVER MODE: Connecting to
 qe_1139763_2632799.sched-torque.pace.gatech.eduj1pjey_s_scratch
  using UNIX socket
  @ DRIVER MODE: Message from server: STATUS
  @ DRIVER MODE: Message from server: INIT
  @ DRIVER MODE: Receiving replica           0          -1
  @ DRIVER MODE: Receiving encoded integer          25
  @ DRIVER MODE:  SCF:  T  FORCE:  T  STRESS:  F  VC:  F  ENSEMBLE:  F
  @ DRIVER MODE:  SCF:  T  FORCE:  T  STRESS:  F  VC:  F  ENSEMBLE:  F

     Using Slab Decomposition

     bravais-lattice index     =            0
     lattice parameter (alat)  =       1.8897  a.u.
     unit-cell volume          =    6658.9804 (a.u.)^3
     number of atoms/cell      =           51
     number of atomic types    =            5
     number of electrons       =       389.00
     number of Kohn-Sham states=          204
     kinetic-energy cutoff     =      29.3995  Ry
     charge density cutoff     =     293.9946  Ry
     scf convergence threshold =      7.3E-08
     mixing beta               =       0.0500
     number of iterations used =            8  plain     mixing
     Exchange-correlation= BEEF-VDW
                           (   1   4  43  14   2   0   0)

     celldm(1)=   1.889726  celldm(2)=   0.000000  celldm(3)=   0.000000
     celldm(4)=   0.000000  celldm(5)=   0.000000  celldm(6)=   0.000000

     crystal axes: (cart. coord. in units of alat)
               a(1) = (   6.579727   0.000000   0.000000 )
               a(2) = (  -0.000775   5.961596   0.000000 )
               a(3) = (   0.000000   0.000000  25.155947 )

     reciprocal axes: (cart. coord. in units 2 pi/alat)
               b(1) = (  0.151982  0.000020  0.000000 )
               b(2) = (  0.000000  0.167740  0.000000 )
               b(3) = (  0.000000  0.000000  0.039752 )

     PseudoPot. # 1 for Ti read from file:
     /storage/coda1/p-amedford6/0/shared/rich_project_chbe-medford/medford-share/data/pseudos_module/espresso/nninc/pbe/van/Ti.UPF
     MD5 check sum: 8e4df49b7f0d34bbd5052bf3f5ea0213
     Pseudo is Ultrasoft, Zval = 12.0
     Generated by new atomic code, or converted to UPF format
     Using radial grid of  851 points,  6 beta functions with:
                l(1) =   0
                l(2) =   0
                l(3) =   1
                l(4) =   1
                l(5) =   2
                l(6) =   2
     Q(r) pseudized with  8 coefficients,  rinner =    1.000   1.000   1.000
                                                       1.000   1.000

     PseudoPot. # 2 for O  read from file:
     /storage/coda1/p-amedford6/0/shared/rich_project_chbe-medford/medford-share/data/pseudos_module/espresso/nninc/pbe/van/O.UPF
     MD5 check sum: 78c19812648e8988a0fe644b0f25305e
     Pseudo is Ultrasoft, Zval =  6.0
     Generated by new atomic code, or converted to UPF format
     Using radial grid of  737 points,  4 beta functions with:
                l(1) =   0
                l(2) =   0
                l(3) =   1
                l(4) =   1
     Q(r) pseudized with  8 coefficients,  rinner =    0.800   0.800   0.800

     PseudoPot. # 3 for N  read from file:
     /storage/coda1/p-amedford6/0/shared/rich_project_chbe-medford/medford-share/data/pseudos_module/espresso/nninc/pbe/van/N.UPF
     MD5 check sum: 90d10febe142ad51ac9d5be1deb811c4
     Pseudo is Ultrasoft, Zval =  5.0
     Generated by new atomic code, or converted to UPF format
     Using radial grid of  729 points,  4 beta functions with:
                l(1) =   0
                l(2) =   0
                l(3) =   1
                l(4) =   1
     Q(r) pseudized with  8 coefficients,  rinner =    0.800   0.800   0.800

     PseudoPot. # 4 for C  read from file:
     /storage/coda1/p-amedford6/0/shared/rich_project_chbe-medford/medford-share/data/pseudos_module/espresso/nninc/pbe/van/C.UPF
     MD5 check sum: 1a69bf6b8db32088f5b2163dbdb77a27
     Pseudo is Ultrasoft, Zval =  4.0
     Generated by new atomic code, or converted to UPF format
     Using radial grid of  721 points,  4 beta functions with:
                l(1) =   0
                l(2) =   0
                l(3) =   1
                l(4) =   1
     Q(r) pseudized with  8 coefficients,  rinner =    0.800   0.800   0.800

     PseudoPot. # 5 for H  read from file:
     /storage/coda1/p-amedford6/0/shared/rich_project_chbe-medford/medford-share/data/pseudos_module/espresso/nninc/pbe/van/H.UPF
     MD5 check sum: b5ee9d7bfd3a09ee7748110bda690ff7
     Pseudo is Ultrasoft, Zval =  1.0
     Generated by new atomic code, or converted to UPF format
     Using radial grid of  615 points,  1 beta functions with:
                l(1) =   0
     Q(r) pseudized with  8 coefficients,  rinner =    0.800

     atomic species   valence    mass     pseudopotential
        Ti1           12.00    47.86700     Ti( 1.00)
        O1             6.00    15.99900     O ( 1.00)
        N1             5.00    14.00700     N ( 1.00)
        C1             4.00    12.01100     C ( 1.00)
        H1             1.00     1.00800     H ( 1.00)

     No symmetry found

   Cartesian axes

     site n.     atom                  positions (alat units)
         1           Ti1 tau(   1) = (   0.0004258   2.9801865   6.0000000  )
         2           Ti1 tau(   2) = (   3.2906075   1.4906267   6.0002472  )
         3           O1  tau(   3) = (   0.0006271   0.0005054   7.9858123  )
         4           O1  tau(   4) = (   3.2906025   0.0005020   7.3038282  )
         5           O1  tau(   5) = (   4.5942328   1.4918067   9.2879030  )
         6           O1  tau(   6) = (   1.9868534   1.4903216   9.2879459  )
         7           Ti1 tau(   7) = (   3.2907910   2.8959150   9.1758416  )
         8           Ti1 tau(   8) = (   0.0015273   1.4827037   9.2680791  )
         9           O1  tau(   9) = (   3.3107583   5.9394213  11.3440837  )
        10           O1  tau(  10) = (   0.0116148   5.9584955  10.6183126  )
        11           O1  tau(  11) = (   1.3209705   1.4681434  12.6387851  )
        12           O1  tau(  12) = (   5.3117763   1.4689694  12.6372993  )
        13           Ti1 tau(  13) = (   6.5586693   2.9297660  12.6634068  )
        14           Ti1 tau(  14) = (   3.2703198   1.4638114  12.4955107  )
        15           O1  tau(  15) = (   0.0083729   5.9498784  14.6531507  )
        16           O1  tau(  16) = (   3.3267446   5.9373244  13.9471573  )
        17           O1  tau(  17) = (   4.5400383   1.4607670  16.1300196  )
        18           O1  tau(  18) = (   2.0562451   1.4605895  16.0859588  )
        19           Ti1 tau(  19) = (   3.3219294   2.9366742  15.7081325  )
        20           Ti1 tau(  20) = (   0.0794022   1.3719971  16.1804440  )
        21           O1  tau(  21) = (   3.2904802   0.0005063   4.7018136  )
        22           O1  tau(  22) = (   0.0048811   5.8540159  17.1722642  )
        23           O1  tau(  23) = (   1.3043587   1.4918075   6.0039043  )
        24           O1  tau(  24) = (   5.2767064   1.4903225   6.0039473  )
        25           Ti1 tau(  25) = (   0.0000382   5.9609847   6.0000000  )
        26           Ti1 tau(  26) = (   3.2902200   4.4714249   6.0002472  )
        27           O1  tau(  27) = (   0.0002396   2.9813036   7.9858123  )
        28           O1  tau(  28) = (   3.2902150   2.9813002   7.3038282  )
        29           O1  tau(  29) = (   4.5938453   4.4726049   9.2879030  )
        30           O1  tau(  30) = (   1.9864658   4.4711199   9.2879459  )
        31           Ti1 tau(  31) = (   3.2891106   5.8743827   9.1763621  )
        32           Ti1 tau(  32) = (   0.0006254   4.4649316   9.2693709  )
        33           O1  tau(  33) = (   3.3036409   2.9595551  11.3414423  )
        34           O1  tau(  34) = (   0.0092240   2.9805883  10.6323155  )
        35           O1  tau(  35) = (   1.3251634   4.4629088  12.6456700  )
        36           O1  tau(  36) = (   5.3099897   4.4533368  12.6426351  )
        37           Ti1 tau(  37) = (   0.0071655   5.9203210  12.5194715  )
        38           Ti1 tau(  38) = (   3.2774562   4.4456010  12.4944480  )
        39           O1  tau(  39) = (   0.0172281   2.9510719  14.7337574  )
        40           O1  tau(  40) = (   3.3230371   2.9488945  13.9167408  )
        41           O1  tau(  41) = (   4.5572773   4.4147185  16.0816828  )
        42           O1  tau(  42) = (   2.0601761   4.4202290  16.0727324  )
        43           Ti1 tau(  43) = (   3.3574729   5.9210026  15.7440268  )
        44           Ti1 tau(  44) = (   0.0706454   4.5402764  15.7844247  )
        45           O1  tau(  45) = (   3.2900926   2.9813045   4.7018136  )
        46           O1  tau(  46) = (   1.3039711   4.4726057   6.0039043  )
        47           O1  tau(  47) = (   5.2763189   4.4711207   6.0039473  )
        48           N1  tau(  48) = (   6.3928749   2.8496863  17.7411295  )
        49           C1  tau(  49) = (   0.6235525   2.6789418  18.7295412  )
        50           H1  tau(  50) = (   1.5351458   2.1120716  18.4733693  )
        51           H1  tau(  51) = (   5.5297072   3.3230476  17.9821812  )

     number of k points=    10  Fermi-Dirac smearing, width (Ry)=  0.0073
                       cart. coord. in units 2pi/alat
        k(    1) = (   0.0000000   0.0000000   0.0000000), wk =   0.1250000
        k(    2) = (   0.0000000   0.0419351   0.0000000), wk =   0.2500000
        k(    3) = (   0.0000000  -0.0838702   0.0000000), wk =   0.1250000
        k(    4) = (   0.0379955   0.0000049   0.0000000), wk =   0.2500000
        k(    5) = (   0.0379955   0.0419400   0.0000000), wk =   0.2500000
        k(    6) = (   0.0379955  -0.0838652   0.0000000), wk =   0.2500000
        k(    7) = (   0.0379955  -0.0419301   0.0000000), wk =   0.2500000
        k(    8) = (  -0.0759910  -0.0000099   0.0000000), wk =   0.1250000
        k(    9) = (  -0.0759910   0.0419252   0.0000000), wk =   0.2500000
        k(   10) = (  -0.0759910  -0.0838800   0.0000000), wk =   0.1250000

     Initial potential from superposition of free atoms

     starting charge  372.99918, renormalised to  389.00000

     negative rho (up, down):  1.910E-02 0.000E+00

     %%%%%%%%%%%%%%%%%%%%%%%%%%%%%%%%%%%%%%%%%%%%%%%%%%%%%%%%%%%%%%%%%%%%%%%%
     %                                                                      %
     % You are using vdW-DF, which was implemented by the Thonhauser group. %
     % Please cite the following two papers that made this development      %
     % possible and the two reviews that describe the various versions:     %
     %                                                                      %
     %   T. Thonhauser et al., PRL 115, 136402 (2015).                      %
     %   T. Thonhauser et al., PRB 76, 125112 (2007).                       %
     %   K. Berland et al., Rep. Prog. Phys. 78, 066501 (2015).             %
     %   D.C. Langreth et al., J. Phys.: Condens. Matter 21, 084203 (2009). %
     %                                                                      %
     %                                                                      %
     % If you are calculating the stress with vdW-DF, please also cite:     %
     %                                                                      %
     %   R. Sabatini et al., J. Phys.: Condens. Matter 24, 424209 (2012).   %
     %                                                                      %
     %%%%%%%%%%%%%%%%%%%%%%%%%%%%%%%%%%%%%%%%%%%%%%%%%%%%%%%%%%%%%%%%%%%%%%%%

     Adding external electric field

     Computed dipole along edir(3) :
        Dipole               -4.7381 Ry au,        -12.0430 Debye
        Dipole field         -0.0089 Ry au,

        Potential amp.        0.8289 Ry
        Total length         46.3494 bohr

     Starting wfcs are  294 atomic wfcs
  @ DRIVER MODE: Message from server: STATUS
  @ DRIVER MODE: Message from server: POSDATA
  @ DRIVER MODE: Reading and sharing cell
  @ DRIVER MODE: Reading and sharing positions
  @ DRIVER MODE: Received positions

     Self-consistent Calculation

     iteration #  1     ecut=    29.40 Ry     beta= 0.05
     Davidson diagonalization with overlap
     c_bands:  4 eigenvalues not converged
     c_bands:  2 eigenvalues not converged
     c_bands:  1 eigenvalues not converged
     c_bands:  3 eigenvalues not converged
     c_bands:  2 eigenvalues not converged
     c_bands:  2 eigenvalues not converged
     c_bands:  2 eigenvalues not converged
     c_bands:  3 eigenvalues not converged
     c_bands:  1 eigenvalues not converged
     c_bands:  1 eigenvalues not converged
     ethr =  1.00E-05,  avg # of iterations = 20.0

[...]

     total energy              =   -2847.46609440 Ry
     estimated scf accuracy    <     788.37081837 Ry

     iteration #  2     ecut=    29.40 Ry     beta= 0.05
     Davidson diagonalization with overlap
     ethr =  1.00E-02,  avg # of iterations = 15.2

[...]

     iteration # 48     ecut=    29.40 Ry     beta= 0.05
     Davidson diagonalization with overlap
     c_bands:  1 eigenvalues not converged
     ethr =  8.16E-10,  avg # of iterations = 11.5

[...]

     total energy              =   -2917.76267031 Ry
     estimated scf accuracy    <       0.00000018 Ry

     iteration # 53     ecut=    29.40 Ry     beta= 0.05
     Davidson diagonalization with overlap
     ethr =  3.91E-11,  avg # of iterations =  7.2

     negative rho (up, down):  1.797E-02 0.000E+00

     Adding external electric field

     Computed dipole along edir(3) :
        Dipole                0.1165 Ry au,          0.2960 Debye
        Dipole field          0.0002 Ry au,

        Potential amp.       -0.0204 Ry
        Total length         46.3494 bohr

     End of self-consistent calculation

          k = 0.0000 0.0000 0.0000 ( 18029 PWs)   bands (ev):

   -56.3260 -56.3204 -56.2896 -56.2863 -56.2203 -56.1864 -56.1604 -56.1457
   -56.1279 -56.1082 -56.0935 -56.0747 -55.9231 -55.7646 -55.3055 -55.2714
   -32.8879 -32.8040 -32.6724 -32.6682 -32.6403 -32.6284 -32.6127 -32.5984
   -32.5627 -32.5558 -32.5344 -32.5311 -32.5044 -32.4728 -32.4717 -32.4614
   -32.4568 -32.4258 -32.4247 -32.4184 -32.3929 -32.3819 -32.3776 -32.3458
   -32.3396 -32.3268 -32.3262 -32.3195 -32.3151 -32.3110 -32.2924 -32.2773
   -32.2767 -32.2646 -32.2602 -32.2304 -32.2235 -32.2172 -32.1363 -32.0490
   -31.9986 -31.8960 -31.7131 -31.6237 -31.6013 -31.5297 -31.4431 -31.3322
   -17.0857 -16.8191 -16.6531 -16.4997 -16.4648 -16.3536 -16.1882 -16.0650
   -16.0233 -16.0056 -15.9204 -15.8972 -15.8731 -15.8674 -15.8590 -15.8356
   -15.8335 -15.7771 -15.7547 -15.7381 -15.7124 -15.6928 -15.6693 -15.6345
   -15.5360 -15.4807 -15.4566 -15.3887 -15.3199 -14.9889 -13.8083 -13.6918
    -8.3147  -4.4515  -4.3635  -4.2751  -4.2307  -4.1878  -3.9724  -3.9030
    -3.8955  -3.7045  -3.5658  -3.5176  -3.5022  -3.4611  -3.4596  -3.2466
    -3.2073  -3.1440  -3.1394  -3.1222  -3.1175  -3.0903  -3.0822  -3.0606
    -3.0126  -2.9344  -2.8713  -2.7681  -2.7361  -2.6842  -2.6605  -2.6357
    -2.5990  -2.5889  -2.5806  -2.5617  -2.5468  -2.5327  -2.4444  -2.3989
    -2.2941  -2.1607  -2.1451  -2.1235  -1.9399  -1.8857  -1.8092  -1.7893
    -1.7593  -1.7459  -1.7180  -1.6330  -1.5570  -1.5222  -1.4521  -1.4487
    -1.3606  -1.3180  -1.2292  -1.2012  -1.1673  -1.0889  -1.0795  -1.0729
    -1.0217  -0.8277  -0.8028  -0.7956  -0.7744  -0.7111  -0.6550  -0.6182
    -0.5596  -0.5318  -0.4909  -0.4062  -0.3991  -0.3636  -0.3423  -0.3277
    -0.2989  -0.2939  -0.1044  -0.0997  -0.0555  -0.0429   0.0435   0.1972
     0.2903   0.3275   0.4011   0.6379   0.7163   0.7936   0.9071   1.2887
     1.3348   2.5433   2.8111   2.8835   2.8992   2.9405   3.0358   3.0467
     3.2626   3.2727   3.2991   3.3191

[...]

          k = 0.0380-0.0419 0.0000 ( 17876 PWs)   bands (ev):

[...]

          k =-0.0760-0.0000 0.0000 ( 17886 PWs)   bands (ev):

[...]

          k =-0.0760-0.0839 0.0000 ( 17948 PWs)   bands (ev):

   -56.3105 -56.3049 -56.3043 -56.3023 -56.2148 -56.1775 -56.1658 -56.1546
   -56.1121 -56.1086 -56.0932 -56.0901 -55.9216 -55.7660 -55.2885 -55.2883
   -32.6943 -32.6875 -32.6199 -32.6186 -32.6010 -32.5989 -32.5973 -32.5876
   -32.5288 -32.5240 -32.5233 -32.5118 -32.4859 -32.4569 -32.4511 -32.4411
   -32.4346 -32.4297 -32.4261 -32.4246 -32.4238 -32.4227 -32.4216 -32.3916
   -32.3871 -32.3698 -32.3576 -32.3450 -32.3345 -32.3251 -32.3235 -32.3157
   -32.3139 -32.3065 -32.3050 -32.2876 -32.2835 -32.2124 -32.1387 -32.0704
   -32.0024 -31.9474 -31.6141 -31.6139 -31.5259 -31.5257 -31.4865 -31.4864
   -16.5320 -16.4915 -16.3216 -16.2590 -16.2477 -16.2359 -16.1928 -16.0891
   -16.0492 -16.0307 -16.0094 -15.9976 -15.9761 -15.9648 -15.8709 -15.8591
   -15.8554 -15.8331 -15.7979 -15.7936 -15.7892 -15.7766 -15.7607 -15.7587
   -15.7238 -15.6496 -15.6454 -15.4255 -15.3337 -15.2667 -13.7937 -13.7933
    -8.3178  -4.0719  -3.8213  -3.7707  -3.6527  -3.5615  -3.4946  -3.4736
    -3.3986  -3.2791  -3.2201  -3.2128  -3.2030  -3.1717  -3.1657  -3.1448
    -3.1347  -3.1217  -3.0789  -3.0580  -3.0423  -3.0327  -3.0064  -2.9934
    -2.9709  -2.9609  -2.9483  -2.9237  -2.8882  -2.8865  -2.8576  -2.8497
    -2.6258  -2.6112  -2.5479  -2.4990  -2.4754  -2.4641  -2.4610  -2.4031
    -2.3827  -2.3610  -2.2640  -2.1974  -2.0445  -2.0276  -2.0197  -1.9809
    -1.9483  -1.8163  -1.7571  -1.7388  -1.7063  -1.6558  -1.6467  -1.5846
    -1.5674  -1.5298  -1.4607  -1.4240  -1.3777  -1.3586  -1.2842  -1.2777
    -1.2449  -1.1913  -1.1121  -1.0912  -1.0737  -1.0615  -1.0070  -0.9671
    -0.9227  -0.8693  -0.7982  -0.7032  -0.6230  -0.4728  -0.4111  -0.3105
    -0.2497  -0.2117  -0.1580  -0.1288  -0.0425  -0.0112  -0.0089   0.0526
     0.0888   0.1884   0.1935   0.2112   0.4393   1.0787   1.0798   1.1540
     1.1549   2.5478   3.0772   3.0915   3.1029   3.1506   3.3088   3.3147
     3.3418   3.3441   3.4339   3.4671

     the Fermi energy is     2.8123 ev

!    total energy              =   -2917.76274940 Ry
     estimated scf accuracy    <       0.00000007 Ry
     smearing contrib. (-TS)   =      -0.02760866 Ry
     internal energy E=F+TS    =   -2917.73514073 Ry

     The total energy is F=E-TS. E is the sum of the following terms:
     one-electron contribution =  -24683.99092040 Ry
     hartree contribution      =   12421.78143625 Ry
     xc contribution           =    -479.09087945 Ry
     ewald contribution        =    9823.56519727 Ry
     electric field correction =       0.00002560 Ry

     convergence has been achieved in  53 iterations

     Forces acting on atoms (cartesian axes, Ry/au):

     atom    1 type  1   force =     0.00012958   -0.00025716    0.09635272
     atom    2 type  1   force =    -0.00005828   -0.00048323   -0.17577766
     atom    3 type  2   force =     0.00009025   -0.00008599   -0.02480840
     atom    4 type  2   force =     0.00006487   -0.00165808    0.05385174
     atom    5 type  2   force =    -0.01231885   -0.00181240    0.00351769
     atom    6 type  2   force =     0.01429333   -0.00153042    0.00392006
     atom    7 type  1   force =     0.00061141    0.00063439   -0.01167483
     atom    8 type  1   force =    -0.00020387    0.02055338    0.02642951
     atom    9 type  2   force =    -0.00054983    0.00047548   -0.00021068
     atom   10 type  2   force =    -0.00145499   -0.00067158   -0.01375074
     atom   11 type  2   force =     0.00039950    0.00026361   -0.00018491
     atom   12 type  2   force =    -0.00053222    0.00054009   -0.00041879
     atom   13 type  1   force =     0.00052094   -0.00033506   -0.00080815
     atom   14 type  1   force =    -0.00116672    0.00108423   -0.00112989
     atom   15 type  2   force =     0.00001291   -0.00007634    0.00071391
     atom   16 type  2   force =     0.00022230    0.00068006   -0.00035509
     atom   17 type  2   force =    -0.00073293    0.00041052   -0.00091610
     atom   18 type  2   force =     0.00115299    0.00074607    0.00039661
     atom   19 type  1   force =    -0.00025457    0.00068624   -0.00099076
     atom   20 type  1   force =    -0.00026500    0.00054327   -0.00026388
     atom   21 type  2   force =     0.00005002    0.00002242    0.10335265
     atom   22 type  2   force =     0.00039514   -0.00080646    0.00068790
     atom   23 type  2   force =    -0.07128580   -0.00004976   -0.02763806
     atom   24 type  2   force =     0.07125092    0.00034100   -0.02774476
     atom   25 type  1   force =     0.00019254   -0.00035842    0.09606580
     atom   26 type  1   force =     0.00000789   -0.00026148   -0.17593755
     atom   27 type  2   force =     0.00021730   -0.00037044   -0.02360288
     atom   28 type  2   force =     0.00006484   -0.00138213    0.05391476
     atom   29 type  2   force =    -0.01264050    0.00048183    0.00328065
     atom   30 type  2   force =     0.01458599    0.00113275    0.00366321
     atom   31 type  1   force =     0.00072188    0.00352578   -0.01310822
     atom   32 type  1   force =     0.00000163   -0.02244610    0.02632303
     atom   33 type  2   force =     0.00005823   -0.00001968    0.00098517
     atom   34 type  2   force =    -0.00088548   -0.00054142   -0.01872904
     atom   35 type  2   force =    -0.00025765   -0.00022956    0.00017824
     atom   36 type  2   force =     0.00011667   -0.00033165   -0.00004201
     atom   37 type  1   force =     0.00038447    0.00060801   -0.00046785
     atom   38 type  1   force =    -0.00131790   -0.00094744   -0.00049394
     atom   39 type  2   force =     0.00002774    0.00108743   -0.00055675
     atom   40 type  2   force =    -0.00014008   -0.00011043   -0.00029471
     atom   41 type  2   force =     0.00054878    0.00025864    0.00014778
     atom   42 type  2   force =    -0.00076094    0.00004187   -0.00033308
     atom   43 type  1   force =    -0.00039027   -0.00022188   -0.00061758
     atom   44 type  1   force =    -0.00014241    0.00057577   -0.00083506
     atom   45 type  2   force =     0.00006608   -0.00001178    0.10335251
     atom   46 type  2   force =    -0.07127275   -0.00006296   -0.02764432
     atom   47 type  2   force =     0.07124605    0.00042736   -0.02770864
     atom   48 type  3   force =     0.00887393   -0.00477706   -0.00339716
     atom   49 type  4   force =     0.00152767   -0.00018266    0.00062383
     atom   50 type  5   force =    -0.00054364   -0.00018936   -0.00010018
     atom   51 type  5   force =    -0.01066117    0.00509072    0.00278389

     Total force =     0.369257     Total SCF correction =     0.000668
  @ DRIVER MODE: Message from server: STATUS
  @ DRIVER MODE: Message from server: GETFORCE
  @ DRIVER MODE: Returning v,forces,stress,ensemble

     Writing output data file ./calc.save/
  @ DRIVER MODE: Message from server: EXIT
  @ DRIVE MODE: Exiting

     General routines

     Parallel routines

   This run was terminated on:  22:16:11  23Aug2021

   JOB DONE.