     Program PWSCF v.6.7GPU starts on 23Sep2021 at 15: 6:44

     R & G space division:  proc/nbgrp/npool/nimage =       8
     Reading input from /storage/home/hcoda1/3/ntian30/research/carbon/CxH_vib/H2O_calc/ads_slab/CH3NH2NHHO_c/out_0010/pw.inp
Warning: card &CELL ignored
Warning: card   CELL_DYNAMICS='IPI', ignored
Warning: card / ignored

     Current dimensions of program PWSCF are:
     Max number of different atomic species (ntypx) = 10
     Max number of k-points (npk) =  40000
     Max angular momentum in pseudopotentials (lmaxx) =  3
     Presently no symmetry can be used with electric field

     Message from routine cell_base_init:
     DEPRECATED: use true lattice parameter, not A to a.u. conversion factor

     IMPORTANT: XC functional enforced from input :
     Exchange-correlation= BEEF-VDW
                           (   1   4  43  14   2   0   0)
     Any further DFT definition will be discarded
     Please, verify this is what you really want

  @ DRIVER MODE: Connecting to
 qe_1139763_2947310.sched-torque.pace.gatech.eduvs96aunv_scratch
  using UNIX socket
  @ DRIVER MODE: Message from server: STATUS
  @ DRIVER MODE: Message from server: INIT
  @ DRIVER MODE: Receiving replica           0          -1
  @ DRIVER MODE: Receiving encoded integer          25
  @ DRIVER MODE:  SCF:  T  FORCE:  T  STRESS:  F  VC:  F  ENSEMBLE:  F
  @ DRIVER MODE:  SCF:  T  FORCE:  T  STRESS:  F  VC:  F  ENSEMBLE:  F

     Using Slab Decomposition

     bravais-lattice index     =            0
     lattice parameter (alat)  =       1.8897  a.u.
     unit-cell volume          =    6658.9804 (a.u.)^3
     number of atoms/cell      =           58
     number of atomic types    =            5
     number of electrons       =       405.00
     number of Kohn-Sham states=          212
     kinetic-energy cutoff     =      29.3995  Ry
     charge density cutoff     =     293.9946  Ry
     scf convergence threshold =      7.3E-08
     mixing beta               =       0.0500
     number of iterations used =            8  plain     mixing
     Exchange-correlation= BEEF-VDW
                           (   1   4  43  14   2   0   0)

     celldm(1)=   1.889726  celldm(2)=   0.000000  celldm(3)=   0.000000
     celldm(4)=   0.000000  celldm(5)=   0.000000  celldm(6)=   0.000000

     crystal axes: (cart. coord. in units of alat)
               a(1) = (   6.579727   0.000000   0.000000 )
               a(2) = (  -0.000775   5.961596   0.000000 )
               a(3) = (   0.000000   0.000000  25.155947 )

     reciprocal axes: (cart. coord. in units 2 pi/alat)
               b(1) = (  0.151982  0.000020  0.000000 )
               b(2) = (  0.000000  0.167740  0.000000 )
               b(3) = (  0.000000  0.000000  0.039752 )

     PseudoPot. # 1 for Ti read from file:
     /storage/coda1/p-amedford6/0/shared/rich_project_chbe-medford/medford-share/data/pseudos_module/espresso/nninc/pbe/van/Ti.UPF
     MD5 check sum: 8e4df49b7f0d34bbd5052bf3f5ea0213
     Pseudo is Ultrasoft, Zval = 12.0
     Generated by new atomic code, or converted to UPF format
     Using radial grid of  851 points,  6 beta functions with:
                l(1) =   0
                l(2) =   0
                l(3) =   1
                l(4) =   1
                l(5) =   2
                l(6) =   2
     Q(r) pseudized with  8 coefficients,  rinner =    1.000   1.000   1.000
                                                       1.000   1.000

     PseudoPot. # 2 for O  read from file:
     /storage/coda1/p-amedford6/0/shared/rich_project_chbe-medford/medford-share/data/pseudos_module/espresso/nninc/pbe/van/O.UPF
     MD5 check sum: 78c19812648e8988a0fe644b0f25305e
     Pseudo is Ultrasoft, Zval =  6.0
     Generated by new atomic code, or converted to UPF format
     Using radial grid of  737 points,  4 beta functions with:
                l(1) =   0
                l(2) =   0
                l(3) =   1
                l(4) =   1
     Q(r) pseudized with  8 coefficients,  rinner =    0.800   0.800   0.800

     PseudoPot. # 3 for N  read from file:
     /storage/coda1/p-amedford6/0/shared/rich_project_chbe-medford/medford-share/data/pseudos_module/espresso/nninc/pbe/van/N.UPF
     MD5 check sum: 90d10febe142ad51ac9d5be1deb811c4
     Pseudo is Ultrasoft, Zval =  5.0
     Generated by new atomic code, or converted to UPF format
     Using radial grid of  729 points,  4 beta functions with:
                l(1) =   0
                l(2) =   0
                l(3) =   1
                l(4) =   1
     Q(r) pseudized with  8 coefficients,  rinner =    0.800   0.800   0.800

     PseudoPot. # 4 for C  read from file:
     /storage/coda1/p-amedford6/0/shared/rich_project_chbe-medford/medford-share/data/pseudos_module/espresso/nninc/pbe/van/C.UPF
     MD5 check sum: 1a69bf6b8db32088f5b2163dbdb77a27
     Pseudo is Ultrasoft, Zval =  4.0
     Generated by new atomic code, or converted to UPF format
     Using radial grid of  721 points,  4 beta functions with:
                l(1) =   0
                l(2) =   0
                l(3) =   1
                l(4) =   1
     Q(r) pseudized with  8 coefficients,  rinner =    0.800   0.800   0.800

     PseudoPot. # 5 for H  read from file:
     /storage/coda1/p-amedford6/0/shared/rich_project_chbe-medford/medford-share/data/pseudos_module/espresso/nninc/pbe/van/H.UPF
     MD5 check sum: b5ee9d7bfd3a09ee7748110bda690ff7
     Pseudo is Ultrasoft, Zval =  1.0
     Generated by new atomic code, or converted to UPF format
     Using radial grid of  615 points,  1 beta functions with:
                l(1) =   0
     Q(r) pseudized with  8 coefficients,  rinner =    0.800

     atomic species   valence    mass     pseudopotential
        Ti1           12.00    47.86700     Ti( 1.00)
        O1             6.00    15.99900     O ( 1.00)
        N1             5.00    14.00700     N ( 1.00)
        C1             4.00    12.01100     C ( 1.00)
        H1             1.00     1.00800     H ( 1.00)

     No symmetry found

   Cartesian axes

     site n.     atom                  positions (alat units)
         1           Ti1 tau(   1) = (   0.0004258   2.9801865   6.0000000  )
         2           Ti1 tau(   2) = (   3.2906075   1.4906267   6.0002472  )
         3           O1  tau(   3) = (   0.0006271   0.0005054   7.9858123  )
         4           O1  tau(   4) = (   3.2906025   0.0005020   7.3038282  )
         5           O1  tau(   5) = (   4.5942328   1.4918067   9.2879030  )
         6           O1  tau(   6) = (   1.9868534   1.4903216   9.2879459  )
         7           Ti1 tau(   7) = (   3.2907910   2.8959150   9.1758416  )
         8           Ti1 tau(   8) = (   0.0015273   1.4827037   9.2680791  )
         9           O1  tau(   9) = (   3.2766908   5.9368450  11.3531397  )
        10           O1  tau(  10) = (   0.0116148   5.9584955  10.6183126  )
        11           O1  tau(  11) = (   1.2656210   1.4746568  12.6519442  )
        12           O1  tau(  12) = (   5.2821112   1.4671822  12.6528637  )
        13           Ti1 tau(  13) = (   0.0097886   3.0246942  12.5604876  )
        14           Ti1 tau(  14) = (   3.2716845   1.2919425  12.6923688  )
        15           O1  tau(  15) = (   6.5701288   5.9533353  14.7096902  )
        16           O1  tau(  16) = (   3.2612835   0.0684280  14.0222998  )
        17           O1  tau(  17) = (   4.5366247   1.5847279  16.0182572  )
        18           O1  tau(  18) = (   1.9973522   1.5932486  16.1410213  )
        19           Ti1 tau(  19) = (   3.3011230   3.0369928  15.6528835  )
        20           Ti1 tau(  20) = (   6.4616919   1.5442775  15.7581475  )
        21           O1  tau(  21) = (   3.2904802   0.0005063   4.7018136  )
        22           O1  tau(  22) = (   6.5264998   0.0144113  17.2942622  )
        23           O1  tau(  23) = (   1.3043587   1.4918075   6.0039043  )
        24           O1  tau(  24) = (   5.2767064   1.4903225   6.0039473  )
        25           Ti1 tau(  25) = (   0.0000382   5.9609847   6.0000000  )
        26           Ti1 tau(  26) = (   3.2902200   4.4714249   6.0002472  )
        27           O1  tau(  27) = (   0.0002396   2.9813036   7.9858123  )
        28           O1  tau(  28) = (   3.2902150   2.9813002   7.3038282  )
        29           O1  tau(  29) = (   4.5938453   4.4726049   9.2879030  )
        30           O1  tau(  30) = (   1.9864658   4.4711199   9.2879459  )
        31           Ti1 tau(  31) = (   3.2891106   5.8743827   9.1763621  )
        32           Ti1 tau(  32) = (   0.0006254   4.4649316   9.2693709  )
        33           O1  tau(  33) = (   3.2807216   2.9716845  11.3098041  )
        34           O1  tau(  34) = (   0.0092240   2.9805883  10.6323155  )
        35           O1  tau(  35) = (   1.2724369   4.4570745  12.6376724  )
        36           O1  tau(  36) = (   5.2808598   4.4590940  12.6336130  )
        37           Ti1 tau(  37) = (   6.5522345   0.0346224  12.5198063  )
        38           Ti1 tau(  38) = (   3.2841791   4.3624788  12.4156291  )
        39           O1  tau(  39) = (   6.5678423   2.9906399  14.7075790  )
        40           O1  tau(  40) = (   3.2630306   2.9991211  13.8878987  )
        41           O1  tau(  41) = (   4.5399391   4.4365880  16.1202346  )
        42           O1  tau(  42) = (   1.9952260   4.4486394  16.1468368  )
        43           Ti1 tau(  43) = (   3.1909378   0.0332154  16.1742435  )
        44           Ti1 tau(  44) = (   6.5525253   4.6749982  16.1158565  )
        45           O1  tau(  45) = (   3.2900926   2.9813045   4.7018136  )
        46           O1  tau(  46) = (   1.3039711   4.4726057   6.0039043  )
        47           O1  tau(  47) = (   5.2763189   4.4711207   6.0039473  )
        48           N1  tau(  48) = (   0.9351815   2.3805788  18.4294677  )
        49           N1  tau(  49) = (   6.5001775   2.8850743  17.5309975  )
        50           C1  tau(  50) = (   1.3386797   3.2909482  19.5301671  )
        51           H1  tau(  51) = (   0.4734699   3.4817333  20.1622224  )
        52           H1  tau(  52) = (   2.1262835   2.8019037  20.1042238  )
        53           H1  tau(  53) = (   1.7016266   4.2178517  19.0939426  )
        54           H1  tau(  54) = (   0.6429753   1.4474929  18.7566963  )
        55           H1  tau(  55) = (   5.6191021   2.8022447  18.0351622  )
        56           H1  tau(  56) = (   1.7303324   2.1440475  17.7969061  )
        57           O1  tau(  57) = (   3.3671931   0.1367260  18.0860582  )
        58           H1  tau(  58) = (   4.3009782   5.9598238  18.3144400  )

     number of k points=    10  Fermi-Dirac smearing, width (Ry)=  0.0073
                       cart. coord. in units 2pi/alat
        k(    1) = (   0.0000000   0.0000000   0.0000000), wk =   0.1250000
        k(    2) = (   0.0000000   0.0419351   0.0000000), wk =   0.2500000
        k(    3) = (   0.0000000  -0.0838702   0.0000000), wk =   0.1250000
        k(    4) = (   0.0379955   0.0000049   0.0000000), wk =   0.2500000
        k(    5) = (   0.0379955   0.0419400   0.0000000), wk =   0.2500000
        k(    6) = (   0.0379955  -0.0838652   0.0000000), wk =   0.2500000
        k(    7) = (   0.0379955  -0.0419301   0.0000000), wk =   0.2500000
        k(    8) = (  -0.0759910  -0.0000099   0.0000000), wk =   0.1250000
        k(    9) = (  -0.0759910   0.0419252   0.0000000), wk =   0.2500000
        k(   10) = (  -0.0759910  -0.0838800   0.0000000), wk =   0.1250000

     Initial potential from superposition of free atoms

     starting charge  388.99913, renormalised to  405.00000

     negative rho (up, down):  1.469E-02 0.000E+00

     %%%%%%%%%%%%%%%%%%%%%%%%%%%%%%%%%%%%%%%%%%%%%%%%%%%%%%%%%%%%%%%%%%%%%%%%
     %                                                                      %
     % You are using vdW-DF, which was implemented by the Thonhauser group. %
     % Please cite the following two papers that made this development      %
     % possible and the two reviews that describe the various versions:     %
     %                                                                      %
     %   T. Thonhauser et al., PRL 115, 136402 (2015).                      %
     %   T. Thonhauser et al., PRB 76, 125112 (2007).                       %
     %   K. Berland et al., Rep. Prog. Phys. 78, 066501 (2015).             %
     %   D.C. Langreth et al., J. Phys.: Condens. Matter 21, 084203 (2009). %
     %                                                                      %
     %                                                                      %
     % If you are calculating the stress with vdW-DF, please also cite:     %
     %                                                                      %
     %   R. Sabatini et al., J. Phys.: Condens. Matter 24, 424209 (2012).   %
     %                                                                      %
     %%%%%%%%%%%%%%%%%%%%%%%%%%%%%%%%%%%%%%%%%%%%%%%%%%%%%%%%%%%%%%%%%%%%%%%%

     Adding external electric field

     Computed dipole along edir(3) :
        Dipole              -13.9957 Ry au,        -35.5736 Debye
        Dipole field         -0.0264 Ry au,

        Potential amp.        2.4483 Ry
        Total length         46.3494 bohr

     Starting wfcs are  307 atomic wfcs
  @ DRIVER MODE: Message from server: STATUS
  @ DRIVER MODE: Message from server: POSDATA
  @ DRIVER MODE: Reading and sharing cell
  @ DRIVER MODE: Reading and sharing positions
  @ DRIVER MODE: Received positions

     Self-consistent Calculation

     iteration #  1     ecut=    29.40 Ry     beta= 0.05
     Davidson diagonalization with overlap
     c_bands:  5 eigenvalues not converged
     c_bands:  5 eigenvalues not converged
     c_bands:  1 eigenvalues not converged
     c_bands:  2 eigenvalues not converged
     c_bands:  3 eigenvalues not converged
     ethr =  1.00E-05,  avg # of iterations = 28.5

[...]

     total energy              =   -2225.14587652 Ry
     estimated scf accuracy    <    8520.64521148 Ry

     iteration #  2     ecut=    29.40 Ry     beta= 0.05
     Davidson diagonalization with overlap
     ethr =  1.00E-02,  avg # of iterations = 24.9

[...]

     iteration # 83     ecut=    29.40 Ry     beta= 0.05
     Davidson diagonalization with overlap
     c_bands:  1 eigenvalues not converged
     c_bands:  1 eigenvalues not converged
     c_bands:  1 eigenvalues not converged
     ethr =  1.63E-10,  avg # of iterations = 17.5

[...]

     total energy              =   -2976.49319467 Ry
     estimated scf accuracy    <       0.00000013 Ry

     iteration # 87     ecut=    29.40 Ry     beta= 0.05
     Davidson diagonalization with overlap
     ethr =  3.11E-11,  avg # of iterations = 10.1

     negative rho (up, down):  1.566E-02 0.000E+00

     Adding external electric field

     Computed dipole along edir(3) :
        Dipole                1.4986 Ry au,          3.8091 Debye
        Dipole field          0.0028 Ry au,

        Potential amp.       -0.2622 Ry
        Total length         46.3494 bohr

     End of self-consistent calculation

          k = 0.0000 0.0000 0.0000 ( 18029 PWs)   bands (ev):

   -55.2999 -55.1757 -55.1416 -55.0060 -54.9964 -54.9923 -54.9712 -54.9628
   -54.9325 -54.8838 -54.8520 -54.8158 -54.7939 -54.7545 -54.1389 -54.1049
   -31.6583 -31.6275 -31.5464 -31.4977 -31.4956 -31.4907 -31.4678 -31.4488
   -31.4212 -31.4166 -31.3722 -31.3371 -31.3280 -31.2804 -31.2676 -31.2603
   -31.2536 -31.2331 -31.2177 -31.2007 -31.1868 -31.1844 -31.1740 -31.1706
   -31.1517 -31.1287 -31.1262 -31.1226 -31.1130 -31.1051 -31.0990 -31.0785
   -31.0707 -31.0570 -31.0393 -31.0279 -31.0255 -31.0136 -31.0104 -31.0086
   -30.9837 -30.9437 -30.5446 -30.4593 -30.4368 -30.3621 -30.2758 -30.1641
   -18.8448 -16.0455 -15.8081 -15.6570 -15.4888 -15.3433 -15.2570 -15.0573
   -14.9415 -14.9023 -14.8837 -14.8098 -14.7075 -14.7068 -14.6628 -14.6358
   -14.6316 -14.6029 -14.5911 -14.5893 -14.5707 -14.5225 -14.5075 -14.4626
   -14.4565 -14.4172 -14.3049 -14.2355 -14.1909 -14.1186 -14.0005 -13.0769
   -12.6379 -12.5217 -10.7877  -7.5682  -6.2328  -5.5564  -3.7356  -3.6228
    -3.4428  -3.1679  -3.1012  -3.0734  -3.0465  -2.8934  -2.7681  -2.5882
    -2.4811  -2.4325  -2.3150  -2.2977  -2.2157  -2.1673  -2.1231  -2.0751
    -2.0453  -1.9793  -1.9622  -1.9577  -1.9294  -1.8631  -1.8354  -1.7200
    -1.6908  -1.6269  -1.5708  -1.5014  -1.4837  -1.4780  -1.4702  -1.4588
    -1.4298  -1.4148  -1.3832  -1.3416  -1.2645  -1.2108  -1.2015  -1.1605
    -1.0803  -0.8926  -0.7698  -0.7458  -0.6879  -0.6443  -0.5930  -0.5809
    -0.5574  -0.5187  -0.4118  -0.4002  -0.3364  -0.3075  -0.2439  -0.1938
    -0.1663  -0.1025  -0.0411   0.0459   0.0664   0.0849   0.1262   0.1728
     0.2448   0.2809   0.3200   0.3504   0.4387   0.4919   0.5520   0.5586
     0.5907   0.6641   0.7198   0.7673   0.7877   0.8070   0.8581   0.8742
     0.9175   0.9726   1.0138   1.0294   1.0987   1.1579   1.2056   1.2384
     1.3361   1.3521   1.5113   1.5665   1.8344   1.8870   1.9543   2.0804
     2.4534   2.4981   3.9327   4.0533   4.0646   4.0870   4.1659   4.2288
     4.3965   4.4031   4.5149   4.6159

[...]

          k = 0.0380-0.0419 0.0000 ( 17876 PWs)   bands (ev):

[...]

          k =-0.0760-0.0000 0.0000 ( 17886 PWs)   bands (ev):

[...]

          k =-0.0760-0.0839 0.0000 ( 17948 PWs)   bands (ev):

   -55.2992 -55.1591 -55.1581 -54.9928 -54.9899 -54.9872 -54.9804 -54.9785
   -54.9258 -54.8906 -54.8418 -54.8259 -54.7863 -54.7620 -54.1223 -54.1214
   -31.5607 -31.5377 -31.4920 -31.4740 -31.4733 -31.4537 -31.4527 -31.4155
   -31.3163 -31.3095 -31.3038 -31.3024 -31.2971 -31.2788 -31.2777 -31.2688
   -31.2684 -31.2474 -31.2460 -31.2168 -31.2037 -31.2000 -31.1989 -31.1928
   -31.1782 -31.1680 -31.1598 -31.1546 -31.1519 -31.1472 -31.1426 -31.1235
   -31.1119 -31.0903 -31.0754 -31.0694 -31.0354 -31.0325 -31.0222 -31.0180
   -31.0123 -30.9957 -30.4498 -30.4492 -30.3581 -30.3570 -30.3193 -30.3187
   -18.8406 -16.0110 -15.3758 -15.1716 -15.1091 -15.0855 -15.0711 -15.0344
   -15.0079 -14.9538 -14.9348 -14.8768 -14.8463 -14.8333 -14.7616 -14.7460
   -14.6906 -14.6612 -14.6486 -14.6090 -14.6043 -14.5820 -14.5497 -14.5411
   -14.4757 -14.4619 -14.4584 -14.3673 -14.3569 -14.2361 -14.1862 -13.0878
   -12.6239 -12.6233 -10.7897  -7.5790  -6.2187  -5.5462  -3.6761  -3.6411
    -3.3985  -2.5878  -2.4505  -2.4447  -2.3042  -2.2914  -2.1955  -2.1483
    -2.0958  -2.0773  -2.0548  -2.0358  -2.0050  -1.9721  -1.9556  -1.9485
    -1.9201  -1.8982  -1.8732  -1.8672  -1.8315  -1.8266  -1.8052  -1.7822
    -1.7719  -1.7373  -1.7235  -1.7195  -1.7051  -1.6534  -1.6330  -1.4708
    -1.4396  -1.3487  -1.3152  -1.2921  -1.2828  -1.2569  -1.2397  -1.2191
    -1.1638  -1.1121  -1.0502  -0.9231  -0.8775  -0.8136  -0.7778  -0.7023
    -0.6594  -0.6253  -0.5967  -0.5728  -0.5395  -0.4839  -0.4062  -0.3495
    -0.3057  -0.2644  -0.1665  -0.1461  -0.1246  -0.1134  -0.0797  -0.0223
    -0.0152   0.0415   0.0603   0.1236   0.1383   0.1545   0.1725   0.2550
     0.3501   0.4292   0.4543   0.5457   0.5647   0.6534   0.7002   0.8008
     0.9125   0.9577   0.9982   1.0079   1.0904   1.0973   1.1529   1.1757
     1.2588   1.3464   1.4113   1.4194   1.4390   1.4932   2.2498   2.2584
     2.3183   2.3186   4.1831   4.3462   4.4261   4.4376   4.4696   4.4809
     4.5131   4.5156   4.6018   4.6101

     the Fermi energy is     3.9520 ev

!    total energy              =   -2976.49320311 Ry
     estimated scf accuracy    <       0.00000007 Ry
     smearing contrib. (-TS)   =      -0.02056575 Ry
     internal energy E=F+TS    =   -2976.47263737 Ry

     The total energy is F=E-TS. E is the sum of the following terms:
     one-electron contribution =  -23616.96189751 Ry
     hartree contribution      =   11908.20153827 Ry
     xc contribution           =    -495.76337209 Ry
     ewald contribution        =    9228.04685577 Ry
     electric field correction =       0.00423820 Ry

     convergence has been achieved in  87 iterations

     Forces acting on atoms (cartesian axes, Ry/au):

     atom    1 type  1   force =     0.00014320   -0.00012771    0.09534002
     atom    2 type  1   force =    -0.00002299    0.00040286   -0.17475971
     atom    3 type  2   force =     0.00004061   -0.00018289   -0.02257583
     atom    4 type  2   force =     0.00001439   -0.00200517    0.05319836
     atom    5 type  2   force =    -0.00813742   -0.00302391    0.00227754
     atom    6 type  2   force =     0.00923454   -0.00231924    0.00057261
     atom    7 type  1   force =    -0.00078343   -0.00509885    0.00570263
     atom    8 type  1   force =     0.00083095    0.00657091    0.01469694
     atom    9 type  2   force =     0.00011420    0.00043219    0.00073301
     atom   10 type  2   force =    -0.00346401    0.00091735   -0.01235346
     atom   11 type  2   force =    -0.00000994   -0.00055057    0.00028282
     atom   12 type  2   force =     0.00007050   -0.00042195    0.00023204
     atom   13 type  1   force =     0.00094121    0.00087607    0.00005999
     atom   14 type  1   force =    -0.00018939    0.00011197   -0.00042070
     atom   15 type  2   force =     0.00012840   -0.00028152   -0.00085759
     atom   16 type  2   force =     0.00012272   -0.00012019    0.00091133
     atom   17 type  2   force =     0.00010531    0.00010037    0.00003160
     atom   18 type  2   force =    -0.00012367    0.00027939   -0.00005334
     atom   19 type  1   force =     0.00018431    0.00005106   -0.00001790
     atom   20 type  1   force =     0.00010795    0.00018776   -0.00026765
     atom   21 type  2   force =     0.00009459   -0.00000095    0.10303349
     atom   22 type  2   force =     0.00004289    0.00136898    0.00048185
     atom   23 type  2   force =    -0.07209926   -0.00022431   -0.02757797
     atom   24 type  2   force =     0.07205555    0.00026113   -0.02759765
     atom   25 type  1   force =     0.00015449   -0.00029110    0.09517315
     atom   26 type  1   force =     0.00001373   -0.00124095   -0.17524190
     atom   27 type  2   force =    -0.00000454    0.00008468   -0.02153719
     atom   28 type  2   force =     0.00005415   -0.00043629    0.04877565
     atom   29 type  2   force =    -0.00785767    0.00198189    0.00252070
     atom   30 type  2   force =     0.00888414    0.00234232    0.00069792
     atom   31 type  1   force =    -0.00069467    0.00833705   -0.00446902
     atom   32 type  1   force =     0.00106013   -0.00750955    0.01447675
     atom   33 type  2   force =     0.00012505    0.00023032   -0.00000775
     atom   34 type  2   force =    -0.00269692   -0.00027316   -0.01821329
     atom   35 type  2   force =    -0.00055826    0.00026530    0.00008742
     atom   36 type  2   force =     0.00072218    0.00039188    0.00024258
     atom   37 type  1   force =     0.00017963   -0.00036413    0.00026286
     atom   38 type  1   force =    -0.00006116   -0.00006356   -0.00073058
     atom   39 type  2   force =     0.00029570    0.00021552   -0.00007309
     atom   40 type  2   force =     0.00023116    0.00000540    0.00067207
     atom   41 type  2   force =    -0.00025223   -0.00031279   -0.00008256
     atom   42 type  2   force =     0.00053345   -0.00012181    0.00039060
     atom   43 type  1   force =    -0.00004103    0.00013056   -0.00032849
     atom   44 type  1   force =     0.00039287    0.00002713    0.00005841
     atom   45 type  2   force =     0.00008842   -0.00009633    0.10284727
     atom   46 type  2   force =    -0.07214537   -0.00003563   -0.02760810
     atom   47 type  2   force =     0.07209175    0.00036373   -0.02761175
     atom   48 type  3   force =    -0.00016162    0.00341726   -0.00100755
     atom   49 type  3   force =    -0.00011014   -0.00540419    0.00251741
     atom   50 type  4   force =     0.00049667    0.00018271    0.00057894
     atom   51 type  5   force =     0.00025400    0.00042401   -0.00027317
     atom   52 type  5   force =    -0.00019150   -0.00015843   -0.00037297
     atom   53 type  5   force =     0.00042381    0.00007390   -0.00025505
     atom   54 type  5   force =    -0.00121373   -0.00000176   -0.00079780
     atom   55 type  5   force =     0.00040969    0.00042242   -0.00106859
     atom   56 type  5   force =    -0.00034777    0.00019761   -0.00058254
     atom   57 type  2   force =     0.00016721   -0.00050369   -0.00025478
     atom   58 type  5   force =     0.00035716    0.00051687    0.00014206

     Total force =     0.363586     Total SCF correction =     0.000606
  @ DRIVER MODE: Message from server: STATUS
  @ DRIVER MODE: Message from server: GETFORCE
  @ DRIVER MODE: Returning v,forces,stress,ensemble

     Writing output data file ./calc.save/
  @ DRIVER MODE: Message from server: EXIT
  @ DRIVE MODE: Exiting

     General routines

     Parallel routines

   This run was terminated on:  15:37:51  23Sep2021

   JOB DONE.