     Program PWSCF v.6.7GPU starts on 23Aug2021 at 16:25:33

     R & G space division:  proc/nbgrp/npool/nimage =       6
     Reading input from /storage/home/hcoda1/3/ntian30/research/carbon/CH_vib/ads_slab/CHNNH3_a/out_0007/pw.inp
Warning: card &CELL ignored
Warning: card   CELL_DYNAMICS='IPI', ignored
Warning: card / ignored

     Current dimensions of program PWSCF are:
     Max number of different atomic species (ntypx) = 10
     Max number of k-points (npk) =  40000
     Max angular momentum in pseudopotentials (lmaxx) =  3
     Presently no symmetry can be used with electric field

     Message from routine cell_base_init:
     DEPRECATED: use true lattice parameter, not A to a.u. conversion factor

     IMPORTANT: XC functional enforced from input :
     Exchange-correlation= BEEF-VDW
                           (   1   4  43  14   2   0   0)
     Any further DFT definition will be discarded
     Please, verify this is what you really want

  @ DRIVER MODE: Connecting to
 qe_1139763_2632800.sched-torque.pace.gatech.eduwjqo6b1a_scratch
  using UNIX socket
  @ DRIVER MODE: Message from server: STATUS
  @ DRIVER MODE: Message from server: INIT
  @ DRIVER MODE: Receiving replica           0          -1
  @ DRIVER MODE: Receiving encoded integer          25
  @ DRIVER MODE:  SCF:  T  FORCE:  T  STRESS:  F  VC:  F  ENSEMBLE:  F
  @ DRIVER MODE:  SCF:  T  FORCE:  T  STRESS:  F  VC:  F  ENSEMBLE:  F

     Using Slab Decomposition

     bravais-lattice index     =            0
     lattice parameter (alat)  =       1.8897  a.u.
     unit-cell volume          =    6658.9804 (a.u.)^3
     number of atoms/cell      =           54
     number of atomic types    =            5
     number of electrons       =       396.00
     number of Kohn-Sham states=          208
     kinetic-energy cutoff     =      29.3995  Ry
     charge density cutoff     =     293.9946  Ry
     scf convergence threshold =      7.3E-08
     mixing beta               =       0.0500
     number of iterations used =            8  plain     mixing
     Exchange-correlation= BEEF-VDW
                           (   1   4  43  14   2   0   0)

     celldm(1)=   1.889726  celldm(2)=   0.000000  celldm(3)=   0.000000
     celldm(4)=   0.000000  celldm(5)=   0.000000  celldm(6)=   0.000000

     crystal axes: (cart. coord. in units of alat)
               a(1) = (   6.579727   0.000000   0.000000 )
               a(2) = (  -0.000775   5.961596   0.000000 )
               a(3) = (   0.000000   0.000000  25.155947 )

     reciprocal axes: (cart. coord. in units 2 pi/alat)
               b(1) = (  0.151982  0.000020  0.000000 )
               b(2) = (  0.000000  0.167740  0.000000 )
               b(3) = (  0.000000  0.000000  0.039752 )

     PseudoPot. # 1 for Ti read from file:
     /storage/coda1/p-amedford6/0/shared/rich_project_chbe-medford/medford-share/data/pseudos_module/espresso/nninc/pbe/van/Ti.UPF
     MD5 check sum: 8e4df49b7f0d34bbd5052bf3f5ea0213
     Pseudo is Ultrasoft, Zval = 12.0
     Generated by new atomic code, or converted to UPF format
     Using radial grid of  851 points,  6 beta functions with:
                l(1) =   0
                l(2) =   0
                l(3) =   1
                l(4) =   1
                l(5) =   2
                l(6) =   2
     Q(r) pseudized with  8 coefficients,  rinner =    1.000   1.000   1.000
                                                       1.000   1.000

     PseudoPot. # 2 for O  read from file:
     /storage/coda1/p-amedford6/0/shared/rich_project_chbe-medford/medford-share/data/pseudos_module/espresso/nninc/pbe/van/O.UPF
     MD5 check sum: 78c19812648e8988a0fe644b0f25305e
     Pseudo is Ultrasoft, Zval =  6.0
     Generated by new atomic code, or converted to UPF format
     Using radial grid of  737 points,  4 beta functions with:
                l(1) =   0
                l(2) =   0
                l(3) =   1
                l(4) =   1
     Q(r) pseudized with  8 coefficients,  rinner =    0.800   0.800   0.800

     PseudoPot. # 3 for N  read from file:
     /storage/coda1/p-amedford6/0/shared/rich_project_chbe-medford/medford-share/data/pseudos_module/espresso/nninc/pbe/van/N.UPF
     MD5 check sum: 90d10febe142ad51ac9d5be1deb811c4
     Pseudo is Ultrasoft, Zval =  5.0
     Generated by new atomic code, or converted to UPF format
     Using radial grid of  729 points,  4 beta functions with:
                l(1) =   0
                l(2) =   0
                l(3) =   1
                l(4) =   1
     Q(r) pseudized with  8 coefficients,  rinner =    0.800   0.800   0.800

     PseudoPot. # 4 for C  read from file:
     /storage/coda1/p-amedford6/0/shared/rich_project_chbe-medford/medford-share/data/pseudos_module/espresso/nninc/pbe/van/C.UPF
     MD5 check sum: 1a69bf6b8db32088f5b2163dbdb77a27
     Pseudo is Ultrasoft, Zval =  4.0
     Generated by new atomic code, or converted to UPF format
     Using radial grid of  721 points,  4 beta functions with:
                l(1) =   0
                l(2) =   0
                l(3) =   1
                l(4) =   1
     Q(r) pseudized with  8 coefficients,  rinner =    0.800   0.800   0.800

     PseudoPot. # 5 for H  read from file:
     /storage/coda1/p-amedford6/0/shared/rich_project_chbe-medford/medford-share/data/pseudos_module/espresso/nninc/pbe/van/H.UPF
     MD5 check sum: b5ee9d7bfd3a09ee7748110bda690ff7
     Pseudo is Ultrasoft, Zval =  1.0
     Generated by new atomic code, or converted to UPF format
     Using radial grid of  615 points,  1 beta functions with:
                l(1) =   0
     Q(r) pseudized with  8 coefficients,  rinner =    0.800

     atomic species   valence    mass     pseudopotential
        Ti1           12.00    47.86700     Ti( 1.00)
        O1             6.00    15.99900     O ( 1.00)
        N1             5.00    14.00700     N ( 1.00)
        C1             4.00    12.01100     C ( 1.00)
        H1             1.00     1.00800     H ( 1.00)

     No symmetry found

   Cartesian axes

     site n.     atom                  positions (alat units)
         1           Ti1 tau(   1) = (   0.0004258   2.9801865   6.0000000  )
         2           Ti1 tau(   2) = (   3.2906075   1.4906267   6.0002472  )
         3           O1  tau(   3) = (   0.0006271   0.0005054   7.9858123  )
         4           O1  tau(   4) = (   3.2906025   0.0005020   7.3038282  )
         5           O1  tau(   5) = (   4.5942328   1.4918067   9.2879030  )
         6           O1  tau(   6) = (   1.9868534   1.4903216   9.2879459  )
         7           Ti1 tau(   7) = (   3.2907910   2.8959150   9.1758416  )
         8           Ti1 tau(   8) = (   0.0015273   1.4827037   9.2680791  )
         9           O1  tau(   9) = (   3.2881108   5.9505233  11.3735460  )
        10           O1  tau(  10) = (   0.0116148   5.9584955  10.6183126  )
        11           O1  tau(  11) = (   1.2866665   1.4805866  12.6825740  )
        12           O1  tau(  12) = (   5.2924821   1.4818622  12.6792165  )
        13           Ti1 tau(  13) = (   0.0021322   2.9639872  12.5157261  )
        14           Ti1 tau(  14) = (   3.2862601   1.4710115  12.5283183  )
        15           O1  tau(  15) = (   6.5551702   5.8950557  14.7042857  )
        16           O1  tau(  16) = (   3.2890300   5.9388001  13.9877656  )
        17           O1  tau(  17) = (   4.5349758   1.4880922  16.1718967  )
        18           O1  tau(  18) = (   2.0258431   1.4790072  16.1496753  )
        19           Ti1 tau(  19) = (   3.2732025   2.9690136  15.7622034  )
        20           Ti1 tau(  20) = (   6.5610264   1.3286824  15.8731419  )
        21           O1  tau(  21) = (   3.2904802   0.0005063   4.7018136  )
        22           O1  tau(  22) = (   6.5785393   0.0648448  17.2431192  )
        23           O1  tau(  23) = (   1.3043587   1.4918075   6.0039043  )
        24           O1  tau(  24) = (   5.2767064   1.4903225   6.0039473  )
        25           Ti1 tau(  25) = (   0.0000382   5.9609847   6.0000000  )
        26           Ti1 tau(  26) = (   3.2902200   4.4714249   6.0002472  )
        27           O1  tau(  27) = (   0.0002396   2.9813036   7.9858123  )
        28           O1  tau(  28) = (   3.2902150   2.9813002   7.3038282  )
        29           O1  tau(  29) = (   4.5938453   4.4726049   9.2879030  )
        30           O1  tau(  30) = (   1.9864658   4.4711199   9.2879459  )
        31           Ti1 tau(  31) = (   3.2891106   5.8743827   9.1763621  )
        32           Ti1 tau(  32) = (   0.0006254   4.4649316   9.2693709  )
        33           O1  tau(  33) = (   3.2883663   2.9615298  11.3703760  )
        34           O1  tau(  34) = (   0.0092240   2.9805883  10.6323155  )
        35           O1  tau(  35) = (   1.2870507   4.4533538  12.6624524  )
        36           O1  tau(  36) = (   5.2892318   4.4513974  12.6520950  )
        37           Ti1 tau(  37) = (   6.5724215   5.9362995  12.5032772  )
        38           Ti1 tau(  38) = (   3.2850067   4.4496593  12.5237361  )
        39           O1  tau(  39) = (   6.5755915   2.9911963  14.9688396  )
        40           O1  tau(  40) = (   3.2879019   2.9755095  13.9706832  )
        41           O1  tau(  41) = (   4.5370027   4.4458050  16.2043726  )
        42           O1  tau(  42) = (   2.0318725   4.4540161  16.1993262  )
        43           Ti1 tau(  43) = (   3.2771836   5.9440081  15.7837661  )
        44           Ti1 tau(  44) = (   6.5399960   4.5546841  16.0715688  )
        45           O1  tau(  45) = (   3.2900926   2.9813045   4.7018136  )
        46           O1  tau(  46) = (   1.3039711   4.4726057   6.0039043  )
        47           O1  tau(  47) = (   5.2763189   4.4711207   6.0039473  )
        48           N1  tau(  48) = (   0.1065663   3.2111123  17.9981644  )
        49           C1  tau(  49) = (   0.5034299   2.5375629  18.8400175  )
        50           H1  tau(  50) = (   1.0173682   1.8396193  19.5020221  )
        51           N1  tau(  51) = (   2.4304062   0.3108210  19.4519584  )
        52           H1  tau(  52) = (   3.2527645   0.6626300  18.9680575  )
        53           H1  tau(  53) = (   1.8610457   5.7841108  18.7610151  )
        54           H1  tau(  54) = (   2.7602249   5.5844085  20.1185638  )

     number of k points=    10  Fermi-Dirac smearing, width (Ry)=  0.0073
                       cart. coord. in units 2pi/alat
        k(    1) = (   0.0000000   0.0000000   0.0000000), wk =   0.1250000
        k(    2) = (   0.0000000   0.0419351   0.0000000), wk =   0.2500000
        k(    3) = (   0.0000000  -0.0838702   0.0000000), wk =   0.1250000
        k(    4) = (   0.0379955   0.0000049   0.0000000), wk =   0.2500000
        k(    5) = (   0.0379955   0.0419400   0.0000000), wk =   0.2500000
        k(    6) = (   0.0379955  -0.0838652   0.0000000), wk =   0.2500000
        k(    7) = (   0.0379955  -0.0419301   0.0000000), wk =   0.2500000
        k(    8) = (  -0.0759910  -0.0000099   0.0000000), wk =   0.1250000
        k(    9) = (  -0.0759910   0.0419252   0.0000000), wk =   0.2500000
        k(   10) = (  -0.0759910  -0.0838800   0.0000000), wk =   0.1250000

     Initial potential from superposition of free atoms

     starting charge  379.99915, renormalised to  396.00000

     negative rho (up, down):  1.529E-02 0.000E+00

     %%%%%%%%%%%%%%%%%%%%%%%%%%%%%%%%%%%%%%%%%%%%%%%%%%%%%%%%%%%%%%%%%%%%%%%%
     %                                                                      %
     % You are using vdW-DF, which was implemented by the Thonhauser group. %
     % Please cite the following two papers that made this development      %
     % possible and the two reviews that describe the various versions:     %
     %                                                                      %
     %   T. Thonhauser et al., PRL 115, 136402 (2015).                      %
     %   T. Thonhauser et al., PRB 76, 125112 (2007).                       %
     %   K. Berland et al., Rep. Prog. Phys. 78, 066501 (2015).             %
     %   D.C. Langreth et al., J. Phys.: Condens. Matter 21, 084203 (2009). %
     %                                                                      %
     %                                                                      %
     % If you are calculating the stress with vdW-DF, please also cite:     %
     %                                                                      %
     %   R. Sabatini et al., J. Phys.: Condens. Matter 24, 424209 (2012).   %
     %                                                                      %
     %%%%%%%%%%%%%%%%%%%%%%%%%%%%%%%%%%%%%%%%%%%%%%%%%%%%%%%%%%%%%%%%%%%%%%%%

     Adding external electric field

     Computed dipole along edir(3) :
        Dipole              -10.2017 Ry au,        -25.9301 Debye
        Dipole field         -0.0193 Ry au,

        Potential amp.        1.7846 Ry
        Total length         46.3494 bohr

     Starting wfcs are  300 atomic wfcs
  @ DRIVER MODE: Message from server: STATUS
  @ DRIVER MODE: Message from server: POSDATA
  @ DRIVER MODE: Reading and sharing cell
  @ DRIVER MODE: Reading and sharing positions
  @ DRIVER MODE: Received positions

     Self-consistent Calculation

     iteration #  1     ecut=    29.40 Ry     beta= 0.05
     Davidson diagonalization with overlap
     c_bands:  1 eigenvalues not converged
     c_bands:  2 eigenvalues not converged
     c_bands:  2 eigenvalues not converged
     c_bands:  1 eigenvalues not converged
     c_bands:  2 eigenvalues not converged
     c_bands:  2 eigenvalues not converged
     c_bands:  2 eigenvalues not converged
     c_bands:  3 eigenvalues not converged
     c_bands:  2 eigenvalues not converged
     c_bands:  1 eigenvalues not converged
     ethr =  1.00E-05,  avg # of iterations = 20.0

[...]

     total energy              =   -2543.07946957 Ry
     estimated scf accuracy    <    4459.90190881 Ry

     iteration #  2     ecut=    29.40 Ry     beta= 0.05
     Davidson diagonalization with overlap
     ethr =  1.00E-02,  avg # of iterations = 27.1

[...]

     iteration # 70     ecut=    29.40 Ry     beta= 0.05
     Davidson diagonalization with overlap
     c_bands:  1 eigenvalues not converged
     ethr =  3.69E-11,  avg # of iterations = 15.0

[...]

     total energy              =   -2940.42007462 Ry
     estimated scf accuracy    <       0.00000008 Ry

     iteration # 71     ecut=    29.40 Ry     beta= 0.05
     Davidson diagonalization with overlap
     ethr =  2.13E-11,  avg # of iterations =  5.5

     negative rho (up, down):  1.581E-02 0.000E+00

     Adding external electric field

     Computed dipole along edir(3) :
        Dipole                1.3095 Ry au,          3.3284 Debye
        Dipole field          0.0025 Ry au,

        Potential amp.       -0.2291 Ry
        Total length         46.3494 bohr

     End of self-consistent calculation

          k = 0.0000 0.0000 0.0000 ( 18029 PWs)   bands (ev):

   -55.3697 -55.3336 -55.3215 -55.2874 -55.2461 -55.2404 -55.2168 -55.2114
   -55.1873 -55.1706 -55.1529 -55.1509 -55.1172 -55.0873 -54.3494 -54.3153
   -31.9372 -31.8138 -31.8049 -31.7341 -31.6799 -31.6768 -31.6693 -31.6561
   -31.6106 -31.6006 -31.5781 -31.5705 -31.5662 -31.5394 -31.5246 -31.5192
   -31.5059 -31.4953 -31.4843 -31.4830 -31.4740 -31.4598 -31.4352 -31.4252
   -31.4241 -31.4178 -31.3907 -31.3897 -31.3787 -31.3768 -31.3689 -31.3499
   -31.3483 -31.3430 -31.3370 -31.3349 -31.3011 -31.2883 -31.2851 -31.2789
   -31.2619 -31.2114 -30.7586 -30.6646 -30.6426 -30.5751 -30.4883 -30.3773
   -17.0298 -16.1914 -15.9238 -15.7767 -15.6647 -15.5647 -15.4418 -15.4225
   -15.2915 -15.2035 -15.0836 -15.0402 -15.0172 -15.0034 -14.9887 -14.9823
   -14.9103 -14.9052 -14.8809 -14.8789 -14.8618 -14.8474 -14.8058 -14.8039
   -14.7636 -14.7430 -14.6943 -14.6057 -14.5244 -14.4554 -14.1636 -12.8518
   -12.7344  -8.1376  -4.9976  -4.9030  -4.3218  -3.5318  -3.3823  -3.2855
    -3.2691  -3.2610  -3.1193  -3.0812  -2.9615  -2.8906  -2.7610  -2.6980
    -2.6237  -2.5704  -2.5566  -2.5384  -2.3626  -2.3300  -2.2877  -2.2407
    -2.2092  -2.1745  -2.1533  -2.1263  -2.1138  -2.1068  -2.0754  -1.9302
    -1.8911  -1.8396  -1.7890  -1.7654  -1.7093  -1.6914  -1.6545  -1.6482
    -1.6431  -1.5973  -1.5790  -1.5490  -1.4579  -1.3899  -1.2754  -1.2171
    -1.0766  -1.0048  -0.9503  -0.9366  -0.8555  -0.8521  -0.8254  -0.7469
    -0.7404  -0.7070  -0.5861  -0.4883  -0.4508  -0.4000  -0.3510  -0.3229
    -0.2811  -0.1968  -0.1449  -0.1319  -0.1222  -0.0346   0.0264   0.0383
     0.1124   0.1584   0.1752   0.1804   0.2939   0.3081   0.3746   0.4230
     0.4527   0.5218   0.5700   0.5745   0.5843   0.6192   0.6212   0.7123
     0.7331   0.7422   0.8167   0.9619   1.1808   1.2380   1.2463   1.5800
     1.5822   1.6735   1.8573   2.2496   2.2977   3.7290   3.8010   3.8744
     3.8811   3.9058   3.9668   4.2056   4.2093   4.2329   4.2346   4.2631

[...]

          k = 0.0380-0.0419 0.0000 ( 17876 PWs)   bands (ev):

[...]

          k =-0.0760-0.0000 0.0000 ( 17886 PWs)   bands (ev):

[...]

          k =-0.0760-0.0839 0.0000 ( 17948 PWs)   bands (ev):

   -55.3531 -55.3500 -55.3048 -55.3040 -55.2356 -55.2314 -55.2261 -55.2144
   -55.1750 -55.1709 -55.1688 -55.1344 -55.1338 -55.0898 -54.3324 -54.3322
   -31.7421 -31.7396 -31.7252 -31.6453 -31.6292 -31.6286 -31.6236 -31.5962
   -31.5956 -31.5763 -31.5698 -31.5652 -31.5568 -31.5090 -31.5040 -31.5023
   -31.5008 -31.5004 -31.4944 -31.4897 -31.4687 -31.4643 -31.4438 -31.4421
   -31.4413 -31.4362 -31.4248 -31.4244 -31.4238 -31.4184 -31.4038 -31.4018
   -31.3993 -31.3842 -31.3817 -31.3658 -31.3635 -31.3632 -31.3150 -31.3147
   -31.3029 -31.2937 -30.6553 -30.6551 -30.5712 -30.5710 -30.5317 -30.5316
   -17.0224 -15.6976 -15.5951 -15.5764 -15.3845 -15.3681 -15.3367 -15.3326
   -15.1810 -15.1520 -15.1445 -15.1265 -15.0783 -15.0701 -15.0647 -15.0538
   -14.9736 -14.9627 -14.9605 -14.9434 -14.8823 -14.8774 -14.8724 -14.8693
   -14.8596 -14.8171 -14.8135 -14.7198 -14.7169 -14.6326 -14.5268 -12.8359
   -12.8357  -8.1394  -4.9940  -4.9047  -4.3223  -3.0142  -2.9054  -2.8557
    -2.8405  -2.8017  -2.5964  -2.5642  -2.5357  -2.4791  -2.4116  -2.3698
    -2.3599  -2.3394  -2.2798  -2.2317  -2.2271  -2.2088  -2.1889  -2.1867
    -2.1633  -2.1361  -2.0957  -2.0856  -2.0671  -2.0486  -2.0197  -2.0004
    -1.9718  -1.9533  -1.9314  -1.9250  -1.8172  -1.8021  -1.7253  -1.6918
    -1.6356  -1.5716  -1.5665  -1.4694  -1.4621  -1.4052  -1.3958  -1.3794
    -1.2604  -1.1751  -1.1205  -1.1092  -1.1017  -0.9914  -0.9401  -0.9103
    -0.8755  -0.8521  -0.7744  -0.7112  -0.6906  -0.6504  -0.5748  -0.5646
    -0.5053  -0.3918  -0.3623  -0.3423  -0.3241  -0.3186  -0.2648  -0.2530
    -0.1803  -0.1340  -0.1001  -0.0898  -0.0575  -0.0263   0.1564   0.1688
     0.2090   0.3241   0.3828   0.4974   0.5720   0.5865   0.6663   0.7010
     0.7450   0.8053   0.8955   0.9381   0.9427   1.0214   1.0469   1.0895
     1.0976   2.0305   2.0308   2.1176   2.1178   3.8670   3.9807   3.9900
     4.0367   4.1378   4.1625   4.2484   4.2675   4.3144   4.3161   4.3835

     the Fermi energy is     3.7916 ev

!    total energy              =   -2940.42009156 Ry
     estimated scf accuracy    <       0.00000006 Ry
     smearing contrib. (-TS)   =      -0.03733745 Ry
     internal energy E=F+TS    =   -2940.38275411 Ry

     The total energy is F=E-TS. E is the sum of the following terms:
     one-electron contribution =  -23617.39001489 Ry
     hartree contribution      =   11900.54534532 Ry
     xc contribution           =    -485.97794163 Ry
     ewald contribution        =    9262.43662110 Ry
     electric field correction =       0.00323599 Ry

     convergence has been achieved in  71 iterations

     Forces acting on atoms (cartesian axes, Ry/au):

     atom    1 type  1   force =     0.00013756   -0.00014352    0.09351549
     atom    2 type  1   force =    -0.00005549   -0.00032510   -0.17809872
     atom    3 type  2   force =     0.00009653   -0.00033314   -0.02051617
     atom    4 type  2   force =     0.00002659   -0.00189909    0.05840826
     atom    5 type  2   force =    -0.01037173   -0.00109063    0.00772704
     atom    6 type  2   force =     0.01182640   -0.00047881    0.00667951
     atom    7 type  1   force =    -0.00029206    0.00214051   -0.01417335
     atom    8 type  1   force =     0.00033186    0.00050872   -0.00324893
     atom    9 type  2   force =    -0.00006712    0.00008875   -0.00000232
     atom   10 type  2   force =    -0.00246776    0.00082194    0.00005752
     atom   11 type  2   force =    -0.00018177   -0.00028885    0.00030243
     atom   12 type  2   force =    -0.00011335   -0.00014057   -0.00055981
     atom   13 type  1   force =    -0.00001776   -0.00007595   -0.00004091
     atom   14 type  1   force =     0.00009515    0.00018612    0.00006161
     atom   15 type  2   force =     0.00030496    0.00010132   -0.00019000
     atom   16 type  2   force =     0.00028016   -0.00000823   -0.00002425
     atom   17 type  2   force =     0.00021865   -0.00017091   -0.00048044
     atom   18 type  2   force =     0.00015097    0.00034785   -0.00002359
     atom   19 type  1   force =    -0.00002403    0.00003803   -0.00014763
     atom   20 type  1   force =    -0.00064707    0.00030250   -0.00038748
     atom   21 type  2   force =     0.00010229   -0.00000039    0.10390786
     atom   22 type  2   force =     0.00046299    0.00046971    0.00010782
     atom   23 type  2   force =    -0.07041992   -0.00012530   -0.02693615
     atom   24 type  2   force =     0.07039969    0.00033958   -0.02698382
     atom   25 type  1   force =     0.00020272   -0.00015891    0.09280710
     atom   26 type  1   force =    -0.00009582   -0.00029783   -0.17831254
     atom   27 type  2   force =     0.00012910   -0.00023845   -0.01950673
     atom   28 type  2   force =     0.00007345   -0.00167698    0.05799319
     atom   29 type  2   force =    -0.01078563   -0.00121910    0.00799958
     atom   30 type  2   force =     0.01212882   -0.00083348    0.00703839
     atom   31 type  1   force =    -0.00034695    0.00574279   -0.01492660
     atom   32 type  1   force =     0.00039038   -0.00108030   -0.00337448
     atom   33 type  2   force =    -0.00030782    0.00005592   -0.00018893
     atom   34 type  2   force =    -0.00155414   -0.00230030    0.00039052
     atom   35 type  2   force =    -0.00008216    0.00013938   -0.00003399
     atom   36 type  2   force =     0.00010434    0.00010701    0.00012363
     atom   37 type  1   force =     0.00024742   -0.00001750   -0.00008142
     atom   38 type  1   force =     0.00004778    0.00013683   -0.00016526
     atom   39 type  2   force =     0.00009791    0.00019422    0.00014256
     atom   40 type  2   force =     0.00014353    0.00001778   -0.00000894
     atom   41 type  2   force =     0.00002378    0.00018905    0.00004600
     atom   42 type  2   force =     0.00034819    0.00000397    0.00024441
     atom   43 type  1   force =    -0.00026356    0.00025231    0.00021976
     atom   44 type  1   force =    -0.00020385   -0.00034669   -0.00016487
     atom   45 type  2   force =     0.00009656   -0.00002261    0.10384465
     atom   46 type  2   force =    -0.07041630   -0.00003483   -0.02691708
     atom   47 type  2   force =     0.07037612    0.00037805   -0.02694663
     atom   48 type  3   force =    -0.00772555    0.01028441   -0.01222644
     atom   49 type  4   force =     0.01101837   -0.01276515    0.01546922
     atom   50 type  5   force =    -0.00323631    0.00278004   -0.00317500
     atom   51 type  3   force =    -0.00136903    0.00075396   -0.00050749
     atom   52 type  5   force =     0.00016766   -0.00033708   -0.00024466
     atom   53 type  5   force =     0.00089168    0.00126854    0.00015264
     atom   54 type  5   force =     0.00012355   -0.00123960    0.00135546

     Total force =     0.367258     Total SCF correction =     0.000730
  @ DRIVER MODE: Message from server: STATUS
  @ DRIVER MODE: Message from server: GETFORCE
  @ DRIVER MODE: Returning v,forces,stress,ensemble

     Writing output data file ./calc.save/
  @ DRIVER MODE: Message from server: EXIT
  @ DRIVE MODE: Exiting

     General routines

     Parallel routines

   This run was terminated on:  16:56:23  23Aug2021

   JOB DONE.