     Program PWSCF v.6.7GPU starts on  9Sep2021 at  2:26:35

     R & G space division:  proc/nbgrp/npool/nimage =      10
     Reading input from /storage/home/hcoda1/3/ntian30/research/carbon/CxH_vib/CH3_calc/ads_slab/CH3N_a/out_0018/pw.inp
Warning: card &CELL ignored
Warning: card   CELL_DYNAMICS='IPI', ignored
Warning: card / ignored

     Current dimensions of program PWSCF are:
     Max number of different atomic species (ntypx) = 10
     Max number of k-points (npk) =  40000
     Max angular momentum in pseudopotentials (lmaxx) =  3
     Presently no symmetry can be used with electric field

     Message from routine cell_base_init:
     DEPRECATED: use true lattice parameter, not A to a.u. conversion factor

     IMPORTANT: XC functional enforced from input :
     Exchange-correlation= BEEF-VDW
                           (   1   4  43  14   2   0   0)
     Any further DFT definition will be discarded
     Please, verify this is what you really want

  @ DRIVER MODE: Connecting to
 qe_1139763_2767403.sched-torque.pace.gatech.edudv3tzsnw_scratch
  using UNIX socket
  @ DRIVER MODE: Message from server: STATUS
  @ DRIVER MODE: Message from server: INIT
  @ DRIVER MODE: Receiving replica           0          -1
  @ DRIVER MODE: Receiving encoded integer          25
  @ DRIVER MODE:  SCF:  T  FORCE:  T  STRESS:  F  VC:  F  ENSEMBLE:  F
  @ DRIVER MODE:  SCF:  T  FORCE:  T  STRESS:  F  VC:  F  ENSEMBLE:  F

     Using Slab Decomposition

     bravais-lattice index     =            0
     lattice parameter (alat)  =       1.8897  a.u.
     unit-cell volume          =    6658.9804 (a.u.)^3
     number of atoms/cell      =           52
     number of atomic types    =            5
     number of electrons       =       390.00
     number of Kohn-Sham states=          205
     kinetic-energy cutoff     =      29.3995  Ry
     charge density cutoff     =     293.9946  Ry
     scf convergence threshold =      7.3E-08
     mixing beta               =       0.0500
     number of iterations used =            8  plain     mixing
     Exchange-correlation= BEEF-VDW
                           (   1   4  43  14   2   0   0)

     celldm(1)=   1.889726  celldm(2)=   0.000000  celldm(3)=   0.000000
     celldm(4)=   0.000000  celldm(5)=   0.000000  celldm(6)=   0.000000

     crystal axes: (cart. coord. in units of alat)
               a(1) = (   6.579727   0.000000   0.000000 )
               a(2) = (  -0.000775   5.961596   0.000000 )
               a(3) = (   0.000000   0.000000  25.155947 )

     reciprocal axes: (cart. coord. in units 2 pi/alat)
               b(1) = (  0.151982  0.000020  0.000000 )
               b(2) = (  0.000000  0.167740  0.000000 )
               b(3) = (  0.000000  0.000000  0.039752 )

     PseudoPot. # 1 for Ti read from file:
     /storage/coda1/p-amedford6/0/shared/rich_project_chbe-medford/medford-share/data/pseudos_module/espresso/nninc/pbe/van/Ti.UPF
     MD5 check sum: 8e4df49b7f0d34bbd5052bf3f5ea0213
     Pseudo is Ultrasoft, Zval = 12.0
     Generated by new atomic code, or converted to UPF format
     Using radial grid of  851 points,  6 beta functions with:
                l(1) =   0
                l(2) =   0
                l(3) =   1
                l(4) =   1
                l(5) =   2
                l(6) =   2
     Q(r) pseudized with  8 coefficients,  rinner =    1.000   1.000   1.000
                                                       1.000   1.000

     PseudoPot. # 2 for O  read from file:
     /storage/coda1/p-amedford6/0/shared/rich_project_chbe-medford/medford-share/data/pseudos_module/espresso/nninc/pbe/van/O.UPF
     MD5 check sum: 78c19812648e8988a0fe644b0f25305e
     Pseudo is Ultrasoft, Zval =  6.0
     Generated by new atomic code, or converted to UPF format
     Using radial grid of  737 points,  4 beta functions with:
                l(1) =   0
                l(2) =   0
                l(3) =   1
                l(4) =   1
     Q(r) pseudized with  8 coefficients,  rinner =    0.800   0.800   0.800

     PseudoPot. # 3 for N  read from file:
     /storage/coda1/p-amedford6/0/shared/rich_project_chbe-medford/medford-share/data/pseudos_module/espresso/nninc/pbe/van/N.UPF
     MD5 check sum: 90d10febe142ad51ac9d5be1deb811c4
     Pseudo is Ultrasoft, Zval =  5.0
     Generated by new atomic code, or converted to UPF format
     Using radial grid of  729 points,  4 beta functions with:
                l(1) =   0
                l(2) =   0
                l(3) =   1
                l(4) =   1
     Q(r) pseudized with  8 coefficients,  rinner =    0.800   0.800   0.800

     PseudoPot. # 4 for C  read from file:
     /storage/coda1/p-amedford6/0/shared/rich_project_chbe-medford/medford-share/data/pseudos_module/espresso/nninc/pbe/van/C.UPF
     MD5 check sum: 1a69bf6b8db32088f5b2163dbdb77a27
     Pseudo is Ultrasoft, Zval =  4.0
     Generated by new atomic code, or converted to UPF format
     Using radial grid of  721 points,  4 beta functions with:
                l(1) =   0
                l(2) =   0
                l(3) =   1
                l(4) =   1
     Q(r) pseudized with  8 coefficients,  rinner =    0.800   0.800   0.800

     PseudoPot. # 5 for H  read from file:
     /storage/coda1/p-amedford6/0/shared/rich_project_chbe-medford/medford-share/data/pseudos_module/espresso/nninc/pbe/van/H.UPF
     MD5 check sum: b5ee9d7bfd3a09ee7748110bda690ff7
     Pseudo is Ultrasoft, Zval =  1.0
     Generated by new atomic code, or converted to UPF format
     Using radial grid of  615 points,  1 beta functions with:
                l(1) =   0
     Q(r) pseudized with  8 coefficients,  rinner =    0.800

     atomic species   valence    mass     pseudopotential
        Ti1           12.00    47.86700     Ti( 1.00)
        O1             6.00    15.99900     O ( 1.00)
        N1             5.00    14.00700     N ( 1.00)
        C1             4.00    12.01100     C ( 1.00)
        H1             1.00     1.00800     H ( 1.00)

     No symmetry found

   Cartesian axes

     site n.     atom                  positions (alat units)
         1           Ti1 tau(   1) = (   0.0004258   2.9801865   6.0000000  )
         2           Ti1 tau(   2) = (   3.2906075   1.4906267   6.0002472  )
         3           O1  tau(   3) = (   0.0006271   0.0005054   7.9858123  )
         4           O1  tau(   4) = (   3.2906025   0.0005020   7.3038282  )
         5           O1  tau(   5) = (   4.5942328   1.4918067   9.2879030  )
         6           O1  tau(   6) = (   1.9868534   1.4903216   9.2879459  )
         7           Ti1 tau(   7) = (   3.2907910   2.8959150   9.1758416  )
         8           Ti1 tau(   8) = (   0.0015273   1.4827037   9.2680791  )
         9           O1  tau(   9) = (   3.3018735   5.9614316  11.2970789  )
        10           O1  tau(  10) = (   0.0116148   5.9584955  10.6183126  )
        11           O1  tau(  11) = (   1.3353665   1.4968727  12.6140821  )
        12           O1  tau(  12) = (   5.3123320   1.5002621  12.6324210  )
        13           Ti1 tau(  13) = (   6.4913169   2.9877414  12.7576577  )
        14           Ti1 tau(  14) = (   3.1819880   1.4874128  12.4666476  )
        15           O1  tau(  15) = (   0.0325390   5.9514364  14.5942808  )
        16           O1  tau(  16) = (   3.3157460   0.0104736  13.8786857  )
        17           O1  tau(  17) = (   4.5538541   1.5308062  16.0536203  )
        18           O1  tau(  18) = (   2.1012647   1.5271178  16.0466835  )
        19           Ti1 tau(  19) = (   3.3239613   3.0121693  15.6870930  )
        20           Ti1 tau(  20) = (   0.0188375   1.6096557  16.0875739  )
        21           O1  tau(  21) = (   3.2904802   0.0005063   4.7018136  )
        22           O1  tau(  22) = (   0.0443345   0.0604659  17.2041813  )
        23           O1  tau(  23) = (   1.3043587   1.4918075   6.0039043  )
        24           O1  tau(  24) = (   5.2767064   1.4903225   6.0039473  )
        25           Ti1 tau(  25) = (   0.0000382   5.9609847   6.0000000  )
        26           Ti1 tau(  26) = (   3.2902200   4.4714249   6.0002472  )
        27           O1  tau(  27) = (   0.0002396   2.9813036   7.9858123  )
        28           O1  tau(  28) = (   3.2902150   2.9813002   7.3038282  )
        29           O1  tau(  29) = (   4.5938453   4.4726049   9.2879030  )
        30           O1  tau(  30) = (   1.9864658   4.4711199   9.2879459  )
        31           Ti1 tau(  31) = (   3.2891106   5.8743827   9.1763621  )
        32           Ti1 tau(  32) = (   0.0006254   4.4649316   9.2693709  )
        33           O1  tau(  33) = (   3.3028429   2.9834257  11.2952420  )
        34           O1  tau(  34) = (   0.0092240   2.9805883  10.6323155  )
        35           O1  tau(  35) = (   1.3370139   4.4664586  12.6123119  )
        36           O1  tau(  36) = (   5.3107101   4.4655690  12.6333123  )
        37           Ti1 tau(  37) = (   6.5188704   0.0058144  12.7695920  )
        38           Ti1 tau(  38) = (   3.1805296   4.4670443  12.4671176  )
        39           O1  tau(  39) = (   0.0099197   2.9765079  14.6559069  )
        40           O1  tau(  40) = (   3.3143426   2.9928857  13.8797190  )
        41           O1  tau(  41) = (   4.5573730   4.5089470  16.0521860  )
        42           O1  tau(  42) = (   2.1018054   4.5121927  16.0508938  )
        43           Ti1 tau(  43) = (   3.3145791   0.0316975  15.6896801  )
        44           Ti1 tau(  44) = (   0.0207397   4.5876961  16.1385408  )
        45           O1  tau(  45) = (   3.2900926   2.9813045   4.7018136  )
        46           O1  tau(  46) = (   1.3039711   4.4726057   6.0039043  )
        47           O1  tau(  47) = (   5.2763189   4.4711207   6.0039473  )
        48           N1  tau(  48) = (   0.0936308   3.0233000  17.3257847  )
        49           C1  tau(  49) = (   0.4281149   3.0137428  18.7308649  )
        50           H1  tau(  50) = (   0.7292188   4.0033843  19.0962330  )
        51           H1  tau(  51) = (   6.1445545   2.6862439  19.3232575  )
        52           H1  tau(  52) = (   1.2401080   2.3040860  18.9332505  )

     number of k points=    10  Fermi-Dirac smearing, width (Ry)=  0.0073
                       cart. coord. in units 2pi/alat
        k(    1) = (   0.0000000   0.0000000   0.0000000), wk =   0.1250000
        k(    2) = (   0.0000000   0.0419351   0.0000000), wk =   0.2500000
        k(    3) = (   0.0000000  -0.0838702   0.0000000), wk =   0.1250000
        k(    4) = (   0.0379955   0.0000049   0.0000000), wk =   0.2500000
        k(    5) = (   0.0379955   0.0419400   0.0000000), wk =   0.2500000
        k(    6) = (   0.0379955  -0.0838652   0.0000000), wk =   0.2500000
        k(    7) = (   0.0379955  -0.0419301   0.0000000), wk =   0.2500000
        k(    8) = (  -0.0759910  -0.0000099   0.0000000), wk =   0.1250000
        k(    9) = (  -0.0759910   0.0419252   0.0000000), wk =   0.2500000
        k(   10) = (  -0.0759910  -0.0838800   0.0000000), wk =   0.1250000

     Initial potential from superposition of free atoms

     starting charge  373.99917, renormalised to  390.00000

     negative rho (up, down):  1.729E-02 0.000E+00

     %%%%%%%%%%%%%%%%%%%%%%%%%%%%%%%%%%%%%%%%%%%%%%%%%%%%%%%%%%%%%%%%%%%%%%%%
     %                                                                      %
     % You are using vdW-DF, which was implemented by the Thonhauser group. %
     % Please cite the following two papers that made this development      %
     % possible and the two reviews that describe the various versions:     %
     %                                                                      %
     %   T. Thonhauser et al., PRL 115, 136402 (2015).                      %
     %   T. Thonhauser et al., PRB 76, 125112 (2007).                       %
     %   K. Berland et al., Rep. Prog. Phys. 78, 066501 (2015).             %
     %   D.C. Langreth et al., J. Phys.: Condens. Matter 21, 084203 (2009). %
     %                                                                      %
     %                                                                      %
     % If you are calculating the stress with vdW-DF, please also cite:     %
     %                                                                      %
     %   R. Sabatini et al., J. Phys.: Condens. Matter 24, 424209 (2012).   %
     %                                                                      %
     %%%%%%%%%%%%%%%%%%%%%%%%%%%%%%%%%%%%%%%%%%%%%%%%%%%%%%%%%%%%%%%%%%%%%%%%

     Adding external electric field

     Computed dipole along edir(3) :
        Dipole               -4.6280 Ry au,        -11.7632 Debye
        Dipole field         -0.0087 Ry au,

        Potential amp.        0.8096 Ry
        Total length         46.3494 bohr

     Starting wfcs are  295 atomic wfcs
  @ DRIVER MODE: Message from server: STATUS
  @ DRIVER MODE: Message from server: POSDATA
  @ DRIVER MODE: Reading and sharing cell
  @ DRIVER MODE: Reading and sharing positions
  @ DRIVER MODE: Received positions

     Self-consistent Calculation

     iteration #  1     ecut=    29.40 Ry     beta= 0.05
     Davidson diagonalization with overlap
     c_bands:  4 eigenvalues not converged
     c_bands:  2 eigenvalues not converged
     c_bands:  2 eigenvalues not converged
     c_bands:  4 eigenvalues not converged
     c_bands:  4 eigenvalues not converged
     c_bands:  2 eigenvalues not converged
     c_bands:  2 eigenvalues not converged
     c_bands:  2 eigenvalues not converged
     ethr =  1.00E-05,  avg # of iterations = 19.7

[...]

     total energy              =   -2877.28219809 Ry
     estimated scf accuracy    <     482.69289137 Ry

     iteration #  2     ecut=    29.40 Ry     beta= 0.05
     Davidson diagonalization with overlap
     ethr =  1.00E-02,  avg # of iterations = 13.7

[...]

     iteration # 37     ecut=    29.40 Ry     beta= 0.05
     Davidson diagonalization with overlap
     c_bands:  2 eigenvalues not converged
     c_bands:  1 eigenvalues not converged
     c_bands:  1 eigenvalues not converged
     ethr =  7.75E-07,  avg # of iterations = 15.7

[...]

     total energy              =   -2919.13183578 Ry
     estimated scf accuracy    <       0.00000008 Ry

     iteration # 63     ecut=    29.40 Ry     beta= 0.05
     Davidson diagonalization with overlap
     ethr =  2.04E-11,  avg # of iterations =  5.3

     negative rho (up, down):  1.786E-02 0.000E+00

     Adding external electric field

     Computed dipole along edir(3) :
        Dipole                0.2595 Ry au,          0.6596 Debye
        Dipole field          0.0005 Ry au,

        Potential amp.       -0.0454 Ry
        Total length         46.3494 bohr

     End of self-consistent calculation

          k = 0.0000 0.0000 0.0000 ( 18029 PWs)   bands (ev):

   -56.8884 -56.8547 -56.0104 -55.9986 -55.9755 -55.9658 -55.8633 -55.8246
   -55.6469 -55.6116 -55.5525 -55.5495 -55.5186 -55.4403 -54.9689 -54.9225
   -33.3162 -33.1630 -33.1349 -33.0643 -32.9733 -32.9422 -32.4813 -32.4751
   -32.4039 -32.2946 -32.2481 -32.2242 -32.2058 -32.1844 -32.1509 -32.1465
   -32.1423 -32.1396 -32.1139 -32.1112 -32.0999 -32.0704 -32.0441 -32.0304
   -32.0173 -31.9975 -31.9905 -31.9670 -31.9449 -31.8911 -31.8782 -31.8669
   -31.7910 -31.7856 -31.7636 -31.7246 -31.7135 -31.6801 -31.6696 -31.6447
   -31.6260 -31.5691 -31.4990 -31.2196 -31.1938 -31.1735 -31.1433 -31.0282
   -17.0526 -16.6172 -16.3867 -16.2509 -16.1837 -16.1290 -16.0852 -15.9606
   -15.8879 -15.8832 -15.8428 -15.8106 -15.7397 -15.6016 -15.5030 -15.4456
   -15.4019 -15.2831 -15.2243 -15.1906 -15.1844 -15.1458 -15.1305 -14.9339
   -14.9076 -14.8194 -14.7992 -14.6728 -14.4399 -14.0512 -13.9411 -13.0779
    -7.8118  -4.6181  -4.1136  -3.8724  -3.7896  -3.6813  -3.6686  -3.5880
    -3.4692  -3.4223  -3.3759  -3.2597  -3.2561  -3.1099  -3.0886  -3.0639
    -3.0614  -3.0217  -2.9640  -2.9436  -2.9048  -2.8941  -2.8857  -2.7334
    -2.6333  -2.5657  -2.5395  -2.5264  -2.4960  -2.4234  -2.3938  -2.3850
    -2.3812  -2.2755  -2.1307  -2.1283  -2.0972  -2.0552  -2.0528  -2.0127
    -2.0014  -1.8774  -1.7861  -1.6775  -1.6674  -1.6303  -1.5685  -1.5618
    -1.4662  -1.3897  -1.3198  -1.3017  -1.1923  -1.1488  -1.1252  -1.0351
    -0.9738  -0.9365  -0.9132  -0.8971  -0.7934  -0.7778  -0.7705  -0.6768
    -0.6647  -0.6213  -0.5281  -0.5049  -0.4992  -0.4172  -0.4101  -0.3045
    -0.2769  -0.2318  -0.1993  -0.0941  -0.0736   0.0243   0.0611   0.0803
     0.2014   0.2188   0.2794   0.3515   0.4168   0.4336   0.4690   0.4997
     0.5159   0.5940   0.7063   0.7133   0.8177   0.8502   1.0216   1.0604
     1.3445   1.3532   2.0451   2.3861   2.5458   2.8441   3.0333   3.1467
     3.3611   3.3765   3.3818   3.5538   3.6069

[...]

          k = 0.0380-0.0419 0.0000 ( 17876 PWs)   bands (ev):

[...]

          k =-0.0760-0.0000 0.0000 ( 17886 PWs)   bands (ev):

[...]

          k =-0.0760-0.0839 0.0000 ( 17948 PWs)   bands (ev):

   -56.8716 -56.8713 -55.9953 -55.9895 -55.9830 -55.9824 -55.8517 -55.8359
   -55.6321 -55.6262 -55.5467 -55.5355 -55.5355 -55.4430 -54.9607 -54.9305
   -33.1489 -33.1486 -33.1331 -33.1330 -33.0174 -33.0171 -32.3112 -32.3088
   -32.2996 -32.2930 -32.2398 -32.2365 -32.1978 -32.1939 -32.1928 -32.1886
   -32.1848 -32.1819 -32.1798 -32.1781 -32.1021 -32.0896 -32.0509 -32.0387
   -31.9826 -31.9741 -31.9144 -31.9085 -31.8800 -31.8799 -31.8747 -31.8307
   -31.8291 -31.7997 -31.7629 -31.7611 -31.7610 -31.7220 -31.7220 -31.7203
   -31.6858 -31.6464 -31.3636 -31.2865 -31.1904 -31.1634 -31.1520 -31.1108
   -16.4012 -16.3992 -16.3664 -16.3661 -16.0973 -16.0937 -16.0474 -16.0440
   -15.8725 -15.8653 -15.6606 -15.6517 -15.6445 -15.6417 -15.5140 -15.5083
   -15.4451 -15.4309 -15.3426 -15.3401 -15.2775 -15.2715 -15.2326 -15.2128
   -14.9032 -14.8855 -14.7735 -14.7481 -14.5832 -14.0446 -14.0446 -13.0944
    -7.8027  -3.4997  -3.4989  -3.4354  -3.4345  -3.3099  -3.3041  -3.2310
    -3.2302  -3.1286  -3.1249  -3.0611  -2.9969  -2.9857  -2.9825  -2.9714
    -2.9561  -2.8311  -2.8288  -2.8175  -2.8015  -2.7454  -2.7432  -2.7318
    -2.6540  -2.6391  -2.6051  -2.5668  -2.4578  -2.4444  -2.4309  -2.3994
    -2.3447  -2.3301  -2.3169  -2.2754  -2.2506  -2.1644  -2.1095  -2.0560
    -1.9400  -1.9369  -1.9285  -1.9130  -1.7617  -1.7200  -1.6921  -1.6851
    -1.6769  -1.6331  -1.5349  -1.5282  -1.3936  -1.3931  -1.3130  -1.2342
    -1.2166  -1.1866  -1.0566  -1.0161  -0.9796  -0.9714  -0.9439  -0.9241
    -0.9007  -0.8631  -0.7220  -0.7089  -0.6719  -0.6369  -0.6319  -0.5759
    -0.5187  -0.4386  -0.3622  -0.3612  -0.3071  -0.2336  -0.1739  -0.0920
    -0.0788  -0.0741   0.2059   0.2854   0.3778   0.4542   0.5230   0.5760
     0.6109   0.6761   0.7144   0.8474   0.8520   0.8697   0.8700   0.9322
     0.9337   1.3351   1.9345   2.9591   2.9594   3.0264   3.0268   3.3503
     3.3561   3.4643   3.4739   3.5851   3.5874

     the Fermi energy is     2.2250 ev

!    total energy              =   -2919.13187037 Ry
     estimated scf accuracy    <       0.00000004 Ry
     smearing contrib. (-TS)   =      -0.00481316 Ry
     internal energy E=F+TS    =   -2919.12705721 Ry

     The total energy is F=E-TS. E is the sum of the following terms:
     one-electron contribution =  -24568.89075790 Ry
     hartree contribution      =   12368.66612828 Ry
     xc contribution           =    -479.89725394 Ry
     ewald contribution        =    9760.99469924 Ry
     electric field correction =       0.00012710 Ry

     convergence has been achieved in  63 iterations

     Forces acting on atoms (cartesian axes, Ry/au):

     atom    1 type  1   force =     0.00006007   -0.00050522    0.12428190
     atom    2 type  1   force =    -0.00009020   -0.00054821   -0.16064246
     atom    3 type  2   force =     0.00022136   -0.00024030   -0.06809846
     atom    4 type  2   force =    -0.00000099   -0.00032188    0.02758606
     atom    5 type  2   force =    -0.01621042    0.00174537   -0.00936865
     atom    6 type  2   force =     0.01826449    0.00228319   -0.00892158
     atom    7 type  1   force =     0.00112594   -0.00382303    0.02203320
     atom    8 type  1   force =    -0.00061709   -0.00325317    0.11123339
     atom    9 type  2   force =    -0.00010459    0.00138851   -0.00036723
     atom   10 type  2   force =    -0.00190797    0.00178652   -0.07346752
     atom   11 type  2   force =     0.00080896    0.00006004    0.00004849
     atom   12 type  2   force =    -0.00065889    0.00019776    0.00014895
     atom   13 type  1   force =     0.00004954    0.00022390   -0.00041606
     atom   14 type  1   force =    -0.00100521   -0.00024435   -0.00048214
     atom   15 type  2   force =     0.00000477   -0.00026348    0.00012808
     atom   16 type  2   force =    -0.00005884    0.00106846    0.00072296
     atom   17 type  2   force =     0.00011060    0.00013692   -0.00046421
     atom   18 type  2   force =     0.00003731    0.00020170   -0.00007011
     atom   19 type  1   force =     0.00012310    0.00004372   -0.00070422
     atom   20 type  1   force =     0.00032393   -0.00107065    0.00017588
     atom   21 type  2   force =     0.00004127   -0.00006621    0.09974103
     atom   22 type  2   force =     0.00014645   -0.00048616   -0.00019837
     atom   23 type  2   force =    -0.07918810   -0.00005427   -0.03243100
     atom   24 type  2   force =     0.07905294    0.00038159   -0.03245624
     atom   25 type  1   force =     0.00004478   -0.00049602    0.12373581
     atom   26 type  1   force =    -0.00010065   -0.00050415   -0.16065828
     atom   27 type  2   force =     0.00032711   -0.00048059   -0.06715124
     atom   28 type  2   force =     0.00002610   -0.00014440    0.02727515
     atom   29 type  2   force =    -0.01660974    0.00134762   -0.00957127
     atom   30 type  2   force =     0.01855173    0.00165395   -0.00914046
     atom   31 type  1   force =     0.00110470   -0.00129520    0.02158733
     atom   32 type  1   force =    -0.00052023    0.00069111    0.11188367
     atom   33 type  2   force =    -0.00033950   -0.00115353    0.00013524
     atom   34 type  2   force =    -0.00156582    0.00135565   -0.07240734
     atom   35 type  2   force =    -0.00179314   -0.00019699    0.00026410
     atom   36 type  2   force =     0.00068530   -0.00041565   -0.00005275
     atom   37 type  1   force =     0.00071748   -0.00032908    0.00067583
     atom   38 type  1   force =    -0.00015602    0.00052290    0.00020487
     atom   39 type  2   force =     0.00017875   -0.00031667   -0.00036423
     atom   40 type  2   force =     0.00010780   -0.00017494    0.00031098
     atom   41 type  2   force =     0.00003673    0.00044871   -0.00014299
     atom   42 type  2   force =     0.00026416    0.00053965   -0.00006188
     atom   43 type  1   force =     0.00036177    0.00015446   -0.00033542
     atom   44 type  1   force =    -0.00017803    0.00024631    0.00018619
     atom   45 type  2   force =     0.00002536   -0.00007137    0.09974910
     atom   46 type  2   force =    -0.07919563   -0.00000435   -0.03243101
     atom   47 type  2   force =     0.07906572    0.00042283   -0.03245742
     atom   48 type  3   force =     0.00037045   -0.00000259    0.00042049
     atom   49 type  4   force =     0.00013440    0.00224853    0.00316873
     atom   50 type  5   force =    -0.00163010   -0.00268190   -0.00290895
     atom   51 type  5   force =     0.00005151   -0.00037223   -0.00000872
     atom   52 type  5   force =    -0.00049341    0.00036718    0.00008279

     Total force =     0.424649     Total SCF correction =     0.000712
  @ DRIVER MODE: Message from server: STATUS
  @ DRIVER MODE: Message from server: GETFORCE
  @ DRIVER MODE: Returning v,forces,stress,ensemble

     Writing output data file ./calc.save/
  @ DRIVER MODE: Message from server: EXIT
  @ DRIVE MODE: Exiting

     General routines

     Parallel routines

   This run was terminated on:   2:41:53   9Sep2021

   JOB DONE.