     Program PWSCF v.6.7GPU starts on 15Sep2021 at 16: 8:49

     R & G space division:  proc/nbgrp/npool/nimage =      10
     Reading input from /storage/home/hcoda1/3/ntian30/research/carbon/CxH_vib/H2O_calc/ads_slab/CHN2HH2O_a/out_0002/pw.inp
Warning: card &CELL ignored
Warning: card   CELL_DYNAMICS='IPI', ignored
Warning: card / ignored

     Current dimensions of program PWSCF are:
     Max number of different atomic species (ntypx) = 10
     Max number of k-points (npk) =  40000
     Max angular momentum in pseudopotentials (lmaxx) =  3
     Presently no symmetry can be used with electric field

     Message from routine cell_base_init:
     DEPRECATED: use true lattice parameter, not A to a.u. conversion factor

     IMPORTANT: XC functional enforced from input :
     Exchange-correlation= BEEF-VDW
                           (   1   4  43  14   2   0   0)
     Any further DFT definition will be discarded
     Please, verify this is what you really want

  @ DRIVER MODE: Connecting to
 qe_1139763_2852626.sched-torque.pace.gatech.eduqa4_38dw_scratch
  using UNIX socket
  @ DRIVER MODE: Message from server: STATUS
  @ DRIVER MODE: Message from server: INIT
  @ DRIVER MODE: Receiving replica           0          -1
  @ DRIVER MODE: Receiving encoded integer          25
  @ DRIVER MODE:  SCF:  T  FORCE:  T  STRESS:  F  VC:  F  ENSEMBLE:  F
  @ DRIVER MODE:  SCF:  T  FORCE:  T  STRESS:  F  VC:  F  ENSEMBLE:  F

     Using Slab Decomposition

     bravais-lattice index     =            0
     lattice parameter (alat)  =       1.8897  a.u.
     unit-cell volume          =    6658.9804 (a.u.)^3
     number of atoms/cell      =           55
     number of atomic types    =            5
     number of electrons       =       402.00
     number of Kohn-Sham states=          211
     kinetic-energy cutoff     =      29.3995  Ry
     charge density cutoff     =     293.9946  Ry
     scf convergence threshold =      7.3E-08
     mixing beta               =       0.0500
     number of iterations used =            8  plain     mixing
     Exchange-correlation= BEEF-VDW
                           (   1   4  43  14   2   0   0)

     celldm(1)=   1.889726  celldm(2)=   0.000000  celldm(3)=   0.000000
     celldm(4)=   0.000000  celldm(5)=   0.000000  celldm(6)=   0.000000

     crystal axes: (cart. coord. in units of alat)
               a(1) = (   6.579727   0.000000   0.000000 )
               a(2) = (  -0.000775   5.961596   0.000000 )
               a(3) = (   0.000000   0.000000  25.155947 )

     reciprocal axes: (cart. coord. in units 2 pi/alat)
               b(1) = (  0.151982  0.000020  0.000000 )
               b(2) = (  0.000000  0.167740  0.000000 )
               b(3) = (  0.000000  0.000000  0.039752 )

     PseudoPot. # 1 for Ti read from file:
     /storage/coda1/p-amedford6/0/shared/rich_project_chbe-medford/medford-share/data/pseudos_module/espresso/nninc/pbe/van/Ti.UPF
     MD5 check sum: 8e4df49b7f0d34bbd5052bf3f5ea0213
     Pseudo is Ultrasoft, Zval = 12.0
     Generated by new atomic code, or converted to UPF format
     Using radial grid of  851 points,  6 beta functions with:
                l(1) =   0
                l(2) =   0
                l(3) =   1
                l(4) =   1
                l(5) =   2
                l(6) =   2
     Q(r) pseudized with  8 coefficients,  rinner =    1.000   1.000   1.000
                                                       1.000   1.000

     PseudoPot. # 2 for O  read from file:
     /storage/coda1/p-amedford6/0/shared/rich_project_chbe-medford/medford-share/data/pseudos_module/espresso/nninc/pbe/van/O.UPF
     MD5 check sum: 78c19812648e8988a0fe644b0f25305e
     Pseudo is Ultrasoft, Zval =  6.0
     Generated by new atomic code, or converted to UPF format
     Using radial grid of  737 points,  4 beta functions with:
                l(1) =   0
                l(2) =   0
                l(3) =   1
                l(4) =   1
     Q(r) pseudized with  8 coefficients,  rinner =    0.800   0.800   0.800

     PseudoPot. # 3 for N  read from file:
     /storage/coda1/p-amedford6/0/shared/rich_project_chbe-medford/medford-share/data/pseudos_module/espresso/nninc/pbe/van/N.UPF
     MD5 check sum: 90d10febe142ad51ac9d5be1deb811c4
     Pseudo is Ultrasoft, Zval =  5.0
     Generated by new atomic code, or converted to UPF format
     Using radial grid of  729 points,  4 beta functions with:
                l(1) =   0
                l(2) =   0
                l(3) =   1
                l(4) =   1
     Q(r) pseudized with  8 coefficients,  rinner =    0.800   0.800   0.800

     PseudoPot. # 4 for C  read from file:
     /storage/coda1/p-amedford6/0/shared/rich_project_chbe-medford/medford-share/data/pseudos_module/espresso/nninc/pbe/van/C.UPF
     MD5 check sum: 1a69bf6b8db32088f5b2163dbdb77a27
     Pseudo is Ultrasoft, Zval =  4.0
     Generated by new atomic code, or converted to UPF format
     Using radial grid of  721 points,  4 beta functions with:
                l(1) =   0
                l(2) =   0
                l(3) =   1
                l(4) =   1
     Q(r) pseudized with  8 coefficients,  rinner =    0.800   0.800   0.800

     PseudoPot. # 5 for H  read from file:
     /storage/coda1/p-amedford6/0/shared/rich_project_chbe-medford/medford-share/data/pseudos_module/espresso/nninc/pbe/van/H.UPF
     MD5 check sum: b5ee9d7bfd3a09ee7748110bda690ff7
     Pseudo is Ultrasoft, Zval =  1.0
     Generated by new atomic code, or converted to UPF format
     Using radial grid of  615 points,  1 beta functions with:
                l(1) =   0
     Q(r) pseudized with  8 coefficients,  rinner =    0.800

     atomic species   valence    mass     pseudopotential
        Ti1           12.00    47.86700     Ti( 1.00)
        O1             6.00    15.99900     O ( 1.00)
        N1             5.00    14.00700     N ( 1.00)
        C1             4.00    12.01100     C ( 1.00)
        H1             1.00     1.00800     H ( 1.00)

     No symmetry found

   Cartesian axes

     site n.     atom                  positions (alat units)
         1           Ti1 tau(   1) = (   0.0004258   2.9801865   6.0000000  )
         2           Ti1 tau(   2) = (   3.2906075   1.4906267   6.0002472  )
         3           O1  tau(   3) = (   0.0006271   0.0005054   7.9858123  )
         4           O1  tau(   4) = (   3.2906025   0.0005020   7.3038282  )
         5           O1  tau(   5) = (   4.5942328   1.4918067   9.2879030  )
         6           O1  tau(   6) = (   1.9868534   1.4903216   9.2879459  )
         7           Ti1 tau(   7) = (   3.2907910   2.8959150   9.1758416  )
         8           Ti1 tau(   8) = (   0.0015273   1.4827037   9.2680791  )
         9           O1  tau(   9) = (   3.2768631   0.0039008  11.3091060  )
        10           O1  tau(  10) = (   0.0116148   5.9584955  10.6183126  )
        11           O1  tau(  11) = (   1.2710838   1.4709840  12.6395574  )
        12           O1  tau(  12) = (   5.2772223   1.5075092  12.6020671  )
        13           Ti1 tau(  13) = (   0.0276258   2.9086511  12.7028215  )
        14           Ti1 tau(  14) = (   3.3492493   1.4375301  12.4845766  )
        15           O1  tau(  15) = (   6.5006329   5.9509897  14.6081112  )
        16           O1  tau(  16) = (   3.3450391   0.0041935  13.9069437  )
        17           O1  tau(  17) = (   4.5555219   1.5659029  16.0522165  )
        18           O1  tau(  18) = (   1.9836904   1.4119734  15.8927236  )
        19           Ti1 tau(  19) = (   3.2827818   2.9316656  15.8555152  )
        20           Ti1 tau(  20) = (   6.5629331   1.3437128  15.9803530  )
        21           O1  tau(  21) = (   3.2904802   0.0005063   4.7018136  )
        22           O1  tau(  22) = (   6.5074089   5.9525318  17.1494500  )
        23           O1  tau(  23) = (   1.3043587   1.4918075   6.0039043  )
        24           O1  tau(  24) = (   5.2767064   1.4903225   6.0039473  )
        25           Ti1 tau(  25) = (   0.0000382   5.9609847   6.0000000  )
        26           Ti1 tau(  26) = (   3.2902200   4.4714249   6.0002472  )
        27           O1  tau(  27) = (   0.0002396   2.9813036   7.9858123  )
        28           O1  tau(  28) = (   3.2902150   2.9813002   7.3038282  )
        29           O1  tau(  29) = (   4.5938453   4.4726049   9.2879030  )
        30           O1  tau(  30) = (   1.9864658   4.4711199   9.2879459  )
        31           Ti1 tau(  31) = (   3.2891106   5.8743827   9.1763621  )
        32           Ti1 tau(  32) = (   0.0006254   4.4649316   9.2693709  )
        33           O1  tau(  33) = (   3.2854303   2.9668816  11.2996989  )
        34           O1  tau(  34) = (   0.0092240   2.9805883  10.6323155  )
        35           O1  tau(  35) = (   1.2743094   4.4851408  12.6236879  )
        36           O1  tau(  36) = (   5.2782958   4.4707264  12.5946799  )
        37           Ti1 tau(  37) = (   0.0481499   5.8920156  12.5607908  )
        38           Ti1 tau(  38) = (   3.3544845   4.3749597  12.5572158  )
        39           O1  tau(  39) = (   6.5410016   3.0017514  14.6365314  )
        40           O1  tau(  40) = (   3.2441134   3.0029108  13.8718978  )
        41           O1  tau(  41) = (   4.5385932   4.4028810  16.0550583  )
        42           O1  tau(  42) = (   1.9619458   4.5383001  15.8611175  )
        43           Ti1 tau(  43) = (   3.2178196   5.9097812  15.7399460  )
        44           Ti1 tau(  44) = (   6.5330930   4.4908980  15.8705378  )
        45           O1  tau(  45) = (   3.2900926   2.9813045   4.7018136  )
        46           O1  tau(  46) = (   1.3039711   4.4726057   6.0039043  )
        47           O1  tau(  47) = (   5.2763189   4.4711207   6.0039473  )
        48           N1  tau(  48) = (   1.2967840   3.0293760  18.3347772  )
        49           C1  tau(  49) = (   2.5003166   3.0326976  17.9707196  )
        50           H1  tau(  50) = (   3.2053588   3.1791635  18.8000936  )
        51           N1  tau(  51) = (   0.2138509   2.9871109  17.4421441  )
        52           H1  tau(  52) = (   5.9621615   2.9869774  18.0311354  )
        53           O1  tau(  53) = (   3.4290693   5.9360351  18.0748810  )
        54           H1  tau(  54) = (   4.3780305   0.1327944  18.2306609  )
        55           H1  tau(  55) = (   2.9458904   0.7245148  18.4607207  )

     number of k points=    10  Fermi-Dirac smearing, width (Ry)=  0.0073
                       cart. coord. in units 2pi/alat
        k(    1) = (   0.0000000   0.0000000   0.0000000), wk =   0.1250000
        k(    2) = (   0.0000000   0.0419351   0.0000000), wk =   0.2500000
        k(    3) = (   0.0000000  -0.0838702   0.0000000), wk =   0.1250000
        k(    4) = (   0.0379955   0.0000049   0.0000000), wk =   0.2500000
        k(    5) = (   0.0379955   0.0419400   0.0000000), wk =   0.2500000
        k(    6) = (   0.0379955  -0.0838652   0.0000000), wk =   0.2500000
        k(    7) = (   0.0379955  -0.0419301   0.0000000), wk =   0.2500000
        k(    8) = (  -0.0759910  -0.0000099   0.0000000), wk =   0.1250000
        k(    9) = (  -0.0759910   0.0419252   0.0000000), wk =   0.2500000
        k(   10) = (  -0.0759910  -0.0838800   0.0000000), wk =   0.1250000

     Initial potential from superposition of free atoms

     starting charge  385.99915, renormalised to  402.00000

     negative rho (up, down):  1.831E-02 0.000E+00

     %%%%%%%%%%%%%%%%%%%%%%%%%%%%%%%%%%%%%%%%%%%%%%%%%%%%%%%%%%%%%%%%%%%%%%%%
     %                                                                      %
     % You are using vdW-DF, which was implemented by the Thonhauser group. %
     % Please cite the following two papers that made this development      %
     % possible and the two reviews that describe the various versions:     %
     %                                                                      %
     %   T. Thonhauser et al., PRL 115, 136402 (2015).                      %
     %   T. Thonhauser et al., PRB 76, 125112 (2007).                       %
     %   K. Berland et al., Rep. Prog. Phys. 78, 066501 (2015).             %
     %   D.C. Langreth et al., J. Phys.: Condens. Matter 21, 084203 (2009). %
     %                                                                      %
     %                                                                      %
     % If you are calculating the stress with vdW-DF, please also cite:     %
     %                                                                      %
     %   R. Sabatini et al., J. Phys.: Condens. Matter 24, 424209 (2012).   %
     %                                                                      %
     %%%%%%%%%%%%%%%%%%%%%%%%%%%%%%%%%%%%%%%%%%%%%%%%%%%%%%%%%%%%%%%%%%%%%%%%

     Adding external electric field

     Computed dipole along edir(3) :
        Dipole              -11.0899 Ry au,        -28.1877 Debye
        Dipole field         -0.0209 Ry au,

        Potential amp.        1.9400 Ry
        Total length         46.3494 bohr

     Starting wfcs are  304 atomic wfcs
  @ DRIVER MODE: Message from server: STATUS
  @ DRIVER MODE: Message from server: POSDATA
  @ DRIVER MODE: Reading and sharing cell
  @ DRIVER MODE: Reading and sharing positions
  @ DRIVER MODE: Received positions

     Self-consistent Calculation

     iteration #  1     ecut=    29.40 Ry     beta= 0.05
     Davidson diagonalization with overlap
     c_bands:  4 eigenvalues not converged
     c_bands:  1 eigenvalues not converged
     c_bands:  3 eigenvalues not converged
     c_bands:  4 eigenvalues not converged
     c_bands:  1 eigenvalues not converged
     c_bands:  2 eigenvalues not converged
     c_bands:  1 eigenvalues not converged
     c_bands:  2 eigenvalues not converged
     c_bands:  5 eigenvalues not converged
     c_bands:  5 eigenvalues not converged
     ethr =  1.00E-05,  avg # of iterations = 26.0

[...]

     total energy              =   -2403.81367019 Ry
     estimated scf accuracy    <    6374.06399568 Ry

     iteration #  2     ecut=    29.40 Ry     beta= 0.05
     Davidson diagonalization with overlap
     ethr =  1.00E-02,  avg # of iterations = 26.7

[...]

     iteration # 44     ecut=    29.40 Ry     beta= 0.05
     Davidson diagonalization with overlap
     c_bands:  1 eigenvalues not converged
     c_bands:  1 eigenvalues not converged
     ethr =  2.82E-07,  avg # of iterations = 10.9

[...]

     total energy              =   -2972.69089792 Ry
     estimated scf accuracy    <       0.00000008 Ry

     iteration # 72     ecut=    29.40 Ry     beta= 0.05
     Davidson diagonalization with overlap
     ethr =  1.99E-11,  avg # of iterations =  4.6

     negative rho (up, down):  1.794E-02 0.000E+00

     Adding external electric field

     Computed dipole along edir(3) :
        Dipole                0.3705 Ry au,          0.9417 Debye
        Dipole field          0.0007 Ry au,

        Potential amp.       -0.0648 Ry
        Total length         46.3494 bohr

     End of self-consistent calculation

          k = 0.0000 0.0000 0.0000 ( 18029 PWs)   bands (ev):

   -56.3364 -56.3026 -55.9352 -55.9015 -55.7473 -55.7108 -55.5582 -55.5550
   -55.5441 -55.5212 -55.5106 -55.4488 -55.2498 -55.2402 -55.1408 -55.1069
   -32.7900 -32.6290 -32.6022 -32.4946 -32.4138 -32.4103 -32.4017 -32.2362
   -32.1527 -32.1486 -32.0901 -32.0773 -32.0654 -32.0389 -32.0339 -31.9782
   -31.9701 -31.9616 -31.9285 -31.9059 -31.9045 -31.8612 -31.8481 -31.8413
   -31.8173 -31.7790 -31.7558 -31.7290 -31.7261 -31.7066 -31.7046 -31.7017
   -31.6874 -31.6668 -31.6496 -31.6358 -31.5504 -31.5395 -31.5125 -31.4962
   -31.4714 -31.4664 -31.4480 -31.4373 -31.3577 -31.3343 -31.2727 -31.1611
   -18.7561 -16.9127 -16.6540 -16.3428 -16.1422 -15.9577 -15.8967 -15.8349
   -15.7818 -15.6610 -15.6018 -15.5715 -15.4999 -15.3947 -15.3742 -15.3500
   -15.2970 -15.2841 -15.2651 -15.2355 -15.1817 -15.1507 -15.1290 -15.0545
   -15.0328 -15.0193 -14.8990 -14.8295 -14.8036 -14.7695 -14.5178 -13.6394
   -13.5264 -12.3437  -6.7259  -6.5360  -4.1553  -4.0630  -3.9011  -3.7762
    -3.6626  -3.6145  -3.4699  -3.4114  -3.3600  -3.2705  -3.1153  -3.0830
    -3.0096  -2.9599  -2.9193  -2.8596  -2.7992  -2.7552  -2.7171  -2.6299
    -2.6264  -2.6139  -2.5961  -2.5747  -2.5601  -2.4466  -2.3535  -2.3364
    -2.3109  -2.2673  -2.2485  -2.2370  -2.1856  -2.1575  -2.0743  -2.0643
    -2.0175  -1.9595  -1.9127  -1.8038  -1.7941  -1.7192  -1.6975  -1.6551
    -1.5257  -1.4008  -1.3700  -1.3208  -1.3129  -1.2245  -1.1996  -1.1739
    -1.0756  -1.0625  -1.0188  -0.9969  -0.8720  -0.8501  -0.7978  -0.7920
    -0.7699  -0.6742  -0.6289  -0.5176  -0.4739  -0.4274  -0.4185  -0.3449
    -0.3141  -0.2688  -0.2192  -0.1673  -0.1651  -0.1368  -0.0549  -0.0120
     0.0326   0.0808   0.1170   0.2061   0.2566   0.2903   0.3086   0.3981
     0.4416   0.4567   0.5217   0.5903   0.6411   0.7076   0.7517   0.8663
     0.8830   0.8997   0.9796   1.1050   1.4124   1.4362   1.4765   1.6271
     2.6547   2.8866   3.0075   3.1711   3.3168   3.3655   3.6313   3.6883
     3.7331   3.7664   3.8391

[...]

          k = 0.0380-0.0419 0.0000 ( 17876 PWs)   bands (ev):

[...]

          k =-0.0760-0.0000 0.0000 ( 17886 PWs)   bands (ev):

[...]

          k =-0.0760-0.0839 0.0000 ( 17948 PWs)   bands (ev):

   -56.3200 -56.3189 -55.9200 -55.9164 -55.7359 -55.7221 -55.5552 -55.5419
   -55.5353 -55.5297 -55.5257 -55.4473 -55.2510 -55.2412 -55.1238 -55.1238
   -32.6151 -32.6139 -32.6062 -32.6055 -32.4469 -32.4456 -32.2357 -32.2316
   -32.1255 -32.1221 -32.1125 -32.1052 -32.0361 -32.0260 -31.9642 -31.9540
   -31.9446 -31.9419 -31.8957 -31.8870 -31.8635 -31.8619 -31.8560 -31.8250
   -31.8106 -31.7808 -31.7717 -31.7549 -31.7521 -31.7450 -31.7427 -31.7277
   -31.7228 -31.7130 -31.7026 -31.6327 -31.6085 -31.5546 -31.5233 -31.5077
   -31.4707 -31.4608 -31.4608 -31.3538 -31.3537 -31.3358 -31.3153 -31.3152
   -18.7537 -16.8905 -16.0584 -16.0460 -15.9281 -15.9231 -15.7446 -15.7260
   -15.6934 -15.6684 -15.6323 -15.5470 -15.4819 -15.4735 -15.4667 -15.4039
   -15.3587 -15.3487 -15.3295 -15.3023 -15.2775 -15.2513 -15.1580 -15.1320
   -15.1289 -15.0987 -15.0169 -15.0056 -14.9446 -14.8064 -14.7365 -13.6295
   -13.6290 -12.3650  -6.7128  -6.4522  -3.9827  -3.8350  -3.2292  -3.1907
    -3.1694  -3.0602  -3.0343  -2.9593  -2.8638  -2.8473  -2.8308  -2.7976
    -2.7716  -2.7634  -2.7483  -2.7042  -2.6562  -2.6344  -2.6192  -2.6104
    -2.6051  -2.5947  -2.5625  -2.5348  -2.4756  -2.4671  -2.4342  -2.4151
    -2.3880  -2.3109  -2.3016  -2.2835  -2.2824  -2.2316  -2.1285  -2.1122
    -2.1034  -2.0611  -1.9962  -1.9284  -1.8407  -1.7986  -1.7343  -1.6771
    -1.6185  -1.5923  -1.5773  -1.4795  -1.4197  -1.4115  -1.3606  -1.3091
    -1.2331  -1.1932  -1.1553  -1.1430  -1.1301  -1.0935  -1.0450  -0.9819
    -0.8676  -0.8429  -0.8316  -0.7691  -0.7636  -0.7543  -0.6460  -0.6151
    -0.5644  -0.5391  -0.5190  -0.4811  -0.4507  -0.3809  -0.2862  -0.2409
    -0.1119  -0.1010  -0.0414   0.0070   0.0194   0.0972   0.1998   0.2241
     0.3608   0.3750   0.4077   0.5373   0.6102   0.6608   0.6784   0.8006
     0.8210   0.8555   1.0236   1.2693   1.2737   1.2928   1.2940   1.5790
     2.6318   3.4257   3.4280   3.4579   3.4600   3.6695   3.6831   3.7603
     3.7968   3.8876   3.9107

     the Fermi energy is     2.8283 ev

!    total energy              =   -2972.69092491 Ry
     estimated scf accuracy    <       0.00000005 Ry
     smearing contrib. (-TS)   =      -0.01348089 Ry
     internal energy E=F+TS    =   -2972.67744402 Ry

     The total energy is F=E-TS. E is the sum of the following terms:
     one-electron contribution =  -24586.88146887 Ry
     hartree contribution      =   12385.50305495 Ry
     xc contribution           =    -493.18097787 Ry
     ewald contribution        =    9721.88168872 Ry
     electric field correction =       0.00025904 Ry

     convergence has been achieved in  72 iterations

     Forces acting on atoms (cartesian axes, Ry/au):

     atom    1 type  1   force =    -0.00000749   -0.00028971    0.10601991
     atom    2 type  1   force =    -0.00022203   -0.00077082   -0.16694986
     atom    3 type  2   force =    -0.00002310   -0.00013593   -0.03883127
     atom    4 type  2   force =    -0.00009989   -0.00037986    0.03653659
     atom    5 type  2   force =    -0.00757288   -0.00013010   -0.00574810
     atom    6 type  2   force =     0.00858533    0.00077849   -0.00743719
     atom    7 type  1   force =    -0.00080315   -0.00145545    0.01963979
     atom    8 type  1   force =     0.00110346    0.01828444    0.06302421
     atom    9 type  2   force =    -0.00008182   -0.00019257    0.00043192
     atom   10 type  2   force =    -0.00265062    0.00203146   -0.04751142
     atom   11 type  2   force =    -0.00021053   -0.00001332    0.00014561
     atom   12 type  2   force =     0.00033743   -0.00013004    0.00010724
     atom   13 type  1   force =     0.00006821   -0.00011220   -0.00053056
     atom   14 type  1   force =    -0.00048093    0.00002374   -0.00007637
     atom   15 type  2   force =     0.00018591    0.00007788   -0.00036047
     atom   16 type  2   force =    -0.00013988   -0.00029923    0.00079828
     atom   17 type  2   force =    -0.00016916   -0.00021071    0.00047967
     atom   18 type  2   force =     0.00037265    0.00018848   -0.00007352
     atom   19 type  1   force =     0.00053343    0.00011520    0.00004696
     atom   20 type  1   force =     0.00039879    0.00071455    0.00043158
     atom   21 type  2   force =     0.00004689   -0.00002028    0.10088359
     atom   22 type  2   force =     0.00023857    0.00025294    0.00057775
     atom   23 type  2   force =    -0.07579076   -0.00011684   -0.02985962
     atom   24 type  2   force =     0.07567797    0.00033844   -0.02986842
     atom   25 type  1   force =     0.00019708   -0.00056081    0.10639799
     atom   26 type  1   force =    -0.00005794   -0.00025775   -0.16738919
     atom   27 type  2   force =    -0.00006148   -0.00031982   -0.03748683
     atom   28 type  2   force =     0.00006995   -0.00045888    0.03699433
     atom   29 type  2   force =    -0.00854329    0.00126269   -0.00514288
     atom   30 type  2   force =     0.00949712    0.00122507   -0.00686076
     atom   31 type  1   force =    -0.00129044   -0.00008224    0.02596137
     atom   32 type  1   force =     0.00115446   -0.02138201    0.06360184
     atom   33 type  2   force =    -0.00002169    0.00024911    0.00005027
     atom   34 type  2   force =    -0.00008304    0.00090791   -0.05931168
     atom   35 type  2   force =    -0.00006242    0.00008400   -0.00010993
     atom   36 type  2   force =    -0.00015149    0.00035866   -0.00012693
     atom   37 type  1   force =     0.00002714   -0.00031538   -0.00006727
     atom   38 type  1   force =    -0.00040979   -0.00009229   -0.00027805
     atom   39 type  2   force =    -0.00018800    0.00038833    0.00052663
     atom   40 type  2   force =     0.00045244    0.00009298   -0.00015892
     atom   41 type  2   force =    -0.00028077    0.00036348   -0.00000663
     atom   42 type  2   force =     0.00069383    0.00012220    0.00017878
     atom   43 type  1   force =    -0.00035346   -0.00006334   -0.00055824
     atom   44 type  1   force =     0.00068014   -0.00032985    0.00011181
     atom   45 type  2   force =     0.00002564   -0.00000260    0.10091597
     atom   46 type  2   force =    -0.07580036   -0.00010674   -0.02981507
     atom   47 type  2   force =     0.07566764    0.00032104   -0.02985179
     atom   48 type  3   force =    -0.02739752    0.00007914    0.00293301
     atom   49 type  4   force =     0.01995091    0.00129633   -0.00410523
     atom   50 type  5   force =     0.00116625   -0.00149516   -0.00061969
     atom   51 type  3   force =     0.00463720   -0.00009485    0.00065554
     atom   52 type  5   force =     0.00146509    0.00041608    0.00157713
     atom   53 type  2   force =    -0.00070284    0.00018170   -0.00064575
     atom   54 type  5   force =    -0.00018716    0.00011445    0.00039221
     atom   55 type  5   force =     0.00061038   -0.00044998    0.00036165

     Total force =     0.385067     Total SCF correction =     0.000574
  @ DRIVER MODE: Message from server: STATUS
  @ DRIVER MODE: Message from server: GETFORCE
  @ DRIVER MODE: Returning v,forces,stress,ensemble

     Writing output data file ./calc.save/
  @ DRIVER MODE: Message from server: EXIT
  @ DRIVE MODE: Exiting

     General routines

     Parallel routines

   This run was terminated on:  16:28: 2  15Sep2021

   JOB DONE.