     Program PWSCF v.6.7GPU starts on 22Sep2021 at 20:10: 9

     R & G space division:  proc/nbgrp/npool/nimage =      10
     Reading input from /storage/home/hcoda1/3/ntian30/research/carbon/CxH_vib/H2O_calc/ads_slab/CH2HO_a/out_0015/pw.inp
Warning: card &CELL ignored
Warning: card   CELL_DYNAMICS='IPI', ignored
Warning: card / ignored

     Current dimensions of program PWSCF are:
     Max number of different atomic species (ntypx) = 10
     Max number of k-points (npk) =  40000
     Max angular momentum in pseudopotentials (lmaxx) =  3
     Presently no symmetry can be used with electric field

     Message from routine cell_base_init:
     DEPRECATED: use true lattice parameter, not A to a.u. conversion factor

     IMPORTANT: XC functional enforced from input :
     Exchange-correlation= BEEF-VDW
                           (   1   4  43  14   2   0   0)
     Any further DFT definition will be discarded
     Please, verify this is what you really want

  @ DRIVER MODE: Connecting to
 qe_1139763_2937324.sched-torque.pace.gatech.edukzxymals_scratch
  using UNIX socket
  @ DRIVER MODE: Message from server: STATUS
  @ DRIVER MODE: Message from server: INIT
  @ DRIVER MODE: Receiving replica           0          -1
  @ DRIVER MODE: Receiving encoded integer          25
  @ DRIVER MODE:  SCF:  T  FORCE:  T  STRESS:  F  VC:  F  ENSEMBLE:  F
  @ DRIVER MODE:  SCF:  T  FORCE:  T  STRESS:  F  VC:  F  ENSEMBLE:  F

     Using Slab Decomposition

     bravais-lattice index     =            0
     lattice parameter (alat)  =       1.8897  a.u.
     unit-cell volume          =    6658.9804 (a.u.)^3
     number of atoms/cell      =           52
     number of atomic types    =            4
     number of electrons       =       391.00
     number of Kohn-Sham states=          205
     kinetic-energy cutoff     =      29.3995  Ry
     charge density cutoff     =     293.9946  Ry
     scf convergence threshold =      7.3E-08
     mixing beta               =       0.0500
     number of iterations used =            8  plain     mixing
     Exchange-correlation= BEEF-VDW
                           (   1   4  43  14   2   0   0)

     celldm(1)=   1.889726  celldm(2)=   0.000000  celldm(3)=   0.000000
     celldm(4)=   0.000000  celldm(5)=   0.000000  celldm(6)=   0.000000

     crystal axes: (cart. coord. in units of alat)
               a(1) = (   6.579727   0.000000   0.000000 )
               a(2) = (  -0.000775   5.961596   0.000000 )
               a(3) = (   0.000000   0.000000  25.155947 )

     reciprocal axes: (cart. coord. in units 2 pi/alat)
               b(1) = (  0.151982  0.000020  0.000000 )
               b(2) = (  0.000000  0.167740  0.000000 )
               b(3) = (  0.000000  0.000000  0.039752 )

     PseudoPot. # 1 for Ti read from file:
     /storage/coda1/p-amedford6/0/shared/rich_project_chbe-medford/medford-share/data/pseudos_module/espresso/nninc/pbe/van/Ti.UPF
     MD5 check sum: 8e4df49b7f0d34bbd5052bf3f5ea0213
     Pseudo is Ultrasoft, Zval = 12.0
     Generated by new atomic code, or converted to UPF format
     Using radial grid of  851 points,  6 beta functions with:
                l(1) =   0
                l(2) =   0
                l(3) =   1
                l(4) =   1
                l(5) =   2
                l(6) =   2
     Q(r) pseudized with  8 coefficients,  rinner =    1.000   1.000   1.000
                                                       1.000   1.000

     PseudoPot. # 2 for O  read from file:
     /storage/coda1/p-amedford6/0/shared/rich_project_chbe-medford/medford-share/data/pseudos_module/espresso/nninc/pbe/van/O.UPF
     MD5 check sum: 78c19812648e8988a0fe644b0f25305e
     Pseudo is Ultrasoft, Zval =  6.0
     Generated by new atomic code, or converted to UPF format
     Using radial grid of  737 points,  4 beta functions with:
                l(1) =   0
                l(2) =   0
                l(3) =   1
                l(4) =   1
     Q(r) pseudized with  8 coefficients,  rinner =    0.800   0.800   0.800

     PseudoPot. # 3 for C  read from file:
     /storage/coda1/p-amedford6/0/shared/rich_project_chbe-medford/medford-share/data/pseudos_module/espresso/nninc/pbe/van/C.UPF
     MD5 check sum: 1a69bf6b8db32088f5b2163dbdb77a27
     Pseudo is Ultrasoft, Zval =  4.0
     Generated by new atomic code, or converted to UPF format
     Using radial grid of  721 points,  4 beta functions with:
                l(1) =   0
                l(2) =   0
                l(3) =   1
                l(4) =   1
     Q(r) pseudized with  8 coefficients,  rinner =    0.800   0.800   0.800

     PseudoPot. # 4 for H  read from file:
     /storage/coda1/p-amedford6/0/shared/rich_project_chbe-medford/medford-share/data/pseudos_module/espresso/nninc/pbe/van/H.UPF
     MD5 check sum: b5ee9d7bfd3a09ee7748110bda690ff7
     Pseudo is Ultrasoft, Zval =  1.0
     Generated by new atomic code, or converted to UPF format
     Using radial grid of  615 points,  1 beta functions with:
                l(1) =   0
     Q(r) pseudized with  8 coefficients,  rinner =    0.800

     atomic species   valence    mass     pseudopotential
        Ti1           12.00    47.86700     Ti( 1.00)
        O1             6.00    15.99900     O ( 1.00)
        C1             4.00    12.01100     C ( 1.00)
        H1             1.00     1.00800     H ( 1.00)

     No symmetry found

   Cartesian axes

     site n.     atom                  positions (alat units)
         1           Ti1 tau(   1) = (   0.0004258   2.9801865   6.0000000  )
         2           Ti1 tau(   2) = (   3.2906075   1.4906267   6.0002472  )
         3           O1  tau(   3) = (   0.0006271   0.0005054   7.9858123  )
         4           O1  tau(   4) = (   3.2906025   0.0005020   7.3038282  )
         5           O1  tau(   5) = (   4.5942328   1.4918067   9.2879030  )
         6           O1  tau(   6) = (   1.9868534   1.4903216   9.2879459  )
         7           Ti1 tau(   7) = (   3.2576197   2.8654215   9.2214558  )
         8           Ti1 tau(   8) = (   6.5344909   1.4429808   9.3601258  )
         9           O1  tau(   9) = (   3.2692782   5.9266415  11.3199434  )
        10           O1  tau(  10) = (   6.5685443   5.9434748  10.5851361  )
        11           O1  tau(  11) = (   1.2543606   1.4786140  12.6270584  )
        12           O1  tau(  12) = (   5.2804994   1.4734118  12.6291387  )
        13           Ti1 tau(  13) = (   6.5561640   2.8465321  12.8092297  )
        14           Ti1 tau(  14) = (   3.2590950   1.2910582  12.6820668  )
        15           O1  tau(  15) = (   6.5637791   5.9505241  14.6246090  )
        16           O1  tau(  16) = (   3.2632455   0.0300109  13.9168947  )
        17           O1  tau(  17) = (   4.5093043   1.5331652  16.1230905  )
        18           O1  tau(  18) = (   1.9844652   1.5452522  16.1286669  )
        19           Ti1 tau(  19) = (   3.2766647   3.0056044  15.6806532  )
        20           Ti1 tau(  20) = (   0.0376264   1.5104518  16.1289793  )
        21           O1  tau(  21) = (   3.2904802   0.0005063   4.7018136  )
        22           O1  tau(  22) = (   6.5370995   5.9187843  17.1758003  )
        23           O1  tau(  23) = (   1.3043587   1.4918075   6.0039043  )
        24           O1  tau(  24) = (   5.2767064   1.4903225   6.0039473  )
        25           Ti1 tau(  25) = (   0.0000382   5.9609847   6.0000000  )
        26           Ti1 tau(  26) = (   3.2902200   4.4714249   6.0002472  )
        27           O1  tau(  27) = (   0.0002396   2.9813036   7.9858123  )
        28           O1  tau(  28) = (   3.2902150   2.9813002   7.3038282  )
        29           O1  tau(  29) = (   4.5938453   4.4726049   9.2879030  )
        30           O1  tau(  30) = (   1.9864658   4.4711199   9.2879459  )
        31           Ti1 tau(  31) = (   3.2565375   5.8496818   9.1814359  )
        32           Ti1 tau(  32) = (   6.5349656   4.3900073   9.3400910  )
        33           O1  tau(  33) = (   3.2728704   3.0037829  11.2907943  )
        34           O1  tau(  34) = (   6.5689136   2.9626257  10.5472476  )
        35           O1  tau(  35) = (   1.2549189   4.4436098  12.6280720  )
        36           O1  tau(  36) = (   5.2752285   4.4450423  12.6314263  )
        37           Ti1 tau(  37) = (   6.5445616   5.8332433  12.5976854  )
        38           Ti1 tau(  38) = (   3.2543598   4.3897341  12.4334224  )
        39           O1  tau(  39) = (   6.5579435   2.9355163  14.7117218  )
        40           O1  tau(  40) = (   3.2602875   2.9656724  13.9017019  )
        41           O1  tau(  41) = (   4.5395605   4.4315404  16.0360363  )
        42           O1  tau(  42) = (   2.0063696   4.4444213  16.0824092  )
        43           Ti1 tau(  43) = (   3.2990179   0.0081159  16.3450624  )
        44           Ti1 tau(  44) = (   6.5722952   4.6241161  15.8901152  )
        45           O1  tau(  45) = (   3.2900926   2.9813045   4.7018136  )
        46           O1  tau(  46) = (   1.3039711   4.4726057   6.0039043  )
        47           O1  tau(  47) = (   5.2763189   4.4711207   6.0039473  )
        48           C1  tau(  48) = (   6.5366691   2.9215611  17.7332970  )
        49           H1  tau(  49) = (   0.8393079   3.1163452  18.3454380  )
        50           H1  tau(  50) = (   5.6239513   3.0993896  18.3013171  )
        51           O1  tau(  51) = (   3.3457726   5.9061862  18.1608053  )
        52           H1  tau(  52) = (   4.0847859   0.3069366  18.6733355  )

     number of k points=    10  Fermi-Dirac smearing, width (Ry)=  0.0073
                       cart. coord. in units 2pi/alat
        k(    1) = (   0.0000000   0.0000000   0.0000000), wk =   0.1250000
        k(    2) = (   0.0000000   0.0419351   0.0000000), wk =   0.2500000
        k(    3) = (   0.0000000  -0.0838702   0.0000000), wk =   0.1250000
        k(    4) = (   0.0379955   0.0000049   0.0000000), wk =   0.2500000
        k(    5) = (   0.0379955   0.0419400   0.0000000), wk =   0.2500000
        k(    6) = (   0.0379955  -0.0838652   0.0000000), wk =   0.2500000
        k(    7) = (   0.0379955  -0.0419301   0.0000000), wk =   0.2500000
        k(    8) = (  -0.0759910  -0.0000099   0.0000000), wk =   0.1250000
        k(    9) = (  -0.0759910   0.0419252   0.0000000), wk =   0.2500000
        k(   10) = (  -0.0759910  -0.0838800   0.0000000), wk =   0.1250000

     Initial potential from superposition of free atoms

     starting charge  374.99918, renormalised to  391.00000

     negative rho (up, down):  1.929E-02 0.000E+00

     %%%%%%%%%%%%%%%%%%%%%%%%%%%%%%%%%%%%%%%%%%%%%%%%%%%%%%%%%%%%%%%%%%%%%%%%
     %                                                                      %
     % You are using vdW-DF, which was implemented by the Thonhauser group. %
     % Please cite the following two papers that made this development      %
     % possible and the two reviews that describe the various versions:     %
     %                                                                      %
     %   T. Thonhauser et al., PRL 115, 136402 (2015).                      %
     %   T. Thonhauser et al., PRB 76, 125112 (2007).                       %
     %   K. Berland et al., Rep. Prog. Phys. 78, 066501 (2015).             %
     %   D.C. Langreth et al., J. Phys.: Condens. Matter 21, 084203 (2009). %
     %                                                                      %
     %                                                                      %
     % If you are calculating the stress with vdW-DF, please also cite:     %
     %                                                                      %
     %   R. Sabatini et al., J. Phys.: Condens. Matter 24, 424209 (2012).   %
     %                                                                      %
     %%%%%%%%%%%%%%%%%%%%%%%%%%%%%%%%%%%%%%%%%%%%%%%%%%%%%%%%%%%%%%%%%%%%%%%%

     Adding external electric field

     Computed dipole along edir(3) :
        Dipole               -4.4316 Ry au,        -11.2641 Debye
        Dipole field         -0.0084 Ry au,

        Potential amp.        0.7752 Ry
        Total length         46.3494 bohr

     Starting wfcs are  295 atomic wfcs
  @ DRIVER MODE: Message from server: STATUS
  @ DRIVER MODE: Message from server: POSDATA
  @ DRIVER MODE: Reading and sharing cell
  @ DRIVER MODE: Reading and sharing positions
  @ DRIVER MODE: Received positions

     Self-consistent Calculation

     iteration #  1     ecut=    29.40 Ry     beta= 0.05
     Davidson diagonalization with overlap
     c_bands:  4 eigenvalues not converged
     c_bands:  2 eigenvalues not converged
     c_bands:  2 eigenvalues not converged
     c_bands:  2 eigenvalues not converged
     c_bands:  2 eigenvalues not converged
     c_bands:  1 eigenvalues not converged
     c_bands:  3 eigenvalues not converged
     c_bands:  1 eigenvalues not converged
     c_bands:  3 eigenvalues not converged
     ethr =  1.00E-05,  avg # of iterations = 20.0

[...]

     total energy              =   -2883.51953607 Ry
     estimated scf accuracy    <     546.29689488 Ry

     iteration #  2     ecut=    29.40 Ry     beta= 0.05
     Davidson diagonalization with overlap
     ethr =  1.00E-02,  avg # of iterations = 14.2

[...]

     iteration # 27     ecut=    29.40 Ry     beta= 0.05
     Davidson diagonalization with overlap
     c_bands:  1 eigenvalues not converged
     ethr =  5.63E-07,  avg # of iterations =  8.4

[...]

     total energy              =   -2931.27743694 Ry
     estimated scf accuracy    <       0.00000009 Ry

     iteration # 52     ecut=    29.40 Ry     beta= 0.05
     Davidson diagonalization with overlap
     ethr =  2.35E-11,  avg # of iterations =  5.8

     negative rho (up, down):  1.858E-02 0.000E+00

     Adding external electric field

     Computed dipole along edir(3) :
        Dipole                0.4337 Ry au,          1.1023 Debye
        Dipole field          0.0008 Ry au,

        Potential amp.       -0.0759 Ry
        Total length         46.3494 bohr

     End of self-consistent calculation

          k = 0.0000 0.0000 0.0000 ( 18029 PWs)   bands (ev):

   -56.6089 -56.5588 -56.1474 -56.0373 -55.9951 -55.9382 -55.9117 -55.8964
   -55.8536 -55.8121 -55.7826 -55.7256 -55.6785 -55.6095 -55.2184 -55.1845
   -33.0206 -32.8738 -32.8194 -32.7876 -32.6919 -32.6467 -32.4982 -32.4855
   -32.4659 -32.4028 -32.3720 -32.3501 -32.3071 -32.2845 -32.2660 -32.2422
   -32.2382 -32.2231 -32.2092 -32.1435 -32.1408 -32.1275 -32.1248 -32.1114
   -32.0989 -32.0938 -32.0889 -32.0859 -32.0602 -32.0399 -32.0163 -31.9990
   -31.9932 -31.9837 -31.9826 -31.9730 -31.9260 -31.8702 -31.8437 -31.8382
   -31.8213 -31.7885 -31.6130 -31.5588 -31.5344 -31.4296 -31.3446 -31.2339
   -16.9543 -16.7665 -16.6230 -16.3995 -16.2552 -16.1510 -15.9350 -15.9245
   -15.8027 -15.7854 -15.7608 -15.6294 -15.6163 -15.5998 -15.5599 -15.5387
   -15.5307 -15.5287 -15.5172 -15.4909 -15.4588 -15.4378 -15.3979 -15.3163
   -15.2411 -15.2337 -15.1984 -15.1428 -15.0795 -14.8600 -13.7213 -13.6129
    -8.9160  -4.6508  -4.2910  -4.0783  -3.9699  -3.8924  -3.7859  -3.6324
    -3.4334  -3.2946  -3.2464  -3.2083  -3.1604  -3.1466  -3.1234  -3.0810
    -3.0323  -2.9803  -2.9509  -2.8892  -2.8647  -2.8254  -2.7885  -2.7634
    -2.7480  -2.7307  -2.7233  -2.5902  -2.5240  -2.5138  -2.4668  -2.4648
    -2.4066  -2.3898  -2.3661  -2.3168  -2.2826  -2.1874  -2.1290  -2.0959
    -2.0508  -1.8288  -1.8104  -1.7448  -1.6704  -1.6176  -1.5593  -1.5165
    -1.4632  -1.4343  -1.3746  -1.3339  -1.2859  -1.2619  -1.2225  -1.1550
    -1.1350  -1.0999  -1.0386  -0.9627  -0.9170  -0.8484  -0.7823  -0.7449
    -0.6901  -0.6813  -0.6513  -0.5605  -0.4770  -0.4568  -0.4237  -0.3819
    -0.3655  -0.2940  -0.2809  -0.2381  -0.2220  -0.1453  -0.1303  -0.1008
    -0.0683  -0.0457  -0.0242   0.0422   0.1643   0.2322   0.2752   0.3132
     0.3294   0.4150   0.4347   0.5226   0.6778   0.7980   0.8372   1.0076
     1.0601   1.3487   1.3947   1.9251   2.6926   2.8571   3.1427   3.2455
     3.2815   3.3581   3.4025   3.4339   3.6666

[...]

          k = 0.0380-0.0419 0.0000 ( 17876 PWs)   bands (ev):

[...]

          k =-0.0760-0.0000 0.0000 ( 17886 PWs)   bands (ev):

[...]

          k =-0.0760-0.0839 0.0000 ( 17948 PWs)   bands (ev):

   -56.6024 -56.5651 -56.1466 -56.0349 -55.9891 -55.9441 -55.9139 -55.8970
   -55.8448 -55.8209 -55.7810 -55.7194 -55.6846 -55.6110 -55.2017 -55.2011
   -32.8696 -32.8532 -32.8234 -32.8212 -32.7542 -32.7224 -32.4235 -32.3799
   -32.3673 -32.3508 -32.3339 -32.2907 -32.2678 -32.2607 -32.2499 -32.2301
   -32.2146 -32.2022 -32.1913 -32.1826 -32.1631 -32.1622 -32.1398 -32.1361
   -32.1349 -32.1237 -32.1089 -32.1051 -32.0721 -32.0675 -32.0543 -32.0416
   -32.0027 -31.9947 -31.9871 -31.9868 -31.9537 -31.9298 -31.9102 -31.8718
   -31.8245 -31.8119 -31.5476 -31.5473 -31.4285 -31.4267 -31.3868 -31.3859
   -16.9423 -16.1449 -16.0833 -16.0738 -16.0606 -16.0307 -15.9892 -15.9177
   -15.9157 -15.8183 -15.7912 -15.7474 -15.7095 -15.6974 -15.6513 -15.6383
   -15.6260 -15.5630 -15.5208 -15.5020 -15.4864 -15.4739 -15.4530 -15.4282
   -15.4166 -15.3965 -15.3290 -15.2476 -15.2168 -15.0021 -13.7173 -13.7160
    -8.9238  -4.6421  -3.3821  -3.3274  -3.2485  -3.2312  -3.2220  -3.1497
    -3.0936  -3.0885  -3.0307  -3.0173  -2.9740  -2.9445  -2.9147  -2.9087
    -2.9016  -2.8919  -2.8783  -2.8546  -2.8005  -2.7977  -2.7799  -2.7707
    -2.7545  -2.7385  -2.7061  -2.6653  -2.6345  -2.6104  -2.5317  -2.4252
    -2.4195  -2.3871  -2.3546  -2.3221  -2.2803  -2.2589  -2.1825  -2.1750
    -2.1590  -2.1093  -2.0111  -1.7787  -1.7703  -1.7170  -1.6828  -1.6742
    -1.6117  -1.5422  -1.5354  -1.4509  -1.4477  -1.4342  -1.3341  -1.3161
    -1.2831  -1.2645  -1.2385  -1.2095  -1.1069  -1.0848  -1.0772  -1.0456
    -1.0002  -0.9794  -0.8876  -0.8691  -0.8512  -0.8232  -0.7410  -0.6888
    -0.6496  -0.6315  -0.4936  -0.4462  -0.4350  -0.2826  -0.2302  -0.1965
    -0.1745  -0.0878   0.0160   0.0563   0.1135   0.1606   0.2198   0.3265
     0.3390   0.3616   0.4265   0.4654   0.4730   0.4884   0.5654   1.1921
     1.1928   1.2009   1.2079   2.0839   3.2339   3.2593   3.2714   3.3049
     3.5175   3.5412   3.5519   3.6100   3.6513

     the Fermi energy is     2.0048 ev

!    total energy              =   -2931.27752294 Ry
     estimated scf accuracy    <       0.00000006 Ry
     smearing contrib. (-TS)   =      -0.01004759 Ry
     internal energy E=F+TS    =   -2931.26747535 Ry

     The total energy is F=E-TS. E is the sum of the following terms:
     one-electron contribution =  -24332.06636250 Ry
     hartree contribution      =   12249.82058704 Ry
     xc contribution           =    -481.70135998 Ry
     ewald contribution        =    9632.67930519 Ry
     electric field correction =       0.00035490 Ry

     convergence has been achieved in  52 iterations

     Forces acting on atoms (cartesian axes, Ry/au):

     atom    1 type  1   force =     0.00036066   -0.00077875    0.13238437
     atom    2 type  1   force =     0.00014355    0.00690649   -0.15725781
     atom    3 type  2   force =    -0.00018570    0.00281862   -0.05348672
     atom    4 type  2   force =    -0.00072745   -0.00116860    0.04119250
     atom    5 type  2   force =    -0.01140482   -0.00238581    0.00284433
     atom    6 type  2   force =     0.00918542   -0.00643899    0.00177413
     atom    7 type  1   force =     0.00043969    0.00029740   -0.00039491
     atom    8 type  1   force =     0.00019333   -0.00002665    0.00092912
     atom    9 type  2   force =    -0.00002097    0.00043584    0.00040012
     atom   10 type  2   force =     0.00025496    0.00023324   -0.00010999
     atom   11 type  2   force =     0.00050763    0.00033717    0.00027076
     atom   12 type  2   force =    -0.00014661    0.00027697   -0.00025043
     atom   13 type  1   force =    -0.00026280   -0.00046708   -0.00090973
     atom   14 type  1   force =     0.00020885    0.00050279   -0.00024631
     atom   15 type  2   force =     0.00006536   -0.00015085    0.00146795
     atom   16 type  2   force =     0.00048548   -0.00018654    0.00008353
     atom   17 type  2   force =     0.00026602   -0.00026684   -0.00036506
     atom   18 type  2   force =    -0.00107414   -0.00027016   -0.00023829
     atom   19 type  1   force =     0.00109548   -0.00002513   -0.00023437
     atom   20 type  1   force =    -0.00023191    0.00030982   -0.00043244
     atom   21 type  2   force =     0.00021055    0.00008752    0.09898065
     atom   22 type  2   force =     0.00004470    0.00097295   -0.00104358
     atom   23 type  2   force =    -0.08050186    0.00137019   -0.03417611
     atom   24 type  2   force =     0.08057682    0.00190133   -0.03418522
     atom   25 type  1   force =     0.00030687   -0.00010913    0.14245102
     atom   26 type  1   force =     0.00016813   -0.00836459   -0.15752158
     atom   27 type  2   force =    -0.00039217   -0.00117155   -0.05198433
     atom   28 type  2   force =    -0.00064061   -0.00037887    0.04299063
     atom   29 type  2   force =    -0.01011333    0.00503420    0.00017323
     atom   30 type  2   force =     0.00778828    0.00127844   -0.00111073
     atom   31 type  1   force =     0.00010340    0.00000821   -0.00026278
     atom   32 type  1   force =     0.00009539   -0.00044381    0.00096339
     atom   33 type  2   force =     0.00003626   -0.00033550   -0.00006751
     atom   34 type  2   force =     0.00024660    0.00012805   -0.00024788
     atom   35 type  2   force =    -0.00050200    0.00034538    0.00019340
     atom   36 type  2   force =     0.00130796    0.00030852   -0.00024167
     atom   37 type  1   force =     0.00000707   -0.00019526   -0.00042748
     atom   38 type  1   force =     0.00028986   -0.00009144   -0.00018233
     atom   39 type  2   force =     0.00003829    0.00009504    0.00010207
     atom   40 type  2   force =     0.00040226    0.00010446   -0.00035875
     atom   41 type  2   force =    -0.00101285    0.00007092   -0.00006553
     atom   42 type  2   force =     0.00036893    0.00031868   -0.00023941
     atom   43 type  1   force =     0.00110976    0.00041621    0.00026631
     atom   44 type  1   force =    -0.00035380    0.00019991   -0.00007679
     atom   45 type  2   force =     0.00020103    0.00000081    0.09855540
     atom   46 type  2   force =    -0.08048864   -0.00109788   -0.03415939
     atom   47 type  2   force =     0.08058026   -0.00056112   -0.03424297
     atom   48 type  3   force =     0.00171862   -0.00061556   -0.00133714
     atom   49 type  4   force =    -0.00043984    0.00004982    0.00006972
     atom   50 type  4   force =    -0.00137124    0.00091130    0.00105939
     atom   51 type  2   force =    -0.00003553    0.00056367   -0.00131420
     atom   52 type  4   force =     0.00109881   -0.00075385    0.00001945

     Total force =     0.383711     Total SCF correction =     0.000380
  @ DRIVER MODE: Message from server: STATUS
  @ DRIVER MODE: Message from server: GETFORCE
  @ DRIVER MODE: Returning v,forces,stress,ensemble

     Writing output data file ./calc.save/
  @ DRIVER MODE: Message from server: EXIT
  @ DRIVE MODE: Exiting

     General routines

     Parallel routines

   This run was terminated on:  20:23:33  22Sep2021

   JOB DONE.