     Program PWSCF v.6.7GPU starts on 12Oct2021 at 12:47:58

     R & G space division:  proc/nbgrp/npool/nimage =       8
     Reading input from /storage/home/hcoda1/3/ntian30/research/carbon/CxH_vib/CH_calc/ads_slab/CHNHH_b/out_0004/pw.inp
Warning: card &CELL ignored
Warning: card   CELL_DYNAMICS='IPI', ignored
Warning: card / ignored

     Current dimensions of program PWSCF are:
     Max number of different atomic species (ntypx) = 10
     Max number of k-points (npk) =  40000
     Max angular momentum in pseudopotentials (lmaxx) =  3
     Presently no symmetry can be used with electric field

     Message from routine cell_base_init:
     DEPRECATED: use true lattice parameter, not A to a.u. conversion factor

     IMPORTANT: XC functional enforced from input :
     Exchange-correlation= BEEF-VDW
                           (   1   4  43  14   2   0   0)
     Any further DFT definition will be discarded
     Please, verify this is what you really want

  @ DRIVER MODE: Connecting to
 qe_1139763_3182856.sched-torque.pace.gatech.edugrhgn4_w_scratch
  using UNIX socket
  @ DRIVER MODE: Message from server: STATUS
  @ DRIVER MODE: Message from server: INIT
  @ DRIVER MODE: Receiving replica           0          -1
  @ DRIVER MODE: Receiving encoded integer          25
  @ DRIVER MODE:  SCF:  T  FORCE:  T  STRESS:  F  VC:  F  ENSEMBLE:  F
  @ DRIVER MODE:  SCF:  T  FORCE:  T  STRESS:  F  VC:  F  ENSEMBLE:  F

     Using Slab Decomposition

     bravais-lattice index     =            0
     lattice parameter (alat)  =       1.8897  a.u.
     unit-cell volume          =    6658.9804 (a.u.)^3
     number of atoms/cell      =           52
     number of atomic types    =            5
     number of electrons       =       390.00
     number of Kohn-Sham states=          205
     kinetic-energy cutoff     =      29.3995  Ry
     charge density cutoff     =     293.9946  Ry
     scf convergence threshold =      7.3E-08
     mixing beta               =       0.0500
     number of iterations used =            8  plain     mixing
     Exchange-correlation= BEEF-VDW
                           (   1   4  43  14   2   0   0)

     celldm(1)=   1.889726  celldm(2)=   0.000000  celldm(3)=   0.000000
     celldm(4)=   0.000000  celldm(5)=   0.000000  celldm(6)=   0.000000

     crystal axes: (cart. coord. in units of alat)
               a(1) = (   6.579727   0.000000   0.000000 )
               a(2) = (  -0.000775   5.961596   0.000000 )
               a(3) = (   0.000000   0.000000  25.155947 )

     reciprocal axes: (cart. coord. in units 2 pi/alat)
               b(1) = (  0.151982  0.000020  0.000000 )
               b(2) = (  0.000000  0.167740  0.000000 )
               b(3) = (  0.000000  0.000000  0.039752 )

     PseudoPot. # 1 for Ti read from file:
     /storage/coda1/p-amedford6/0/shared/rich_project_chbe-medford/medford-share/data/pseudos_module/espresso/nninc/pbe/van/Ti.UPF
     MD5 check sum: 8e4df49b7f0d34bbd5052bf3f5ea0213
     Pseudo is Ultrasoft, Zval = 12.0
     Generated by new atomic code, or converted to UPF format
     Using radial grid of  851 points,  6 beta functions with:
                l(1) =   0
                l(2) =   0
                l(3) =   1
                l(4) =   1
                l(5) =   2
                l(6) =   2
     Q(r) pseudized with  8 coefficients,  rinner =    1.000   1.000   1.000
                                                       1.000   1.000

     PseudoPot. # 2 for O  read from file:
     /storage/coda1/p-amedford6/0/shared/rich_project_chbe-medford/medford-share/data/pseudos_module/espresso/nninc/pbe/van/O.UPF
     MD5 check sum: 78c19812648e8988a0fe644b0f25305e
     Pseudo is Ultrasoft, Zval =  6.0
     Generated by new atomic code, or converted to UPF format
     Using radial grid of  737 points,  4 beta functions with:
                l(1) =   0
                l(2) =   0
                l(3) =   1
                l(4) =   1
     Q(r) pseudized with  8 coefficients,  rinner =    0.800   0.800   0.800

     PseudoPot. # 3 for C  read from file:
     /storage/coda1/p-amedford6/0/shared/rich_project_chbe-medford/medford-share/data/pseudos_module/espresso/nninc/pbe/van/C.UPF
     MD5 check sum: 1a69bf6b8db32088f5b2163dbdb77a27
     Pseudo is Ultrasoft, Zval =  4.0
     Generated by new atomic code, or converted to UPF format
     Using radial grid of  721 points,  4 beta functions with:
                l(1) =   0
                l(2) =   0
                l(3) =   1
                l(4) =   1
     Q(r) pseudized with  8 coefficients,  rinner =    0.800   0.800   0.800

     PseudoPot. # 4 for H  read from file:
     /storage/coda1/p-amedford6/0/shared/rich_project_chbe-medford/medford-share/data/pseudos_module/espresso/nninc/pbe/van/H.UPF
     MD5 check sum: b5ee9d7bfd3a09ee7748110bda690ff7
     Pseudo is Ultrasoft, Zval =  1.0
     Generated by new atomic code, or converted to UPF format
     Using radial grid of  615 points,  1 beta functions with:
                l(1) =   0
     Q(r) pseudized with  8 coefficients,  rinner =    0.800

     PseudoPot. # 5 for N  read from file:
     /storage/coda1/p-amedford6/0/shared/rich_project_chbe-medford/medford-share/data/pseudos_module/espresso/nninc/pbe/van/N.UPF
     MD5 check sum: 90d10febe142ad51ac9d5be1deb811c4
     Pseudo is Ultrasoft, Zval =  5.0
     Generated by new atomic code, or converted to UPF format
     Using radial grid of  729 points,  4 beta functions with:
                l(1) =   0
                l(2) =   0
                l(3) =   1
                l(4) =   1
     Q(r) pseudized with  8 coefficients,  rinner =    0.800   0.800   0.800

     atomic species   valence    mass     pseudopotential
        Ti1           12.00    47.86700     Ti( 1.00)
        O1             6.00    15.99900     O ( 1.00)
        C1             4.00    12.01100     C ( 1.00)
        H1             1.00     1.00800     H ( 1.00)
        N1             5.00    14.00700     N ( 1.00)

     No symmetry found

   Cartesian axes

     site n.     atom                  positions (alat units)
         1           Ti1 tau(   1) = (   0.0004258   2.9801865   6.0000000  )
         2           Ti1 tau(   2) = (   3.2906075   1.4906267   6.0002472  )
         3           O1  tau(   3) = (   0.0006271   0.0005054   7.9858123  )
         4           O1  tau(   4) = (   3.2906025   0.0005020   7.3038282  )
         5           O1  tau(   5) = (   4.5942328   1.4918067   9.2879030  )
         6           O1  tau(   6) = (   1.9868534   1.4903216   9.2879459  )
         7           Ti1 tau(   7) = (   3.2907309   2.9776765   9.1658812  )
         8           Ti1 tau(   8) = (   0.0014263   1.4814950   9.2876947  )
         9           O1  tau(   9) = (   3.2944750   0.0002302  11.3604974  )
        10           O1  tau(  10) = (   0.0008895   5.9586890  10.6035392  )
        11           O1  tau(  11) = (   1.2972031   1.4939413  12.6393260  )
        12           O1  tau(  12) = (   5.2935702   1.4970258  12.6342454  )
        13           Ti1 tau(  13) = (   6.5783930   2.9813526  12.8381062  )
        14           Ti1 tau(  14) = (   3.2906537   1.4978773  12.4963327  )
        15           O1  tau(  15) = (   6.5733175   0.0290402  14.6574804  )
        16           O1  tau(  16) = (   3.3054662   0.0216765  13.9740687  )
        17           O1  tau(  17) = (   4.5350609   1.5403548  16.2059549  )
        18           O1  tau(  18) = (   2.0349166   1.5291342  16.1470642  )
        19           Ti1 tau(  19) = (   3.2872240   3.0047607  15.7234092  )
        20           Ti1 tau(  20) = (   0.0410825   1.5194215  16.1276637  )
        21           O1  tau(  21) = (   3.2904802   0.0005063   4.7018136  )
        22           O1  tau(  22) = (   6.5652676   5.8907541  17.2497628  )
        23           O1  tau(  23) = (   1.3043587   1.4918075   6.0039043  )
        24           O1  tau(  24) = (   5.2767064   1.4903225   6.0039473  )
        25           Ti1 tau(  25) = (   0.0000382   5.9609847   6.0000000  )
        26           Ti1 tau(  26) = (   3.2902200   4.4714249   6.0002472  )
        27           O1  tau(  27) = (   0.0002396   2.9813036   7.9858123  )
        28           O1  tau(  28) = (   3.2902150   2.9813002   7.3038282  )
        29           O1  tau(  29) = (   4.5938453   4.4726049   9.2879030  )
        30           O1  tau(  30) = (   1.9864658   4.4711199   9.2879459  )
        31           Ti1 tau(  31) = (   3.2906741   5.9584693   9.1623309  )
        32           Ti1 tau(  32) = (   0.0012165   4.4014169   9.3465426  )
        33           O1  tau(  33) = (   3.2924083   2.9889881  11.3543434  )
        34           O1  tau(  34) = (   0.0022264   2.9772995  10.5544931  )
        35           O1  tau(  35) = (   1.2986444   4.4679898  12.6568800  )
        36           O1  tau(  36) = (   5.2923799   4.4657857  12.6543205  )
        37           Ti1 tau(  37) = (   0.0025552   0.0092372  12.5181211  )
        38           Ti1 tau(  38) = (   3.2887235   4.4740353  12.4983661  )
        39           O1  tau(  39) = (   0.0036310   2.9570434  14.7349056  )
        40           O1  tau(  40) = (   3.2990611   2.9752856  13.9364830  )
        41           O1  tau(  41) = (   4.5418486   4.4722619  16.1017917  )
        42           O1  tau(  42) = (   2.0452692   4.4787779  16.1069431  )
        43           Ti1 tau(  43) = (   3.3182015   0.0155015  15.7624703  )
        44           Ti1 tau(  44) = (   0.0016332   4.6944760  15.9151726  )
        45           O1  tau(  45) = (   3.2900926   2.9813045   4.7018136  )
        46           C1  tau(  46) = (   0.0781255   2.7894620  17.8686468  )
        47           O1  tau(  47) = (   1.3039711   4.4726057   6.0039043  )
        48           O1  tau(  48) = (   5.2763189   4.4811207   6.0039473  )
        49           H1  tau(  49) = (   0.9954384   3.2332450  18.2619424  )
        50           H1  tau(  50) = (   4.7724221   2.4647446  18.5698542  )
        51           N1  tau(  51) = (   5.6845287   2.8438018  18.7814782  )
        52           H1  tau(  52) = (   5.7759989   3.3395087  19.6567880  )

     number of k points=    10  Fermi-Dirac smearing, width (Ry)=  0.0073
                       cart. coord. in units 2pi/alat
        k(    1) = (   0.0000000   0.0000000   0.0000000), wk =   0.1250000
        k(    2) = (   0.0000000   0.0419351   0.0000000), wk =   0.2500000
        k(    3) = (   0.0000000  -0.0838702   0.0000000), wk =   0.1250000
        k(    4) = (   0.0379955   0.0000049   0.0000000), wk =   0.2500000
        k(    5) = (   0.0379955   0.0419400   0.0000000), wk =   0.2500000
        k(    6) = (   0.0379955  -0.0838652   0.0000000), wk =   0.2500000
        k(    7) = (   0.0379955  -0.0419301   0.0000000), wk =   0.2500000
        k(    8) = (  -0.0759910  -0.0000099   0.0000000), wk =   0.1250000
        k(    9) = (  -0.0759910   0.0419252   0.0000000), wk =   0.2500000
        k(   10) = (  -0.0759910  -0.0838800   0.0000000), wk =   0.1250000

     Initial potential from superposition of free atoms

     starting charge  373.99917, renormalised to  390.00000

     negative rho (up, down):  1.780E-02 0.000E+00

     %%%%%%%%%%%%%%%%%%%%%%%%%%%%%%%%%%%%%%%%%%%%%%%%%%%%%%%%%%%%%%%%%%%%%%%%
     %                                                                      %
     % You are using vdW-DF, which was implemented by the Thonhauser group. %
     % Please cite the following two papers that made this development      %
     % possible and the two reviews that describe the various versions:     %
     %                                                                      %
     %   T. Thonhauser et al., PRL 115, 136402 (2015).                      %
     %   T. Thonhauser et al., PRB 76, 125112 (2007).                       %
     %   K. Berland et al., Rep. Prog. Phys. 78, 066501 (2015).             %
     %   D.C. Langreth et al., J. Phys.: Condens. Matter 21, 084203 (2009). %
     %                                                                      %
     %                                                                      %
     % If you are calculating the stress with vdW-DF, please also cite:     %
     %                                                                      %
     %   R. Sabatini et al., J. Phys.: Condens. Matter 24, 424209 (2012).   %
     %                                                                      %
     %%%%%%%%%%%%%%%%%%%%%%%%%%%%%%%%%%%%%%%%%%%%%%%%%%%%%%%%%%%%%%%%%%%%%%%%

     Adding external electric field

     Computed dipole along edir(3) :
        Dipole               -5.3776 Ry au,        -13.6685 Debye
        Dipole field         -0.0101 Ry au,

        Potential amp.        0.9407 Ry
        Total length         46.3494 bohr

     Starting wfcs are  295 atomic wfcs
  @ DRIVER MODE: Message from server: STATUS
  @ DRIVER MODE: Message from server: POSDATA
  @ DRIVER MODE: Reading and sharing cell
  @ DRIVER MODE: Reading and sharing positions
  @ DRIVER MODE: Received positions

     Self-consistent Calculation

     iteration #  1     ecut=    29.40 Ry     beta= 0.05
     Davidson diagonalization with overlap
     c_bands:  5 eigenvalues not converged
     c_bands:  1 eigenvalues not converged
     c_bands:  2 eigenvalues not converged
     c_bands:  5 eigenvalues not converged
     c_bands:  1 eigenvalues not converged
     c_bands:  5 eigenvalues not converged
     c_bands:  1 eigenvalues not converged
     ethr =  1.00E-05,  avg # of iterations = 20.9

[...]

     total energy              =   -2826.74735866 Ry
     estimated scf accuracy    <    1027.97677865 Ry

     iteration #  2     ecut=    29.40 Ry     beta= 0.05
     Davidson diagonalization with overlap
     ethr =  1.00E-02,  avg # of iterations = 16.0

[...]

     iteration # 73     ecut=    29.40 Ry     beta= 0.05
     Davidson diagonalization with overlap
     c_bands:  1 eigenvalues not converged
     ethr =  3.96E-10,  avg # of iterations = 12.3

[...]

     total energy              =   -2919.05160122 Ry
     estimated scf accuracy    <       0.00000009 Ry

     iteration # 80     ecut=    29.40 Ry     beta= 0.05
     Davidson diagonalization with overlap
     ethr =  2.32E-11,  avg # of iterations = 13.1

     negative rho (up, down):  1.780E-02 0.000E+00

     Adding external electric field

     Computed dipole along edir(3) :
        Dipole                1.2288 Ry au,          3.1233 Debye
        Dipole field          0.0023 Ry au,

        Potential amp.       -0.2150 Ry
        Total length         46.3494 bohr

     End of self-consistent calculation

          k = 0.0000 0.0000 0.0000 ( 18029 PWs)   bands (ev):

   -55.6415 -55.6194 -55.5939 -55.5831 -55.5439 -55.5002 -55.4512 -55.4432
   -55.3951 -55.3822 -55.3602 -55.2979 -55.0194 -54.9620 -54.6199 -54.5858
   -32.1896 -32.0995 -31.9700 -31.9592 -31.9538 -31.9333 -31.8894 -31.8800
   -31.8664 -31.8505 -31.8325 -31.8234 -31.8020 -31.8004 -31.7677 -31.7662
   -31.7489 -31.7214 -31.7170 -31.7030 -31.6807 -31.6673 -31.6614 -31.6433
   -31.6422 -31.6301 -31.6138 -31.6006 -31.5923 -31.5816 -31.5500 -31.5479
   -31.5325 -31.5077 -31.4908 -31.4870 -31.4562 -31.3717 -31.3163 -31.2518
   -31.0756 -31.0396 -31.0292 -30.9344 -30.9118 -30.8454 -30.7591 -30.6484
   -16.5532 -16.3765 -16.0728 -15.9471 -15.7837 -15.7433 -15.6638 -15.4503
   -15.3314 -15.2585 -15.2389 -15.2234 -15.2045 -15.1956 -15.1524 -15.1395
   -15.1187 -15.0726 -15.0510 -15.0210 -15.0155 -14.9926 -14.9379 -14.8962
   -14.8950 -14.7772 -14.7361 -14.6104 -14.5714 -14.4307 -13.1224 -13.0049
    -9.1573  -6.8795  -4.3914  -3.7310  -3.5386  -3.5102  -3.5047  -3.4335
    -3.2094  -3.1876  -2.8559  -2.7967  -2.7870  -2.7534  -2.7358  -2.5924
    -2.5408  -2.4774  -2.4400  -2.4297  -2.4231  -2.4085  -2.3891  -2.3581
    -2.3435  -2.3163  -2.2262  -2.1527  -2.0504  -2.0401  -1.9743  -1.9232
    -1.8882  -1.8793  -1.8453  -1.8326  -1.8080  -1.7916  -1.7598  -1.7144
    -1.5279  -1.5228  -1.4850  -1.4395  -1.2872  -1.2538  -1.2208  -1.0913
    -1.0457  -1.0184  -0.9424  -0.9385  -0.9271  -0.8699  -0.8304  -0.7756
    -0.6798  -0.6545  -0.5697  -0.5543  -0.4992  -0.4677  -0.3475  -0.3383
    -0.3196  -0.3042  -0.1167  -0.1093  -0.0819  -0.0683   0.0329   0.0718
     0.0924   0.1666   0.1783   0.1938   0.2152   0.3352   0.3728   0.3806
     0.4011   0.4090   0.4186   0.5826   0.6108   0.6808   0.7044   0.7617
     0.9181   0.9425   1.0423   1.1076   1.3099   1.4021   1.4689   1.5794
     1.9902   2.0533   3.4376   3.5696   3.5755   3.6274   3.6539   3.7094
     3.9151   3.9516   3.9780   4.0109   4.0375

[...]

          k = 0.0380-0.0419 0.0000 ( 17876 PWs)   bands (ev):

[...]

          k =-0.0760-0.0000 0.0000 ( 17886 PWs)   bands (ev):

[...]

          k =-0.0760-0.0839 0.0000 ( 17948 PWs)   bands (ev):

   -55.6344 -55.6027 -55.6010 -55.5997 -55.5406 -55.4953 -55.4543 -55.4480
   -55.3797 -55.3791 -55.3748 -55.3014 -55.0145 -54.9668 -54.6031 -54.6026
   -31.9931 -31.9909 -31.9320 -31.9303 -31.9253 -31.9003 -31.8862 -31.8799
   -31.8318 -31.8299 -31.8244 -31.7983 -31.7951 -31.7618 -31.7454 -31.7426
   -31.7403 -31.7371 -31.7365 -31.7193 -31.7063 -31.6958 -31.6940 -31.6871
   -31.6607 -31.6597 -31.6548 -31.6271 -31.6264 -31.6196 -31.5808 -31.5790
   -31.5679 -31.5664 -31.5140 -31.4970 -31.4804 -31.3759 -31.3104 -31.2542
   -31.1514 -31.0425 -30.9248 -30.9242 -30.8422 -30.8418 -30.8025 -30.8021
   -16.5431 -15.8499 -15.7908 -15.5748 -15.5540 -15.5536 -15.4694 -15.3971
   -15.3911 -15.3603 -15.3411 -15.3168 -15.3083 -15.2559 -15.2313 -15.1670
   -15.1425 -15.1260 -15.1215 -15.0660 -15.0585 -15.0263 -15.0067 -14.9929
   -14.9702 -14.9388 -14.9284 -14.7985 -14.7627 -14.5583 -13.1069 -13.1057
    -9.1674  -6.8834  -4.3480  -3.1409  -3.0714  -2.7856  -2.7774  -2.7608
    -2.6569  -2.5747  -2.5617  -2.5291  -2.4721  -2.4474  -2.4442  -2.4282
    -2.4112  -2.4065  -2.4012  -2.3926  -2.3490  -2.3227  -2.2928  -2.2498
    -2.2407  -2.2263  -2.2190  -2.1781  -2.1591  -2.1530  -2.1498  -2.1412
    -2.0903  -1.9154  -1.8896  -1.8711  -1.7633  -1.7426  -1.7073  -1.6791
    -1.6771  -1.6352  -1.6268  -1.5566  -1.4602  -1.3729  -1.3381  -1.3185
    -1.2860  -1.2446  -1.1509  -1.0457  -1.0074  -0.9787  -0.9457  -0.9126
    -0.8804  -0.8772  -0.7691  -0.7191  -0.7003  -0.6480  -0.5882  -0.5728
    -0.5378  -0.4936  -0.4829  -0.4306  -0.3631  -0.3429  -0.2814  -0.2321
    -0.2055  -0.2033  -0.1499  -0.1371  -0.0263   0.0223   0.2139   0.2849
     0.3568   0.3981   0.4148   0.5583   0.5679   0.6734   0.7257   0.7336
     0.7677   0.8483   0.9263   0.9405   0.9742   1.0272   1.7634   1.7664
     1.8512   1.8608   3.5639   3.7343   3.7658   3.7716   3.8716   4.0131
     4.0260   4.0413   4.0540   4.1501   4.2111

     the Fermi energy is     3.5187 ev

!    total energy              =   -2919.05161162 Ry
     estimated scf accuracy    <       0.00000006 Ry
     smearing contrib. (-TS)   =      -0.03132259 Ry
     internal energy E=F+TS    =   -2919.02028903 Ry

     The total energy is F=E-TS. E is the sum of the following terms:
     one-electron contribution =  -24311.53970965 Ry
     hartree contribution      =   12243.26627510 Ry
     xc contribution           =    -479.92818217 Ry
     ewald contribution        =    9629.17847820 Ry
     electric field correction =       0.00284949 Ry

     convergence has been achieved in  80 iterations

     Forces acting on atoms (cartesian axes, Ry/au):

     atom    1 type  1   force =     0.00031855    0.00078888    0.10704555
     atom    2 type  1   force =    -0.00005108   -0.00006019   -0.17810488
     atom    3 type  2   force =     0.00027930    0.00487152   -0.03518600
     atom    4 type  2   force =    -0.00019245    0.00030832    0.04963895
     atom    5 type  2   force =    -0.02037845   -0.00158925    0.00503793
     atom    6 type  2   force =     0.02054678   -0.00121000    0.00512378
     atom    7 type  1   force =     0.00004974    0.00148094   -0.00750018
     atom    8 type  1   force =     0.00001664   -0.00081881   -0.00013291
     atom    9 type  2   force =    -0.00002934    0.00001018   -0.00042190
     atom   10 type  2   force =     0.00009372   -0.00036766    0.00071596
     atom   11 type  2   force =     0.00036850   -0.00019979    0.00001996
     atom   12 type  2   force =    -0.00028573   -0.00021001   -0.00008131
     atom   13 type  1   force =    -0.00021692   -0.00064057   -0.00022501
     atom   14 type  1   force =    -0.00011570   -0.00008689    0.00005553
     atom   15 type  2   force =     0.00008824    0.00027117    0.00058853
     atom   16 type  2   force =     0.00011849    0.00024559   -0.00058935
     atom   17 type  2   force =    -0.00028892   -0.00002462    0.00032875
     atom   18 type  2   force =     0.00049313   -0.00014668    0.00012716
     atom   19 type  1   force =     0.00005050    0.00025292    0.00029998
     atom   20 type  1   force =    -0.00028316   -0.00012519    0.00032899
     atom   21 type  2   force =    -0.00030061    0.00022599    0.10377260
     atom   22 type  2   force =     0.00002556   -0.00023955   -0.00169785
     atom   23 type  2   force =    -0.06932654    0.00275223   -0.03015013
     atom   24 type  2   force =     0.06920130    0.00258613   -0.03019185
     atom   25 type  1   force =    -0.00014025   -0.00099993    0.12340517
     atom   26 type  1   force =    -0.00008081   -0.00046066   -0.17773358
     atom   27 type  2   force =    -0.00017936   -0.00203961   -0.03318916
     atom   28 type  2   force =     0.00024134    0.00000564    0.05042002
     atom   29 type  2   force =    -0.02135937    0.00081085    0.00493652
     atom   30 type  2   force =     0.02155749    0.00144416    0.00502945
     atom   31 type  1   force =     0.00025946   -0.00214033   -0.00810820
     atom   32 type  1   force =     0.00000540   -0.00048223    0.00062325
     atom   33 type  2   force =    -0.00002822   -0.00000397   -0.00022087
     atom   34 type  2   force =     0.00003434    0.00024016    0.00078191
     atom   35 type  2   force =     0.00021961    0.00029129   -0.00008090
     atom   36 type  2   force =    -0.00014487    0.00032468   -0.00020434
     atom   37 type  1   force =    -0.00000290    0.00056865    0.00113077
     atom   38 type  1   force =    -0.00009898   -0.00032961    0.00034796
     atom   39 type  2   force =    -0.00002224    0.00052507    0.00016345
     atom   40 type  2   force =     0.00004482    0.00023568   -0.00124397
     atom   41 type  2   force =    -0.00093125    0.00051567    0.00039519
     atom   42 type  2   force =     0.00107500    0.00047517    0.00054702
     atom   43 type  1   force =     0.00013138    0.00028642    0.00007604
     atom   44 type  1   force =     0.00041619    0.00017445    0.00099530
     atom   45 type  2   force =     0.00039201    0.00029747    0.10395487
     atom   46 type  3   force =     0.00026859   -0.00003578    0.00027960
     atom   47 type  2   force =    -0.06956044   -0.00205297   -0.03014001
     atom   48 type  2   force =     0.06938768   -0.00414503   -0.03021008
     atom   49 type  4   force =    -0.00075749    0.00000787    0.00016847
     atom   50 type  4   force =     0.00070218   -0.00043748   -0.00041356
     atom   51 type  5   force =    -0.00080284   -0.00063468   -0.00058269
     atom   52 type  4   force =    -0.00080802   -0.00051561    0.00007008

     Total force =     0.379330     Total SCF correction =     0.000856
  @ DRIVER MODE: Message from server: STATUS
  @ DRIVER MODE: Message from server: GETFORCE
  @ DRIVER MODE: Returning v,forces,stress,ensemble

     Writing output data file ./calc.save/
  @ DRIVER MODE: Message from server: EXIT
  @ DRIVE MODE: Exiting

     General routines

     Parallel routines

   This run was terminated on:  13:15:36  12Oct2021

   JOB DONE.