     Program PWSCF v.6.7GPU starts on  2Aug2021 at 14:35:16

     R & G space division:  proc/nbgrp/npool/nimage =      16
     Reading input from /storage/home/hcoda1/3/ntian30/research/carbon/02Aug_vib_paired/ads_slab/CH3NH_b/out_0009/pw.inp
Warning: card &CELL ignored
Warning: card   CELL_DYNAMICS='IPI', ignored
Warning: card / ignored

     Current dimensions of program PWSCF are:
     Max number of different atomic species (ntypx) = 10
     Max number of k-points (npk) =  40000
     Max angular momentum in pseudopotentials (lmaxx) =  3
     Presently no symmetry can be used with electric field

     Message from routine cell_base_init:
     DEPRECATED: use true lattice parameter, not A to a.u. conversion factor

     IMPORTANT: XC functional enforced from input :
     Exchange-correlation= BEEF-VDW
                           (   1   4  43  14   2   0   0)
     Any further DFT definition will be discarded
     Please, verify this is what you really want

  @ DRIVER MODE: Connecting to
 qe_1139763_2482541.sched-torque.pace.gatech.edu0_l5nzna_scratch
  using UNIX socket
  @ DRIVER MODE: Message from server: STATUS
  @ DRIVER MODE: Message from server: INIT
  @ DRIVER MODE: Receiving replica           0          -1
  @ DRIVER MODE: Receiving encoded integer          25
  @ DRIVER MODE:  SCF:  T  FORCE:  T  STRESS:  F  VC:  F  ENSEMBLE:  F
  @ DRIVER MODE:  SCF:  T  FORCE:  T  STRESS:  F  VC:  F  ENSEMBLE:  F

     Using Slab Decomposition

     bravais-lattice index     =            0
     lattice parameter (alat)  =       1.8897  a.u.
     unit-cell volume          =    6658.9804 (a.u.)^3
     number of atoms/cell      =           53
     number of atomic types    =            5
     number of electrons       =       391.00
     number of Kohn-Sham states=          205
     kinetic-energy cutoff     =      29.3995  Ry
     charge density cutoff     =     293.9946  Ry
     scf convergence threshold =      7.3E-08
     mixing beta               =       0.0500
     number of iterations used =            8  plain     mixing
     Exchange-correlation= BEEF-VDW
                           (   1   4  43  14   2   0   0)

     celldm(1)=   1.889726  celldm(2)=   0.000000  celldm(3)=   0.000000
     celldm(4)=   0.000000  celldm(5)=   0.000000  celldm(6)=   0.000000

     crystal axes: (cart. coord. in units of alat)
               a(1) = (   6.579727   0.000000   0.000000 )
               a(2) = (  -0.000775   5.961596   0.000000 )
               a(3) = (   0.000000   0.000000  25.155947 )

     reciprocal axes: (cart. coord. in units 2 pi/alat)
               b(1) = (  0.151982  0.000020  0.000000 )
               b(2) = (  0.000000  0.167740  0.000000 )
               b(3) = (  0.000000  0.000000  0.039752 )

     PseudoPot. # 1 for Ti read from file:
     /storage/coda1/p-amedford6/0/shared/rich_project_chbe-medford/medford-share/data/pseudos_module/espresso/nninc/pbe/van/Ti.UPF
     MD5 check sum: 8e4df49b7f0d34bbd5052bf3f5ea0213
     Pseudo is Ultrasoft, Zval = 12.0
     Generated by new atomic code, or converted to UPF format
     Using radial grid of  851 points,  6 beta functions with:
                l(1) =   0
                l(2) =   0
                l(3) =   1
                l(4) =   1
                l(5) =   2
                l(6) =   2
     Q(r) pseudized with  8 coefficients,  rinner =    1.000   1.000   1.000
                                                       1.000   1.000

     PseudoPot. # 2 for O  read from file:
     /storage/coda1/p-amedford6/0/shared/rich_project_chbe-medford/medford-share/data/pseudos_module/espresso/nninc/pbe/van/O.UPF
     MD5 check sum: 78c19812648e8988a0fe644b0f25305e
     Pseudo is Ultrasoft, Zval =  6.0
     Generated by new atomic code, or converted to UPF format
     Using radial grid of  737 points,  4 beta functions with:
                l(1) =   0
                l(2) =   0
                l(3) =   1
                l(4) =   1
     Q(r) pseudized with  8 coefficients,  rinner =    0.800   0.800   0.800

     PseudoPot. # 3 for H  read from file:
     /storage/coda1/p-amedford6/0/shared/rich_project_chbe-medford/medford-share/data/pseudos_module/espresso/nninc/pbe/van/H.UPF
     MD5 check sum: b5ee9d7bfd3a09ee7748110bda690ff7
     Pseudo is Ultrasoft, Zval =  1.0
     Generated by new atomic code, or converted to UPF format
     Using radial grid of  615 points,  1 beta functions with:
                l(1) =   0
     Q(r) pseudized with  8 coefficients,  rinner =    0.800

     PseudoPot. # 4 for N  read from file:
     /storage/coda1/p-amedford6/0/shared/rich_project_chbe-medford/medford-share/data/pseudos_module/espresso/nninc/pbe/van/N.UPF
     MD5 check sum: 90d10febe142ad51ac9d5be1deb811c4
     Pseudo is Ultrasoft, Zval =  5.0
     Generated by new atomic code, or converted to UPF format
     Using radial grid of  729 points,  4 beta functions with:
                l(1) =   0
                l(2) =   0
                l(3) =   1
                l(4) =   1
     Q(r) pseudized with  8 coefficients,  rinner =    0.800   0.800   0.800

     PseudoPot. # 5 for C  read from file:
     /storage/coda1/p-amedford6/0/shared/rich_project_chbe-medford/medford-share/data/pseudos_module/espresso/nninc/pbe/van/C.UPF
     MD5 check sum: 1a69bf6b8db32088f5b2163dbdb77a27
     Pseudo is Ultrasoft, Zval =  4.0
     Generated by new atomic code, or converted to UPF format
     Using radial grid of  721 points,  4 beta functions with:
                l(1) =   0
                l(2) =   0
                l(3) =   1
                l(4) =   1
     Q(r) pseudized with  8 coefficients,  rinner =    0.800   0.800   0.800

     atomic species   valence    mass     pseudopotential
        Ti1           12.00    47.86700     Ti( 1.00)
        O1             6.00    15.99900     O ( 1.00)
        H1             1.00     1.00800     H ( 1.00)
        N1             5.00    14.00700     N ( 1.00)
        C1             4.00    12.01100     C ( 1.00)

     No symmetry found

   Cartesian axes

     site n.     atom                  positions (alat units)
         1           Ti1 tau(   1) = (   0.0004258   2.9801865   6.0000000  )
         2           Ti1 tau(   2) = (   3.2906075   1.4906267   6.0002472  )
         3           O1  tau(   3) = (   0.0006271   0.0005054   7.9858123  )
         4           O1  tau(   4) = (   3.2906025   0.0005020   7.3038282  )
         5           O1  tau(   5) = (   4.5942328   1.4918067   9.2879030  )
         6           O1  tau(   6) = (   1.9868534   1.4903216   9.2879459  )
         7           Ti1 tau(   7) = (   3.2907910   2.8959150   9.1758416  )
         8           Ti1 tau(   8) = (   0.0015273   1.4827037   9.2680791  )
         9           O1  tau(   9) = (   3.2906183   5.9580730  11.3246990  )
        10           O1  tau(  10) = (   0.0116148   5.9584955  10.6183126  )
        11           O1  tau(  11) = (   1.3160896   1.4863360  12.6200149  )
        12           O1  tau(  12) = (   5.2947061   1.4800608  12.6053981  )
        13           Ti1 tau(  13) = (   6.5224157   2.9421717  12.6196007  )
        14           Ti1 tau(  14) = (   3.2076970   1.4879367  12.4696142  )
        15           O1  tau(  15) = (   6.5517659   0.0158556  14.6493665  )
        16           O1  tau(  16) = (   3.3109316   0.0069331  13.9179417  )
        17           O1  tau(  17) = (   4.5083530   1.5297238  16.0872293  )
        18           O1  tau(  18) = (   2.0274073   1.5273405  16.0409094  )
        19           Ti1 tau(  19) = (   3.2920608   3.0081397  15.6838061  )
        20           Ti1 tau(  20) = (   0.0536170   1.5416865  15.8648894  )
        21           O1  tau(  21) = (   3.2904802   0.0005063   4.7018136  )
        22           O1  tau(  22) = (   0.0122827   0.0301012  17.2134340  )
        23           O1  tau(  23) = (   1.3043587   1.4918075   6.0039043  )
        24           O1  tau(  24) = (   5.2767064   1.4903225   6.0039473  )
        25           Ti1 tau(  25) = (   0.0000382   5.9609847   6.0000000  )
        26           Ti1 tau(  26) = (   3.2902200   4.4714249   6.0002472  )
        27           O1  tau(  27) = (   0.0002396   2.9813036   7.9858123  )
        28           O1  tau(  28) = (   3.2902150   2.9813002   7.3038282  )
        29           O1  tau(  29) = (   4.5938453   4.4726049   9.2879030  )
        30           O1  tau(  30) = (   1.9864658   4.4711199   9.2879459  )
        31           Ti1 tau(  31) = (   3.2891106   5.8743827   9.1763621  )
        32           Ti1 tau(  32) = (   0.0006254   4.4649316   9.2693709  )
        33           O1  tau(  33) = (   3.2866862   2.9837957  11.3234553  )
        34           O1  tau(  34) = (   0.0092240   2.9805883  10.6323155  )
        35           O1  tau(  35) = (   1.3095649   4.4762946  12.6335636  )
        36           O1  tau(  36) = (   5.2963019   4.4650584  12.6194355  )
        37           Ti1 tau(  37) = (   6.5192018   5.9199268  12.5733442  )
        38           Ti1 tau(  38) = (   3.2055211   4.4685508  12.4747853  )
        39           O1  tau(  39) = (   6.5624772   2.9349094  14.6472044  )
        40           O1  tau(  40) = (   3.3065106   2.9879112  13.8942307  )
        41           O1  tau(  41) = (   4.5199725   4.4841037  16.0899424  )
        42           O1  tau(  42) = (   2.0389375   4.4882992  16.0664246  )
        43           Ti1 tau(  43) = (   3.3279474   0.0221627  15.7114356  )
        44           Ti1 tau(  44) = (   0.0314192   4.6578676  16.1055029  )
        45           O1  tau(  45) = (   3.2900926   2.9813045   4.7018136  )
        46           O1  tau(  46) = (   1.3039711   4.4726057   6.0039043  )
        47           O1  tau(  47) = (   5.2763189   4.4711207   6.0039473  )
        48           H1  tau(  48) = (   5.5751926   2.9245997  17.7795037  )
        49           N1  tau(  49) = (   6.5345126   2.9609300  17.4463781  )
        50           C1  tau(  50) = (   0.8205834   2.9192471  18.6315588  )
        51           H1  tau(  51) = (   0.6379014   3.7726647  19.2931901  )
        52           H1  tau(  52) = (   0.6616828   1.9903841  19.1881566  )
        53           H1  tau(  53) = (   1.8691752   2.9530840  18.3388921  )

     number of k points=    10  Fermi-Dirac smearing, width (Ry)=  0.0073
                       cart. coord. in units 2pi/alat
        k(    1) = (   0.0000000   0.0000000   0.0000000), wk =   0.1250000
        k(    2) = (   0.0000000   0.0419351   0.0000000), wk =   0.2500000
        k(    3) = (   0.0000000  -0.0838702   0.0000000), wk =   0.1250000
        k(    4) = (   0.0379955   0.0000049   0.0000000), wk =   0.2500000
        k(    5) = (   0.0379955   0.0419400   0.0000000), wk =   0.2500000
        k(    6) = (   0.0379955  -0.0838652   0.0000000), wk =   0.2500000
        k(    7) = (   0.0379955  -0.0419301   0.0000000), wk =   0.2500000
        k(    8) = (  -0.0759910  -0.0000099   0.0000000), wk =   0.1250000
        k(    9) = (  -0.0759910   0.0419252   0.0000000), wk =   0.2500000
        k(   10) = (  -0.0759910  -0.0838800   0.0000000), wk =   0.1250000

     Initial potential from superposition of free atoms

     starting charge  374.99916, renormalised to  391.00000

     negative rho (up, down):  1.779E-02 0.000E+00

     %%%%%%%%%%%%%%%%%%%%%%%%%%%%%%%%%%%%%%%%%%%%%%%%%%%%%%%%%%%%%%%%%%%%%%%%
     %                                                                      %
     % You are using vdW-DF, which was implemented by the Thonhauser group. %
     % Please cite the following two papers that made this development      %
     % possible and the two reviews that describe the various versions:     %
     %                                                                      %
     %   T. Thonhauser et al., PRL 115, 136402 (2015).                      %
     %   T. Thonhauser et al., PRB 76, 125112 (2007).                       %
     %   K. Berland et al., Rep. Prog. Phys. 78, 066501 (2015).             %
     %   D.C. Langreth et al., J. Phys.: Condens. Matter 21, 084203 (2009). %
     %                                                                      %
     %                                                                      %
     % If you are calculating the stress with vdW-DF, please also cite:     %
     %                                                                      %
     %   R. Sabatini et al., J. Phys.: Condens. Matter 24, 424209 (2012).   %
     %                                                                      %
     %%%%%%%%%%%%%%%%%%%%%%%%%%%%%%%%%%%%%%%%%%%%%%%%%%%%%%%%%%%%%%%%%%%%%%%%

     Adding external electric field

     Computed dipole along edir(3) :
        Dipole               -5.8162 Ry au,        -14.7834 Debye
        Dipole field         -0.0110 Ry au,

        Potential amp.        1.0175 Ry
        Total length         46.3494 bohr

     Starting wfcs are  296 atomic wfcs
  @ DRIVER MODE: Message from server: STATUS
  @ DRIVER MODE: Message from server: POSDATA
  @ DRIVER MODE: Reading and sharing cell
  @ DRIVER MODE: Reading and sharing positions
  @ DRIVER MODE: Received positions

     Self-consistent Calculation

     iteration #  1     ecut=    29.40 Ry     beta= 0.05
     Davidson diagonalization with overlap
     c_bands:  3 eigenvalues not converged
     c_bands:  1 eigenvalues not converged
     c_bands:  1 eigenvalues not converged
     c_bands:  3 eigenvalues not converged
     c_bands:  4 eigenvalues not converged
     c_bands:  2 eigenvalues not converged
     c_bands:  1 eigenvalues not converged
     c_bands:  1 eigenvalues not converged
     c_bands:  2 eigenvalues not converged
     ethr =  1.00E-05,  avg # of iterations = 19.5

[...]

     total energy              =   -2770.79369244 Ry
     estimated scf accuracy    <    1640.12029126 Ry

[...]

     iteration #  3     ecut=    29.40 Ry     beta= 0.05
     Davidson diagonalization with overlap
     ethr =  1.00E-02,  avg # of iterations = 15.6

[...]

     iteration # 64     ecut=    29.40 Ry     beta= 0.05
     Davidson diagonalization with overlap
     c_bands:  1 eigenvalues not converged
     ethr =  2.40E-10,  avg # of iterations =  7.8

[...]

     total energy              =   -2920.42405125 Ry
     estimated scf accuracy    <       0.00000020 Ry

     iteration # 72     ecut=    29.40 Ry     beta= 0.05
     Davidson diagonalization with overlap
     ethr =  3.99E-11,  avg # of iterations =  8.2

     negative rho (up, down):  1.813E-02 0.000E+00

     Adding external electric field

     Computed dipole along edir(3) :
        Dipole                0.6865 Ry au,          1.7449 Debye
        Dipole field          0.0013 Ry au,

        Potential amp.       -0.1201 Ry
        Total length         46.3494 bohr

     End of self-consistent calculation

          k = 0.0000 0.0000 0.0000 ( 18029 PWs)   bands (ev):

   -55.9948 -55.9873 -55.9607 -55.9512 -55.9023 -55.8375 -55.8372 -55.8028
   -55.7984 -55.7645 -55.7587 -55.7250 -55.5334 -55.2756 -54.9667 -54.9327
   -32.5463 -32.4762 -32.3496 -32.3390 -32.3149 -32.2979 -32.2880 -32.2497
   -32.2359 -32.2355 -32.2112 -32.2039 -32.1700 -32.1469 -32.1394 -32.1337
   -32.1298 -32.0981 -32.0768 -32.0519 -32.0478 -32.0402 -32.0251 -31.9978
   -31.9905 -31.9894 -31.9847 -31.9768 -31.9620 -31.9569 -31.9530 -31.9417
   -31.9351 -31.9282 -31.9119 -31.9058 -31.8713 -31.8039 -31.7047 -31.5483
   -31.5452 -31.4699 -31.3736 -31.2859 -31.2634 -31.1904 -31.1039 -30.9928
   -16.7553 -16.4719 -16.2928 -16.1493 -16.1172 -16.0319 -15.8308 -15.7040
   -15.6920 -15.5883 -15.5553 -15.5288 -15.5224 -15.4965 -15.4906 -15.4298
   -15.4278 -15.4144 -15.4050 -15.3479 -15.3234 -15.2698 -15.1912 -15.1578
   -15.1525 -15.1246 -15.0427 -15.0376 -14.5849 -14.1816 -13.4692 -13.3529
    -8.9332  -4.3646  -4.1264  -3.9520  -3.9133  -3.8970  -3.8472  -3.5931
    -3.5782  -3.3361  -3.2265  -3.1927  -3.1775  -3.1688  -3.1483  -3.1374
    -2.8909  -2.8241  -2.8090  -2.7873  -2.7792  -2.7731  -2.7609  -2.7604
    -2.7207  -2.6585  -2.5325  -2.4983  -2.4194  -2.3821  -2.3529  -2.3041
    -2.2606  -2.2536  -2.2425  -2.2236  -2.2112  -2.1870  -2.1705  -2.0368
    -1.9707  -1.8356  -1.8007  -1.7812  -1.5949  -1.5380  -1.4728  -1.4331
    -1.4199  -1.4127  -1.3809  -1.2992  -1.2076  -1.1518  -1.1416  -1.0855
    -1.0080  -0.9962  -0.8893  -0.8839  -0.8575  -0.7657  -0.7552  -0.7442
    -0.7242  -0.6584  -0.5560  -0.4794  -0.4346  -0.4049  -0.3735  -0.3040
    -0.2740  -0.1720  -0.1563  -0.1063  -0.1029  -0.0612  -0.0159  -0.0067
     0.0021   0.0101   0.0357   0.1778   0.2888   0.3432   0.3845   0.3909
     0.5446   0.5713   0.6691   0.7572   0.9823   1.0552   1.1482   1.2481
     1.3188   1.6260   1.6713   3.1486   3.2273   3.2812   3.2898   3.3926
     3.3978   3.5980   3.6079   3.6209   3.6882

[...]

          k = 0.0380-0.0419 0.0000 ( 17876 PWs)   bands (ev):

[...]

          k =-0.0760-0.0000 0.0000 ( 17886 PWs)   bands (ev):

[...]

          k =-0.0760-0.0839 0.0000 ( 17948 PWs)   bands (ev):

   -55.9780 -55.9773 -55.9705 -55.9678 -55.8973 -55.8424 -55.8210 -55.8191
   -55.7821 -55.7803 -55.7424 -55.7414 -55.5324 -55.2766 -54.9497 -54.9496
   -32.3512 -32.3476 -32.2917 -32.2912 -32.2810 -32.2737 -32.2729 -32.2599
   -32.1981 -32.1969 -32.1919 -32.1874 -32.1643 -32.1331 -32.1182 -32.1139
   -32.1012 -32.0986 -32.0974 -32.0968 -32.0934 -32.0822 -32.0799 -32.0485
   -32.0404 -32.0394 -32.0099 -31.9984 -31.9791 -31.9787 -31.9752 -31.9742
   -31.9573 -31.9567 -31.9553 -31.9522 -31.8740 -31.8062 -31.7001 -31.6126
   -31.5472 -31.4956 -31.2762 -31.2761 -31.1865 -31.1863 -31.1472 -31.1472
   -16.2091 -16.1739 -15.9372 -15.9258 -15.9192 -15.9035 -15.7578 -15.7106
   -15.6992 -15.6922 -15.6693 -15.6471 -15.5885 -15.5605 -15.5307 -15.5222
   -15.5159 -15.5139 -15.4521 -15.4470 -15.4239 -15.4170 -15.3032 -15.2994
   -15.2905 -15.2146 -15.1592 -15.0186 -14.7473 -14.2051 -13.4548 -13.4547
    -8.9380  -4.3766  -3.5032  -3.4630  -3.2808  -3.2522  -3.1778  -3.1613
    -3.1367  -3.0688  -2.9046  -2.8877  -2.8763  -2.8613  -2.8189  -2.8128
    -2.8024  -2.7897  -2.7829  -2.7642  -2.7307  -2.6980  -2.6596  -2.6522
    -2.6434  -2.6185  -2.6073  -2.5863  -2.5741  -2.5432  -2.5343  -2.5169
    -2.4870  -2.2268  -2.2058  -2.1946  -2.1233  -2.1166  -2.0832  -2.0650
    -2.0554  -2.0423  -1.9851  -1.8819  -1.7247  -1.6929  -1.6833  -1.6679
    -1.5850  -1.5759  -1.4218  -1.4008  -1.3806  -1.3434  -1.2894  -1.2670
    -1.2263  -1.1679  -1.1500  -1.0865  -1.0700  -1.0107  -0.9549  -0.9531
    -0.9321  -0.8572  -0.7756  -0.7597  -0.7467  -0.7079  -0.6977  -0.6104
    -0.5864  -0.4934  -0.4790  -0.4235  -0.3990  -0.2959  -0.1312  -0.0111
     0.0426   0.0696   0.1269   0.2250   0.2703   0.2800   0.3255   0.3315
     0.3936   0.4325   0.5467   0.5527   0.6273   0.7188   1.2601   1.4196
     1.4202   1.4911   1.4912   3.4113   3.4170   3.4640   3.4934   3.6486
     3.6534   3.6752   3.6764   3.8010   3.8190

     the Fermi energy is     3.1415 ev

!    total energy              =   -2920.42406664 Ry
     estimated scf accuracy    <       0.00000006 Ry
     smearing contrib. (-TS)   =      -0.02203595 Ry
     internal energy E=F+TS    =   -2920.40203070 Ry

     The total energy is F=E-TS. E is the sum of the following terms:
     one-electron contribution =  -24701.77588417 Ry
     hartree contribution      =   12435.50290829 Ry
     xc contribution           =    -480.87175581 Ry
     ewald contribution        =    9826.74181164 Ry
     electric field correction =       0.00088934 Ry

     convergence has been achieved in  72 iterations

     Forces acting on atoms (cartesian axes, Ry/au):

     atom    1 type  1   force =     0.00013193   -0.00026437    0.09687185
     atom    2 type  1   force =     0.00002135   -0.00054000   -0.17507238
     atom    3 type  2   force =     0.00013464   -0.00007389   -0.02544876
     atom    4 type  2   force =    -0.00000833   -0.00136702    0.05231198
     atom    5 type  2   force =    -0.01234747   -0.00013702    0.00302399
     atom    6 type  2   force =     0.01377321    0.00022814    0.00238599
     atom    7 type  1   force =     0.00058354    0.00032695   -0.01264670
     atom    8 type  1   force =     0.00046192    0.00596134    0.03110708
     atom    9 type  2   force =    -0.00033292    0.00024192    0.00040333
     atom   10 type  2   force =    -0.00269339    0.00069723   -0.01622200
     atom   11 type  2   force =    -0.00040147    0.00010668    0.00017846
     atom   12 type  2   force =     0.00012788    0.00010542    0.00020936
     atom   13 type  1   force =    -0.00010924    0.00024933    0.00035268
     atom   14 type  1   force =    -0.00003788   -0.00021439   -0.00015789
     atom   15 type  2   force =     0.00023285   -0.00070465    0.00062798
     atom   16 type  2   force =    -0.00006455    0.00025944    0.00024498
     atom   17 type  2   force =    -0.00028180   -0.00027718   -0.00039039
     atom   18 type  2   force =     0.00050755   -0.00014265    0.00018627
     atom   19 type  1   force =    -0.00005296   -0.00003739   -0.00013893
     atom   20 type  1   force =    -0.00000752    0.00002996   -0.00042897
     atom   21 type  2   force =     0.00007202   -0.00005994    0.10309125
     atom   22 type  2   force =    -0.00014739   -0.00140918    0.00033523
     atom   23 type  2   force =    -0.07160295   -0.00015826   -0.02783239
     atom   24 type  2   force =     0.07152617    0.00032612   -0.02789341
     atom   25 type  1   force =     0.00010283   -0.00024364    0.09666976
     atom   26 type  1   force =     0.00011510   -0.00028471   -0.17525558
     atom   27 type  2   force =     0.00013351   -0.00023361   -0.02452438
     atom   28 type  2   force =     0.00002952   -0.00112704    0.05222780
     atom   29 type  2   force =    -0.01247124    0.00014178    0.00267700
     atom   30 type  2   force =     0.01378508    0.00068927    0.00202095
     atom   31 type  1   force =     0.00051384    0.00290632   -0.01339724
     atom   32 type  1   force =     0.00028771   -0.00823735    0.03150477
     atom   33 type  2   force =    -0.00005573   -0.00006934   -0.00011079
     atom   34 type  2   force =    -0.00183591    0.00056245   -0.02458299
     atom   35 type  2   force =    -0.00014242    0.00011535    0.00005102
     atom   36 type  2   force =    -0.00024702    0.00021918    0.00012615
     atom   37 type  1   force =    -0.00004832    0.00029743    0.00018278
     atom   38 type  1   force =    -0.00022582   -0.00005412   -0.00016589
     atom   39 type  2   force =     0.00004029    0.00041903   -0.00041509
     atom   40 type  2   force =    -0.00016779    0.00028041   -0.00012591
     atom   41 type  2   force =     0.00027717   -0.00001848    0.00043811
     atom   42 type  2   force =    -0.00024481   -0.00005803    0.00047681
     atom   43 type  1   force =    -0.00022330    0.00002120    0.00042028
     atom   44 type  1   force =     0.00028417   -0.00044569   -0.00003718
     atom   45 type  2   force =     0.00005333   -0.00006752    0.10309980
     atom   46 type  2   force =    -0.07161072   -0.00009029   -0.02783015
     atom   47 type  2   force =     0.07154201    0.00033719   -0.02791001
     atom   48 type  3   force =    -0.00105975   -0.00042135    0.00030136
     atom   49 type  4   force =     0.00087293    0.00445723   -0.00080077
     atom   50 type  5   force =     0.00145932   -0.00180012   -0.00008595
     atom   51 type  3   force =    -0.00114434   -0.00101375   -0.00105646
     atom   52 type  3   force =     0.00090741    0.00075572    0.00077883
     atom   53 type  3   force =    -0.00041225   -0.00018411    0.00022434

     Total force =     0.368389     Total SCF correction =     0.000664
  @ DRIVER MODE: Message from server: STATUS
  @ DRIVER MODE: Message from server: GETFORCE
  @ DRIVER MODE: Returning v,forces,stress,ensemble

     Writing output data file ./calc.save/
  @ DRIVER MODE: Message from server: EXIT
  @ DRIVE MODE: Exiting

     General routines

     Parallel routines

   This run was terminated on:  15:12: 4   2Aug2021

   JOB DONE.