     Program PWSCF v.6.7GPU starts on 23Sep2021 at 23: 3:52

     R & G space division:  proc/nbgrp/npool/nimage =       8
     Reading input from /storage/home/hcoda1/3/ntian30/research/carbon/CxH_vib/H2O_calc/ads_slab/CH3NH2NHHO_c/out_0028/pw.inp
Warning: card &CELL ignored
Warning: card   CELL_DYNAMICS='IPI', ignored
Warning: card / ignored

     Current dimensions of program PWSCF are:
     Max number of different atomic species (ntypx) = 10
     Max number of k-points (npk) =  40000
     Max angular momentum in pseudopotentials (lmaxx) =  3
     Presently no symmetry can be used with electric field

     Message from routine cell_base_init:
     DEPRECATED: use true lattice parameter, not A to a.u. conversion factor

     IMPORTANT: XC functional enforced from input :
     Exchange-correlation= BEEF-VDW
                           (   1   4  43  14   2   0   0)
     Any further DFT definition will be discarded
     Please, verify this is what you really want

  @ DRIVER MODE: Connecting to
 qe_1139763_2947310.sched-torque.pace.gatech.eduu0nin5i__scratch
  using UNIX socket
  @ DRIVER MODE: Message from server: STATUS
  @ DRIVER MODE: Message from server: INIT
  @ DRIVER MODE: Receiving replica           0          -1
  @ DRIVER MODE: Receiving encoded integer          25
  @ DRIVER MODE:  SCF:  T  FORCE:  T  STRESS:  F  VC:  F  ENSEMBLE:  F
  @ DRIVER MODE:  SCF:  T  FORCE:  T  STRESS:  F  VC:  F  ENSEMBLE:  F

     Using Slab Decomposition

     bravais-lattice index     =            0
     lattice parameter (alat)  =       1.8897  a.u.
     unit-cell volume          =    6658.9804 (a.u.)^3
     number of atoms/cell      =           58
     number of atomic types    =            5
     number of electrons       =       405.00
     number of Kohn-Sham states=          212
     kinetic-energy cutoff     =      29.3995  Ry
     charge density cutoff     =     293.9946  Ry
     scf convergence threshold =      7.3E-08
     mixing beta               =       0.0500
     number of iterations used =            8  plain     mixing
     Exchange-correlation= BEEF-VDW
                           (   1   4  43  14   2   0   0)

     celldm(1)=   1.889726  celldm(2)=   0.000000  celldm(3)=   0.000000
     celldm(4)=   0.000000  celldm(5)=   0.000000  celldm(6)=   0.000000

     crystal axes: (cart. coord. in units of alat)
               a(1) = (   6.579727   0.000000   0.000000 )
               a(2) = (  -0.000775   5.961596   0.000000 )
               a(3) = (   0.000000   0.000000  25.155947 )

     reciprocal axes: (cart. coord. in units 2 pi/alat)
               b(1) = (  0.151982  0.000020  0.000000 )
               b(2) = (  0.000000  0.167740  0.000000 )
               b(3) = (  0.000000  0.000000  0.039752 )

     PseudoPot. # 1 for Ti read from file:
     /storage/coda1/p-amedford6/0/shared/rich_project_chbe-medford/medford-share/data/pseudos_module/espresso/nninc/pbe/van/Ti.UPF
     MD5 check sum: 8e4df49b7f0d34bbd5052bf3f5ea0213
     Pseudo is Ultrasoft, Zval = 12.0
     Generated by new atomic code, or converted to UPF format
     Using radial grid of  851 points,  6 beta functions with:
                l(1) =   0
                l(2) =   0
                l(3) =   1
                l(4) =   1
                l(5) =   2
                l(6) =   2
     Q(r) pseudized with  8 coefficients,  rinner =    1.000   1.000   1.000
                                                       1.000   1.000

     PseudoPot. # 2 for O  read from file:
     /storage/coda1/p-amedford6/0/shared/rich_project_chbe-medford/medford-share/data/pseudos_module/espresso/nninc/pbe/van/O.UPF
     MD5 check sum: 78c19812648e8988a0fe644b0f25305e
     Pseudo is Ultrasoft, Zval =  6.0
     Generated by new atomic code, or converted to UPF format
     Using radial grid of  737 points,  4 beta functions with:
                l(1) =   0
                l(2) =   0
                l(3) =   1
                l(4) =   1
     Q(r) pseudized with  8 coefficients,  rinner =    0.800   0.800   0.800

     PseudoPot. # 3 for N  read from file:
     /storage/coda1/p-amedford6/0/shared/rich_project_chbe-medford/medford-share/data/pseudos_module/espresso/nninc/pbe/van/N.UPF
     MD5 check sum: 90d10febe142ad51ac9d5be1deb811c4
     Pseudo is Ultrasoft, Zval =  5.0
     Generated by new atomic code, or converted to UPF format
     Using radial grid of  729 points,  4 beta functions with:
                l(1) =   0
                l(2) =   0
                l(3) =   1
                l(4) =   1
     Q(r) pseudized with  8 coefficients,  rinner =    0.800   0.800   0.800

     PseudoPot. # 4 for C  read from file:
     /storage/coda1/p-amedford6/0/shared/rich_project_chbe-medford/medford-share/data/pseudos_module/espresso/nninc/pbe/van/C.UPF
     MD5 check sum: 1a69bf6b8db32088f5b2163dbdb77a27
     Pseudo is Ultrasoft, Zval =  4.0
     Generated by new atomic code, or converted to UPF format
     Using radial grid of  721 points,  4 beta functions with:
                l(1) =   0
                l(2) =   0
                l(3) =   1
                l(4) =   1
     Q(r) pseudized with  8 coefficients,  rinner =    0.800   0.800   0.800

     PseudoPot. # 5 for H  read from file:
     /storage/coda1/p-amedford6/0/shared/rich_project_chbe-medford/medford-share/data/pseudos_module/espresso/nninc/pbe/van/H.UPF
     MD5 check sum: b5ee9d7bfd3a09ee7748110bda690ff7
     Pseudo is Ultrasoft, Zval =  1.0
     Generated by new atomic code, or converted to UPF format
     Using radial grid of  615 points,  1 beta functions with:
                l(1) =   0
     Q(r) pseudized with  8 coefficients,  rinner =    0.800

     atomic species   valence    mass     pseudopotential
        Ti1           12.00    47.86700     Ti( 1.00)
        O1             6.00    15.99900     O ( 1.00)
        N1             5.00    14.00700     N ( 1.00)
        C1             4.00    12.01100     C ( 1.00)
        H1             1.00     1.00800     H ( 1.00)

     No symmetry found

   Cartesian axes

     site n.     atom                  positions (alat units)
         1           Ti1 tau(   1) = (   0.0004258   2.9801865   6.0000000  )
         2           Ti1 tau(   2) = (   3.2906075   1.4906267   6.0002472  )
         3           O1  tau(   3) = (   0.0006271   0.0005054   7.9858123  )
         4           O1  tau(   4) = (   3.2906025   0.0005020   7.3038282  )
         5           O1  tau(   5) = (   4.5942328   1.4918067   9.2879030  )
         6           O1  tau(   6) = (   1.9868534   1.4903216   9.2879459  )
         7           Ti1 tau(   7) = (   3.2907910   2.8959150   9.1758416  )
         8           Ti1 tau(   8) = (   0.0015273   1.4827037   9.2680791  )
         9           O1  tau(   9) = (   3.2766908   5.9368450  11.3531397  )
        10           O1  tau(  10) = (   0.0116148   5.9584955  10.6183126  )
        11           O1  tau(  11) = (   1.2656210   1.4746568  12.6519442  )
        12           O1  tau(  12) = (   5.2821112   1.4671822  12.6528637  )
        13           Ti1 tau(  13) = (   0.0097886   3.0246942  12.5604876  )
        14           Ti1 tau(  14) = (   3.2716845   1.2919425  12.6923688  )
        15           O1  tau(  15) = (   6.5701288   5.9533353  14.7096902  )
        16           O1  tau(  16) = (   3.2612835   0.0684280  14.0222998  )
        17           O1  tau(  17) = (   4.5366247   1.5847279  16.0182572  )
        18           O1  tau(  18) = (   1.9973522   1.5932486  16.1410213  )
        19           Ti1 tau(  19) = (   3.3011230   3.0369928  15.6528835  )
        20           Ti1 tau(  20) = (   6.4616919   1.5442775  15.7581475  )
        21           O1  tau(  21) = (   3.2904802   0.0005063   4.7018136  )
        22           O1  tau(  22) = (   6.5264998   0.0144113  17.2942622  )
        23           O1  tau(  23) = (   1.3043587   1.4918075   6.0039043  )
        24           O1  tau(  24) = (   5.2767064   1.4903225   6.0039473  )
        25           Ti1 tau(  25) = (   0.0000382   5.9609847   6.0000000  )
        26           Ti1 tau(  26) = (   3.2902200   4.4714249   6.0002472  )
        27           O1  tau(  27) = (   0.0002396   2.9813036   7.9858123  )
        28           O1  tau(  28) = (   3.2902150   2.9813002   7.3038282  )
        29           O1  tau(  29) = (   4.5938453   4.4726049   9.2879030  )
        30           O1  tau(  30) = (   1.9864658   4.4711199   9.2879459  )
        31           Ti1 tau(  31) = (   3.2891106   5.8743827   9.1763621  )
        32           Ti1 tau(  32) = (   0.0006254   4.4649316   9.2693709  )
        33           O1  tau(  33) = (   3.2807216   2.9716845  11.3098041  )
        34           O1  tau(  34) = (   0.0092240   2.9805883  10.6323155  )
        35           O1  tau(  35) = (   1.2724369   4.4570745  12.6376724  )
        36           O1  tau(  36) = (   5.2808598   4.4590940  12.6336130  )
        37           Ti1 tau(  37) = (   6.5522345   0.0346224  12.5198063  )
        38           Ti1 tau(  38) = (   3.2841791   4.3624788  12.4156291  )
        39           O1  tau(  39) = (   6.5678423   2.9906399  14.7075790  )
        40           O1  tau(  40) = (   3.2630306   2.9991211  13.8878987  )
        41           O1  tau(  41) = (   4.5399391   4.4365880  16.1202346  )
        42           O1  tau(  42) = (   1.9952260   4.4486394  16.1468368  )
        43           Ti1 tau(  43) = (   3.1909378   0.0332154  16.1742435  )
        44           Ti1 tau(  44) = (   6.5525253   4.6749982  16.1158565  )
        45           O1  tau(  45) = (   3.2900926   2.9813045   4.7018136  )
        46           O1  tau(  46) = (   1.3039711   4.4726057   6.0039043  )
        47           O1  tau(  47) = (   5.2763189   4.4711207   6.0039473  )
        48           N1  tau(  48) = (   0.9351815   2.3805788  18.4294677  )
        49           N1  tau(  49) = (   6.5001775   2.8750743  17.5309975  )
        50           C1  tau(  50) = (   1.3386797   3.2909482  19.5301671  )
        51           H1  tau(  51) = (   0.4734699   3.4817333  20.1622224  )
        52           H1  tau(  52) = (   2.1262835   2.8119037  20.1042238  )
        53           H1  tau(  53) = (   1.7016266   4.2178517  19.0939426  )
        54           H1  tau(  54) = (   0.6429753   1.4474929  18.7566963  )
        55           H1  tau(  55) = (   5.6191021   2.8022447  18.0351622  )
        56           H1  tau(  56) = (   1.7303324   2.1440475  17.7969061  )
        57           O1  tau(  57) = (   3.3671931   0.1367260  18.0860582  )
        58           H1  tau(  58) = (   4.3009782   5.9598238  18.3144400  )

     number of k points=    10  Fermi-Dirac smearing, width (Ry)=  0.0073
                       cart. coord. in units 2pi/alat
        k(    1) = (   0.0000000   0.0000000   0.0000000), wk =   0.1250000
        k(    2) = (   0.0000000   0.0419351   0.0000000), wk =   0.2500000
        k(    3) = (   0.0000000  -0.0838702   0.0000000), wk =   0.1250000
        k(    4) = (   0.0379955   0.0000049   0.0000000), wk =   0.2500000
        k(    5) = (   0.0379955   0.0419400   0.0000000), wk =   0.2500000
        k(    6) = (   0.0379955  -0.0838652   0.0000000), wk =   0.2500000
        k(    7) = (   0.0379955  -0.0419301   0.0000000), wk =   0.2500000
        k(    8) = (  -0.0759910  -0.0000099   0.0000000), wk =   0.1250000
        k(    9) = (  -0.0759910   0.0419252   0.0000000), wk =   0.2500000
        k(   10) = (  -0.0759910  -0.0838800   0.0000000), wk =   0.1250000

     Initial potential from superposition of free atoms

     starting charge  388.99913, renormalised to  405.00000

     negative rho (up, down):  1.469E-02 0.000E+00

     %%%%%%%%%%%%%%%%%%%%%%%%%%%%%%%%%%%%%%%%%%%%%%%%%%%%%%%%%%%%%%%%%%%%%%%%
     %                                                                      %
     % You are using vdW-DF, which was implemented by the Thonhauser group. %
     % Please cite the following two papers that made this development      %
     % possible and the two reviews that describe the various versions:     %
     %                                                                      %
     %   T. Thonhauser et al., PRL 115, 136402 (2015).                      %
     %   T. Thonhauser et al., PRB 76, 125112 (2007).                       %
     %   K. Berland et al., Rep. Prog. Phys. 78, 066501 (2015).             %
     %   D.C. Langreth et al., J. Phys.: Condens. Matter 21, 084203 (2009). %
     %                                                                      %
     %                                                                      %
     % If you are calculating the stress with vdW-DF, please also cite:     %
     %                                                                      %
     %   R. Sabatini et al., J. Phys.: Condens. Matter 24, 424209 (2012).   %
     %                                                                      %
     %%%%%%%%%%%%%%%%%%%%%%%%%%%%%%%%%%%%%%%%%%%%%%%%%%%%%%%%%%%%%%%%%%%%%%%%

     Adding external electric field

     Computed dipole along edir(3) :
        Dipole              -13.9957 Ry au,        -35.5736 Debye
        Dipole field         -0.0264 Ry au,

        Potential amp.        2.4483 Ry
        Total length         46.3494 bohr

     Starting wfcs are  307 atomic wfcs
  @ DRIVER MODE: Message from server: STATUS
  @ DRIVER MODE: Message from server: POSDATA
  @ DRIVER MODE: Reading and sharing cell
  @ DRIVER MODE: Reading and sharing positions
  @ DRIVER MODE: Received positions

     Self-consistent Calculation

     iteration #  1     ecut=    29.40 Ry     beta= 0.05
     Davidson diagonalization with overlap
     c_bands:  5 eigenvalues not converged
     c_bands:  5 eigenvalues not converged
     c_bands:  1 eigenvalues not converged
     c_bands:  2 eigenvalues not converged
     c_bands:  3 eigenvalues not converged
     ethr =  1.00E-05,  avg # of iterations = 28.6

[...]

     total energy              =   -2225.12231711 Ry
     estimated scf accuracy    <    8520.69477613 Ry

     iteration #  2     ecut=    29.40 Ry     beta= 0.05
     Davidson diagonalization with overlap
     ethr =  1.00E-02,  avg # of iterations = 26.1

[...]

     iteration # 72     ecut=    29.40 Ry     beta= 0.05
     Davidson diagonalization with overlap
     ethr =  2.42E-11,  avg # of iterations =  1.4

[...]

     total energy              =   -2976.49318752 Ry
     estimated scf accuracy    <       0.00000014 Ry

     iteration # 73     ecut=    29.40 Ry     beta= 0.05
     Davidson diagonalization with overlap
     c_bands:  1 eigenvalues not converged
     ethr =  2.42E-11,  avg # of iterations = 13.4

     negative rho (up, down):  1.567E-02 0.000E+00

     Adding external electric field

     Computed dipole along edir(3) :
        Dipole                1.5007 Ry au,          3.8145 Debye
        Dipole field          0.0028 Ry au,

        Potential amp.       -0.2625 Ry
        Total length         46.3494 bohr

     End of self-consistent calculation

          k = 0.0000 0.0000 0.0000 ( 18029 PWs)   bands (ev):

   -55.2984 -55.1739 -55.1398 -55.0042 -54.9947 -54.9907 -54.9693 -54.9611
   -54.9312 -54.8825 -54.8500 -54.8137 -54.7923 -54.7515 -54.1374 -54.1033
   -31.6566 -31.6259 -31.5448 -31.4960 -31.4937 -31.4893 -31.4661 -31.4471
   -31.4195 -31.4152 -31.3703 -31.3350 -31.3262 -31.2786 -31.2660 -31.2585
   -31.2518 -31.2313 -31.2160 -31.1990 -31.1851 -31.1827 -31.1724 -31.1687
   -31.1499 -31.1270 -31.1245 -31.1212 -31.1112 -31.1033 -31.0975 -31.0772
   -31.0688 -31.0550 -31.0379 -31.0250 -31.0234 -31.0116 -31.0084 -31.0072
   -30.9809 -30.9415 -30.5431 -30.4578 -30.4353 -30.3606 -30.2743 -30.1625
   -18.8699 -16.0446 -15.8066 -15.6555 -15.4873 -15.3417 -15.2554 -15.0558
   -14.9399 -14.9009 -14.8823 -14.8082 -14.7059 -14.7050 -14.6613 -14.6342
   -14.6300 -14.6013 -14.5897 -14.5876 -14.5695 -14.5210 -14.5060 -14.4611
   -14.4549 -14.4156 -14.3032 -14.2339 -14.1894 -14.1170 -13.9992 -13.0878
   -12.6365 -12.5203 -10.7939  -7.5746  -6.2516  -5.5811  -3.7372  -3.6352
    -3.4420  -3.1663  -3.0997  -3.0717  -3.0449  -2.8916  -2.7664  -2.5860
    -2.4756  -2.4311  -2.3134  -2.2958  -2.2142  -2.1657  -2.1215  -2.0734
    -2.0433  -1.9780  -1.9606  -1.9561  -1.9280  -1.8613  -1.8336  -1.7183
    -1.6892  -1.6256  -1.5681  -1.4986  -1.4820  -1.4755  -1.4684  -1.4572
    -1.4284  -1.4133  -1.3818  -1.3416  -1.2611  -1.2075  -1.2003  -1.1604
    -1.0770  -0.8917  -0.7683  -0.7444  -0.6864  -0.6428  -0.5914  -0.5794
    -0.5559  -0.5173  -0.4114  -0.3983  -0.3348  -0.3059  -0.2424  -0.1923
    -0.1647  -0.1010  -0.0396   0.0480   0.0685   0.0863   0.1278   0.1747
     0.2460   0.2820   0.3214   0.3515   0.4401   0.4934   0.5535   0.5603
     0.5927   0.6652   0.7214   0.7688   0.7893   0.8087   0.8596   0.8756
     0.9189   0.9741   1.0147   1.0303   1.1009   1.1594   1.2070   1.2399
     1.3378   1.3536   1.5128   1.5680   1.8359   1.8883   1.9557   2.0819
     2.4548   2.4996   3.9345   4.0551   4.0663   4.0888   4.1676   4.2305
     4.3980   4.4048   4.5167   4.6172

[...]

          k = 0.0380-0.0419 0.0000 ( 17876 PWs)   bands (ev):

[...]

          k =-0.0760-0.0000 0.0000 ( 17886 PWs)   bands (ev):

[...]

          k =-0.0760-0.0839 0.0000 ( 17948 PWs)   bands (ev):

   -55.2977 -55.1574 -55.1562 -54.9912 -54.9881 -54.9853 -54.9786 -54.9768
   -54.9244 -54.8893 -54.8398 -54.8238 -54.7852 -54.7585 -54.1208 -54.1198
   -31.5592 -31.5361 -31.4906 -31.4724 -31.4715 -31.4521 -31.4509 -31.4139
   -31.3145 -31.3077 -31.3021 -31.3006 -31.2954 -31.2771 -31.2758 -31.2671
   -31.2668 -31.2459 -31.2441 -31.2150 -31.2020 -31.1981 -31.1972 -31.1910
   -31.1766 -31.1664 -31.1580 -31.1530 -31.1502 -31.1454 -31.1413 -31.1218
   -31.1106 -31.0886 -31.0737 -31.0674 -31.0328 -31.0305 -31.0187 -31.0159
   -31.0108 -30.9936 -30.4483 -30.4476 -30.3566 -30.3554 -30.3178 -30.3171
   -18.8658 -16.0101 -15.3743 -15.1702 -15.1075 -15.0840 -15.0695 -15.0329
   -15.0064 -14.9524 -14.9332 -14.8753 -14.8446 -14.8317 -14.7601 -14.7444
   -14.6889 -14.6596 -14.6470 -14.6074 -14.6027 -14.5805 -14.5482 -14.5397
   -14.4742 -14.4604 -14.4569 -14.3650 -14.3553 -14.2346 -14.1854 -13.0986
   -12.6226 -12.6219 -10.7960  -7.5854  -6.2377  -5.5709  -3.6829  -3.6462
    -3.4001  -2.5861  -2.4488  -2.4387  -2.3026  -2.2893  -2.1935  -2.1466
    -2.0936  -2.0754  -2.0530  -2.0343  -2.0035  -1.9705  -1.9541  -1.9469
    -1.9188  -1.8967  -1.8715  -1.8657  -1.8300  -1.8251  -1.8036  -1.7806
    -1.7703  -1.7354  -1.7219  -1.7178  -1.7035  -1.6505  -1.6315  -1.4688
    -1.4380  -1.3471  -1.3135  -1.2904  -1.2810  -1.2554  -1.2379  -1.2172
    -1.1621  -1.1091  -1.0483  -0.9214  -0.8764  -0.8120  -0.7763  -0.6987
    -0.6574  -0.6239  -0.5957  -0.5722  -0.5387  -0.4818  -0.4046  -0.3499
    -0.3040  -0.2628  -0.1652  -0.1461  -0.1235  -0.1121  -0.0784  -0.0196
    -0.0128   0.0433   0.0620   0.1251   0.1402   0.1558   0.1739   0.2571
     0.3516   0.4321   0.4560   0.5472   0.5650   0.6548   0.7016   0.8017
     0.9139   0.9596   0.9995   1.0093   1.0923   1.0986   1.1544   1.1772
     1.2601   1.3483   1.4127   1.4210   1.4409   1.4947   2.2512   2.2598
     2.3198   2.3202   4.1852   4.3479   4.4277   4.4395   4.4713   4.4824
     4.5147   4.5172   4.6039   4.6132

     the Fermi energy is     3.9537 ev

!    total energy              =   -2976.49320728 Ry
     estimated scf accuracy    <       0.00000005 Ry
     smearing contrib. (-TS)   =      -0.02056832 Ry
     internal energy E=F+TS    =   -2976.47263896 Ry

     The total energy is F=E-TS. E is the sum of the following terms:
     one-electron contribution =  -23617.10442309 Ry
     hartree contribution      =   11908.28764468 Ry
     xc contribution           =    -495.77006387 Ry
     ewald contribution        =    9228.10995311 Ry
     electric field correction =       0.00425022 Ry

     convergence has been achieved in  73 iterations

     Forces acting on atoms (cartesian axes, Ry/au):

     atom    1 type  1   force =     0.00014411   -0.00013410    0.09533681
     atom    2 type  1   force =    -0.00002773    0.00040396   -0.17476798
     atom    3 type  2   force =     0.00004135   -0.00018489   -0.02256683
     atom    4 type  2   force =     0.00001485   -0.00200597    0.05319420
     atom    5 type  2   force =    -0.00813351   -0.00302615    0.00226600
     atom    6 type  2   force =     0.00923099   -0.00232175    0.00056043
     atom    7 type  1   force =    -0.00079161   -0.00508852    0.00568935
     atom    8 type  1   force =     0.00083629    0.00656638    0.01467170
     atom    9 type  2   force =     0.00011532    0.00042810    0.00073273
     atom   10 type  2   force =    -0.00346441    0.00091474   -0.01235754
     atom   11 type  2   force =    -0.00000223   -0.00055294    0.00029142
     atom   12 type  2   force =     0.00006412   -0.00042637    0.00024132
     atom   13 type  1   force =     0.00093062    0.00087696    0.00011248
     atom   14 type  1   force =    -0.00019048    0.00012745   -0.00042308
     atom   15 type  2   force =     0.00015145   -0.00076617   -0.00073409
     atom   16 type  2   force =     0.00011992   -0.00013844    0.00093007
     atom   17 type  2   force =    -0.00002663    0.00013282   -0.00005486
     atom   18 type  2   force =    -0.00006497    0.00028280   -0.00000662
     atom   19 type  1   force =     0.00019735   -0.00004247   -0.00006892
     atom   20 type  1   force =     0.00010168    0.00001803   -0.00021438
     atom   21 type  2   force =     0.00009307   -0.00000040    0.10302790
     atom   22 type  2   force =     0.00010637    0.00024253    0.00066772
     atom   23 type  2   force =    -0.07212126   -0.00020849   -0.02758599
     atom   24 type  2   force =     0.07207792    0.00027763   -0.02760490
     atom   25 type  1   force =     0.00016194   -0.00028990    0.09518123
     atom   26 type  1   force =     0.00001239   -0.00124440   -0.17525030
     atom   27 type  2   force =    -0.00000443    0.00008633   -0.02154442
     atom   28 type  2   force =     0.00005420   -0.00043604    0.04876779
     atom   29 type  2   force =    -0.00785437    0.00198071    0.00251031
     atom   30 type  2   force =     0.00888148    0.00233922    0.00068853
     atom   31 type  1   force =    -0.00069482    0.00833804   -0.00447965
     atom   32 type  1   force =     0.00106190   -0.00750983    0.01445333
     atom   33 type  2   force =     0.00012592    0.00021627   -0.00001242
     atom   34 type  2   force =    -0.00269862   -0.00027387   -0.01823800
     atom   35 type  2   force =    -0.00054556    0.00026699    0.00008891
     atom   36 type  2   force =     0.00071135    0.00039487    0.00024497
     atom   37 type  1   force =     0.00017802   -0.00037607    0.00024741
     atom   38 type  1   force =    -0.00006337   -0.00005568   -0.00072367
     atom   39 type  2   force =     0.00029022    0.00032225   -0.00012163
     atom   40 type  2   force =     0.00023140    0.00001240    0.00068605
     atom   41 type  2   force =    -0.00018743   -0.00035112    0.00001119
     atom   42 type  2   force =     0.00043422   -0.00016491    0.00048953
     atom   43 type  1   force =    -0.00001433    0.00020120   -0.00037557
     atom   44 type  1   force =     0.00032272   -0.00015129   -0.00004393
     atom   45 type  2   force =     0.00008991   -0.00009855    0.10285771
     atom   46 type  2   force =    -0.07216697   -0.00005240   -0.02761279
     atom   47 type  2   force =     0.07211331    0.00034555   -0.02761912
     atom   48 type  3   force =     0.00103070   -0.00023958    0.00057484
     atom   49 type  3   force =    -0.00067139    0.00056043   -0.00023130
     atom   50 type  4   force =    -0.00330000    0.00470103   -0.00208235
     atom   51 type  5   force =     0.00016856    0.00052530   -0.00035356
     atom   52 type  5   force =     0.00323710   -0.00424265    0.00187632
     atom   53 type  5   force =    -0.00036208    0.00045932   -0.00069042
     atom   54 type  5   force =    -0.00014763   -0.00040846   -0.00002817
     atom   55 type  5   force =    -0.00025804   -0.00032263   -0.00007776
     atom   56 type  5   force =    -0.00008525    0.00006897   -0.00050540
     atom   57 type  2   force =     0.00018984   -0.00052814   -0.00014727
     atom   58 type  5   force =     0.00035651    0.00055193    0.00012268

     Total force =     0.363638     Total SCF correction =     0.000867
  @ DRIVER MODE: Message from server: STATUS
  @ DRIVER MODE: Message from server: GETFORCE
  @ DRIVER MODE: Returning v,forces,stress,ensemble

     Writing output data file ./calc.save/
  @ DRIVER MODE: Message from server: EXIT
  @ DRIVE MODE: Exiting

     General routines

     Parallel routines

   This run was terminated on:  23:30:43  23Sep2021

   JOB DONE.