     Program PWSCF v.6.7GPU starts on  1Oct2021 at 18:32:36

     R & G space division:  proc/nbgrp/npool/nimage =       8
     Reading input from /storage/home/hcoda1/3/ntian30/research/carbon/CxH_vib/pristine/ads_slab/CHHNN_a/out_0023/pw.inp
Warning: card &CELL ignored
Warning: card   CELL_DYNAMICS='IPI', ignored
Warning: card / ignored

     Current dimensions of program PWSCF are:
     Max number of different atomic species (ntypx) = 10
     Max number of k-points (npk) =  40000
     Max angular momentum in pseudopotentials (lmaxx) =  3
     Presently no symmetry can be used with electric field

     Message from routine cell_base_init:
     DEPRECATED: use true lattice parameter, not A to a.u. conversion factor

     IMPORTANT: XC functional enforced from input :
     Exchange-correlation= BEEF-VDW
                           (   1   4  43  14   2   0   0)
     Any further DFT definition will be discarded
     Please, verify this is what you really want

  @ DRIVER MODE: Connecting to
 qe_1139763_3035467.sched-torque.pace.gatech.eduiorhw6my_scratch
  using UNIX socket
  @ DRIVER MODE: Message from server: STATUS
  @ DRIVER MODE: Message from server: INIT
  @ DRIVER MODE: Receiving replica           0          -1
  @ DRIVER MODE: Receiving encoded integer          25
  @ DRIVER MODE:  SCF:  T  FORCE:  T  STRESS:  F  VC:  F  ENSEMBLE:  F
  @ DRIVER MODE:  SCF:  T  FORCE:  T  STRESS:  F  VC:  F  ENSEMBLE:  F

     Using Slab Decomposition

     bravais-lattice index     =            0
     lattice parameter (alat)  =       1.8897  a.u.
     unit-cell volume          =    6658.9804 (a.u.)^3
     number of atoms/cell      =           53
     number of atomic types    =            5
     number of electrons       =       400.00
     number of Kohn-Sham states=          210
     kinetic-energy cutoff     =      29.3995  Ry
     charge density cutoff     =     293.9946  Ry
     scf convergence threshold =      7.3E-08
     mixing beta               =       0.0500
     number of iterations used =            8  plain     mixing
     Exchange-correlation= BEEF-VDW
                           (   1   4  43  14   2   0   0)

     celldm(1)=   1.889726  celldm(2)=   0.000000  celldm(3)=   0.000000
     celldm(4)=   0.000000  celldm(5)=   0.000000  celldm(6)=   0.000000

     crystal axes: (cart. coord. in units of alat)
               a(1) = (   6.579727   0.000000   0.000000 )
               a(2) = (  -0.000775   5.961596   0.000000 )
               a(3) = (   0.000000   0.000000  25.155947 )

     reciprocal axes: (cart. coord. in units 2 pi/alat)
               b(1) = (  0.151982  0.000020  0.000000 )
               b(2) = (  0.000000  0.167740  0.000000 )
               b(3) = (  0.000000  0.000000  0.039752 )

     PseudoPot. # 1 for Ti read from file:
     /storage/coda1/p-amedford6/0/shared/rich_project_chbe-medford/medford-share/data/pseudos_module/espresso/nninc/pbe/van/Ti.UPF
     MD5 check sum: 8e4df49b7f0d34bbd5052bf3f5ea0213
     Pseudo is Ultrasoft, Zval = 12.0
     Generated by new atomic code, or converted to UPF format
     Using radial grid of  851 points,  6 beta functions with:
                l(1) =   0
                l(2) =   0
                l(3) =   1
                l(4) =   1
                l(5) =   2
                l(6) =   2
     Q(r) pseudized with  8 coefficients,  rinner =    1.000   1.000   1.000
                                                       1.000   1.000

     PseudoPot. # 2 for O  read from file:
     /storage/coda1/p-amedford6/0/shared/rich_project_chbe-medford/medford-share/data/pseudos_module/espresso/nninc/pbe/van/O.UPF
     MD5 check sum: 78c19812648e8988a0fe644b0f25305e
     Pseudo is Ultrasoft, Zval =  6.0
     Generated by new atomic code, or converted to UPF format
     Using radial grid of  737 points,  4 beta functions with:
                l(1) =   0
                l(2) =   0
                l(3) =   1
                l(4) =   1
     Q(r) pseudized with  8 coefficients,  rinner =    0.800   0.800   0.800

     PseudoPot. # 3 for N  read from file:
     /storage/coda1/p-amedford6/0/shared/rich_project_chbe-medford/medford-share/data/pseudos_module/espresso/nninc/pbe/van/N.UPF
     MD5 check sum: 90d10febe142ad51ac9d5be1deb811c4
     Pseudo is Ultrasoft, Zval =  5.0
     Generated by new atomic code, or converted to UPF format
     Using radial grid of  729 points,  4 beta functions with:
                l(1) =   0
                l(2) =   0
                l(3) =   1
                l(4) =   1
     Q(r) pseudized with  8 coefficients,  rinner =    0.800   0.800   0.800

     PseudoPot. # 4 for C  read from file:
     /storage/coda1/p-amedford6/0/shared/rich_project_chbe-medford/medford-share/data/pseudos_module/espresso/nninc/pbe/van/C.UPF
     MD5 check sum: 1a69bf6b8db32088f5b2163dbdb77a27
     Pseudo is Ultrasoft, Zval =  4.0
     Generated by new atomic code, or converted to UPF format
     Using radial grid of  721 points,  4 beta functions with:
                l(1) =   0
                l(2) =   0
                l(3) =   1
                l(4) =   1
     Q(r) pseudized with  8 coefficients,  rinner =    0.800   0.800   0.800

     PseudoPot. # 5 for H  read from file:
     /storage/coda1/p-amedford6/0/shared/rich_project_chbe-medford/medford-share/data/pseudos_module/espresso/nninc/pbe/van/H.UPF
     MD5 check sum: b5ee9d7bfd3a09ee7748110bda690ff7
     Pseudo is Ultrasoft, Zval =  1.0
     Generated by new atomic code, or converted to UPF format
     Using radial grid of  615 points,  1 beta functions with:
                l(1) =   0
     Q(r) pseudized with  8 coefficients,  rinner =    0.800

     atomic species   valence    mass     pseudopotential
        Ti1           12.00    47.86700     Ti( 1.00)
        O1             6.00    15.99900     O ( 1.00)
        N1             5.00    14.00700     N ( 1.00)
        C1             4.00    12.01100     C ( 1.00)
        H1             1.00     1.00800     H ( 1.00)

     No symmetry found

   Cartesian axes

     site n.     atom                  positions (alat units)
         1           Ti1 tau(   1) = (   0.0004258   2.9801865   6.0000000  )
         2           Ti1 tau(   2) = (   3.2906075   1.4906267   6.0002472  )
         3           O1  tau(   3) = (   0.0006271   0.0005054   7.9858123  )
         4           O1  tau(   4) = (   3.2906025   0.0005020   7.3038282  )
         5           O1  tau(   5) = (   4.5942328   1.4918067   9.2879030  )
         6           O1  tau(   6) = (   1.9868534   1.4903216   9.2879459  )
         7           Ti1 tau(   7) = (   3.2961651   2.9340025   9.1571600  )
         8           Ti1 tau(   8) = (   0.0257383   1.5005952   9.3383585  )
         9           O1  tau(   9) = (   3.3091981   5.9584344  11.3361002  )
        10           O1  tau(  10) = (   6.5780281   5.9600862  10.6016087  )
        11           O1  tau(  11) = (   1.3203574   1.4925043  12.6130903  )
        12           O1  tau(  12) = (   5.3210186   1.4819496  12.6412376  )
        13           Ti1 tau(  13) = (   6.5659556   2.9650791  12.8176139  )
        14           Ti1 tau(  14) = (   3.2164003   1.4877187  12.4769567  )
        15           O1  tau(  15) = (   0.0404395   5.9536100  14.6624943  )
        16           O1  tau(  16) = (   3.3074673   5.9584959  13.9062718  )
        17           O1  tau(  17) = (   4.5856532   1.4904827  16.0465219  )
        18           O1  tau(  18) = (   2.1034043   1.4884928  16.0442595  )
        19           Ti1 tau(  19) = (   3.2939248   2.9785878  15.7144947  )
        20           Ti1 tau(  20) = (   6.5451327   1.4142704  16.0395912  )
        21           O1  tau(  21) = (   3.2904802   0.0005063   4.7018136  )
        22           O1  tau(  22) = (   0.0457580   0.0044623  17.2034710  )
        23           O1  tau(  23) = (   1.3043587   1.4918075   6.0039043  )
        24           O1  tau(  24) = (   5.2767064   1.4903225   6.0039473  )
        25           Ti1 tau(  25) = (   0.0000382   5.9609847   6.0000000  )
        26           Ti1 tau(  26) = (   3.2902200   4.4714249   6.0002472  )
        27           O1  tau(  27) = (   0.0002396   2.9813036   7.9858123  )
        28           O1  tau(  28) = (   3.2902150   2.9813002   7.3038282  )
        29           O1  tau(  29) = (   4.5938453   4.4726049   9.2879030  )
        30           O1  tau(  30) = (   1.9864658   4.4711199   9.2879459  )
        31           Ti1 tau(  31) = (   3.3296195   5.9152860   9.1560537  )
        32           Ti1 tau(  32) = (   0.0304643   4.4420822   9.3322224  )
        33           O1  tau(  33) = (   3.3127198   2.9780151  11.3348310  )
        34           O1  tau(  34) = (   0.0025308   2.9791118  10.5479895  )
        35           O1  tau(  35) = (   1.3183054   4.4635934  12.6126975  )
        36           O1  tau(  36) = (   5.3202651   4.4673696  12.6407401  )
        37           Ti1 tau(  37) = (   6.5108624   5.9459213  12.5946634  )
        38           Ti1 tau(  38) = (   3.2137380   4.4666137  12.4775098  )
        39           O1  tau(  39) = (   0.0464109   2.9731917  14.6594554  )
        40           O1  tau(  40) = (   3.3098714   2.9789900  13.9126757  )
        41           O1  tau(  41) = (   4.5859750   4.4686661  16.0488133  )
        42           O1  tau(  42) = (   2.1005049   4.4706468  16.0453856  )
        43           Ti1 tau(  43) = (   3.2853703   5.9589473  15.7052640  )
        44           Ti1 tau(  44) = (   6.5509595   4.5658457  16.0514827  )
        45           O1  tau(  45) = (   3.2900926   2.9813045   4.7018136  )
        46           O1  tau(  46) = (   0.0949885   2.9744829  17.2486893  )
        47           O1  tau(  47) = (   1.3039711   4.4726057   6.0039043  )
        48           O1  tau(  48) = (   5.2763189   4.4711207   6.0039473  )
        49           N1  tau(  49) = (   0.3730515   3.1615268  19.4484725  )
        50           N1  tau(  50) = (   6.0186590   2.9946300  18.5893579  )
        51           C1  tau(  51) = (   0.0316377   3.3059097  20.7092049  )
        52           H1  tau(  52) = (   5.5749133   3.3461147  21.0218256  )
        53           H1  tau(  53) = (   0.8315635   3.3875449  21.4270997  )

     number of k points=    10  Fermi-Dirac smearing, width (Ry)=  0.0073
                       cart. coord. in units 2pi/alat
        k(    1) = (   0.0000000   0.0000000   0.0000000), wk =   0.1250000
        k(    2) = (   0.0000000   0.0419351   0.0000000), wk =   0.2500000
        k(    3) = (   0.0000000  -0.0838702   0.0000000), wk =   0.1250000
        k(    4) = (   0.0379955   0.0000049   0.0000000), wk =   0.2500000
        k(    5) = (   0.0379955   0.0419400   0.0000000), wk =   0.2500000
        k(    6) = (   0.0379955  -0.0838652   0.0000000), wk =   0.2500000
        k(    7) = (   0.0379955  -0.0419301   0.0000000), wk =   0.2500000
        k(    8) = (  -0.0759910  -0.0000099   0.0000000), wk =   0.1250000
        k(    9) = (  -0.0759910   0.0419252   0.0000000), wk =   0.2500000
        k(   10) = (  -0.0759910  -0.0838800   0.0000000), wk =   0.1250000

     Initial potential from superposition of free atoms

     starting charge  383.99917, renormalised to  400.00000

     negative rho (up, down):  1.226E-02 0.000E+00

     %%%%%%%%%%%%%%%%%%%%%%%%%%%%%%%%%%%%%%%%%%%%%%%%%%%%%%%%%%%%%%%%%%%%%%%%
     %                                                                      %
     % You are using vdW-DF, which was implemented by the Thonhauser group. %
     % Please cite the following two papers that made this development      %
     % possible and the two reviews that describe the various versions:     %
     %                                                                      %
     %   T. Thonhauser et al., PRL 115, 136402 (2015).                      %
     %   T. Thonhauser et al., PRB 76, 125112 (2007).                       %
     %   K. Berland et al., Rep. Prog. Phys. 78, 066501 (2015).             %
     %   D.C. Langreth et al., J. Phys.: Condens. Matter 21, 084203 (2009). %
     %                                                                      %
     %                                                                      %
     % If you are calculating the stress with vdW-DF, please also cite:     %
     %                                                                      %
     %   R. Sabatini et al., J. Phys.: Condens. Matter 24, 424209 (2012).   %
     %                                                                      %
     %%%%%%%%%%%%%%%%%%%%%%%%%%%%%%%%%%%%%%%%%%%%%%%%%%%%%%%%%%%%%%%%%%%%%%%%

     Adding external electric field

     Computed dipole along edir(3) :
        Dipole              -11.7953 Ry au,        -29.9808 Debye
        Dipole field         -0.0223 Ry au,

        Potential amp.        2.0634 Ry
        Total length         46.3494 bohr

     Starting wfcs are  302 atomic wfcs
  @ DRIVER MODE: Message from server: STATUS
  @ DRIVER MODE: Message from server: POSDATA
  @ DRIVER MODE: Reading and sharing cell
  @ DRIVER MODE: Reading and sharing positions
  @ DRIVER MODE: Received positions

     Self-consistent Calculation

     iteration #  1     ecut=    29.40 Ry     beta= 0.05
     Davidson diagonalization with overlap
     c_bands:  3 eigenvalues not converged
     c_bands:  1 eigenvalues not converged
     c_bands:  2 eigenvalues not converged
     c_bands:  3 eigenvalues not converged
     c_bands:  3 eigenvalues not converged
     c_bands:  3 eigenvalues not converged
     c_bands:  1 eigenvalues not converged
     c_bands:  5 eigenvalues not converged
     c_bands:  2 eigenvalues not converged
     ethr =  1.00E-05,  avg # of iterations = 19.9

[...]

     total energy              =   -2452.83713382 Ry
     estimated scf accuracy    <    5806.07735370 Ry

     iteration #  2     ecut=    29.40 Ry     beta= 0.05
     Davidson diagonalization with overlap
     ethr =  1.00E-02,  avg # of iterations = 23.0

[...]

     iteration # 47     ecut=    29.40 Ry     beta= 0.05
     Davidson diagonalization with overlap
     c_bands:  2 eigenvalues not converged
     ethr =  9.14E-08,  avg # of iterations =  6.3

[...]

     total energy              =   -2970.15580504 Ry
     estimated scf accuracy    <       0.00000015 Ry

     iteration # 66     ecut=    29.40 Ry     beta= 0.05
     Davidson diagonalization with overlap
     ethr =  3.69E-11,  avg # of iterations = 10.1

     negative rho (up, down):  1.340E-02 0.000E+00

     Adding external electric field

     Computed dipole along edir(3) :
        Dipole                0.4187 Ry au,          1.0641 Debye
        Dipole field          0.0008 Ry au,

        Potential amp.       -0.0732 Ry
        Total length         46.3494 bohr

     End of self-consistent calculation

          k = 0.0000 0.0000 0.0000 ( 18029 PWs)   bands (ev):

   -56.1043 -56.0660 -56.0536 -56.0175 -55.9498 -55.9232 -55.8881 -55.8532
   -55.7991 -55.7884 -55.7625 -55.7618 -55.7536 -55.7171 -55.0696 -55.0355
   -32.6051 -32.5575 -32.4138 -32.3918 -32.3869 -32.3602 -32.3512 -32.3226
   -32.2842 -32.2817 -32.2748 -32.2712 -32.2540 -32.2442 -32.2347 -32.2088
   -32.1873 -32.1808 -32.1765 -32.1761 -32.1498 -32.1365 -32.0788 -32.0768
   -32.0689 -32.0552 -32.0501 -32.0242 -32.0229 -32.0191 -32.0074 -31.9954
   -31.9589 -31.9569 -31.9420 -31.9416 -31.9401 -31.9318 -31.9216 -31.9023
   -31.8879 -31.8420 -31.4778 -31.3842 -31.3615 -31.2949 -31.2090 -31.0975
   -19.0470 -16.7905 -16.4903 -16.3949 -16.2053 -16.1742 -16.0870 -16.0406
   -15.8102 -15.7149 -15.6556 -15.6261 -15.5985 -15.5906 -15.5852 -15.5588
   -15.5167 -15.5152 -15.4833 -15.4661 -15.4567 -15.4026 -15.3536 -15.3084
   -15.2474 -15.2143 -15.1826 -15.1797 -15.0728 -15.0258 -14.9782 -13.5692
   -13.4516 -10.9585  -6.4348  -4.8441  -4.1530  -3.9963  -3.9528  -3.9524
    -3.8384  -3.6919  -3.5905  -3.5524  -3.4409  -3.2231  -3.2107  -3.1934
    -3.1715  -3.1145  -2.9537  -2.8943  -2.8874  -2.8696  -2.8503  -2.8284
    -2.8051  -2.7905  -2.7613  -2.7339  -2.7176  -2.5774  -2.5691  -2.4717
    -2.4528  -2.4032  -2.3737  -2.3577  -2.3153  -2.2684  -2.2254  -2.2054
    -2.1826  -2.1568  -2.0776  -1.9161  -1.9040  -1.8701  -1.7926  -1.7390
    -1.7332  -1.4734  -1.4725  -1.4659  -1.4006  -1.3574  -1.3493  -1.2706
    -1.2187  -1.1960  -1.1807  -1.1554  -1.0803  -1.0035  -0.9589  -0.9061
    -0.8701  -0.8192  -0.7895  -0.7743  -0.7554  -0.5478  -0.5240  -0.4914
    -0.4544  -0.3385  -0.3285  -0.2830  -0.2694  -0.2267  -0.2182  -0.1051
    -0.0830  -0.0649  -0.0490  -0.0282  -0.0041   0.0136   0.0691   0.1201
     0.1527   0.1792   0.3692   0.3802   0.5447   0.5848   0.6132   0.7602
     0.8688   0.9553   1.0819   1.1308   1.5473   1.6171   1.7207   2.9815
     3.1121   3.1935   3.2437   3.2755   3.3357   3.4987   3.5483   3.5770
     3.6171   3.6250

[...]

          k = 0.0380-0.0419 0.0000 ( 17876 PWs)   bands (ev):

[...]

          k =-0.0760-0.0000 0.0000 ( 17886 PWs)   bands (ev):

[...]

          k =-0.0760-0.0839 0.0000 ( 17948 PWs)   bands (ev):

   -56.0940 -56.0761 -56.0362 -56.0346 -55.9468 -55.9076 -55.9035 -55.8561
   -55.7864 -55.7765 -55.7734 -55.7664 -55.7540 -55.7255 -55.0525 -55.0525
   -32.4079 -32.4060 -32.3813 -32.3799 -32.3654 -32.3522 -32.3100 -32.3088
   -32.2911 -32.2452 -32.2399 -32.2386 -32.2283 -32.2151 -32.2140 -32.2046
   -32.1959 -32.1935 -32.1765 -32.1555 -32.1302 -32.1250 -32.1138 -32.1122
   -32.1049 -32.0943 -32.0865 -32.0742 -32.0621 -32.0386 -32.0278 -31.9920
   -31.9874 -31.9847 -31.9778 -31.9672 -31.9663 -31.9627 -31.9616 -31.9550
   -31.9459 -31.9353 -31.3742 -31.3741 -31.2910 -31.2908 -31.2520 -31.2519
   -19.0386 -16.2110 -16.2023 -16.1839 -15.9491 -15.9457 -15.9119 -15.8582
   -15.7621 -15.7607 -15.7538 -15.7413 -15.6764 -15.6677 -15.6622 -15.5911
   -15.5801 -15.5770 -15.5704 -15.5460 -15.4919 -15.4910 -15.3796 -15.3577
   -15.3549 -15.3480 -15.3292 -15.3212 -15.2556 -15.2017 -15.1962 -13.5545
   -13.5515 -10.9600  -6.4221  -4.8080  -3.6913  -3.5036  -3.4948  -3.4147
    -3.1873  -3.1782  -3.0613  -3.0515  -3.0017  -2.9564  -2.9168  -2.9049
    -2.8943  -2.8743  -2.8685  -2.8508  -2.8301  -2.8130  -2.7955  -2.7688
    -2.7218  -2.6897  -2.6736  -2.6511  -2.6427  -2.6331  -2.6046  -2.5964
    -2.5746  -2.5719  -2.5521  -2.4527  -2.3197  -2.2901  -2.2337  -2.1831
    -2.1570  -2.1267  -2.1212  -2.0889  -2.0759  -2.0501  -1.9267  -1.8575
    -1.7808  -1.7485  -1.7243  -1.6614  -1.5813  -1.4974  -1.4284  -1.4064
    -1.3574  -1.3113  -1.2917  -1.2637  -1.2200  -1.2076  -1.1561  -1.0836
    -1.0759  -1.0363  -1.0265  -1.0057  -0.9327  -0.9244  -0.8683  -0.8106
    -0.7967  -0.7104  -0.6557  -0.6325  -0.6200  -0.5601  -0.5416  -0.4737
    -0.3966  -0.3176  -0.0431  -0.0262   0.0278   0.0394   0.0732   0.1732
     0.2347   0.2520   0.3258   0.3506   0.4273   0.4764   0.5091   0.5138
     0.5942   0.6121   1.3204   1.3240   1.4067   1.4161   1.7448   2.9416
     3.3909   3.4204   3.4266   3.4479   3.5832   3.5907   3.6077   3.6160
     3.7545   3.7923

     the Fermi energy is     3.0586 ev

!    total energy              =   -2970.15584895 Ry
     estimated scf accuracy    <       0.00000007 Ry
     smearing contrib. (-TS)   =      -0.02345313 Ry
     internal energy E=F+TS    =   -2970.13239583 Ry

     The total energy is F=E-TS. E is the sum of the following terms:
     one-electron contribution =  -23559.80945185 Ry
     hartree contribution      =   11868.11892022 Ry
     xc contribution           =    -491.49942555 Ry
     ewald contribution        =    9213.05723058 Ry
     electric field correction =       0.00033078 Ry

     convergence has been achieved in  66 iterations

     Forces acting on atoms (cartesian axes, Ry/au):

     atom    1 type  1   force =    -0.00001080   -0.00028694    0.11748596
     atom    2 type  1   force =    -0.00002229   -0.00047346   -0.17832846
     atom    3 type  2   force =     0.00020326    0.00070597   -0.03806655
     atom    4 type  2   force =     0.00087817   -0.00059915    0.04406004
     atom    5 type  2   force =    -0.02135137   -0.00158933    0.00209630
     atom    6 type  2   force =     0.02127370    0.00124815    0.00429489
     atom    7 type  1   force =     0.00091762   -0.00015918   -0.00003552
     atom    8 type  1   force =     0.00006113   -0.00015760    0.00093803
     atom    9 type  2   force =    -0.00048776    0.00006736   -0.00043974
     atom   10 type  2   force =     0.00025245    0.00008255   -0.00106664
     atom   11 type  2   force =     0.00062538    0.00009206   -0.00004549
     atom   12 type  2   force =    -0.00029447    0.00039391   -0.00025517
     atom   13 type  1   force =    -0.00136506    0.00032583    0.00004683
     atom   14 type  1   force =     0.00115584    0.00020263   -0.00035005
     atom   15 type  2   force =    -0.00033807    0.00018530    0.00096573
     atom   16 type  2   force =    -0.00027680    0.00003492    0.00152171
     atom   17 type  2   force =     0.00005389   -0.00028235    0.00045016
     atom   18 type  2   force =    -0.00040385   -0.00043676    0.00025028
     atom   19 type  1   force =    -0.00030609    0.00018928    0.00049003
     atom   20 type  1   force =     0.00022469    0.00012963    0.00030439
     atom   21 type  2   force =    -0.00000867    0.00005246    0.10372691
     atom   22 type  2   force =    -0.00037610    0.00025220   -0.00096020
     atom   23 type  2   force =    -0.06936373    0.00107907   -0.03120062
     atom   24 type  2   force =     0.06912591    0.00148315   -0.03120069
     atom   25 type  1   force =    -0.00022967   -0.00018930    0.12923546
     atom   26 type  1   force =    -0.00004470   -0.00004893   -0.17838990
     atom   27 type  2   force =     0.00040994    0.00016174   -0.03707108
     atom   28 type  2   force =     0.00033327   -0.00056337    0.04502083
     atom   29 type  2   force =    -0.02053213    0.00077162    0.00198525
     atom   30 type  2   force =     0.02218512    0.00158622    0.00424510
     atom   31 type  1   force =     0.00022014   -0.00042338   -0.00058343
     atom   32 type  1   force =    -0.00009543   -0.00105869    0.00108878
     atom   33 type  2   force =    -0.00050382   -0.00016479    0.00079753
     atom   34 type  2   force =     0.00011171   -0.00009230   -0.00024583
     atom   35 type  2   force =     0.00072381   -0.00022816   -0.00015120
     atom   36 type  2   force =    -0.00019834   -0.00013765   -0.00040860
     atom   37 type  1   force =    -0.00081540   -0.00049574    0.00042938
     atom   38 type  1   force =     0.00123226   -0.00042477   -0.00030126
     atom   39 type  2   force =    -0.00030619   -0.00017315   -0.00094106
     atom   40 type  2   force =    -0.00030640   -0.00010030   -0.00021293
     atom   41 type  2   force =    -0.00013563    0.00052995    0.00032744
     atom   42 type  2   force =    -0.00019884    0.00058143    0.00022800
     atom   43 type  1   force =    -0.00013928   -0.00006524   -0.00070977
     atom   44 type  1   force =     0.00006848   -0.00022097    0.00010049
     atom   45 type  2   force =     0.00001564    0.00004875    0.10385232
     atom   46 type  2   force =    -0.00005182   -0.00004359   -0.00032315
     atom   47 type  2   force =    -0.06933305   -0.00128967   -0.03116300
     atom   48 type  2   force =     0.06912020   -0.00082663   -0.03121870
     atom   49 type  3   force =     0.00200071    0.00019292   -0.00094615
     atom   50 type  3   force =    -0.00124732   -0.00010053    0.00066808
     atom   51 type  4   force =     0.00149284    0.00000359   -0.00295525
     atom   52 type  5   force =    -0.00329134    0.00011289    0.00261683
     atom   53 type  5   force =    -0.00065175    0.00011836    0.00034367

     Total force =     0.384024     Total SCF correction =     0.000783
  @ DRIVER MODE: Message from server: STATUS
  @ DRIVER MODE: Message from server: GETFORCE
  @ DRIVER MODE: Returning v,forces,stress,ensemble

     Writing output data file ./calc.save/
  @ DRIVER MODE: Message from server: EXIT
  @ DRIVE MODE: Exiting

     General routines

     Parallel routines

   This run was terminated on:  18:56:49   1Oct2021

   JOB DONE.