     Program PWSCF v.6.7GPU starts on 16Sep2021 at  0:49:25

     R & G space division:  proc/nbgrp/npool/nimage =      10
     Reading input from /storage/home/hcoda1/3/ntian30/research/carbon/CxH_vib/H2O_calc/ads_slab/CH3NNHHHH2O_a/out_0026/pw.inp
Warning: card &CELL ignored
Warning: card   CELL_DYNAMICS='IPI', ignored
Warning: card / ignored

     Current dimensions of program PWSCF are:
     Max number of different atomic species (ntypx) = 10
     Max number of k-points (npk) =  40000
     Max angular momentum in pseudopotentials (lmaxx) =  3
     Presently no symmetry can be used with electric field

     Message from routine cell_base_init:
     DEPRECATED: use true lattice parameter, not A to a.u. conversion factor

     IMPORTANT: XC functional enforced from input :
     Exchange-correlation= BEEF-VDW
                           (   1   4  43  14   2   0   0)
     Any further DFT definition will be discarded
     Please, verify this is what you really want

  @ DRIVER MODE: Connecting to
 qe_1139763_2852622.sched-torque.pace.gatech.eduh9llpd75_scratch
  using UNIX socket
  @ DRIVER MODE: Message from server: STATUS
  @ DRIVER MODE: Message from server: INIT
  @ DRIVER MODE: Receiving replica           0          -1
  @ DRIVER MODE: Receiving encoded integer          25
  @ DRIVER MODE:  SCF:  T  FORCE:  T  STRESS:  F  VC:  F  ENSEMBLE:  F
  @ DRIVER MODE:  SCF:  T  FORCE:  T  STRESS:  F  VC:  F  ENSEMBLE:  F

     Using Slab Decomposition

     bravais-lattice index     =            0
     lattice parameter (alat)  =       1.8897  a.u.
     unit-cell volume          =    6658.9804 (a.u.)^3
     number of atoms/cell      =           59
     number of atomic types    =            5
     number of electrons       =       406.00
     number of Kohn-Sham states=          213
     kinetic-energy cutoff     =      29.3995  Ry
     charge density cutoff     =     293.9946  Ry
     scf convergence threshold =      7.3E-08
     mixing beta               =       0.0500
     number of iterations used =            8  plain     mixing
     Exchange-correlation= BEEF-VDW
                           (   1   4  43  14   2   0   0)

     celldm(1)=   1.889726  celldm(2)=   0.000000  celldm(3)=   0.000000
     celldm(4)=   0.000000  celldm(5)=   0.000000  celldm(6)=   0.000000

     crystal axes: (cart. coord. in units of alat)
               a(1) = (   6.579727   0.000000   0.000000 )
               a(2) = (  -0.000775   5.961596   0.000000 )
               a(3) = (   0.000000   0.000000  25.155947 )

     reciprocal axes: (cart. coord. in units 2 pi/alat)
               b(1) = (  0.151982  0.000020  0.000000 )
               b(2) = (  0.000000  0.167740  0.000000 )
               b(3) = (  0.000000  0.000000  0.039752 )

     PseudoPot. # 1 for Ti read from file:
     /storage/coda1/p-amedford6/0/shared/rich_project_chbe-medford/medford-share/data/pseudos_module/espresso/nninc/pbe/van/Ti.UPF
     MD5 check sum: 8e4df49b7f0d34bbd5052bf3f5ea0213
     Pseudo is Ultrasoft, Zval = 12.0
     Generated by new atomic code, or converted to UPF format
     Using radial grid of  851 points,  6 beta functions with:
                l(1) =   0
                l(2) =   0
                l(3) =   1
                l(4) =   1
                l(5) =   2
                l(6) =   2
     Q(r) pseudized with  8 coefficients,  rinner =    1.000   1.000   1.000
                                                       1.000   1.000

     PseudoPot. # 2 for O  read from file:
     /storage/coda1/p-amedford6/0/shared/rich_project_chbe-medford/medford-share/data/pseudos_module/espresso/nninc/pbe/van/O.UPF
     MD5 check sum: 78c19812648e8988a0fe644b0f25305e
     Pseudo is Ultrasoft, Zval =  6.0
     Generated by new atomic code, or converted to UPF format
     Using radial grid of  737 points,  4 beta functions with:
                l(1) =   0
                l(2) =   0
                l(3) =   1
                l(4) =   1
     Q(r) pseudized with  8 coefficients,  rinner =    0.800   0.800   0.800

     PseudoPot. # 3 for N  read from file:
     /storage/coda1/p-amedford6/0/shared/rich_project_chbe-medford/medford-share/data/pseudos_module/espresso/nninc/pbe/van/N.UPF
     MD5 check sum: 90d10febe142ad51ac9d5be1deb811c4
     Pseudo is Ultrasoft, Zval =  5.0
     Generated by new atomic code, or converted to UPF format
     Using radial grid of  729 points,  4 beta functions with:
                l(1) =   0
                l(2) =   0
                l(3) =   1
                l(4) =   1
     Q(r) pseudized with  8 coefficients,  rinner =    0.800   0.800   0.800

     PseudoPot. # 4 for C  read from file:
     /storage/coda1/p-amedford6/0/shared/rich_project_chbe-medford/medford-share/data/pseudos_module/espresso/nninc/pbe/van/C.UPF
     MD5 check sum: 1a69bf6b8db32088f5b2163dbdb77a27
     Pseudo is Ultrasoft, Zval =  4.0
     Generated by new atomic code, or converted to UPF format
     Using radial grid of  721 points,  4 beta functions with:
                l(1) =   0
                l(2) =   0
                l(3) =   1
                l(4) =   1
     Q(r) pseudized with  8 coefficients,  rinner =    0.800   0.800   0.800

     PseudoPot. # 5 for H  read from file:
     /storage/coda1/p-amedford6/0/shared/rich_project_chbe-medford/medford-share/data/pseudos_module/espresso/nninc/pbe/van/H.UPF
     MD5 check sum: b5ee9d7bfd3a09ee7748110bda690ff7
     Pseudo is Ultrasoft, Zval =  1.0
     Generated by new atomic code, or converted to UPF format
     Using radial grid of  615 points,  1 beta functions with:
                l(1) =   0
     Q(r) pseudized with  8 coefficients,  rinner =    0.800

     atomic species   valence    mass     pseudopotential
        Ti1           12.00    47.86700     Ti( 1.00)
        O1             6.00    15.99900     O ( 1.00)
        N1             5.00    14.00700     N ( 1.00)
        C1             4.00    12.01100     C ( 1.00)
        H1             1.00     1.00800     H ( 1.00)

     No symmetry found

   Cartesian axes

     site n.     atom                  positions (alat units)
         1           Ti1 tau(   1) = (   0.0004258   2.9801865   6.0000000  )
         2           Ti1 tau(   2) = (   3.2906075   1.4906267   6.0002472  )
         3           O1  tau(   3) = (   0.0006271   0.0005054   7.9858123  )
         4           O1  tau(   4) = (   3.2906025   0.0005020   7.3038282  )
         5           O1  tau(   5) = (   4.5942328   1.4918067   9.2879030  )
         6           O1  tau(   6) = (   1.9868534   1.4903216   9.2879459  )
         7           Ti1 tau(   7) = (   3.2907910   2.8959150   9.1758416  )
         8           Ti1 tau(   8) = (   0.0015273   1.4827037   9.2680791  )
         9           O1  tau(   9) = (   3.2800960   5.9426830  11.3808346  )
        10           O1  tau(  10) = (   0.0116148   5.9584955  10.6183126  )
        11           O1  tau(  11) = (   1.2797812   1.4911726  12.6624455  )
        12           O1  tau(  12) = (   5.2824698   1.4871998  12.6412817  )
        13           Ti1 tau(  13) = (   0.0041451   2.9720195  12.5119452  )
        14           Ti1 tau(  14) = (   3.3095611   1.4699318  12.5307708  )
        15           O1  tau(  15) = (   6.5436702   0.0697967  14.6864816  )
        16           O1  tau(  16) = (   3.2812162   5.9597207  14.0300411  )
        17           O1  tau(  17) = (   4.5129646   1.5046642  16.2361130  )
        18           O1  tau(  18) = (   1.9708392   1.5012857  16.1671103  )
        19           Ti1 tau(  19) = (   3.2655272   2.9480959  15.7331506  )
        20           Ti1 tau(  20) = (   6.5674642   1.4497656  15.9937491  )
        21           O1  tau(  21) = (   3.2904802   0.0005063   4.7018136  )
        22           O1  tau(  22) = (   6.5217933   5.8323795  17.2454964  )
        23           O1  tau(  23) = (   1.3043587   1.4918075   6.0039043  )
        24           O1  tau(  24) = (   5.2767064   1.4903225   6.0039473  )
        25           Ti1 tau(  25) = (   0.0000382   5.9609847   6.0000000  )
        26           Ti1 tau(  26) = (   3.2902200   4.4714249   6.0002472  )
        27           O1  tau(  27) = (   0.0002396   2.9813036   7.9858123  )
        28           O1  tau(  28) = (   3.2902150   2.9813002   7.3038282  )
        29           O1  tau(  29) = (   4.5938453   4.4726049   9.2879030  )
        30           O1  tau(  30) = (   1.9864658   4.4711199   9.2879459  )
        31           Ti1 tau(  31) = (   3.2891106   5.8743827   9.1763621  )
        32           Ti1 tau(  32) = (   0.0006254   4.4649316   9.2693709  )
        33           O1  tau(  33) = (   3.2830490   2.9749636  11.3746576  )
        34           O1  tau(  34) = (   0.0092240   2.9805883  10.6323155  )
        35           O1  tau(  35) = (   1.2760807   4.4612897  12.6946019  )
        36           O1  tau(  36) = (   5.2846406   4.4647657  12.6742532  )
        37           Ti1 tau(  37) = (   0.0173662   5.9591775  12.4970172  )
        38           Ti1 tau(  38) = (   3.3070294   4.4569304  12.5379467  )
        39           O1  tau(  39) = (   6.5190077   2.9374781  14.9220565  )
        40           O1  tau(  40) = (   3.2909943   2.9519766  13.9498127  )
        41           O1  tau(  41) = (   4.5146313   4.4149292  16.1460290  )
        42           O1  tau(  42) = (   1.9668235   4.4047650  16.1116202  )
        43           Ti1 tau(  43) = (   3.2426406   5.9218513  15.8539982  )
        44           Ti1 tau(  44) = (   6.5337747   4.6515477  15.8702276  )
        45           O1  tau(  45) = (   3.2900926   2.9813045   4.7018136  )
        46           O1  tau(  46) = (   1.3039711   4.4726057   6.0039043  )
        47           O1  tau(  47) = (   5.2763189   4.4711207   6.0039473  )
        48           N1  tau(  48) = (   1.0802268   3.0592680  18.8437747  )
        49           N1  tau(  49) = (   6.4825355   2.6367244  18.1156036  )
        50           C1  tau(  50) = (   0.7269815   3.7261681  20.0984356  )
        51           H1  tau(  51) = (   0.0344531   4.5672025  19.9493712  )
        52           H1  tau(  52) = (   0.2818923   3.0081313  20.7822053  )
        53           H1  tau(  53) = (   1.6424345   4.1087450  20.5485440  )
        54           H1  tau(  54) = (   5.7152520   3.3097272  18.2274121  )
        55           H1  tau(  55) = (   6.1788988   1.7551022  18.5268573  )
        56           H1  tau(  56) = (   1.5478348   3.7306874  18.2371031  )
        57           O1  tau(  57) = (   3.1661568   0.0027346  18.3937517  )
        58           H1  tau(  58) = (   4.0701885   0.3469208  18.4697374  )
        59           H1  tau(  59) = (   2.5798038   0.7742236  18.5044111  )

     number of k points=    10  Fermi-Dirac smearing, width (Ry)=  0.0073
                       cart. coord. in units 2pi/alat
        k(    1) = (   0.0000000   0.0000000   0.0000000), wk =   0.1250000
        k(    2) = (   0.0000000   0.0419351   0.0000000), wk =   0.2500000
        k(    3) = (   0.0000000  -0.0838702   0.0000000), wk =   0.1250000
        k(    4) = (   0.0379955   0.0000049   0.0000000), wk =   0.2500000
        k(    5) = (   0.0379955   0.0419400   0.0000000), wk =   0.2500000
        k(    6) = (   0.0379955  -0.0838652   0.0000000), wk =   0.2500000
        k(    7) = (   0.0379955  -0.0419301   0.0000000), wk =   0.2500000
        k(    8) = (  -0.0759910  -0.0000099   0.0000000), wk =   0.1250000
        k(    9) = (  -0.0759910   0.0419252   0.0000000), wk =   0.2500000
        k(   10) = (  -0.0759910  -0.0838800   0.0000000), wk =   0.1250000

     Initial potential from superposition of free atoms

     starting charge  389.99912, renormalised to  406.00000

     negative rho (up, down):  1.307E-02 0.000E+00

     %%%%%%%%%%%%%%%%%%%%%%%%%%%%%%%%%%%%%%%%%%%%%%%%%%%%%%%%%%%%%%%%%%%%%%%%
     %                                                                      %
     % You are using vdW-DF, which was implemented by the Thonhauser group. %
     % Please cite the following two papers that made this development      %
     % possible and the two reviews that describe the various versions:     %
     %                                                                      %
     %   T. Thonhauser et al., PRL 115, 136402 (2015).                      %
     %   T. Thonhauser et al., PRB 76, 125112 (2007).                       %
     %   K. Berland et al., Rep. Prog. Phys. 78, 066501 (2015).             %
     %   D.C. Langreth et al., J. Phys.: Condens. Matter 21, 084203 (2009). %
     %                                                                      %
     %                                                                      %
     % If you are calculating the stress with vdW-DF, please also cite:     %
     %                                                                      %
     %   R. Sabatini et al., J. Phys.: Condens. Matter 24, 424209 (2012).   %
     %                                                                      %
     %%%%%%%%%%%%%%%%%%%%%%%%%%%%%%%%%%%%%%%%%%%%%%%%%%%%%%%%%%%%%%%%%%%%%%%%

     Adding external electric field

     Computed dipole along edir(3) :
        Dipole              -16.1158 Ry au,        -40.9623 Debye
        Dipole field         -0.0304 Ry au,

        Potential amp.        2.8192 Ry
        Total length         46.3494 bohr

     Starting wfcs are  308 atomic wfcs
  @ DRIVER MODE: Message from server: STATUS
  @ DRIVER MODE: Message from server: POSDATA
  @ DRIVER MODE: Reading and sharing cell
  @ DRIVER MODE: Reading and sharing positions
  @ DRIVER MODE: Received positions

     Self-consistent Calculation

     iteration #  1     ecut=    29.40 Ry     beta= 0.05
     Davidson diagonalization with overlap
     c_bands:  2 eigenvalues not converged
     c_bands:  3 eigenvalues not converged
     c_bands:  2 eigenvalues not converged
     c_bands:  3 eigenvalues not converged
     c_bands:  4 eigenvalues not converged
     c_bands:  2 eigenvalues not converged
     c_bands:  1 eigenvalues not converged
     c_bands:  5 eigenvalues not converged
     c_bands:  1 eigenvalues not converged
     ethr =  1.00E-05,  avg # of iterations = 23.1

[...]

     total energy              =   -2140.63566313 Ry
     estimated scf accuracy    <    9598.82931837 Ry

     iteration #  2     ecut=    29.40 Ry     beta= 0.05
     Davidson diagonalization with overlap
     ethr =  1.00E-02,  avg # of iterations = 32.9

[...]

     iteration # 62     ecut=    29.40 Ry     beta= 0.05
     Davidson diagonalization with overlap
     c_bands:  2 eigenvalues not converged
     ethr =  4.75E-11,  avg # of iterations = 16.5

[...]

     total energy              =   -2977.70009336 Ry
     estimated scf accuracy    <       0.00000020 Ry

     iteration # 64     ecut=    29.40 Ry     beta= 0.05
     Davidson diagonalization with overlap
     ethr =  4.75E-11,  avg # of iterations = 11.6

     negative rho (up, down):  1.408E-02 0.000E+00

     Adding external electric field

     Computed dipole along edir(3) :
        Dipole                1.3386 Ry au,          3.4024 Debye
        Dipole field          0.0025 Ry au,

        Potential amp.       -0.2342 Ry
        Total length         46.3494 bohr

     End of self-consistent calculation

          k = 0.0000 0.0000 0.0000 ( 18029 PWs)   bands (ev):

   -55.1185 -55.0818 -55.0743 -55.0401 -55.0345 -55.0293 -54.9977 -54.9619
   -54.9433 -54.9085 -54.9048 -54.8878 -54.8711 -54.8372 -54.1040 -54.0700
   -31.6803 -31.5942 -31.5667 -31.4869 -31.4324 -31.4297 -31.4161 -31.4103
   -31.3631 -31.3405 -31.3301 -31.3189 -31.3124 -31.3096 -31.2912 -31.2831
   -31.2628 -31.2601 -31.2578 -31.2396 -31.2269 -31.2175 -31.2002 -31.1957
   -31.1881 -31.1765 -31.1734 -31.1442 -31.1315 -31.1286 -31.1238 -31.1033
   -31.1006 -31.0929 -31.0895 -31.0657 -31.0567 -31.0401 -31.0327 -31.0308
   -31.0158 -31.0146 -30.5134 -30.4192 -30.3972 -30.3298 -30.2431 -30.1321
   -18.8050 -17.8176 -15.9497 -15.6942 -15.5576 -15.4566 -15.3219 -15.2157
   -15.1344 -15.0203 -14.9704 -14.8550 -14.8229 -14.8183 -14.7787 -14.7475
   -14.6986 -14.6599 -14.6578 -14.6354 -14.6160 -14.6082 -14.5653 -14.5585
   -14.5189 -14.5170 -14.4972 -14.3610 -14.2794 -14.2095 -14.0272 -13.2021
   -12.6066 -12.4891  -9.7846  -6.5369  -6.4027  -5.4463  -4.9193  -3.5540
    -3.2835  -3.1385  -3.0853  -3.0503  -3.0148  -2.9598  -2.8806  -2.7950
    -2.6501  -2.5811  -2.5556  -2.4033  -2.3293  -2.3197  -2.2631  -2.1634
    -2.1385  -2.0917  -2.0496  -1.9850  -1.9476  -1.9241  -1.9023  -1.8672
    -1.8635  -1.8096  -1.7557  -1.6863  -1.5966  -1.5652  -1.5195  -1.4757
    -1.4536  -1.4510  -1.4107  -1.4043  -1.3936  -1.3492  -1.3431  -1.3130
    -1.2670  -1.1574  -1.0075  -0.9451  -0.8555  -0.7609  -0.7361  -0.7101
    -0.6900  -0.6278  -0.6053  -0.5761  -0.5006  -0.4522  -0.3729  -0.3267
    -0.3040  -0.2244  -0.1197  -0.1026  -0.0954  -0.0073   0.0849   0.0978
     0.1125   0.1221   0.2200   0.2855   0.3192   0.3609   0.4251   0.4342
     0.4921   0.5210   0.5724   0.6390   0.6719   0.7509   0.7904   0.8112
     0.8170   0.8395   0.8589   0.8703   0.9519   0.9609   0.9865   1.0751
     1.1797   1.3339   1.4800   1.4909   1.8242   1.8253   1.9188   2.1024
     2.4949   2.5432   3.9759   4.0515   4.1100   4.1212   4.1267   4.2117
     4.4607   4.4786   4.4899   4.4915   4.5264

[...]

          k = 0.0380-0.0419 0.0000 ( 17876 PWs)   bands (ev):

[...]

          k =-0.0760-0.0000 0.0000 ( 17886 PWs)   bands (ev):

[...]

          k =-0.0760-0.0839 0.0000 ( 17948 PWs)   bands (ev):

   -55.1040 -55.0960 -55.0572 -55.0570 -55.0318 -55.0282 -54.9849 -54.9747
   -54.9289 -54.9225 -54.8897 -54.8886 -54.8875 -54.8389 -54.0870 -54.0869
   -31.5096 -31.4900 -31.4802 -31.3819 -31.3817 -31.3763 -31.3697 -31.3484
   -31.3483 -31.3281 -31.3230 -31.3173 -31.3076 -31.2888 -31.2752 -31.2607
   -31.2564 -31.2551 -31.2516 -31.2452 -31.2433 -31.2395 -31.2275 -31.2264
   -31.1972 -31.1964 -31.1792 -31.1770 -31.1768 -31.1682 -31.1680 -31.1620
   -31.1535 -31.1413 -31.1357 -31.1202 -31.1187 -31.1026 -31.0687 -31.0681
   -31.0667 -31.0434 -30.4098 -30.4098 -30.3259 -30.3258 -30.2865 -30.2864
   -18.8036 -17.8142 -15.5297 -15.3911 -15.2521 -15.1483 -15.1334 -15.0799
   -15.0307 -14.9889 -14.9473 -14.9030 -14.8930 -14.8749 -14.8466 -14.8196
   -14.7952 -14.7360 -14.7197 -14.7041 -14.6818 -14.6349 -14.6271 -14.6243
   -14.6172 -14.5710 -14.5684 -14.5434 -14.4748 -14.4727 -14.2863 -13.2041
   -12.5906 -12.5905  -9.7815  -6.5887  -6.3251  -5.4434  -4.9302  -3.5282
    -2.9540  -2.8094  -2.6531  -2.6172  -2.4715  -2.3711  -2.3260  -2.2979
    -2.2441  -2.1984  -2.1383  -2.1233  -2.1049  -2.0463  -2.0207  -2.0021
    -1.9706  -1.9517  -1.9380  -1.9195  -1.9021  -1.8740  -1.8477  -1.8390
    -1.8343  -1.8060  -1.7896  -1.7502  -1.7435  -1.7356  -1.6925  -1.6804
    -1.6542  -1.5973  -1.4902  -1.4800  -1.3274  -1.3251  -1.2910  -1.2455
    -1.2255  -1.2154  -1.1549  -1.1470  -1.1347  -0.8991  -0.8717  -0.8617
    -0.8344  -0.7763  -0.7588  -0.6960  -0.6867  -0.6027  -0.5880  -0.4861
    -0.4704  -0.4142  -0.3305  -0.3225  -0.3104  -0.1991  -0.1495  -0.1119
    -0.0855  -0.0753  -0.0577  -0.0199  -0.0197   0.0700   0.1134   0.1438
     0.1590   0.1888   0.3535   0.4021   0.4110   0.5501   0.5639   0.7116
     0.7754   0.7897   0.8758   0.8976   0.9850   0.9953   1.0349   1.1745
     1.1860   1.2092   1.2563   1.2847   1.3366   1.3417   2.2751   2.2764
     2.3631   2.3633   4.1082   4.2335   4.2399   4.3006   4.4099   4.4430
     4.4893   4.5229   4.5603   4.5630   4.6306

     the Fermi energy is     4.0379 ev

!    total energy              =   -2977.70012547 Ry
     estimated scf accuracy    <       0.00000006 Ry
     smearing contrib. (-TS)   =      -0.03675313 Ry
     internal energy E=F+TS    =   -2977.66337234 Ry

     The total energy is F=E-TS. E is the sum of the following terms:
     one-electron contribution =  -23082.92419729 Ry
     hartree contribution      =   11640.61295908 Ry
     xc contribution           =    -496.62499644 Ry
     ewald contribution        =    8961.26948086 Ry
     electric field correction =       0.00338144 Ry

     convergence has been achieved in  64 iterations

     Forces acting on atoms (cartesian axes, Ry/au):

     atom    1 type  1   force =     0.00017915   -0.00018993    0.09315404
     atom    2 type  1   force =    -0.00010356   -0.00033318   -0.17819309
     atom    3 type  2   force =     0.00002137   -0.00017765   -0.02036879
     atom    4 type  2   force =    -0.00002732   -0.00200609    0.05899695
     atom    5 type  2   force =    -0.01059837   -0.00141942    0.00860041
     atom    6 type  2   force =     0.01186234   -0.00070280    0.00713121
     atom    7 type  1   force =    -0.00089338    0.00314074   -0.01229453
     atom    8 type  1   force =     0.00054817    0.00112779   -0.00449949
     atom    9 type  2   force =    -0.00007408   -0.00037055    0.00014232
     atom   10 type  2   force =    -0.00129455   -0.00051013   -0.00194722
     atom   11 type  2   force =    -0.00022603   -0.00021580   -0.00006875
     atom   12 type  2   force =     0.00061820   -0.00007207   -0.00025456
     atom   13 type  1   force =    -0.00103006   -0.00062798    0.00021726
     atom   14 type  1   force =     0.00011457   -0.00004014    0.00017449
     atom   15 type  2   force =    -0.00027512   -0.00051646   -0.00005523
     atom   16 type  2   force =    -0.00000721   -0.00007695    0.00066510
     atom   17 type  2   force =    -0.00028425    0.00024655    0.00054066
     atom   18 type  2   force =     0.00019706    0.00004333    0.00029711
     atom   19 type  1   force =     0.00022776    0.00003430    0.00057822
     atom   20 type  1   force =    -0.00018204   -0.00021314    0.00027033
     atom   21 type  2   force =     0.00007310   -0.00001675    0.10398417
     atom   22 type  2   force =     0.00006363   -0.00022288   -0.00106778
     atom   23 type  2   force =    -0.07039609   -0.00010732   -0.02687438
     atom   24 type  2   force =     0.07027441    0.00033833   -0.02691488
     atom   25 type  1   force =     0.00000509   -0.00022720    0.09278844
     atom   26 type  1   force =    -0.00020286   -0.00037088   -0.17830727
     atom   27 type  2   force =     0.00010508   -0.00028694   -0.01934285
     atom   28 type  2   force =     0.00003842   -0.00162513    0.05806949
     atom   29 type  2   force =    -0.01068256   -0.00080745    0.00799850
     atom   30 type  2   force =     0.01180167   -0.00047751    0.00652390
     atom   31 type  1   force =    -0.00072879    0.00504775   -0.01492833
     atom   32 type  1   force =     0.00040277   -0.00139177   -0.00478172
     atom   33 type  2   force =    -0.00011051    0.00021609    0.00029182
     atom   34 type  2   force =    -0.00128993    0.00140581   -0.00090433
     atom   35 type  2   force =     0.00018893    0.00013599    0.00000841
     atom   36 type  2   force =     0.00012581   -0.00001651   -0.00012811
     atom   37 type  1   force =    -0.00103932    0.00056326    0.00003009
     atom   38 type  1   force =     0.00014719   -0.00015330   -0.00003935
     atom   39 type  2   force =    -0.00003001   -0.00014759    0.00009466
     atom   40 type  2   force =    -0.00020517    0.00020779    0.00023778
     atom   41 type  2   force =     0.00000134   -0.00015831    0.00038846
     atom   42 type  2   force =    -0.00014964   -0.00004321    0.00005947
     atom   43 type  1   force =     0.00011154    0.00031084    0.00040541
     atom   44 type  1   force =    -0.00010638    0.00021439   -0.00036679
     atom   45 type  2   force =     0.00004034   -0.00005099    0.10397365
     atom   46 type  2   force =    -0.07038385   -0.00005704   -0.02690467
     atom   47 type  2   force =     0.07029259    0.00036993   -0.02693494
     atom   48 type  3   force =     0.00030531    0.00040218   -0.00061168
     atom   49 type  3   force =    -0.00089828   -0.00036729    0.00027121
     atom   50 type  4   force =     0.00406238    0.00297755   -0.00284310
     atom   51 type  5   force =    -0.00019710   -0.00079264    0.00056579
     atom   52 type  5   force =    -0.00321710   -0.00347748    0.00329757
     atom   53 type  5   force =     0.00095721    0.00076009   -0.00084207
     atom   54 type  5   force =     0.00079791   -0.00024705   -0.00027767
     atom   55 type  5   force =     0.00040232    0.00084662   -0.00002180
     atom   56 type  5   force =     0.00001958    0.00026048    0.00016435
     atom   57 type  2   force =    -0.00035439    0.00062392   -0.00061292
     atom   58 type  5   force =     0.00075656   -0.00042657    0.00012412
     atom   59 type  5   force =     0.00024616   -0.00032962    0.00034092

     Total force =     0.366174     Total SCF correction =     0.000499
  @ DRIVER MODE: Message from server: STATUS
  @ DRIVER MODE: Message from server: GETFORCE
  @ DRIVER MODE: Returning v,forces,stress,ensemble

     Writing output data file ./calc.save/
  @ DRIVER MODE: Message from server: EXIT
  @ DRIVE MODE: Exiting

     General routines

     Parallel routines

   This run was terminated on:   1: 8:28  16Sep2021

   JOB DONE.