     Program PWSCF v.6.7GPU starts on  3Aug2021 at  9: 3:46

     R & G space division:  proc/nbgrp/npool/nimage =      16
     Reading input from /storage/home/hcoda1/3/ntian30/research/carbon/02Aug_spin_polarized/ads_slab/CH3NH3NH3_a/02Aug_spin_polarized.log/pw.inp
Warning: card &CELL ignored
Warning: card   CELL_DYNAMICS='IPI', ignored
Warning: card / ignored

     Current dimensions of program PWSCF are:
     Max number of different atomic species (ntypx) = 10
     Max number of k-points (npk) =  40000
     Max angular momentum in pseudopotentials (lmaxx) =  3
     Presently no symmetry can be used with electric field

     Message from routine cell_base_init:
     DEPRECATED: use true lattice parameter, not A to a.u. conversion factor

     IMPORTANT: XC functional enforced from input :
     Exchange-correlation= BEEF-VDW
                           (   1   4  43  14   2   0   0)
     Any further DFT definition will be discarded
     Please, verify this is what you really want

  @ DRIVER MODE: Connecting to
 qe_1139763_2490188.sched-torque.pace.gatech.eduh39zucr5_scratch
  using UNIX socket
  @ DRIVER MODE: Message from server: STATUS
  @ DRIVER MODE: Message from server: INIT
  @ DRIVER MODE: Receiving replica           0          -1
  @ DRIVER MODE: Receiving encoded integer          25
  @ DRIVER MODE:  SCF:  T  FORCE:  T  STRESS:  F  VC:  F  ENSEMBLE:  F
  @ DRIVER MODE:  SCF:  T  FORCE:  T  STRESS:  F  VC:  F  ENSEMBLE:  F

     Using Slab Decomposition

     bravais-lattice index     =            0
     lattice parameter (alat)  =       1.8897  a.u.
     unit-cell volume          =    6658.9804 (a.u.)^3
     number of atoms/cell      =           59
     number of atomic types    =            5
     number of electrons       =       401.00
     number of Kohn-Sham states=          210
     kinetic-energy cutoff     =      29.3995  Ry
     charge density cutoff     =     293.9946  Ry
     scf convergence threshold =      7.3E-08
     mixing beta               =       0.0500
     number of iterations used =            8  plain     mixing
     Exchange-correlation= BEEF-VDW
                           (   1   4  43  14   2   0   0)

     celldm(1)=   1.889726  celldm(2)=   0.000000  celldm(3)=   0.000000
     celldm(4)=   0.000000  celldm(5)=   0.000000  celldm(6)=   0.000000

     crystal axes: (cart. coord. in units of alat)
               a(1) = (   6.579727   0.000000   0.000000 )
               a(2) = (  -0.000775   5.961596   0.000000 )
               a(3) = (   0.000000   0.000000  25.155947 )

     reciprocal axes: (cart. coord. in units 2 pi/alat)
               b(1) = (  0.151982  0.000020  0.000000 )
               b(2) = (  0.000000  0.167740  0.000000 )
               b(3) = (  0.000000  0.000000  0.039752 )

     PseudoPot. # 1 for Ti read from file:
     /storage/coda1/p-amedford6/0/shared/rich_project_chbe-medford/medford-share/data/pseudos_module/espresso/nninc/pbe/van/Ti.UPF
     MD5 check sum: 8e4df49b7f0d34bbd5052bf3f5ea0213
     Pseudo is Ultrasoft, Zval = 12.0
     Generated by new atomic code, or converted to UPF format
     Using radial grid of  851 points,  6 beta functions with:
                l(1) =   0
                l(2) =   0
                l(3) =   1
                l(4) =   1
                l(5) =   2
                l(6) =   2
     Q(r) pseudized with  8 coefficients,  rinner =    1.000   1.000   1.000
                                                       1.000   1.000

     PseudoPot. # 2 for O  read from file:
     /storage/coda1/p-amedford6/0/shared/rich_project_chbe-medford/medford-share/data/pseudos_module/espresso/nninc/pbe/van/O.UPF
     MD5 check sum: 78c19812648e8988a0fe644b0f25305e
     Pseudo is Ultrasoft, Zval =  6.0
     Generated by new atomic code, or converted to UPF format
     Using radial grid of  737 points,  4 beta functions with:
                l(1) =   0
                l(2) =   0
                l(3) =   1
                l(4) =   1
     Q(r) pseudized with  8 coefficients,  rinner =    0.800   0.800   0.800

     PseudoPot. # 3 for C  read from file:
     /storage/coda1/p-amedford6/0/shared/rich_project_chbe-medford/medford-share/data/pseudos_module/espresso/nninc/pbe/van/C.UPF
     MD5 check sum: 1a69bf6b8db32088f5b2163dbdb77a27
     Pseudo is Ultrasoft, Zval =  4.0
     Generated by new atomic code, or converted to UPF format
     Using radial grid of  721 points,  4 beta functions with:
                l(1) =   0
                l(2) =   0
                l(3) =   1
                l(4) =   1
     Q(r) pseudized with  8 coefficients,  rinner =    0.800   0.800   0.800

     PseudoPot. # 4 for H  read from file:
     /storage/coda1/p-amedford6/0/shared/rich_project_chbe-medford/medford-share/data/pseudos_module/espresso/nninc/pbe/van/H.UPF
     MD5 check sum: b5ee9d7bfd3a09ee7748110bda690ff7
     Pseudo is Ultrasoft, Zval =  1.0
     Generated by new atomic code, or converted to UPF format
     Using radial grid of  615 points,  1 beta functions with:
                l(1) =   0
     Q(r) pseudized with  8 coefficients,  rinner =    0.800

     PseudoPot. # 5 for N  read from file:
     /storage/coda1/p-amedford6/0/shared/rich_project_chbe-medford/medford-share/data/pseudos_module/espresso/nninc/pbe/van/N.UPF
     MD5 check sum: 90d10febe142ad51ac9d5be1deb811c4
     Pseudo is Ultrasoft, Zval =  5.0
     Generated by new atomic code, or converted to UPF format
     Using radial grid of  729 points,  4 beta functions with:
                l(1) =   0
                l(2) =   0
                l(3) =   1
                l(4) =   1
     Q(r) pseudized with  8 coefficients,  rinner =    0.800   0.800   0.800

     atomic species   valence    mass     pseudopotential
        Ti1           12.00    47.86700     Ti( 1.00)
        O1             6.00    15.99900     O ( 1.00)
        C1             4.00    12.01100     C ( 1.00)
        H1             1.00     1.00800     H ( 1.00)
        N1             5.00    14.00700     N ( 1.00)

     Starting magnetic structure
     atomic species   magnetization
        Ti1          0.000
        O1           0.000
        C1           0.150
        H1           0.000
        N1           0.120

     No symmetry found

   Cartesian axes

     site n.     atom                  positions (alat units)
         1           Ti1 tau(   1) = (   0.0004258   2.9801865   6.0000000  )
         2           Ti1 tau(   2) = (   3.2906075   1.4906267   6.0002472  )
         3           O1  tau(   3) = (   0.0006271   0.0005054   7.9858123  )
         4           O1  tau(   4) = (   3.2906025   0.0005020   7.3038282  )
         5           O1  tau(   5) = (   4.5942328   1.4918067   9.2879030  )
         6           O1  tau(   6) = (   1.9868534   1.4903216   9.2879459  )
         7           Ti1 tau(   7) = (   3.2907910   2.8959150   9.1758416  )
         8           Ti1 tau(   8) = (   0.0015273   1.4827037   9.2680791  )
         9           O1  tau(   9) = (   3.3006472   5.9526327  11.3326431  )
        10           O1  tau(  10) = (   0.0116148   5.9584955  10.6183126  )
        11           O1  tau(  11) = (   1.2986171   1.4856602  12.6180737  )
        12           O1  tau(  12) = (   5.2832837   1.4869688  12.6136912  )
        13           Ti1 tau(  13) = (   0.0716907   2.9700601  12.6329626  )
        14           Ti1 tau(  14) = (   3.3921379   1.4824266  12.4783935  )
        15           O1  tau(  15) = (   0.0098915   0.0277142  14.6273811  )
        16           O1  tau(  16) = (   3.2980527   0.0034327  13.9214941  )
        17           O1  tau(  17) = (   4.5491770   1.5035522  16.0668258  )
        18           O1  tau(  18) = (   2.0540802   1.5011373  16.0688643  )
        19           Ti1 tau(  19) = (   3.2973159   2.9845483  15.7023000  )
        20           Ti1 tau(  20) = (   6.5754392   1.4353193  15.8239573  )
        21           O1  tau(  21) = (   3.2904802   0.0005063   4.7018136  )
        22           O1  tau(  22) = (   0.0048264   5.9571524  17.1588256  )
        23           O1  tau(  23) = (   1.3043587   1.4918075   6.0039043  )
        24           O1  tau(  24) = (   5.2767064   1.4903225   6.0039473  )
        25           Ti1 tau(  25) = (   0.0000382   5.9609847   6.0000000  )
        26           Ti1 tau(  26) = (   3.2902200   4.4714249   6.0002472  )
        27           O1  tau(  27) = (   0.0002396   2.9813036   7.9858123  )
        28           O1  tau(  28) = (   3.2902150   2.9813002   7.3038282  )
        29           O1  tau(  29) = (   4.5938453   4.4726049   9.2879030  )
        30           O1  tau(  30) = (   1.9864658   4.4711199   9.2879459  )
        31           Ti1 tau(  31) = (   3.2891106   5.8743827   9.1763621  )
        32           Ti1 tau(  32) = (   0.0006254   4.4649316   9.2693709  )
        33           O1  tau(  33) = (   3.3024910   2.9811918  11.3312481  )
        34           O1  tau(  34) = (   0.0092240   2.9805883  10.6323155  )
        35           O1  tau(  35) = (   1.2967186   4.4682081  12.6345707  )
        36           O1  tau(  36) = (   5.2888097   4.4704914  12.6297389  )
        37           Ti1 tau(  37) = (   0.0778612   5.9457776  12.5489457  )
        38           Ti1 tau(  38) = (   3.3928769   4.4622707  12.4864817  )
        39           O1  tau(  39) = (   0.0140712   2.9461142  14.6842920  )
        40           O1  tau(  40) = (   3.2991745   2.9776924  13.9065265  )
        41           O1  tau(  41) = (   4.5418516   4.4678888  16.0645815  )
        42           O1  tau(  42) = (   2.0574864   4.4691885  16.0636024  )
        43           Ti1 tau(  43) = (   3.2861726   0.0051191  15.7195692  )
        44           Ti1 tau(  44) = (   6.5761434   4.5285208  16.1368719  )
        45           O1  tau(  45) = (   3.2900926   2.9813045   4.7018136  )
        46           O1  tau(  46) = (   1.3039711   4.4726057   6.0039043  )
        47           O1  tau(  47) = (   5.2763189   4.4711207   6.0039473  )
        48           C1  tau(  48) = (   0.0175971   3.0427671  17.7901079  )
        49           H1  tau(  49) = (   5.6823727   3.3959267  18.2745233  )
        50           H1  tau(  50) = (   0.1100020   1.9921885  18.0671921  )
        51           H1  tau(  51) = (   0.8707680   3.5346006  18.2680029  )
        52           N1  tau(  52) = (   6.1495222   1.5591847  21.8098380  )
        53           H1  tau(  53) = (   6.1793786   2.4848735  21.3946126  )
        54           H1  tau(  54) = (   6.2462200   0.9013766  21.0428083  )
        55           H1  tau(  55) = (   5.2088654   1.4380024  22.1828036  )
        56           N1  tau(  56) = (   2.8510371   0.9663425  23.1735989  )
        57           H1  tau(  57) = (   2.8683653   5.9129692  23.1556095  )
        58           H1  tau(  58) = (   1.9074079   1.2374795  22.9038124  )
        59           H1  tau(  59) = (   2.9640119   1.2328864  24.1466208  )

     number of k points=    10  Fermi-Dirac smearing, width (Ry)=  0.0073
                       cart. coord. in units 2pi/alat
        k(    1) = (   0.0000000   0.0000000   0.0000000), wk =   0.0625000
[...]
     atom  32 (R=0.725)  charge=  7.9030  magn=  0.0032
     atom  33 (R=0.725)  charge=  4.9399  magn= -0.0001
     atom  34 (R=0.725)  charge=  4.8996  magn= -0.0003
     atom  35 (R=0.725)  charge=  4.9279  magn= -0.0001
     atom  36 (R=0.725)  charge=  4.9284  magn= -0.0001
     atom  37 (R=0.725)  charge=  7.9023  magn=  0.0007
     atom  38 (R=0.725)  charge=  7.9125  magn=  0.0002
     atom  39 (R=0.725)  charge=  4.9070  magn=  0.0000
     atom  40 (R=0.725)  charge=  4.9429  magn= -0.0000
     atom  41 (R=0.725)  charge=  4.9166  magn=  0.0000
     atom  42 (R=0.725)  charge=  4.9162  magn=  0.0000
     atom  43 (R=0.725)  charge=  7.9318  magn=  0.0000
     atom  44 (R=0.725)  charge=  7.9279  magn= -0.0001
     atom  45 (R=0.725)  charge=  4.8117  magn= -0.0004
     atom  46 (R=0.725)  charge=  4.9184  magn= -0.0013
     atom  47 (R=0.725)  charge=  4.9185  magn= -0.0013
     atom  48 (R=0.450)  charge=  0.8540  magn=  0.0001
     atom  49 (R=0.419)  charge=  0.4316  magn= -0.0000
     atom  50 (R=0.419)  charge=  0.4306  magn= -0.0000
     atom  51 (R=0.419)  charge=  0.4306  magn= -0.0000
     atom  52 (R=0.419)  charge=  1.3333  magn=  0.0000
     atom  53 (R=0.419)  charge=  0.4546  magn= -0.0000
     atom  54 (R=0.419)  charge=  0.4531  magn= -0.0000
     atom  55 (R=0.419)  charge=  0.4445  magn= -0.0000
     atom  56 (R=0.419)  charge=  1.3345  magn=  0.0000
     atom  57 (R=0.419)  charge=  0.4553  magn= -0.0000
     atom  58 (R=0.419)  charge=  0.4453  magn= -0.0000
     atom  59 (R=0.419)  charge=  0.4531  magn= -0.0000

     End of self-consistent calculation

 ------ SPIN UP ------------

          k = 0.0000 0.0000 0.0000 ( 18029 PWs)   bands (ev):

   -56.0068 -55.9872 -55.9728 -55.9501 -55.8776 -55.8537 -55.8322 -55.8147
   -55.8072 -55.7732 -55.7707 -55.7370 -55.6117 -55.3895 -54.9780 -54.9440
   -32.5409 -32.4834 -32.3522 -32.3319 -32.3089 -32.3011 -32.3007 -32.2610
   -32.2480 -32.2159 -32.2088 -32.1942 -32.1669 -32.1607 -32.1402 -32.1261
   -32.1098 -32.1054 -32.0876 -32.0659 -32.0586 -32.0557 -32.0264 -32.0074
   -32.0064 -32.0017 -31.9946 -31.9900 -31.9755 -31.9730 -31.9647 -31.9460
   -31.9426 -31.9389 -31.9236 -31.9127 -31.8827 -31.8649 -31.8274 -31.6663
   -31.6399 -31.5272 -31.3848 -31.2964 -31.2739 -31.2016 -31.1151 -31.0040
   -16.7418 -16.4721 -16.2461 -16.1496 -16.1229 -16.0037 -15.8382 -15.7159
   -15.6682 -15.5679 -15.5585 -15.5327 -15.5007 -15.4773 -15.4766 -15.4422
   -15.4390 -15.4194 -15.4081 -15.3581 -15.3350 -15.3235 -15.2083 -15.1746
   -15.1313 -15.1112 -15.0531 -15.0406 -14.6187 -13.4802 -13.3638 -13.0379
   -12.9281  -9.1018  -4.1151  -3.9584  -3.9043  -3.8591  -3.8284  -3.6118
    -3.5453  -3.2478  -3.1837  -3.1689  -3.1516  -3.1198  -3.1191  -3.0894
    -3.0337  -2.9861  -2.9008  -2.8374  -2.8272  -2.8085  -2.8056  -2.7761
    -2.7663  -2.7540  -2.7134  -2.6880  -2.6619  -2.6116  -2.5569  -2.4945
    -2.4113  -2.3933  -2.3122  -2.2894  -2.2833  -2.2401  -2.2258  -2.2179
    -2.1989  -2.1738  -2.1608  -1.9774  -1.9389  -1.8360  -1.7798  -1.7778
    -1.6062  -1.5064  -1.4648  -1.4535  -1.4243  -1.3907  -1.3840  -1.2976
    -1.1810  -1.1498  -1.1169  -1.0447  -1.0011  -0.9693  -0.8717  -0.8443
    -0.7611  -0.7581  -0.7366  -0.6490  -0.5954  -0.4811  -0.4337  -0.4235
    -0.3857  -0.3565  -0.2872  -0.2731  -0.2161  -0.1434  -0.1230  -0.0601
    -0.0291  -0.0157  -0.0041   0.0124   0.0387   0.0692   0.1731   0.2036
     0.2832   0.3508   0.4459   0.5438   0.6492   0.6585   0.7599   0.9692
     1.0429   1.1411   1.1989   1.2370   1.6164   1.6618   1.7471   2.1865
     3.1348   3.2121   3.2684   3.2820   3.3727   3.3891   3.5843   3.6145
     3.6335   3.6876

[...]

          k =-0.0760-0.0000 0.0000 ( 17886 PWs)   bands (ev):

[...]

 ------ SPIN DOWN ----------

[...]

          k = 0.0380-0.0419 0.0000 ( 17876 PWs)   bands (ev):

[...]

          k =-0.0760-0.0839 0.0000 ( 17948 PWs)   bands (ev):

   -55.9726 -55.9700 -55.9692 -55.9636 -55.8696 -55.8422 -55.8400 -55.8235
   -55.7852 -55.7827 -55.7544 -55.7519 -55.6106 -55.3910 -54.9601 -54.9600
   -32.3482 -32.3396 -32.2905 -32.2900 -32.2636 -32.2630 -32.2584 -32.2494
   -32.2028 -32.1911 -32.1850 -32.1824 -32.1447 -32.1287 -32.1269 -32.1175
   -32.1042 -32.0965 -32.0926 -32.0898 -32.0870 -32.0861 -32.0696 -32.0589
   -32.0398 -32.0376 -32.0269 -32.0100 -31.9868 -31.9856 -31.9841 -31.9826
   -31.9686 -31.9672 -31.9625 -31.9586 -31.9322 -31.8561 -31.8306 -31.6803
   -31.6685 -31.5721 -31.2856 -31.2856 -31.1972 -31.1971 -31.1575 -31.1574
   -16.1747 -16.1553 -15.9480 -15.9112 -15.9081 -15.8987 -15.7872 -15.7020
   -15.6924 -15.6917 -15.6089 -15.5968 -15.5807 -15.5366 -15.5322 -15.5230
   -15.5132 -15.5013 -15.4580 -15.4531 -15.4345 -15.4269 -15.3447 -15.3143
   -15.3106 -15.2722 -15.1402 -15.0087 -14.8604 -13.4664 -13.4662 -12.9980
   -12.9671  -9.1176  -3.4667  -3.4411  -3.1905  -3.1546  -3.1453  -3.1143
    -3.0809  -3.0618  -2.9893  -2.9427  -2.9208  -2.8946  -2.8798  -2.8751
    -2.8388  -2.8264  -2.8166  -2.8044  -2.7863  -2.7523  -2.7433  -2.7108
    -2.7000  -2.6800  -2.6664  -2.6509  -2.6263  -2.6137  -2.6075  -2.5763
    -2.5619  -2.5452  -2.5246  -2.5017  -2.4189  -2.2295  -2.1998  -2.1348
    -2.1257  -2.0956  -2.0839  -2.0602  -2.0460  -2.0277  -1.9808  -1.8279
    -1.7258  -1.6995  -1.6717  -1.5967  -1.5758  -1.5280  -1.4139  -1.3793
    -1.3519  -1.3261  -1.2760  -1.2249  -1.2075  -1.1847  -1.1157  -1.1021
    -1.0244  -0.9810  -0.9586  -0.9542  -0.8891  -0.8461  -0.7637  -0.7584
    -0.7151  -0.6794  -0.6317  -0.5916  -0.5869  -0.4997  -0.4741  -0.3576
    -0.3028  -0.0433   0.0063   0.0576   0.0840   0.1427   0.1931   0.2080
     0.3164   0.3207   0.3577   0.4014   0.4420   0.5298   0.5490   0.5837
     0.7298   1.3040   1.4072   1.4078   1.4811   1.4815   1.9515   1.9672
     3.4255   3.4409   3.4713   3.5039   3.6511   3.6550   3.6745   3.6762
     3.8005   3.8163

     the Fermi energy is     3.1378 ev

!    total energy              =   -2946.58274600 Ry
     estimated scf accuracy    <       0.00000004 Ry
     smearing contrib. (-TS)   =      -0.02177652 Ry
     internal energy E=F+TS    =   -2946.56096948 Ry

     The total energy is F=E-TS. E is the sum of the following terms:
     one-electron contribution =  -22199.63879035 Ry
     hartree contribution      =   11188.82175535 Ry
     xc contribution           =    -489.84784567 Ry
     ewald contribution        =    8554.10372365 Ry
     electric field correction =       0.00018754 Ry

     total magnetization       =     0.04 Bohr mag/cell
     absolute magnetization    =     0.06 Bohr mag/cell

     convergence has been achieved in  73 iterations

     Forces acting on atoms (cartesian axes, Ry/au):

     atom    1 type  1   force =     0.00013979   -0.00025768    0.09667460
     atom    2 type  1   force =    -0.00014646   -0.00055793   -0.17512078
     atom    3 type  2   force =    -0.00000233   -0.00002642   -0.02500403
     atom    4 type  2   force =     0.00007437   -0.00144219    0.05271030
     atom    5 type  2   force =    -0.01210976   -0.00083524    0.00340546
     atom    6 type  2   force =     0.01402299   -0.00015273    0.00291231
     atom    7 type  1   force =    -0.00082567    0.00068026   -0.01135379
     atom    8 type  1   force =     0.00025951    0.01150084    0.02858543
     atom    9 type  2   force =    -0.00010233    0.00008780   -0.00002015
     atom   10 type  2   force =    -0.00085053    0.00077110   -0.01660652
     atom   11 type  2   force =    -0.00032136    0.00010108    0.00002268
     atom   12 type  2   force =    -0.00000287    0.00021044    0.00004320
     atom   13 type  1   force =    -0.00010372   -0.00020070    0.00010838
     atom   14 type  1   force =    -0.00022345    0.00001234   -0.00003875
     atom   15 type  2   force =    -0.00003198    0.00005998   -0.00009711
     atom   16 type  2   force =    -0.00012367   -0.00004255    0.00002812
     atom   17 type  2   force =    -0.00003391   -0.00015630   -0.00001590
     atom   18 type  2   force =    -0.00019138   -0.00017167   -0.00001906
     atom   19 type  1   force =     0.00001932   -0.00020244    0.00016525
     atom   20 type  1   force =     0.00009681   -0.00037587   -0.00007395
     atom   21 type  2   force =     0.00006556    0.00001015    0.10295908
     atom   22 type  2   force =    -0.00010789   -0.00008938   -0.00040686
     atom   23 type  2   force =    -0.07141706   -0.00010033   -0.02772500
     atom   24 type  2   force =     0.07137613    0.00030659   -0.02775761
     atom   25 type  1   force =     0.00000261   -0.00029529    0.09646858
     atom   26 type  1   force =    -0.00018426   -0.00028272   -0.17529463
     atom   27 type  2   force =     0.00009367   -0.00019891   -0.02391207
     atom   28 type  2   force =     0.00011389   -0.00120094    0.05275047
     atom   29 type  2   force =    -0.01214226    0.00045788    0.00288850
     atom   30 type  2   force =     0.01397471    0.00080242    0.00243385
     atom   31 type  1   force =    -0.00075704    0.00310129   -0.01227411
     atom   32 type  1   force =     0.00027409   -0.01311916    0.02915322
     atom   33 type  2   force =    -0.00009720   -0.00003240    0.00003898
     atom   34 type  2   force =    -0.00028728    0.00077240   -0.02205954
     atom   35 type  2   force =    -0.00017651    0.00008041   -0.00004584
     atom   36 type  2   force =    -0.00009686    0.00020077   -0.00003623
     atom   37 type  1   force =    -0.00000899   -0.00031492   -0.00018217
     atom   38 type  1   force =     0.00002532    0.00000425    0.00000225
     atom   39 type  2   force =    -0.00008200    0.00012988    0.00028445
     atom   40 type  2   force =    -0.00013426   -0.00001320   -0.00007248
     atom   41 type  2   force =    -0.00000132   -0.00021690    0.00001170
     atom   42 type  2   force =    -0.00019215   -0.00022125    0.00018278
     atom   43 type  1   force =     0.00030350   -0.00015405   -0.00016421
     atom   44 type  1   force =     0.00017884   -0.00025741    0.00020281
     atom   45 type  2   force =     0.00006563   -0.00006954    0.10295679
     atom   46 type  2   force =    -0.07143018   -0.00009217   -0.02773190
     atom   47 type  2   force =     0.07138739    0.00036933   -0.02774193
     atom   48 type  3   force =    -0.00018086    0.00038079    0.00003994
     atom   49 type  4   force =    -0.00007699    0.00041894    0.00020851
     atom   50 type  4   force =    -0.00008273    0.00012796    0.00005031
     atom   51 type  4   force =     0.00008219    0.00029410    0.00037735
     atom   52 type  5   force =    -0.00053098   -0.00030301    0.00147455
     atom   53 type  4   force =     0.00008222    0.00055430   -0.00048904
     atom   54 type  4   force =    -0.00043773   -0.00040841   -0.00134930
     atom   55 type  4   force =     0.00063524    0.00023512   -0.00050148
     atom   56 type  5   force =     0.00071546    0.00037289   -0.00063382
     atom   57 type  4   force =     0.00004939   -0.00031059    0.00032302
     atom   58 type  4   force =    -0.00050183   -0.00004025   -0.00058744
     atom   59 type  4   force =    -0.00004282    0.00009923   -0.00014717

     Total force =     0.367751     Total SCF correction =     0.000515
  @ DRIVER MODE: Message from server: STATUS
  @ DRIVER MODE: Message from server: GETFORCE
  @ DRIVER MODE: Returning v,forces,stress,ensemble

     Writing output data file ./calc.save/
  @ DRIVER MODE: Message from server: STATUS
  @ DRIVER MODE: Message from server: INIT
  @ DRIVER MODE: Receiving replica           0           0
  @ DRIVER MODE: Receiving encoded integer           2
  @ DRIVER MODE:  SCF:  T  FORCE:  T  STRESS:  F  VC:  F  ENSEMBLE:  F
  @ DRIVER MODE:  SCF:  F  FORCE:  F  STRESS:  F  VC:  F  ENSEMBLE:  T
  @ DRIVER MODE: Message from server: STATUS
  @ DRIVER MODE: Message from server: POSDATA
  @ DRIVER MODE: Reading and sharing positions
  @ DRIVER MODE: Received positions
     NEW-OLD atomic charge density approx. for the potential

[...]

     Adding external electric field

     Computed dipole along edir(3) :
        Dipole                0.3152 Ry au,          0.8012 Debye
        Dipole field          0.0006 Ry au,

        Potential amp.       -0.0551 Ry
        Total length         46.3494 bohr

     Generating pointlists ...
  @ DRIVER MODE: BEEF-vdw

[...]

     negative rho (up, down):  3.530E-03 3.530E-03

     negative rho (up, down):  3.530E-03 3.530E-03
 BEEFens 2000 ensemble energies
             -0.351786689277788E+02
             -0.201486795511929E+01
             -0.723737900157358E+01
              0.244094374660945E+02
             -0.120921767400556E+02
             -0.933543731386695E+01
             -0.244298944507933E+02
             -0.510641105314834E+02
             -0.217286772593656E+02
             -0.229084215395366E+02
             -0.212548188514773E+02
              0.428211348091816E+01
              0.200171492460146E+01
             -0.107375776166600E+01
              0.175267236112371E+01
              0.268721818545545E+02
             -0.103847706392000E+02
             -0.728388119603385E+01
              0.119355396723891E+02
             -0.627874917935644E+02
              0.314643015124899E+02
             -0.134774851756296E+02
             -0.246347710589052E+01
             -0.567101256593980E+01
             -0.943803377145514E+00
             -0.216064978864392E+01
              0.487277361373193E+02
             -0.151898839805479E+02
             -0.406620098676621E+01
             -0.307996836672689E+02
              0.398051901000276E+02
             -0.437560416418454E+01
             -0.216939488740028E+02
              0.113452726631910E+02
             -0.207449196667676E+01
              0.132434058377861E+02
             -0.545205833860109E+00
              0.272790769744680E+01
              0.192411889426589E+02
             -0.554316872533615E+02
              0.309015986884928E+02
              0.820964788183876E+01
             -0.634541094778106E+01
             -0.176853289337498E+02
              0.700055818717323E+01
             -0.110769665627699E+02
              0.253003645157295E+02
              0.201634317551895E+02
             -0.129826553536325E+02
             -0.166041723819872E+02
             -0.175499951762433E+02
             -0.210941209017177E+02
              0.107571753527198E+02
             -0.274893093243703E+02
              0.841657753281845E+01
              0.350726243237442E+02
              0.404714226050643E+02
              0.188477521602980E+02
              0.843596979141290E+01
              0.175961544697801E+02
[...]
             -0.414014634154709E+02
              0.284030151016447E+01
             -0.143500323781121E+01
             -0.575525594687559E+01
              0.540753765570230E-01
             -0.368454759838528E+02
             -0.708351886776659E+01
              0.504546844069898E+01
              0.752822747208779E+01
              0.276231607156572E+02
             -0.241191913223024E+02
              0.314768101527915E+02
             -0.225425291742796E+02
              0.145071985616839E+02
              0.228312532509533E+02

 BEEF-vdW xc energy contributions
           1 :   -414.764225095431
           2 :    360.872861692205
           3 :   -274.329610296814
           4 :    184.403183198680
           5 :   -114.000760088932
           6 :    71.9861183282414
           7 :   -54.4561113872516
           8 :    51.2474756093992
           9 :   -52.8518629325895
          10 :    53.9932873924855
          11 :   -53.4605393632777
          12 :    51.8464928301523
          13 :   -49.6070896353526
          14 :    46.4910567822918
          15 :   -42.1300571828659
          16 :    36.7237037104649
          17 :   -31.1896244069657
          18 :    26.6930807444211
          19 :   -24.0412570502000
          20 :    23.3354682687324
          21 :   -24.0737033805515
          22 :    25.4935239030407
          23 :   -26.9108665127922
          24 :    27.8450851832182
          25 :   -27.9887650451352
          26 :    27.1511235977447
          27 :   -25.3005264796407
          28 :    22.6458653005147
          29 :   -19.6676682181119
          30 :    16.9981745072192
          31 :   -48.9364658771026
          32 :   -33.1601750957624
  @ DRIVER MODE: Message from server: STATUS
  @ DRIVER MODE: Message from server: GETFORCE
  @ DRIVER MODE: Returning v,forces,stress,ensemble
  @ DRIVE MODE: Returning Ensemble Energies

     Writing output data file ./calc.save/
  @ DRIVER MODE: Message from server: EXIT
  @ DRIVE MODE: Exiting

     General routines

     Parallel routines

   This run was terminated on:   9:41:13   3Aug2021

   JOB DONE.