     Program PWSCF v.6.7GPU starts on 18Oct2021 at 19:36:13

     R & G space division:  proc/nbgrp/npool/nimage =       8
     Reading input from /storage/home/hcoda1/3/ntian30/research/carbon/CxH_vib/Thiel_calc/ads_slab/NH2NH2HH_perslab/out_0017/pw.inp
Warning: card &CELL ignored
Warning: card   CELL_DYNAMICS='IPI', ignored
Warning: card / ignored

     Current dimensions of program PWSCF are:
     Max number of different atomic species (ntypx) = 10
     Max number of k-points (npk) =  40000
     Max angular momentum in pseudopotentials (lmaxx) =  3
     Presently no symmetry can be used with electric field

     Message from routine cell_base_init:
     DEPRECATED: use true lattice parameter, not A to a.u. conversion factor

     IMPORTANT: XC functional enforced from input :
     Exchange-correlation= BEEF-VDW
                           (   1   4  43  14   2   0   0)
     Any further DFT definition will be discarded
     Please, verify this is what you really want

  @ DRIVER MODE: Connecting to
 qe_1139763_3255137.sched-torque.pace.gatech.edu6pidy8o6_scratch
  using UNIX socket
  @ DRIVER MODE: Message from server: STATUS
  @ DRIVER MODE: Message from server: INIT
  @ DRIVER MODE: Receiving replica           0          -1
  @ DRIVER MODE: Receiving encoded integer          25
  @ DRIVER MODE:  SCF:  T  FORCE:  T  STRESS:  F  VC:  F  ENSEMBLE:  F
  @ DRIVER MODE:  SCF:  T  FORCE:  T  STRESS:  F  VC:  F  ENSEMBLE:  F

     Using Slab Decomposition

     bravais-lattice index     =            0
     lattice parameter (alat)  =       1.8897  a.u.
     unit-cell volume          =    9988.4706 (a.u.)^3
     number of atoms/cell      =           61
     number of atomic types    =            4
     number of electrons       =       442.00
     number of Kohn-Sham states=          231
     kinetic-energy cutoff     =      29.3995  Ry
     charge density cutoff     =     293.9946  Ry
     scf convergence threshold =      7.3E-08
     mixing beta               =       0.0500
     number of iterations used =            8  plain     mixing
     Exchange-correlation= BEEF-VDW
                           (   1   4  43  14   2   0   0)

     celldm(1)=   1.889726  celldm(2)=   0.000000  celldm(3)=   0.000000
     celldm(4)=   0.000000  celldm(5)=   0.000000  celldm(6)=   0.000000

     crystal axes: (cart. coord. in units of alat)
               a(1) = (   6.579727   0.000000   0.000000 )
               a(2) = (  -0.001163   8.942395   0.000000 )
               a(3) = (   0.000000   0.000000  25.155947 )

     reciprocal axes: (cart. coord. in units 2 pi/alat)
               b(1) = (  0.151982  0.000020  0.000000 )
               b(2) = (  0.000000  0.111827  0.000000 )
               b(3) = (  0.000000  0.000000  0.039752 )

     PseudoPot. # 1 for O  read from file:
     /storage/coda1/p-amedford6/0/shared/rich_project_chbe-medford/medford-share/data/pseudos_module/espresso/nninc/pbe/van/O.UPF
     MD5 check sum: 78c19812648e8988a0fe644b0f25305e
     Pseudo is Ultrasoft, Zval =  6.0
     Generated by new atomic code, or converted to UPF format
     Using radial grid of  737 points,  4 beta functions with:
                l(1) =   0
                l(2) =   0
                l(3) =   1
                l(4) =   1
     Q(r) pseudized with  8 coefficients,  rinner =    0.800   0.800   0.800

     PseudoPot. # 2 for Ti read from file:
     /storage/coda1/p-amedford6/0/shared/rich_project_chbe-medford/medford-share/data/pseudos_module/espresso/nninc/pbe/van/Ti.UPF
     MD5 check sum: 8e4df49b7f0d34bbd5052bf3f5ea0213
     Pseudo is Ultrasoft, Zval = 12.0
     Generated by new atomic code, or converted to UPF format
     Using radial grid of  851 points,  6 beta functions with:
                l(1) =   0
                l(2) =   0
                l(3) =   1
                l(4) =   1
                l(5) =   2
                l(6) =   2
     Q(r) pseudized with  8 coefficients,  rinner =    1.000   1.000   1.000
                                                       1.000   1.000

     PseudoPot. # 3 for N  read from file:
     /storage/coda1/p-amedford6/0/shared/rich_project_chbe-medford/medford-share/data/pseudos_module/espresso/nninc/pbe/van/N.UPF
     MD5 check sum: 90d10febe142ad51ac9d5be1deb811c4
     Pseudo is Ultrasoft, Zval =  5.0
     Generated by new atomic code, or converted to UPF format
     Using radial grid of  729 points,  4 beta functions with:
                l(1) =   0
                l(2) =   0
                l(3) =   1
                l(4) =   1
     Q(r) pseudized with  8 coefficients,  rinner =    0.800   0.800   0.800

     PseudoPot. # 4 for H  read from file:
     /storage/coda1/p-amedford6/0/shared/rich_project_chbe-medford/medford-share/data/pseudos_module/espresso/nninc/pbe/van/H.UPF
     MD5 check sum: b5ee9d7bfd3a09ee7748110bda690ff7
     Pseudo is Ultrasoft, Zval =  1.0
     Generated by new atomic code, or converted to UPF format
     Using radial grid of  615 points,  1 beta functions with:
                l(1) =   0
     Q(r) pseudized with  8 coefficients,  rinner =    0.800

     atomic species   valence    mass     pseudopotential
        O1             6.00    15.99900     O ( 1.00)
        Ti1           12.00    47.86700     Ti( 1.00)
        N1             5.00    14.00700     N ( 1.00)
        H1             1.00     1.00800     H ( 1.00)

     No symmetry found

   Cartesian axes

     site n.     atom                  positions (alat units)
         1           O1  tau(   1) = (   0.0007354   0.0005023  10.5931620  )
         2           O1  tau(   2) = (   3.2456387   0.0208629  13.8623892  )
         3           O1  tau(   3) = (   6.5569189   0.0555649  17.3369326  )
         4           O1  tau(   4) = (   0.0006271   0.0005054   7.9858123  )
         5           O1  tau(   5) = (   3.2933513   8.9300833  11.1812556  )
         6           O1  tau(   6) = (   0.0337597   0.0712708  14.6279364  )
         7           O1  tau(   7) = (   1.9868534   1.4903216   9.2879459  )
         8           O1  tau(   8) = (   5.2215124   1.6184176  12.5791628  )
         9           O1  tau(   9) = (   1.9922958   1.5902288  16.0980526  )
        10           Ti1 tau(  10) = (   0.0007404   1.4906270   9.2895810  )
        11           Ti1 tau(  11) = (   3.2860490   1.3455809  12.4359399  )
        12           Ti1 tau(  12) = (   6.5618936   1.3602716  15.8812525  )
        13           O1  tau(  13) = (   4.5942328   1.4918067   9.2879030  )
        14           O1  tau(  14) = (   1.3307156   1.5887400  12.5381291  )
        15           O1  tau(  15) = (   4.5725103   1.6118788  16.0006659  )
        16           Ti1 tau(  16) = (   3.2902859   2.9801868   9.2893338  )
        17           Ti1 tau(  17) = (   0.0046584   2.8227806  12.4510757  )
        18           Ti1 tau(  18) = (   3.2555632   2.8898243  15.6661830  )
        19           O1  tau(  19) = (   0.0003479   2.9813005  10.5931620  )
        20           O1  tau(  20) = (   3.2279248   2.9553539  13.8813459  )
        21           O1  tau(  21) = (   0.0002396   2.9813036   7.9858123  )
        22           O1  tau(  22) = (   3.2889556   2.9859946  11.1941525  )
        23           O1  tau(  23) = (   0.0559812   2.9852445  14.6488683  )
        24           O1  tau(  24) = (   1.9864658   4.4711199   9.2879459  )
        25           O1  tau(  25) = (   5.2314886   4.5920767  12.6107679  )
        26           O1  tau(  26) = (   1.9969377   4.5324570  16.1535429  )
        27           Ti1 tau(  27) = (   0.0003529   4.4714252   9.2895810  )
        28           Ti1 tau(  28) = (   3.2845268   4.3564118  12.5295435  )
        29           Ti1 tau(  29) = (   6.5676402   4.3565080  15.8255799  )
        30           O1  tau(  30) = (   4.5938453   4.4726049   9.2879030  )
        31           O1  tau(  31) = (   1.3315080   4.5776727  12.5731030  )
        32           O1  tau(  32) = (   4.5871741   4.4544688  15.9274438  )
        33           Ti1 tau(  33) = (   3.2898983   5.9609850   9.2893338  )
        34           Ti1 tau(  34) = (   6.5783773   5.8108302  12.4536689  )
        35           Ti1 tau(  35) = (   3.3162440   5.8110762  16.0333210  )
        36           O1  tau(  36) = (  -0.0000397   5.9620987  10.5931620  )
        37           O1  tau(  37) = (   3.2636778   5.9869953  13.9790019  )
        38           O1  tau(  38) = (   6.4104969   6.0475349  17.2872242  )
        39           O1  tau(  39) = (  -0.0001480   5.9621018   7.9858123  )
        40           O1  tau(  40) = (   3.2905218   5.9516507  11.2202175  )
        41           O1  tau(  41) = (   0.0617018   5.9803669  14.6637187  )
        42           O1  tau(  42) = (   1.9860782   7.4519181   9.2879459  )
        43           O1  tau(  43) = (   5.2407037   7.5572870  12.6049163  )
        44           O1  tau(  44) = (   1.9881273   7.5959696  16.0809372  )
        45           Ti1 tau(  45) = (  -0.0000347   7.4522234   9.2895810  )
        46           Ti1 tau(  46) = (   3.2912638   7.2305267  12.6172466  )
        47           Ti1 tau(  47) = (   0.0232661   7.3094817  15.9177444  )
        48           O1  tau(  48) = (   4.5934577   7.4534031   9.2879030  )
        49           O1  tau(  49) = (   1.3287160   7.5404973  12.5734398  )
        50           O1  tau(  50) = (   4.6507959   7.6754627  15.9163669  )
        51           Ti1 tau(  51) = (   3.2895107   8.9417832   9.2893338  )
        52           Ti1 tau(  52) = (   0.0077981   8.7799231  12.4640552  )
        53           Ti1 tau(  53) = (   3.2910717   8.8534038  15.6608489  )
        54           N1  tau(  54) = (   3.7626148   6.0985185  18.0019073  )
        55           H1  tau(  55) = (   3.4663780   5.3841571  18.6619304  )
        56           H1  tau(  56) = (   3.5565419   6.9988739  18.4108443  )
        57           N1  tau(  57) = (   6.5319303   3.0529623  17.4095181  )
        58           H1  tau(  58) = (   5.7013393   3.0140474  17.9904383  )
        59           H1  tau(  59) = (   0.7603229   3.1006543  18.0203722  )
        60           H1  tau(  60) = (   5.4974376   6.0468821  17.7423635  )
        61           H1  tau(  61) = (   0.7324116   0.0679216  17.9402240  )

     number of k points=    10  Fermi-Dirac smearing, width (Ry)=  0.0073
                       cart. coord. in units 2pi/alat
        k(    1) = (   0.0000000   0.0000000   0.0000000), wk =   0.1250000
        k(    2) = (   0.0000000   0.0279567   0.0000000), wk =   0.2500000
        k(    3) = (   0.0000000  -0.0559134   0.0000000), wk =   0.1250000
        k(    4) = (   0.0379955   0.0000049   0.0000000), wk =   0.2500000
        k(    5) = (   0.0379955   0.0279617   0.0000000), wk =   0.2500000
        k(    6) = (   0.0379955  -0.0559085   0.0000000), wk =   0.2500000
        k(    7) = (   0.0379955  -0.0279518   0.0000000), wk =   0.2500000
        k(    8) = (  -0.0759910  -0.0000099   0.0000000), wk =   0.1250000
        k(    9) = (  -0.0759910   0.0279468   0.0000000), wk =   0.2500000
        k(   10) = (  -0.0759910  -0.0559233   0.0000000), wk =   0.1250000

     Initial potential from superposition of free atoms

     starting charge  423.99908, renormalised to  442.00000

     negative rho (up, down):  3.746E-02 0.000E+00

     %%%%%%%%%%%%%%%%%%%%%%%%%%%%%%%%%%%%%%%%%%%%%%%%%%%%%%%%%%%%%%%%%%%%%%%%
     %                                                                      %
     % You are using vdW-DF, which was implemented by the Thonhauser group. %
     % Please cite the following two papers that made this development      %
     % possible and the two reviews that describe the various versions:     %
     %                                                                      %
     %   T. Thonhauser et al., PRL 115, 136402 (2015).                      %
     %   T. Thonhauser et al., PRB 76, 125112 (2007).                       %
     %   K. Berland et al., Rep. Prog. Phys. 78, 066501 (2015).             %
     %   D.C. Langreth et al., J. Phys.: Condens. Matter 21, 084203 (2009). %
     %                                                                      %
     %                                                                      %
     % If you are calculating the stress with vdW-DF, please also cite:     %
     %                                                                      %
     %   R. Sabatini et al., J. Phys.: Condens. Matter 24, 424209 (2012).   %
     %                                                                      %
     %%%%%%%%%%%%%%%%%%%%%%%%%%%%%%%%%%%%%%%%%%%%%%%%%%%%%%%%%%%%%%%%%%%%%%%%

     Adding external electric field

     Computed dipole along edir(3) :
        Dipole               -5.9679 Ry au,        -15.1688 Debye
        Dipole field         -0.0075 Ry au,

        Potential amp.        0.6960 Ry
        Total length         46.3494 bohr

     Starting wfcs are  334 atomic wfcs
  @ DRIVER MODE: Message from server: STATUS
  @ DRIVER MODE: Message from server: POSDATA
  @ DRIVER MODE: Reading and sharing cell
  @ DRIVER MODE: Reading and sharing positions
  @ DRIVER MODE: Received positions

     Self-consistent Calculation

     iteration #  1     ecut=    29.40 Ry     beta= 0.05
     Davidson diagonalization with overlap
     c_bands:  1 eigenvalues not converged
     c_bands:  3 eigenvalues not converged
     c_bands:  5 eigenvalues not converged
     c_bands:  2 eigenvalues not converged
     c_bands:  4 eigenvalues not converged
     c_bands:  4 eigenvalues not converged
     c_bands:  4 eigenvalues not converged
     c_bands:  2 eigenvalues not converged
     c_bands:  5 eigenvalues not converged
     ethr =  1.00E-05,  avg # of iterations = 21.0

[...]

     total energy              =   -3277.92959599 Ry
     estimated scf accuracy    <     239.65566875 Ry

     iteration #  2     ecut=    29.40 Ry     beta= 0.05
     Davidson diagonalization with overlap
     ethr =  1.00E-02,  avg # of iterations = 16.2

[...]

     iteration # 45     ecut=    29.40 Ry     beta= 0.05
     Davidson diagonalization with overlap
     c_bands:  1 eigenvalues not converged
     ethr =  6.03E-11,  avg # of iterations = 11.5

[...]

     total energy              =   -3295.80740815 Ry
     estimated scf accuracy    <       0.00000009 Ry

     iteration # 48     ecut=    29.40 Ry     beta= 0.05
     Davidson diagonalization with overlap
     ethr =  2.07E-11,  avg # of iterations = 10.0

     negative rho (up, down):  3.607E-02 0.000E+00

     Adding external electric field

     Computed dipole along edir(3) :
        Dipole                1.5092 Ry au,          3.8359 Debye
        Dipole field          0.0019 Ry au,

        Potential amp.       -0.1760 Ry
        Total length         46.3494 bohr

     End of self-consistent calculation

          k = 0.0000 0.0000 0.0000 ( 26871 PWs)   bands (ev):

   -57.7256 -57.6999 -57.6895 -57.6630 -57.6541 -57.6208 -57.6062 -57.5991
   -57.5718 -57.5582 -57.5090 -57.4783 -57.4620 -57.4556 -57.4476 -56.7474
   -56.7233 -56.7188 -34.1072 -34.1037 -34.0952 -34.0862 -34.0741 -34.0574
   -34.0567 -34.0428 -34.0296 -34.0184 -33.9884 -33.9699 -33.9505 -33.9444
   -33.9366 -33.9183 -33.9130 -33.9113 -33.8932 -33.8879 -33.8662 -33.8638
   -33.8434 -33.8337 -33.8296 -33.8237 -33.8128 -33.8109 -33.8052 -33.7958
   -33.7844 -33.7824 -33.7685 -33.7322 -33.7233 -33.7193 -33.7045 -33.7038
   -33.6960 -33.6950 -33.6838 -33.6754 -33.6686 -33.6627 -33.6403 -33.0627
   -33.0617 -33.0571 -33.0456 -33.0414 -32.9735 -32.9115 -32.9062 -32.7733
   -19.3034 -18.7618 -18.5264 -18.2278 -18.0171 -17.9749 -17.9417 -17.8203
   -17.7848 -17.7607 -17.6633 -17.6521 -17.5886 -17.5348 -17.5067 -17.4580
   -17.4400 -17.3794 -17.3654 -17.3571 -17.3518 -17.3416 -17.3314 -17.2664
   -17.2391 -17.2105 -17.1716 -17.1560 -17.1494 -17.1419 -17.1194 -16.8468
   -15.5027 -15.2141 -15.1560 -15.1547 -15.0969  -6.9870  -6.8139  -6.6495
    -6.3766  -5.8611  -5.7875  -5.6381  -5.5142  -5.2221  -5.1944  -5.1430
    -5.1160  -5.0874  -5.0227  -5.0027  -4.9897  -4.9344  -4.9169  -4.8444
    -4.8216  -4.7804  -4.7562  -4.7301  -4.6857  -4.6455  -4.6182  -4.6063
    -4.5756  -4.5680  -4.5115  -4.4879  -4.4585  -4.4528  -4.4366  -4.3274
    -4.2953  -4.2384  -4.1700  -4.0927  -4.0401  -4.0319  -3.9753  -3.9558
    -3.9037  -3.8642  -3.8266  -3.8175  -3.7816  -3.7431  -3.6433  -3.6083
    -3.5885  -3.5229  -3.5010  -3.4320  -3.4147  -3.3814  -3.3399  -3.3332
    -3.2970  -3.1990  -3.1651  -3.0844  -3.0273  -2.9746  -2.9351  -2.8910
    -2.8445  -2.8114  -2.7859  -2.7040  -2.6263  -2.5440  -2.4941  -2.4813
    -2.4695  -2.4187  -2.4118  -2.4093  -2.3519  -2.3262  -2.3157  -2.2784
    -2.2261  -2.2039  -2.1416  -2.0967  -2.0615  -1.9939  -1.9782  -1.8975
    -1.8888  -1.8277  -1.7845  -1.7449  -1.6334  -1.5986  -1.5662  -1.5636
    -1.4447  -1.4085  -1.1456  -1.0054  -0.7890  -0.7555  -0.5011  -0.4523
    -0.4494  -0.1865  -0.1831  -0.0548   1.3215   1.5101   1.6439   1.6993
     1.7042   1.7377   1.8039   1.8903   1.9156   1.9629   1.9945

[...]

          k = 0.0380-0.0280 0.0000 ( 26873 PWs)   bands (ev):

[...]

          k =-0.0760-0.0000 0.0000 ( 26902 PWs)   bands (ev):

[...]

          k =-0.0760-0.0559 0.0000 ( 26868 PWs)   bands (ev):

   -57.7221 -57.7075 -57.6853 -57.6619 -57.6541 -57.6215 -57.6075 -57.5988
   -57.5711 -57.5579 -57.5093 -57.4733 -57.4658 -57.4615 -57.4428 -56.7412
   -56.7359 -56.7124 -34.1946 -34.1572 -34.1547 -34.0950 -34.0609 -34.0533
   -34.0426 -34.0397 -34.0026 -33.9688 -33.9342 -33.9208 -33.9155 -33.9140
   -33.9031 -33.9008 -33.8812 -33.8737 -33.8692 -33.8691 -33.8651 -33.8596
   -33.8544 -33.8463 -33.8319 -33.8270 -33.8245 -33.8195 -33.8150 -33.7943
   -33.7938 -33.7711 -33.7643 -33.7568 -33.7511 -33.7322 -33.7264 -33.7211
   -33.7012 -33.7010 -33.6991 -33.6958 -33.6866 -33.6684 -33.6516 -33.1515
   -33.0624 -33.0572 -33.0348 -32.9550 -32.9491 -32.8874 -32.8728 -32.8675
   -19.2899 -18.7361 -18.2727 -18.1359 -17.9640 -17.9225 -17.8485 -17.8356
   -17.8238 -17.7946 -17.7024 -17.6793 -17.6528 -17.5698 -17.5515 -17.5011
   -17.4572 -17.4440 -17.4257 -17.4148 -17.4067 -17.3899 -17.3560 -17.3239
   -17.2917 -17.2395 -17.1774 -17.1586 -17.1101 -17.0954 -17.0648 -16.8806
   -15.4974 -15.2120 -15.2100 -15.0982 -15.0932  -6.9917  -6.8462  -6.6416
    -6.3573  -5.5178  -5.4547  -5.3715  -5.3568  -5.2391  -5.2066  -5.0150
    -5.0050  -4.9902  -4.9580  -4.9262  -4.8901  -4.8633  -4.8392  -4.8256
    -4.8119  -4.7905  -4.7646  -4.7527  -4.7363  -4.6924  -4.6454  -4.6391
    -4.6280  -4.6055  -4.5510  -4.5063  -4.4784  -4.4259  -4.4227  -4.3422
    -4.3188  -4.3007  -4.2268  -4.2183  -4.0947  -3.9490  -3.8879  -3.8679
    -3.8433  -3.7963  -3.7864  -3.7330  -3.7104  -3.6933  -3.5573  -3.4747
    -3.4507  -3.4163  -3.3851  -3.3624  -3.3267  -3.2991  -3.2773  -3.2518
    -3.2357  -3.1828  -3.1665  -3.1234  -3.0807  -2.9992  -2.9557  -2.8968
    -2.8745  -2.8561  -2.8377  -2.8341  -2.8132  -2.7807  -2.7512  -2.6957
    -2.6862  -2.6565  -2.5850  -2.5282  -2.5023  -2.4775  -2.4354  -2.4280
    -2.2735  -2.2543  -2.2211  -2.2089  -2.1352  -2.0921  -2.0006  -1.9739
    -1.9514  -1.8799  -1.8083  -1.7648  -1.7084  -1.5118  -1.5031  -1.3840
    -1.3473  -1.2985  -1.2729  -1.2302  -1.0701  -0.7377  -0.6636  -0.3803
    -0.3691  -0.3431  -0.1877  -0.1814   1.4288   1.4523   1.5374   1.5936
     1.6125   1.6502   1.6630   1.7021   1.7226   1.7792   1.9147

     the Fermi energy is     1.3724 ev

!    total energy              =   -3295.80754183 Ry
     estimated scf accuracy    <       0.00000005 Ry
     smearing contrib. (-TS)   =      -0.03572269 Ry
     internal energy E=F+TS    =   -3295.77181914 Ry

     The total energy is F=E-TS. E is the sum of the following terms:
     one-electron contribution =  -34706.28876431 Ry
     hartree contribution      =   17419.04387738 Ry
     xc contribution           =    -543.86887267 Ry
     ewald contribution        =   14535.33907503 Ry
     electric field correction =       0.00286544 Ry

     convergence has been achieved in  48 iterations

     Forces acting on atoms (cartesian axes, Ry/au):

     atom    1 type  1   force =    -0.00168755    0.00377004    0.05471829
     atom    2 type  1   force =     0.00024352   -0.00251208   -0.00839040
     atom    3 type  1   force =     0.00046404   -0.00352223    0.00031263
     atom    4 type  1   force =     0.00004596   -0.00003028    0.10676669
     atom    5 type  1   force =    -0.00020362    0.00066771    0.00659503
     atom    6 type  1   force =     0.00003075   -0.00446897    0.00376040
     atom    7 type  1   force =     0.06648434    0.00079643   -0.02964875
     atom    8 type  1   force =     0.00660171   -0.02713283    0.00194987
     atom    9 type  1   force =     0.00662077   -0.02258585    0.00512333
     atom   10 type  2   force =    -0.00012002   -0.00451066   -0.18344300
     atom   11 type  2   force =     0.00067330    0.02088968   -0.00414470
     atom   12 type  2   force =    -0.00177009    0.02772806   -0.00660121
     atom   13 type  1   force =    -0.06654263    0.00044715   -0.02979516
     atom   14 type  1   force =    -0.00434657   -0.02770735    0.00253355
     atom   15 type  1   force =    -0.00657825   -0.02338627    0.00501926
     atom   16 type  2   force =     0.00008566    0.00069061    0.06699480
     atom   17 type  2   force =    -0.00237859    0.03351528    0.00351308
     atom   18 type  2   force =     0.00129554    0.02458249   -0.00365201
     atom   19 type  1   force =    -0.00169806    0.00674955    0.05327448
     atom   20 type  1   force =     0.00023619   -0.00116303   -0.00662415
     atom   21 type  1   force =     0.00003431    0.00109868    0.10723787
     atom   22 type  1   force =    -0.00025343   -0.00198554    0.00723178
     atom   23 type  1   force =     0.00072195   -0.00583960    0.00416693
     atom   24 type  1   force =     0.06751821    0.00137915   -0.02905542
     atom   25 type  1   force =     0.00528786   -0.03015885    0.00244858
     atom   26 type  1   force =     0.00672863   -0.02609940   -0.00414622
     atom   27 type  2   force =     0.00011554   -0.00120790   -0.18672123
     atom   28 type  2   force =     0.00007840    0.02385747   -0.00246402
     atom   29 type  2   force =    -0.00113186    0.02212712    0.00085646
     atom   30 type  1   force =    -0.06762121    0.00087407   -0.02890770
     atom   31 type  1   force =    -0.00538075   -0.02962078    0.00279183
     atom   32 type  1   force =    -0.00429737   -0.02250038    0.00254587
     atom   33 type  2   force =    -0.00005199    0.00131224    0.07477092
     atom   34 type  2   force =     0.00092846    0.03692181    0.00407355
     atom   35 type  2   force =    -0.00208069    0.03440878    0.00495087
     atom   36 type  1   force =    -0.00186582    0.00288296    0.05589761
     atom   37 type  1   force =     0.00134191    0.00405901   -0.01146969
     atom   38 type  1   force =     0.00016378   -0.00405091    0.00417507
     atom   39 type  1   force =     0.00002208   -0.00063690    0.10724785
     atom   40 type  1   force =     0.00015685   -0.00140192    0.00717638
     atom   41 type  1   force =    -0.00025241   -0.00395787    0.00184235
     atom   42 type  1   force =     0.06784923   -0.00221514   -0.02969222
     atom   43 type  1   force =     0.00369555   -0.02636210    0.00152753
     atom   44 type  1   force =     0.01005897   -0.01801675    0.00274396
     atom   45 type  2   force =     0.00003039    0.00217622   -0.18330115
     atom   46 type  2   force =    -0.00023511    0.01476521    0.00207044
     atom   47 type  2   force =     0.00296621    0.02644519   -0.00880266
     atom   48 type  1   force =    -0.06791563   -0.00284301   -0.02984498
     atom   49 type  1   force =    -0.00376068   -0.02550318    0.00182993
     atom   50 type  1   force =    -0.00796508   -0.02368824    0.00531925
     atom   51 type  2   force =     0.00045359   -0.00349247    0.06842605
     atom   52 type  2   force =    -0.00010302    0.03117951    0.00595475
     atom   53 type  2   force =    -0.00211143    0.02608023   -0.00070030
     atom   54 type  3   force =     0.00230600   -0.00790333   -0.00489983
     atom   55 type  4   force =    -0.00087212    0.00139779   -0.00022922
     atom   56 type  4   force =    -0.00123248    0.00614024    0.00512036
     atom   57 type  3   force =     0.00131677   -0.00272441   -0.00028608
     atom   58 type  4   force =     0.00050536    0.00103618   -0.00006829
     atom   59 type  4   force =     0.00006038    0.00028198    0.00071038
     atom   60 type  4   force =    -0.00141455    0.00007916    0.00009354
     atom   61 type  4   force =    -0.00125121   -0.00111179    0.00111684

     Total force =     0.459675     Total SCF correction =     0.000794
  @ DRIVER MODE: Message from server: STATUS
  @ DRIVER MODE: Message from server: GETFORCE
  @ DRIVER MODE: Returning v,forces,stress,ensemble

     Writing output data file ./calc.save/
  @ DRIVER MODE: Message from server: EXIT
  @ DRIVE MODE: Exiting

     General routines

     Parallel routines

   This run was terminated on:  20: 2:43  18Oct2021

   JOB DONE.