     Program PWSCF v.6.7GPU starts on 23Aug2021 at 17: 3:22

     R & G space division:  proc/nbgrp/npool/nimage =       6
     Reading input from /storage/home/hcoda1/3/ntian30/research/carbon/CH2_vib/ads_slab/CH2N2H_a/out_0008/pw.inp
Warning: card &CELL ignored
Warning: card   CELL_DYNAMICS='IPI', ignored
Warning: card / ignored

     Current dimensions of program PWSCF are:
     Max number of different atomic species (ntypx) = 10
     Max number of k-points (npk) =  40000
     Max angular momentum in pseudopotentials (lmaxx) =  3
     Presently no symmetry can be used with electric field

     Message from routine cell_base_init:
     DEPRECATED: use true lattice parameter, not A to a.u. conversion factor

     IMPORTANT: XC functional enforced from input :
     Exchange-correlation= BEEF-VDW
                           (   1   4  43  14   2   0   0)
     Any further DFT definition will be discarded
     Please, verify this is what you really want

  @ DRIVER MODE: Connecting to
 qe_1139763_2632802.sched-torque.pace.gatech.edu8_d_3gis_scratch
  using UNIX socket
  @ DRIVER MODE: Message from server: STATUS
  @ DRIVER MODE: Message from server: INIT
  @ DRIVER MODE: Receiving replica           0          -1
  @ DRIVER MODE: Receiving encoded integer          25
  @ DRIVER MODE:  SCF:  T  FORCE:  T  STRESS:  F  VC:  F  ENSEMBLE:  F
  @ DRIVER MODE:  SCF:  T  FORCE:  T  STRESS:  F  VC:  F  ENSEMBLE:  F

     Using Slab Decomposition

     bravais-lattice index     =            0
     lattice parameter (alat)  =       1.8897  a.u.
     unit-cell volume          =    6658.9804 (a.u.)^3
     number of atoms/cell      =           53
     number of atomic types    =            5
     number of electrons       =       395.00
     number of Kohn-Sham states=          207
     kinetic-energy cutoff     =      29.3995  Ry
     charge density cutoff     =     293.9946  Ry
     scf convergence threshold =      7.3E-08
     mixing beta               =       0.0500
     number of iterations used =            8  plain     mixing
     Exchange-correlation= BEEF-VDW
                           (   1   4  43  14   2   0   0)

     celldm(1)=   1.889726  celldm(2)=   0.000000  celldm(3)=   0.000000
     celldm(4)=   0.000000  celldm(5)=   0.000000  celldm(6)=   0.000000

     crystal axes: (cart. coord. in units of alat)
               a(1) = (   6.579727   0.000000   0.000000 )
               a(2) = (  -0.000775   5.961596   0.000000 )
               a(3) = (   0.000000   0.000000  25.155947 )

     reciprocal axes: (cart. coord. in units 2 pi/alat)
               b(1) = (  0.151982  0.000020  0.000000 )
               b(2) = (  0.000000  0.167740  0.000000 )
               b(3) = (  0.000000  0.000000  0.039752 )

     PseudoPot. # 1 for Ti read from file:
     /storage/coda1/p-amedford6/0/shared/rich_project_chbe-medford/medford-share/data/pseudos_module/espresso/nninc/pbe/van/Ti.UPF
     MD5 check sum: 8e4df49b7f0d34bbd5052bf3f5ea0213
     Pseudo is Ultrasoft, Zval = 12.0
     Generated by new atomic code, or converted to UPF format
     Using radial grid of  851 points,  6 beta functions with:
                l(1) =   0
                l(2) =   0
                l(3) =   1
                l(4) =   1
                l(5) =   2
                l(6) =   2
     Q(r) pseudized with  8 coefficients,  rinner =    1.000   1.000   1.000
                                                       1.000   1.000

     PseudoPot. # 2 for O  read from file:
     /storage/coda1/p-amedford6/0/shared/rich_project_chbe-medford/medford-share/data/pseudos_module/espresso/nninc/pbe/van/O.UPF
     MD5 check sum: 78c19812648e8988a0fe644b0f25305e
     Pseudo is Ultrasoft, Zval =  6.0
     Generated by new atomic code, or converted to UPF format
     Using radial grid of  737 points,  4 beta functions with:
                l(1) =   0
                l(2) =   0
                l(3) =   1
                l(4) =   1
     Q(r) pseudized with  8 coefficients,  rinner =    0.800   0.800   0.800

     PseudoPot. # 3 for N  read from file:
     /storage/coda1/p-amedford6/0/shared/rich_project_chbe-medford/medford-share/data/pseudos_module/espresso/nninc/pbe/van/N.UPF
     MD5 check sum: 90d10febe142ad51ac9d5be1deb811c4
     Pseudo is Ultrasoft, Zval =  5.0
     Generated by new atomic code, or converted to UPF format
     Using radial grid of  729 points,  4 beta functions with:
                l(1) =   0
                l(2) =   0
                l(3) =   1
                l(4) =   1
     Q(r) pseudized with  8 coefficients,  rinner =    0.800   0.800   0.800

     PseudoPot. # 4 for C  read from file:
     /storage/coda1/p-amedford6/0/shared/rich_project_chbe-medford/medford-share/data/pseudos_module/espresso/nninc/pbe/van/C.UPF
     MD5 check sum: 1a69bf6b8db32088f5b2163dbdb77a27
     Pseudo is Ultrasoft, Zval =  4.0
     Generated by new atomic code, or converted to UPF format
     Using radial grid of  721 points,  4 beta functions with:
                l(1) =   0
                l(2) =   0
                l(3) =   1
                l(4) =   1
     Q(r) pseudized with  8 coefficients,  rinner =    0.800   0.800   0.800

     PseudoPot. # 5 for H  read from file:
     /storage/coda1/p-amedford6/0/shared/rich_project_chbe-medford/medford-share/data/pseudos_module/espresso/nninc/pbe/van/H.UPF
     MD5 check sum: b5ee9d7bfd3a09ee7748110bda690ff7
     Pseudo is Ultrasoft, Zval =  1.0
     Generated by new atomic code, or converted to UPF format
     Using radial grid of  615 points,  1 beta functions with:
                l(1) =   0
     Q(r) pseudized with  8 coefficients,  rinner =    0.800

     atomic species   valence    mass     pseudopotential
        Ti1           12.00    47.86700     Ti( 1.00)
        O1             6.00    15.99900     O ( 1.00)
        N1             5.00    14.00700     N ( 1.00)
        C1             4.00    12.01100     C ( 1.00)
        H1             1.00     1.00800     H ( 1.00)

     No symmetry found

   Cartesian axes

     site n.     atom                  positions (alat units)
         1           Ti1 tau(   1) = (   0.0004258   2.9801865   6.0000000  )
         2           Ti1 tau(   2) = (   3.2906075   1.4906267   6.0002472  )
         3           O1  tau(   3) = (   0.0006271   0.0005054   7.9858123  )
         4           O1  tau(   4) = (   3.2906025   0.0005020   7.3038282  )
         5           O1  tau(   5) = (   4.5942328   1.4918067   9.2879030  )
         6           O1  tau(   6) = (   1.9868534   1.4903216   9.2879459  )
         7           Ti1 tau(   7) = (   3.2907910   2.8959150   9.1758416  )
         8           Ti1 tau(   8) = (   0.0015273   1.4827037   9.2680791  )
         9           O1  tau(   9) = (   3.3007851   0.0027079  11.3193151  )
        10           O1  tau(  10) = (   0.0116148   5.9584955  10.6183126  )
        11           O1  tau(  11) = (   1.3147357   1.5019762  12.6210215  )
        12           O1  tau(  12) = (   5.3120411   1.4917641  12.6342566  )
        13           Ti1 tau(  13) = (   6.5359925   2.9538565  12.6086018  )
        14           Ti1 tau(  14) = (   3.2189980   1.4905645  12.4770757  )
        15           O1  tau(  15) = (   0.0426301   5.9606301  14.6312846  )
        16           O1  tau(  16) = (   3.3149351   0.0098317  13.8848037  )
        17           O1  tau(  17) = (   4.5523768   1.5206755  16.0744300  )
        18           O1  tau(  18) = (   2.0715852   1.4807026  15.9918588  )
        19           Ti1 tau(  19) = (   3.2935730   2.9941335  15.6827836  )
        20           Ti1 tau(  20) = (   0.0200723   1.3023755  15.9747514  )
        21           O1  tau(  21) = (   3.2904802   0.0005063   4.7018136  )
        22           O1  tau(  22) = (   6.5179923   0.0002674  17.1556216  )
        23           O1  tau(  23) = (   1.3043587   1.4918075   6.0039043  )
        24           O1  tau(  24) = (   5.2767064   1.4903225   6.0039473  )
        25           Ti1 tau(  25) = (   0.0000382   5.9609847   6.0000000  )
        26           Ti1 tau(  26) = (   3.2902200   4.4714249   6.0002472  )
        27           O1  tau(  27) = (   0.0002396   2.9813036   7.9858123  )
        28           O1  tau(  28) = (   3.2902150   2.9813002   7.3038282  )
        29           O1  tau(  29) = (   4.5938453   4.4726049   9.2879030  )
        30           O1  tau(  30) = (   1.9864658   4.4711199   9.2879459  )
        31           Ti1 tau(  31) = (   3.2891106   5.8743827   9.1763621  )
        32           Ti1 tau(  32) = (   0.0006254   4.4649316   9.2693709  )
        33           O1  tau(  33) = (   3.3053585   2.9833221  11.3185053  )
        34           O1  tau(  34) = (   0.0092240   2.9805883  10.6323155  )
        35           O1  tau(  35) = (   1.3157767   4.4721532  12.6203727  )
        36           O1  tau(  36) = (   5.3104355   4.4689601  12.6331991  )
        37           Ti1 tau(  37) = (   6.5385524   5.9338372  12.5465384  )
        38           Ti1 tau(  38) = (   3.2200853   4.4710709  12.4725482  )
        39           O1  tau(  39) = (   0.0068575   2.9964749  14.7765288  )
        40           O1  tau(  40) = (   3.3021705   2.9848394  13.8818356  )
        41           O1  tau(  41) = (   4.5334443   4.4765196  15.9883447  )
        42           O1  tau(  42) = (   2.0816803   4.4801587  16.0471567  )
        43           Ti1 tau(  43) = (   3.3155128   0.0116264  15.6901768  )
        44           Ti1 tau(  44) = (   6.5575601   4.4671909  15.9479714  )
        45           O1  tau(  45) = (   3.2900926   2.9813045   4.7018136  )
        46           O1  tau(  46) = (   1.3039711   4.4726057   6.0039043  )
        47           O1  tau(  47) = (   5.2763189   4.4711207   6.0039473  )
        48           N1  tau(  48) = (   0.4270260   2.3853988  17.9668900  )
        49           C1  tau(  49) = (   0.9569377   1.9340014  19.0583692  )
        50           H1  tau(  50) = (   1.0789317   2.5769861  19.9249762  )
        51           H1  tau(  51) = (   1.2326487   0.8959138  19.0941702  )
        52           N1  tau(  52) = (   0.0025679   3.6232397  17.7996529  )
        53           H1  tau(  53) = (   0.1020252   4.2324666  18.6151602  )

     number of k points=    10  Fermi-Dirac smearing, width (Ry)=  0.0073
                       cart. coord. in units 2pi/alat
        k(    1) = (   0.0000000   0.0000000   0.0000000), wk =   0.1250000
        k(    2) = (   0.0000000   0.0419351   0.0000000), wk =   0.2500000
        k(    3) = (   0.0000000  -0.0838702   0.0000000), wk =   0.1250000
        k(    4) = (   0.0379955   0.0000049   0.0000000), wk =   0.2500000
        k(    5) = (   0.0379955   0.0419400   0.0000000), wk =   0.2500000
        k(    6) = (   0.0379955  -0.0838652   0.0000000), wk =   0.2500000
        k(    7) = (   0.0379955  -0.0419301   0.0000000), wk =   0.2500000
        k(    8) = (  -0.0759910  -0.0000099   0.0000000), wk =   0.1250000
        k(    9) = (  -0.0759910   0.0419252   0.0000000), wk =   0.2500000
        k(   10) = (  -0.0759910  -0.0838800   0.0000000), wk =   0.1250000

     Initial potential from superposition of free atoms

     starting charge  378.99916, renormalised to  395.00000

     negative rho (up, down):  1.649E-02 0.000E+00

     %%%%%%%%%%%%%%%%%%%%%%%%%%%%%%%%%%%%%%%%%%%%%%%%%%%%%%%%%%%%%%%%%%%%%%%%
     %                                                                      %
     % You are using vdW-DF, which was implemented by the Thonhauser group. %
     % Please cite the following two papers that made this development      %
     % possible and the two reviews that describe the various versions:     %
     %                                                                      %
     %   T. Thonhauser et al., PRL 115, 136402 (2015).                      %
     %   T. Thonhauser et al., PRB 76, 125112 (2007).                       %
     %   K. Berland et al., Rep. Prog. Phys. 78, 066501 (2015).             %
     %   D.C. Langreth et al., J. Phys.: Condens. Matter 21, 084203 (2009). %
     %                                                                      %
     %                                                                      %
     % If you are calculating the stress with vdW-DF, please also cite:     %
     %                                                                      %
     %   R. Sabatini et al., J. Phys.: Condens. Matter 24, 424209 (2012).   %
     %                                                                      %
     %%%%%%%%%%%%%%%%%%%%%%%%%%%%%%%%%%%%%%%%%%%%%%%%%%%%%%%%%%%%%%%%%%%%%%%%

     Adding external electric field

     Computed dipole along edir(3) :
        Dipole               -8.3970 Ry au,        -21.3430 Debye
        Dipole field         -0.0158 Ry au,

        Potential amp.        1.4689 Ry
        Total length         46.3494 bohr

     Starting wfcs are  299 atomic wfcs
  @ DRIVER MODE: Message from server: STATUS
  @ DRIVER MODE: Message from server: POSDATA
  @ DRIVER MODE: Reading and sharing cell
  @ DRIVER MODE: Reading and sharing positions
  @ DRIVER MODE: Received positions

     Self-consistent Calculation

     iteration #  1     ecut=    29.40 Ry     beta= 0.05
     Davidson diagonalization with overlap
     c_bands:  2 eigenvalues not converged
     c_bands:  1 eigenvalues not converged
     c_bands:  2 eigenvalues not converged
     c_bands:  3 eigenvalues not converged
     c_bands:  3 eigenvalues not converged
     c_bands:  2 eigenvalues not converged
     c_bands:  1 eigenvalues not converged
     ethr =  1.00E-05,  avg # of iterations = 19.3

[...]

     total energy              =   -2613.95011466 Ry
     estimated scf accuracy    <    3601.28044206 Ry

[...]

     iteration #  3     ecut=    29.40 Ry     beta= 0.05
     Davidson diagonalization with overlap
     ethr =  1.00E-02,  avg # of iterations = 14.5

[...]

     iteration # 50     ecut=    29.40 Ry     beta= 0.05
     Davidson diagonalization with overlap
     c_bands:  1 eigenvalues not converged
     c_bands:  1 eigenvalues not converged
     ethr =  1.83E-06,  avg # of iterations = 16.1

[...]

     total energy              =   -2939.13532940 Ry
     estimated scf accuracy    <       0.00000008 Ry

     iteration # 73     ecut=    29.40 Ry     beta= 0.05
     Davidson diagonalization with overlap
     ethr =  1.90E-11,  avg # of iterations =  4.4

     negative rho (up, down):  1.681E-02 0.000E+00

     Adding external electric field

     Computed dipole along edir(3) :
        Dipole                0.7872 Ry au,          2.0008 Debye
        Dipole field          0.0015 Ry au,

        Potential amp.       -0.1377 Ry
        Total length         46.3494 bohr

     End of self-consistent calculation

          k = 0.0000 0.0000 0.0000 ( 18029 PWs)   bands (ev):

   -55.8531 -55.8520 -55.8190 -55.8159 -55.7464 -55.7033 -55.6655 -55.6637
   -55.6305 -55.6298 -55.6250 -55.5913 -55.1913 -55.1453 -54.8287 -54.7946
   -32.4060 -32.3360 -32.2421 -32.1637 -32.1497 -32.1452 -32.1315 -32.1168
   -32.0961 -32.0830 -32.0301 -32.0121 -32.0055 -32.0037 -31.9936 -31.9901
   -31.9579 -31.9460 -31.9401 -31.9375 -31.9105 -31.9080 -31.8923 -31.8902
   -31.8593 -31.8551 -31.8530 -31.8517 -31.8266 -31.8116 -31.8040 -31.7938
   -31.7824 -31.7795 -31.7719 -31.7384 -31.7320 -31.4552 -31.4187 -31.3907
   -31.3392 -31.3036 -31.2355 -31.1479 -31.1255 -31.0525 -30.9660 -30.8547
   -17.8957 -16.6123 -16.3322 -16.0766 -16.0015 -15.9977 -15.8640 -15.7012
   -15.5885 -15.5215 -15.4414 -15.4115 -15.3896 -15.3540 -15.3477 -15.3100
   -15.3010 -15.2754 -15.2722 -15.2097 -15.2062 -15.1990 -15.1892 -15.1051
   -15.0474 -14.9959 -14.9883 -14.9148 -14.8806 -14.3530 -13.3307 -13.2143
   -12.1427  -7.8806  -5.3561  -4.5381  -3.9891  -3.8298  -3.7602  -3.7256
    -3.6491  -3.4893  -3.4104  -3.1279  -3.0788  -3.0242  -3.0147  -2.9782
    -2.9308  -2.7809  -2.7033  -2.6774  -2.6618  -2.6395  -2.6244  -2.6123
    -2.5958  -2.5770  -2.4948  -2.4147  -2.3708  -2.2938  -2.2804  -2.2445
    -2.1655  -2.1651  -2.1251  -2.1046  -2.0861  -2.0701  -2.0615  -2.0464
    -1.9073  -1.8499  -1.8351  -1.6554  -1.6403  -1.5886  -1.4653  -1.4564
    -1.3391  -1.3240  -1.2836  -1.2460  -1.1730  -1.1514  -1.0399  -0.9986
    -0.9368  -0.8901  -0.8749  -0.7990  -0.7343  -0.6968  -0.6833  -0.6177
    -0.6110  -0.5979  -0.4614  -0.3864  -0.3333  -0.2773  -0.2549  -0.1990
    -0.1594  -0.1162  -0.0287  -0.0017   0.0100   0.0682   0.0899   0.1153
     0.1269   0.1466   0.1759   0.2311   0.3493   0.3809   0.4570   0.4713
     0.5320   0.6661   0.8041   0.8713   0.9238   1.0213   1.1246   1.1940
     1.2674   1.3864   1.7641   1.8096   2.1392   3.2667   3.3686   3.4014
     3.4124   3.5155   3.6643   3.7259   3.7410   3.7823   3.8162

[...]

          k = 0.0380-0.0419 0.0000 ( 17876 PWs)   bands (ev):

[...]

          k =-0.0760-0.0000 0.0000 ( 17886 PWs)   bands (ev):

[...]

          k =-0.0760-0.0839 0.0000 ( 17948 PWs)   bands (ev):

   -55.8362 -55.8357 -55.8344 -55.8332 -55.7378 -55.7119 -55.6487 -55.6471
   -55.6470 -55.6460 -55.6089 -55.6076 -55.1835 -55.1530 -54.8117 -54.8115
   -32.2082 -32.2066 -32.1514 -32.1511 -32.1308 -32.1304 -32.0968 -32.0939
   -32.0848 -32.0682 -32.0024 -31.9998 -31.9942 -31.9925 -31.9705 -31.9628
   -31.9560 -31.9555 -31.9503 -31.9492 -31.9472 -31.9355 -31.9298 -31.9231
   -31.9110 -31.9060 -31.8610 -31.8508 -31.8489 -31.8481 -31.8398 -31.8390
   -31.8259 -31.8252 -31.8246 -31.8234 -31.6850 -31.4507 -31.4172 -31.4130
   -31.3941 -31.3403 -31.1383 -31.1381 -31.0484 -31.0482 -31.0093 -31.0092
   -17.8820 -16.0273 -16.0246 -15.8170 -15.7781 -15.7588 -15.7529 -15.6633
   -15.5776 -15.5441 -15.5410 -15.4542 -15.4277 -15.4117 -15.3957 -15.3902
   -15.3811 -15.3518 -15.3166 -15.3091 -15.2951 -15.2894 -15.2773 -15.2206
   -15.1692 -15.1650 -15.1426 -15.0704 -14.8319 -14.6928 -13.3162 -13.3161
   -12.1038  -7.8211  -5.4013  -4.5983  -3.3219  -3.3124  -3.0660  -3.0231
    -3.0179  -2.9884  -2.9509  -2.7902  -2.7777  -2.7583  -2.7505  -2.7058
    -2.6822  -2.6619  -2.6423  -2.6372  -2.6080  -2.5821  -2.5669  -2.5299
    -2.5230  -2.5140  -2.4825  -2.4719  -2.4258  -2.4199  -2.3992  -2.3716
    -2.3625  -2.3290  -2.1779  -2.1076  -2.0794  -1.9947  -1.9878  -1.9496
    -1.9268  -1.9047  -1.9015  -1.8690  -1.8311  -1.6948  -1.6123  -1.5507
    -1.5420  -1.4576  -1.4300  -1.3684  -1.2786  -1.2530  -1.2322  -1.1604
    -1.0846  -1.0466  -0.9959  -0.9822  -0.9147  -0.9057  -0.8484  -0.8116
    -0.8096  -0.7325  -0.7019  -0.6552  -0.6186  -0.6017  -0.5787  -0.5520
    -0.5365  -0.5128  -0.4363  -0.3533  -0.3017  -0.2408  -0.1477  -0.0191
     0.1016   0.2146   0.2363   0.2804   0.3334   0.3677   0.4608   0.4646
     0.5278   0.5512   0.5930   0.6705   0.6816   0.7060   0.8171   0.8495
     1.5585   1.5589   1.6295   1.6297   2.0803   3.5895   3.6184   3.6376
     3.6691   3.7987   3.8047   3.8151   3.8159   3.9511   3.9557

     the Fermi energy is     3.2765 ev

!    total energy              =   -2939.13534066 Ry
     estimated scf accuracy    <       0.00000006 Ry
     smearing contrib. (-TS)   =      -0.02098979 Ry
     internal energy E=F+TS    =   -2939.11435087 Ry

     The total energy is F=E-TS. E is the sum of the following terms:
     one-electron contribution =  -24492.22426096 Ry
     hartree contribution      =   12334.05985025 Ry
     xc contribution           =    -485.36786411 Ry
     ewald contribution        =    9704.41675462 Ry
     electric field correction =       0.00116933 Ry

     convergence has been achieved in  73 iterations

     Forces acting on atoms (cartesian axes, Ry/au):

     atom    1 type  1   force =     0.00007767   -0.00023972    0.09634350
     atom    2 type  1   force =     0.00005323   -0.00057240   -0.17514498
     atom    3 type  2   force =     0.00014896   -0.00013262   -0.02410861
     atom    4 type  2   force =    -0.00000495   -0.00124906    0.05221290
     atom    5 type  2   force =    -0.01056180   -0.00047665    0.00250664
     atom    6 type  2   force =     0.01237717    0.00022342    0.00288046
     atom    7 type  1   force =     0.00098065    0.00026711   -0.01174677
     atom    8 type  1   force =    -0.00013691    0.00775206    0.02263233
     atom    9 type  2   force =    -0.00019964   -0.00015358   -0.00027538
     atom   10 type  2   force =    -0.00262385    0.00115032   -0.01267378
     atom   11 type  2   force =     0.00006142   -0.00012371    0.00004967
     atom   12 type  2   force =     0.00009684    0.00018320   -0.00039133
     atom   13 type  1   force =     0.00044157   -0.00034977    0.00021190
     atom   14 type  1   force =     0.00015799    0.00032410   -0.00014761
     atom   15 type  2   force =    -0.00022954    0.00005293    0.00002540
     atom   16 type  2   force =     0.00011298   -0.00022072    0.00032080
     atom   17 type  2   force =     0.00050349   -0.00002697    0.00033777
     atom   18 type  2   force =     0.00069241   -0.00021910    0.00014522
     atom   19 type  1   force =    -0.00120513   -0.00015178    0.00029173
     atom   20 type  1   force =     0.00032262   -0.00027559   -0.00031076
     atom   21 type  2   force =     0.00004677    0.00000559    0.10312033
     atom   22 type  2   force =     0.00016165   -0.00038583    0.00008048
     atom   23 type  2   force =    -0.07162612   -0.00015106   -0.02764169
     atom   24 type  2   force =     0.07156339    0.00034951   -0.02770348
     atom   25 type  1   force =     0.00015845   -0.00023779    0.09587401
     atom   26 type  1   force =     0.00009515   -0.00041016   -0.17541127
     atom   27 type  2   force =     0.00017525   -0.00021444   -0.02293804
     atom   28 type  2   force =     0.00006285   -0.00101494    0.05217323
     atom   29 type  2   force =    -0.01086061    0.00048172    0.00243006
     atom   30 type  2   force =     0.01255395    0.00064178    0.00277546
     atom   31 type  1   force =     0.00087208    0.00348020   -0.01292725
     atom   32 type  1   force =     0.00003163   -0.00925539    0.02306372
     atom   33 type  2   force =    -0.00048554    0.00013429    0.00022628
     atom   34 type  2   force =    -0.00302836    0.00022745   -0.01289492
     atom   35 type  2   force =     0.00008705    0.00008719   -0.00009169
     atom   36 type  2   force =     0.00010042    0.00033495   -0.00040534
     atom   37 type  1   force =     0.00033530    0.00036407    0.00006375
     atom   38 type  1   force =     0.00002683   -0.00043415    0.00015582
     atom   39 type  2   force =     0.00015073    0.00046326    0.00055966
     atom   40 type  2   force =     0.00035605    0.00014335   -0.00041239
     atom   41 type  2   force =     0.00051166    0.00002413    0.00031177
     atom   42 type  2   force =     0.00080489    0.00001943    0.00056430
     atom   43 type  1   force =    -0.00158623   -0.00024790   -0.00029630
     atom   44 type  1   force =     0.00067274   -0.00012289   -0.00108672
     atom   45 type  2   force =     0.00005925   -0.00003801    0.10309961
     atom   46 type  2   force =    -0.07164998   -0.00007293   -0.02765649
     atom   47 type  2   force =     0.07158869    0.00032436   -0.02772364
     atom   48 type  3   force =     0.00373948   -0.00319832    0.00463618
     atom   49 type  4   force =    -0.00828438    0.00583375   -0.00784122
     atom   50 type  5   force =     0.00036320    0.00105283    0.00174831
     atom   51 type  5   force =     0.00208479   -0.00355525    0.00046818
     atom   52 type  3   force =    -0.00009562   -0.00049872   -0.00022132
     atom   53 type  5   force =    -0.00005056    0.00010847    0.00074154

     Total force =     0.366037     Total SCF correction =     0.000855
  @ DRIVER MODE: Message from server: STATUS
  @ DRIVER MODE: Message from server: GETFORCE
  @ DRIVER MODE: Returning v,forces,stress,ensemble

     Writing output data file ./calc.save/
  @ DRIVER MODE: Message from server: EXIT
  @ DRIVE MODE: Exiting

     General routines

     Parallel routines

   This run was terminated on:  17:36:54  23Aug2021

   JOB DONE.