     Program PWSCF v.6.7GPU starts on 24Aug2021 at 12:56:56

     R & G space division:  proc/nbgrp/npool/nimage =      72
     Reading input from /storage/home/hcoda1/3/ntian30/research/carbon/CH2_vib/ads_slab/CH2NH_a/out_0009/pw.inp
Warning: card &CELL ignored
Warning: card   CELL_DYNAMICS='IPI', ignored
Warning: card / ignored

     Current dimensions of program PWSCF are:
     Max number of different atomic species (ntypx) = 10
     Max number of k-points (npk) =  40000
     Max angular momentum in pseudopotentials (lmaxx) =  3
     Presently no symmetry can be used with electric field

     Message from routine cell_base_init:
     DEPRECATED: use true lattice parameter, not A to a.u. conversion factor

     IMPORTANT: XC functional enforced from input :
     Exchange-correlation= BEEF-VDW
                           (   1   4  43  14   2   0   0)
     Any further DFT definition will be discarded
     Please, verify this is what you really want

  @ DRIVER MODE: Connecting to
 qe_1139763_2641438.sched-torque.pace.gatech.eduhirz_jcj_scratch
  using UNIX socket
  @ DRIVER MODE: Message from server: STATUS
  @ DRIVER MODE: Message from server: INIT
  @ DRIVER MODE: Receiving replica           0          -1
  @ DRIVER MODE: Receiving encoded integer          25
  @ DRIVER MODE:  SCF:  T  FORCE:  T  STRESS:  F  VC:  F  ENSEMBLE:  F
  @ DRIVER MODE:  SCF:  T  FORCE:  T  STRESS:  F  VC:  F  ENSEMBLE:  F

     Using Slab Decomposition

     bravais-lattice index     =            0
     lattice parameter (alat)  =       1.8897  a.u.
     unit-cell volume          =    6658.9804 (a.u.)^3
     number of atoms/cell      =           52
     number of atomic types    =            5
     number of electrons       =       390.00
     number of Kohn-Sham states=          205
     kinetic-energy cutoff     =      29.3995  Ry
     charge density cutoff     =     293.9946  Ry
     scf convergence threshold =      7.3E-08
     mixing beta               =       0.0500
     number of iterations used =            8  plain     mixing
     Exchange-correlation= BEEF-VDW
                           (   1   4  43  14   2   0   0)

     celldm(1)=   1.889726  celldm(2)=   0.000000  celldm(3)=   0.000000
     celldm(4)=   0.000000  celldm(5)=   0.000000  celldm(6)=   0.000000

     crystal axes: (cart. coord. in units of alat)
               a(1) = (   6.579727   0.000000   0.000000 )
               a(2) = (  -0.000775   5.961596   0.000000 )
               a(3) = (   0.000000   0.000000  25.155947 )

     reciprocal axes: (cart. coord. in units 2 pi/alat)
               b(1) = (  0.151982  0.000020  0.000000 )
               b(2) = (  0.000000  0.167740  0.000000 )
               b(3) = (  0.000000  0.000000  0.039752 )

     PseudoPot. # 1 for Ti read from file:
     /storage/coda1/p-amedford6/0/shared/rich_project_chbe-medford/medford-share/data/pseudos_module/espresso/nninc/pbe/van/Ti.UPF
     MD5 check sum: 8e4df49b7f0d34bbd5052bf3f5ea0213
     Pseudo is Ultrasoft, Zval = 12.0
     Generated by new atomic code, or converted to UPF format
     Using radial grid of  851 points,  6 beta functions with:
                l(1) =   0
                l(2) =   0
                l(3) =   1
                l(4) =   1
                l(5) =   2
                l(6) =   2
     Q(r) pseudized with  8 coefficients,  rinner =    1.000   1.000   1.000
                                                       1.000   1.000

     PseudoPot. # 2 for O  read from file:
     /storage/coda1/p-amedford6/0/shared/rich_project_chbe-medford/medford-share/data/pseudos_module/espresso/nninc/pbe/van/O.UPF
     MD5 check sum: 78c19812648e8988a0fe644b0f25305e
     Pseudo is Ultrasoft, Zval =  6.0
     Generated by new atomic code, or converted to UPF format
     Using radial grid of  737 points,  4 beta functions with:
                l(1) =   0
                l(2) =   0
                l(3) =   1
                l(4) =   1
     Q(r) pseudized with  8 coefficients,  rinner =    0.800   0.800   0.800

     PseudoPot. # 3 for N  read from file:
     /storage/coda1/p-amedford6/0/shared/rich_project_chbe-medford/medford-share/data/pseudos_module/espresso/nninc/pbe/van/N.UPF
     MD5 check sum: 90d10febe142ad51ac9d5be1deb811c4
     Pseudo is Ultrasoft, Zval =  5.0
     Generated by new atomic code, or converted to UPF format
     Using radial grid of  729 points,  4 beta functions with:
                l(1) =   0
                l(2) =   0
                l(3) =   1
                l(4) =   1
     Q(r) pseudized with  8 coefficients,  rinner =    0.800   0.800   0.800

     PseudoPot. # 4 for C  read from file:
     /storage/coda1/p-amedford6/0/shared/rich_project_chbe-medford/medford-share/data/pseudos_module/espresso/nninc/pbe/van/C.UPF
     MD5 check sum: 1a69bf6b8db32088f5b2163dbdb77a27
     Pseudo is Ultrasoft, Zval =  4.0
     Generated by new atomic code, or converted to UPF format
     Using radial grid of  721 points,  4 beta functions with:
                l(1) =   0
                l(2) =   0
                l(3) =   1
                l(4) =   1
     Q(r) pseudized with  8 coefficients,  rinner =    0.800   0.800   0.800

     PseudoPot. # 5 for H  read from file:
     /storage/coda1/p-amedford6/0/shared/rich_project_chbe-medford/medford-share/data/pseudos_module/espresso/nninc/pbe/van/H.UPF
     MD5 check sum: b5ee9d7bfd3a09ee7748110bda690ff7
     Pseudo is Ultrasoft, Zval =  1.0
     Generated by new atomic code, or converted to UPF format
     Using radial grid of  615 points,  1 beta functions with:
                l(1) =   0
     Q(r) pseudized with  8 coefficients,  rinner =    0.800

     atomic species   valence    mass     pseudopotential
        Ti1           12.00    47.86700     Ti( 1.00)
        O1             6.00    15.99900     O ( 1.00)
        N1             5.00    14.00700     N ( 1.00)
        C1             4.00    12.01100     C ( 1.00)
        H1             1.00     1.00800     H ( 1.00)

     No symmetry found

   Cartesian axes

     site n.     atom                  positions (alat units)
         1           Ti1 tau(   1) = (   0.0004258   2.9801865   6.0000000  )
         2           Ti1 tau(   2) = (   3.2906075   1.4906267   6.0002472  )
         3           O1  tau(   3) = (   0.0006271   0.0005054   7.9858123  )
         4           O1  tau(   4) = (   3.2906025   0.0005020   7.3038282  )
         5           O1  tau(   5) = (   4.5942328   1.4918067   9.2879030  )
         6           O1  tau(   6) = (   1.9868534   1.4903216   9.2879459  )
         7           Ti1 tau(   7) = (   3.2907910   2.8959150   9.1758416  )
         8           Ti1 tau(   8) = (   0.0015273   1.4827037   9.2680791  )
         9           O1  tau(   9) = (   3.2859541   5.9290403  11.3715426  )
        10           O1  tau(  10) = (   0.0116148   5.9584955  10.6183126  )
        11           O1  tau(  11) = (   1.2917987   1.4688796  12.6526629  )
        12           O1  tau(  12) = (   5.2888266   1.4686376  12.6403033  )
        13           Ti1 tau(  13) = (   0.0074927   2.9495069  12.5376589  )
        14           Ti1 tau(  14) = (   3.2957121   1.4606513  12.5174744  )
        15           O1  tau(  15) = (   6.5702453   0.0264740  14.6787910  )
        16           O1  tau(  16) = (   3.3001739   5.9406727  13.9930656  )
        17           O1  tau(  17) = (   4.5367710   1.4643441  16.2106543  )
        18           O1  tau(  18) = (   2.0349547   1.4576396  16.1973481  )
        19           Ti1 tau(  19) = (   3.2821410   2.9383233  15.7467721  )
        20           Ti1 tau(  20) = (   6.5624771   1.3975196  16.0657228  )
        21           O1  tau(  21) = (   3.2904802   0.0005063   4.7018136  )
        22           O1  tau(  22) = (   0.0049924   5.8117904  17.2112648  )
        23           O1  tau(  23) = (   1.3043587   1.4918075   6.0039043  )
        24           O1  tau(  24) = (   5.2767064   1.4903225   6.0039473  )
        25           Ti1 tau(  25) = (   0.0000382   5.9609847   6.0000000  )
        26           Ti1 tau(  26) = (   3.2902200   4.4714249   6.0002472  )
        27           O1  tau(  27) = (   0.0002396   2.9813036   7.9858123  )
        28           O1  tau(  28) = (   3.2902150   2.9813002   7.3038282  )
        29           O1  tau(  29) = (   4.5938453   4.4726049   9.2879030  )
        30           O1  tau(  30) = (   1.9864658   4.4711199   9.2879459  )
        31           Ti1 tau(  31) = (   3.2891106   5.8743827   9.1763621  )
        32           Ti1 tau(  32) = (   0.0006254   4.4649316   9.2693709  )
        33           O1  tau(  33) = (   3.2878059   2.9597088  11.3652031  )
        34           O1  tau(  34) = (   0.0092240   2.9805883  10.6323155  )
        35           O1  tau(  35) = (   1.2887225   4.4431869  12.6829221  )
        36           O1  tau(  36) = (   5.2901277   4.4428847  12.6690855  )
        37           Ti1 tau(  37) = (   0.0035388   5.9380168  12.5099366  )
        38           Ti1 tau(  38) = (   3.2962120   4.4389810  12.5267566  )
        39           O1  tau(  39) = (   6.5655450   2.9014274  14.9049457  )
        40           O1  tau(  40) = (   3.2937888   2.9365130  13.9572806  )
        41           O1  tau(  41) = (   4.5374039   4.4072578  16.1608974  )
        42           O1  tau(  42) = (   2.0345115   4.4188705  16.1151926  )
        43           Ti1 tau(  43) = (   3.2925710   5.9161036  15.7896908  )
        44           Ti1 tau(  44) = (   0.0121651   4.6006060  15.8502786  )
        45           O1  tau(  45) = (   3.2900926   2.9813045   4.7018136  )
        46           O1  tau(  46) = (   1.3039711   4.4726057   6.0039043  )
        47           O1  tau(  47) = (   5.2763189   4.4711207   6.0039473  )
        48           N1  tau(  48) = (   6.5581919   2.6818180  17.9522317  )
        49           C1  tau(  49) = (   0.8403426   2.5446117  18.8965076  )
        50           H1  tau(  50) = (   0.6793733   2.9585088  19.8916666  )
        51           H1  tau(  51) = (   1.7584391   2.0155774  18.6961775  )
        52           H1  tau(  52) = (   5.7198555   3.1867788  18.2393814  )

     number of k points=    10  Fermi-Dirac smearing, width (Ry)=  0.0073
                       cart. coord. in units 2pi/alat
        k(    1) = (   0.0000000   0.0000000   0.0000000), wk =   0.1250000
        k(    2) = (   0.0000000   0.0419351   0.0000000), wk =   0.2500000
        k(    3) = (   0.0000000  -0.0838702   0.0000000), wk =   0.1250000
        k(    4) = (   0.0379955   0.0000049   0.0000000), wk =   0.2500000
        k(    5) = (   0.0379955   0.0419400   0.0000000), wk =   0.2500000
        k(    6) = (   0.0379955  -0.0838652   0.0000000), wk =   0.2500000
        k(    7) = (   0.0379955  -0.0419301   0.0000000), wk =   0.2500000
        k(    8) = (  -0.0759910  -0.0000099   0.0000000), wk =   0.1250000
        k(    9) = (  -0.0759910   0.0419252   0.0000000), wk =   0.2500000
        k(   10) = (  -0.0759910  -0.0838800   0.0000000), wk =   0.1250000

     Initial potential from superposition of free atoms

     starting charge  373.99917, renormalised to  390.00000

     negative rho (up, down):  1.699E-02 0.000E+00

     %%%%%%%%%%%%%%%%%%%%%%%%%%%%%%%%%%%%%%%%%%%%%%%%%%%%%%%%%%%%%%%%%%%%%%%%
     %                                                                      %
     % You are using vdW-DF, which was implemented by the Thonhauser group. %
     % Please cite the following two papers that made this development      %
     % possible and the two reviews that describe the various versions:     %
     %                                                                      %
     %   T. Thonhauser et al., PRL 115, 136402 (2015).                      %
     %   T. Thonhauser et al., PRB 76, 125112 (2007).                       %
     %   K. Berland et al., Rep. Prog. Phys. 78, 066501 (2015).             %
     %   D.C. Langreth et al., J. Phys.: Condens. Matter 21, 084203 (2009). %
     %                                                                      %
     %                                                                      %
     % If you are calculating the stress with vdW-DF, please also cite:     %
     %                                                                      %
     %   R. Sabatini et al., J. Phys.: Condens. Matter 24, 424209 (2012).   %
     %                                                                      %
     %%%%%%%%%%%%%%%%%%%%%%%%%%%%%%%%%%%%%%%%%%%%%%%%%%%%%%%%%%%%%%%%%%%%%%%%

     Adding external electric field

     Computed dipole along edir(3) :
        Dipole               -6.0480 Ry au,        -15.3725 Debye
        Dipole field         -0.0114 Ry au,

        Potential amp.        1.0580 Ry
        Total length         46.3494 bohr

     Starting wfcs are  295 atomic wfcs
  @ DRIVER MODE: Message from server: STATUS
  @ DRIVER MODE: Message from server: POSDATA
  @ DRIVER MODE: Reading and sharing cell
  @ DRIVER MODE: Reading and sharing positions
  @ DRIVER MODE: Received positions

     Self-consistent Calculation

     iteration #  1     ecut=    29.40 Ry     beta= 0.05
     Davidson diagonalization with overlap
     c_bands:  1 eigenvalues not converged
     c_bands:  1 eigenvalues not converged
     ethr =  1.00E-05,  avg # of iterations = 16.8

[...]

     total energy              =   -2758.77165242 Ry
     estimated scf accuracy    <    1760.47908926 Ry

     iteration #  2     ecut=    29.40 Ry     beta= 0.05
     Davidson diagonalization with overlap
     ethr =  1.00E-02,  avg # of iterations = 18.4

[...]

     iteration # 53     ecut=    29.40 Ry     beta= 0.05
     Davidson diagonalization with overlap
     c_bands:  1 eigenvalues not converged
     ethr =  3.35E-09,  avg # of iterations = 13.4

[...]

     total energy              =   -2919.11577754 Ry
     estimated scf accuracy    <       0.00000008 Ry

     iteration # 64     ecut=    29.40 Ry     beta= 0.05
     Davidson diagonalization with overlap
     ethr =  1.95E-11,  avg # of iterations = 10.5

     negative rho (up, down):  1.720E-02 0.000E+00

     Adding external electric field

     Computed dipole along edir(3) :
        Dipole                1.2595 Ry au,          3.2014 Debye
        Dipole field          0.0024 Ry au,

        Potential amp.       -0.2203 Ry
        Total length         46.3494 bohr

     End of self-consistent calculation

          k = 0.0000 0.0000 0.0000 ( 18029 PWs)   bands (ev):

   -55.5477 -55.5109 -55.5092 -55.4751 -55.4397 -55.4228 -55.3853 -55.3628
   -55.3626 -55.3377 -55.3281 -55.3133 -55.3043 -55.1311 -54.5302 -54.4961
   -32.1143 -32.0001 -31.9103 -31.8688 -31.8624 -31.8519 -31.8421 -31.8367
   -31.7989 -31.7873 -31.7558 -31.7541 -31.7537 -31.7185 -31.7009 -31.6829
   -31.6775 -31.6695 -31.6636 -31.6597 -31.6216 -31.6181 -31.6029 -31.5928
   -31.5662 -31.5646 -31.5623 -31.5544 -31.5498 -31.5438 -31.5339 -31.5256
   -31.5159 -31.5141 -31.5116 -31.4838 -31.4769 -31.4695 -31.4662 -31.4475
   -31.3548 -31.2722 -30.9391 -30.8460 -30.8238 -30.7556 -30.6689 -30.5579
   -16.5348 -16.3426 -16.0770 -15.8996 -15.7964 -15.7366 -15.6000 -15.5236
   -15.4464 -15.3439 -15.2534 -15.1867 -15.1703 -15.1496 -15.1450 -15.0847
   -15.0811 -15.0556 -15.0395 -15.0379 -14.9833 -14.9761 -14.9444 -14.9322
   -14.9215 -14.8479 -14.7647 -14.6961 -14.6359 -14.2073 -13.0329 -12.9156
    -9.3142  -6.2459  -4.7117  -3.7020  -3.5488  -3.4546  -3.4436  -3.4214
    -3.2731  -3.1351  -2.9287  -2.8479  -2.8021  -2.7528  -2.7249  -2.7070
    -2.6191  -2.5221  -2.4465  -2.4021  -2.3768  -2.3631  -2.3535  -2.3265
    -2.3144  -2.2809  -2.2416  -2.1985  -2.0957  -2.0079  -1.9664  -1.9319
    -1.8752  -1.8631  -1.8372  -1.8313  -1.8247  -1.8027  -1.7643  -1.7539
    -1.7071  -1.5654  -1.5544  -1.4371  -1.3984  -1.2836  -1.1837  -1.1818
    -1.0949  -1.0916  -1.0234  -0.9682  -0.9382  -0.9308  -0.8800  -0.8305
    -0.7422  -0.6488  -0.5872  -0.5453  -0.5105  -0.4813  -0.4138  -0.3233
    -0.3180  -0.3077  -0.2041  -0.1259  -0.1037  -0.0506  -0.0186   0.0245
     0.0406   0.1511   0.1942   0.2354   0.2537   0.3329   0.3540   0.4095
     0.4148   0.4499   0.4592   0.5260   0.5723   0.5918   0.6425   0.6607
     0.8190   1.0713   1.0789   1.1271   1.4014   1.4318   1.4924   1.6773
     2.0677   2.1155   3.5521   3.6246   3.6896   3.7023   3.7443   3.7889
     3.9556   4.0369   4.0533   4.0576   4.0892

[...]

          k = 0.0380-0.0419 0.0000 ( 17876 PWs)   bands (ev):

[...]

          k =-0.0760-0.0000 0.0000 ( 17886 PWs)   bands (ev):

[...]

          k =-0.0760-0.0839 0.0000 ( 17948 PWs)   bands (ev):

   -55.5331 -55.5253 -55.4921 -55.4920 -55.4357 -55.4116 -55.3965 -55.3666
   -55.3465 -55.3437 -55.3215 -55.3208 -55.3116 -55.1328 -54.5131 -54.5131
   -31.9207 -31.9155 -31.8314 -31.8153 -31.8152 -31.8068 -31.7844 -31.7841
   -31.7596 -31.7540 -31.7470 -31.7451 -31.7399 -31.7017 -31.6801 -31.6767
   -31.6726 -31.6682 -31.6644 -31.6596 -31.6549 -31.6358 -31.6217 -31.6212
   -31.6116 -31.6115 -31.6087 -31.5917 -31.5793 -31.5762 -31.5655 -31.5598
   -31.5570 -31.5550 -31.5462 -31.5459 -31.5121 -31.5010 -31.5001 -31.4871
   -31.3596 -31.3536 -30.8365 -30.8365 -30.7517 -30.7516 -30.7123 -30.7122
   -16.5105 -15.7817 -15.7472 -15.7323 -15.5287 -15.5203 -15.5124 -15.4945
   -15.3340 -15.3201 -15.2936 -15.2777 -15.2462 -15.2426 -15.2119 -15.1790
   -15.1266 -15.1221 -15.1138 -15.1114 -15.0518 -15.0476 -15.0272 -14.9986
   -14.9968 -14.9905 -14.8959 -14.8940 -14.7204 -14.5272 -13.0171 -13.0171
    -9.3185  -6.2413  -4.6946  -3.0568  -2.9954  -2.9348  -2.7380  -2.7346
    -2.7038  -2.6213  -2.5519  -2.5384  -2.5137  -2.4844  -2.4814  -2.4345
    -2.3902  -2.3802  -2.3694  -2.3617  -2.3433  -2.3292  -2.3005  -2.2641
    -2.2553  -2.2239  -2.2104  -2.1859  -2.1842  -2.1477  -2.1241  -2.1095
    -2.0980  -2.0347  -1.9344  -1.8825  -1.7958  -1.7685  -1.7413  -1.7352
    -1.6509  -1.6264  -1.5989  -1.5585  -1.5453  -1.5113  -1.3088  -1.2793
    -1.2694  -1.2554  -1.2311  -1.0823  -1.0725  -1.0227  -0.9915  -0.9429
    -0.8860  -0.8506  -0.8345  -0.7532  -0.7229  -0.6780  -0.6390  -0.5158
    -0.5125  -0.5055  -0.5041  -0.4857  -0.3994  -0.3874  -0.3446  -0.3113
    -0.2703  -0.2560  -0.1907  -0.0089   0.0083   0.0744   0.1811   0.2763
     0.3700   0.4490   0.4695   0.5202   0.5633   0.5829   0.6622   0.7550
     0.7669   0.8359   0.8815   0.9223   0.9265   0.9319   1.8502   1.8508
     1.9354   1.9356   3.6752   3.8005   3.8206   3.8586   3.8768   4.0263
     4.0717   4.1097   4.1314   4.1336   4.2150

     the Fermi energy is     3.6075 ev

!    total energy              =   -2919.11580707 Ry
     estimated scf accuracy    <       0.00000007 Ry
     smearing contrib. (-TS)   =      -0.03731517 Ry
     internal energy E=F+TS    =   -2919.07849190 Ry

     The total energy is F=E-TS. E is the sum of the following terms:
     one-electron contribution =  -24307.22928479 Ry
     hartree contribution      =   12241.00731613 Ry
     xc contribution           =    -480.01454972 Ry
     ewald contribution        =    9627.15503263 Ry
     electric field correction =       0.00299385 Ry

     convergence has been achieved in  64 iterations

     Forces acting on atoms (cartesian axes, Ry/au):

     atom    1 type  1   force =     0.00005231   -0.00015310    0.09379366
     atom    2 type  1   force =    -0.00018105   -0.00018700   -0.17779876
     atom    3 type  2   force =     0.00002650   -0.00021670   -0.02114580
     atom    4 type  2   force =    -0.00001577   -0.00198753    0.05774520
     atom    5 type  2   force =    -0.01107550   -0.00164846    0.00751619
     atom    6 type  2   force =     0.01243726   -0.00098241    0.00639893
     atom    7 type  1   force =    -0.00048044    0.00247504   -0.01332230
     atom    8 type  1   force =     0.00030377    0.00292364    0.00276547
     atom    9 type  2   force =     0.00007644   -0.00007817    0.00013578
     atom   10 type  2   force =    -0.00176431   -0.00226838   -0.00366794
     atom   11 type  2   force =     0.00016871    0.00059520   -0.00028242
     atom   12 type  2   force =     0.00044260    0.00053127   -0.00010097
     atom   13 type  1   force =    -0.00072006   -0.00095379   -0.00029076
     atom   14 type  1   force =     0.00082528    0.00026685   -0.00049811
     atom   15 type  2   force =     0.00025981    0.00014116   -0.00010466
     atom   16 type  2   force =    -0.00008303    0.00034537   -0.00063342
     atom   17 type  2   force =    -0.00005656    0.00009704    0.00027691
     atom   18 type  2   force =     0.00060632    0.00000781    0.00019411
     atom   19 type  1   force =     0.00024020   -0.00095846    0.00037287
     atom   20 type  1   force =    -0.00013965    0.00072997    0.00047398
     atom   21 type  2   force =     0.00004440   -0.00002325    0.10376167
     atom   22 type  2   force =     0.00001777   -0.00070927   -0.00000577
     atom   23 type  2   force =    -0.07059327   -0.00015008   -0.02707614
     atom   24 type  2   force =     0.07047279    0.00031452   -0.02712200
     atom   25 type  1   force =     0.00008192   -0.00018573    0.09359723
     atom   26 type  1   force =    -0.00009501   -0.00026949   -0.17783124
     atom   27 type  2   force =     0.00008387   -0.00045647   -0.02017314
     atom   28 type  2   force =     0.00002546   -0.00169058    0.05723452
     atom   29 type  2   force =    -0.01116783   -0.00114917    0.00697489
     atom   30 type  2   force =     0.01241931   -0.00080649    0.00583775
     atom   31 type  1   force =    -0.00039200    0.00468017   -0.01440378
     atom   32 type  1   force =     0.00037046   -0.00361339    0.00248014
     atom   33 type  2   force =    -0.00000424    0.00057598    0.00039674
     atom   34 type  2   force =    -0.00117741   -0.00059480   -0.00104663
     atom   35 type  2   force =     0.00039887    0.00025714    0.00020746
     atom   36 type  2   force =     0.00013299    0.00032922    0.00017655
     atom   37 type  1   force =    -0.00053478    0.00131872    0.00011320
     atom   38 type  1   force =     0.00087216    0.00007500   -0.00086061
     atom   39 type  2   force =     0.00012708    0.00044150    0.00023141
     atom   40 type  2   force =     0.00017758    0.00020034   -0.00053797
     atom   41 type  2   force =     0.00019732    0.00008421   -0.00069494
     atom   42 type  2   force =    -0.00003852    0.00004621   -0.00073479
     atom   43 type  1   force =     0.00001325    0.00105934    0.00013658
     atom   44 type  1   force =    -0.00013932    0.00022713   -0.00054053
     atom   45 type  2   force =     0.00004496   -0.00004018    0.10373063
     atom   46 type  2   force =    -0.07061264   -0.00006610   -0.02707048
     atom   47 type  2   force =     0.07048701    0.00035170   -0.02709928
     atom   48 type  3   force =     0.00110765   -0.00304257   -0.00110399
     atom   49 type  4   force =    -0.00933585    0.01025166    0.00409238
     atom   50 type  5   force =     0.00085767   -0.00192964   -0.00318677
     atom   51 type  5   force =     0.00438377   -0.00415019   -0.00105687
     atom   52 type  5   force =     0.00085173   -0.00001481   -0.00025415

     Total force =     0.366247     Total SCF correction =     0.001121
  @ DRIVER MODE: Message from server: STATUS
  @ DRIVER MODE: Message from server: GETFORCE
  @ DRIVER MODE: Returning v,forces,stress,ensemble

     Writing output data file ./calc.save/
  @ DRIVER MODE: Message from server: EXIT
  @ DRIVE MODE: Exiting

     General routines

     Parallel routines

   This run was terminated on:  13:15:33  24Aug2021

   JOB DONE.