     Program PWSCF v.6.7GPU starts on 15Sep2021 at 21:20: 4

     R & G space division:  proc/nbgrp/npool/nimage =      10
     Reading input from /storage/home/hcoda1/3/ntian30/research/carbon/CxH_vib/H2O_calc/ads_slab/CHOHH2O_a/out_0017/pw.inp
Warning: card &CELL ignored
Warning: card   CELL_DYNAMICS='IPI', ignored
Warning: card / ignored

     Current dimensions of program PWSCF are:
     Max number of different atomic species (ntypx) = 10
     Max number of k-points (npk) =  40000
     Max angular momentum in pseudopotentials (lmaxx) =  3
     Presently no symmetry can be used with electric field

     Message from routine cell_base_init:
     DEPRECATED: use true lattice parameter, not A to a.u. conversion factor

     IMPORTANT: XC functional enforced from input :
     Exchange-correlation= BEEF-VDW
                           (   1   4  43  14   2   0   0)
     Any further DFT definition will be discarded
     Please, verify this is what you really want

  @ DRIVER MODE: Connecting to
 qe_1139763_2852632.sched-torque.pace.gatech.edu5lau5u1c_scratch
  using UNIX socket
  @ DRIVER MODE: Message from server: STATUS
  @ DRIVER MODE: Message from server: INIT
  @ DRIVER MODE: Receiving replica           0          -1
  @ DRIVER MODE: Receiving encoded integer          25
  @ DRIVER MODE:  SCF:  T  FORCE:  T  STRESS:  F  VC:  F  ENSEMBLE:  F
  @ DRIVER MODE:  SCF:  T  FORCE:  T  STRESS:  F  VC:  F  ENSEMBLE:  F

     Using Slab Decomposition

     bravais-lattice index     =            0
     lattice parameter (alat)  =       1.8897  a.u.
     unit-cell volume          =    6658.9804 (a.u.)^3
     number of atoms/cell      =           54
     number of atomic types    =            4
     number of electrons       =       398.00
     number of Kohn-Sham states=          209
     kinetic-energy cutoff     =      29.3995  Ry
     charge density cutoff     =     293.9946  Ry
     scf convergence threshold =      7.3E-08
     mixing beta               =       0.0500
     number of iterations used =            8  plain     mixing
     Exchange-correlation= BEEF-VDW
                           (   1   4  43  14   2   0   0)

     celldm(1)=   1.889726  celldm(2)=   0.000000  celldm(3)=   0.000000
     celldm(4)=   0.000000  celldm(5)=   0.000000  celldm(6)=   0.000000

     crystal axes: (cart. coord. in units of alat)
               a(1) = (   6.579727   0.000000   0.000000 )
               a(2) = (  -0.000775   5.961596   0.000000 )
               a(3) = (   0.000000   0.000000  25.155947 )

     reciprocal axes: (cart. coord. in units 2 pi/alat)
               b(1) = (  0.151982  0.000020  0.000000 )
               b(2) = (  0.000000  0.167740  0.000000 )
               b(3) = (  0.000000  0.000000  0.039752 )

     PseudoPot. # 1 for Ti read from file:
     /storage/coda1/p-amedford6/0/shared/rich_project_chbe-medford/medford-share/data/pseudos_module/espresso/nninc/pbe/van/Ti.UPF
     MD5 check sum: 8e4df49b7f0d34bbd5052bf3f5ea0213
     Pseudo is Ultrasoft, Zval = 12.0
     Generated by new atomic code, or converted to UPF format
     Using radial grid of  851 points,  6 beta functions with:
                l(1) =   0
                l(2) =   0
                l(3) =   1
                l(4) =   1
                l(5) =   2
                l(6) =   2
     Q(r) pseudized with  8 coefficients,  rinner =    1.000   1.000   1.000
                                                       1.000   1.000

     PseudoPot. # 2 for O  read from file:
     /storage/coda1/p-amedford6/0/shared/rich_project_chbe-medford/medford-share/data/pseudos_module/espresso/nninc/pbe/van/O.UPF
     MD5 check sum: 78c19812648e8988a0fe644b0f25305e
     Pseudo is Ultrasoft, Zval =  6.0
     Generated by new atomic code, or converted to UPF format
     Using radial grid of  737 points,  4 beta functions with:
                l(1) =   0
                l(2) =   0
                l(3) =   1
                l(4) =   1
     Q(r) pseudized with  8 coefficients,  rinner =    0.800   0.800   0.800

     PseudoPot. # 3 for C  read from file:
     /storage/coda1/p-amedford6/0/shared/rich_project_chbe-medford/medford-share/data/pseudos_module/espresso/nninc/pbe/van/C.UPF
     MD5 check sum: 1a69bf6b8db32088f5b2163dbdb77a27
     Pseudo is Ultrasoft, Zval =  4.0
     Generated by new atomic code, or converted to UPF format
     Using radial grid of  721 points,  4 beta functions with:
                l(1) =   0
                l(2) =   0
                l(3) =   1
                l(4) =   1
     Q(r) pseudized with  8 coefficients,  rinner =    0.800   0.800   0.800

     PseudoPot. # 4 for H  read from file:
     /storage/coda1/p-amedford6/0/shared/rich_project_chbe-medford/medford-share/data/pseudos_module/espresso/nninc/pbe/van/H.UPF
     MD5 check sum: b5ee9d7bfd3a09ee7748110bda690ff7
     Pseudo is Ultrasoft, Zval =  1.0
     Generated by new atomic code, or converted to UPF format
     Using radial grid of  615 points,  1 beta functions with:
                l(1) =   0
     Q(r) pseudized with  8 coefficients,  rinner =    0.800

     atomic species   valence    mass     pseudopotential
        Ti1           12.00    47.86700     Ti( 1.00)
        O1             6.00    15.99900     O ( 1.00)
        C1             4.00    12.01100     C ( 1.00)
        H1             1.00     1.00800     H ( 1.00)

     No symmetry found

   Cartesian axes

     site n.     atom                  positions (alat units)
         1           Ti1 tau(   1) = (   0.0004258   2.9801865   6.0000000  )
         2           Ti1 tau(   2) = (   3.2906075   1.4906267   6.0002472  )
         3           O1  tau(   3) = (   0.0006271   0.0005054   7.9858123  )
         4           O1  tau(   4) = (   3.2906025   0.0005020   7.3038282  )
         5           O1  tau(   5) = (   4.5942328   1.4918067   9.2879030  )
         6           O1  tau(   6) = (   1.9868534   1.4903216   9.2879459  )
         7           Ti1 tau(   7) = (   3.3203992   3.0065636   9.1614972  )
         8           Ti1 tau(   8) = (   0.0364112   1.5055733   9.2692997  )
         9           O1  tau(   9) = (   3.3037507   0.0048223  11.3846665  )
        10           O1  tau(  10) = (   0.0023770   0.0017864  10.5989407  )
        11           O1  tau(  11) = (   1.2986710   1.4943985  12.6419360  )
        12           O1  tau(  12) = (   5.3019195   1.4930987  12.6558330  )
        13           Ti1 tau(  13) = (   0.0201679   2.9954199  12.5459836  )
        14           Ti1 tau(  14) = (   3.3085843   1.4996073  12.5278567  )
        15           O1  tau(  15) = (   0.0306707   0.0063333  14.6434371  )
        16           O1  tau(  16) = (   3.2901280   5.9588824  14.0411263  )
        17           O1  tau(  17) = (   4.5937705   1.5245028  16.1210063  )
        18           O1  tau(  18) = (   2.0412355   1.5396885  16.1535958  )
        19           Ti1 tau(  19) = (   3.3250740   2.9785215  15.7238461  )
        20           Ti1 tau(  20) = (   0.0142243   1.3716099  15.9029131  )
        21           O1  tau(  21) = (   3.2904802   0.0005063   4.7018136  )
        22           O1  tau(  22) = (   0.0234726   5.9563001  17.1693433  )
        23           O1  tau(  23) = (   1.3043587   1.4918075   6.0039043  )
        24           O1  tau(  24) = (   5.2767064   1.4903225   6.0039473  )
        25           Ti1 tau(  25) = (   0.0000382   5.9609847   6.0000000  )
        26           Ti1 tau(  26) = (   3.2902200   4.4714249   6.0002472  )
        27           O1  tau(  27) = (   0.0002396   2.9813036   7.9858123  )
        28           O1  tau(  28) = (   3.2902150   2.9813002   7.3038282  )
        29           O1  tau(  29) = (   4.5938453   4.4726049   9.2879030  )
        30           O1  tau(  30) = (   1.9864658   4.4711199   9.2879459  )
        31           Ti1 tau(  31) = (   3.3166040   0.0254347   9.1556988  )
        32           Ti1 tau(  32) = (   0.0362352   4.4699824   9.2670842  )
        33           O1  tau(  33) = (   3.3035804   2.9865095  11.3763011  )
        34           O1  tau(  34) = (   0.0042610   2.9829788  10.6236548  )
        35           O1  tau(  35) = (   1.2977823   4.4749822  12.6434080  )
        36           O1  tau(  36) = (   5.3021498   4.4756442  12.6578133  )
        37           Ti1 tau(  37) = (   0.0128731   0.0155586  12.4748574  )
        38           Ti1 tau(  38) = (   3.3087006   4.4877506  12.5360639  )
        39           O1  tau(  39) = (   0.0289868   2.9802581  14.8446641  )
        40           O1  tau(  40) = (   3.2975897   2.9808645  13.9396156  )
        41           O1  tau(  41) = (   4.5936103   4.4348319  16.1149158  )
        42           O1  tau(  42) = (   2.0365336   4.4144103  16.1518429  )
        43           Ti1 tau(  43) = (   3.2980932   5.9591119  15.8729608  )
        44           Ti1 tau(  44) = (   0.0070259   4.5936845  15.8821292  )
        45           O1  tau(  45) = (   3.2900926   2.9813045   4.7018136  )
        46           O1  tau(  46) = (   1.3039711   4.4726057   6.0039043  )
        47           O1  tau(  47) = (   5.2763189   4.4711207   6.0039473  )
        48           C1  tau(  48) = (   6.0563806   2.9601134  19.0478501  )
        49           O1  tau(  49) = (   0.1703025   2.9720528  17.8813388  )
        50           H1  tau(  50) = (   5.0099104   2.8626262  18.6776999  )
        51           H1  tau(  51) = (   1.1251272   3.0566160  18.0647747  )
        52           O1  tau(  52) = (   3.2803433   5.9178330  18.2983259  )
        53           H1  tau(  53) = (   4.0549949   5.9397654  18.8787675  )
        54           H1  tau(  54) = (   2.4787048   0.0262026  18.8357284  )

     number of k points=    10  Fermi-Dirac smearing, width (Ry)=  0.0073
                       cart. coord. in units 2pi/alat
        k(    1) = (   0.0000000   0.0000000   0.0000000), wk =   0.1250000
        k(    2) = (   0.0000000   0.0419351   0.0000000), wk =   0.2500000
        k(    3) = (   0.0000000  -0.0838702   0.0000000), wk =   0.1250000
        k(    4) = (   0.0379955   0.0000049   0.0000000), wk =   0.2500000
        k(    5) = (   0.0379955   0.0419400   0.0000000), wk =   0.2500000
        k(    6) = (   0.0379955  -0.0838652   0.0000000), wk =   0.2500000
        k(    7) = (   0.0379955  -0.0419301   0.0000000), wk =   0.2500000
        k(    8) = (  -0.0759910  -0.0000099   0.0000000), wk =   0.1250000
        k(    9) = (  -0.0759910   0.0419252   0.0000000), wk =   0.2500000
        k(   10) = (  -0.0759910  -0.0838800   0.0000000), wk =   0.1250000

     Initial potential from superposition of free atoms

     starting charge  381.99917, renormalised to  398.00000

     negative rho (up, down):  1.670E-02 0.000E+00

     %%%%%%%%%%%%%%%%%%%%%%%%%%%%%%%%%%%%%%%%%%%%%%%%%%%%%%%%%%%%%%%%%%%%%%%%
     %                                                                      %
     % You are using vdW-DF, which was implemented by the Thonhauser group. %
     % Please cite the following two papers that made this development      %
     % possible and the two reviews that describe the various versions:     %
     %                                                                      %
     %   T. Thonhauser et al., PRL 115, 136402 (2015).                      %
     %   T. Thonhauser et al., PRB 76, 125112 (2007).                       %
     %   K. Berland et al., Rep. Prog. Phys. 78, 066501 (2015).             %
     %   D.C. Langreth et al., J. Phys.: Condens. Matter 21, 084203 (2009). %
     %                                                                      %
     %                                                                      %
     % If you are calculating the stress with vdW-DF, please also cite:     %
     %                                                                      %
     %   R. Sabatini et al., J. Phys.: Condens. Matter 24, 424209 (2012).   %
     %                                                                      %
     %%%%%%%%%%%%%%%%%%%%%%%%%%%%%%%%%%%%%%%%%%%%%%%%%%%%%%%%%%%%%%%%%%%%%%%%

     Adding external electric field

     Computed dipole along edir(3) :
        Dipole              -10.5123 Ry au,        -26.7196 Debye
        Dipole field         -0.0198 Ry au,

        Potential amp.        1.8390 Ry
        Total length         46.3494 bohr

     Starting wfcs are  300 atomic wfcs
  @ DRIVER MODE: Message from server: STATUS
  @ DRIVER MODE: Message from server: POSDATA
  @ DRIVER MODE: Reading and sharing cell
  @ DRIVER MODE: Reading and sharing positions
  @ DRIVER MODE: Received positions

     Self-consistent Calculation

     iteration #  1     ecut=    29.40 Ry     beta= 0.05
     Davidson diagonalization with overlap
     c_bands:  2 eigenvalues not converged
     c_bands:  3 eigenvalues not converged
     c_bands:  1 eigenvalues not converged
     c_bands:  4 eigenvalues not converged
     c_bands:  4 eigenvalues not converged
     c_bands:  4 eigenvalues not converged
     c_bands:  1 eigenvalues not converged
     c_bands:  3 eigenvalues not converged
     c_bands:  4 eigenvalues not converged
     ethr =  1.00E-05,  avg # of iterations = 19.9

[...]

     total energy              =   -2479.43552073 Ry
     estimated scf accuracy    <    5441.05170663 Ry

     iteration #  2     ecut=    29.40 Ry     beta= 0.05
     Davidson diagonalization with overlap
     ethr =  1.00E-02,  avg # of iterations = 25.3

[...]

     iteration # 92     ecut=    29.40 Ry     beta= 0.05
     Davidson diagonalization with overlap
     c_bands:  2 eigenvalues not converged
     c_bands:  1 eigenvalues not converged
     ethr =  3.23E-10,  avg # of iterations = 17.4

[...]

     total energy              =   -2964.77948339 Ry
     estimated scf accuracy    <       0.00000008 Ry

     iteration # 98     ecut=    29.40 Ry     beta= 0.05
     Davidson diagonalization with overlap
     ethr =  2.13E-11,  avg # of iterations = 10.8

     negative rho (up, down):  1.519E-02 0.000E+00

     Adding external electric field

     Computed dipole along edir(3) :
        Dipole                0.7116 Ry au,          1.8088 Debye
        Dipole field          0.0013 Ry au,

        Potential amp.       -0.1245 Ry
        Total length         46.3494 bohr

     End of self-consistent calculation

          k = 0.0000 0.0000 0.0000 ( 18029 PWs)   bands (ev):

   -55.7044 -55.6915 -55.6681 -55.6660 -55.6571 -55.6061 -55.5545 -55.5531
   -55.5407 -55.5201 -55.5072 -55.4861 -55.4852 -55.4733 -54.7721 -54.7380
   -32.2649 -32.1856 -32.1824 -32.0873 -32.0501 -32.0301 -32.0189 -32.0089
   -31.9804 -31.9451 -31.9351 -31.9202 -31.8958 -31.8887 -31.8814 -31.8625
   -31.8451 -31.8443 -31.8412 -31.8336 -31.8178 -31.8066 -31.8064 -31.7970
   -31.7952 -31.7797 -31.7765 -31.7486 -31.7365 -31.7229 -31.7112 -31.7103
   -31.7056 -31.7014 -31.6949 -31.6868 -31.6546 -31.6534 -31.6484 -31.6444
   -31.6180 -31.5621 -31.1839 -31.0824 -31.0607 -31.0000 -30.9137 -30.8027
   -21.1390 -19.2591 -16.5231 -16.2810 -16.1383 -16.0351 -15.9303 -15.7978
   -15.7109 -15.5874 -15.5242 -15.3973 -15.3580 -15.3525 -15.3460 -15.3176
   -15.2962 -15.2733 -15.2493 -15.2085 -15.2041 -15.2005 -15.1715 -15.1594
   -15.1017 -15.0890 -15.0450 -14.9272 -14.8756 -14.8145 -14.4966 -13.2730
   -13.1539 -10.3399  -7.2198  -5.7040  -4.6902  -4.0168  -3.9428  -3.8135
    -3.7169  -3.6484  -3.6109  -3.5425  -3.4634  -3.2605  -3.1302  -3.1221
    -2.9894  -2.9526  -2.9081  -2.8068  -2.7411  -2.6788  -2.6686  -2.5929
    -2.5887  -2.5806  -2.5673  -2.4748  -2.4685  -2.4200  -2.3787  -2.2997
    -2.2642  -2.1467  -2.1160  -2.1072  -2.0633  -2.0477  -2.0411  -2.0284
    -1.9787  -1.9530  -1.9351  -1.9337  -1.7920  -1.7500  -1.6041  -1.4791
    -1.4463  -1.4320  -1.3031  -1.2661  -1.2497  -1.1921  -1.1716  -1.1616
    -1.1227  -1.0416  -0.9586  -0.9341  -0.8624  -0.8194  -0.7152  -0.6211
    -0.5767  -0.5277  -0.5052  -0.4959  -0.4766  -0.4118  -0.3641  -0.2773
    -0.2234  -0.1603  -0.1333  -0.1266  -0.0721  -0.0419   0.0381   0.0849
     0.1193   0.1334   0.2192   0.2336   0.2463   0.2775   0.2799   0.3930
     0.4469   0.5038   0.5104   0.6589   0.8258   0.8511   0.9305   1.1450
     1.2533   1.2558   1.4167   1.4576   1.8384   1.8927   3.3833   3.4533
     3.4879   3.5020   3.5112   3.5891   3.8190   3.8711   3.9026   3.9216
     3.9311

[...]

          k = 0.0380-0.0419 0.0000 ( 17876 PWs)   bands (ev):

[...]

          k =-0.0760-0.0000 0.0000 ( 17886 PWs)   bands (ev):

[...]

          k =-0.0760-0.0839 0.0000 ( 17948 PWs)   bands (ev):

   -55.6888 -55.6834 -55.6762 -55.6722 -55.6644 -55.5998 -55.5594 -55.5390
   -55.5352 -55.5339 -55.4920 -55.4913 -55.4892 -55.4876 -54.7550 -54.7550
   -32.1074 -32.0752 -32.0641 -32.0024 -31.9987 -31.9794 -31.9701 -31.9616
   -31.9592 -31.9347 -31.9336 -31.9089 -31.8994 -31.8711 -31.8575 -31.8555
   -31.8543 -31.8460 -31.8410 -31.8372 -31.8293 -31.8219 -31.8045 -31.8018
   -31.7990 -31.7966 -31.7964 -31.7954 -31.7923 -31.7841 -31.7818 -31.7525
   -31.7375 -31.7373 -31.7220 -31.7127 -31.7109 -31.7057 -31.6802 -31.6753
   -31.6744 -31.6513 -31.0733 -31.0732 -30.9967 -30.9964 -30.9569 -30.9568
   -21.1377 -19.2587 -16.1542 -15.9589 -15.8084 -15.7240 -15.7173 -15.6583
   -15.5782 -15.5370 -15.4912 -15.4793 -15.4690 -15.4345 -15.4254 -15.4139
   -15.3515 -15.3014 -15.2979 -15.2825 -15.2331 -15.2256 -15.2152 -15.2096
   -15.2008 -15.1578 -15.1535 -15.1389 -15.1281 -14.9848 -14.8283 -13.2553
   -13.2545 -10.3432  -7.2174  -5.7072  -4.6684  -3.9463  -3.8706  -3.2343
    -3.2315  -2.9698  -2.9477  -2.8891  -2.8777  -2.8135  -2.7823  -2.7064
    -2.7000  -2.6549  -2.6145  -2.6062  -2.5932  -2.5690  -2.5357  -2.5224
    -2.4804  -2.4707  -2.4448  -2.4402  -2.4211  -2.4052  -2.3802  -2.3744
    -2.3421  -2.3219  -2.3140  -2.3103  -2.2331  -2.1713  -2.0483  -2.0263
    -1.9858  -1.9364  -1.9207  -1.8503  -1.8146  -1.7998  -1.7421  -1.7077
    -1.6812  -1.5079  -1.4961  -1.4757  -1.3848  -1.3520  -1.3391  -1.3111
    -1.2546  -1.2260  -1.2220  -1.1442  -1.0330  -1.0101  -0.9116  -0.8661
    -0.8648  -0.7765  -0.7428  -0.7044  -0.7024  -0.6653  -0.6087  -0.5870
    -0.5300  -0.5242  -0.4767  -0.4560  -0.4325  -0.4016  -0.2289  -0.1738
    -0.1182  -0.0209   0.0077   0.2354   0.2663   0.2734   0.3391   0.3696
     0.4757   0.4971   0.5601   0.5751   0.6764   0.7077   0.7247   0.7296
     0.7759   1.4643   1.6052   1.6078   1.7067   1.7104   3.5327   3.5468
     3.6484   3.7003   3.7376   3.8413   3.8901   3.9223   3.9301   3.9451
     4.0188

     the Fermi energy is     3.4313 ev

!    total energy              =   -2964.77948447 Ry
     estimated scf accuracy    <       0.00000003 Ry
     smearing contrib. (-TS)   =      -0.03745187 Ry
     internal energy E=F+TS    =   -2964.74203260 Ry

     The total energy is F=E-TS. E is the sum of the following terms:
     one-electron contribution =  -24112.88215889 Ry
     hartree contribution      =   12146.66066825 Ry
     xc contribution           =    -490.01915083 Ry
     ewald contribution        =    9491.49765319 Ry
     electric field correction =       0.00095568 Ry

     convergence has been achieved in  98 iterations

     Forces acting on atoms (cartesian axes, Ry/au):

     atom    1 type  1   force =    -0.00035784   -0.00002241    0.09251815
     atom    2 type  1   force =    -0.00033630    0.00121348   -0.18263771
     atom    3 type  2   force =     0.00043674    0.00023025   -0.02457511
     atom    4 type  2   force =     0.00073373    0.00044700    0.05163228
     atom    5 type  2   force =    -0.01465532   -0.00007028    0.00466428
     atom    6 type  2   force =     0.01552980   -0.00056461    0.00541809
     atom    7 type  1   force =    -0.00050035   -0.00016201    0.00009374
     atom    8 type  1   force =     0.00020990    0.00003832    0.00020970
     atom    9 type  2   force =    -0.00016652   -0.00017753   -0.00032166
     atom   10 type  2   force =     0.00006207   -0.00004607    0.00032341
     atom   11 type  2   force =    -0.00030889    0.00020584    0.00003672
     atom   12 type  2   force =     0.00038032    0.00007761   -0.00020957
     atom   13 type  1   force =    -0.00020180   -0.00025482    0.00022303
     atom   14 type  1   force =     0.00012561   -0.00021851   -0.00045833
     atom   15 type  2   force =    -0.00032424    0.00033583   -0.00010372
     atom   16 type  2   force =     0.00008390    0.00001568   -0.00026839
     atom   17 type  2   force =    -0.00008032   -0.00012641    0.00016643
     atom   18 type  2   force =     0.00013283   -0.00008215   -0.00027590
     atom   19 type  1   force =    -0.00099843    0.00007319   -0.00033421
     atom   20 type  1   force =     0.00039483    0.00003810   -0.00002895
     atom   21 type  2   force =    -0.00009631    0.00005530    0.10488563
     atom   22 type  2   force =    -0.00032421   -0.00001641    0.00046293
     atom   23 type  2   force =    -0.06834631    0.00001167   -0.02693057
     atom   24 type  2   force =     0.06804470    0.00044800   -0.02700735
     atom   25 type  1   force =    -0.00029996   -0.00001012    0.09719947
     atom   26 type  1   force =    -0.00030102   -0.00119963   -0.18267861
     atom   27 type  2   force =     0.00034931    0.00023648   -0.02297652
     atom   28 type  2   force =     0.00081264    0.00042656    0.05202552
     atom   29 type  2   force =    -0.01463373    0.00064142    0.00459470
     atom   30 type  2   force =     0.01565651    0.00039697    0.00532344
     atom   31 type  1   force =    -0.00046394    0.00001078    0.00012124
     atom   32 type  1   force =     0.00020461    0.00007267    0.00019037
     atom   33 type  2   force =    -0.00008705    0.00012826    0.00015400
     atom   34 type  2   force =     0.00001265    0.00001721    0.00016477
     atom   35 type  2   force =    -0.00014656   -0.00030298    0.00012672
     atom   36 type  2   force =     0.00021927   -0.00019306   -0.00010418
     atom   37 type  1   force =    -0.00028463    0.00017147   -0.00048655
     atom   38 type  1   force =     0.00011768    0.00037964   -0.00035694
     atom   39 type  2   force =    -0.00035678   -0.00028137   -0.00016321
     atom   40 type  2   force =     0.00018198   -0.00008587   -0.00001792
     atom   41 type  2   force =    -0.00032283   -0.00012510   -0.00019968
     atom   42 type  2   force =     0.00035719   -0.00016210   -0.00062955
     atom   43 type  1   force =    -0.00090590   -0.00026872    0.00007142
     atom   44 type  1   force =     0.00038132   -0.00061421    0.00004776
     atom   45 type  2   force =    -0.00007060    0.00005431    0.10477958
     atom   46 type  2   force =    -0.06834211   -0.00058878   -0.02692500
     atom   47 type  2   force =     0.06803671   -0.00012418   -0.02700071
     atom   48 type  3   force =    -0.00453554   -0.00054363   -0.00325195
     atom   49 type  2   force =     0.00174068    0.00017111    0.00013258
     atom   50 type  4   force =     0.00247476    0.00046362    0.00291120
     atom   51 type  4   force =     0.00044719   -0.00009369   -0.00032981
     atom   52 type  2   force =     0.00003916   -0.00111669    0.00082277
     atom   53 type  4   force =    -0.00025692    0.00059006   -0.00042083
     atom   54 type  4   force =     0.00053834    0.00050047   -0.00060700

     Total force =     0.368527     Total SCF correction =     0.000380
  @ DRIVER MODE: Message from server: STATUS
  @ DRIVER MODE: Message from server: GETFORCE
  @ DRIVER MODE: Returning v,forces,stress,ensemble

     Writing output data file ./calc.save/
  @ DRIVER MODE: Message from server: EXIT
  @ DRIVE MODE: Exiting

     General routines

     Parallel routines

   This run was terminated on:  21:44:33  15Sep2021

   JOB DONE.