     Program PWSCF v.6.7GPU starts on 15Sep2021 at 19:38:16

     R & G space division:  proc/nbgrp/npool/nimage =      10
     Reading input from /storage/home/hcoda1/3/ntian30/research/carbon/CxH_vib/H2O_calc/ads_slab/CH3NH2O_a/out_0014/pw.inp
Warning: card &CELL ignored
Warning: card   CELL_DYNAMICS='IPI', ignored
Warning: card / ignored

     Current dimensions of program PWSCF are:
     Max number of different atomic species (ntypx) = 10
     Max number of k-points (npk) =  40000
     Max angular momentum in pseudopotentials (lmaxx) =  3
     Presently no symmetry can be used with electric field

     Message from routine cell_base_init:
     DEPRECATED: use true lattice parameter, not A to a.u. conversion factor

     IMPORTANT: XC functional enforced from input :
     Exchange-correlation= BEEF-VDW
                           (   1   4  43  14   2   0   0)
     Any further DFT definition will be discarded
     Please, verify this is what you really want

  @ DRIVER MODE: Connecting to
 qe_1139763_2852618.sched-torque.pace.gatech.edu67iy8a20_scratch
  using UNIX socket
  @ DRIVER MODE: Message from server: STATUS
  @ DRIVER MODE: Message from server: INIT
  @ DRIVER MODE: Receiving replica           0          -1
  @ DRIVER MODE: Receiving encoded integer          25
  @ DRIVER MODE:  SCF:  T  FORCE:  T  STRESS:  F  VC:  F  ENSEMBLE:  F
  @ DRIVER MODE:  SCF:  T  FORCE:  T  STRESS:  F  VC:  F  ENSEMBLE:  F

     Using Slab Decomposition

     bravais-lattice index     =            0
     lattice parameter (alat)  =       1.8897  a.u.
     unit-cell volume          =    6658.9804 (a.u.)^3
     number of atoms/cell      =           55
     number of atomic types    =            5
     number of electrons       =       398.00
     number of Kohn-Sham states=          209
     kinetic-energy cutoff     =      29.3995  Ry
     charge density cutoff     =     293.9946  Ry
     scf convergence threshold =      7.3E-08
     mixing beta               =       0.0500
     number of iterations used =            8  plain     mixing
     Exchange-correlation= BEEF-VDW
                           (   1   4  43  14   2   0   0)

     celldm(1)=   1.889726  celldm(2)=   0.000000  celldm(3)=   0.000000
     celldm(4)=   0.000000  celldm(5)=   0.000000  celldm(6)=   0.000000

     crystal axes: (cart. coord. in units of alat)
               a(1) = (   6.579727   0.000000   0.000000 )
               a(2) = (  -0.000775   5.961596   0.000000 )
               a(3) = (   0.000000   0.000000  25.155947 )

     reciprocal axes: (cart. coord. in units 2 pi/alat)
               b(1) = (  0.151982  0.000020  0.000000 )
               b(2) = (  0.000000  0.167740  0.000000 )
               b(3) = (  0.000000  0.000000  0.039752 )

     PseudoPot. # 1 for Ti read from file:
     /storage/coda1/p-amedford6/0/shared/rich_project_chbe-medford/medford-share/data/pseudos_module/espresso/nninc/pbe/van/Ti.UPF
     MD5 check sum: 8e4df49b7f0d34bbd5052bf3f5ea0213
     Pseudo is Ultrasoft, Zval = 12.0
     Generated by new atomic code, or converted to UPF format
     Using radial grid of  851 points,  6 beta functions with:
                l(1) =   0
                l(2) =   0
                l(3) =   1
                l(4) =   1
                l(5) =   2
                l(6) =   2
     Q(r) pseudized with  8 coefficients,  rinner =    1.000   1.000   1.000
                                                       1.000   1.000

     PseudoPot. # 2 for O  read from file:
     /storage/coda1/p-amedford6/0/shared/rich_project_chbe-medford/medford-share/data/pseudos_module/espresso/nninc/pbe/van/O.UPF
     MD5 check sum: 78c19812648e8988a0fe644b0f25305e
     Pseudo is Ultrasoft, Zval =  6.0
     Generated by new atomic code, or converted to UPF format
     Using radial grid of  737 points,  4 beta functions with:
                l(1) =   0
                l(2) =   0
                l(3) =   1
                l(4) =   1
     Q(r) pseudized with  8 coefficients,  rinner =    0.800   0.800   0.800

     PseudoPot. # 3 for N  read from file:
     /storage/coda1/p-amedford6/0/shared/rich_project_chbe-medford/medford-share/data/pseudos_module/espresso/nninc/pbe/van/N.UPF
     MD5 check sum: 90d10febe142ad51ac9d5be1deb811c4
     Pseudo is Ultrasoft, Zval =  5.0
     Generated by new atomic code, or converted to UPF format
     Using radial grid of  729 points,  4 beta functions with:
                l(1) =   0
                l(2) =   0
                l(3) =   1
                l(4) =   1
     Q(r) pseudized with  8 coefficients,  rinner =    0.800   0.800   0.800

     PseudoPot. # 4 for C  read from file:
     /storage/coda1/p-amedford6/0/shared/rich_project_chbe-medford/medford-share/data/pseudos_module/espresso/nninc/pbe/van/C.UPF
     MD5 check sum: 1a69bf6b8db32088f5b2163dbdb77a27
     Pseudo is Ultrasoft, Zval =  4.0
     Generated by new atomic code, or converted to UPF format
     Using radial grid of  721 points,  4 beta functions with:
                l(1) =   0
                l(2) =   0
                l(3) =   1
                l(4) =   1
     Q(r) pseudized with  8 coefficients,  rinner =    0.800   0.800   0.800

     PseudoPot. # 5 for H  read from file:
     /storage/coda1/p-amedford6/0/shared/rich_project_chbe-medford/medford-share/data/pseudos_module/espresso/nninc/pbe/van/H.UPF
     MD5 check sum: b5ee9d7bfd3a09ee7748110bda690ff7
     Pseudo is Ultrasoft, Zval =  1.0
     Generated by new atomic code, or converted to UPF format
     Using radial grid of  615 points,  1 beta functions with:
                l(1) =   0
     Q(r) pseudized with  8 coefficients,  rinner =    0.800

     atomic species   valence    mass     pseudopotential
        Ti1           12.00    47.86700     Ti( 1.00)
        O1             6.00    15.99900     O ( 1.00)
        N1             5.00    14.00700     N ( 1.00)
        C1             4.00    12.01100     C ( 1.00)
        H1             1.00     1.00800     H ( 1.00)

     No symmetry found

   Cartesian axes

     site n.     atom                  positions (alat units)
         1           Ti1 tau(   1) = (   0.0004258   2.9801865   6.0000000  )
         2           Ti1 tau(   2) = (   3.2906075   1.4906267   6.0002472  )
         3           O1  tau(   3) = (   0.0006271   0.0005054   7.9858123  )
         4           O1  tau(   4) = (   3.2906025   0.0005020   7.3038282  )
         5           O1  tau(   5) = (   4.5942328   1.4918067   9.2879030  )
         6           O1  tau(   6) = (   1.9868534   1.4903216   9.2879459  )
         7           Ti1 tau(   7) = (   3.2907910   2.8959150   9.1758416  )
         8           Ti1 tau(   8) = (   0.0015273   1.4827037   9.2680791  )
         9           O1  tau(   9) = (   3.2951577   0.0167633  11.2896499  )
        10           O1  tau(  10) = (   0.0116148   5.9584955  10.6183126  )
        11           O1  tau(  11) = (   1.3222759   1.5071707  12.6129440  )
        12           O1  tau(  12) = (   5.3060066   1.5095485  12.6267335  )
        13           Ti1 tau(  13) = (   6.4824898   3.0013615  12.7357613  )
        14           Ti1 tau(  14) = (   3.1735365   1.4973312  12.4739500  )
        15           O1  tau(  15) = (   0.0245190   0.0017265  14.5963640  )
        16           O1  tau(  16) = (   3.2983568   0.0259644  13.8884976  )
        17           O1  tau(  17) = (   4.5535709   1.5599051  15.9919625  )
        18           O1  tau(  18) = (   2.0723989   1.5598234  15.9883263  )
        19           Ti1 tau(  19) = (   3.3263631   3.0313633  15.6478355  )
        20           Ti1 tau(  20) = (   0.0083359   1.6222165  16.0589653  )
        21           O1  tau(  21) = (   3.2904802   0.0005063   4.7018136  )
        22           O1  tau(  22) = (   0.0206953   0.0548308  17.2083480  )
        23           O1  tau(  23) = (   1.3043587   1.4918075   6.0039043  )
        24           O1  tau(  24) = (   5.2767064   1.4903225   6.0039473  )
        25           Ti1 tau(  25) = (   0.0000382   5.9609847   6.0000000  )
        26           Ti1 tau(  26) = (   3.2902200   4.4714249   6.0002472  )
        27           O1  tau(  27) = (   0.0002396   2.9813036   7.9858123  )
        28           O1  tau(  28) = (   3.2902150   2.9813002   7.3038282  )
        29           O1  tau(  29) = (   4.5938453   4.4726049   9.2879030  )
        30           O1  tau(  30) = (   1.9864658   4.4711199   9.2879459  )
        31           Ti1 tau(  31) = (   3.2891106   5.8743827   9.1763621  )
        32           Ti1 tau(  32) = (   0.0006254   4.4649316   9.2693709  )
        33           O1  tau(  33) = (   3.2909539   2.9954008  11.2901670  )
        34           O1  tau(  34) = (   0.0092240   2.9805883  10.6323155  )
        35           O1  tau(  35) = (   1.3211080   4.4795309  12.6092917  )
        36           O1  tau(  36) = (   5.3058445   4.4798052  12.6251394  )
        37           Ti1 tau(  37) = (   6.5140999   0.0198189  12.7603067  )
        38           Ti1 tau(  38) = (   3.1705570   4.4938763  12.4677136  )
        39           O1  tau(  39) = (   0.0016069   2.9863809  14.6467327  )
        40           O1  tau(  40) = (   3.3112668   3.0122049  13.8485686  )
        41           O1  tau(  41) = (   4.5534170   4.5051619  16.0179686  )
        42           O1  tau(  42) = (   2.0797414   4.5084034  16.0201905  )
        43           Ti1 tau(  43) = (   3.2815144   0.0627375  15.7417980  )
        44           Ti1 tau(  44) = (   0.0076503   4.5954094  16.1032789  )
        45           O1  tau(  45) = (   3.2900926   2.9813045   4.7018136  )
        46           O1  tau(  46) = (   1.3039711   4.4726057   6.0039043  )
        47           O1  tau(  47) = (   5.2763189   4.4711207   6.0039473  )
        48           N1  tau(  48) = (   0.0651939   3.0276870  17.3150544  )
        49           C1  tau(  49) = (   0.3375872   3.0185870  18.7284822  )
        50           H1  tau(  50) = (   0.4644735   4.0311245  19.1352477  )
        51           H1  tau(  51) = (   6.1015407   2.5302758  19.2785169  )
        52           H1  tau(  52) = (   1.2508204   2.4494767  18.9518403  )
        53           O1  tau(  53) = (   3.3357083   0.1159715  18.1615364  )
        54           H1  tau(  54) = (   4.1514219   5.6051498  18.3929375  )
        55           H1  tau(  55) = (   2.5926282   5.5337384  18.4710493  )

     number of k points=    10  Fermi-Dirac smearing, width (Ry)=  0.0073
                       cart. coord. in units 2pi/alat
        k(    1) = (   0.0000000   0.0000000   0.0000000), wk =   0.1250000
        k(    2) = (   0.0000000   0.0419351   0.0000000), wk =   0.2500000
        k(    3) = (   0.0000000  -0.0838702   0.0000000), wk =   0.1250000
        k(    4) = (   0.0379955   0.0000049   0.0000000), wk =   0.2500000
        k(    5) = (   0.0379955   0.0419400   0.0000000), wk =   0.2500000
        k(    6) = (   0.0379955  -0.0838652   0.0000000), wk =   0.2500000
        k(    7) = (   0.0379955  -0.0419301   0.0000000), wk =   0.2500000
        k(    8) = (  -0.0759910  -0.0000099   0.0000000), wk =   0.1250000
        k(    9) = (  -0.0759910   0.0419252   0.0000000), wk =   0.2500000
        k(   10) = (  -0.0759910  -0.0838800   0.0000000), wk =   0.1250000

     Initial potential from superposition of free atoms

     starting charge  381.99915, renormalised to  398.00000

     negative rho (up, down):  1.656E-02 0.000E+00

     %%%%%%%%%%%%%%%%%%%%%%%%%%%%%%%%%%%%%%%%%%%%%%%%%%%%%%%%%%%%%%%%%%%%%%%%
     %                                                                      %
     % You are using vdW-DF, which was implemented by the Thonhauser group. %
     % Please cite the following two papers that made this development      %
     % possible and the two reviews that describe the various versions:     %
     %                                                                      %
     %   T. Thonhauser et al., PRL 115, 136402 (2015).                      %
     %   T. Thonhauser et al., PRB 76, 125112 (2007).                       %
     %   K. Berland et al., Rep. Prog. Phys. 78, 066501 (2015).             %
     %   D.C. Langreth et al., J. Phys.: Condens. Matter 21, 084203 (2009). %
     %                                                                      %
     %                                                                      %
     % If you are calculating the stress with vdW-DF, please also cite:     %
     %                                                                      %
     %   R. Sabatini et al., J. Phys.: Condens. Matter 24, 424209 (2012).   %
     %                                                                      %
     %%%%%%%%%%%%%%%%%%%%%%%%%%%%%%%%%%%%%%%%%%%%%%%%%%%%%%%%%%%%%%%%%%%%%%%%

     Adding external electric field

     Computed dipole along edir(3) :
        Dipole               -9.1079 Ry au,        -23.1500 Debye
        Dipole field         -0.0172 Ry au,

        Potential amp.        1.5933 Ry
        Total length         46.3494 bohr

     Starting wfcs are  301 atomic wfcs
  @ DRIVER MODE: Message from server: STATUS
  @ DRIVER MODE: Message from server: POSDATA
  @ DRIVER MODE: Reading and sharing cell
  @ DRIVER MODE: Reading and sharing positions
  @ DRIVER MODE: Received positions

     Self-consistent Calculation

     iteration #  1     ecut=    29.40 Ry     beta= 0.05
     Davidson diagonalization with overlap
     c_bands:  1 eigenvalues not converged
     c_bands:  1 eigenvalues not converged
     c_bands:  1 eigenvalues not converged
     c_bands:  1 eigenvalues not converged
     c_bands:  1 eigenvalues not converged
     c_bands:  1 eigenvalues not converged
     c_bands:  1 eigenvalues not converged
     c_bands:  2 eigenvalues not converged
     ethr =  1.00E-05,  avg # of iterations = 19.6

[...]

     total energy              =   -2564.52043169 Ry
     estimated scf accuracy    <    4317.23630927 Ry

     iteration #  2     ecut=    29.40 Ry     beta= 0.05
     Davidson diagonalization with overlap
     ethr =  1.00E-02,  avg # of iterations = 23.6

[...]

     iteration # 46     ecut=    29.40 Ry     beta= 0.05
     Davidson diagonalization with overlap
     c_bands:  1 eigenvalues not converged
     ethr =  2.30E-07,  avg # of iterations =  9.3

[...]

     total energy              =   -2953.97107639 Ry
     estimated scf accuracy    <       0.00000008 Ry

     iteration # 76     ecut=    29.40 Ry     beta= 0.05
     Davidson diagonalization with overlap
     ethr =  1.97E-11,  avg # of iterations =  6.0

     negative rho (up, down):  1.668E-02 0.000E+00

     Adding external electric field

     Computed dipole along edir(3) :
        Dipole                0.5294 Ry au,          1.3457 Debye
        Dipole field          0.0010 Ry au,

        Potential amp.       -0.0926 Ry
        Total length         46.3494 bohr

     End of self-consistent calculation

          k = 0.0000 0.0000 0.0000 ( 18029 PWs)   bands (ev):

   -56.5945 -56.5609 -55.7121 -55.6782 -55.6681 -55.6333 -55.4918 -55.4556
   -55.3613 -55.2424 -55.2298 -55.2274 -55.2085 -55.1320 -54.7252 -54.6761
   -33.0212 -32.8690 -32.8408 -32.7710 -32.6800 -32.6474 -32.1800 -32.1506
   -32.0273 -31.9771 -31.9292 -31.9101 -31.8809 -31.8707 -31.8430 -31.8370
   -31.8179 -31.8130 -31.7907 -31.7749 -31.7676 -31.7113 -31.7069 -31.6694
   -31.6558 -31.6334 -31.6262 -31.6179 -31.5949 -31.5863 -31.5822 -31.5580
   -31.4654 -31.4525 -31.4193 -31.4057 -31.3793 -31.3693 -31.3562 -31.3372
   -31.3093 -31.2583 -31.2401 -30.9689 -30.9473 -30.9182 -30.8943 -30.7851
   -18.7859 -16.7499 -16.2861 -16.0450 -15.9507 -15.8683 -15.8287 -15.7852
   -15.6377 -15.5647 -15.5447 -15.5425 -15.4746 -15.3303 -15.2763 -15.1784
   -15.0922 -14.9511 -14.9395 -14.8995 -14.8859 -14.8497 -14.8456 -14.7950
   -14.6266 -14.5907 -14.5449 -14.4862 -14.3943 -14.1733 -13.7411 -13.6314
   -12.9706  -7.7729  -6.5803  -4.3171  -3.7846  -3.5195  -3.4874  -3.3591
    -3.3549  -3.3122  -3.1711  -3.1629  -3.0879  -3.0635  -3.0204  -2.9495
    -2.9047  -2.8681  -2.7786  -2.7652  -2.7456  -2.7362  -2.7162  -2.5993
    -2.5551  -2.5048  -2.4018  -2.2915  -2.2489  -2.2219  -2.1759  -2.1426
    -2.0914  -2.0801  -2.0679  -2.0562  -1.9523  -1.8306  -1.8055  -1.7821
    -1.7359  -1.7214  -1.7129  -1.6894  -1.6045  -1.4964  -1.4032  -1.3353
    -1.3283  -1.2530  -1.2447  -1.1870  -1.0755  -1.0129  -1.0106  -0.9886
    -0.8847  -0.8597  -0.7883  -0.7257  -0.6666  -0.6136  -0.5510  -0.4986
    -0.4758  -0.4662  -0.3683  -0.2988  -0.2739  -0.2182  -0.2104  -0.2053
    -0.1783  -0.0832  -0.0478   0.0289   0.0642   0.1121   0.1473   0.2265
     0.2862   0.3522   0.3990   0.4209   0.4864   0.5419   0.5975   0.6882
     0.7456   0.7515   0.7789   0.8376   0.8511   0.9253   1.0074   1.0273
     1.0939   1.1651   1.3287   1.3677   1.6139   1.6872   2.3117   2.6829
     2.8440   3.1392   3.3289   3.4671   3.6621   3.6724   3.6797   3.9010
     3.9294

[...]

          k = 0.0380-0.0419 0.0000 ( 17876 PWs)   bands (ev):

[...]

          k =-0.0760-0.0000 0.0000 ( 17886 PWs)   bands (ev):

[...]

          k =-0.0760-0.0839 0.0000 ( 17948 PWs)   bands (ev):

   -56.5779 -56.5774 -55.6971 -55.6928 -55.6553 -55.6463 -55.4777 -55.4694
   -55.3589 -55.2320 -55.2254 -55.2253 -55.2241 -55.1352 -54.7180 -54.6832
   -32.8549 -32.8545 -32.8382 -32.8379 -32.7242 -32.7237 -32.0037 -31.9978
   -31.9864 -31.9794 -31.9032 -31.8885 -31.8873 -31.8830 -31.8763 -31.8748
   -31.8674 -31.8594 -31.8331 -31.8161 -31.7228 -31.7164 -31.6847 -31.6770
   -31.6537 -31.6182 -31.5862 -31.5711 -31.5710 -31.5697 -31.5482 -31.5307
   -31.4794 -31.4502 -31.4500 -31.4465 -31.4311 -31.4112 -31.4111 -31.4005
   -31.3742 -31.3387 -31.1009 -31.0387 -30.9448 -30.9193 -30.9040 -30.8571
   -18.7850 -16.1006 -16.0986 -16.0632 -16.0625 -15.7960 -15.7926 -15.7028
   -15.6972 -15.5656 -15.4451 -15.3409 -15.3283 -15.2943 -15.2678 -15.1575
   -15.1366 -15.1253 -15.1150 -15.0073 -14.9881 -14.9402 -14.9259 -14.9102
   -14.9029 -14.6081 -14.5918 -14.4917 -14.4657 -14.3256 -13.7350 -13.7350
   -12.9892  -7.7663  -6.5733  -3.1971  -3.1905  -3.1518  -3.1358  -3.1350
    -3.0710  -2.9774  -2.9301  -2.9282  -2.9274  -2.8452  -2.7822  -2.7744
    -2.7003  -2.6674  -2.6502  -2.5931  -2.5782  -2.5146  -2.4881  -2.4800
    -2.4622  -2.4386  -2.4374  -2.3435  -2.2774  -2.2315  -2.2263  -2.1669
    -2.1373  -2.0777  -2.0552  -2.0441  -2.0117  -1.9700  -1.9580  -1.9197
    -1.8774  -1.8435  -1.7797  -1.6134  -1.6041  -1.5952  -1.5749  -1.4531
    -1.4452  -1.4107  -1.3794  -1.3738  -1.3029  -1.2533  -1.2156  -1.1641
    -1.0767  -1.0552  -0.9506  -0.8985  -0.8552  -0.7995  -0.6941  -0.6738
    -0.6666  -0.6553  -0.6246  -0.5550  -0.5201  -0.5169  -0.3939  -0.3696
    -0.3314  -0.3019  -0.2440  -0.2149  -0.1562  -0.1239  -0.0541  -0.0399
    -0.0003   0.0769   0.1519   0.1866   0.2370   0.2433   0.5177   0.5913
     0.7207   0.7838   0.8463   0.9143   0.9797   1.0079   1.0373   1.1628
     1.1670   1.1765   1.1771   1.2473   1.2525   1.5926   2.1897   3.2590
     3.2593   3.3254   3.3261   3.6470   3.6533   3.7603   3.7706   3.9308
     3.9451

     the Fermi energy is     2.5098 ev

!    total energy              =   -2953.97108551 Ry
     estimated scf accuracy    <       0.00000007 Ry
     smearing contrib. (-TS)   =      -0.00443024 Ry
     internal energy E=F+TS    =   -2953.96665527 Ry

     The total energy is F=E-TS. E is the sum of the following terms:
     one-electron contribution =  -24343.92380684 Ry
     hartree contribution      =   12263.85019174 Ry
     xc contribution           =    -488.77046165 Ry
     ewald contribution        =    9614.87689250 Ry
     electric field correction =       0.00052897 Ry

     convergence has been achieved in  76 iterations

     Forces acting on atoms (cartesian axes, Ry/au):

     atom    1 type  1   force =    -0.00002755   -0.00048518    0.12443026
     atom    2 type  1   force =    -0.00004013   -0.00048833   -0.15979392
     atom    3 type  2   force =     0.00020103   -0.00023651   -0.06782937
     atom    4 type  2   force =     0.00000224   -0.00009188    0.02612915
     atom    5 type  2   force =    -0.01437027    0.00191625   -0.00990577
     atom    6 type  2   force =     0.01615421    0.00232692   -0.01028075
     atom    7 type  1   force =     0.00071869   -0.00389861    0.02847842
     atom    8 type  1   force =    -0.00033420   -0.00436029    0.10936222
     atom    9 type  2   force =     0.00002232    0.00001637    0.00008144
     atom   10 type  2   force =    -0.00225651    0.00266744   -0.07362026
     atom   11 type  2   force =     0.00080593   -0.00003054   -0.00024312
     atom   12 type  2   force =    -0.00043319    0.00004788   -0.00020714
     atom   13 type  1   force =    -0.00001158    0.00013784   -0.00011065
     atom   14 type  1   force =    -0.00034062    0.00048482   -0.00041337
     atom   15 type  2   force =     0.00002149   -0.00066026   -0.00024127
     atom   16 type  2   force =    -0.00018326   -0.00000435    0.00040657
     atom   17 type  2   force =    -0.00064592   -0.00033038   -0.00032763
     atom   18 type  2   force =     0.00028986   -0.00019294    0.00009497
     atom   19 type  1   force =     0.00044533   -0.00002067   -0.00025389
     atom   20 type  1   force =    -0.00023319   -0.00068148   -0.00079792
     atom   21 type  2   force =     0.00006605   -0.00003984    0.09953612
     atom   22 type  2   force =     0.00005430   -0.00049016    0.00021130
     atom   23 type  2   force =    -0.07969800   -0.00006576   -0.03245425
     atom   24 type  2   force =     0.07957064    0.00037539   -0.03251351
     atom   25 type  1   force =    -0.00000327   -0.00057886    0.12406813
     atom   26 type  1   force =    -0.00010812   -0.00062693   -0.15992701
     atom   27 type  2   force =     0.00033340   -0.00035892   -0.06690023
     atom   28 type  2   force =    -0.00002470    0.00017639    0.02515169
     atom   29 type  2   force =    -0.01495962    0.00189854   -0.00988132
     atom   30 type  2   force =     0.01664691    0.00242625   -0.01021521
     atom   31 type  1   force =     0.00078147   -0.00077545    0.02375570
     atom   32 type  1   force =    -0.00022917    0.00200892    0.10998867
     atom   33 type  2   force =     0.00004340   -0.00027123    0.00034409
     atom   34 type  2   force =    -0.00212343    0.00206990   -0.07173894
     atom   35 type  2   force =     0.00023006   -0.00012250   -0.00009434
     atom   36 type  2   force =    -0.00016053   -0.00024622   -0.00016584
     atom   37 type  1   force =     0.00042557   -0.00002186    0.00035942
     atom   38 type  1   force =     0.00001670   -0.00056807   -0.00019196
     atom   39 type  2   force =     0.00006712    0.00019317    0.00060591
     atom   40 type  2   force =    -0.00008532   -0.00023867    0.00026186
     atom   41 type  2   force =     0.00071081   -0.00033880    0.00010537
     atom   42 type  2   force =    -0.00098073   -0.00039826    0.00060706
     atom   43 type  1   force =     0.00001710   -0.00034281    0.00007303
     atom   44 type  1   force =    -0.00028333    0.00005729   -0.00091385
     atom   45 type  2   force =     0.00005501   -0.00004775    0.09949623
     atom   46 type  2   force =    -0.07970686    0.00000319   -0.03247453
     atom   47 type  2   force =     0.07958781    0.00043143   -0.03250034
     atom   48 type  3   force =    -0.00051040    0.00005271   -0.00017223
     atom   49 type  4   force =     0.00155778    0.00093750    0.00041815
     atom   50 type  5   force =    -0.00232138   -0.00094980   -0.00024959
     atom   51 type  5   force =    -0.00005164    0.00023622    0.00084274
     atom   52 type  5   force =     0.00043361   -0.00082478   -0.00012336
     atom   53 type  2   force =    -0.00062152   -0.00009306   -0.00069851
     atom   54 type  5   force =     0.00082049    0.00036594    0.00067995
     atom   55 type  5   force =     0.00066511    0.00005079   -0.00024836

     Total force =     0.423387     Total SCF correction =     0.000733
  @ DRIVER MODE: Message from server: STATUS
  @ DRIVER MODE: Message from server: GETFORCE
  @ DRIVER MODE: Returning v,forces,stress,ensemble

     Writing output data file ./calc.save/
  @ DRIVER MODE: Message from server: EXIT
  @ DRIVE MODE: Exiting

     General routines

     Parallel routines

   This run was terminated on:  19:57: 5  15Sep2021

   JOB DONE.