     Program PWSCF v.6.7GPU starts on 24Aug2021 at 16:12:25

     R & G space division:  proc/nbgrp/npool/nimage =      72
     Reading input from /storage/home/hcoda1/3/ntian30/research/carbon/CH2_vib/ads_slab/CH2NH_a/out_0018/pw.inp
Warning: card &CELL ignored
Warning: card   CELL_DYNAMICS='IPI', ignored
Warning: card / ignored

     Current dimensions of program PWSCF are:
     Max number of different atomic species (ntypx) = 10
     Max number of k-points (npk) =  40000
     Max angular momentum in pseudopotentials (lmaxx) =  3
     Presently no symmetry can be used with electric field

     Message from routine cell_base_init:
     DEPRECATED: use true lattice parameter, not A to a.u. conversion factor

     IMPORTANT: XC functional enforced from input :
     Exchange-correlation= BEEF-VDW
                           (   1   4  43  14   2   0   0)
     Any further DFT definition will be discarded
     Please, verify this is what you really want

  @ DRIVER MODE: Connecting to
 qe_1139763_2641438.sched-torque.pace.gatech.eduywpnnvx3_scratch
  using UNIX socket
  @ DRIVER MODE: Message from server: STATUS
  @ DRIVER MODE: Message from server: INIT
  @ DRIVER MODE: Receiving replica           0          -1
  @ DRIVER MODE: Receiving encoded integer          25
  @ DRIVER MODE:  SCF:  T  FORCE:  T  STRESS:  F  VC:  F  ENSEMBLE:  F
  @ DRIVER MODE:  SCF:  T  FORCE:  T  STRESS:  F  VC:  F  ENSEMBLE:  F

     Using Slab Decomposition

     bravais-lattice index     =            0
     lattice parameter (alat)  =       1.8897  a.u.
     unit-cell volume          =    6658.9804 (a.u.)^3
     number of atoms/cell      =           52
     number of atomic types    =            5
     number of electrons       =       390.00
     number of Kohn-Sham states=          205
     kinetic-energy cutoff     =      29.3995  Ry
     charge density cutoff     =     293.9946  Ry
     scf convergence threshold =      7.3E-08
     mixing beta               =       0.0500
     number of iterations used =            8  plain     mixing
     Exchange-correlation= BEEF-VDW
                           (   1   4  43  14   2   0   0)

     celldm(1)=   1.889726  celldm(2)=   0.000000  celldm(3)=   0.000000
     celldm(4)=   0.000000  celldm(5)=   0.000000  celldm(6)=   0.000000

     crystal axes: (cart. coord. in units of alat)
               a(1) = (   6.579727   0.000000   0.000000 )
               a(2) = (  -0.000775   5.961596   0.000000 )
               a(3) = (   0.000000   0.000000  25.155947 )

     reciprocal axes: (cart. coord. in units 2 pi/alat)
               b(1) = (  0.151982  0.000020  0.000000 )
               b(2) = (  0.000000  0.167740  0.000000 )
               b(3) = (  0.000000  0.000000  0.039752 )

     PseudoPot. # 1 for Ti read from file:
     /storage/coda1/p-amedford6/0/shared/rich_project_chbe-medford/medford-share/data/pseudos_module/espresso/nninc/pbe/van/Ti.UPF
     MD5 check sum: 8e4df49b7f0d34bbd5052bf3f5ea0213
     Pseudo is Ultrasoft, Zval = 12.0
     Generated by new atomic code, or converted to UPF format
     Using radial grid of  851 points,  6 beta functions with:
                l(1) =   0
                l(2) =   0
                l(3) =   1
                l(4) =   1
                l(5) =   2
                l(6) =   2
     Q(r) pseudized with  8 coefficients,  rinner =    1.000   1.000   1.000
                                                       1.000   1.000

     PseudoPot. # 2 for O  read from file:
     /storage/coda1/p-amedford6/0/shared/rich_project_chbe-medford/medford-share/data/pseudos_module/espresso/nninc/pbe/van/O.UPF
     MD5 check sum: 78c19812648e8988a0fe644b0f25305e
     Pseudo is Ultrasoft, Zval =  6.0
     Generated by new atomic code, or converted to UPF format
     Using radial grid of  737 points,  4 beta functions with:
                l(1) =   0
                l(2) =   0
                l(3) =   1
                l(4) =   1
     Q(r) pseudized with  8 coefficients,  rinner =    0.800   0.800   0.800

     PseudoPot. # 3 for N  read from file:
     /storage/coda1/p-amedford6/0/shared/rich_project_chbe-medford/medford-share/data/pseudos_module/espresso/nninc/pbe/van/N.UPF
     MD5 check sum: 90d10febe142ad51ac9d5be1deb811c4
     Pseudo is Ultrasoft, Zval =  5.0
     Generated by new atomic code, or converted to UPF format
     Using radial grid of  729 points,  4 beta functions with:
                l(1) =   0
                l(2) =   0
                l(3) =   1
                l(4) =   1
     Q(r) pseudized with  8 coefficients,  rinner =    0.800   0.800   0.800

     PseudoPot. # 4 for C  read from file:
     /storage/coda1/p-amedford6/0/shared/rich_project_chbe-medford/medford-share/data/pseudos_module/espresso/nninc/pbe/van/C.UPF
     MD5 check sum: 1a69bf6b8db32088f5b2163dbdb77a27
     Pseudo is Ultrasoft, Zval =  4.0
     Generated by new atomic code, or converted to UPF format
     Using radial grid of  721 points,  4 beta functions with:
                l(1) =   0
                l(2) =   0
                l(3) =   1
                l(4) =   1
     Q(r) pseudized with  8 coefficients,  rinner =    0.800   0.800   0.800

     PseudoPot. # 5 for H  read from file:
     /storage/coda1/p-amedford6/0/shared/rich_project_chbe-medford/medford-share/data/pseudos_module/espresso/nninc/pbe/van/H.UPF
     MD5 check sum: b5ee9d7bfd3a09ee7748110bda690ff7
     Pseudo is Ultrasoft, Zval =  1.0
     Generated by new atomic code, or converted to UPF format
     Using radial grid of  615 points,  1 beta functions with:
                l(1) =   0
     Q(r) pseudized with  8 coefficients,  rinner =    0.800

     atomic species   valence    mass     pseudopotential
        Ti1           12.00    47.86700     Ti( 1.00)
        O1             6.00    15.99900     O ( 1.00)
        N1             5.00    14.00700     N ( 1.00)
        C1             4.00    12.01100     C ( 1.00)
        H1             1.00     1.00800     H ( 1.00)

     No symmetry found

   Cartesian axes

     site n.     atom                  positions (alat units)
         1           Ti1 tau(   1) = (   0.0004258   2.9801865   6.0000000  )
         2           Ti1 tau(   2) = (   3.2906075   1.4906267   6.0002472  )
         3           O1  tau(   3) = (   0.0006271   0.0005054   7.9858123  )
         4           O1  tau(   4) = (   3.2906025   0.0005020   7.3038282  )
         5           O1  tau(   5) = (   4.5942328   1.4918067   9.2879030  )
         6           O1  tau(   6) = (   1.9868534   1.4903216   9.2879459  )
         7           Ti1 tau(   7) = (   3.2907910   2.8959150   9.1758416  )
         8           Ti1 tau(   8) = (   0.0015273   1.4827037   9.2680791  )
         9           O1  tau(   9) = (   3.2859541   5.9290403  11.3715426  )
        10           O1  tau(  10) = (   0.0116148   5.9584955  10.6183126  )
        11           O1  tau(  11) = (   1.2917987   1.4688796  12.6526629  )
        12           O1  tau(  12) = (   5.2888266   1.4686376  12.6403033  )
        13           Ti1 tau(  13) = (   0.0074927   2.9495069  12.5376589  )
        14           Ti1 tau(  14) = (   3.2957121   1.4606513  12.5174744  )
        15           O1  tau(  15) = (   6.5702453   0.0264740  14.6787910  )
        16           O1  tau(  16) = (   3.3001739   5.9406727  13.9930656  )
        17           O1  tau(  17) = (   4.5367710   1.4643441  16.2106543  )
        18           O1  tau(  18) = (   2.0349547   1.4576396  16.1973481  )
        19           Ti1 tau(  19) = (   3.2821410   2.9383233  15.7467721  )
        20           Ti1 tau(  20) = (   6.5624771   1.3975196  16.0657228  )
        21           O1  tau(  21) = (   3.2904802   0.0005063   4.7018136  )
        22           O1  tau(  22) = (   0.0049924   5.8117904  17.2112648  )
        23           O1  tau(  23) = (   1.3043587   1.4918075   6.0039043  )
        24           O1  tau(  24) = (   5.2767064   1.4903225   6.0039473  )
        25           Ti1 tau(  25) = (   0.0000382   5.9609847   6.0000000  )
        26           Ti1 tau(  26) = (   3.2902200   4.4714249   6.0002472  )
        27           O1  tau(  27) = (   0.0002396   2.9813036   7.9858123  )
        28           O1  tau(  28) = (   3.2902150   2.9813002   7.3038282  )
        29           O1  tau(  29) = (   4.5938453   4.4726049   9.2879030  )
        30           O1  tau(  30) = (   1.9864658   4.4711199   9.2879459  )
        31           Ti1 tau(  31) = (   3.2891106   5.8743827   9.1763621  )
        32           Ti1 tau(  32) = (   0.0006254   4.4649316   9.2693709  )
        33           O1  tau(  33) = (   3.2878059   2.9597088  11.3652031  )
        34           O1  tau(  34) = (   0.0092240   2.9805883  10.6323155  )
        35           O1  tau(  35) = (   1.2887225   4.4431869  12.6829221  )
        36           O1  tau(  36) = (   5.2901277   4.4428847  12.6690855  )
        37           Ti1 tau(  37) = (   0.0035388   5.9380168  12.5099366  )
        38           Ti1 tau(  38) = (   3.2962120   4.4389810  12.5267566  )
        39           O1  tau(  39) = (   6.5655450   2.9014274  14.9049457  )
        40           O1  tau(  40) = (   3.2937888   2.9365130  13.9572806  )
        41           O1  tau(  41) = (   4.5374039   4.4072578  16.1608974  )
        42           O1  tau(  42) = (   2.0345115   4.4188705  16.1151926  )
        43           Ti1 tau(  43) = (   3.2925710   5.9161036  15.7896908  )
        44           Ti1 tau(  44) = (   0.0121651   4.6006060  15.8502786  )
        45           O1  tau(  45) = (   3.2900926   2.9813045   4.7018136  )
        46           O1  tau(  46) = (   1.3039711   4.4726057   6.0039043  )
        47           O1  tau(  47) = (   5.2763189   4.4711207   6.0039473  )
        48           N1  tau(  48) = (   6.5581919   2.6818180  17.9522317  )
        49           C1  tau(  49) = (   0.8403426   2.5546117  18.8965076  )
        50           H1  tau(  50) = (   0.6793733   2.9585088  19.9016666  )
        51           H1  tau(  51) = (   1.7584391   2.0155774  18.6961775  )
        52           H1  tau(  52) = (   5.7198555   3.1867788  18.2393814  )

     number of k points=    10  Fermi-Dirac smearing, width (Ry)=  0.0073
                       cart. coord. in units 2pi/alat
        k(    1) = (   0.0000000   0.0000000   0.0000000), wk =   0.1250000
        k(    2) = (   0.0000000   0.0419351   0.0000000), wk =   0.2500000
        k(    3) = (   0.0000000  -0.0838702   0.0000000), wk =   0.1250000
        k(    4) = (   0.0379955   0.0000049   0.0000000), wk =   0.2500000
        k(    5) = (   0.0379955   0.0419400   0.0000000), wk =   0.2500000
        k(    6) = (   0.0379955  -0.0838652   0.0000000), wk =   0.2500000
        k(    7) = (   0.0379955  -0.0419301   0.0000000), wk =   0.2500000
        k(    8) = (  -0.0759910  -0.0000099   0.0000000), wk =   0.1250000
        k(    9) = (  -0.0759910   0.0419252   0.0000000), wk =   0.2500000
        k(   10) = (  -0.0759910  -0.0838800   0.0000000), wk =   0.1250000

     Initial potential from superposition of free atoms

     starting charge  373.99917, renormalised to  390.00000

     negative rho (up, down):  1.698E-02 0.000E+00

     %%%%%%%%%%%%%%%%%%%%%%%%%%%%%%%%%%%%%%%%%%%%%%%%%%%%%%%%%%%%%%%%%%%%%%%%
     %                                                                      %
     % You are using vdW-DF, which was implemented by the Thonhauser group. %
     % Please cite the following two papers that made this development      %
     % possible and the two reviews that describe the various versions:     %
     %                                                                      %
     %   T. Thonhauser et al., PRL 115, 136402 (2015).                      %
     %   T. Thonhauser et al., PRB 76, 125112 (2007).                       %
     %   K. Berland et al., Rep. Prog. Phys. 78, 066501 (2015).             %
     %   D.C. Langreth et al., J. Phys.: Condens. Matter 21, 084203 (2009). %
     %                                                                      %
     %                                                                      %
     % If you are calculating the stress with vdW-DF, please also cite:     %
     %                                                                      %
     %   R. Sabatini et al., J. Phys.: Condens. Matter 24, 424209 (2012).   %
     %                                                                      %
     %%%%%%%%%%%%%%%%%%%%%%%%%%%%%%%%%%%%%%%%%%%%%%%%%%%%%%%%%%%%%%%%%%%%%%%%

     Adding external electric field

     Computed dipole along edir(3) :
        Dipole               -6.0488 Ry au,        -15.3745 Debye
        Dipole field         -0.0114 Ry au,

        Potential amp.        1.0581 Ry
        Total length         46.3494 bohr

     Starting wfcs are  295 atomic wfcs
  @ DRIVER MODE: Message from server: STATUS
  @ DRIVER MODE: Message from server: POSDATA
  @ DRIVER MODE: Reading and sharing cell
  @ DRIVER MODE: Reading and sharing positions
  @ DRIVER MODE: Received positions

     Self-consistent Calculation

     iteration #  1     ecut=    29.40 Ry     beta= 0.05
     Davidson diagonalization with overlap
     c_bands:  1 eigenvalues not converged
     c_bands:  1 eigenvalues not converged
     ethr =  1.00E-05,  avg # of iterations = 16.8

[...]

     total energy              =   -2758.76678534 Ry
     estimated scf accuracy    <    1760.66479282 Ry

     iteration #  2     ecut=    29.40 Ry     beta= 0.05
     Davidson diagonalization with overlap
     ethr =  1.00E-02,  avg # of iterations = 18.8

[...]

     iteration # 77     ecut=    29.40 Ry     beta= 0.05
     Davidson diagonalization with overlap
     c_bands:  1 eigenvalues not converged
     ethr =  5.98E-10,  avg # of iterations = 15.9

[...]

     total energy              =   -2919.11580319 Ry
     estimated scf accuracy    <       0.00000057 Ry

     iteration # 81     ecut=    29.40 Ry     beta= 0.05
     Davidson diagonalization with overlap
     ethr =  1.09E-10,  avg # of iterations = 14.1

     negative rho (up, down):  1.719E-02 0.000E+00

     Adding external electric field

     Computed dipole along edir(3) :
        Dipole                1.2607 Ry au,          3.2044 Debye
        Dipole field          0.0024 Ry au,

        Potential amp.       -0.2205 Ry
        Total length         46.3494 bohr

     End of self-consistent calculation

          k = 0.0000 0.0000 0.0000 ( 18029 PWs)   bands (ev):

   -55.5458 -55.5090 -55.5072 -55.4731 -55.4377 -55.4209 -55.3834 -55.3606
   -55.3606 -55.3358 -55.3261 -55.3127 -55.3023 -55.1303 -54.5278 -54.4937
   -32.1124 -31.9982 -31.9084 -31.8668 -31.8605 -31.8498 -31.8405 -31.8358
   -31.7969 -31.7853 -31.7539 -31.7521 -31.7517 -31.7166 -31.6991 -31.6811
   -31.6756 -31.6677 -31.6616 -31.6577 -31.6197 -31.6163 -31.6011 -31.5907
   -31.5643 -31.5625 -31.5611 -31.5526 -31.5479 -31.5421 -31.5320 -31.5237
   -31.5140 -31.5132 -31.5095 -31.4818 -31.4748 -31.4688 -31.4642 -31.4455
   -31.3538 -31.2715 -30.9368 -30.8436 -30.8215 -30.7532 -30.6665 -30.5556
   -16.5481 -16.3414 -16.0752 -15.8986 -15.7948 -15.7344 -15.5982 -15.5222
   -15.4445 -15.3420 -15.2516 -15.1849 -15.1688 -15.1484 -15.1435 -15.0823
   -15.0788 -15.0547 -15.0373 -15.0358 -14.9815 -14.9739 -14.9422 -14.9301
   -14.9191 -14.8467 -14.7628 -14.6939 -14.6336 -14.2068 -13.0305 -12.9133
    -9.2926  -6.2402  -4.6858  -3.7001  -3.5468  -3.4525  -3.4413  -3.4195
    -3.2712  -3.1334  -2.9273  -2.8461  -2.8004  -2.7511  -2.7231  -2.7053
    -2.6211  -2.5200  -2.4450  -2.4006  -2.3755  -2.3624  -2.3514  -2.3242
    -2.3124  -2.2791  -2.2400  -2.1988  -2.0939  -2.0060  -1.9652  -1.9301
    -1.8733  -1.8623  -1.8356  -1.8292  -1.8225  -1.8010  -1.7626  -1.7527
    -1.7053  -1.5647  -1.5527  -1.4353  -1.3972  -1.2848  -1.1843  -1.1796
    -1.0930  -1.0900  -1.0213  -0.9675  -0.9369  -0.9284  -0.8780  -0.8297
    -0.7402  -0.6471  -0.5856  -0.5436  -0.5088  -0.4798  -0.4124  -0.3213
    -0.3160  -0.3055  -0.2033  -0.1242  -0.1018  -0.0491  -0.0167   0.0265
     0.0426   0.1530   0.1958   0.2373   0.2553   0.3342   0.3560   0.4116
     0.4168   0.4520   0.4609   0.5268   0.5743   0.5938   0.6433   0.6625
     0.8208   1.0736   1.0805   1.1279   1.4037   1.4338   1.4946   1.6796
     2.0701   2.1178   3.5541   3.6265   3.6916   3.7044   3.7458   3.7909
     3.9583   4.0388   4.0552   4.0595   4.0910

[...]

          k = 0.0380-0.0419 0.0000 ( 17876 PWs)   bands (ev):

[...]

          k =-0.0760-0.0000 0.0000 ( 17886 PWs)   bands (ev):

[...]

          k =-0.0760-0.0839 0.0000 ( 17948 PWs)   bands (ev):

   -55.5312 -55.5234 -55.4902 -55.4900 -55.4336 -55.4097 -55.3946 -55.3645
   -55.3444 -55.3417 -55.3195 -55.3190 -55.3110 -55.1319 -54.5107 -54.5107
   -31.9188 -31.9136 -31.8294 -31.8134 -31.8132 -31.8048 -31.7824 -31.7821
   -31.7589 -31.7522 -31.7451 -31.7433 -31.7379 -31.6997 -31.6780 -31.6746
   -31.6707 -31.6664 -31.6626 -31.6577 -31.6529 -31.6338 -31.6199 -31.6193
   -31.6097 -31.6095 -31.6069 -31.5898 -31.5772 -31.5741 -31.5636 -31.5577
   -31.5549 -31.5539 -31.5444 -31.5438 -31.5113 -31.4990 -31.4983 -31.4865
   -31.3586 -31.3529 -30.8342 -30.8342 -30.7494 -30.7493 -30.7099 -30.7099
   -16.5249 -15.7800 -15.7461 -15.7305 -15.5266 -15.5184 -15.5106 -15.4927
   -15.3323 -15.3187 -15.2920 -15.2758 -15.2440 -15.2406 -15.2105 -15.1777
   -15.1245 -15.1202 -15.1118 -15.1095 -15.0496 -15.0453 -15.0251 -14.9965
   -14.9945 -14.9884 -14.8935 -14.8916 -14.7197 -14.5268 -13.0148 -13.0148
    -9.2969  -6.2356  -4.6682  -3.0550  -2.9937  -2.9332  -2.7361  -2.7328
    -2.7020  -2.6195  -2.5503  -2.5392  -2.5118  -2.4836  -2.4812  -2.4327
    -2.3884  -2.3787  -2.3674  -2.3603  -2.3419  -2.3279  -2.2988  -2.2620
    -2.2531  -2.2227  -2.2085  -2.1839  -2.1821  -2.1458  -2.1219  -2.1077
    -2.0959  -2.0341  -1.9330  -1.8807  -1.7946  -1.7684  -1.7392  -1.7331
    -1.6501  -1.6244  -1.5969  -1.5566  -1.5439  -1.5101  -1.3072  -1.2772
    -1.2679  -1.2540  -1.2306  -1.0804  -1.0709  -1.0208  -0.9896  -0.9423
    -0.8848  -0.8489  -0.8343  -0.7522  -0.7213  -0.6771  -0.6378  -0.5148
    -0.5107  -0.5035  -0.5019  -0.4842  -0.3975  -0.3856  -0.3426  -0.3092
    -0.2681  -0.2539  -0.1889  -0.0069   0.0097   0.0759   0.1830   0.2769
     0.3714   0.4507   0.4707   0.5217   0.5645   0.5849   0.6640   0.7572
     0.7691   0.8370   0.8832   0.9245   0.9287   0.9337   1.8525   1.8531
     1.9377   1.9379   3.6772   3.8021   3.8226   3.8606   3.8787   4.0278
     4.0737   4.1115   4.1335   4.1368   4.2137

     the Fermi energy is     3.6094 ev

!    total energy              =   -2919.11581223 Ry
     estimated scf accuracy    <       0.00000007 Ry
     smearing contrib. (-TS)   =      -0.03731807 Ry
     internal energy E=F+TS    =   -2919.07849416 Ry

     The total energy is F=E-TS. E is the sum of the following terms:
     one-electron contribution =  -24306.80479464 Ry
     hartree contribution      =   12240.80517203 Ry
     xc contribution           =    -480.00859205 Ry
     ewald contribution        =    9626.92672111 Ry
     electric field correction =       0.00299939 Ry

     convergence has been achieved in  81 iterations

     Forces acting on atoms (cartesian axes, Ry/au):

     atom    1 type  1   force =     0.00004936   -0.00015253    0.09376518
     atom    2 type  1   force =    -0.00017798   -0.00018096   -0.17778973
     atom    3 type  2   force =     0.00002521   -0.00021796   -0.02114454
     atom    4 type  2   force =    -0.00001604   -0.00198665    0.05776340
     atom    5 type  2   force =    -0.01108094   -0.00164740    0.00748025
     atom    6 type  2   force =     0.01244111   -0.00098371    0.00636311
     atom    7 type  1   force =    -0.00047911    0.00246360   -0.01336552
     atom    8 type  1   force =     0.00030106    0.00294385    0.00277067
     atom    9 type  2   force =     0.00007474   -0.00007458    0.00010203
     atom   10 type  2   force =    -0.00176269   -0.00227270   -0.00369442
     atom   11 type  2   force =     0.00016318    0.00060583   -0.00025944
     atom   12 type  2   force =     0.00044612    0.00054099   -0.00007757
     atom   13 type  1   force =    -0.00071723   -0.00096119   -0.00028783
     atom   14 type  1   force =     0.00082493    0.00027539   -0.00046738
     atom   15 type  2   force =     0.00025535    0.00021565   -0.00005388
     atom   16 type  2   force =    -0.00007993    0.00035029   -0.00063136
     atom   17 type  2   force =     0.00005543    0.00012528    0.00030557
     atom   18 type  2   force =     0.00052351    0.00001483    0.00020703
     atom   19 type  1   force =     0.00024650   -0.00095080    0.00040526
     atom   20 type  1   force =    -0.00006874    0.00046337    0.00030959
     atom   21 type  2   force =     0.00004382   -0.00002337    0.10379228
     atom   22 type  2   force =     0.00001999   -0.00062132    0.00003650
     atom   23 type  2   force =    -0.07057561   -0.00014343   -0.02704993
     atom   24 type  2   force =     0.07045277    0.00032029   -0.02709440
     atom   25 type  1   force =     0.00008422   -0.00018782    0.09355657
     atom   26 type  1   force =    -0.00009654   -0.00027764   -0.17783009
     atom   27 type  2   force =     0.00008246   -0.00045284   -0.02018060
     atom   28 type  2   force =     0.00002611   -0.00169304    0.05724648
     atom   29 type  2   force =    -0.01116658   -0.00114934    0.00694166
     atom   30 type  2   force =     0.01241809   -0.00080653    0.00580380
     atom   31 type  1   force =    -0.00039089    0.00468214   -0.01444608
     atom   32 type  1   force =     0.00037107   -0.00362711    0.00248224
     atom   33 type  2   force =    -0.00000542    0.00057060    0.00036657
     atom   34 type  2   force =    -0.00117880   -0.00059196   -0.00105085
     atom   35 type  2   force =     0.00039025    0.00024837    0.00022999
     atom   36 type  2   force =     0.00014450    0.00032068    0.00020020
     atom   37 type  1   force =    -0.00053375    0.00132558    0.00012053
     atom   38 type  1   force =     0.00086880    0.00006134   -0.00083672
     atom   39 type  2   force =     0.00012360    0.00043741    0.00031465
     atom   40 type  2   force =     0.00018219    0.00019574   -0.00053864
     atom   41 type  2   force =     0.00024569    0.00007730   -0.00070294
     atom   42 type  2   force =    -0.00010061    0.00004892   -0.00073927
     atom   43 type  1   force =     0.00000182    0.00104373    0.00016090
     atom   44 type  1   force =    -0.00014430    0.00031109   -0.00062798
     atom   45 type  2   force =     0.00004569   -0.00004065    0.10376138
     atom   46 type  2   force =    -0.07059104   -0.00006823   -0.02704377
     atom   47 type  2   force =     0.07046614    0.00034797   -0.02707367
     atom   48 type  3   force =    -0.00053564   -0.00005845   -0.00018240
     atom   49 type  4   force =    -0.00280104    0.00371155    0.00948396
     atom   50 type  5   force =     0.00105182   -0.00253537   -0.01026031
     atom   51 type  5   force =    -0.00003390    0.00009549    0.00041807
     atom   52 type  5   force =     0.00011124   -0.00009167   -0.00095853

     Total force =     0.366159     Total SCF correction =     0.000533
  @ DRIVER MODE: Message from server: STATUS
  @ DRIVER MODE: Message from server: GETFORCE
  @ DRIVER MODE: Returning v,forces,stress,ensemble

     Writing output data file ./calc.save/
  @ DRIVER MODE: Message from server: EXIT
  @ DRIVE MODE: Exiting

     General routines

     Parallel routines

   This run was terminated on:  16:32:21  24Aug2021

   JOB DONE.