     Program PWSCF v.6.7GPU starts on 22Jul2021 at 23:52: 3

     R & G space division:  proc/nbgrp/npool/nimage =      16
     Reading input from /storage/home/hcoda1/3/ntian30/research/carbon/1Jul_vib/slab/rutile_O_br_vacant/out_0020/pw.inp
Warning: card &CELL ignored
Warning: card   CELL_DYNAMICS='IPI', ignored
Warning: card / ignored

     Current dimensions of program PWSCF are:
     Max number of different atomic species (ntypx) = 10
     Max number of k-points (npk) =  40000
     Max angular momentum in pseudopotentials (lmaxx) =  3
     Presently no symmetry can be used with electric field

     Message from routine cell_base_init:
     DEPRECATED: use true lattice parameter, not A to a.u. conversion factor

     IMPORTANT: XC functional enforced from input :
     Exchange-correlation= BEEF-VDW
                           (   1   4  43  14   2   0   0)
     Any further DFT definition will be discarded
     Please, verify this is what you really want

  @ DRIVER MODE: Connecting to
 qe_1139763_2402406.sched-torque.pace.gatech.edudkr5us27_scratch
  using UNIX socket
  @ DRIVER MODE: Message from server: STATUS
  @ DRIVER MODE: Message from server: INIT
  @ DRIVER MODE: Receiving replica           0          -1
  @ DRIVER MODE: Receiving encoded integer          25
  @ DRIVER MODE:  SCF:  T  FORCE:  T  STRESS:  F  VC:  F  ENSEMBLE:  F
  @ DRIVER MODE:  SCF:  T  FORCE:  T  STRESS:  F  VC:  F  ENSEMBLE:  F

     Using Slab Decomposition

     bravais-lattice index     =            0
     lattice parameter (alat)  =       1.8897  a.u.
     unit-cell volume          =    6658.9804 (a.u.)^3
     number of atoms/cell      =           47
     number of atomic types    =            2
     number of electrons       =       378.00
     number of Kohn-Sham states=          199
     kinetic-energy cutoff     =      29.3995  Ry
     charge density cutoff     =     293.9946  Ry
     scf convergence threshold =      7.3E-08
     mixing beta               =       0.0500
     number of iterations used =            8  plain     mixing
     Exchange-correlation= BEEF-VDW
                           (   1   4  43  14   2   0   0)

     celldm(1)=   1.889726  celldm(2)=   0.000000  celldm(3)=   0.000000
     celldm(4)=   0.000000  celldm(5)=   0.000000  celldm(6)=   0.000000

     crystal axes: (cart. coord. in units of alat)
               a(1) = (   6.579727   0.000000   0.000000 )
               a(2) = (  -0.000775   5.961596   0.000000 )
               a(3) = (   0.000000   0.000000  25.155947 )

     reciprocal axes: (cart. coord. in units 2 pi/alat)
               b(1) = (  0.151982  0.000020  0.000000 )
               b(2) = (  0.000000  0.167740  0.000000 )
               b(3) = (  0.000000  0.000000  0.039752 )

     PseudoPot. # 1 for Ti read from file:
     /storage/coda1/p-amedford6/0/shared/rich_project_chbe-medford/medford-share/data/pseudos_module/espresso/nninc/pbe/van/Ti.UPF
     MD5 check sum: 8e4df49b7f0d34bbd5052bf3f5ea0213
     Pseudo is Ultrasoft, Zval = 12.0
     Generated by new atomic code, or converted to UPF format
     Using radial grid of  851 points,  6 beta functions with:
                l(1) =   0
                l(2) =   0
                l(3) =   1
                l(4) =   1
                l(5) =   2
                l(6) =   2
     Q(r) pseudized with  8 coefficients,  rinner =    1.000   1.000   1.000
                                                       1.000   1.000

     PseudoPot. # 2 for O  read from file:
     /storage/coda1/p-amedford6/0/shared/rich_project_chbe-medford/medford-share/data/pseudos_module/espresso/nninc/pbe/van/O.UPF
     MD5 check sum: 78c19812648e8988a0fe644b0f25305e
     Pseudo is Ultrasoft, Zval =  6.0
     Generated by new atomic code, or converted to UPF format
     Using radial grid of  737 points,  4 beta functions with:
                l(1) =   0
                l(2) =   0
                l(3) =   1
                l(4) =   1
     Q(r) pseudized with  8 coefficients,  rinner =    0.800   0.800   0.800

     atomic species   valence    mass     pseudopotential
        Ti1           12.00    47.86700     Ti( 1.00)
        O1             6.00    15.99900     O ( 1.00)

     Starting magnetic structure
     atomic species   magnetization
        Ti1          0.000
        O1           0.000

     No symmetry found

   Cartesian axes

     site n.     atom                  positions (alat units)
         1           Ti1 tau(   1) = (   0.0004258   2.9801865   6.0000000  )
         2           Ti1 tau(   2) = (   3.2906075   1.4906267   6.0002472  )
         3           O1  tau(   3) = (   0.0006271   0.0005054   7.9858123  )
         4           O1  tau(   4) = (   3.2906025   0.0005020   7.3038282  )
         5           O1  tau(   5) = (   4.5942328   1.4918067   9.2879030  )
         6           O1  tau(   6) = (   1.9868534   1.4903216   9.2879459  )
         7           Ti1 tau(   7) = (   3.2895655   2.9803496   9.1561551  )
         8           Ti1 tau(   8) = (   6.5792279   1.4901203   9.2542590  )
         9           O1  tau(   9) = (   3.2908496   0.0003861  11.3974292  )
        10           O1  tau(  10) = (   0.0009741   0.0005107  10.6121890  )
        11           O1  tau(  11) = (   1.2851668   1.4970119  12.6717501  )
        12           O1  tau(  12) = (   5.2960956   1.4969944  12.6716611  )
        13           Ti1 tau(  13) = (   0.0014209   2.9817635  12.4865077  )
        14           Ti1 tau(  14) = (   3.2920103   1.4923710  12.5431595  )
        15           O1  tau(  15) = (   0.0005111   0.0003601  14.6908606  )
        16           O1  tau(  16) = (   3.2907661   0.0003422  14.0280135  )
        17           O1  tau(  17) = (   4.5563287   1.5043111  16.1972802  )
        18           O1  tau(  18) = (   2.0238984   1.5042417  16.1969189  )
        19           Ti1 tau(  19) = (   3.2900530   2.9812534  15.7923096  )
        20           Ti1 tau(  20) = (   0.0002900   1.3462356  15.9516996  )
        21           O1  tau(  21) = (   3.2904802   0.0005063   4.7018136  )
        22           O1  tau(  22) = (   0.0005067   0.0002908  17.2230471  )
        23           O1  tau(  23) = (   1.3043587   1.4918075   6.0039043  )
        24           O1  tau(  24) = (   5.2767064   1.4903225   6.0039473  )
        25           Ti1 tau(  25) = (   0.0000382   5.9609847   6.0000000  )
        26           Ti1 tau(  26) = (   3.2902200   4.4714249   6.0002472  )
        27           O1  tau(  27) = (   0.0002396   2.9813036   7.9858123  )
        28           O1  tau(  28) = (   3.2902150   2.9813002   7.3038282  )
        29           O1  tau(  29) = (   4.5938453   4.4726049   9.2879030  )
        30           O1  tau(  30) = (   1.9864658   4.4711199   9.2879459  )
        31           Ti1 tau(  31) = (   3.2890184   5.9611387   9.1545655  )
        32           Ti1 tau(  32) = (   6.5788211   4.4731772   9.2541010  )
        33           O1  tau(  33) = (   3.2904314   2.9811918  11.3932170  )
        34           O1  tau(  34) = (   0.0006808   2.9813391  10.6259032  )
        35           O1  tau(  35) = (   1.2847872   4.4655815  12.6717948  )
        36           O1  tau(  36) = (   5.2956760   4.4653813  12.6716352  )
        37           Ti1 tau(  37) = (   0.0020938   0.0010105  12.4782417  )
        38           Ti1 tau(  38) = (   3.2917349   4.4701355  12.5431901  )
        39           O1  tau(  39) = (   0.0000992   2.9811129  15.0245885  )
        40           O1  tau(  40) = (   3.2903432   2.9811263  13.9978513  )
        41           O1  tau(  41) = (   4.5559250   4.4580163  16.1971803  )
        42           O1  tau(  42) = (   2.0234811   4.4579909  16.1969720  )
        43           Ti1 tau(  43) = (   3.2904469   0.0004528  15.8318627  )
        44           Ti1 tau(  44) = (   0.0000435   4.6159127  15.9515978  )
        45           O1  tau(  45) = (   3.3000926   2.9813045   4.7018136  )
        46           O1  tau(  46) = (   1.3039711   4.4726057   6.0039043  )
        47           O1  tau(  47) = (   5.2763189   4.4711207   6.0039473  )

     number of k points=    10  Fermi-Dirac smearing, width (Ry)=  0.0073
                       cart. coord. in units 2pi/alat
        k(    1) = (   0.0000000   0.0000000   0.0000000), wk =   0.0625000
        k(    2) = (   0.0000000   0.0419351   0.0000000), wk =   0.1250000
        k(    3) = (   0.0000000  -0.0838702   0.0000000), wk =   0.0625000
        k(    4) = (   0.0379955   0.0000049   0.0000000), wk =   0.1250000
        k(    5) = (   0.0379955   0.0419400   0.0000000), wk =   0.1250000
        k(    6) = (   0.0379955  -0.0838652   0.0000000), wk =   0.1250000
        k(    7) = (   0.0379955  -0.0419301   0.0000000), wk =   0.1250000
        k(    8) = (  -0.0759910  -0.0000099   0.0000000), wk =   0.0625000
        k(    9) = (  -0.0759910   0.0419252   0.0000000), wk =   0.1250000
        k(   10) = (  -0.0759910  -0.0838800   0.0000000), wk =   0.0625000

     Initial potential from superposition of free atoms

     starting charge  361.99925, renormalised to  378.00000

     negative rho (up, down):  1.184E-02 1.184E-02

     %%%%%%%%%%%%%%%%%%%%%%%%%%%%%%%%%%%%%%%%%%%%%%%%%%%%%%%%%%%%%%%%%%%%%%%%
     %                                                                      %
     % You are using vdW-DF, which was implemented by the Thonhauser group. %
     % Please cite the following two papers that made this development      %
     % possible and the two reviews that describe the various versions:     %
     %                                                                      %
     %   T. Thonhauser et al., PRL 115, 136402 (2015).                      %
     %   T. Thonhauser et al., PRB 76, 125112 (2007).                       %
     %   K. Berland et al., Rep. Prog. Phys. 78, 066501 (2015).             %
     %   D.C. Langreth et al., J. Phys.: Condens. Matter 21, 084203 (2009). %
     %                                                                      %
     %                                                                      %
     % If you are calculating the stress with vdW-DF, please also cite:     %
     %                                                                      %
     %   R. Sabatini et al., J. Phys.: Condens. Matter 24, 424209 (2012).   %
     %                                                                      %
     %%%%%%%%%%%%%%%%%%%%%%%%%%%%%%%%%%%%%%%%%%%%%%%%%%%%%%%%%%%%%%%%%%%%%%%%

     Adding external electric field

     Computed dipole along edir(3) :
        Dipole                1.1416 Ry au,          2.9015 Debye
        Dipole field          0.0022 Ry au,

        Potential amp.       -0.1997 Ry
        Total length         46.3494 bohr

[...]

     Starting wfcs are  284 atomic wfcs
  @ DRIVER MODE: Message from server: STATUS
  @ DRIVER MODE: Message from server: POSDATA
  @ DRIVER MODE: Reading and sharing cell
  @ DRIVER MODE: Reading and sharing positions
  @ DRIVER MODE: Received positions

     Self-consistent Calculation

     iteration #  1     ecut=    29.40 Ry     beta= 0.05
     Davidson diagonalization with overlap
     c_bands:  2 eigenvalues not converged
     c_bands:  3 eigenvalues not converged
     c_bands:  2 eigenvalues not converged
     c_bands:  3 eigenvalues not converged
     c_bands:  1 eigenvalues not converged
     c_bands:  2 eigenvalues not converged
     c_bands:  1 eigenvalues not converged
     c_bands:  1 eigenvalues not converged
     c_bands:  3 eigenvalues not converged
     c_bands:  2 eigenvalues not converged
     c_bands:  2 eigenvalues not converged
     c_bands:  3 eigenvalues not converged
     c_bands:  2 eigenvalues not converged
     c_bands:  3 eigenvalues not converged
     c_bands:  1 eigenvalues not converged
     c_bands:  2 eigenvalues not converged
     c_bands:  1 eigenvalues not converged
     c_bands:  1 eigenvalues not converged
     c_bands:  3 eigenvalues not converged
     c_bands:  2 eigenvalues not converged
     ethr =  1.00E-05,  avg # of iterations = 20.0

[...]

     total energy              =   -2885.09648746 Ry
     estimated scf accuracy    <      12.51177090 Ry

     total magnetization       =    -0.00 Bohr mag/cell
     absolute magnetization    =     0.00 Bohr mag/cell

     iteration #  2     ecut=    29.40 Ry     beta= 0.05
     Davidson diagonalization with overlap
     ethr =  3.31E-03,  avg # of iterations =  1.0

[...]

     iteration # 48     ecut=    29.40 Ry     beta= 0.05
     Davidson diagonalization with overlap
     c_bands:  1 eigenvalues not converged
     c_bands:  1 eigenvalues not converged
     ethr =  1.58E-09,  avg # of iterations =  9.6

[...]

     total energy              =   -2883.85322865 Ry
     estimated scf accuracy    <       0.00000016 Ry

[...]

     iteration # 56     ecut=    29.40 Ry     beta= 0.05
     Davidson diagonalization with overlap
     ethr =  4.17E-11,  avg # of iterations =  7.4

     negative rho (up, down):  1.071E-02 1.071E-02

[...]

     Adding external electric field

     Computed dipole along edir(3) :
        Dipole                0.5578 Ry au,          1.4179 Debye
        Dipole field          0.0011 Ry au,

        Potential amp.       -0.0976 Ry
        Total length         46.3494 bohr

     Magnetic moment per site  (integrated on atomic sphere of radius R)
     atom   1 (R=0.740)  charge=  8.0666  magn=  0.0000
     atom   2 (R=0.740)  charge=  8.0461  magn=  0.0000
     atom   3 (R=0.740)  charge=  5.0351  magn= -0.0000
     atom   4 (R=0.740)  charge=  5.0740  magn= -0.0000
     atom   5 (R=0.740)  charge=  5.0337  magn=  0.0000
     atom   6 (R=0.740)  charge=  5.0338  magn= -0.0000
     atom   7 (R=0.740)  charge=  8.0460  magn= -0.0000
     atom   8 (R=0.740)  charge=  8.0493  magn= -0.0000
     atom   9 (R=0.740)  charge=  5.0395  magn= -0.0000
     atom  10 (R=0.740)  charge=  5.0478  magn= -0.0000
     atom  11 (R=0.740)  charge=  5.0325  magn= -0.0000
     atom  12 (R=0.740)  charge=  5.0326  magn=  0.0000
     atom  13 (R=0.740)  charge=  8.0562  magn=  0.0000
     atom  14 (R=0.740)  charge=  8.0499  magn=  0.0000
     atom  15 (R=0.740)  charge=  5.0483  magn=  0.0000
     atom  16 (R=0.740)  charge=  5.0335  magn= -0.0000
     atom  17 (R=0.740)  charge=  5.0152  magn= -0.0000
     atom  18 (R=0.740)  charge=  5.0151  magn= -0.0000
     atom  19 (R=0.740)  charge=  8.0776  magn=  0.0000
     atom  20 (R=0.740)  charge=  8.0902  magn= -0.0000
     atom  21 (R=0.740)  charge=  4.9131  magn= -0.0000
     atom  22 (R=0.740)  charge=  4.9955  magn=  0.0000
     atom  23 (R=0.740)  charge=  5.0274  magn= -0.0000
     atom  24 (R=0.740)  charge=  5.0274  magn= -0.0000
     atom  25 (R=0.740)  charge=  8.0668  magn=  0.0000
     atom  26 (R=0.740)  charge=  8.0461  magn=  0.0000
     atom  27 (R=0.740)  charge=  5.0346  magn=  0.0000
     atom  28 (R=0.740)  charge=  5.0735  magn= -0.0000
     atom  29 (R=0.740)  charge=  5.0337  magn=  0.0000
     atom  30 (R=0.740)  charge=  5.0338  magn=  0.0000
     atom  31 (R=0.740)  charge=  8.0465  magn= -0.0000
     atom  32 (R=0.740)  charge=  8.0493  magn= -0.0000
     atom  33 (R=0.740)  charge=  5.0395  magn= -0.0000
     atom  34 (R=0.740)  charge=  5.0426  magn=  0.0000
     atom  35 (R=0.740)  charge=  5.0324  magn= -0.0000
     atom  36 (R=0.740)  charge=  5.0325  magn= -0.0000
     atom  37 (R=0.740)  charge=  8.0520  magn=  0.0000
     atom  38 (R=0.740)  charge=  8.0499  magn=  0.0000
     atom  39 (R=0.740)  charge=  5.0311  magn=  0.0000
     atom  40 (R=0.740)  charge=  5.0467  magn=  0.0000
     atom  41 (R=0.740)  charge=  5.0152  magn=  0.0000
     atom  42 (R=0.740)  charge=  5.0152  magn=  0.0000
     atom  43 (R=0.740)  charge=  8.0771  magn= -0.0000
     atom  44 (R=0.740)  charge=  8.0902  magn= -0.0000
     atom  45 (R=0.740)  charge=  4.9129  magn= -0.0000
     atom  46 (R=0.740)  charge=  5.0274  magn= -0.0000
     atom  47 (R=0.740)  charge=  5.0274  magn= -0.0000

     End of self-consistent calculation

 ------ SPIN UP ------------

          k = 0.0000 0.0000 0.0000 ( 18029 PWs)   bands (ev):

   -56.2744 -56.2385 -56.2235 -56.1893 -56.1548 -56.1415 -56.1128 -56.1069
   -56.0890 -56.0799 -56.0787 -56.0521 -56.0251 -56.0181 -55.3378 -55.3037
   -32.8365 -32.7911 -32.7258 -32.6264 -32.5854 -32.5800 -32.5766 -32.5667
   -32.5137 -32.5005 -32.4798 -32.4734 -32.4686 -32.4446 -32.4439 -32.4242
   -32.4119 -32.4105 -32.3977 -32.3883 -32.3759 -32.3751 -32.3723 -32.3708
   -32.3461 -32.3443 -32.3220 -32.2786 -32.2721 -32.2628 -32.2621 -32.2561
   -32.2502 -32.2407 -32.2401 -32.2351 -32.2306 -32.2098 -32.2006 -32.1850
   -32.1674 -32.1073 -31.7506 -31.6458 -31.6245 -31.5664 -31.4801 -31.3693
   -17.1056 -16.8831 -16.7405 -16.6043 -16.5023 -16.3990 -16.2753 -16.2247
   -16.1714 -16.0245 -15.9650 -15.9400 -15.9001 -15.8761 -15.8685 -15.8537
   -15.8304 -15.8143 -15.7938 -15.7854 -15.7696 -15.7689 -15.7207 -15.6683
   -15.5750 -15.5072 -15.4367 -15.3795 -15.0545 -13.8386 -13.7188  -4.4259
    -4.2909  -4.2165  -4.2015  -4.1502  -4.0399  -3.8194  -3.7957  -3.7301
    -3.5740  -3.5260  -3.4686  -3.4088  -3.3392  -3.2821  -3.2718  -3.1704
    -3.1455  -3.1411  -3.1351  -3.0531  -3.0507  -3.0286  -3.0018  -2.9628
    -2.8714  -2.7518  -2.7073  -2.6734  -2.6522  -2.6440  -2.6218  -2.5925
    -2.5604  -2.5263  -2.5250  -2.4896  -2.4476  -2.3238  -2.1764  -2.1324
    -2.0629  -1.9709  -1.8996  -1.8341  -1.7938  -1.7561  -1.7314  -1.6820
    -1.6510  -1.6186  -1.5411  -1.4521  -1.4101  -1.3063  -1.2901  -1.2225
    -1.1869  -1.1137  -1.0707  -1.0696  -1.0265  -0.9383  -0.9113  -0.7878
    -0.7603  -0.7521  -0.7399  -0.7302  -0.6200  -0.5168  -0.4859  -0.4786
    -0.4770  -0.3919  -0.3417  -0.3348  -0.3200  -0.3126  -0.2631  -0.1876
    -0.1470  -0.0960   0.0467   0.2733   0.2735   0.3389   0.5716   0.6421
     0.6885   0.8454   1.2743   1.3278   2.8235   2.8891   2.9203   2.9538
     2.9817   3.0299   3.3203   3.3341   3.3576   3.3854   3.4030

[...]

          k =-0.0760-0.0000 0.0000 ( 17886 PWs)   bands (ev):

[...]

 ------ SPIN DOWN ----------

[...]

          k = 0.0380-0.0419 0.0000 ( 17876 PWs)   bands (ev):

[...]

          k =-0.0760-0.0839 0.0000 ( 17948 PWs)   bands (ev):

   -56.2566 -56.2561 -56.2065 -56.2061 -56.1505 -56.1265 -56.1219 -56.0963
   -56.0949 -56.0840 -56.0825 -56.0353 -56.0349 -56.0315 -55.3207 -55.3207
   -32.7146 -32.6421 -32.6392 -32.5407 -32.5403 -32.5399 -32.5253 -32.4990
   -32.4990 -32.4721 -32.4683 -32.4679 -32.4617 -32.4192 -32.4170 -32.4162
   -32.4107 -32.4101 -32.3959 -32.3903 -32.3893 -32.3853 -32.3739 -32.3588
   -32.3554 -32.3525 -32.3507 -32.3463 -32.3243 -32.3239 -32.3190 -32.3145
   -32.2920 -32.2909 -32.2652 -32.2650 -32.2648 -32.2638 -32.2340 -32.2209
   -32.2206 -32.2121 -31.6370 -31.6370 -31.5632 -31.5631 -31.5233 -31.5232
   -16.8131 -16.4586 -16.4200 -16.3345 -16.3271 -16.2277 -16.2079 -16.1189
   -16.0776 -16.0535 -16.0529 -16.0001 -15.9804 -15.9599 -15.9571 -15.8947
   -15.8790 -15.8503 -15.8475 -15.7930 -15.7903 -15.7891 -15.7878 -15.7519
   -15.7489 -15.7103 -15.7071 -15.6050 -15.4380 -13.8197 -13.8196  -3.8298
    -3.7278  -3.6733  -3.5576  -3.4833  -3.4477  -3.4013  -3.3920  -3.3181
    -3.2745  -3.2701  -3.1879  -3.1765  -3.1762  -3.1630  -3.1010  -3.0864
    -3.0620  -3.0370  -3.0111  -2.9831  -2.9711  -2.9694  -2.9489  -2.9400
    -2.9204  -2.9182  -2.8888  -2.8640  -2.8419  -2.8258  -2.6655  -2.6613
    -2.5753  -2.5158  -2.5144  -2.4349  -2.4268  -2.3826  -2.3488  -2.2925
    -2.2533  -2.0972  -2.0757  -2.0735  -2.0071  -1.9808  -1.9123  -1.8541
    -1.8390  -1.7914  -1.7341  -1.6166  -1.5981  -1.5732  -1.4671  -1.4662
    -1.3918  -1.3173  -1.2734  -1.2679  -1.2646  -1.2359  -1.2312  -1.2291
    -1.1189  -1.0666  -1.0197  -1.0124  -0.9991  -0.7958  -0.7358  -0.7226
    -0.6097  -0.5566  -0.3726  -0.3667  -0.3254  -0.2108  -0.2083  -0.2078
    -0.1565  -0.0319  -0.0201   0.0473   0.0900   0.1031   0.1422   0.1437
     1.0369   1.0379   1.1458   1.1461   2.9945   3.0768   3.0823   3.1316
     3.2719   3.3231   3.3284   3.3744   3.3760   3.3793   3.4813

     the Fermi energy is     2.8891 ev

!    total energy              =   -2883.85328168 Ry
     estimated scf accuracy    <       0.00000005 Ry
     smearing contrib. (-TS)   =      -0.03660375 Ry
     internal energy E=F+TS    =   -2883.81667793 Ry

     The total energy is F=E-TS. E is the sum of the following terms:
     one-electron contribution =  -24914.68369822 Ry
     hartree contribution      =   12532.19539332 Ry
     xc contribution           =    -468.94591715 Ry
     ewald contribution        =    9967.61695688 Ry
     electric field correction =       0.00058724 Ry

     total magnetization       =     0.00 Bohr mag/cell
     absolute magnetization    =     0.00 Bohr mag/cell

     convergence has been achieved in  56 iterations

     Forces acting on atoms (cartesian axes, Ry/au):

     atom    1 type  1   force =    -0.00040618   -0.00000258    0.08982965
     atom    2 type  1   force =     0.00054270    0.00031150   -0.18454162
     atom    3 type  2   force =     0.00006923   -0.00000567   -0.02421542
     atom    4 type  2   force =     0.00019901   -0.00002138    0.05193324
     atom    5 type  2   force =    -0.01335397   -0.00027486    0.00586697
     atom    6 type  2   force =     0.01333226    0.00020486    0.00582572
     atom    7 type  1   force =    -0.00002091    0.00002138    0.00044566
     atom    8 type  1   force =     0.00001166    0.00042767    0.00040645
     atom    9 type  2   force =     0.00001894    0.00001667    0.00082501
     atom   10 type  2   force =    -0.00000249    0.00000656   -0.00042313
     atom   11 type  2   force =     0.00017471   -0.00023387    0.00049561
     atom   12 type  2   force =    -0.00020074   -0.00025391    0.00049473
     atom   13 type  1   force =    -0.00000523   -0.00000262   -0.00075272
     atom   14 type  1   force =     0.00003723   -0.00074137    0.00055897
     atom   15 type  2   force =    -0.00000348   -0.00001435   -0.00071993
     atom   16 type  2   force =     0.00001810    0.00001205    0.00014204
     atom   17 type  2   force =    -0.00003311    0.00023213    0.00002587
     atom   18 type  2   force =     0.00004673    0.00023078    0.00003199
     atom   19 type  1   force =    -0.00001823   -0.00000830   -0.00081895
     atom   20 type  1   force =     0.00003032    0.00012539   -0.00004399
     atom   21 type  2   force =    -0.00006899    0.00007557    0.10528511
     atom   22 type  2   force =    -0.00001618   -0.00000448    0.00050596
     atom   23 type  2   force =    -0.06709271    0.00005876   -0.02627213
     atom   24 type  2   force =     0.06793158   -0.00016795   -0.02577417
     atom   25 type  1   force =    -0.00036766    0.00000707    0.08890765
     atom   26 type  1   force =     0.00050807   -0.00040700   -0.18454965
     atom   27 type  2   force =     0.00004867   -0.00001920   -0.02315247
     atom   28 type  2   force =    -0.00023688   -0.00002061    0.05197925
     atom   29 type  2   force =    -0.01336134   -0.00026929    0.00586436
     atom   30 type  2   force =     0.01333552    0.00023123    0.00582431
     atom   31 type  1   force =    -0.00002883    0.00001424    0.00079112
     atom   32 type  1   force =    -0.00000097   -0.00041805    0.00041951
     atom   33 type  2   force =     0.00000532    0.00001075   -0.00033798
     atom   34 type  2   force =    -0.00001120    0.00000393    0.00008264
     atom   35 type  2   force =     0.00016827    0.00025785    0.00049423
     atom   36 type  2   force =    -0.00019378    0.00025588    0.00049953
     atom   37 type  1   force =     0.00000450   -0.00001757    0.00082609
     atom   38 type  1   force =     0.00002360    0.00076039    0.00054838
     atom   39 type  2   force =    -0.00001821   -0.00000024   -0.00042970
     atom   40 type  2   force =     0.00001468    0.00001332   -0.00049041
     atom   41 type  2   force =    -0.00003144   -0.00021989    0.00002333
     atom   42 type  2   force =     0.00005183   -0.00022866    0.00003129
     atom   43 type  1   force =    -0.00001258   -0.00000403    0.00039814
     atom   44 type  1   force =    -0.00003365   -0.00011401   -0.00004180
     atom   45 type  2   force =    -0.00189591    0.00007351    0.10524450
     atom   46 type  2   force =    -0.06709049   -0.00050444   -0.02626462
     atom   47 type  2   force =     0.06793221    0.00060283   -0.02577860

     Total force =     0.366846     Total SCF correction =     0.000571
  @ DRIVER MODE: Message from server: STATUS
  @ DRIVER MODE: Message from server: GETFORCE
  @ DRIVER MODE: Returning v,forces,stress,ensemble

     Writing output data file ./calc.save/
  @ DRIVER MODE: Message from server: EXIT
  @ DRIVE MODE: Exiting

     General routines

     Parallel routines

   This run was terminated on:   0:14:30  23Jul2021

   JOB DONE.