     Program PWSCF v.6.7GPU starts on 24Aug2021 at  9:51: 6

     R & G space division:  proc/nbgrp/npool/nimage =      72
     Reading input from /storage/home/hcoda1/3/ntian30/research/carbon/CH2_vib/ads_slab/CH2NH_a/out_0000/pw.inp
Warning: card &CELL ignored
Warning: card   CELL_DYNAMICS='IPI', ignored
Warning: card / ignored

     Current dimensions of program PWSCF are:
     Max number of different atomic species (ntypx) = 10
     Max number of k-points (npk) =  40000
     Max angular momentum in pseudopotentials (lmaxx) =  3
     Presently no symmetry can be used with electric field

     Message from routine cell_base_init:
     DEPRECATED: use true lattice parameter, not A to a.u. conversion factor

     IMPORTANT: XC functional enforced from input :
     Exchange-correlation= BEEF-VDW
                           (   1   4  43  14   2   0   0)
     Any further DFT definition will be discarded
     Please, verify this is what you really want

  @ DRIVER MODE: Connecting to
 qe_1139763_2641438.sched-torque.pace.gatech.eduak7az_dd_scratch
  using UNIX socket
  @ DRIVER MODE: Message from server: STATUS
  @ DRIVER MODE: Message from server: INIT
  @ DRIVER MODE: Receiving replica           0          -1
  @ DRIVER MODE: Receiving encoded integer          25
  @ DRIVER MODE:  SCF:  T  FORCE:  T  STRESS:  F  VC:  F  ENSEMBLE:  F
  @ DRIVER MODE:  SCF:  T  FORCE:  T  STRESS:  F  VC:  F  ENSEMBLE:  F

     Using Slab Decomposition

     bravais-lattice index     =            0
     lattice parameter (alat)  =       1.8897  a.u.
     unit-cell volume          =    6658.9804 (a.u.)^3
     number of atoms/cell      =           52
     number of atomic types    =            5
     number of electrons       =       390.00
     number of Kohn-Sham states=          205
     kinetic-energy cutoff     =      29.3995  Ry
     charge density cutoff     =     293.9946  Ry
     scf convergence threshold =      7.3E-08
     mixing beta               =       0.0500
     number of iterations used =            8  plain     mixing
     Exchange-correlation= BEEF-VDW
                           (   1   4  43  14   2   0   0)

     celldm(1)=   1.889726  celldm(2)=   0.000000  celldm(3)=   0.000000
     celldm(4)=   0.000000  celldm(5)=   0.000000  celldm(6)=   0.000000

     crystal axes: (cart. coord. in units of alat)
               a(1) = (   6.579727   0.000000   0.000000 )
               a(2) = (  -0.000775   5.961596   0.000000 )
               a(3) = (   0.000000   0.000000  25.155947 )

     reciprocal axes: (cart. coord. in units 2 pi/alat)
               b(1) = (  0.151982  0.000020  0.000000 )
               b(2) = (  0.000000  0.167740  0.000000 )
               b(3) = (  0.000000  0.000000  0.039752 )

     PseudoPot. # 1 for Ti read from file:
     /storage/coda1/p-amedford6/0/shared/rich_project_chbe-medford/medford-share/data/pseudos_module/espresso/nninc/pbe/van/Ti.UPF
     MD5 check sum: 8e4df49b7f0d34bbd5052bf3f5ea0213
     Pseudo is Ultrasoft, Zval = 12.0
     Generated by new atomic code, or converted to UPF format
     Using radial grid of  851 points,  6 beta functions with:
                l(1) =   0
                l(2) =   0
                l(3) =   1
                l(4) =   1
                l(5) =   2
                l(6) =   2
     Q(r) pseudized with  8 coefficients,  rinner =    1.000   1.000   1.000
                                                       1.000   1.000

     PseudoPot. # 2 for O  read from file:
     /storage/coda1/p-amedford6/0/shared/rich_project_chbe-medford/medford-share/data/pseudos_module/espresso/nninc/pbe/van/O.UPF
     MD5 check sum: 78c19812648e8988a0fe644b0f25305e
     Pseudo is Ultrasoft, Zval =  6.0
     Generated by new atomic code, or converted to UPF format
     Using radial grid of  737 points,  4 beta functions with:
                l(1) =   0
                l(2) =   0
                l(3) =   1
                l(4) =   1
     Q(r) pseudized with  8 coefficients,  rinner =    0.800   0.800   0.800

     PseudoPot. # 3 for N  read from file:
     /storage/coda1/p-amedford6/0/shared/rich_project_chbe-medford/medford-share/data/pseudos_module/espresso/nninc/pbe/van/N.UPF
     MD5 check sum: 90d10febe142ad51ac9d5be1deb811c4
     Pseudo is Ultrasoft, Zval =  5.0
     Generated by new atomic code, or converted to UPF format
     Using radial grid of  729 points,  4 beta functions with:
                l(1) =   0
                l(2) =   0
                l(3) =   1
                l(4) =   1
     Q(r) pseudized with  8 coefficients,  rinner =    0.800   0.800   0.800

     PseudoPot. # 4 for C  read from file:
     /storage/coda1/p-amedford6/0/shared/rich_project_chbe-medford/medford-share/data/pseudos_module/espresso/nninc/pbe/van/C.UPF
     MD5 check sum: 1a69bf6b8db32088f5b2163dbdb77a27
     Pseudo is Ultrasoft, Zval =  4.0
     Generated by new atomic code, or converted to UPF format
     Using radial grid of  721 points,  4 beta functions with:
                l(1) =   0
                l(2) =   0
                l(3) =   1
                l(4) =   1
     Q(r) pseudized with  8 coefficients,  rinner =    0.800   0.800   0.800

     PseudoPot. # 5 for H  read from file:
     /storage/coda1/p-amedford6/0/shared/rich_project_chbe-medford/medford-share/data/pseudos_module/espresso/nninc/pbe/van/H.UPF
     MD5 check sum: b5ee9d7bfd3a09ee7748110bda690ff7
     Pseudo is Ultrasoft, Zval =  1.0
     Generated by new atomic code, or converted to UPF format
     Using radial grid of  615 points,  1 beta functions with:
                l(1) =   0
     Q(r) pseudized with  8 coefficients,  rinner =    0.800

     atomic species   valence    mass     pseudopotential
        Ti1           12.00    47.86700     Ti( 1.00)
        O1             6.00    15.99900     O ( 1.00)
        N1             5.00    14.00700     N ( 1.00)
        C1             4.00    12.01100     C ( 1.00)
        H1             1.00     1.00800     H ( 1.00)

     No symmetry found

   Cartesian axes

     site n.     atom                  positions (alat units)
         1           Ti1 tau(   1) = (   0.0004258   2.9801865   6.0000000  )
         2           Ti1 tau(   2) = (   3.2906075   1.4906267   6.0002472  )
         3           O1  tau(   3) = (   0.0006271   0.0005054   7.9858123  )
         4           O1  tau(   4) = (   3.2906025   0.0005020   7.3038282  )
         5           O1  tau(   5) = (   4.5942328   1.4918067   9.2879030  )
         6           O1  tau(   6) = (   1.9868534   1.4903216   9.2879459  )
         7           Ti1 tau(   7) = (   3.2907910   2.8959150   9.1758416  )
         8           Ti1 tau(   8) = (   0.0015273   1.4827037   9.2680791  )
         9           O1  tau(   9) = (   3.2859541   5.9290403  11.3715426  )
        10           O1  tau(  10) = (   0.0116148   5.9584955  10.6183126  )
        11           O1  tau(  11) = (   1.2917987   1.4688796  12.6526629  )
        12           O1  tau(  12) = (   5.2888266   1.4686376  12.6403033  )
        13           Ti1 tau(  13) = (   0.0074927   2.9495069  12.5376589  )
        14           Ti1 tau(  14) = (   3.2957121   1.4606513  12.5174744  )
        15           O1  tau(  15) = (   6.5702453   0.0264740  14.6787910  )
        16           O1  tau(  16) = (   3.3001739   5.9406727  13.9930656  )
        17           O1  tau(  17) = (   4.5367710   1.4643441  16.2106543  )
        18           O1  tau(  18) = (   2.0349547   1.4576396  16.1973481  )
        19           Ti1 tau(  19) = (   3.2821410   2.9383233  15.7467721  )
        20           Ti1 tau(  20) = (   6.5624771   1.3975196  16.0657228  )
        21           O1  tau(  21) = (   3.2904802   0.0005063   4.7018136  )
        22           O1  tau(  22) = (   0.0049924   5.8117904  17.2112648  )
        23           O1  tau(  23) = (   1.3043587   1.4918075   6.0039043  )
        24           O1  tau(  24) = (   5.2767064   1.4903225   6.0039473  )
        25           Ti1 tau(  25) = (   0.0000382   5.9609847   6.0000000  )
        26           Ti1 tau(  26) = (   3.2902200   4.4714249   6.0002472  )
        27           O1  tau(  27) = (   0.0002396   2.9813036   7.9858123  )
        28           O1  tau(  28) = (   3.2902150   2.9813002   7.3038282  )
        29           O1  tau(  29) = (   4.5938453   4.4726049   9.2879030  )
        30           O1  tau(  30) = (   1.9864658   4.4711199   9.2879459  )
        31           Ti1 tau(  31) = (   3.2891106   5.8743827   9.1763621  )
        32           Ti1 tau(  32) = (   0.0006254   4.4649316   9.2693709  )
        33           O1  tau(  33) = (   3.2878059   2.9597088  11.3652031  )
        34           O1  tau(  34) = (   0.0092240   2.9805883  10.6323155  )
        35           O1  tau(  35) = (   1.2887225   4.4431869  12.6829221  )
        36           O1  tau(  36) = (   5.2901277   4.4428847  12.6690855  )
        37           Ti1 tau(  37) = (   0.0035388   5.9380168  12.5099366  )
        38           Ti1 tau(  38) = (   3.2962120   4.4389810  12.5267566  )
        39           O1  tau(  39) = (   6.5655450   2.9014274  14.9049457  )
        40           O1  tau(  40) = (   3.2937888   2.9365130  13.9572806  )
        41           O1  tau(  41) = (   4.5374039   4.4072578  16.1608974  )
        42           O1  tau(  42) = (   2.0345115   4.4188705  16.1151926  )
        43           Ti1 tau(  43) = (   3.2925710   5.9161036  15.7896908  )
        44           Ti1 tau(  44) = (   0.0121651   4.6006060  15.8502786  )
        45           O1  tau(  45) = (   3.2900926   2.9813045   4.7018136  )
        46           O1  tau(  46) = (   1.3039711   4.4726057   6.0039043  )
        47           O1  tau(  47) = (   5.2763189   4.4711207   6.0039473  )
        48           N1  tau(  48) = (   6.5581919   2.6818180  17.9522317  )
        49           C1  tau(  49) = (   0.8403426   2.5546117  18.8965076  )
        50           H1  tau(  50) = (   0.6793733   2.9585088  19.8916666  )
        51           H1  tau(  51) = (   1.7584391   2.0155774  18.6961775  )
        52           H1  tau(  52) = (   5.7198555   3.1867788  18.2393814  )

     number of k points=    10  Fermi-Dirac smearing, width (Ry)=  0.0073
                       cart. coord. in units 2pi/alat
        k(    1) = (   0.0000000   0.0000000   0.0000000), wk =   0.1250000
        k(    2) = (   0.0000000   0.0419351   0.0000000), wk =   0.2500000
        k(    3) = (   0.0000000  -0.0838702   0.0000000), wk =   0.1250000
        k(    4) = (   0.0379955   0.0000049   0.0000000), wk =   0.2500000
        k(    5) = (   0.0379955   0.0419400   0.0000000), wk =   0.2500000
        k(    6) = (   0.0379955  -0.0838652   0.0000000), wk =   0.2500000
        k(    7) = (   0.0379955  -0.0419301   0.0000000), wk =   0.2500000
        k(    8) = (  -0.0759910  -0.0000099   0.0000000), wk =   0.1250000
        k(    9) = (  -0.0759910   0.0419252   0.0000000), wk =   0.2500000
        k(   10) = (  -0.0759910  -0.0838800   0.0000000), wk =   0.1250000

     Initial potential from superposition of free atoms

     starting charge  373.99917, renormalised to  390.00000

     negative rho (up, down):  1.699E-02 0.000E+00

     %%%%%%%%%%%%%%%%%%%%%%%%%%%%%%%%%%%%%%%%%%%%%%%%%%%%%%%%%%%%%%%%%%%%%%%%
     %                                                                      %
     % You are using vdW-DF, which was implemented by the Thonhauser group. %
     % Please cite the following two papers that made this development      %
     % possible and the two reviews that describe the various versions:     %
     %                                                                      %
     %   T. Thonhauser et al., PRL 115, 136402 (2015).                      %
     %   T. Thonhauser et al., PRB 76, 125112 (2007).                       %
     %   K. Berland et al., Rep. Prog. Phys. 78, 066501 (2015).             %
     %   D.C. Langreth et al., J. Phys.: Condens. Matter 21, 084203 (2009). %
     %                                                                      %
     %                                                                      %
     % If you are calculating the stress with vdW-DF, please also cite:     %
     %                                                                      %
     %   R. Sabatini et al., J. Phys.: Condens. Matter 24, 424209 (2012).   %
     %                                                                      %
     %%%%%%%%%%%%%%%%%%%%%%%%%%%%%%%%%%%%%%%%%%%%%%%%%%%%%%%%%%%%%%%%%%%%%%%%

     Adding external electric field

     Computed dipole along edir(3) :
        Dipole               -6.0480 Ry au,        -15.3725 Debye
        Dipole field         -0.0114 Ry au,

        Potential amp.        1.0580 Ry
        Total length         46.3494 bohr

     Starting wfcs are  295 atomic wfcs
  @ DRIVER MODE: Message from server: STATUS
  @ DRIVER MODE: Message from server: POSDATA
  @ DRIVER MODE: Reading and sharing cell
  @ DRIVER MODE: Reading and sharing positions
  @ DRIVER MODE: Received positions

     Self-consistent Calculation

     iteration #  1     ecut=    29.40 Ry     beta= 0.05
     Davidson diagonalization with overlap
     ethr =  1.00E-02,  avg # of iterations =  2.2

[...]

     total energy              =   -2762.23019047 Ry
     estimated scf accuracy    <    1720.43244181 Ry

     iteration #  2     ecut=    29.40 Ry     beta= 0.05
     Davidson diagonalization with overlap
     c_bands:  1 eigenvalues not converged
     ethr =  1.00E-02,  avg # of iterations = 18.7

[...]

     iteration # 66     ecut=    29.40 Ry     beta= 0.05
     Davidson diagonalization with overlap
     ethr =  6.91E-11,  avg # of iterations =  9.0

[...]

     total energy              =   -2919.11588217 Ry
     estimated scf accuracy    <       0.00000009 Ry

     iteration # 67     ecut=    29.40 Ry     beta= 0.05
     Davidson diagonalization with overlap
     c_bands:  1 eigenvalues not converged
     ethr =  2.34E-11,  avg # of iterations = 12.4

     negative rho (up, down):  1.721E-02 0.000E+00

     Adding external electric field

     Computed dipole along edir(3) :
        Dipole                1.2604 Ry au,          3.2035 Debye
        Dipole field          0.0024 Ry au,

        Potential amp.       -0.2205 Ry
        Total length         46.3494 bohr

     End of self-consistent calculation

          k = 0.0000 0.0000 0.0000 ( 18029 PWs)   bands (ev):

   -55.5455 -55.5087 -55.5072 -55.4731 -55.4376 -55.4208 -55.3833 -55.3606
   -55.3604 -55.3355 -55.3259 -55.3124 -55.3021 -55.1298 -54.5277 -54.4937
   -32.1121 -31.9982 -31.9083 -31.8667 -31.8603 -31.8497 -31.8403 -31.8354
   -31.7969 -31.7852 -31.7537 -31.7520 -31.7516 -31.7163 -31.6987 -31.6807
   -31.6754 -31.6676 -31.6615 -31.6576 -31.6196 -31.6162 -31.6009 -31.5905
   -31.5642 -31.5623 -31.5608 -31.5525 -31.5477 -31.5420 -31.5319 -31.5236
   -31.5137 -31.5130 -31.5094 -31.4817 -31.4747 -31.4684 -31.4641 -31.4453
   -31.3534 -31.2710 -30.9367 -30.8436 -30.8215 -30.7533 -30.6665 -30.5554
   -16.5482 -16.3412 -16.0751 -15.8983 -15.7946 -15.7343 -15.5979 -15.5220
   -15.4443 -15.3419 -15.2513 -15.1847 -15.1685 -15.1479 -15.1431 -15.0823
   -15.0788 -15.0544 -15.0373 -15.0358 -14.9814 -14.9739 -14.9422 -14.9300
   -14.9192 -14.8462 -14.7627 -14.6939 -14.6336 -14.2064 -13.0303 -12.9130
    -9.3069  -6.2696  -4.6881  -3.6999  -3.5467  -3.4524  -3.4412  -3.4193
    -3.2711  -3.1331  -2.9271  -2.8464  -2.8002  -2.7508  -2.7228  -2.7051
    -2.6204  -2.5200  -2.4448  -2.4003  -2.3753  -2.3622  -2.3513  -2.3241
    -2.3123  -2.2788  -2.2397  -2.1982  -2.0937  -2.0058  -1.9649  -1.9299
    -1.8732  -1.8620  -1.8354  -1.8291  -1.8225  -1.8009  -1.7624  -1.7523
    -1.7052  -1.5653  -1.5528  -1.4350  -1.3979  -1.2849  -1.1847  -1.1795
    -1.0929  -1.0899  -1.0213  -0.9671  -0.9366  -0.9284  -0.8777  -0.8295
    -0.7401  -0.6469  -0.5853  -0.5434  -0.5086  -0.4795  -0.4122  -0.3212
    -0.3159  -0.3055  -0.2029  -0.1240  -0.1017  -0.0487  -0.0166   0.0266
     0.0427   0.1531   0.1959   0.2374   0.2556   0.3344   0.3561   0.4117
     0.4169   0.4521   0.4611   0.5271   0.5744   0.5938   0.6437   0.6627
     0.8209   1.0737   1.0808   1.1284   1.4039   1.4339   1.4949   1.6798
     2.0703   2.1180   3.5542   3.6266   3.6917   3.7045   3.7460   3.7911
     3.9583   4.0390   4.0553   4.0597   4.0912

[...]

          k = 0.0380-0.0419 0.0000 ( 17876 PWs)   bands (ev):

[...]

          k =-0.0760-0.0000 0.0000 ( 17886 PWs)   bands (ev):

[...]

          k =-0.0760-0.0839 0.0000 ( 17948 PWs)   bands (ev):

   -55.5309 -55.5231 -55.4902 -55.4900 -55.4335 -55.4097 -55.3945 -55.3645
   -55.3442 -55.3415 -55.3194 -55.3186 -55.3107 -55.1314 -54.5107 -54.5106
   -31.9185 -31.9133 -31.8293 -31.8134 -31.8131 -31.8047 -31.7824 -31.7821
   -31.7585 -31.7520 -31.7448 -31.7430 -31.7377 -31.6995 -31.6778 -31.6745
   -31.6705 -31.6661 -31.6624 -31.6576 -31.6529 -31.6336 -31.6196 -31.6191
   -31.6096 -31.6095 -31.6068 -31.5897 -31.5770 -31.5740 -31.5636 -31.5576
   -31.5549 -31.5537 -31.5440 -31.5438 -31.5110 -31.4989 -31.4981 -31.4862
   -31.3582 -31.3524 -30.8342 -30.8341 -30.7492 -30.7492 -30.7100 -30.7098
   -16.5251 -15.7797 -15.7459 -15.7302 -15.5266 -15.5183 -15.5103 -15.4924
   -15.3321 -15.3183 -15.2917 -15.2757 -15.2439 -15.2404 -15.2102 -15.1773
   -15.1245 -15.1200 -15.1117 -15.1094 -15.0496 -15.0453 -15.0251 -14.9964
   -14.9945 -14.9884 -14.8935 -14.8916 -14.7193 -14.5263 -13.0146 -13.0144
    -9.3112  -6.2654  -4.6704  -3.0547  -2.9934  -2.9331  -2.7361  -2.7325
    -2.7017  -2.6196  -2.5501  -2.5391  -2.5117  -2.4834  -2.4809  -2.4325
    -2.3882  -2.3784  -2.3672  -2.3600  -2.3416  -2.3277  -2.2985  -2.2620
    -2.2531  -2.2224  -2.2086  -2.1838  -2.1820  -2.1456  -2.1219  -2.1075
    -2.0958  -2.0340  -1.9328  -1.8806  -1.7944  -1.7680  -1.7391  -1.7331
    -1.6510  -1.6243  -1.5970  -1.5565  -1.5440  -1.5100  -1.3069  -1.2771
    -1.2677  -1.2538  -1.2304  -1.0802  -1.0708  -1.0207  -0.9895  -0.9419
    -0.8844  -0.8486  -0.8340  -0.7522  -0.7210  -0.6769  -0.6377  -0.5147
    -0.5106  -0.5034  -0.5019  -0.4839  -0.3974  -0.3855  -0.3425  -0.3091
    -0.2681  -0.2539  -0.1888  -0.0068   0.0101   0.0761   0.1831   0.2774
     0.3717   0.4509   0.4711   0.5220   0.5648   0.5851   0.6642   0.7573
     0.7692   0.8374   0.8833   0.9245   0.9287   0.9338   1.8528   1.8533
     1.9379   1.9382   3.6774   3.8022   3.8228   3.8607   3.8789   4.0280
     4.0739   4.1116   4.1338   4.1358   4.2178

     the Fermi energy is     3.6096 ev

!    total energy              =   -2919.11590561 Ry
     estimated scf accuracy    <       0.00000006 Ry
     smearing contrib. (-TS)   =      -0.03731758 Ry
     internal energy E=F+TS    =   -2919.07858803 Ry

     The total energy is F=E-TS. E is the sum of the following terms:
     one-electron contribution =  -24307.26481261 Ry
     hartree contribution      =   12241.04099328 Ry
     xc contribution           =    -480.01523687 Ry
     ewald contribution        =    9627.15747048 Ry
     electric field correction =       0.00299768 Ry

     convergence has been achieved in  67 iterations

     Forces acting on atoms (cartesian axes, Ry/au):

     atom    1 type  1   force =     0.00004799   -0.00015539    0.09380486
     atom    2 type  1   force =    -0.00017981   -0.00019689   -0.17779953
     atom    3 type  2   force =     0.00002605   -0.00021542   -0.02113320
     atom    4 type  2   force =    -0.00001592   -0.00198585    0.05775870
     atom    5 type  2   force =    -0.01108164   -0.00164804    0.00749046
     atom    6 type  2   force =     0.01244492   -0.00098227    0.00637332
     atom    7 type  1   force =    -0.00048027    0.00246877   -0.01334900
     atom    8 type  1   force =     0.00030315    0.00293588    0.00274284
     atom    9 type  2   force =     0.00007545   -0.00007942    0.00012012
     atom   10 type  2   force =    -0.00176332   -0.00227088   -0.00368379
     atom   11 type  2   force =     0.00016788    0.00059825   -0.00028668
     atom   12 type  2   force =     0.00044234    0.00053471   -0.00010455
     atom   13 type  1   force =    -0.00072070   -0.00094565   -0.00030962
     atom   14 type  1   force =     0.00082615    0.00027016   -0.00050115
     atom   15 type  2   force =     0.00025955    0.00018916   -0.00007115
     atom   16 type  2   force =    -0.00008159    0.00034222   -0.00063591
     atom   17 type  2   force =     0.00003072    0.00010285    0.00030332
     atom   18 type  2   force =     0.00053681    0.00000264    0.00020536
     atom   19 type  1   force =     0.00025311   -0.00095781    0.00038156
     atom   20 type  1   force =    -0.00010365    0.00054392    0.00042905
     atom   21 type  2   force =     0.00004454   -0.00002200    0.10383872
     atom   22 type  2   force =     0.00002163   -0.00066159    0.00008513
     atom   23 type  2   force =    -0.07058097   -0.00014535   -0.02706820
     atom   24 type  2   force =     0.07045837    0.00031958   -0.02711375
     atom   25 type  1   force =     0.00008618   -0.00018500    0.09360499
     atom   26 type  1   force =    -0.00009622   -0.00026422   -0.17784001
     atom   27 type  2   force =     0.00008321   -0.00045640   -0.02016117
     atom   28 type  2   force =     0.00002597   -0.00169486    0.05725286
     atom   29 type  2   force =    -0.01117540   -0.00114753    0.00695177
     atom   30 type  2   force =     0.01242713   -0.00080446    0.00581466
     atom   31 type  1   force =    -0.00039286    0.00467348   -0.01442640
     atom   32 type  1   force =     0.00037223   -0.00361841    0.00246252
     atom   33 type  2   force =    -0.00000411    0.00057715    0.00037807
     atom   34 type  2   force =    -0.00117826   -0.00059316   -0.00106035
     atom   35 type  2   force =     0.00039307    0.00025632    0.00020649
     atom   36 type  2   force =     0.00014065    0.00032806    0.00017641
     atom   37 type  1   force =    -0.00053273    0.00131580    0.00009611
     atom   38 type  1   force =     0.00087048    0.00007013   -0.00086442
     atom   39 type  2   force =     0.00012839    0.00046567    0.00027643
     atom   40 type  2   force =     0.00017872    0.00020198   -0.00055105
     atom   41 type  2   force =     0.00023783    0.00009380   -0.00070147
     atom   42 type  2   force =    -0.00009569    0.00005704   -0.00073213
     atom   43 type  1   force =     0.00000237    0.00105615    0.00014063
     atom   44 type  1   force =    -0.00015408    0.00029053   -0.00061908
     atom   45 type  2   force =     0.00004508   -0.00004106    0.10379910
     atom   46 type  2   force =    -0.07060227   -0.00006684   -0.02706071
     atom   47 type  2   force =     0.07047913    0.00034918   -0.02709185
     atom   48 type  3   force =    -0.00077090   -0.00054927   -0.00119189
     atom   49 type  4   force =    -0.00124392    0.00031535   -0.00012910
     atom   50 type  5   force =    -0.00022495    0.00128038    0.00032953
     atom   51 type  5   force =    -0.00010238    0.00003925    0.00037584
     atom   52 type  5   force =     0.00017255    0.00000941   -0.00091268

     Total force =     0.365926     Total SCF correction =     0.000621
  @ DRIVER MODE: Message from server: STATUS
  @ DRIVER MODE: Message from server: GETFORCE
  @ DRIVER MODE: Returning v,forces,stress,ensemble

     Writing output data file ./calc.save/
  @ DRIVER MODE: Message from server: EXIT
  @ DRIVE MODE: Exiting

     General routines

     Parallel routines

   This run was terminated on:  10: 5:54  24Aug2021

   JOB DONE.