     Program PWSCF v.6.7GPU starts on 16Sep2021 at  3:13:40

     R & G space division:  proc/nbgrp/npool/nimage =      10
     Reading input from /storage/home/hcoda1/3/ntian30/research/carbon/CxH_vib/H2O_calc/ads_slab/CH3NH2O_a/out_0038/pw.inp
Warning: card &CELL ignored
Warning: card   CELL_DYNAMICS='IPI', ignored
Warning: card / ignored

     Current dimensions of program PWSCF are:
     Max number of different atomic species (ntypx) = 10
     Max number of k-points (npk) =  40000
     Max angular momentum in pseudopotentials (lmaxx) =  3
     Presently no symmetry can be used with electric field

     Message from routine cell_base_init:
     DEPRECATED: use true lattice parameter, not A to a.u. conversion factor

     IMPORTANT: XC functional enforced from input :
     Exchange-correlation= BEEF-VDW
                           (   1   4  43  14   2   0   0)
     Any further DFT definition will be discarded
     Please, verify this is what you really want

  @ DRIVER MODE: Connecting to
 qe_1139763_2852618.sched-torque.pace.gatech.edusm3ote18_scratch
  using UNIX socket
  @ DRIVER MODE: Message from server: STATUS
  @ DRIVER MODE: Message from server: INIT
  @ DRIVER MODE: Receiving replica           0          -1
  @ DRIVER MODE: Receiving encoded integer          25
  @ DRIVER MODE:  SCF:  T  FORCE:  T  STRESS:  F  VC:  F  ENSEMBLE:  F
  @ DRIVER MODE:  SCF:  T  FORCE:  T  STRESS:  F  VC:  F  ENSEMBLE:  F

     Using Slab Decomposition

     bravais-lattice index     =            0
     lattice parameter (alat)  =       1.8897  a.u.
     unit-cell volume          =    6658.9804 (a.u.)^3
     number of atoms/cell      =           55
     number of atomic types    =            5
     number of electrons       =       398.00
     number of Kohn-Sham states=          209
     kinetic-energy cutoff     =      29.3995  Ry
     charge density cutoff     =     293.9946  Ry
     scf convergence threshold =      7.3E-08
     mixing beta               =       0.0500
     number of iterations used =            8  plain     mixing
     Exchange-correlation= BEEF-VDW
                           (   1   4  43  14   2   0   0)

     celldm(1)=   1.889726  celldm(2)=   0.000000  celldm(3)=   0.000000
     celldm(4)=   0.000000  celldm(5)=   0.000000  celldm(6)=   0.000000

     crystal axes: (cart. coord. in units of alat)
               a(1) = (   6.579727   0.000000   0.000000 )
               a(2) = (  -0.000775   5.961596   0.000000 )
               a(3) = (   0.000000   0.000000  25.155947 )

     reciprocal axes: (cart. coord. in units 2 pi/alat)
               b(1) = (  0.151982  0.000020  0.000000 )
               b(2) = (  0.000000  0.167740  0.000000 )
               b(3) = (  0.000000  0.000000  0.039752 )

     PseudoPot. # 1 for Ti read from file:
     /storage/coda1/p-amedford6/0/shared/rich_project_chbe-medford/medford-share/data/pseudos_module/espresso/nninc/pbe/van/Ti.UPF
     MD5 check sum: 8e4df49b7f0d34bbd5052bf3f5ea0213
     Pseudo is Ultrasoft, Zval = 12.0
     Generated by new atomic code, or converted to UPF format
     Using radial grid of  851 points,  6 beta functions with:
                l(1) =   0
                l(2) =   0
                l(3) =   1
                l(4) =   1
                l(5) =   2
                l(6) =   2
     Q(r) pseudized with  8 coefficients,  rinner =    1.000   1.000   1.000
                                                       1.000   1.000

     PseudoPot. # 2 for O  read from file:
     /storage/coda1/p-amedford6/0/shared/rich_project_chbe-medford/medford-share/data/pseudos_module/espresso/nninc/pbe/van/O.UPF
     MD5 check sum: 78c19812648e8988a0fe644b0f25305e
     Pseudo is Ultrasoft, Zval =  6.0
     Generated by new atomic code, or converted to UPF format
     Using radial grid of  737 points,  4 beta functions with:
                l(1) =   0
                l(2) =   0
                l(3) =   1
                l(4) =   1
     Q(r) pseudized with  8 coefficients,  rinner =    0.800   0.800   0.800

     PseudoPot. # 3 for N  read from file:
     /storage/coda1/p-amedford6/0/shared/rich_project_chbe-medford/medford-share/data/pseudos_module/espresso/nninc/pbe/van/N.UPF
     MD5 check sum: 90d10febe142ad51ac9d5be1deb811c4
     Pseudo is Ultrasoft, Zval =  5.0
     Generated by new atomic code, or converted to UPF format
     Using radial grid of  729 points,  4 beta functions with:
                l(1) =   0
                l(2) =   0
                l(3) =   1
                l(4) =   1
     Q(r) pseudized with  8 coefficients,  rinner =    0.800   0.800   0.800

     PseudoPot. # 4 for C  read from file:
     /storage/coda1/p-amedford6/0/shared/rich_project_chbe-medford/medford-share/data/pseudos_module/espresso/nninc/pbe/van/C.UPF
     MD5 check sum: 1a69bf6b8db32088f5b2163dbdb77a27
     Pseudo is Ultrasoft, Zval =  4.0
     Generated by new atomic code, or converted to UPF format
     Using radial grid of  721 points,  4 beta functions with:
                l(1) =   0
                l(2) =   0
                l(3) =   1
                l(4) =   1
     Q(r) pseudized with  8 coefficients,  rinner =    0.800   0.800   0.800

     PseudoPot. # 5 for H  read from file:
     /storage/coda1/p-amedford6/0/shared/rich_project_chbe-medford/medford-share/data/pseudos_module/espresso/nninc/pbe/van/H.UPF
     MD5 check sum: b5ee9d7bfd3a09ee7748110bda690ff7
     Pseudo is Ultrasoft, Zval =  1.0
     Generated by new atomic code, or converted to UPF format
     Using radial grid of  615 points,  1 beta functions with:
                l(1) =   0
     Q(r) pseudized with  8 coefficients,  rinner =    0.800

     atomic species   valence    mass     pseudopotential
        Ti1           12.00    47.86700     Ti( 1.00)
        O1             6.00    15.99900     O ( 1.00)
        N1             5.00    14.00700     N ( 1.00)
        C1             4.00    12.01100     C ( 1.00)
        H1             1.00     1.00800     H ( 1.00)

     No symmetry found

   Cartesian axes

     site n.     atom                  positions (alat units)
         1           Ti1 tau(   1) = (   0.0004258   2.9801865   6.0000000  )
         2           Ti1 tau(   2) = (   3.2906075   1.4906267   6.0002472  )
         3           O1  tau(   3) = (   0.0006271   0.0005054   7.9858123  )
         4           O1  tau(   4) = (   3.2906025   0.0005020   7.3038282  )
         5           O1  tau(   5) = (   4.5942328   1.4918067   9.2879030  )
         6           O1  tau(   6) = (   1.9868534   1.4903216   9.2879459  )
         7           Ti1 tau(   7) = (   3.2907910   2.8959150   9.1758416  )
         8           Ti1 tau(   8) = (   0.0015273   1.4827037   9.2680791  )
         9           O1  tau(   9) = (   3.2951577   0.0167633  11.2896499  )
        10           O1  tau(  10) = (   0.0116148   5.9584955  10.6183126  )
        11           O1  tau(  11) = (   1.3222759   1.5071707  12.6129440  )
        12           O1  tau(  12) = (   5.3060066   1.5095485  12.6267335  )
        13           Ti1 tau(  13) = (   6.4824898   3.0013615  12.7357613  )
        14           Ti1 tau(  14) = (   3.1735365   1.4973312  12.4739500  )
        15           O1  tau(  15) = (   0.0245190   0.0017265  14.5963640  )
        16           O1  tau(  16) = (   3.2983568   0.0259644  13.8884976  )
        17           O1  tau(  17) = (   4.5535709   1.5599051  15.9919625  )
        18           O1  tau(  18) = (   2.0723989   1.5598234  15.9883263  )
        19           Ti1 tau(  19) = (   3.3263631   3.0313633  15.6478355  )
        20           Ti1 tau(  20) = (   0.0083359   1.6222165  16.0589653  )
        21           O1  tau(  21) = (   3.2904802   0.0005063   4.7018136  )
        22           O1  tau(  22) = (   0.0206953   0.0548308  17.2083480  )
        23           O1  tau(  23) = (   1.3043587   1.4918075   6.0039043  )
        24           O1  tau(  24) = (   5.2767064   1.4903225   6.0039473  )
        25           Ti1 tau(  25) = (   0.0000382   5.9609847   6.0000000  )
        26           Ti1 tau(  26) = (   3.2902200   4.4714249   6.0002472  )
        27           O1  tau(  27) = (   0.0002396   2.9813036   7.9858123  )
        28           O1  tau(  28) = (   3.2902150   2.9813002   7.3038282  )
        29           O1  tau(  29) = (   4.5938453   4.4726049   9.2879030  )
        30           O1  tau(  30) = (   1.9864658   4.4711199   9.2879459  )
        31           Ti1 tau(  31) = (   3.2891106   5.8743827   9.1763621  )
        32           Ti1 tau(  32) = (   0.0006254   4.4649316   9.2693709  )
        33           O1  tau(  33) = (   3.2909539   2.9954008  11.2901670  )
        34           O1  tau(  34) = (   0.0092240   2.9805883  10.6323155  )
        35           O1  tau(  35) = (   1.3211080   4.4795309  12.6092917  )
        36           O1  tau(  36) = (   5.3058445   4.4798052  12.6251394  )
        37           Ti1 tau(  37) = (   6.5140999   0.0198189  12.7603067  )
        38           Ti1 tau(  38) = (   3.1705570   4.4938763  12.4677136  )
        39           O1  tau(  39) = (   0.0016069   2.9863809  14.6467327  )
        40           O1  tau(  40) = (   3.3112668   3.0122049  13.8485686  )
        41           O1  tau(  41) = (   4.5534170   4.5051619  16.0179686  )
        42           O1  tau(  42) = (   2.0797414   4.5084034  16.0201905  )
        43           Ti1 tau(  43) = (   3.2815144   0.0627375  15.7417980  )
        44           Ti1 tau(  44) = (   0.0076503   4.5954094  16.1032789  )
        45           O1  tau(  45) = (   3.2900926   2.9813045   4.7018136  )
        46           O1  tau(  46) = (   1.3039711   4.4726057   6.0039043  )
        47           O1  tau(  47) = (   5.2763189   4.4711207   6.0039473  )
        48           N1  tau(  48) = (   0.0651939   3.0276870  17.3150544  )
        49           C1  tau(  49) = (   0.3375872   3.0185870  18.7284822  )
        50           H1  tau(  50) = (   0.4544735   4.0311245  19.1352477  )
        51           H1  tau(  51) = (   6.1015407   2.5302758  19.2785169  )
        52           H1  tau(  52) = (   1.2508204   2.4494767  18.9518403  )
        53           O1  tau(  53) = (   3.3357083   0.1159715  18.1615364  )
        54           H1  tau(  54) = (   4.1614219   5.6051498  18.3929375  )
        55           H1  tau(  55) = (   2.5926282   5.5337384  18.4710493  )

     number of k points=    10  Fermi-Dirac smearing, width (Ry)=  0.0073
                       cart. coord. in units 2pi/alat
        k(    1) = (   0.0000000   0.0000000   0.0000000), wk =   0.1250000
        k(    2) = (   0.0000000   0.0419351   0.0000000), wk =   0.2500000
        k(    3) = (   0.0000000  -0.0838702   0.0000000), wk =   0.1250000
        k(    4) = (   0.0379955   0.0000049   0.0000000), wk =   0.2500000
        k(    5) = (   0.0379955   0.0419400   0.0000000), wk =   0.2500000
        k(    6) = (   0.0379955  -0.0838652   0.0000000), wk =   0.2500000
        k(    7) = (   0.0379955  -0.0419301   0.0000000), wk =   0.2500000
        k(    8) = (  -0.0759910  -0.0000099   0.0000000), wk =   0.1250000
        k(    9) = (  -0.0759910   0.0419252   0.0000000), wk =   0.2500000
        k(   10) = (  -0.0759910  -0.0838800   0.0000000), wk =   0.1250000

     Initial potential from superposition of free atoms

     starting charge  381.99915, renormalised to  398.00000

     negative rho (up, down):  1.656E-02 0.000E+00

     %%%%%%%%%%%%%%%%%%%%%%%%%%%%%%%%%%%%%%%%%%%%%%%%%%%%%%%%%%%%%%%%%%%%%%%%
     %                                                                      %
     % You are using vdW-DF, which was implemented by the Thonhauser group. %
     % Please cite the following two papers that made this development      %
     % possible and the two reviews that describe the various versions:     %
     %                                                                      %
     %   T. Thonhauser et al., PRL 115, 136402 (2015).                      %
     %   T. Thonhauser et al., PRB 76, 125112 (2007).                       %
     %   K. Berland et al., Rep. Prog. Phys. 78, 066501 (2015).             %
     %   D.C. Langreth et al., J. Phys.: Condens. Matter 21, 084203 (2009). %
     %                                                                      %
     %                                                                      %
     % If you are calculating the stress with vdW-DF, please also cite:     %
     %                                                                      %
     %   R. Sabatini et al., J. Phys.: Condens. Matter 24, 424209 (2012).   %
     %                                                                      %
     %%%%%%%%%%%%%%%%%%%%%%%%%%%%%%%%%%%%%%%%%%%%%%%%%%%%%%%%%%%%%%%%%%%%%%%%

     Adding external electric field

     Computed dipole along edir(3) :
        Dipole               -9.1079 Ry au,        -23.1500 Debye
        Dipole field         -0.0172 Ry au,

        Potential amp.        1.5933 Ry
        Total length         46.3494 bohr

     Starting wfcs are  301 atomic wfcs
  @ DRIVER MODE: Message from server: STATUS
  @ DRIVER MODE: Message from server: POSDATA
  @ DRIVER MODE: Reading and sharing cell
  @ DRIVER MODE: Reading and sharing positions
  @ DRIVER MODE: Received positions

     Self-consistent Calculation

     iteration #  1     ecut=    29.40 Ry     beta= 0.05
     Davidson diagonalization with overlap
     c_bands:  1 eigenvalues not converged
     c_bands:  1 eigenvalues not converged
     c_bands:  1 eigenvalues not converged
     c_bands:  1 eigenvalues not converged
     c_bands:  1 eigenvalues not converged
     c_bands:  1 eigenvalues not converged
     c_bands:  1 eigenvalues not converged
     c_bands:  2 eigenvalues not converged
     ethr =  1.00E-05,  avg # of iterations = 19.6

[...]

     total energy              =   -2564.53942881 Ry
     estimated scf accuracy    <    4317.21478540 Ry

     iteration #  2     ecut=    29.40 Ry     beta= 0.05
     Davidson diagonalization with overlap
     ethr =  1.00E-02,  avg # of iterations = 23.2

[...]

     iteration # 39     ecut=    29.40 Ry     beta= 0.05
     Davidson diagonalization with overlap
     c_bands:  1 eigenvalues not converged
     ethr =  8.84E-07,  avg # of iterations =  6.7

[...]

     total energy              =   -2953.97097118 Ry
     estimated scf accuracy    <       0.00000009 Ry

     iteration # 68     ecut=    29.40 Ry     beta= 0.05
     Davidson diagonalization with overlap
     ethr =  2.29E-11,  avg # of iterations =  5.3

     negative rho (up, down):  1.668E-02 0.000E+00

     Adding external electric field

     Computed dipole along edir(3) :
        Dipole                0.5294 Ry au,          1.3455 Debye
        Dipole field          0.0010 Ry au,

        Potential amp.       -0.0926 Ry
        Total length         46.3494 bohr

     End of self-consistent calculation

          k = 0.0000 0.0000 0.0000 ( 18029 PWs)   bands (ev):

   -56.5947 -56.5611 -55.7123 -55.6784 -55.6681 -55.6333 -55.4920 -55.4558
   -55.3606 -55.2431 -55.2295 -55.2276 -55.2091 -55.1321 -54.7262 -54.6767
   -33.0214 -32.8691 -32.8410 -32.7711 -32.6801 -32.6476 -32.1802 -32.1506
   -32.0275 -31.9772 -31.9294 -31.9102 -31.8811 -31.8707 -31.8432 -31.8371
   -31.8179 -31.8132 -31.7902 -31.7749 -31.7677 -31.7114 -31.7071 -31.6696
   -31.6560 -31.6340 -31.6255 -31.6181 -31.5946 -31.5858 -31.5828 -31.5586
   -31.4656 -31.4531 -31.4190 -31.4060 -31.3789 -31.3700 -31.3562 -31.3373
   -31.3094 -31.2590 -31.2411 -30.9698 -30.9482 -30.9190 -30.8950 -30.7858
   -18.7310 -16.7501 -16.2863 -16.0451 -15.9509 -15.8685 -15.8289 -15.7854
   -15.6377 -15.5649 -15.5449 -15.5427 -15.4747 -15.3304 -15.2765 -15.1786
   -15.0924 -14.9512 -14.9397 -14.8997 -14.8859 -14.8501 -14.8461 -14.7951
   -14.6270 -14.5909 -14.5452 -14.4862 -14.3947 -14.1750 -13.7413 -13.6316
   -12.9721  -7.7742  -6.5501  -4.3173  -3.7847  -3.5191  -3.4875  -3.3590
    -3.3546  -3.3112  -3.1693  -3.1618  -3.0886  -3.0636  -3.0115  -2.9497
    -2.9044  -2.8649  -2.7783  -2.7653  -2.7456  -2.7370  -2.7159  -2.5995
    -2.5548  -2.5043  -2.4018  -2.2915  -2.2491  -2.2220  -2.1760  -2.1427
    -2.0915  -2.0798  -2.0681  -2.0563  -1.9515  -1.8308  -1.8056  -1.7823
    -1.7361  -1.7213  -1.7130  -1.6892  -1.6048  -1.4948  -1.4027  -1.3346
    -1.3278  -1.2531  -1.2448  -1.1866  -1.0734  -1.0127  -1.0099  -0.9885
    -0.8849  -0.8599  -0.7884  -0.7258  -0.6668  -0.6137  -0.5511  -0.4989
    -0.4760  -0.4664  -0.3685  -0.2989  -0.2740  -0.2186  -0.2092  -0.2046
    -0.1785  -0.0834  -0.0479   0.0286   0.0643   0.1120   0.1475   0.2259
     0.2860   0.3520   0.3989   0.4207   0.4862   0.5417   0.5971   0.6880
     0.7453   0.7511   0.7787   0.8373   0.8508   0.9249   1.0069   1.0271
     1.0931   1.1649   1.3284   1.3674   1.6133   1.6871   2.3115   2.6827
     2.8437   3.1389   3.3288   3.4670   3.6619   3.6723   3.6794   3.9007
     3.9293

[...]

          k = 0.0380-0.0419 0.0000 ( 17876 PWs)   bands (ev):

[...]

          k =-0.0760-0.0000 0.0000 ( 17886 PWs)   bands (ev):

[...]

          k =-0.0760-0.0839 0.0000 ( 17948 PWs)   bands (ev):

   -56.5781 -56.5776 -55.6973 -55.6930 -55.6552 -55.6463 -55.4780 -55.4696
   -55.3582 -55.2317 -55.2261 -55.2260 -55.2243 -55.1353 -54.7190 -54.6838
   -32.8550 -32.8547 -32.8384 -32.8382 -32.7242 -32.7238 -32.0038 -31.9980
   -31.9864 -31.9795 -31.9032 -31.8886 -31.8875 -31.8832 -31.8764 -31.8749
   -31.8674 -31.8594 -31.8333 -31.8163 -31.7229 -31.7164 -31.6850 -31.6772
   -31.6531 -31.6175 -31.5859 -31.5716 -31.5715 -31.5691 -31.5484 -31.5304
   -31.4795 -31.4509 -31.4507 -31.4466 -31.4308 -31.4118 -31.4117 -31.4008
   -31.3742 -31.3388 -31.1020 -31.0395 -30.9458 -30.9201 -30.9046 -30.8577
   -18.7301 -16.1008 -16.0988 -16.0634 -16.0627 -15.7961 -15.7928 -15.7030
   -15.6974 -15.5658 -15.4452 -15.3410 -15.3284 -15.2945 -15.2679 -15.1577
   -15.1368 -15.1255 -15.1152 -15.0074 -14.9880 -14.9404 -14.9261 -14.9103
   -14.9030 -14.6085 -14.5921 -14.4921 -14.4662 -14.3276 -13.7352 -13.7352
   -12.9906  -7.7677  -6.5430  -3.1952  -3.1907  -3.1370  -3.1354  -3.1351
    -3.0768  -2.9774  -2.9303  -2.9285  -2.9273  -2.8398  -2.7822  -2.7745
    -2.7007  -2.6676  -2.6503  -2.5921  -2.5785  -2.5148  -2.4883  -2.4800
    -2.4623  -2.4388  -2.4375  -2.3436  -2.2775  -2.2317  -2.2265  -2.1671
    -2.1369  -2.0779  -2.0554  -2.0440  -2.0114  -1.9702  -1.9580  -1.9185
    -1.8779  -1.8431  -1.7800  -1.6134  -1.6043  -1.5953  -1.5749  -1.4521
    -1.4449  -1.4110  -1.3795  -1.3740  -1.3030  -1.2520  -1.2157  -1.1617
    -1.0768  -1.0552  -0.9508  -0.8987  -0.8554  -0.7983  -0.6945  -0.6739
    -0.6659  -0.6553  -0.6254  -0.5551  -0.5196  -0.5171  -0.3941  -0.3697
    -0.3315  -0.3020  -0.2438  -0.2152  -0.1550  -0.1239  -0.0544  -0.0401
    -0.0005   0.0765   0.1516   0.1855   0.2368   0.2432   0.5175   0.5911
     0.7205   0.7836   0.8457   0.9141   0.9795   1.0074   1.0371   1.1626
     1.1669   1.1763   1.1768   1.2471   1.2523   1.5919   2.1896   3.2587
     3.2589   3.3252   3.3259   3.6469   3.6532   3.7601   3.7704   3.9307
     3.9450

     the Fermi energy is     2.5096 ev

!    total energy              =   -2953.97099190 Ry
     estimated scf accuracy    <       0.00000006 Ry
     smearing contrib. (-TS)   =      -0.00443125 Ry
     internal energy E=F+TS    =   -2953.96656065 Ry

     The total energy is F=E-TS. E is the sum of the following terms:
     one-electron contribution =  -24343.85834743 Ry
     hartree contribution      =   12263.82511345 Ry
     xc contribution           =    -488.76373733 Ry
     ewald contribution        =    9614.82988182 Ry
     electric field correction =       0.00052883 Ry

     convergence has been achieved in  68 iterations

     Forces acting on atoms (cartesian axes, Ry/au):

     atom    1 type  1   force =    -0.00002580   -0.00048249    0.12443515
     atom    2 type  1   force =    -0.00003547   -0.00048943   -0.15978196
     atom    3 type  2   force =     0.00020008   -0.00023647   -0.06783413
     atom    4 type  2   force =     0.00000151   -0.00009048    0.02612992
     atom    5 type  2   force =    -0.01437194    0.00191412   -0.00991567
     atom    6 type  2   force =     0.01615536    0.00232517   -0.01029141
     atom    7 type  1   force =     0.00072002   -0.00389198    0.02848075
     atom    8 type  1   force =    -0.00033707   -0.00435825    0.10935182
     atom    9 type  2   force =     0.00002329    0.00001517    0.00005318
     atom   10 type  2   force =    -0.00225688    0.00266842   -0.07362633
     atom   11 type  2   force =     0.00079363   -0.00003123   -0.00024383
     atom   12 type  2   force =    -0.00042205    0.00004686   -0.00020634
     atom   13 type  1   force =    -0.00000747    0.00013654   -0.00012850
     atom   14 type  1   force =    -0.00034708    0.00047525   -0.00039978
     atom   15 type  2   force =     0.00002436   -0.00066628   -0.00019991
     atom   16 type  2   force =    -0.00018217   -0.00000685    0.00036465
     atom   17 type  2   force =    -0.00061219   -0.00032377   -0.00031474
     atom   18 type  2   force =     0.00026274   -0.00018838    0.00009187
     atom   19 type  1   force =     0.00042716    0.00001040   -0.00018107
     atom   20 type  1   force =    -0.00020025   -0.00056298   -0.00088236
     atom   21 type  2   force =     0.00006614   -0.00003759    0.09952135
     atom   22 type  2   force =    -0.00003122   -0.00049549    0.00040143
     atom   23 type  2   force =    -0.07969652   -0.00006337   -0.03245643
     atom   24 type  2   force =     0.07956836    0.00037713   -0.03251396
     atom   25 type  1   force =    -0.00000499   -0.00057575    0.12406527
     atom   26 type  1   force =    -0.00010531   -0.00062852   -0.15991344
     atom   27 type  2   force =     0.00033266   -0.00035822   -0.06690568
     atom   28 type  2   force =    -0.00002458    0.00017747    0.02515117
     atom   29 type  2   force =    -0.01496195    0.00189659   -0.00989219
     atom   30 type  2   force =     0.01664848    0.00242393   -0.01022504
     atom   31 type  1   force =     0.00078349   -0.00077023    0.02375361
     atom   32 type  1   force =    -0.00023001    0.00200510    0.10998343
     atom   33 type  2   force =     0.00004580   -0.00027100    0.00031758
     atom   34 type  2   force =    -0.00212276    0.00207040   -0.07174601
     atom   35 type  2   force =     0.00021829   -0.00012169   -0.00009481
     atom   36 type  2   force =    -0.00015199   -0.00024632   -0.00016613
     atom   37 type  1   force =     0.00043257   -0.00002477    0.00035186
     atom   38 type  1   force =     0.00001100   -0.00056117   -0.00017827
     atom   39 type  2   force =     0.00006667    0.00019309    0.00065640
     atom   40 type  2   force =    -0.00008674   -0.00024020    0.00025978
     atom   41 type  2   force =     0.00077836   -0.00035547    0.00006842
     atom   42 type  2   force =    -0.00100931   -0.00040580    0.00056836
     atom   43 type  1   force =    -0.00000955   -0.00037896    0.00029209
     atom   44 type  1   force =    -0.00026069   -0.00009606   -0.00104001
     atom   45 type  2   force =     0.00005439   -0.00004633    0.09948773
     atom   46 type  2   force =    -0.07970537    0.00000258   -0.03247766
     atom   47 type  2   force =     0.07958418    0.00043025   -0.03250256
     atom   48 type  3   force =    -0.00050703   -0.00012162   -0.00040841
     atom   49 type  4   force =    -0.00032435    0.00011676    0.00021147
     atom   50 type  5   force =    -0.00046746    0.00000571    0.00017361
     atom   51 type  5   force =    -0.00014959   -0.00064729    0.00055964
     atom   52 type  5   force =     0.00056566    0.00012431    0.00019904
     atom   53 type  2   force =     0.01265180   -0.00598947    0.00206723
     atom   54 type  5   force =    -0.01338031    0.00716950   -0.00266547
     atom   55 type  5   force =     0.00161206   -0.00082088    0.00019527

     Total force =     0.423878     Total SCF correction =     0.000743
  @ DRIVER MODE: Message from server: STATUS
  @ DRIVER MODE: Message from server: GETFORCE
  @ DRIVER MODE: Returning v,forces,stress,ensemble

     Writing output data file ./calc.save/
  @ DRIVER MODE: Message from server: EXIT
  @ DRIVE MODE: Exiting

     General routines

     Parallel routines

   This run was terminated on:   3:30:40  16Sep2021

   JOB DONE.