     Program PWSCF v.6.7GPU starts on 23Sep2021 at  4:40: 7

     R & G space division:  proc/nbgrp/npool/nimage =       8
     Reading input from /storage/home/hcoda1/3/ntian30/research/carbon/CxH_vib/H2O_calc/ads_slab/CH3OHHO_e/out_0017/pw.inp
Warning: card &CELL ignored
Warning: card   CELL_DYNAMICS='IPI', ignored
Warning: card / ignored

     Current dimensions of program PWSCF are:
     Max number of different atomic species (ntypx) = 10
     Max number of k-points (npk) =  40000
     Max angular momentum in pseudopotentials (lmaxx) =  3
     Presently no symmetry can be used with electric field

     Message from routine cell_base_init:
     DEPRECATED: use true lattice parameter, not A to a.u. conversion factor

     IMPORTANT: XC functional enforced from input :
     Exchange-correlation= BEEF-VDW
                           (   1   4  43  14   2   0   0)
     Any further DFT definition will be discarded
     Please, verify this is what you really want

  @ DRIVER MODE: Connecting to
 qe_1139763_2941008.sched-torque.pace.gatech.edu73mmf5pv_scratch
  using UNIX socket
  @ DRIVER MODE: Message from server: STATUS
  @ DRIVER MODE: Message from server: INIT
  @ DRIVER MODE: Receiving replica           0          -1
  @ DRIVER MODE: Receiving encoded integer          25
  @ DRIVER MODE:  SCF:  T  FORCE:  T  STRESS:  F  VC:  F  ENSEMBLE:  F
  @ DRIVER MODE:  SCF:  T  FORCE:  T  STRESS:  F  VC:  F  ENSEMBLE:  F

     Using Slab Decomposition

     bravais-lattice index     =            0
     lattice parameter (alat)  =       1.8897  a.u.
     unit-cell volume          =    6658.9804 (a.u.)^3
     number of atoms/cell      =           55
     number of atomic types    =            4
     number of electrons       =       399.00
     number of Kohn-Sham states=          209
     kinetic-energy cutoff     =      29.3995  Ry
     charge density cutoff     =     293.9946  Ry
     scf convergence threshold =      7.3E-08
     mixing beta               =       0.0500
     number of iterations used =            8  plain     mixing
     Exchange-correlation= BEEF-VDW
                           (   1   4  43  14   2   0   0)

     celldm(1)=   1.889726  celldm(2)=   0.000000  celldm(3)=   0.000000
     celldm(4)=   0.000000  celldm(5)=   0.000000  celldm(6)=   0.000000

     crystal axes: (cart. coord. in units of alat)
               a(1) = (   6.579727   0.000000   0.000000 )
               a(2) = (  -0.000775   5.961596   0.000000 )
               a(3) = (   0.000000   0.000000  25.155947 )

     reciprocal axes: (cart. coord. in units 2 pi/alat)
               b(1) = (  0.151982  0.000020  0.000000 )
               b(2) = (  0.000000  0.167740  0.000000 )
               b(3) = (  0.000000  0.000000  0.039752 )

     PseudoPot. # 1 for Ti read from file:
     /storage/coda1/p-amedford6/0/shared/rich_project_chbe-medford/medford-share/data/pseudos_module/espresso/nninc/pbe/van/Ti.UPF
     MD5 check sum: 8e4df49b7f0d34bbd5052bf3f5ea0213
     Pseudo is Ultrasoft, Zval = 12.0
     Generated by new atomic code, or converted to UPF format
     Using radial grid of  851 points,  6 beta functions with:
                l(1) =   0
                l(2) =   0
                l(3) =   1
                l(4) =   1
                l(5) =   2
                l(6) =   2
     Q(r) pseudized with  8 coefficients,  rinner =    1.000   1.000   1.000
                                                       1.000   1.000

     PseudoPot. # 2 for O  read from file:
     /storage/coda1/p-amedford6/0/shared/rich_project_chbe-medford/medford-share/data/pseudos_module/espresso/nninc/pbe/van/O.UPF
     MD5 check sum: 78c19812648e8988a0fe644b0f25305e
     Pseudo is Ultrasoft, Zval =  6.0
     Generated by new atomic code, or converted to UPF format
     Using radial grid of  737 points,  4 beta functions with:
                l(1) =   0
                l(2) =   0
                l(3) =   1
                l(4) =   1
     Q(r) pseudized with  8 coefficients,  rinner =    0.800   0.800   0.800

     PseudoPot. # 3 for C  read from file:
     /storage/coda1/p-amedford6/0/shared/rich_project_chbe-medford/medford-share/data/pseudos_module/espresso/nninc/pbe/van/C.UPF
     MD5 check sum: 1a69bf6b8db32088f5b2163dbdb77a27
     Pseudo is Ultrasoft, Zval =  4.0
     Generated by new atomic code, or converted to UPF format
     Using radial grid of  721 points,  4 beta functions with:
                l(1) =   0
                l(2) =   0
                l(3) =   1
                l(4) =   1
     Q(r) pseudized with  8 coefficients,  rinner =    0.800   0.800   0.800

     PseudoPot. # 4 for H  read from file:
     /storage/coda1/p-amedford6/0/shared/rich_project_chbe-medford/medford-share/data/pseudos_module/espresso/nninc/pbe/van/H.UPF
     MD5 check sum: b5ee9d7bfd3a09ee7748110bda690ff7
     Pseudo is Ultrasoft, Zval =  1.0
     Generated by new atomic code, or converted to UPF format
     Using radial grid of  615 points,  1 beta functions with:
                l(1) =   0
     Q(r) pseudized with  8 coefficients,  rinner =    0.800

     atomic species   valence    mass     pseudopotential
        Ti1           12.00    47.86700     Ti( 1.00)
        O1             6.00    15.99900     O ( 1.00)
        C1             4.00    12.01100     C ( 1.00)
        H1             1.00     1.00800     H ( 1.00)

     No symmetry found

   Cartesian axes

     site n.     atom                  positions (alat units)
         1           Ti1 tau(   1) = (   0.0004258   2.9801865   6.0000000  )
         2           Ti1 tau(   2) = (   3.2906075   1.4906267   6.0002472  )
         3           O1  tau(   3) = (   0.0006271   0.0005054   7.9858123  )
         4           O1  tau(   4) = (   3.2906025   0.0005020   7.3038282  )
         5           O1  tau(   5) = (   4.5942328   1.4918067   9.2879030  )
         6           O1  tau(   6) = (   1.9868534   1.4903216   9.2879459  )
         7           Ti1 tau(   7) = (   3.3364693   3.0244086   9.1899460  )
         8           Ti1 tau(   8) = (   0.0614121   1.5180315   9.2736979  )
         9           O1  tau(   9) = (   3.3192415   0.0109611  11.3574448  )
        10           O1  tau(  10) = (   0.0135824   0.0030625  10.5923660  )
        11           O1  tau(  11) = (   1.3113730   1.4888140  12.6397483  )
        12           O1  tau(  12) = (   5.3365169   1.4868518  12.6422516  )
        13           Ti1 tau(  13) = (   0.0249591   3.0356721  12.5595363  )
        14           Ti1 tau(  14) = (   3.3216347   1.5719315  12.4302660  )
        15           O1  tau(  15) = (   0.0475996   5.9320359  14.6592625  )
        16           O1  tau(  16) = (   3.3253441   5.8716044  14.0084122  )
        17           O1  tau(  17) = (   4.6294077   1.4993822  16.1384749  )
        18           O1  tau(  18) = (   2.0712093   1.5368213  16.0656395  )
        19           Ti1 tau(  19) = (   3.3420502   2.9337026  15.6791356  )
        20           Ti1 tau(  20) = (   0.0819182   1.3209985  15.9439250  )
        21           O1  tau(  21) = (   3.2904802   0.0005063   4.7018136  )
        22           O1  tau(  22) = (   0.1121901   0.0005398  17.1797988  )
        23           O1  tau(  23) = (   1.3043587   1.4918075   6.0039043  )
        24           O1  tau(  24) = (   5.2767064   1.4903225   6.0039473  )
        25           Ti1 tau(  25) = (   0.0000382   5.9609847   6.0000000  )
        26           Ti1 tau(  26) = (   3.2902200   4.4714249   6.0002472  )
        27           O1  tau(  27) = (   0.0002396   2.9813036   7.9858123  )
        28           O1  tau(  28) = (   3.2902150   2.9813002   7.3038282  )
        29           O1  tau(  29) = (   4.5938453   4.4726049   9.2879030  )
        30           O1  tau(  30) = (   1.9864658   4.4711199   9.2879459  )
        31           Ti1 tau(  31) = (   3.3365859   0.0383882   9.1683042  )
        32           Ti1 tau(  32) = (   0.0607984   4.4756772   9.2727477  )
        33           O1  tau(  33) = (   3.3154497   2.9528697  11.3100477  )
        34           O1  tau(  34) = (   0.0130381   2.9821538  10.6068333  )
        35           O1  tau(  35) = (   1.3079814   4.4632751  12.6339740  )
        36           O1  tau(  36) = (   5.3374838   4.4678533  12.6371107  )
        37           Ti1 tau(  37) = (   0.0367351   0.0553833  12.4739561  )
        38           Ti1 tau(  38) = (   3.3178111   4.6524667  12.7070490  )
        39           O1  tau(  39) = (   0.0226182   2.9861015  14.7894940  )
        40           O1  tau(  40) = (   3.3464301   2.9603322  13.9061577  )
        41           O1  tau(  41) = (   4.6320376   4.4053937  16.1659747  )
        42           O1  tau(  42) = (   2.0651706   4.3480327  16.1155179  )
        43           Ti1 tau(  43) = (   3.4032537   5.9185344  16.2710929  )
        44           Ti1 tau(  44) = (   0.0646745   4.5145260  15.8553686  )
        45           O1  tau(  45) = (   3.2900926   2.9813045   4.7018136  )
        46           O1  tau(  46) = (   1.3039711   4.4726057   6.0039043  )
        47           O1  tau(  47) = (   5.2763189   4.4711207   6.0039473  )
        48           C1  tau(  48) = (   5.9353497   3.0583042  18.8699169  )
        49           O1  tau(  49) = (   0.1856485   3.0014673  17.6677584  )
        50           H1  tau(  50) = (   4.9577780   2.6849493  18.5781267  )
        51           H1  tau(  51) = (   1.1185258   3.1466834  17.9024234  )
        52           H1  tau(  52) = (   6.3707541   2.4080388  19.6265123  )
        53           H1  tau(  53) = (   5.8722695   4.0904670  19.2075282  )
        54           O1  tau(  54) = (   3.1419305   5.9539177  18.1124628  )
        55           H1  tau(  55) = (   2.2021640   0.0520986  18.3490109  )

     number of k points=    10  Fermi-Dirac smearing, width (Ry)=  0.0073
                       cart. coord. in units 2pi/alat
        k(    1) = (   0.0000000   0.0000000   0.0000000), wk =   0.1250000
        k(    2) = (   0.0000000   0.0419351   0.0000000), wk =   0.2500000
        k(    3) = (   0.0000000  -0.0838702   0.0000000), wk =   0.1250000
        k(    4) = (   0.0379955   0.0000049   0.0000000), wk =   0.2500000
        k(    5) = (   0.0379955   0.0419400   0.0000000), wk =   0.2500000
        k(    6) = (   0.0379955  -0.0838652   0.0000000), wk =   0.2500000
        k(    7) = (   0.0379955  -0.0419301   0.0000000), wk =   0.2500000
        k(    8) = (  -0.0759910  -0.0000099   0.0000000), wk =   0.1250000
        k(    9) = (  -0.0759910   0.0419252   0.0000000), wk =   0.2500000
        k(   10) = (  -0.0759910  -0.0838800   0.0000000), wk =   0.1250000

     Initial potential from superposition of free atoms

     starting charge  382.99916, renormalised to  399.00000

     negative rho (up, down):  1.653E-02 0.000E+00

     %%%%%%%%%%%%%%%%%%%%%%%%%%%%%%%%%%%%%%%%%%%%%%%%%%%%%%%%%%%%%%%%%%%%%%%%
     %                                                                      %
     % You are using vdW-DF, which was implemented by the Thonhauser group. %
     % Please cite the following two papers that made this development      %
     % possible and the two reviews that describe the various versions:     %
     %                                                                      %
     %   T. Thonhauser et al., PRL 115, 136402 (2015).                      %
     %   T. Thonhauser et al., PRB 76, 125112 (2007).                       %
     %   K. Berland et al., Rep. Prog. Phys. 78, 066501 (2015).             %
     %   D.C. Langreth et al., J. Phys.: Condens. Matter 21, 084203 (2009). %
     %                                                                      %
     %                                                                      %
     % If you are calculating the stress with vdW-DF, please also cite:     %
     %                                                                      %
     %   R. Sabatini et al., J. Phys.: Condens. Matter 24, 424209 (2012).   %
     %                                                                      %
     %%%%%%%%%%%%%%%%%%%%%%%%%%%%%%%%%%%%%%%%%%%%%%%%%%%%%%%%%%%%%%%%%%%%%%%%

     Adding external electric field

     Computed dipole along edir(3) :
        Dipole              -10.2314 Ry au,        -26.0056 Debye
        Dipole field         -0.0193 Ry au,

        Potential amp.        1.7898 Ry
        Total length         46.3494 bohr

     Starting wfcs are  301 atomic wfcs
  @ DRIVER MODE: Message from server: STATUS
  @ DRIVER MODE: Message from server: POSDATA
  @ DRIVER MODE: Reading and sharing cell
  @ DRIVER MODE: Reading and sharing positions
  @ DRIVER MODE: Received positions

     Self-consistent Calculation

     iteration #  1     ecut=    29.40 Ry     beta= 0.05
     Davidson diagonalization with overlap
     c_bands:  3 eigenvalues not converged
     c_bands:  3 eigenvalues not converged
     c_bands:  4 eigenvalues not converged
     c_bands:  1 eigenvalues not converged
     c_bands:  5 eigenvalues not converged
     c_bands:  5 eigenvalues not converged
     c_bands:  4 eigenvalues not converged
     c_bands:  4 eigenvalues not converged
     c_bands:  4 eigenvalues not converged
     ethr =  1.00E-05,  avg # of iterations = 21.1

[...]

     total energy              =   -2463.86106274 Ry
     estimated scf accuracy    <    5598.04498396 Ry

     iteration #  2     ecut=    29.40 Ry     beta= 0.05
     Davidson diagonalization with overlap
     ethr =  1.00E-02,  avg # of iterations = 24.7

[...]

     iteration # 62     ecut=    29.40 Ry     beta= 0.05
     Davidson diagonalization with overlap
     ethr =  3.29E-11,  avg # of iterations =  1.7

[...]

     total energy              =   -2966.27811071 Ry
     estimated scf accuracy    <       0.00000009 Ry

     iteration # 63     ecut=    29.40 Ry     beta= 0.05
     Davidson diagonalization with overlap
     c_bands:  1 eigenvalues not converged
     ethr =  2.35E-11,  avg # of iterations = 11.5

     negative rho (up, down):  1.671E-02 0.000E+00

     Adding external electric field

     Computed dipole along edir(3) :
        Dipole                1.0447 Ry au,          2.6552 Debye
        Dipole field          0.0020 Ry au,

        Potential amp.       -0.1827 Ry
        Total length         46.3494 bohr

     End of self-consistent calculation

          k = 0.0000 0.0000 0.0000 ( 18029 PWs)   bands (ev):

   -55.7016 -55.6321 -55.5971 -55.5179 -55.4941 -55.4669 -55.4346 -55.4275
   -55.4234 -55.4104 -55.3981 -55.3708 -55.2849 -55.2128 -54.5902 -54.5562
   -32.1110 -32.0935 -32.0129 -32.0025 -31.9587 -31.9499 -31.9219 -31.9194
   -31.8924 -31.8756 -31.8667 -31.7942 -31.7914 -31.7855 -31.7584 -31.7405
   -31.7331 -31.7214 -31.7115 -31.6985 -31.6951 -31.6906 -31.6467 -31.6458
   -31.6443 -31.6366 -31.6320 -31.6247 -31.6128 -31.5969 -31.5917 -31.5818
   -31.5758 -31.5607 -31.5564 -31.5468 -31.5366 -31.5126 -31.4736 -31.4569
   -31.4246 -31.4173 -30.9963 -30.9104 -30.8879 -30.8133 -30.7270 -30.6153
   -20.0609 -16.5163 -16.2851 -16.1055 -15.9043 -15.8408 -15.7823 -15.5940
   -15.5186 -15.3778 -15.2334 -15.2207 -15.1663 -15.1658 -15.1567 -15.1338
   -15.1029 -15.0588 -15.0494 -15.0433 -15.0376 -14.9823 -14.9404 -14.9325
   -14.9256 -14.8847 -14.7564 -14.7161 -14.6600 -14.4892 -14.4463 -13.0898
   -12.9737 -10.9234  -6.7702  -4.9540  -4.7684  -4.0105  -3.6371  -3.5365
    -3.5186  -3.4560  -3.4000  -3.1876  -3.0683  -3.0158  -2.9034  -2.7767
    -2.7378  -2.6826  -2.6577  -2.5661  -2.5440  -2.5138  -2.4894  -2.4316
    -2.4018  -2.3936  -2.3822  -2.3095  -2.2998  -2.1695  -2.1655  -2.0927
    -2.0242  -2.0032  -1.9844  -1.9660  -1.9345  -1.9339  -1.8879  -1.8672
    -1.8457  -1.8127  -1.7419  -1.7212  -1.6607  -1.6205  -1.3861  -1.2254
    -1.2028  -1.1328  -1.1151  -1.0830  -1.0464  -1.0313  -1.0257  -0.9870
    -0.9706  -0.8624  -0.7658  -0.7539  -0.6934  -0.6542  -0.6528  -0.5191
    -0.4710  -0.3972  -0.3714  -0.3463  -0.3233  -0.2308  -0.1880  -0.1703
    -0.1072  -0.0770   0.0345   0.0742   0.0921   0.1307   0.1863   0.2544
     0.2846   0.3214   0.3293   0.3617   0.4105   0.4354   0.4681   0.4949
     0.5339   0.6386   0.6780   0.6934   0.8376   0.8385   0.9262   1.0538
     1.1016   1.3829   1.4350   1.4729   1.6279   2.0026   2.0487   3.4869
     3.6036   3.6143   3.6327   3.7031   3.7932   3.9490   3.9770   4.0483
     4.1483

[...]

          k = 0.0380-0.0419 0.0000 ( 17876 PWs)   bands (ev):

[...]

          k =-0.0760-0.0000 0.0000 ( 17886 PWs)   bands (ev):

[...]

          k =-0.0760-0.0839 0.0000 ( 17948 PWs)   bands (ev):

   -55.7008 -55.6186 -55.6105 -55.5111 -55.4894 -55.4735 -55.4283 -55.4278
   -55.4219 -55.4102 -55.4013 -55.3803 -55.2810 -55.2167 -54.5734 -54.5729
   -32.0129 -31.9537 -31.9446 -31.9303 -31.9224 -31.9186 -31.9147 -31.9005
   -31.8340 -31.8329 -31.7974 -31.7675 -31.7628 -31.7552 -31.7390 -31.7384
   -31.7333 -31.7304 -31.7279 -31.7177 -31.7153 -31.7129 -31.7008 -31.6990
   -31.6718 -31.6693 -31.6359 -31.6306 -31.6299 -31.6291 -31.6189 -31.6152
   -31.6086 -31.6066 -31.5996 -31.5986 -31.5966 -31.5601 -31.5404 -31.4779
   -31.4639 -31.4213 -30.9007 -30.9005 -30.8100 -30.8085 -30.7703 -30.7694
   -20.0572 -16.4914 -15.9008 -15.7568 -15.5941 -15.5759 -15.4983 -15.4029
   -15.3861 -15.3573 -15.3479 -15.3271 -15.3015 -15.2996 -15.2513 -15.1961
   -15.1543 -15.1314 -15.1270 -15.0810 -15.0716 -15.0680 -15.0124 -14.9997
   -14.9905 -14.9518 -14.8920 -14.8636 -14.7854 -14.7579 -14.6043 -13.0759
   -13.0754 -10.9256  -6.7714  -4.9349  -4.7609  -3.9733  -3.0506  -2.9776
    -2.9054  -2.8171  -2.7361  -2.6786  -2.6278  -2.6090  -2.5658  -2.5456
    -2.4752  -2.4414  -2.4339  -2.4124  -2.4100  -2.3836  -2.3677  -2.3553
    -2.3325  -2.3025  -2.2884  -2.2745  -2.2560  -2.2355  -2.2149  -2.1952
    -2.1825  -2.1718  -2.1522  -2.0447  -2.0209  -1.9844  -1.8307  -1.8190
    -1.7539  -1.7214  -1.6908  -1.6856  -1.6529  -1.6449  -1.6019  -1.4925
    -1.4645  -1.4172  -1.3593  -1.2692  -1.2643  -1.2172  -1.1645  -1.1252
    -1.0958  -1.0489  -1.0458  -1.0005  -0.8592  -0.8324  -0.7937  -0.6697
    -0.5975  -0.5821  -0.5680  -0.5512  -0.5250  -0.4780  -0.4725  -0.4160
    -0.3945  -0.3225  -0.3203  -0.2960  -0.2717  -0.1651  -0.0503   0.0410
     0.0756   0.1319   0.1718   0.2049   0.2879   0.3616   0.4450   0.5312
     0.5575   0.5682   0.6897   0.7166   0.7675   0.8202   0.8362   0.8960
     0.9289   0.9718   1.0000   1.7961   1.8094   1.8652   1.8699   3.6748
     3.9240   3.9758   3.9941   4.0068   4.0403   4.0604   4.1069   4.1248
     4.1505

     the Fermi energy is     3.5002 ev

!    total energy              =   -2966.27814867 Ry
     estimated scf accuracy    <       0.00000003 Ry
     smearing contrib. (-TS)   =      -0.02073049 Ry
     internal energy E=F+TS    =   -2966.25741818 Ry

     The total energy is F=E-TS. E is the sum of the following terms:
     one-electron contribution =  -24039.42651899 Ry
     hartree contribution      =   12112.22813413 Ry
     xc contribution           =    -490.94230960 Ry
     ewald contribution        =    9451.88121686 Ry
     electric field correction =       0.00205942 Ry

     convergence has been achieved in  63 iterations

     Forces acting on atoms (cartesian axes, Ry/au):

     atom    1 type  1   force =    -0.00039372    0.00005284    0.09457886
     atom    2 type  1   force =    -0.00032567    0.00498697   -0.17464116
     atom    3 type  2   force =     0.00082325   -0.00023571   -0.02593203
     atom    4 type  2   force =     0.00125494    0.00074916    0.05284240
     atom    5 type  2   force =    -0.01097514   -0.00285351    0.00048388
     atom    6 type  2   force =     0.01164325   -0.00410163    0.00186045
     atom    7 type  1   force =     0.00052265    0.00038287   -0.00015427
     atom    8 type  1   force =    -0.00044887    0.00019990    0.00076243
     atom    9 type  2   force =    -0.00044514    0.00028047   -0.00025451
     atom   10 type  2   force =     0.00031602   -0.00035205   -0.00046800
     atom   11 type  2   force =     0.00062249    0.00032306   -0.00023120
     atom   12 type  2   force =    -0.00039002   -0.00045925   -0.00038290
     atom   13 type  1   force =    -0.00130164   -0.00080432    0.00032674
     atom   14 type  1   force =     0.00029472    0.00009247    0.00057202
     atom   15 type  2   force =     0.00048246    0.00068128    0.00019040
     atom   16 type  2   force =    -0.00048833    0.00051941    0.00055797
     atom   17 type  2   force =     0.00006480    0.00035640    0.00008477
     atom   18 type  2   force =    -0.00027928   -0.00000982    0.00036580
     atom   19 type  1   force =    -0.00047575    0.00116827   -0.00025299
     atom   20 type  1   force =    -0.00011752   -0.00027843   -0.00068485
     atom   21 type  2   force =    -0.00001653    0.00005524    0.10309432
     atom   22 type  2   force =    -0.00037391   -0.00058021   -0.00049206
     atom   23 type  2   force =    -0.07205897    0.00004527   -0.02790133
     atom   24 type  2   force =     0.07191745    0.00053186   -0.02800895
     atom   25 type  1   force =    -0.00044206   -0.00000127    0.10115311
     atom   26 type  1   force =    -0.00006314   -0.00460693   -0.17490249
     atom   27 type  2   force =     0.00089754    0.00114572   -0.02441414
     atom   28 type  2   force =     0.00113711    0.00015012    0.05241193
     atom   29 type  2   force =    -0.01186055    0.00306452    0.00195237
     atom   30 type  2   force =     0.01326300    0.00116349    0.00308523
     atom   31 type  1   force =     0.00058332    0.00002321   -0.00054617
     atom   32 type  1   force =    -0.00035722    0.00070245    0.00046393
     atom   33 type  2   force =    -0.00020312    0.00092955    0.00018027
     atom   34 type  2   force =     0.00013780   -0.00012798   -0.00097299
     atom   35 type  2   force =     0.00034993    0.00007557    0.00053840
     atom   36 type  2   force =     0.00008340    0.00016520    0.00047482
     atom   37 type  1   force =    -0.00145975   -0.00060777    0.00030302
     atom   38 type  1   force =     0.00077662   -0.00026540   -0.00013184
     atom   39 type  2   force =     0.00044678   -0.00021147    0.00123285
     atom   40 type  2   force =    -0.00010956    0.00034565    0.00053087
     atom   41 type  2   force =    -0.00051894    0.00000544   -0.00067904
     atom   42 type  2   force =    -0.00000518   -0.00018102   -0.00057631
     atom   43 type  1   force =    -0.00008034   -0.00031952   -0.00054989
     atom   44 type  1   force =    -0.00020967   -0.00048142   -0.00112467
     atom   45 type  2   force =    -0.00001241    0.00013153    0.10266491
     atom   46 type  2   force =    -0.07202923   -0.00055622   -0.02788303
     atom   47 type  2   force =     0.07188227   -0.00006704   -0.02796483
     atom   48 type  3   force =    -0.00300212   -0.00206768   -0.00395815
     atom   49 type  2   force =     0.00061767   -0.00006466   -0.00081483
     atom   50 type  4   force =     0.00270345    0.00098488    0.00295610
     atom   51 type  4   force =     0.00001708   -0.00009494   -0.00048605
     atom   52 type  4   force =    -0.00075717   -0.00031763   -0.00015599
     atom   53 type  4   force =    -0.00110105    0.00051926   -0.00008872
     atom   54 type  2   force =     0.00104528    0.00006732    0.00063168
     atom   55 type  4   force =    -0.00158128   -0.00025349    0.00035386

     Total force =     0.364475     Total SCF correction =     0.000536
  @ DRIVER MODE: Message from server: STATUS
  @ DRIVER MODE: Message from server: GETFORCE
  @ DRIVER MODE: Returning v,forces,stress,ensemble

     Writing output data file ./calc.save/
  @ DRIVER MODE: Message from server: EXIT
  @ DRIVE MODE: Exiting

     General routines

     Parallel routines

   This run was terminated on:   5: 2: 0  23Sep2021

   JOB DONE.