     Program PWSCF v.6.7GPU starts on  2Aug2021 at 21: 8: 6

     R & G space division:  proc/nbgrp/npool/nimage =      16
     Reading input from /storage/home/hcoda1/3/ntian30/research/carbon/02Aug_vib_paired/ads_slab/CH3NNHHH_a/out_0033/pw.inp
Warning: card &CELL ignored
Warning: card   CELL_DYNAMICS='IPI', ignored
Warning: card / ignored

     Current dimensions of program PWSCF are:
     Max number of different atomic species (ntypx) = 10
     Max number of k-points (npk) =  40000
     Max angular momentum in pseudopotentials (lmaxx) =  3
     Presently no symmetry can be used with electric field

     Message from routine cell_base_init:
     DEPRECATED: use true lattice parameter, not A to a.u. conversion factor

     IMPORTANT: XC functional enforced from input :
     Exchange-correlation= BEEF-VDW
                           (   1   4  43  14   2   0   0)
     Any further DFT definition will be discarded
     Please, verify this is what you really want

  @ DRIVER MODE: Connecting to
 qe_1139763_2482545.sched-torque.pace.gatech.eduh_5_28sp_scratch
  using UNIX socket
  @ DRIVER MODE: Message from server: STATUS
  @ DRIVER MODE: Message from server: INIT
  @ DRIVER MODE: Receiving replica           0          -1
  @ DRIVER MODE: Receiving encoded integer          25
  @ DRIVER MODE:  SCF:  T  FORCE:  T  STRESS:  F  VC:  F  ENSEMBLE:  F
  @ DRIVER MODE:  SCF:  T  FORCE:  T  STRESS:  F  VC:  F  ENSEMBLE:  F

     Using Slab Decomposition

     bravais-lattice index     =            0
     lattice parameter (alat)  =       1.8897  a.u.
     unit-cell volume          =    6658.9804 (a.u.)^3
     number of atoms/cell      =           56
     number of atomic types    =            5
     number of electrons       =       398.00
     number of Kohn-Sham states=          209
     kinetic-energy cutoff     =      29.3995  Ry
     charge density cutoff     =     293.9946  Ry
     scf convergence threshold =      7.3E-08
     mixing beta               =       0.0500
     number of iterations used =            8  plain     mixing
     Exchange-correlation= BEEF-VDW
                           (   1   4  43  14   2   0   0)

     celldm(1)=   1.889726  celldm(2)=   0.000000  celldm(3)=   0.000000
     celldm(4)=   0.000000  celldm(5)=   0.000000  celldm(6)=   0.000000

     crystal axes: (cart. coord. in units of alat)
               a(1) = (   6.579727   0.000000   0.000000 )
               a(2) = (  -0.000775   5.961596   0.000000 )
               a(3) = (   0.000000   0.000000  25.155947 )

     reciprocal axes: (cart. coord. in units 2 pi/alat)
               b(1) = (  0.151982  0.000020  0.000000 )
               b(2) = (  0.000000  0.167740  0.000000 )
               b(3) = (  0.000000  0.000000  0.039752 )

     PseudoPot. # 1 for Ti read from file:
     /storage/coda1/p-amedford6/0/shared/rich_project_chbe-medford/medford-share/data/pseudos_module/espresso/nninc/pbe/van/Ti.UPF
     MD5 check sum: 8e4df49b7f0d34bbd5052bf3f5ea0213
     Pseudo is Ultrasoft, Zval = 12.0
     Generated by new atomic code, or converted to UPF format
     Using radial grid of  851 points,  6 beta functions with:
                l(1) =   0
                l(2) =   0
                l(3) =   1
                l(4) =   1
                l(5) =   2
                l(6) =   2
     Q(r) pseudized with  8 coefficients,  rinner =    1.000   1.000   1.000
                                                       1.000   1.000

     PseudoPot. # 2 for O  read from file:
     /storage/coda1/p-amedford6/0/shared/rich_project_chbe-medford/medford-share/data/pseudos_module/espresso/nninc/pbe/van/O.UPF
     MD5 check sum: 78c19812648e8988a0fe644b0f25305e
     Pseudo is Ultrasoft, Zval =  6.0
     Generated by new atomic code, or converted to UPF format
     Using radial grid of  737 points,  4 beta functions with:
                l(1) =   0
                l(2) =   0
                l(3) =   1
                l(4) =   1
     Q(r) pseudized with  8 coefficients,  rinner =    0.800   0.800   0.800

     PseudoPot. # 3 for N  read from file:
     /storage/coda1/p-amedford6/0/shared/rich_project_chbe-medford/medford-share/data/pseudos_module/espresso/nninc/pbe/van/N.UPF
     MD5 check sum: 90d10febe142ad51ac9d5be1deb811c4
     Pseudo is Ultrasoft, Zval =  5.0
     Generated by new atomic code, or converted to UPF format
     Using radial grid of  729 points,  4 beta functions with:
                l(1) =   0
                l(2) =   0
                l(3) =   1
                l(4) =   1
     Q(r) pseudized with  8 coefficients,  rinner =    0.800   0.800   0.800

     PseudoPot. # 4 for C  read from file:
     /storage/coda1/p-amedford6/0/shared/rich_project_chbe-medford/medford-share/data/pseudos_module/espresso/nninc/pbe/van/C.UPF
     MD5 check sum: 1a69bf6b8db32088f5b2163dbdb77a27
     Pseudo is Ultrasoft, Zval =  4.0
     Generated by new atomic code, or converted to UPF format
     Using radial grid of  721 points,  4 beta functions with:
                l(1) =   0
                l(2) =   0
                l(3) =   1
                l(4) =   1
     Q(r) pseudized with  8 coefficients,  rinner =    0.800   0.800   0.800

     PseudoPot. # 5 for H  read from file:
     /storage/coda1/p-amedford6/0/shared/rich_project_chbe-medford/medford-share/data/pseudos_module/espresso/nninc/pbe/van/H.UPF
     MD5 check sum: b5ee9d7bfd3a09ee7748110bda690ff7
     Pseudo is Ultrasoft, Zval =  1.0
     Generated by new atomic code, or converted to UPF format
     Using radial grid of  615 points,  1 beta functions with:
                l(1) =   0
     Q(r) pseudized with  8 coefficients,  rinner =    0.800

     atomic species   valence    mass     pseudopotential
        Ti1           12.00    47.86700     Ti( 1.00)
        O1             6.00    15.99900     O ( 1.00)
        N1             5.00    14.00700     N ( 1.00)
        C1             4.00    12.01100     C ( 1.00)
        H1             1.00     1.00800     H ( 1.00)

     No symmetry found

   Cartesian axes

     site n.     atom                  positions (alat units)
         1           Ti1 tau(   1) = (   0.0004258   2.9801865   6.0000000  )
         2           Ti1 tau(   2) = (   3.2906075   1.4906267   6.0002472  )
         3           O1  tau(   3) = (   0.0006271   0.0005054   7.9858123  )
         4           O1  tau(   4) = (   3.2906025   0.0005020   7.3038282  )
         5           O1  tau(   5) = (   4.5942328   1.4918067   9.2879030  )
         6           O1  tau(   6) = (   1.9868534   1.4903216   9.2879459  )
         7           Ti1 tau(   7) = (   3.2907910   2.8959150   9.1758416  )
         8           Ti1 tau(   8) = (   0.0015273   1.4827037   9.2680791  )
         9           O1  tau(   9) = (   3.2969863   5.9453513  11.3493076  )
        10           O1  tau(  10) = (   0.0116148   5.9584955  10.6183126  )
        11           O1  tau(  11) = (   1.3059050   1.4736943  12.6642453  )
        12           O1  tau(  12) = (   5.3003793   1.4775083  12.6459419  )
        13           Ti1 tau(  13) = (   0.0167275   2.9625105  12.5508078  )
        14           Ti1 tau(  14) = (   3.3131340   1.4712512  12.4909780  )
        15           O1  tau(  15) = (   6.5517612   5.9325698  14.7566896  )
        16           O1  tau(  16) = (   3.3302114   5.9429442  13.9823395  )
        17           O1  tau(  17) = (   4.5243935   1.5056208  16.2316672  )
        18           O1  tau(  18) = (   2.0170937   1.4633510  16.1378485  )
        19           Ti1 tau(  19) = (   3.2500237   2.9242626  15.6920970  )
        20           Ti1 tau(  20) = (   6.5441017   1.2779805  16.1516014  )
        21           O1  tau(  21) = (   3.2904802   0.0005063   4.7018136  )
        22           O1  tau(  22) = (   6.5540411   5.9581837  17.3465722  )
        23           O1  tau(  23) = (   1.3043587   1.4918075   6.0039043  )
        24           O1  tau(  24) = (   5.2767064   1.4903225   6.0039473  )
        25           Ti1 tau(  25) = (   0.0000382   5.9609847   6.0000000  )
        26           Ti1 tau(  26) = (   3.2902200   4.4714249   6.0002472  )
        27           O1  tau(  27) = (   0.0002396   2.9813036   7.9858123  )
        28           O1  tau(  28) = (   3.2902150   2.9813002   7.3038282  )
        29           O1  tau(  29) = (   4.5938453   4.4726049   9.2879030  )
        30           O1  tau(  30) = (   1.9864658   4.4711199   9.2879459  )
        31           Ti1 tau(  31) = (   3.2891106   5.8743827   9.1763621  )
        32           Ti1 tau(  32) = (   0.0006254   4.4649316   9.2693709  )
        33           O1  tau(  33) = (   3.2962403   2.9651072  11.3429128  )
        34           O1  tau(  34) = (   0.0092240   2.9805883  10.6323155  )
        35           O1  tau(  35) = (   1.3076126   4.4641214  12.6643835  )
        36           O1  tau(  36) = (   5.2981430   4.4591552  12.6429889  )
        37           Ti1 tau(  37) = (   0.0194730   5.9489450  12.5196332  )
        38           Ti1 tau(  38) = (   3.3150505   4.4522436  12.4946186  )
        39           O1  tau(  39) = (   6.5702761   2.9869041  14.8038460  )
        40           O1  tau(  40) = (   3.3119818   2.9576719  13.9204832  )
        41           O1  tau(  41) = (   4.5223198   4.3950437  16.2490866  )
        42           O1  tau(  42) = (   2.0356696   4.4339808  16.1311045  )
        43           Ti1 tau(  43) = (   3.3057863   5.9493229  15.7677403  )
        44           Ti1 tau(  44) = (   0.0958844   4.4293496  15.8701971  )
        45           O1  tau(  45) = (   3.2900926   2.9813045   4.7018136  )
        46           O1  tau(  46) = (   1.3039711   4.4726057   6.0039043  )
        47           O1  tau(  47) = (   5.2763189   4.4711207   6.0039473  )
        48           N1  tau(  48) = (   0.0620580   3.0375546  17.6897758  )
        49           C1  tau(  49) = (   1.1116374   2.9693208  18.6984743  )
        50           H1  tau(  50) = (   1.2951007   3.9532040  19.1583453  )
        51           H1  tau(  51) = (   0.8627774   2.2426413  19.4871689  )
        52           H1  tau(  52) = (   2.0263963   2.6228967  18.2308865  )
        53           N1  tau(  53) = (   5.4279256   3.3644730  18.4033390  )
        54           H1  tau(  54) = (   5.6103604   4.1199394  19.0852601  )
        55           H1  tau(  55) = (   4.7934260   3.8076565  17.6395878  )
        56           H1  tau(  56) = (   5.0090149   2.5598412  18.8678436  )

     number of k points=    10  Fermi-Dirac smearing, width (Ry)=  0.0073
                       cart. coord. in units 2pi/alat
        k(    1) = (   0.0000000   0.0000000   0.0000000), wk =   0.1250000
        k(    2) = (   0.0000000   0.0419351   0.0000000), wk =   0.2500000
        k(    3) = (   0.0000000  -0.0838702   0.0000000), wk =   0.1250000
        k(    4) = (   0.0379955   0.0000049   0.0000000), wk =   0.2500000
        k(    5) = (   0.0379955   0.0419400   0.0000000), wk =   0.2500000
        k(    6) = (   0.0379955  -0.0838652   0.0000000), wk =   0.2500000
        k(    7) = (   0.0379955  -0.0419301   0.0000000), wk =   0.2500000
        k(    8) = (  -0.0759910  -0.0000099   0.0000000), wk =   0.1250000
        k(    9) = (  -0.0759910   0.0419252   0.0000000), wk =   0.2500000
        k(   10) = (  -0.0759910  -0.0838800   0.0000000), wk =   0.1250000

     Initial potential from superposition of free atoms

     starting charge  381.99914, renormalised to  398.00000

     negative rho (up, down):  1.617E-02 0.000E+00

     %%%%%%%%%%%%%%%%%%%%%%%%%%%%%%%%%%%%%%%%%%%%%%%%%%%%%%%%%%%%%%%%%%%%%%%%
     %                                                                      %
     % You are using vdW-DF, which was implemented by the Thonhauser group. %
     % Please cite the following two papers that made this development      %
     % possible and the two reviews that describe the various versions:     %
     %                                                                      %
     %   T. Thonhauser et al., PRL 115, 136402 (2015).                      %
     %   T. Thonhauser et al., PRB 76, 125112 (2007).                       %
     %   K. Berland et al., Rep. Prog. Phys. 78, 066501 (2015).             %
     %   D.C. Langreth et al., J. Phys.: Condens. Matter 21, 084203 (2009). %
     %                                                                      %
     %                                                                      %
     % If you are calculating the stress with vdW-DF, please also cite:     %
     %                                                                      %
     %   R. Sabatini et al., J. Phys.: Condens. Matter 24, 424209 (2012).   %
     %                                                                      %
     %%%%%%%%%%%%%%%%%%%%%%%%%%%%%%%%%%%%%%%%%%%%%%%%%%%%%%%%%%%%%%%%%%%%%%%%

     Adding external electric field

     Computed dipole along edir(3) :
        Dipole              -10.5729 Ry au,        -26.8736 Debye
        Dipole field         -0.0200 Ry au,

        Potential amp.        1.8496 Ry
        Total length         46.3494 bohr

     Starting wfcs are  302 atomic wfcs
  @ DRIVER MODE: Message from server: STATUS
  @ DRIVER MODE: Message from server: POSDATA
  @ DRIVER MODE: Reading and sharing cell
  @ DRIVER MODE: Reading and sharing positions
  @ DRIVER MODE: Received positions

     Self-consistent Calculation

     iteration #  1     ecut=    29.40 Ry     beta= 0.05
     Davidson diagonalization with overlap
     c_bands:  3 eigenvalues not converged
     c_bands:  3 eigenvalues not converged
     c_bands:  1 eigenvalues not converged
     c_bands:  5 eigenvalues not converged
     c_bands:  5 eigenvalues not converged
     c_bands:  5 eigenvalues not converged
     c_bands:  1 eigenvalues not converged
     c_bands:  4 eigenvalues not converged
     c_bands:  3 eigenvalues not converged
     ethr =  1.00E-05,  avg # of iterations = 20.0

[...]

     total energy              =   -2442.74588155 Ry
     estimated scf accuracy    <    5591.61192344 Ry

     iteration #  2     ecut=    29.40 Ry     beta= 0.05
     Davidson diagonalization with overlap
     ethr =  1.00E-02,  avg # of iterations = 25.6

[...]

     iteration # 67     ecut=    29.40 Ry     beta= 0.05
     Davidson diagonalization with overlap
     ethr =  1.36E-10,  avg # of iterations =  1.9

[...]

     total energy              =   -2942.82486000 Ry
     estimated scf accuracy    <       0.00000035 Ry

     iteration # 71     ecut=    29.40 Ry     beta= 0.05
     Davidson diagonalization with overlap
     c_bands:  1 eigenvalues not converged
     c_bands:  1 eigenvalues not converged
     ethr =  2.42E-11,  avg # of iterations = 13.5

     negative rho (up, down):  1.415E-02 0.000E+00

     Adding external electric field

     Computed dipole along edir(3) :
        Dipole                1.6030 Ry au,          4.0745 Debye
        Dipole field          0.0030 Ry au,

        Potential amp.       -0.2804 Ry
        Total length         46.3494 bohr

     End of self-consistent calculation

          k = 0.0000 0.0000 0.0000 ( 18029 PWs)   bands (ev):

   -55.1444 -55.1078 -55.1055 -55.0714 -55.0268 -55.0115 -54.9887 -54.9457
   -54.9333 -54.9253 -54.9105 -54.9004 -54.8651 -54.7930 -54.1174 -54.0833
   -31.7243 -31.5952 -31.5131 -31.4813 -31.4366 -31.4357 -31.4336 -31.4032
   -31.3992 -31.3954 -31.3691 -31.3541 -31.3503 -31.3220 -31.3043 -31.2791
   -31.2624 -31.2583 -31.2482 -31.2431 -31.2167 -31.2109 -31.2040 -31.1771
   -31.1625 -31.1560 -31.1487 -31.1414 -31.1413 -31.1301 -31.1280 -31.1219
   -31.1047 -31.0959 -31.0904 -31.0638 -31.0611 -31.0492 -31.0421 -31.0357
   -31.0249 -30.9829 -30.5260 -30.4339 -30.4118 -30.3425 -30.2558 -30.1448
   -18.9405 -16.0085 -15.7537 -15.6184 -15.3837 -15.3316 -15.2754 -15.0690
   -15.0662 -14.9942 -14.9791 -14.9310 -14.9114 -14.8443 -14.7597 -14.7384
   -14.6708 -14.6692 -14.6395 -14.6282 -14.6273 -14.5647 -14.5548 -14.5254
   -14.5124 -14.4872 -14.3692 -14.2847 -14.2261 -13.9736 -13.5923 -12.6201
   -12.5030  -9.7509  -7.7444  -7.1640  -5.4604  -3.8132  -3.3458  -3.2681
    -3.1701  -3.1420  -3.0649  -3.0354  -2.8507  -2.8295  -2.4882  -2.4495
    -2.4020  -2.3839  -2.3625  -2.3453  -2.1767  -2.1508  -2.0785  -2.0446
    -2.0256  -1.9860  -1.9700  -1.9595  -1.9259  -1.9200  -1.9111  -1.7039
    -1.6476  -1.5523  -1.5302  -1.5038  -1.4709  -1.4350  -1.4262  -1.4234
    -1.4173  -1.4039  -1.3912  -1.3109  -1.2503  -1.1717  -1.1622  -1.1262
    -1.0229  -0.9775  -0.7752  -0.7613  -0.7160  -0.6737  -0.6109  -0.5895
    -0.5229  -0.4924  -0.4722  -0.3511  -0.3225  -0.2826  -0.2549  -0.1875
    -0.1572  -0.1119  -0.0272   0.0443   0.0789   0.0976   0.1567   0.2866
     0.2983   0.3271   0.3884   0.4519   0.4925   0.5133   0.5314   0.5690
     0.6177   0.7435   0.7883   0.8080   0.8121   0.8462   0.8692   0.9208
     0.9451   1.0049   1.0105   1.1294   1.1987   1.4279   1.4616   1.4850
     1.8173   1.8406   1.9051   2.0910   2.4791   2.5263   3.9602   4.0208
     4.0775   4.0945   4.1134   4.2021   4.2221   4.4229   4.4503   4.4542
     4.4572

[...]

          k = 0.0380-0.0419 0.0000 ( 17876 PWs)   bands (ev):

[...]

          k =-0.0760-0.0000 0.0000 ( 17886 PWs)   bands (ev):

[...]

          k =-0.0760-0.0839 0.0000 ( 17948 PWs)   bands (ev):

   -55.1288 -55.1232 -55.0884 -55.0883 -55.0161 -55.0080 -54.9993 -54.9295
   -54.9286 -54.9255 -54.9180 -54.9166 -54.8614 -54.7966 -54.1004 -54.1002
   -31.5280 -31.5252 -31.4482 -31.4264 -31.4103 -31.4102 -31.3809 -31.3807
   -31.3553 -31.3497 -31.3468 -31.3462 -31.3113 -31.2773 -31.2707 -31.2664
   -31.2649 -31.2609 -31.2590 -31.2527 -31.2218 -31.2179 -31.2154 -31.2126
   -31.2078 -31.2077 -31.1941 -31.1920 -31.1642 -31.1596 -31.1441 -31.1401
   -31.1379 -31.1372 -31.1355 -31.1278 -31.1030 -31.0990 -31.0964 -31.0732
   -31.0474 -31.0302 -30.4245 -30.4243 -30.3386 -30.3384 -30.2992 -30.2991
   -18.9357 -15.5155 -15.4058 -15.2981 -15.2317 -15.1894 -15.1383 -15.1206
   -15.1101 -15.0643 -15.0348 -14.9655 -14.9018 -14.8488 -14.8478 -14.8130
   -14.7350 -14.7211 -14.7139 -14.7033 -14.6467 -14.6401 -14.6086 -14.5876
   -14.5845 -14.5548 -14.4808 -14.4784 -14.3911 -14.1816 -13.6282 -12.6046
   -12.6045  -9.7189  -7.7431  -7.1078  -5.4637  -3.8355  -3.4241  -2.7640
    -2.6531  -2.4422  -2.4163  -2.3565  -2.3354  -2.2489  -2.1899  -2.1685
    -2.1454  -2.1114  -2.1085  -2.0837  -2.0626  -2.0081  -1.9799  -1.9687
    -1.9626  -1.9477  -1.9354  -1.9148  -1.8584  -1.8484  -1.8410  -1.7987
    -1.7874  -1.7559  -1.7496  -1.7107  -1.6939  -1.6184  -1.5254  -1.5010
    -1.4418  -1.3401  -1.3267  -1.3211  -1.2278  -1.2193  -1.1898  -1.1590
    -1.1037  -1.0044  -0.9495  -0.8739  -0.8707  -0.8404  -0.7523  -0.6899
    -0.6558  -0.6464  -0.6070  -0.5492  -0.5259  -0.4936  -0.4107  -0.3690
    -0.3417  -0.3076  -0.2125  -0.1514  -0.1284  -0.0971  -0.0936  -0.0047
     0.0286   0.0655   0.0862   0.1245   0.1511   0.2157   0.2384   0.3483
     0.4185   0.4485   0.5670   0.5915   0.6557   0.7879   0.8592   0.9001
     0.9540   1.0110   1.0378   1.1682   1.1754   1.2001   1.2938   1.3342
     1.3411   1.3540   2.2638   2.2649   2.3464   2.3466   4.0923   4.1787
     4.2221   4.2596   4.3678   4.4766   4.4954   4.5382   4.5387   4.6150
     4.6200

     the Fermi energy is     4.0125 ev

!    total energy              =   -2942.82487981 Ry
     estimated scf accuracy    <       0.00000005 Ry
     smearing contrib. (-TS)   =      -0.03686612 Ry
     internal energy E=F+TS    =   -2942.78801368 Ry

     The total energy is F=E-TS. E is the sum of the following terms:
     one-electron contribution =  -23972.08804810 Ry
     hartree contribution      =   12081.52271499 Ry
     xc contribution           =    -487.77069909 Ry
     ewald contribution        =    9435.54316911 Ry
     electric field correction =       0.00484941 Ry

     convergence has been achieved in  71 iterations

     Forces acting on atoms (cartesian axes, Ry/au):

     atom    1 type  1   force =     0.00014570   -0.00023438    0.09428505
     atom    2 type  1   force =    -0.00009184   -0.00032905   -0.17740258
     atom    3 type  2   force =     0.00005733   -0.00016657   -0.02134676
     atom    4 type  2   force =    -0.00001571   -0.00172428    0.05657043
     atom    5 type  2   force =    -0.01054227   -0.00127516    0.00624076
     atom    6 type  2   force =     0.01220636   -0.00074380    0.00571209
     atom    7 type  1   force =    -0.00033782    0.00173267   -0.01623383
     atom    8 type  1   force =    -0.00010730    0.00437871    0.00558723
     atom    9 type  2   force =     0.00000587   -0.00003718   -0.00004406
     atom   10 type  2   force =    -0.00074540   -0.00022243   -0.00046244
     atom   11 type  2   force =     0.00034611    0.00012603   -0.00020402
     atom   12 type  2   force =    -0.00052304    0.00000449   -0.00013886
     atom   13 type  1   force =     0.00003281   -0.00034270    0.00019905
     atom   14 type  1   force =     0.00057339    0.00010555   -0.00031540
     atom   15 type  2   force =    -0.00039804    0.00014262   -0.00031097
     atom   16 type  2   force =    -0.00032800    0.00018004   -0.00006635
     atom   17 type  2   force =    -0.00023910    0.00001881    0.00026409
     atom   18 type  2   force =     0.00028002    0.00027120   -0.00023676
     atom   19 type  1   force =     0.00007386   -0.00005767    0.00020353
     atom   20 type  1   force =     0.00024164    0.00049274   -0.00009309
     atom   21 type  2   force =     0.00003424    0.00004046    0.10361474
     atom   22 type  2   force =    -0.00008295   -0.00074697   -0.00056654
     atom   23 type  2   force =    -0.07080938   -0.00009879   -0.02718031
     atom   24 type  2   force =     0.07067283    0.00033857   -0.02721249
     atom   25 type  1   force =    -0.00009333   -0.00020829    0.09374981
     atom   26 type  1   force =    -0.00013539   -0.00031504   -0.17731796
     atom   27 type  2   force =     0.00008875   -0.00035120   -0.02045478
     atom   28 type  2   force =     0.00003068   -0.00143799    0.05587920
     atom   29 type  2   force =    -0.01090222   -0.00073674    0.00608868
     atom   30 type  2   force =     0.01245466   -0.00029640    0.00556597
     atom   31 type  1   force =    -0.00016381    0.00465738   -0.01721551
     atom   32 type  1   force =    -0.00003404   -0.00482882    0.00559312
     atom   33 type  2   force =     0.00005749    0.00012259    0.00026782
     atom   34 type  2   force =     0.00005646   -0.00084777   -0.00298411
     atom   35 type  2   force =     0.00023098    0.00003154    0.00006433
     atom   36 type  2   force =    -0.00043143    0.00015665   -0.00007277
     atom   37 type  1   force =    -0.00013409   -0.00011195   -0.00008404
     atom   38 type  1   force =     0.00043795   -0.00028968    0.00037495
     atom   39 type  2   force =    -0.00046602    0.00011858    0.00060380
     atom   40 type  2   force =    -0.00011590    0.00020448   -0.00020680
     atom   41 type  2   force =     0.00045267    0.00018650    0.00105447
     atom   42 type  2   force =    -0.00006451    0.00020543   -0.00010347
     atom   43 type  1   force =    -0.00050091    0.00074367    0.00013969
     atom   44 type  1   force =    -0.00026732    0.00036062    0.00014852
     atom   45 type  2   force =     0.00002449    0.00000781    0.10362476
     atom   46 type  2   force =    -0.07080968   -0.00003750   -0.02717862
     atom   47 type  2   force =     0.07067464    0.00037679   -0.02718421
     atom   48 type  3   force =     0.00084052   -0.00349187   -0.00031782
     atom   49 type  4   force =     0.00016020   -0.00019896   -0.00058455
     atom   50 type  5   force =    -0.00011985    0.00008151    0.00007306
     atom   51 type  5   force =    -0.00017767   -0.00019416   -0.00012320
     atom   52 type  5   force =    -0.00022880    0.00002365    0.00020057
     atom   53 type  3   force =     0.00355007    0.02513136    0.00017856
     atom   54 type  5   force =    -0.00193359   -0.00794957   -0.00559153
     atom   55 type  5   force =     0.00110347   -0.00288474    0.00056739
     atom   56 type  5   force =    -0.00403376   -0.01008079    0.00438214

     Total force =     0.366783     Total SCF correction =     0.000451
  @ DRIVER MODE: Message from server: STATUS
  @ DRIVER MODE: Message from server: GETFORCE
  @ DRIVER MODE: Returning v,forces,stress,ensemble

     Writing output data file ./calc.save/
  @ DRIVER MODE: Message from server: EXIT
  @ DRIVE MODE: Exiting

     General routines

     Parallel routines

   This run was terminated on:  21:23:20   2Aug2021

   JOB DONE.