     Program PWSCF v.6.7GPU starts on  2Aug2021 at 23: 9:22

     R & G space division:  proc/nbgrp/npool/nimage =      16
     Reading input from /storage/home/hcoda1/3/ntian30/research/carbon/02Aug_vib_paired/ads_slab/CH3NNHH_a/out_0038/pw.inp
Warning: card &CELL ignored
Warning: card   CELL_DYNAMICS='IPI', ignored
Warning: card / ignored

     Current dimensions of program PWSCF are:
     Max number of different atomic species (ntypx) = 10
     Max number of k-points (npk) =  40000
     Max angular momentum in pseudopotentials (lmaxx) =  3
     Presently no symmetry can be used with electric field

     Message from routine cell_base_init:
     DEPRECATED: use true lattice parameter, not A to a.u. conversion factor

     IMPORTANT: XC functional enforced from input :
     Exchange-correlation= BEEF-VDW
                           (   1   4  43  14   2   0   0)
     Any further DFT definition will be discarded
     Please, verify this is what you really want

  @ DRIVER MODE: Connecting to
 qe_1139763_2482543.sched-torque.pace.gatech.edul53bpgg4_scratch
  using UNIX socket
  @ DRIVER MODE: Message from server: STATUS
  @ DRIVER MODE: Message from server: INIT
  @ DRIVER MODE: Receiving replica           0          -1
  @ DRIVER MODE: Receiving encoded integer          25
  @ DRIVER MODE:  SCF:  T  FORCE:  T  STRESS:  F  VC:  F  ENSEMBLE:  F
  @ DRIVER MODE:  SCF:  T  FORCE:  T  STRESS:  F  VC:  F  ENSEMBLE:  F

     Using Slab Decomposition

     bravais-lattice index     =            0
     lattice parameter (alat)  =       1.8897  a.u.
     unit-cell volume          =    6658.9804 (a.u.)^3
     number of atoms/cell      =           55
     number of atomic types    =            5
     number of electrons       =       397.00
     number of Kohn-Sham states=          208
     kinetic-energy cutoff     =      29.3995  Ry
     charge density cutoff     =     293.9946  Ry
     scf convergence threshold =      7.3E-08
     mixing beta               =       0.0500
     number of iterations used =            8  plain     mixing
     Exchange-correlation= BEEF-VDW
                           (   1   4  43  14   2   0   0)

     celldm(1)=   1.889726  celldm(2)=   0.000000  celldm(3)=   0.000000
     celldm(4)=   0.000000  celldm(5)=   0.000000  celldm(6)=   0.000000

     crystal axes: (cart. coord. in units of alat)
               a(1) = (   6.579727   0.000000   0.000000 )
               a(2) = (  -0.000775   5.961596   0.000000 )
               a(3) = (   0.000000   0.000000  25.155947 )

     reciprocal axes: (cart. coord. in units 2 pi/alat)
               b(1) = (  0.151982  0.000020  0.000000 )
               b(2) = (  0.000000  0.167740  0.000000 )
               b(3) = (  0.000000  0.000000  0.039752 )

     PseudoPot. # 1 for Ti read from file:
     /storage/coda1/p-amedford6/0/shared/rich_project_chbe-medford/medford-share/data/pseudos_module/espresso/nninc/pbe/van/Ti.UPF
     MD5 check sum: 8e4df49b7f0d34bbd5052bf3f5ea0213
     Pseudo is Ultrasoft, Zval = 12.0
     Generated by new atomic code, or converted to UPF format
     Using radial grid of  851 points,  6 beta functions with:
                l(1) =   0
                l(2) =   0
                l(3) =   1
                l(4) =   1
                l(5) =   2
                l(6) =   2
     Q(r) pseudized with  8 coefficients,  rinner =    1.000   1.000   1.000
                                                       1.000   1.000

     PseudoPot. # 2 for O  read from file:
     /storage/coda1/p-amedford6/0/shared/rich_project_chbe-medford/medford-share/data/pseudos_module/espresso/nninc/pbe/van/O.UPF
     MD5 check sum: 78c19812648e8988a0fe644b0f25305e
     Pseudo is Ultrasoft, Zval =  6.0
     Generated by new atomic code, or converted to UPF format
     Using radial grid of  737 points,  4 beta functions with:
                l(1) =   0
                l(2) =   0
                l(3) =   1
                l(4) =   1
     Q(r) pseudized with  8 coefficients,  rinner =    0.800   0.800   0.800

     PseudoPot. # 3 for N  read from file:
     /storage/coda1/p-amedford6/0/shared/rich_project_chbe-medford/medford-share/data/pseudos_module/espresso/nninc/pbe/van/N.UPF
     MD5 check sum: 90d10febe142ad51ac9d5be1deb811c4
     Pseudo is Ultrasoft, Zval =  5.0
     Generated by new atomic code, or converted to UPF format
     Using radial grid of  729 points,  4 beta functions with:
                l(1) =   0
                l(2) =   0
                l(3) =   1
                l(4) =   1
     Q(r) pseudized with  8 coefficients,  rinner =    0.800   0.800   0.800

     PseudoPot. # 4 for C  read from file:
     /storage/coda1/p-amedford6/0/shared/rich_project_chbe-medford/medford-share/data/pseudos_module/espresso/nninc/pbe/van/C.UPF
     MD5 check sum: 1a69bf6b8db32088f5b2163dbdb77a27
     Pseudo is Ultrasoft, Zval =  4.0
     Generated by new atomic code, or converted to UPF format
     Using radial grid of  721 points,  4 beta functions with:
                l(1) =   0
                l(2) =   0
                l(3) =   1
                l(4) =   1
     Q(r) pseudized with  8 coefficients,  rinner =    0.800   0.800   0.800

     PseudoPot. # 5 for H  read from file:
     /storage/coda1/p-amedford6/0/shared/rich_project_chbe-medford/medford-share/data/pseudos_module/espresso/nninc/pbe/van/H.UPF
     MD5 check sum: b5ee9d7bfd3a09ee7748110bda690ff7
     Pseudo is Ultrasoft, Zval =  1.0
     Generated by new atomic code, or converted to UPF format
     Using radial grid of  615 points,  1 beta functions with:
                l(1) =   0
     Q(r) pseudized with  8 coefficients,  rinner =    0.800

     atomic species   valence    mass     pseudopotential
        Ti1           12.00    47.86700     Ti( 1.00)
        O1             6.00    15.99900     O ( 1.00)
        N1             5.00    14.00700     N ( 1.00)
        C1             4.00    12.01100     C ( 1.00)
        H1             1.00     1.00800     H ( 1.00)

     No symmetry found

   Cartesian axes

     site n.     atom                  positions (alat units)
         1           Ti1 tau(   1) = (   0.0004258   2.9801865   6.0000000  )
         2           Ti1 tau(   2) = (   3.2906075   1.4906267   6.0002472  )
         3           O1  tau(   3) = (   0.0006271   0.0005054   7.9858123  )
         4           O1  tau(   4) = (   3.2906025   0.0005020   7.3038282  )
         5           O1  tau(   5) = (   4.5942328   1.4918067   9.2879030  )
         6           O1  tau(   6) = (   1.9868534   1.4903216   9.2879459  )
         7           Ti1 tau(   7) = (   3.2907910   2.8959150   9.1758416  )
         8           Ti1 tau(   8) = (   0.0015273   1.4827037   9.2680791  )
         9           O1  tau(   9) = (   3.3049802   0.0007868  11.3057318  )
        10           O1  tau(  10) = (   0.0116148   5.9584955  10.6183126  )
        11           O1  tau(  11) = (   1.3244024   1.4905818  12.6109357  )
        12           O1  tau(  12) = (   5.3168099   1.4893704  12.6271843  )
        13           Ti1 tau(  13) = (   6.5373159   3.0114403  12.6515439  )
        14           Ti1 tau(  14) = (   3.2156784   1.4952808  12.4541107  )
        15           O1  tau(  15) = (   0.0550716   5.9579553  14.6769760  )
        16           O1  tau(  16) = (   3.3119233   0.0240268  13.8744051  )
        17           O1  tau(  17) = (   4.5754650   1.5399768  16.1198157  )
        18           O1  tau(  18) = (   2.0928293   1.5118261  15.9950610  )
        19           Ti1 tau(  19) = (   3.3312717   3.0210965  15.6459898  )
        20           Ti1 tau(  20) = (   0.0837956   1.4057146  15.8023643  )
        21           O1  tau(  21) = (   3.2904802   0.0005063   4.7018136  )
        22           O1  tau(  22) = (   0.0662678   0.0194342  17.2484716  )
        23           O1  tau(  23) = (   1.3043587   1.4918075   6.0039043  )
        24           O1  tau(  24) = (   5.2767064   1.4903225   6.0039473  )
        25           Ti1 tau(  25) = (   0.0000382   5.9609847   6.0000000  )
        26           Ti1 tau(  26) = (   3.2902200   4.4714249   6.0002472  )
        27           O1  tau(  27) = (   0.0002396   2.9813036   7.9858123  )
        28           O1  tau(  28) = (   3.2902150   2.9813002   7.3038282  )
        29           O1  tau(  29) = (   4.5938453   4.4726049   9.2879030  )
        30           O1  tau(  30) = (   1.9864658   4.4711199   9.2879459  )
        31           Ti1 tau(  31) = (   3.2891106   5.8743827   9.1763621  )
        32           Ti1 tau(  32) = (   0.0006254   4.4649316   9.2693709  )
        33           O1  tau(  33) = (   3.3066024   2.9928613  11.3071500  )
        34           O1  tau(  34) = (   0.0092240   2.9805883  10.6323155  )
        35           O1  tau(  35) = (   1.3207996   4.4694119  12.6241097  )
        36           O1  tau(  36) = (   5.3140488   4.4801720  12.6365454  )
        37           Ti1 tau(  37) = (   6.5381296   0.0208815  12.5444857  )
        38           Ti1 tau(  38) = (   3.2183512   4.4801350  12.4586296  )
        39           O1  tau(  39) = (   0.0202472   2.9427232  14.7250097  )
        40           O1  tau(  40) = (   3.3152672   2.9848540  13.8607131  )
        41           O1  tau(  41) = (   4.5737023   4.5140360  15.9163038  )
        42           O1  tau(  42) = (   2.1295162   4.4918226  16.0779194  )
        43           Ti1 tau(  43) = (   3.3279662   0.0229233  15.6733299  )
        44           Ti1 tau(  44) = (   6.5520288   4.5036137  16.2892914  )
        45           O1  tau(  45) = (   3.2900926   2.9813045   4.7018136  )
        46           O1  tau(  46) = (   1.3039711   4.4726057   6.0039043  )
        47           O1  tau(  47) = (   5.2763189   4.4711207   6.0039473  )
        48           N1  tau(  48) = (   0.3708600   2.9881754  17.6030774  )
        49           C1  tau(  49) = (   1.3543844   2.7351176  18.6431602  )
        50           H1  tau(  50) = (   1.5086739   3.6319226  19.2591966  )
        51           H1  tau(  51) = (   1.0320479   1.9069190  19.2840631  )
        52           H1  tau(  52) = (   2.3019873   2.4496563  18.1994378  )
        53           N1  tau(  53) = (   5.7269228   3.4566738  18.1314761  )
        54           H1  tau(  54) = (   5.8415057   4.0292447  18.9662490  )
        55           H1  tau(  55) = (   5.0361168   2.7172796  18.2515220  )

     number of k points=    10  Fermi-Dirac smearing, width (Ry)=  0.0073
                       cart. coord. in units 2pi/alat
        k(    1) = (   0.0000000   0.0000000   0.0000000), wk =   0.1250000
        k(    2) = (   0.0000000   0.0419351   0.0000000), wk =   0.2500000
        k(    3) = (   0.0000000  -0.0838702   0.0000000), wk =   0.1250000
        k(    4) = (   0.0379955   0.0000049   0.0000000), wk =   0.2500000
        k(    5) = (   0.0379955   0.0419400   0.0000000), wk =   0.2500000
        k(    6) = (   0.0379955  -0.0838652   0.0000000), wk =   0.2500000
        k(    7) = (   0.0379955  -0.0419301   0.0000000), wk =   0.2500000
        k(    8) = (  -0.0759910  -0.0000099   0.0000000), wk =   0.1250000
        k(    9) = (  -0.0759910   0.0419252   0.0000000), wk =   0.2500000
        k(   10) = (  -0.0759910  -0.0838800   0.0000000), wk =   0.1250000

     Initial potential from superposition of free atoms

     starting charge  380.99914, renormalised to  397.00000

     negative rho (up, down):  1.666E-02 0.000E+00

     %%%%%%%%%%%%%%%%%%%%%%%%%%%%%%%%%%%%%%%%%%%%%%%%%%%%%%%%%%%%%%%%%%%%%%%%
     %                                                                      %
     % You are using vdW-DF, which was implemented by the Thonhauser group. %
     % Please cite the following two papers that made this development      %
     % possible and the two reviews that describe the various versions:     %
     %                                                                      %
     %   T. Thonhauser et al., PRL 115, 136402 (2015).                      %
     %   T. Thonhauser et al., PRB 76, 125112 (2007).                       %
     %   K. Berland et al., Rep. Prog. Phys. 78, 066501 (2015).             %
     %   D.C. Langreth et al., J. Phys.: Condens. Matter 21, 084203 (2009). %
     %                                                                      %
     %                                                                      %
     % If you are calculating the stress with vdW-DF, please also cite:     %
     %                                                                      %
     %   R. Sabatini et al., J. Phys.: Condens. Matter 24, 424209 (2012).   %
     %                                                                      %
     %%%%%%%%%%%%%%%%%%%%%%%%%%%%%%%%%%%%%%%%%%%%%%%%%%%%%%%%%%%%%%%%%%%%%%%%

     Adding external electric field

     Computed dipole along edir(3) :
        Dipole               -9.2540 Ry au,        -23.5213 Debye
        Dipole field         -0.0175 Ry au,

        Potential amp.        1.6188 Ry
        Total length         46.3494 bohr

     Starting wfcs are  301 atomic wfcs
  @ DRIVER MODE: Message from server: STATUS
  @ DRIVER MODE: Message from server: POSDATA
  @ DRIVER MODE: Reading and sharing cell
  @ DRIVER MODE: Reading and sharing positions
  @ DRIVER MODE: Received positions

     Self-consistent Calculation

     iteration #  1     ecut=    29.40 Ry     beta= 0.05
     Davidson diagonalization with overlap
     c_bands:  1 eigenvalues not converged
     c_bands:  2 eigenvalues not converged
     c_bands:  1 eigenvalues not converged
     c_bands:  2 eigenvalues not converged
     c_bands:  2 eigenvalues not converged
     c_bands:  1 eigenvalues not converged
     c_bands:  2 eigenvalues not converged
     c_bands:  2 eigenvalues not converged
     c_bands:  4 eigenvalues not converged
     ethr =  1.00E-05,  avg # of iterations = 19.7

[...]

     total energy              =   -2525.58614234 Ry
     estimated scf accuracy    <    4612.77163047 Ry

     iteration #  2     ecut=    29.40 Ry     beta= 0.05
     Davidson diagonalization with overlap
     ethr =  1.00E-02,  avg # of iterations = 23.3

[...]

     iteration # 66     ecut=    29.40 Ry     beta= 0.05
     Davidson diagonalization with overlap
     c_bands:  2 eigenvalues not converged
     ethr =  1.90E-10,  avg # of iterations =  8.9

[...]

     total energy              =   -2941.63750818 Ry
     estimated scf accuracy    <       0.00000010 Ry

     iteration # 71     ecut=    29.40 Ry     beta= 0.05
     Davidson diagonalization with overlap
     ethr =  1.99E-11,  avg # of iterations =  6.3

     negative rho (up, down):  1.675E-02 0.000E+00

     Adding external electric field

     Computed dipole along edir(3) :
        Dipole                1.1492 Ry au,          2.9210 Debye
        Dipole field          0.0022 Ry au,

        Potential amp.       -0.2010 Ry
        Total length         46.3494 bohr

     End of self-consistent calculation

          k = 0.0000 0.0000 0.0000 ( 18029 PWs)   bands (ev):

   -55.5721 -55.5695 -55.5354 -55.5353 -55.4585 -55.4223 -55.4206 -55.3872
   -55.3699 -55.3358 -55.3246 -55.2908 -55.0316 -54.8871 -54.5358 -54.5018
   -32.1349 -32.0507 -31.9558 -31.8916 -31.8866 -31.8719 -31.8620 -31.8172
   -31.8100 -31.8035 -31.7832 -31.7581 -31.7541 -31.7247 -31.7218 -31.7140
   -31.6727 -31.6593 -31.6564 -31.6474 -31.6466 -31.6269 -31.6103 -31.5947
   -31.5678 -31.5670 -31.5654 -31.5574 -31.5550 -31.5285 -31.5049 -31.5040
   -31.4982 -31.4916 -31.4791 -31.4733 -31.4383 -31.3079 -31.2566 -31.1581
   -31.1400 -31.0478 -30.9422 -30.8556 -30.8331 -30.7593 -30.6728 -30.5615
   -17.5968 -16.3609 -16.0477 -15.8366 -15.7254 -15.7208 -15.6370 -15.4160
   -15.2959 -15.2805 -15.1642 -15.1592 -15.1007 -15.0600 -15.0536 -15.0478
   -15.0131 -15.0009 -14.9826 -14.9523 -14.9138 -14.8961 -14.8763 -14.7700
   -14.7082 -14.6983 -14.6826 -14.6155 -14.5717 -14.2075 -13.0378 -12.9216
   -12.5382  -9.1993  -6.3649  -5.0911  -4.2007  -3.7392  -3.5481  -3.4727
    -3.4377  -3.3737  -3.3608  -3.1816  -3.1741  -2.7961  -2.7752  -2.7561
    -2.7346  -2.7319  -2.4640  -2.4105  -2.3945  -2.3920  -2.3744  -2.3569
    -2.3355  -2.3248  -2.2966  -2.2899  -2.1548  -2.1102  -2.0313  -2.0007
    -1.9908  -1.8776  -1.8542  -1.8327  -1.8218  -1.8073  -1.7791  -1.7712
    -1.7509  -1.6421  -1.5335  -1.4598  -1.4140  -1.3602  -1.3423  -1.1615
    -1.1113  -1.0520  -1.0269  -1.0017  -0.9867  -0.9532  -0.8788  -0.8547
    -0.7130  -0.6749  -0.6218  -0.5957  -0.5650  -0.5095  -0.4742  -0.4464
    -0.3501  -0.3371  -0.3255  -0.3126  -0.2533  -0.0647  -0.0174   0.0008
     0.0165   0.1165   0.1562   0.1789   0.2159   0.2717   0.2976   0.3643
     0.3945   0.4139   0.4238   0.4479   0.4702   0.6018   0.6294   0.6595
     0.7185   0.7725   0.8489   0.9609   1.0471   1.1000   1.2012   1.4196
     1.4867   1.5707   1.6805   1.7033   2.0562   2.1012   3.5657   3.6562
     3.6945   3.7083   3.8153   3.8670   4.0147   4.0246   4.0674   4.0962

[...]

          k = 0.0380-0.0419 0.0000 ( 17876 PWs)   bands (ev):

[...]

          k =-0.0760-0.0000 0.0000 ( 17886 PWs)   bands (ev):

[...]

          k =-0.0760-0.0839 0.0000 ( 17948 PWs)   bands (ev):

   -55.5569 -55.5529 -55.5518 -55.5503 -55.4477 -55.4313 -55.4072 -55.4021
   -55.3543 -55.3509 -55.3093 -55.3061 -55.0302 -54.8884 -54.5188 -54.5187
   -31.9399 -31.9311 -31.8664 -31.8657 -31.8479 -31.8469 -31.8420 -31.8268
   -31.8000 -31.7863 -31.7668 -31.7481 -31.7199 -31.7113 -31.7063 -31.6813
   -31.6791 -31.6727 -31.6713 -31.6668 -31.6636 -31.6508 -31.6476 -31.6435
   -31.6245 -31.6124 -31.6023 -31.6003 -31.5516 -31.5494 -31.5423 -31.5405
   -31.5336 -31.5301 -31.5247 -31.5230 -31.4133 -31.3201 -31.2584 -31.2192
   -31.1456 -31.0597 -30.8458 -30.8458 -30.7551 -30.7549 -30.7161 -30.7161
   -17.5850 -15.8185 -15.7829 -15.5252 -15.5178 -15.5160 -15.4744 -15.3517
   -15.3032 -15.2765 -15.2650 -15.2462 -15.2397 -15.1348 -15.1224 -15.1050
   -15.0952 -15.0694 -15.0256 -15.0198 -15.0127 -15.0024 -14.9905 -14.9261
   -14.8711 -14.8673 -14.7587 -14.6642 -14.5216 -14.4378 -13.0236 -13.0233
   -12.5575  -9.1599  -6.3246  -5.1208  -4.1335  -3.4313  -3.1197  -3.0758
    -2.7872  -2.7679  -2.7542  -2.6379  -2.5177  -2.5088  -2.4841  -2.4609
    -2.4281  -2.4137  -2.4054  -2.3970  -2.3787  -2.3600  -2.3489  -2.3104
    -2.2412  -2.2338  -2.2252  -2.2162  -2.1997  -2.1758  -2.1658  -2.1378
    -2.1134  -2.0803  -2.0209  -1.9901  -1.8393  -1.7931  -1.7386  -1.6947
    -1.6863  -1.6571  -1.6236  -1.6161  -1.5082  -1.4936  -1.4587  -1.3291
    -1.2674  -1.2594  -1.2266  -1.1412  -1.1018  -0.9721  -0.9591  -0.9232
    -0.8691  -0.8581  -0.8210  -0.7835  -0.7315  -0.6799  -0.6362  -0.6115
    -0.5952  -0.5231  -0.5224  -0.4762  -0.4187  -0.3502  -0.3254  -0.3177
    -0.2865  -0.2424  -0.1965  -0.1314  -0.0568  -0.0370  -0.0211   0.0768
     0.1531   0.3689   0.4146   0.5160   0.5360   0.5612   0.6243   0.6732
     0.7427   0.7567   0.7860   0.8598   0.8815   0.9729   0.9834   0.9998
     1.1784   1.6349   1.8522   1.8531   1.9208   1.9214   3.8600   3.8735
     3.8996   3.9237   4.0851   4.0889   4.1010   4.1038   4.2240   4.2546

     the Fermi energy is     3.5646 ev

!    total energy              =   -2941.63752470 Ry
     estimated scf accuracy    <       0.00000005 Ry
     smearing contrib. (-TS)   =      -0.02170624 Ry
     internal energy E=F+TS    =   -2941.61581846 Ry

     The total energy is F=E-TS. E is the sum of the following terms:
     one-electron contribution =  -24405.33285055 Ry
     hartree contribution      =   12294.62496164 Ry
     xc contribution           =    -486.94413260 Ry
     ewald contribution        =    9656.03371070 Ry
     electric field correction =       0.00249235 Ry

     convergence has been achieved in  71 iterations

     Forces acting on atoms (cartesian axes, Ry/au):

     atom    1 type  1   force =     0.00002272   -0.00018551    0.09681992
     atom    2 type  1   force =     0.00010708   -0.00066911   -0.17456879
     atom    3 type  2   force =     0.00020081   -0.00005248   -0.02508691
     atom    4 type  2   force =     0.00001521   -0.00122301    0.05106483
     atom    5 type  2   force =    -0.01106031   -0.00078853    0.00212849
     atom    6 type  2   force =     0.01301361   -0.00028877    0.00280517
     atom    7 type  1   force =     0.00113924    0.00019992   -0.01335952
     atom    8 type  1   force =    -0.00018560    0.01540694    0.02796181
     atom    9 type  2   force =    -0.00011412    0.00045052    0.00001484
     atom   10 type  2   force =    -0.00221447    0.00097744   -0.01127037
     atom   11 type  2   force =     0.00029135   -0.00011302    0.00017168
     atom   12 type  2   force =    -0.00026505   -0.00012082    0.00039939
     atom   13 type  1   force =    -0.00008513   -0.00027429    0.00011169
     atom   14 type  1   force =     0.00012024    0.00012691   -0.00005738
     atom   15 type  2   force =     0.00011015   -0.00057751   -0.00036556
     atom   16 type  2   force =    -0.00043854    0.00017069    0.00028900
     atom   17 type  2   force =    -0.00016276    0.00001356   -0.00001462
     atom   18 type  2   force =    -0.00033471   -0.00003419    0.00017527
     atom   19 type  1   force =    -0.00006663    0.00039202   -0.00030679
     atom   20 type  1   force =    -0.00027206    0.00007649    0.00025558
     atom   21 type  2   force =     0.00005082   -0.00009702    0.10298487
     atom   22 type  2   force =    -0.00073034   -0.00039544    0.00041745
     atom   23 type  2   force =    -0.07180686   -0.00021731   -0.02779069
     atom   24 type  2   force =     0.07177788    0.00023722   -0.02784862
     atom   25 type  1   force =     0.00004644   -0.00023100    0.09636151
     atom   26 type  1   force =    -0.00000942   -0.00030917   -0.17483824
     atom   27 type  2   force =     0.00020368   -0.00025481   -0.02393417
     atom   28 type  2   force =     0.00007623   -0.00096257    0.05129004
     atom   29 type  2   force =    -0.01106029    0.00095521    0.00149126
     atom   30 type  2   force =     0.01286651    0.00119852    0.00212286
     atom   31 type  1   force =     0.00115316    0.00256924   -0.01567266
     atom   32 type  1   force =    -0.00002251   -0.01668004    0.02887720
     atom   33 type  2   force =    -0.00017754   -0.00045292    0.00043845
     atom   34 type  2   force =    -0.00258214    0.00114378   -0.01890635
     atom   35 type  2   force =    -0.00011156   -0.00010951    0.00003841
     atom   36 type  2   force =    -0.00003616   -0.00018729    0.00022796
     atom   37 type  1   force =    -0.00024540   -0.00016746    0.00049826
     atom   38 type  1   force =     0.00010178   -0.00053614    0.00034088
     atom   39 type  2   force =     0.00004347    0.00047039    0.00018230
     atom   40 type  2   force =    -0.00031806   -0.00013252   -0.00069433
     atom   41 type  2   force =     0.00018542   -0.00001820    0.00006955
     atom   42 type  2   force =    -0.00014959    0.00020401    0.00020562
     atom   43 type  1   force =     0.00002255   -0.00048779   -0.00077362
     atom   44 type  1   force =    -0.00050882    0.00127867   -0.00029886
     atom   45 type  2   force =     0.00006313   -0.00011348    0.10299558
     atom   46 type  2   force =    -0.07182736   -0.00017044   -0.02780413
     atom   47 type  2   force =     0.07178704    0.00021329   -0.02785091
     atom   48 type  3   force =    -0.00008071   -0.00205692   -0.00135751
     atom   49 type  4   force =    -0.00004658    0.00080229    0.00030725
     atom   50 type  5   force =     0.00009279   -0.00004461    0.00039232
     atom   51 type  5   force =    -0.00084795   -0.00065389   -0.00004607
     atom   52 type  5   force =     0.00137814   -0.00028268    0.00001926
     atom   53 type  3   force =     0.00280903    0.00233179    0.00212563
     atom   54 type  5   force =    -0.00197064   -0.00149962    0.00013498
     atom   55 type  5   force =     0.00005283    0.00116919   -0.00087317

     Total force =     0.367133     Total SCF correction =     0.000512
  @ DRIVER MODE: Message from server: STATUS
  @ DRIVER MODE: Message from server: GETFORCE
  @ DRIVER MODE: Returning v,forces,stress,ensemble

     Writing output data file ./calc.save/
  @ DRIVER MODE: Message from server: EXIT
  @ DRIVE MODE: Exiting

     General routines

     Parallel routines

   This run was terminated on:  23:26: 9   2Aug2021

   JOB DONE.