     Program PWSCF v.6.7GPU starts on 16Jul2021 at  6:21:42

     R & G space division:  proc/nbgrp/npool/nimage =      16
     Reading input from /storage/home/hcoda1/3/ntian30/research/carbon/15Jul_vib/ads_slab/CH3NH_a/out_0028/pw.inp
Warning: card &CELL ignored
Warning: card   CELL_DYNAMICS='IPI', ignored
Warning: card / ignored

     Current dimensions of program PWSCF are:
     Max number of different atomic species (ntypx) = 10
     Max number of k-points (npk) =  40000
     Max angular momentum in pseudopotentials (lmaxx) =  3
     Presently no symmetry can be used with electric field

     Message from routine cell_base_init:
     DEPRECATED: use true lattice parameter, not A to a.u. conversion factor

     IMPORTANT: XC functional enforced from input :
     Exchange-correlation= BEEF-VDW
                           (   1   4  43  14   2   0   0)
     Any further DFT definition will be discarded
     Please, verify this is what you really want

  @ DRIVER MODE: Connecting to
 qe_1139763_2351648.sched-torque.pace.gatech.edu05bak4ph_scratch
  using UNIX socket
  @ DRIVER MODE: Message from server: STATUS
  @ DRIVER MODE: Message from server: INIT
  @ DRIVER MODE: Receiving replica           0          -1
  @ DRIVER MODE: Receiving encoded integer          25
  @ DRIVER MODE:  SCF:  T  FORCE:  T  STRESS:  F  VC:  F  ENSEMBLE:  F
  @ DRIVER MODE:  SCF:  T  FORCE:  T  STRESS:  F  VC:  F  ENSEMBLE:  F

     Using Slab Decomposition

     bravais-lattice index     =            0
     lattice parameter (alat)  =       1.8897  a.u.
     unit-cell volume          =    6658.9804 (a.u.)^3
     number of atoms/cell      =           53
     number of atomic types    =            5
     number of electrons       =       391.00
     number of Kohn-Sham states=          205
     kinetic-energy cutoff     =      29.3995  Ry
     charge density cutoff     =     293.9946  Ry
     scf convergence threshold =      7.3E-08
     mixing beta               =       0.0500
     number of iterations used =            8  plain     mixing
     Exchange-correlation= BEEF-VDW
                           (   1   4  43  14   2   0   0)

     celldm(1)=   1.889726  celldm(2)=   0.000000  celldm(3)=   0.000000
     celldm(4)=   0.000000  celldm(5)=   0.000000  celldm(6)=   0.000000

     crystal axes: (cart. coord. in units of alat)
               a(1) = (   6.579727   0.000000   0.000000 )
               a(2) = (  -0.000775   5.961596   0.000000 )
               a(3) = (   0.000000   0.000000  25.155947 )

     reciprocal axes: (cart. coord. in units 2 pi/alat)
               b(1) = (  0.151982  0.000020  0.000000 )
               b(2) = (  0.000000  0.167740  0.000000 )
               b(3) = (  0.000000  0.000000  0.039752 )

     PseudoPot. # 1 for Ti read from file:
     /storage/coda1/p-amedford6/0/shared/rich_project_chbe-medford/medford-share/data/pseudos_module/espresso/nninc/pbe/van/Ti.UPF
     MD5 check sum: 8e4df49b7f0d34bbd5052bf3f5ea0213
     Pseudo is Ultrasoft, Zval = 12.0
     Generated by new atomic code, or converted to UPF format
     Using radial grid of  851 points,  6 beta functions with:
                l(1) =   0
                l(2) =   0
                l(3) =   1
                l(4) =   1
                l(5) =   2
                l(6) =   2
     Q(r) pseudized with  8 coefficients,  rinner =    1.000   1.000   1.000
                                                       1.000   1.000

     PseudoPot. # 2 for O  read from file:
     /storage/coda1/p-amedford6/0/shared/rich_project_chbe-medford/medford-share/data/pseudos_module/espresso/nninc/pbe/van/O.UPF
     MD5 check sum: 78c19812648e8988a0fe644b0f25305e
     Pseudo is Ultrasoft, Zval =  6.0
     Generated by new atomic code, or converted to UPF format
     Using radial grid of  737 points,  4 beta functions with:
                l(1) =   0
                l(2) =   0
                l(3) =   1
                l(4) =   1
     Q(r) pseudized with  8 coefficients,  rinner =    0.800   0.800   0.800

     PseudoPot. # 3 for H  read from file:
     /storage/coda1/p-amedford6/0/shared/rich_project_chbe-medford/medford-share/data/pseudos_module/espresso/nninc/pbe/van/H.UPF
     MD5 check sum: b5ee9d7bfd3a09ee7748110bda690ff7
     Pseudo is Ultrasoft, Zval =  1.0
     Generated by new atomic code, or converted to UPF format
     Using radial grid of  615 points,  1 beta functions with:
                l(1) =   0
     Q(r) pseudized with  8 coefficients,  rinner =    0.800

     PseudoPot. # 4 for N  read from file:
     /storage/coda1/p-amedford6/0/shared/rich_project_chbe-medford/medford-share/data/pseudos_module/espresso/nninc/pbe/van/N.UPF
     MD5 check sum: 90d10febe142ad51ac9d5be1deb811c4
     Pseudo is Ultrasoft, Zval =  5.0
     Generated by new atomic code, or converted to UPF format
     Using radial grid of  729 points,  4 beta functions with:
                l(1) =   0
                l(2) =   0
                l(3) =   1
                l(4) =   1
     Q(r) pseudized with  8 coefficients,  rinner =    0.800   0.800   0.800

     PseudoPot. # 5 for C  read from file:
     /storage/coda1/p-amedford6/0/shared/rich_project_chbe-medford/medford-share/data/pseudos_module/espresso/nninc/pbe/van/C.UPF
     MD5 check sum: 1a69bf6b8db32088f5b2163dbdb77a27
     Pseudo is Ultrasoft, Zval =  4.0
     Generated by new atomic code, or converted to UPF format
     Using radial grid of  721 points,  4 beta functions with:
                l(1) =   0
                l(2) =   0
                l(3) =   1
                l(4) =   1
     Q(r) pseudized with  8 coefficients,  rinner =    0.800   0.800   0.800

     atomic species   valence    mass     pseudopotential
        Ti1           12.00    47.86700     Ti( 1.00)
        O1             6.00    15.99900     O ( 1.00)
        H1             1.00     1.00800     H ( 1.00)
        N1             5.00    14.00700     N ( 1.00)
        C1             4.00    12.01100     C ( 1.00)

     Starting magnetic structure
     atomic species   magnetization
        Ti1          0.000
        O1           0.000
        H1           0.000
        N1           0.000
        C1           0.025

     No symmetry found

   Cartesian axes

     site n.     atom                  positions (alat units)
         1           Ti1 tau(   1) = (   0.0004258   2.9801865   6.0000000  )
         2           Ti1 tau(   2) = (   3.2906075   1.4906267   6.0002472  )
         3           O1  tau(   3) = (   0.0006271   0.0005054   7.9858123  )
         4           O1  tau(   4) = (   3.2906025   0.0005020   7.3038282  )
         5           O1  tau(   5) = (   4.5942328   1.4918067   9.2879030  )
         6           O1  tau(   6) = (   1.9868534   1.4903216   9.2879459  )
         7           Ti1 tau(   7) = (   3.2907910   2.8959150   9.1758416  )
         8           Ti1 tau(   8) = (   0.0015273   1.4827037   9.2680791  )
         9           O1  tau(   9) = (   3.2884659   0.0075485  11.3235732  )
        10           O1  tau(  10) = (   0.0116148   5.9584955  10.6183126  )
        11           O1  tau(  11) = (   1.3171120   1.5008813  12.6157184  )
        12           O1  tau(  12) = (   5.2946386   1.4924346  12.6071097  )
        13           Ti1 tau(  13) = (   6.5241923   2.9548932  12.6217359  )
        14           Ti1 tau(  14) = (   3.2094326   1.4975571  12.4685497  )
        15           O1  tau(  15) = (   6.5712017   0.0435206  14.6415704  )
        16           O1  tau(  16) = (   3.3105969   0.0188825  13.9167609  )
        17           O1  tau(  17) = (   4.5276945   1.5520673  16.0775932  )
        18           O1  tau(  18) = (   2.0451199   1.5488911  16.0433559  )
        19           Ti1 tau(  19) = (   3.3056363   3.0248959  15.6834923  )
        20           Ti1 tau(  20) = (   0.0598299   1.5678558  15.8702049  )
        21           O1  tau(  21) = (   3.2904802   0.0005063   4.7018136  )
        22           O1  tau(  22) = (   0.0261329   0.0581799  17.1997403  )
        23           O1  tau(  23) = (   1.3043587   1.4918075   6.0039043  )
        24           O1  tau(  24) = (   5.2767064   1.4903225   6.0039473  )
        25           Ti1 tau(  25) = (   0.0000382   5.9609847   6.0000000  )
        26           Ti1 tau(  26) = (   3.2902200   4.4714249   6.0002472  )
        27           O1  tau(  27) = (   0.0002396   2.9813036   7.9858123  )
        28           O1  tau(  28) = (   3.2902150   2.9813002   7.3038282  )
        29           O1  tau(  29) = (   4.5938453   4.4726049   9.2879030  )
        30           O1  tau(  30) = (   1.9864658   4.4711199   9.2879459  )
        31           Ti1 tau(  31) = (   3.2891106   5.8743827   9.1763621  )
        32           Ti1 tau(  32) = (   0.0006254   4.4649316   9.2693709  )
        33           O1  tau(  33) = (   3.2900467   2.9919642  11.3219399  )
        34           O1  tau(  34) = (   0.0092240   2.9805883  10.6323155  )
        35           O1  tau(  35) = (   1.3109590   4.4888342  12.6262493  )
        36           O1  tau(  36) = (   5.2962169   4.4808628  12.6191006  )
        37           Ti1 tau(  37) = (   6.5213093   5.9327278  12.5667326  )
        38           Ti1 tau(  38) = (   3.2063601   4.4772876  12.4706241  )
        39           O1  tau(  39) = (   6.5765807   2.9606619  14.6437028  )
        40           O1  tau(  40) = (   3.3047873   3.0036736  13.8926904  )
        41           O1  tau(  41) = (   4.5386289   4.5058657  16.0833063  )
        42           O1  tau(  42) = (   2.0584685   4.5123608  16.0729366  )
        43           Ti1 tau(  43) = (   3.3398093   0.0384087  15.7085799  )
        44           Ti1 tau(  44) = (   0.0478225   4.6849499  16.0879628  )
        45           O1  tau(  45) = (   3.2900926   2.9813045   4.7018136  )
        46           O1  tau(  46) = (   1.3039711   4.4726057   6.0039043  )
        47           O1  tau(  47) = (   5.2763189   4.4711207   6.0039473  )
        48           H1  tau(  48) = (   5.6109407   2.9912845  17.7881963  )
        49           N1  tau(  49) = (   6.5652763   3.0051276  17.4431066  )
        50           C1  tau(  50) = (   0.8863280   2.9891452  18.6126320  )
        51           H1  tau(  51) = (   1.3596840   3.9617220  18.7724638  )
        52           H1  tau(  52) = (   0.3315535   2.7444040  19.5171108  )
        53           H1  tau(  53) = (   1.6705027   2.2407838  18.4910999  )

     number of k points=    10  Fermi-Dirac smearing, width (Ry)=  0.0073
                       cart. coord. in units 2pi/alat
        k(    1) = (   0.0000000   0.0000000   0.0000000), wk =   0.0625000
        k(    2) = (   0.0000000   0.0419351   0.0000000), wk =   0.1250000
        k(    3) = (   0.0000000  -0.0838702   0.0000000), wk =   0.0625000
        k(    4) = (   0.0379955   0.0000049   0.0000000), wk =   0.1250000
        k(    5) = (   0.0379955   0.0419400   0.0000000), wk =   0.1250000
        k(    6) = (   0.0379955  -0.0838652   0.0000000), wk =   0.1250000
        k(    7) = (   0.0379955  -0.0419301   0.0000000), wk =   0.1250000
        k(    8) = (  -0.0759910  -0.0000099   0.0000000), wk =   0.0625000
[...]

     Initial potential from superposition of free atoms

     starting charge  374.99916, renormalised to  391.00000

     negative rho (up, down):  8.891E-03 8.897E-03

     %%%%%%%%%%%%%%%%%%%%%%%%%%%%%%%%%%%%%%%%%%%%%%%%%%%%%%%%%%%%%%%%%%%%%%%%
     %                                                                      %
     % You are using vdW-DF, which was implemented by the Thonhauser group. %
     % Please cite the following two papers that made this development      %
     % possible and the two reviews that describe the various versions:     %
     %                                                                      %
     %   T. Thonhauser et al., PRL 115, 136402 (2015).                      %
     %   T. Thonhauser et al., PRB 76, 125112 (2007).                       %
     %   K. Berland et al., Rep. Prog. Phys. 78, 066501 (2015).             %
     %   D.C. Langreth et al., J. Phys.: Condens. Matter 21, 084203 (2009). %
     %                                                                      %
     %                                                                      %
     % If you are calculating the stress with vdW-DF, please also cite:     %
     %                                                                      %
     %   R. Sabatini et al., J. Phys.: Condens. Matter 24, 424209 (2012).   %
     %                                                                      %
     %%%%%%%%%%%%%%%%%%%%%%%%%%%%%%%%%%%%%%%%%%%%%%%%%%%%%%%%%%%%%%%%%%%%%%%%

     Adding external electric field

     Computed dipole along edir(3) :
        Dipole               -5.8084 Ry au,        -14.7635 Debye
        Dipole field         -0.0110 Ry au,

        Potential amp.        1.0161 Ry
        Total length         46.3494 bohr

[...]

     Starting wfcs are  296 atomic wfcs
  @ DRIVER MODE: Message from server: STATUS
  @ DRIVER MODE: Message from server: POSDATA
  @ DRIVER MODE: Reading and sharing cell
  @ DRIVER MODE: Reading and sharing positions
  @ DRIVER MODE: Received positions

     Self-consistent Calculation

     iteration #  1     ecut=    29.40 Ry     beta= 0.05
     Davidson diagonalization with overlap
     c_bands:  3 eigenvalues not converged
     c_bands:  1 eigenvalues not converged
     c_bands:  1 eigenvalues not converged
     c_bands:  2 eigenvalues not converged
     c_bands:  4 eigenvalues not converged
     c_bands:  2 eigenvalues not converged
     c_bands:  1 eigenvalues not converged
     c_bands:  1 eigenvalues not converged
     c_bands:  2 eigenvalues not converged
     c_bands:  3 eigenvalues not converged
     c_bands:  1 eigenvalues not converged
     c_bands:  1 eigenvalues not converged
     c_bands:  2 eigenvalues not converged
     c_bands:  4 eigenvalues not converged
     c_bands:  2 eigenvalues not converged
     c_bands:  1 eigenvalues not converged
     c_bands:  1 eigenvalues not converged
     c_bands:  2 eigenvalues not converged
     ethr =  1.00E-05,  avg # of iterations = 19.5

[...]

     total energy              =   -2770.95478123 Ry
     estimated scf accuracy    <    1638.19263557 Ry

     total magnetization       =     0.01 Bohr mag/cell
     absolute magnetization    =     0.02 Bohr mag/cell

[...]

     iteration #  3     ecut=    29.40 Ry     beta= 0.05
     Davidson diagonalization with overlap
     ethr =  1.00E-02,  avg # of iterations = 15.2

[...]

     iteration # 67     ecut=    29.40 Ry     beta= 0.05
     Davidson diagonalization with overlap
     c_bands:  1 eigenvalues not converged
     ethr =  1.02E-10,  avg # of iterations = 14.4

[...]

     total energy              =   -2920.42044129 Ry
     estimated scf accuracy    <       0.00000018 Ry

[...]

     iteration # 70     ecut=    29.40 Ry     beta= 0.05
     Davidson diagonalization with overlap
     ethr =  4.59E-11,  avg # of iterations =  6.2

     negative rho (up, down):  9.153E-03 9.153E-03

[...]

     Adding external electric field

     Computed dipole along edir(3) :
        Dipole                0.6957 Ry au,          1.7682 Debye
        Dipole field          0.0013 Ry au,

        Potential amp.       -0.1217 Ry
        Total length         46.3494 bohr

     Magnetic moment per site  (integrated on atomic sphere of radius R)
     atom   1 (R=0.717)  charge=  7.8575  magn= -0.0039
     atom   2 (R=0.717)  charge=  7.8410  magn= -0.0003
     atom   3 (R=0.717)  charge=  4.8648  magn=  0.0002
     atom   4 (R=0.717)  charge=  4.9003  magn=  0.0001
     atom   5 (R=0.717)  charge=  4.8705  magn= -0.0000
     atom   6 (R=0.717)  charge=  4.8712  magn= -0.0000
     atom   7 (R=0.717)  charge=  7.8399  magn= -0.0001
     atom   8 (R=0.717)  charge=  7.8316  magn= -0.0008
     atom   9 (R=0.717)  charge=  4.8873  magn=  0.0000
     atom  10 (R=0.717)  charge=  4.8598  magn=  0.0000
     atom  11 (R=0.717)  charge=  4.8722  magn= -0.0000
     atom  12 (R=0.717)  charge=  4.8711  magn= -0.0000
     atom  13 (R=0.717)  charge=  7.8297  magn= -0.0001
     atom  14 (R=0.717)  charge=  7.8427  magn= -0.0001
     atom  15 (R=0.717)  charge=  4.8599  magn= -0.0000
     atom  16 (R=0.717)  charge=  4.8822  magn= -0.0000
     atom  17 (R=0.717)  charge=  4.8579  magn= -0.0000
     atom  18 (R=0.717)  charge=  4.8644  magn= -0.0000
     atom  19 (R=0.717)  charge=  7.8685  magn=  0.0000
     atom  20 (R=0.717)  charge=  7.8398  magn= -0.0000
     atom  21 (R=0.717)  charge=  4.7572  magn=  0.0004
     atom  22 (R=0.717)  charge=  4.8380  magn= -0.0000
     atom  23 (R=0.717)  charge=  4.8628  magn=  0.0005
     atom  24 (R=0.717)  charge=  4.8628  magn=  0.0005
     atom  25 (R=0.717)  charge=  7.8575  magn= -0.0039
     atom  26 (R=0.717)  charge=  7.8411  magn= -0.0003
     atom  27 (R=0.717)  charge=  4.8641  magn=  0.0002
     atom  28 (R=0.717)  charge=  4.9005  magn=  0.0001
     atom  29 (R=0.717)  charge=  4.8713  magn= -0.0000
     atom  30 (R=0.717)  charge=  4.8719  magn= -0.0000
     atom  31 (R=0.717)  charge=  7.8401  magn= -0.0001
     atom  32 (R=0.717)  charge=  7.8317  magn= -0.0008
     atom  33 (R=0.717)  charge=  4.8864  magn=  0.0000
     atom  34 (R=0.717)  charge=  4.8464  magn= -0.0000
     atom  35 (R=0.717)  charge=  4.8727  magn=  0.0000
     atom  36 (R=0.717)  charge=  4.8718  magn= -0.0000
     atom  37 (R=0.717)  charge=  7.8315  magn= -0.0001
     atom  38 (R=0.717)  charge=  7.8429  magn= -0.0001
     atom  39 (R=0.717)  charge=  4.8524  magn= -0.0000
     atom  40 (R=0.717)  charge=  4.8881  magn= -0.0000
     atom  41 (R=0.717)  charge=  4.8602  magn= -0.0000
     atom  42 (R=0.717)  charge=  4.8621  magn= -0.0000
     atom  43 (R=0.717)  charge=  7.8659  magn=  0.0001
     atom  44 (R=0.717)  charge=  7.8697  magn=  0.0000
     atom  45 (R=0.717)  charge=  4.7572  magn=  0.0004
     atom  46 (R=0.717)  charge=  4.8628  magn=  0.0005
     atom  47 (R=0.717)  charge=  4.8628  magn=  0.0005
     atom  48 (R=0.419)  charge=  0.4541  magn=  0.0000
     atom  49 (R=0.419)  charge=  1.3226  magn= -0.0000
     atom  50 (R=0.449)  charge=  0.8454  magn=  0.0000
     atom  51 (R=0.419)  charge=  0.4421  magn= -0.0000
     atom  52 (R=0.419)  charge=  0.4454  magn= -0.0000
     atom  53 (R=0.419)  charge=  0.4431  magn= -0.0000

     End of self-consistent calculation

 ------ SPIN UP ------------

          k = 0.0000 0.0000 0.0000 ( 18029 PWs)   bands (ev):

   -55.9772 -55.9724 -55.9431 -55.9362 -55.8846 -55.8237 -55.8188 -55.7855
   -55.7842 -55.7515 -55.7452 -55.7115 -55.5545 -55.2743 -54.9532 -54.9191
   -32.5323 -32.4607 -32.3334 -32.3200 -32.2995 -32.2835 -32.2698 -32.2362
   -32.2197 -32.2191 -32.1953 -32.1883 -32.1554 -32.1283 -32.1240 -32.1173
   -32.1153 -32.0825 -32.0636 -32.0332 -32.0299 -32.0255 -32.0102 -31.9885
   -31.9788 -31.9767 -31.9717 -31.9618 -31.9485 -31.9419 -31.9395 -31.9341
   -31.9218 -31.9158 -31.8984 -31.8922 -31.8577 -31.8191 -31.7233 -31.5485
   -31.5419 -31.4709 -31.3598 -31.2721 -31.2497 -31.1766 -31.0901 -30.9790
   -16.7416 -16.4584 -16.2790 -16.1361 -16.1028 -16.0177 -15.8173 -15.6922
   -15.6791 -15.5760 -15.5382 -15.5156 -15.5075 -15.4805 -15.4776 -15.4186
   -15.4154 -15.4033 -15.3909 -15.3347 -15.3106 -15.2708 -15.1766 -15.1527
   -15.1371 -15.1110 -15.0296 -15.0223 -14.5824 -14.1022 -13.4565 -13.3402
    -8.9379  -4.3777  -4.1124  -3.9355  -3.8966  -3.8831  -3.8346  -3.5829
    -3.5668  -3.3070  -3.1921  -3.1758  -3.1666  -3.1510  -3.1365  -3.1171
    -2.8798  -2.8096  -2.7955  -2.7732  -2.7662  -2.7630  -2.7510  -2.7467
    -2.7045  -2.6451  -2.5277  -2.5147  -2.4078  -2.3606  -2.3381  -2.2901
    -2.2463  -2.2400  -2.2279  -2.2107  -2.1967  -2.1769  -2.1590  -2.0245
    -1.9609  -1.8326  -1.7852  -1.7791  -1.5814  -1.5370  -1.4473  -1.4236
    -1.4073  -1.3997  -1.3675  -1.2874  -1.1960  -1.1389  -1.1257  -1.0727
    -0.9961  -0.9844  -0.8742  -0.8695  -0.8088  -0.7498  -0.7406  -0.7310
    -0.6857  -0.6138  -0.5387  -0.4655  -0.4156  -0.3945  -0.3672  -0.2884
    -0.2583  -0.1618  -0.1436  -0.0965  -0.0934  -0.0443  -0.0027   0.0073
     0.0140   0.0287   0.0465   0.1950   0.3021   0.3586   0.3922   0.4030
     0.5585   0.5945   0.6824   0.7700   0.9953   1.0681   1.1624   1.2612
     1.3256   1.6386   1.6842   3.1645   3.2455   3.2955   3.3030   3.4046
     3.4073   3.6145   3.6250   3.6355   3.7033

[...]

          k =-0.0760-0.0000 0.0000 ( 17886 PWs)   bands (ev):

[...]

 ------ SPIN DOWN ----------

[...]

          k = 0.0380-0.0419 0.0000 ( 17876 PWs)   bands (ev):

[...]

          k =-0.0760-0.0839 0.0000 ( 17948 PWs)   bands (ev):

   -55.9680 -55.9673 -55.9554 -55.9533 -55.8790 -55.8288 -55.8039 -55.7996
   -55.7703 -55.7685 -55.7292 -55.7280 -55.5535 -55.2752 -54.9370 -54.9368
   -32.3368 -32.3339 -32.2796 -32.2791 -32.2650 -32.2637 -32.2629 -32.2446
   -32.1823 -32.1813 -32.1749 -32.1710 -32.1478 -32.1194 -32.1011 -32.0969
   -32.0881 -32.0873 -32.0870 -32.0827 -32.0815 -32.0690 -32.0666 -32.0349
   -32.0242 -32.0184 -31.9940 -31.9848 -31.9668 -31.9663 -31.9620 -31.9608
   -31.9440 -31.9433 -31.9415 -31.9397 -31.8872 -31.8218 -31.7184 -31.6117
   -31.5440 -31.4963 -31.2633 -31.2632 -31.1734 -31.1732 -31.1342 -31.1342
   -16.1935 -16.1602 -15.9246 -15.9150 -15.9062 -15.8899 -15.7454 -15.6935
   -15.6850 -15.6782 -15.6539 -15.6302 -15.5791 -15.5485 -15.5148 -15.5081
   -15.5014 -15.4963 -15.4398 -15.4334 -15.4110 -15.4036 -15.2901 -15.2860
   -15.2846 -15.2085 -15.1441 -15.0109 -14.7525 -14.1233 -13.4408 -13.4408
    -8.9415  -4.3890  -3.4881  -3.4499  -3.2716  -3.1915  -3.1644  -3.1514
    -3.1304  -3.0509  -2.8911  -2.8766  -2.8580  -2.8451  -2.8049  -2.7998
    -2.7881  -2.7743  -2.7673  -2.7494  -2.7155  -2.6752  -2.6464  -2.6394
    -2.6304  -2.6058  -2.5935  -2.5677  -2.5616  -2.5286  -2.5205  -2.5019
    -2.4781  -2.2166  -2.1975  -2.1803  -2.1111  -2.1043  -2.0695  -2.0612
    -2.0423  -2.0289  -1.9770  -1.8761  -1.7127  -1.6796  -1.6683  -1.6507
    -1.5853  -1.5648  -1.4154  -1.3870  -1.3703  -1.3309  -1.2818  -1.2518
    -1.2149  -1.1751  -1.1380  -1.0775  -1.0695  -0.9904  -0.9402  -0.9396
    -0.9127  -0.8429  -0.7643  -0.7468  -0.7351  -0.6938  -0.6803  -0.5987
    -0.5759  -0.4777  -0.4648  -0.3962  -0.3636  -0.2965  -0.0930   0.0044
     0.0633   0.0871   0.1401   0.2375   0.2919   0.3054   0.3390   0.3440
     0.4037   0.4445   0.5588   0.5664   0.6348   0.7384   1.2737   1.4333
     1.4339   1.5049   1.5049   3.4242   3.4299   3.4793   3.5101   3.6598
     3.6641   3.6874   3.6885   3.8105   3.8280

     the Fermi energy is     3.1554 ev

!    total energy              =   -2920.42045672 Ry
     estimated scf accuracy    <       0.00000006 Ry
     smearing contrib. (-TS)   =      -0.02203064 Ry
     internal energy E=F+TS    =   -2920.39842608 Ry

     The total energy is F=E-TS. E is the sum of the following terms:
     one-electron contribution =  -24727.74179964 Ry
     hartree contribution      =   12448.54451623 Ry
     xc contribution           =    -480.87800952 Ry
     ewald contribution        =    9839.67595357 Ry
     electric field correction =       0.00091327 Ry

     total magnetization       =    -0.01 Bohr mag/cell
     absolute magnetization    =     0.02 Bohr mag/cell

     convergence has been achieved in  70 iterations

     Forces acting on atoms (cartesian axes, Ry/au):

     atom    1 type  1   force =     0.00009862   -0.00018648    0.09687332
     atom    2 type  1   force =     0.00004740   -0.00050852   -0.17506417
     atom    3 type  2   force =     0.00012928    0.00000836   -0.02535478
     atom    4 type  2   force =    -0.00003322   -0.00128601    0.05236237
     atom    5 type  2   force =    -0.01222406   -0.00000712    0.00298738
     atom    6 type  2   force =     0.01365363    0.00058770    0.00232201
     atom    7 type  1   force =     0.00058744    0.00033508   -0.01302505
     atom    8 type  1   force =     0.00047722    0.00729207    0.03068842
     atom    9 type  2   force =     0.00055863    0.00003527   -0.00020602
     atom   10 type  2   force =    -0.00267694    0.00210915   -0.01739041
     atom   11 type  2   force =    -0.00014000    0.00007310   -0.00002618
     atom   12 type  2   force =     0.00046793    0.00034103    0.00017894
     atom   13 type  1   force =    -0.00011460   -0.00056690   -0.00016739
     atom   14 type  1   force =    -0.00042892    0.00005193    0.00081101
     atom   15 type  2   force =    -0.00000228   -0.00076984    0.00082234
     atom   16 type  2   force =     0.00026020    0.00063459   -0.00046452
     atom   17 type  2   force =     0.00063770    0.00008600    0.00062803
     atom   18 type  2   force =    -0.00011069   -0.00006695    0.00006964
     atom   19 type  1   force =     0.00000880    0.00051582   -0.00026470
     atom   20 type  1   force =    -0.00027387   -0.00052454    0.00006670
     atom   21 type  2   force =     0.00005589   -0.00002721    0.10312858
     atom   22 type  2   force =     0.00013206   -0.00087938    0.00098402
     atom   23 type  2   force =    -0.07165728   -0.00015350   -0.02781223
     atom   24 type  2   force =     0.07155988    0.00034060   -0.02786884
     atom   25 type  1   force =     0.00008952   -0.00014456    0.09658667
     atom   26 type  1   force =     0.00009489   -0.00023098   -0.17519421
     atom   27 type  2   force =     0.00011822   -0.00011491   -0.02441780
     atom   28 type  2   force =     0.00004387   -0.00104138    0.05227805
     atom   29 type  2   force =    -0.01242228    0.00064198    0.00277777
     atom   30 type  2   force =     0.01372594    0.00098601    0.00212650
     atom   31 type  1   force =     0.00045378    0.00313851   -0.01357234
     atom   32 type  1   force =     0.00033399   -0.00951643    0.03108365
     atom   33 type  2   force =    -0.00007092    0.00031532   -0.00059892
     atom   34 type  2   force =    -0.00206485    0.00181788   -0.02538763
     atom   35 type  2   force =    -0.00017858   -0.00029127    0.00037420
     atom   36 type  2   force =     0.00026003   -0.00077960    0.00040130
     atom   37 type  1   force =     0.00002653    0.00023121    0.00100340
     atom   38 type  1   force =    -0.00021700    0.00041213    0.00077620
     atom   39 type  2   force =    -0.00005705   -0.00017921   -0.00061090
     atom   40 type  2   force =     0.00042500    0.00007522    0.00059042
     atom   41 type  2   force =     0.00027727   -0.00024487   -0.00004345
     atom   42 type  2   force =    -0.00048868   -0.00040446   -0.00038475
     atom   43 type  1   force =    -0.00076363   -0.00020881    0.00043869
     atom   44 type  1   force =    -0.00032826   -0.00066702    0.00051048
     atom   45 type  2   force =     0.00003864   -0.00004799    0.10314661
     atom   46 type  2   force =    -0.07165068   -0.00006518   -0.02781012
     atom   47 type  2   force =     0.07157103    0.00034836   -0.02787363
     atom   48 type  3   force =    -0.00003664   -0.00048185   -0.00005313
     atom   49 type  4   force =    -0.00024580   -0.00015313   -0.00042926
     atom   50 type  5   force =     0.00163901    0.00171741   -0.00127064
     atom   51 type  3   force =    -0.00022776    0.00049248   -0.00062515
     atom   52 type  3   force =    -0.00108483   -0.00278551    0.00156387
     atom   53 type  3   force =    -0.00027358   -0.00025363    0.00033562

     Total force =     0.368486     Total SCF correction =     0.000532
  @ DRIVER MODE: Message from server: STATUS
  @ DRIVER MODE: Message from server: GETFORCE
  @ DRIVER MODE: Returning v,forces,stress,ensemble

     Writing output data file ./calc.save/
  @ DRIVER MODE: Message from server: EXIT
  @ DRIVE MODE: Exiting

     General routines

     Parallel routines

   This run was terminated on:   6:51:39  16Jul2021

   JOB DONE.