     Program PWSCF v.6.7GPU starts on 23Sep2021 at 11: 6:11

     R & G space division:  proc/nbgrp/npool/nimage =      10
     Reading input from /storage/home/hcoda1/3/ntian30/research/carbon/CxH_vib/H2O_calc/ads_slab/CH3NHHH2O_a/out_0059/pw.inp
Warning: card &CELL ignored
Warning: card   CELL_DYNAMICS='IPI', ignored
Warning: card / ignored

     Current dimensions of program PWSCF are:
     Max number of different atomic species (ntypx) = 10
     Max number of k-points (npk) =  40000
     Max angular momentum in pseudopotentials (lmaxx) =  3
     Presently no symmetry can be used with electric field

     Message from routine cell_base_init:
     DEPRECATED: use true lattice parameter, not A to a.u. conversion factor

     IMPORTANT: XC functional enforced from input :
     Exchange-correlation= BEEF-VDW
                           (   1   4  43  14   2   0   0)
     Any further DFT definition will be discarded
     Please, verify this is what you really want

  @ DRIVER MODE: Connecting to
 qe_1139763_2937309.sched-torque.pace.gatech.eduttdn3x57_scratch
  using UNIX socket
  @ DRIVER MODE: Message from server: STATUS
  @ DRIVER MODE: Message from server: INIT
  @ DRIVER MODE: Receiving replica           0          -1
  @ DRIVER MODE: Receiving encoded integer          25
  @ DRIVER MODE:  SCF:  T  FORCE:  T  STRESS:  F  VC:  F  ENSEMBLE:  F
  @ DRIVER MODE:  SCF:  T  FORCE:  T  STRESS:  F  VC:  F  ENSEMBLE:  F

     Using Slab Decomposition

     bravais-lattice index     =            0
     lattice parameter (alat)  =       1.8897  a.u.
     unit-cell volume          =    6658.9804 (a.u.)^3
     number of atoms/cell      =           57
     number of atomic types    =            5
     number of electrons       =       400.00
     number of Kohn-Sham states=          210
     kinetic-energy cutoff     =      29.3995  Ry
     charge density cutoff     =     293.9946  Ry
     scf convergence threshold =      7.3E-08
     mixing beta               =       0.0500
     number of iterations used =            8  plain     mixing
     Exchange-correlation= BEEF-VDW
                           (   1   4  43  14   2   0   0)

     celldm(1)=   1.889726  celldm(2)=   0.000000  celldm(3)=   0.000000
     celldm(4)=   0.000000  celldm(5)=   0.000000  celldm(6)=   0.000000

     crystal axes: (cart. coord. in units of alat)
               a(1) = (   6.579727   0.000000   0.000000 )
               a(2) = (  -0.000775   5.961596   0.000000 )
               a(3) = (   0.000000   0.000000  25.155947 )

     reciprocal axes: (cart. coord. in units 2 pi/alat)
               b(1) = (  0.151982  0.000020  0.000000 )
               b(2) = (  0.000000  0.167740  0.000000 )
               b(3) = (  0.000000  0.000000  0.039752 )

     PseudoPot. # 1 for Ti read from file:
     /storage/coda1/p-amedford6/0/shared/rich_project_chbe-medford/medford-share/data/pseudos_module/espresso/nninc/pbe/van/Ti.UPF
     MD5 check sum: 8e4df49b7f0d34bbd5052bf3f5ea0213
     Pseudo is Ultrasoft, Zval = 12.0
     Generated by new atomic code, or converted to UPF format
     Using radial grid of  851 points,  6 beta functions with:
                l(1) =   0
                l(2) =   0
                l(3) =   1
                l(4) =   1
                l(5) =   2
                l(6) =   2
     Q(r) pseudized with  8 coefficients,  rinner =    1.000   1.000   1.000
                                                       1.000   1.000

     PseudoPot. # 2 for O  read from file:
     /storage/coda1/p-amedford6/0/shared/rich_project_chbe-medford/medford-share/data/pseudos_module/espresso/nninc/pbe/van/O.UPF
     MD5 check sum: 78c19812648e8988a0fe644b0f25305e
     Pseudo is Ultrasoft, Zval =  6.0
     Generated by new atomic code, or converted to UPF format
     Using radial grid of  737 points,  4 beta functions with:
                l(1) =   0
                l(2) =   0
                l(3) =   1
                l(4) =   1
     Q(r) pseudized with  8 coefficients,  rinner =    0.800   0.800   0.800

     PseudoPot. # 3 for N  read from file:
     /storage/coda1/p-amedford6/0/shared/rich_project_chbe-medford/medford-share/data/pseudos_module/espresso/nninc/pbe/van/N.UPF
     MD5 check sum: 90d10febe142ad51ac9d5be1deb811c4
     Pseudo is Ultrasoft, Zval =  5.0
     Generated by new atomic code, or converted to UPF format
     Using radial grid of  729 points,  4 beta functions with:
                l(1) =   0
                l(2) =   0
                l(3) =   1
                l(4) =   1
     Q(r) pseudized with  8 coefficients,  rinner =    0.800   0.800   0.800

     PseudoPot. # 4 for C  read from file:
     /storage/coda1/p-amedford6/0/shared/rich_project_chbe-medford/medford-share/data/pseudos_module/espresso/nninc/pbe/van/C.UPF
     MD5 check sum: 1a69bf6b8db32088f5b2163dbdb77a27
     Pseudo is Ultrasoft, Zval =  4.0
     Generated by new atomic code, or converted to UPF format
     Using radial grid of  721 points,  4 beta functions with:
                l(1) =   0
                l(2) =   0
                l(3) =   1
                l(4) =   1
     Q(r) pseudized with  8 coefficients,  rinner =    0.800   0.800   0.800

     PseudoPot. # 5 for H  read from file:
     /storage/coda1/p-amedford6/0/shared/rich_project_chbe-medford/medford-share/data/pseudos_module/espresso/nninc/pbe/van/H.UPF
     MD5 check sum: b5ee9d7bfd3a09ee7748110bda690ff7
     Pseudo is Ultrasoft, Zval =  1.0
     Generated by new atomic code, or converted to UPF format
     Using radial grid of  615 points,  1 beta functions with:
                l(1) =   0
     Q(r) pseudized with  8 coefficients,  rinner =    0.800

     atomic species   valence    mass     pseudopotential
        Ti1           12.00    47.86700     Ti( 1.00)
        O1             6.00    15.99900     O ( 1.00)
        N1             5.00    14.00700     N ( 1.00)
        C1             4.00    12.01100     C ( 1.00)
        H1             1.00     1.00800     H ( 1.00)

     No symmetry found

   Cartesian axes

     site n.     atom                  positions (alat units)
         1           Ti1 tau(   1) = (   0.0004258   2.9801865   6.0000000  )
         2           Ti1 tau(   2) = (   3.2906075   1.4906267   6.0002472  )
         3           O1  tau(   3) = (   0.0006271   0.0005054   7.9858123  )
         4           O1  tau(   4) = (   3.2906025   0.0005020   7.3038282  )
         5           O1  tau(   5) = (   4.5942328   1.4918067   9.2879030  )
         6           O1  tau(   6) = (   1.9868534   1.4903216   9.2879459  )
         7           Ti1 tau(   7) = (   3.2907910   2.8959150   9.1758416  )
         8           Ti1 tau(   8) = (   0.0015273   1.4827037   9.2680791  )
         9           O1  tau(   9) = (   3.2912042   0.0294118  11.3810798  )
        10           O1  tau(  10) = (   0.0116148   5.9584955  10.6183126  )
        11           O1  tau(  11) = (   1.2906363   1.5151137  12.6946382  )
        12           O1  tau(  12) = (   5.2977377   1.5118052  12.6897239  )
        13           Ti1 tau(  13) = (   0.0154927   3.0055723  12.5114375  )
        14           Ti1 tau(  14) = (   3.3120461   1.5076926  12.5412499  )
        15           O1  tau(  15) = (   0.0087391   5.9056098  14.6936070  )
        16           O1  tau(  16) = (   3.3000944   0.0090435  14.0218108  )
        17           O1  tau(  17) = (   4.5606481   1.5918460  16.0876707  )
        18           O1  tau(  18) = (   2.0070218   1.5857768  16.0794533  )
        19           Ti1 tau(  19) = (   3.2835068   3.0412122  15.7371975  )
        20           Ti1 tau(  20) = (   0.0166266   1.3536260  15.8406240  )
        21           O1  tau(  21) = (   3.2904802   0.0005063   4.7018136  )
        22           O1  tau(  22) = (   6.5628702   0.1917167  17.2472498  )
        23           O1  tau(  23) = (   1.3043587   1.4918075   6.0039043  )
        24           O1  tau(  24) = (   5.2767064   1.4903225   6.0039473  )
        25           Ti1 tau(  25) = (   0.0000382   5.9609847   6.0000000  )
        26           Ti1 tau(  26) = (   3.2902200   4.4714249   6.0002472  )
        27           O1  tau(  27) = (   0.0002396   2.9813036   7.9858123  )
        28           O1  tau(  28) = (   3.2902150   2.9813002   7.3038282  )
        29           O1  tau(  29) = (   4.5938453   4.4726049   9.2879030  )
        30           O1  tau(  30) = (   1.9864658   4.4711199   9.2879459  )
        31           Ti1 tau(  31) = (   3.2891106   5.8743827   9.1763621  )
        32           Ti1 tau(  32) = (   0.0006254   4.4649316   9.2693709  )
        33           O1  tau(  33) = (   3.2975917   2.9887808  11.3748511  )
        34           O1  tau(  34) = (   0.0092240   2.9805883  10.6323155  )
        35           O1  tau(  35) = (   1.2927870   4.4849180  12.6503915  )
        36           O1  tau(  36) = (   5.2959677   4.4879952  12.6460094  )
        37           Ti1 tau(  37) = (   0.0189062   0.0134437  12.4995343  )
        38           Ti1 tau(  38) = (   3.3131396   4.4925875  12.5257625  )
        39           O1  tau(  39) = (   6.5658147   3.0796170  14.9398047  )
        40           O1  tau(  40) = (   3.2912769   3.0351834  13.9531456  )
        41           O1  tau(  41) = (   4.5372935   4.5058929  16.2491503  )
        42           O1  tau(  42) = (   2.0060561   4.4992570  16.2466123  )
        43           Ti1 tau(  43) = (   3.3106529   0.0781036  15.8389635  )
        44           Ti1 tau(  44) = (   0.0259428   4.5566345  16.0434284  )
        45           O1  tau(  45) = (   3.2900926   2.9813045   4.7018136  )
        46           O1  tau(  46) = (   1.3039711   4.4726057   6.0039043  )
        47           O1  tau(  47) = (   5.2763189   4.4711207   6.0039473  )
        48           N1  tau(  48) = (   6.3514164   3.3085518  18.1544664  )
        49           C1  tau(  49) = (   0.8695967   3.1501053  19.1301808  )
        50           H1  tau(  50) = (   1.3785670   4.1052268  19.2416751  )
        51           H1  tau(  51) = (   0.5086663   2.8389580  20.1145987  )
        52           H1  tau(  52) = (   1.5779067   2.4119510  18.7640910  )
        53           H1  tau(  53) = (   5.7211048   4.0382881  18.4729098  )
        54           H1  tau(  54) = (   5.7931489   2.4557210  18.1309407  )
        55           O1  tau(  55) = (   3.2817172   0.3149129  18.3340421  )
        56           H1  tau(  56) = (   4.0380937   5.6864266  18.4726034  )
        57           H1  tau(  57) = (   2.4816286   5.7371253  18.4334621  )

     number of k points=    10  Fermi-Dirac smearing, width (Ry)=  0.0073
                       cart. coord. in units 2pi/alat
        k(    1) = (   0.0000000   0.0000000   0.0000000), wk =   0.1250000
        k(    2) = (   0.0000000   0.0419351   0.0000000), wk =   0.2500000
        k(    3) = (   0.0000000  -0.0838702   0.0000000), wk =   0.1250000
        k(    4) = (   0.0379955   0.0000049   0.0000000), wk =   0.2500000
        k(    5) = (   0.0379955   0.0419400   0.0000000), wk =   0.2500000
        k(    6) = (   0.0379955  -0.0838652   0.0000000), wk =   0.2500000
        k(    7) = (   0.0379955  -0.0419301   0.0000000), wk =   0.2500000
        k(    8) = (  -0.0759910  -0.0000099   0.0000000), wk =   0.1250000
        k(    9) = (  -0.0759910   0.0419252   0.0000000), wk =   0.2500000
        k(   10) = (  -0.0759910  -0.0838800   0.0000000), wk =   0.1250000

     Initial potential from superposition of free atoms

     starting charge  383.99913, renormalised to  400.00000

     negative rho (up, down):  1.554E-02 0.000E+00

     %%%%%%%%%%%%%%%%%%%%%%%%%%%%%%%%%%%%%%%%%%%%%%%%%%%%%%%%%%%%%%%%%%%%%%%%
     %                                                                      %
     % You are using vdW-DF, which was implemented by the Thonhauser group. %
     % Please cite the following two papers that made this development      %
     % possible and the two reviews that describe the various versions:     %
     %                                                                      %
     %   T. Thonhauser et al., PRL 115, 136402 (2015).                      %
     %   T. Thonhauser et al., PRB 76, 125112 (2007).                       %
     %   K. Berland et al., Rep. Prog. Phys. 78, 066501 (2015).             %
     %   D.C. Langreth et al., J. Phys.: Condens. Matter 21, 084203 (2009). %
     %                                                                      %
     %                                                                      %
     % If you are calculating the stress with vdW-DF, please also cite:     %
     %                                                                      %
     %   R. Sabatini et al., J. Phys.: Condens. Matter 24, 424209 (2012).   %
     %                                                                      %
     %%%%%%%%%%%%%%%%%%%%%%%%%%%%%%%%%%%%%%%%%%%%%%%%%%%%%%%%%%%%%%%%%%%%%%%%

     Adding external electric field

     Computed dipole along edir(3) :
        Dipole              -12.0850 Ry au,        -30.7169 Debye
        Dipole field         -0.0228 Ry au,

        Potential amp.        2.1141 Ry
        Total length         46.3494 bohr

     Starting wfcs are  303 atomic wfcs
  @ DRIVER MODE: Message from server: STATUS
  @ DRIVER MODE: Message from server: POSDATA
  @ DRIVER MODE: Reading and sharing cell
  @ DRIVER MODE: Reading and sharing positions
  @ DRIVER MODE: Received positions

     Self-consistent Calculation

     iteration #  1     ecut=    29.40 Ry     beta= 0.05
     Davidson diagonalization with overlap
     c_bands:  2 eigenvalues not converged
     c_bands:  2 eigenvalues not converged
     c_bands:  3 eigenvalues not converged
     c_bands:  4 eigenvalues not converged
     c_bands:  2 eigenvalues not converged
     c_bands:  1 eigenvalues not converged
     c_bands:  4 eigenvalues not converged
     c_bands:  4 eigenvalues not converged
     c_bands:  5 eigenvalues not converged
     ethr =  1.00E-05,  avg # of iterations = 22.0

[...]

     total energy              =   -2384.83461519 Ry
     estimated scf accuracy    <    6450.32813783 Ry

     iteration #  2     ecut=    29.40 Ry     beta= 0.05
     Davidson diagonalization with overlap
     ethr =  1.00E-02,  avg # of iterations = 24.8

[...]

     iteration # 74     ecut=    29.40 Ry     beta= 0.05
     Davidson diagonalization with overlap
     ethr =  2.74E-11,  avg # of iterations = 12.6

[...]

     total energy              =   -2956.45485876 Ry
     estimated scf accuracy    <       0.00000008 Ry

     iteration # 75     ecut=    29.40 Ry     beta= 0.05
     Davidson diagonalization with overlap
     c_bands:  2 eigenvalues not converged
     ethr =  2.08E-11,  avg # of iterations = 10.1

     negative rho (up, down):  1.589E-02 0.000E+00

     Adding external electric field

     Computed dipole along edir(3) :
        Dipole                1.3996 Ry au,          3.5574 Debye
        Dipole field          0.0026 Ry au,

        Potential amp.       -0.2448 Ry
        Total length         46.3494 bohr

     End of self-consistent calculation

          k = 0.0000 0.0000 0.0000 ( 18029 PWs)   bands (ev):

   -55.2185 -55.1813 -55.1760 -55.1500 -55.1418 -55.1212 -55.0997 -55.0647
   -55.0446 -55.0098 -55.0067 -54.9974 -54.9730 -54.9373 -54.2061 -54.1720
   -31.7819 -31.6921 -31.6685 -31.5884 -31.5334 -31.5281 -31.5197 -31.5122
   -31.4650 -31.4413 -31.4296 -31.4208 -31.4162 -31.4143 -31.3905 -31.3874
   -31.3649 -31.3637 -31.3564 -31.3412 -31.3285 -31.3204 -31.3052 -31.2959
   -31.2899 -31.2770 -31.2748 -31.2459 -31.2332 -31.2305 -31.2255 -31.2054
   -31.2023 -31.1948 -31.1908 -31.1737 -31.1578 -31.1434 -31.1357 -31.1348
   -31.1178 -31.1152 -30.6155 -30.5212 -30.4991 -30.4319 -30.3451 -30.2342
   -19.2362 -16.1550 -16.0266 -15.7786 -15.6367 -15.5424 -15.4225 -15.3069
   -15.2423 -15.1284 -15.0702 -14.9349 -14.9195 -14.9078 -14.8832 -14.8496
   -14.8110 -14.7633 -14.7622 -14.7383 -14.7181 -14.7092 -14.6674 -14.6602
   -14.6203 -14.5992 -14.5984 -14.4627 -14.3815 -14.3113 -14.1254 -12.7087
   -12.5912 -10.2707  -7.0362  -6.2703  -4.8259  -3.9385  -3.4016  -3.3387
    -3.2404  -3.1512  -3.1283  -3.1163  -2.9791  -2.8793  -2.7479  -2.6689
    -2.6371  -2.5008  -2.4274  -2.4159  -2.3835  -2.2681  -2.2159  -2.1896
    -2.1560  -2.0852  -2.0373  -2.0267  -2.0086  -1.9779  -1.9626  -1.9282
    -1.8746  -1.7898  -1.7588  -1.6557  -1.6178  -1.5878  -1.5783  -1.5537
    -1.5365  -1.5121  -1.5058  -1.4452  -1.4416  -1.4119  -1.3655  -1.2509
    -1.0882  -1.0248  -0.9530  -0.8608  -0.8128  -0.7991  -0.7291  -0.7190
    -0.7059  -0.6024  -0.5671  -0.5565  -0.4599  -0.4268  -0.3896  -0.3172
    -0.2457  -0.2178  -0.2048  -0.0890  -0.0242  -0.0063   0.0134   0.0205
     0.1104   0.1833   0.2311   0.2825   0.3235   0.3307   0.3968   0.4286
     0.4963   0.5483   0.5663   0.6534   0.6985   0.7110   0.7173   0.7504
     0.7623   0.8242   0.8605   0.8848   0.9715   1.0865   1.2390   1.3804
     1.3883   1.7214   1.7222   1.8166   2.0005   2.3930   2.4413   3.8744
     3.9472   4.0063   4.0197   4.0251   4.1103   4.3568   4.3789   4.3847
     4.3948   4.4233

[...]

          k = 0.0380-0.0419 0.0000 ( 17876 PWs)   bands (ev):

[...]

          k =-0.0760-0.0000 0.0000 ( 17886 PWs)   bands (ev):

[...]

          k =-0.0760-0.0839 0.0000 ( 17948 PWs)   bands (ev):

   -55.2049 -55.1947 -55.1590 -55.1587 -55.1483 -55.1190 -55.0855 -55.0789
   -55.0300 -55.0240 -54.9996 -54.9901 -54.9898 -54.9388 -54.1892 -54.1888
   -31.6107 -31.5907 -31.5819 -31.4837 -31.4835 -31.4795 -31.4720 -31.4502
   -31.4502 -31.4302 -31.4223 -31.4157 -31.4084 -31.3938 -31.3764 -31.3617
   -31.3587 -31.3565 -31.3545 -31.3525 -31.3450 -31.3424 -31.3253 -31.3193
   -31.2990 -31.2984 -31.2796 -31.2787 -31.2785 -31.2763 -31.2711 -31.2631
   -31.2555 -31.2429 -31.2371 -31.2226 -31.2198 -31.2016 -31.1750 -31.1707
   -31.1700 -31.1489 -30.5120 -30.5116 -30.4282 -30.4279 -30.3886 -30.3884
   -19.2354 -16.1081 -15.6008 -15.4869 -15.3611 -15.2514 -15.2306 -15.1840
   -15.1353 -15.0848 -15.0332 -15.0045 -14.9838 -14.9751 -14.9323 -14.9216
   -14.9025 -14.8369 -14.8214 -14.8103 -14.7864 -14.7392 -14.7309 -14.7233
   -14.7193 -14.6734 -14.6693 -14.6212 -14.5778 -14.5740 -14.3939 -12.6928
   -12.6926 -10.2724  -7.0620  -6.2040  -4.8266  -3.9535  -3.2326  -2.9769
    -2.7524  -2.7004  -2.6125  -2.4686  -2.4246  -2.3797  -2.3487  -2.2871
    -2.2366  -2.2215  -2.2096  -2.1334  -2.1065  -2.0978  -2.0656  -2.0539
    -2.0438  -2.0055  -1.9852  -1.9594  -1.9513  -1.9406  -1.9380  -1.9282
    -1.8700  -1.8575  -1.8471  -1.8433  -1.7847  -1.7734  -1.7577  -1.7439
    -1.5997  -1.5814  -1.4307  -1.4273  -1.4047  -1.3523  -1.3408  -1.3000
    -1.2570  -1.2474  -1.2207  -0.9766  -0.9675  -0.9644  -0.9320  -0.8986
    -0.8611  -0.7995  -0.7705  -0.7008  -0.6922  -0.5763  -0.5603  -0.4447
    -0.4363  -0.4238  -0.3397  -0.2916  -0.2435  -0.2044  -0.1877  -0.1773
    -0.1606  -0.1240  -0.1216  -0.0244   0.0117   0.0425   0.0558   0.0954
     0.2724   0.3010   0.3166   0.4608   0.4684   0.6276   0.6788   0.7065
     0.7972   0.8574   0.8919   0.9357   1.0716   1.0848   1.1026   1.1570
     1.1802   1.2295   1.2426   2.1728   2.1742   2.2612   2.2613   4.0196
     4.1288   4.1380   4.1958   4.3071   4.3162   4.3895   4.4206   4.4581
     4.4621   4.5267

     the Fermi energy is     3.9367 ev

!    total energy              =   -2956.45488103 Ry
     estimated scf accuracy    <       0.00000006 Ry
     smearing contrib. (-TS)   =      -0.03684996 Ry
     internal energy E=F+TS    =   -2956.41803108 Ry

     The total energy is F=E-TS. E is the sum of the following terms:
     one-electron contribution =  -23694.07737306 Ry
     hartree contribution      =   11942.51591432 Ry
     xc contribution           =    -490.61440076 Ry
     ewald contribution        =    9285.75413188 Ry
     electric field correction =       0.00369654 Ry

     convergence has been achieved in  75 iterations

     Forces acting on atoms (cartesian axes, Ry/au):

     atom    1 type  1   force =    -0.00000444   -0.00026956    0.09336251
     atom    2 type  1   force =    -0.00007265   -0.00035528   -0.17814684
     atom    3 type  2   force =     0.00004422   -0.00030175   -0.02032831
     atom    4 type  2   force =    -0.00003472   -0.00185184    0.05914803
     atom    5 type  2   force =    -0.01021004   -0.00060767    0.00750757
     atom    6 type  2   force =     0.01173335    0.00021976    0.00683845
     atom    7 type  1   force =    -0.00030389    0.00187976   -0.01239684
     atom    8 type  1   force =     0.00016358    0.00082309   -0.00451450
     atom    9 type  2   force =     0.00038448   -0.00016056   -0.00080992
     atom   10 type  2   force =    -0.00141645    0.00415083   -0.00109925
     atom   11 type  2   force =    -0.00086918   -0.00030519    0.00019315
     atom   12 type  2   force =     0.00088121   -0.00005669    0.00005345
     atom   13 type  1   force =    -0.00013027   -0.00022655    0.00013215
     atom   14 type  1   force =    -0.00004433   -0.00011067    0.00005611
     atom   15 type  2   force =    -0.00066090   -0.00003310   -0.00010602
     atom   16 type  2   force =    -0.00011420    0.00022174   -0.00043168
     atom   17 type  2   force =     0.00030635   -0.00067430   -0.00007988
     atom   18 type  2   force =     0.00078780   -0.00067315   -0.00023204
     atom   19 type  1   force =    -0.00069879    0.00006189    0.00147276
     atom   20 type  1   force =     0.00071491   -0.00073070    0.00043238
     atom   21 type  2   force =     0.00001840   -0.00011137    0.10397867
     atom   22 type  2   force =     0.00014565   -0.00064318    0.00031919
     atom   23 type  2   force =    -0.07042885   -0.00020778   -0.02693627
     atom   24 type  2   force =     0.07026608    0.00023098   -0.02699000
     atom   25 type  1   force =    -0.00005086   -0.00021137    0.09287201
     atom   26 type  1   force =    -0.00020541   -0.00053104   -0.17841629
     atom   27 type  2   force =     0.00007176   -0.00014359   -0.01930824
     atom   28 type  2   force =     0.00005442   -0.00157546    0.05815647
     atom   29 type  2   force =    -0.01091063   -0.00007309    0.00843074
     atom   30 type  2   force =     0.01231757    0.00011588    0.00771612
     atom   31 type  1   force =    -0.00029488    0.00668278   -0.01506501
     atom   32 type  1   force =     0.00011254   -0.00072733   -0.00471621
     atom   33 type  2   force =    -0.00021967    0.00035807   -0.00052466
     atom   34 type  2   force =    -0.00111152   -0.00023801   -0.00041439
     atom   35 type  2   force =    -0.00019382   -0.00011806   -0.00015695
     atom   36 type  2   force =     0.00027304   -0.00036103   -0.00025761
     atom   37 type  1   force =     0.00023133   -0.00018469    0.00024535
     atom   38 type  1   force =    -0.00010812    0.00068147    0.00065167
     atom   39 type  2   force =     0.00015293   -0.00110512    0.00098712
     atom   40 type  2   force =     0.00025635    0.00100232   -0.00062554
     atom   41 type  2   force =    -0.00023846    0.00019461   -0.00027921
     atom   42 type  2   force =     0.00120915    0.00029660   -0.00031914
     atom   43 type  1   force =    -0.00088967    0.00018971    0.00014607
     atom   44 type  1   force =     0.00024431   -0.00123385    0.00111506
     atom   45 type  2   force =     0.00001422   -0.00011310    0.10393822
     atom   46 type  2   force =    -0.07039778   -0.00012681   -0.02690600
     atom   47 type  2   force =     0.07024902    0.00028381   -0.02697106
     atom   48 type  3   force =     0.00073487    0.00008863   -0.00061184
     atom   49 type  4   force =     0.00006510   -0.00006863    0.00005657
     atom   50 type  5   force =    -0.00016819   -0.00075823    0.00015199
     atom   51 type  5   force =    -0.00003364   -0.00057453   -0.00064646
     atom   52 type  5   force =    -0.00005141    0.00006248   -0.00044085
     atom   53 type  5   force =     0.00001977    0.00012955   -0.00060396
     atom   54 type  5   force =     0.00005522   -0.00017346   -0.00065285
     atom   55 type  2   force =     0.00205661    0.00058238    0.00015058
     atom   56 type  5   force =    -0.00105447   -0.00029321    0.00014032
     atom   57 type  5   force =    -0.00264697   -0.00232639    0.00073512

     Total force =     0.366301     Total SCF correction =     0.000783
  @ DRIVER MODE: Message from server: STATUS
  @ DRIVER MODE: Message from server: GETFORCE
  @ DRIVER MODE: Returning v,forces,stress,ensemble

     Writing output data file ./calc.save/
  @ DRIVER MODE: Message from server: EXIT
  @ DRIVE MODE: Exiting

     General routines

     Parallel routines

   This run was terminated on:  11:25:24  23Sep2021

   JOB DONE.