     Program PWSCF v.6.7GPU starts on 15Sep2021 at 20:18:53

     R & G space division:  proc/nbgrp/npool/nimage =      10
     Reading input from /storage/home/hcoda1/3/ntian30/research/carbon/CxH_vib/H2O_calc/ads_slab/CH2OHH2O_a/out_0015/pw.inp
Warning: card &CELL ignored
Warning: card   CELL_DYNAMICS='IPI', ignored
Warning: card / ignored

     Current dimensions of program PWSCF are:
     Max number of different atomic species (ntypx) = 10
     Max number of k-points (npk) =  40000
     Max angular momentum in pseudopotentials (lmaxx) =  3
     Presently no symmetry can be used with electric field

     Message from routine cell_base_init:
     DEPRECATED: use true lattice parameter, not A to a.u. conversion factor

     IMPORTANT: XC functional enforced from input :
     Exchange-correlation= BEEF-VDW
                           (   1   4  43  14   2   0   0)
     Any further DFT definition will be discarded
     Please, verify this is what you really want

  @ DRIVER MODE: Connecting to
 qe_1139763_2852615.sched-torque.pace.gatech.eduwhprbqrn_scratch
  using UNIX socket
  @ DRIVER MODE: Message from server: STATUS
  @ DRIVER MODE: Message from server: INIT
  @ DRIVER MODE: Receiving replica           0          -1
  @ DRIVER MODE: Receiving encoded integer          25
  @ DRIVER MODE:  SCF:  T  FORCE:  T  STRESS:  F  VC:  F  ENSEMBLE:  F
  @ DRIVER MODE:  SCF:  T  FORCE:  T  STRESS:  F  VC:  F  ENSEMBLE:  F

     Using Slab Decomposition

     bravais-lattice index     =            0
     lattice parameter (alat)  =       1.8897  a.u.
     unit-cell volume          =    6658.9804 (a.u.)^3
     number of atoms/cell      =           55
     number of atomic types    =            4
     number of electrons       =       399.00
     number of Kohn-Sham states=          209
     kinetic-energy cutoff     =      29.3995  Ry
     charge density cutoff     =     293.9946  Ry
     scf convergence threshold =      7.3E-08
     mixing beta               =       0.0500
     number of iterations used =            8  plain     mixing
     Exchange-correlation= BEEF-VDW
                           (   1   4  43  14   2   0   0)

     celldm(1)=   1.889726  celldm(2)=   0.000000  celldm(3)=   0.000000
     celldm(4)=   0.000000  celldm(5)=   0.000000  celldm(6)=   0.000000

     crystal axes: (cart. coord. in units of alat)
               a(1) = (   6.579727   0.000000   0.000000 )
               a(2) = (  -0.000775   5.961596   0.000000 )
               a(3) = (   0.000000   0.000000  25.155947 )

     reciprocal axes: (cart. coord. in units 2 pi/alat)
               b(1) = (  0.151982  0.000020  0.000000 )
               b(2) = (  0.000000  0.167740  0.000000 )
               b(3) = (  0.000000  0.000000  0.039752 )

     PseudoPot. # 1 for Ti read from file:
     /storage/coda1/p-amedford6/0/shared/rich_project_chbe-medford/medford-share/data/pseudos_module/espresso/nninc/pbe/van/Ti.UPF
     MD5 check sum: 8e4df49b7f0d34bbd5052bf3f5ea0213
     Pseudo is Ultrasoft, Zval = 12.0
     Generated by new atomic code, or converted to UPF format
     Using radial grid of  851 points,  6 beta functions with:
                l(1) =   0
                l(2) =   0
                l(3) =   1
                l(4) =   1
                l(5) =   2
                l(6) =   2
     Q(r) pseudized with  8 coefficients,  rinner =    1.000   1.000   1.000
                                                       1.000   1.000

     PseudoPot. # 2 for O  read from file:
     /storage/coda1/p-amedford6/0/shared/rich_project_chbe-medford/medford-share/data/pseudos_module/espresso/nninc/pbe/van/O.UPF
     MD5 check sum: 78c19812648e8988a0fe644b0f25305e
     Pseudo is Ultrasoft, Zval =  6.0
     Generated by new atomic code, or converted to UPF format
     Using radial grid of  737 points,  4 beta functions with:
                l(1) =   0
                l(2) =   0
                l(3) =   1
                l(4) =   1
     Q(r) pseudized with  8 coefficients,  rinner =    0.800   0.800   0.800

     PseudoPot. # 3 for C  read from file:
     /storage/coda1/p-amedford6/0/shared/rich_project_chbe-medford/medford-share/data/pseudos_module/espresso/nninc/pbe/van/C.UPF
     MD5 check sum: 1a69bf6b8db32088f5b2163dbdb77a27
     Pseudo is Ultrasoft, Zval =  4.0
     Generated by new atomic code, or converted to UPF format
     Using radial grid of  721 points,  4 beta functions with:
                l(1) =   0
                l(2) =   0
                l(3) =   1
                l(4) =   1
     Q(r) pseudized with  8 coefficients,  rinner =    0.800   0.800   0.800

     PseudoPot. # 4 for H  read from file:
     /storage/coda1/p-amedford6/0/shared/rich_project_chbe-medford/medford-share/data/pseudos_module/espresso/nninc/pbe/van/H.UPF
     MD5 check sum: b5ee9d7bfd3a09ee7748110bda690ff7
     Pseudo is Ultrasoft, Zval =  1.0
     Generated by new atomic code, or converted to UPF format
     Using radial grid of  615 points,  1 beta functions with:
                l(1) =   0
     Q(r) pseudized with  8 coefficients,  rinner =    0.800

     atomic species   valence    mass     pseudopotential
        Ti1           12.00    47.86700     Ti( 1.00)
        O1             6.00    15.99900     O ( 1.00)
        C1             4.00    12.01100     C ( 1.00)
        H1             1.00     1.00800     H ( 1.00)

     No symmetry found

   Cartesian axes

     site n.     atom                  positions (alat units)
         1           Ti1 tau(   1) = (   0.0004258   2.9801865   6.0000000  )
         2           Ti1 tau(   2) = (   3.2906075   1.4906267   6.0002472  )
         3           O1  tau(   3) = (   0.0006271   0.0005054   7.9858123  )
         4           O1  tau(   4) = (   3.2906025   0.0005020   7.3038282  )
         5           O1  tau(   5) = (   4.5942328   1.4918067   9.2879030  )
         6           O1  tau(   6) = (   1.9868534   1.4903216   9.2879459  )
         7           Ti1 tau(   7) = (   3.2434587   3.0186650   9.1693953  )
         8           Ti1 tau(   8) = (   6.5248695   1.5265067   9.2859949  )
         9           O1  tau(   9) = (   3.3238096   0.0077392  11.3399147  )
        10           O1  tau(  10) = (   0.0083103   0.0007143  10.5763085  )
        11           O1  tau(  11) = (   1.3076427   1.5153157  12.5877682  )
        12           O1  tau(  12) = (   5.3324098   1.4751673  12.6362968  )
        13           Ti1 tau(  13) = (   0.0822926   2.9518924  12.6100891  )
        14           Ti1 tau(  14) = (   3.3652580   1.6116561  12.6031695  )
        15           O1  tau(  15) = (   0.1623142   0.0003102  14.6136642  )
        16           O1  tau(  16) = (   3.2083997   0.0016335  13.9229753  )
        17           O1  tau(  17) = (   4.6427586   1.3635169  15.8692112  )
        18           O1  tau(  18) = (   2.0707938   1.5934636  16.1317492  )
        19           Ti1 tau(  19) = (   3.4055461   2.9583945  15.9219660  )
        20           Ti1 tau(  20) = (   0.0529163   1.3399360  15.9091509  )
        21           O1  tau(  21) = (   3.2904802   0.0005063   4.7018136  )
        22           O1  tau(  22) = (   0.1143047   5.9459637  17.1421970  )
        23           O1  tau(  23) = (   1.3043587   1.4918075   6.0039043  )
        24           O1  tau(  24) = (   5.2767064   1.4903225   6.0039473  )
        25           Ti1 tau(  25) = (   0.0000382   5.9609847   6.0000000  )
        26           Ti1 tau(  26) = (   3.2902200   4.4714249   6.0002472  )
        27           O1  tau(  27) = (   0.0002396   2.9813036   7.9858123  )
        28           O1  tau(  28) = (   3.2902150   2.9813002   7.3038282  )
        29           O1  tau(  29) = (   4.5938453   4.4726049   9.2879030  )
        30           O1  tau(  30) = (   1.9864658   4.4711199   9.2879459  )
        31           Ti1 tau(  31) = (   3.2519499   0.0415563   9.1803751  )
        32           Ti1 tau(  32) = (   6.5223785   4.4699269   9.2708698  )
        33           O1  tau(  33) = (   3.3249262   3.0006027  11.3427062  )
        34           O1  tau(  34) = (   6.5728067   2.9803724  10.5910131  )
        35           O1  tau(  35) = (   1.3048910   4.4590737  12.5876729  )
        36           O1  tau(  36) = (   5.3248012   4.5079456  12.6396186  )
        37           Ti1 tau(  37) = (   0.0305998   5.9348532  12.4502240  )
        38           Ti1 tau(  38) = (   3.3518916   4.5407868  12.4757475  )
        39           O1  tau(  39) = (   0.0741357   2.9755951  14.7167286  )
        40           O1  tau(  40) = (   3.3703583   2.9475192  13.9294239  )
        41           O1  tau(  41) = (   4.6408928   4.5782690  15.8216857  )
        42           O1  tau(  42) = (   2.0743197   4.3710070  16.0958311  )
        43           Ti1 tau(  43) = (   3.3271525   5.9323444  15.7323421  )
        44           Ti1 tau(  44) = (   0.0603002   4.5335970  15.7939964  )
        45           O1  tau(  45) = (   3.2900926   2.9813045   4.7018136  )
        46           O1  tau(  46) = (   1.3039711   4.4726057   6.0039043  )
        47           O1  tau(  47) = (   5.2763189   4.4711207   6.0039473  )
        48           C1  tau(  48) = (   4.5917920   3.0228413  17.9030398  )
        49           O1  tau(  49) = (   6.0625861   3.0006587  17.4562122  )
        50           H1  tau(  50) = (   0.0503952   3.0975262  18.2373115  )
        51           H1  tau(  51) = (   4.5265887   2.1706275  18.5876854  )
        52           H1  tau(  52) = (   4.4781653   3.9549082  18.4551422  )
        53           O1  tau(  53) = (   2.8659371   5.8926936  18.2031264  )
        54           H1  tau(  54) = (   3.0528466   0.8172038  18.5446680  )
        55           H1  tau(  55) = (   1.8959954   5.8777970  18.0521013  )

     number of k points=    10  Fermi-Dirac smearing, width (Ry)=  0.0073
                       cart. coord. in units 2pi/alat
        k(    1) = (   0.0000000   0.0000000   0.0000000), wk =   0.1250000
        k(    2) = (   0.0000000   0.0419351   0.0000000), wk =   0.2500000
        k(    3) = (   0.0000000  -0.0838702   0.0000000), wk =   0.1250000
        k(    4) = (   0.0379955   0.0000049   0.0000000), wk =   0.2500000
        k(    5) = (   0.0379955   0.0419400   0.0000000), wk =   0.2500000
        k(    6) = (   0.0379955  -0.0838652   0.0000000), wk =   0.2500000
        k(    7) = (   0.0379955  -0.0419301   0.0000000), wk =   0.2500000
        k(    8) = (  -0.0759910  -0.0000099   0.0000000), wk =   0.1250000
        k(    9) = (  -0.0759910   0.0419252   0.0000000), wk =   0.2500000
        k(   10) = (  -0.0759910  -0.0838800   0.0000000), wk =   0.1250000

     Initial potential from superposition of free atoms

     starting charge  382.99916, renormalised to  399.00000

     negative rho (up, down):  1.858E-02 0.000E+00

     %%%%%%%%%%%%%%%%%%%%%%%%%%%%%%%%%%%%%%%%%%%%%%%%%%%%%%%%%%%%%%%%%%%%%%%%
     %                                                                      %
     % You are using vdW-DF, which was implemented by the Thonhauser group. %
     % Please cite the following two papers that made this development      %
     % possible and the two reviews that describe the various versions:     %
     %                                                                      %
     %   T. Thonhauser et al., PRL 115, 136402 (2015).                      %
     %   T. Thonhauser et al., PRB 76, 125112 (2007).                       %
     %   K. Berland et al., Rep. Prog. Phys. 78, 066501 (2015).             %
     %   D.C. Langreth et al., J. Phys.: Condens. Matter 21, 084203 (2009). %
     %                                                                      %
     %                                                                      %
     % If you are calculating the stress with vdW-DF, please also cite:     %
     %                                                                      %
     %   R. Sabatini et al., J. Phys.: Condens. Matter 24, 424209 (2012).   %
     %                                                                      %
     %%%%%%%%%%%%%%%%%%%%%%%%%%%%%%%%%%%%%%%%%%%%%%%%%%%%%%%%%%%%%%%%%%%%%%%%

     Adding external electric field

     Computed dipole along edir(3) :
        Dipole               -9.7304 Ry au,        -24.7321 Debye
        Dipole field         -0.0184 Ry au,

        Potential amp.        1.7022 Ry
        Total length         46.3494 bohr

     Starting wfcs are  301 atomic wfcs
  @ DRIVER MODE: Message from server: STATUS
  @ DRIVER MODE: Message from server: POSDATA
  @ DRIVER MODE: Reading and sharing cell
  @ DRIVER MODE: Reading and sharing positions
  @ DRIVER MODE: Received positions

     Self-consistent Calculation

     iteration #  1     ecut=    29.40 Ry     beta= 0.05
     Davidson diagonalization with overlap
     c_bands:  1 eigenvalues not converged
     c_bands:  2 eigenvalues not converged
     c_bands:  3 eigenvalues not converged
     c_bands:  5 eigenvalues not converged
     c_bands:  3 eigenvalues not converged
     c_bands:  2 eigenvalues not converged
     c_bands:  3 eigenvalues not converged
     c_bands:  2 eigenvalues not converged
     ethr =  1.00E-05,  avg # of iterations = 19.8

[...]

     total energy              =   -2478.51767740 Ry
     estimated scf accuracy    <    5415.86807234 Ry

     iteration #  2     ecut=    29.40 Ry     beta= 0.05
     Davidson diagonalization with overlap
     ethr =  1.00E-02,  avg # of iterations = 24.6

[...]

     iteration # 75     ecut=    29.40 Ry     beta= 0.05
     Davidson diagonalization with overlap
     c_bands:  3 eigenvalues not converged
     c_bands:  1 eigenvalues not converged
     ethr =  5.48E-11,  avg # of iterations = 15.6

[...]

     total energy              =   -2966.15825086 Ry
     estimated scf accuracy    <       0.00000017 Ry

     iteration # 77     ecut=    29.40 Ry     beta= 0.05
     Davidson diagonalization with overlap
     ethr =  4.35E-11,  avg # of iterations = 11.8

     negative rho (up, down):  1.797E-02 0.000E+00

     Adding external electric field

     Computed dipole along edir(3) :
        Dipole                1.0042 Ry au,          2.5524 Debye
        Dipole field          0.0019 Ry au,

        Potential amp.       -0.1757 Ry
        Total length         46.3494 bohr

     End of self-consistent calculation

          k = 0.0000 0.0000 0.0000 ( 18029 PWs)   bands (ev):

   -55.6892 -55.6528 -55.5819 -55.5734 -55.5166 -55.5144 -55.5089 -55.5060
   -55.4781 -55.4606 -55.4538 -55.4427 -55.4270 -55.3377 -54.6584 -54.6244
   -32.1794 -32.1653 -32.0551 -32.0255 -32.0030 -31.9765 -31.9553 -31.9437
   -31.9304 -31.8709 -31.8436 -31.8367 -31.8333 -31.8242 -31.7967 -31.7874
   -31.7837 -31.7643 -31.7594 -31.7484 -31.7371 -31.7318 -31.6981 -31.6924
   -31.6901 -31.6834 -31.6781 -31.6701 -31.6650 -31.6602 -31.6524 -31.6359
   -31.6319 -31.6296 -31.6239 -31.6211 -31.6125 -31.6119 -31.5867 -31.5637
   -31.5522 -31.4244 -31.0654 -30.9771 -30.9545 -30.8823 -30.7959 -30.6846
   -19.3950 -18.7442 -16.3745 -16.1777 -15.9730 -15.8595 -15.8396 -15.6585
   -15.5347 -15.3884 -15.3360 -15.3070 -15.2863 -15.2169 -15.2101 -15.1950
   -15.1599 -15.1549 -15.1186 -15.0988 -15.0928 -15.0650 -15.0136 -14.9919
   -14.9423 -14.8822 -14.8136 -14.7935 -14.7845 -14.7091 -14.6169 -13.1592
   -13.0426  -9.4356  -6.5059  -6.2817  -4.0752  -3.8419  -3.6864  -3.6436
    -3.6116  -3.5754  -3.4154  -3.3040  -3.1238  -3.0196  -2.9531  -2.9025
    -2.8656  -2.7885  -2.7468  -2.6224  -2.5991  -2.5490  -2.5164  -2.4804
    -2.4734  -2.4522  -2.4070  -2.3898  -2.3744  -2.2172  -2.2070  -2.1731
    -2.1085  -2.0771  -2.0499  -2.0128  -1.9911  -1.9639  -1.9458  -1.8993
    -1.8808  -1.8090  -1.8011  -1.7577  -1.6904  -1.6575  -1.3934  -1.3149
    -1.2951  -1.2562  -1.1931  -1.0962  -1.0925  -1.0860  -1.0855  -1.0284
    -1.0104  -0.8631  -0.8487  -0.8338  -0.7538  -0.6747  -0.5953  -0.5585
    -0.4941  -0.4438  -0.4112  -0.3834  -0.3583  -0.3011  -0.2328  -0.2106
    -0.1399  -0.0659  -0.0327   0.0197   0.0456   0.0903   0.1209   0.1969
     0.2358   0.2698   0.2977   0.3158   0.3257   0.3693   0.3892   0.4785
     0.5559   0.5839   0.5906   0.6647   0.7913   0.8737   0.9856   1.0771
     1.2994   1.3656   1.4170   1.5490   1.5566   1.9374   1.9879   3.4523
     3.5213   3.5808   3.5813   3.6162   3.6967   3.8996   3.9469   4.0044
     4.0381

[...]

          k = 0.0380-0.0419 0.0000 ( 17876 PWs)   bands (ev):

[...]

          k =-0.0760-0.0000 0.0000 ( 17886 PWs)   bands (ev):

[...]

          k =-0.0760-0.0839 0.0000 ( 17948 PWs)   bands (ev):

   -55.6774 -55.6644 -55.5766 -55.5686 -55.5210 -55.5131 -55.5111 -55.5026
   -55.4629 -55.4600 -55.4571 -55.4457 -55.4422 -55.3392 -54.6414 -54.6413
   -32.0983 -31.9867 -31.9759 -31.9740 -31.9519 -31.9012 -31.8747 -31.8535
   -31.8463 -31.8417 -31.8384 -31.8154 -31.8144 -31.7997 -31.7983 -31.7891
   -31.7881 -31.7797 -31.7782 -31.7748 -31.7719 -31.7625 -31.7409 -31.7353
   -31.7297 -31.7176 -31.7108 -31.7041 -31.7018 -31.6875 -31.6729 -31.6656
   -31.6649 -31.6623 -31.6605 -31.6539 -31.6525 -31.6506 -31.6488 -31.6460
   -31.6283 -31.4266 -30.9673 -30.9672 -30.8787 -30.8779 -30.8392 -30.8388
   -19.3885 -18.7431 -15.9926 -15.6536 -15.6407 -15.6355 -15.6048 -15.4834
   -15.4594 -15.4369 -15.3913 -15.3613 -15.3554 -15.3323 -15.2880 -15.2315
   -15.2123 -15.2046 -15.1949 -15.1426 -15.1282 -15.1173 -15.0716 -15.0310
   -15.0285 -15.0047 -14.9785 -14.9731 -14.9728 -14.9451 -14.8774 -13.1460
   -13.1428  -9.4417  -6.5060  -6.2619  -4.0326  -3.7282  -3.1609  -3.0411
    -2.8712  -2.8487  -2.7981  -2.7760  -2.7229  -2.6542  -2.6256  -2.6140
    -2.6123  -2.5785  -2.5157  -2.4817  -2.4778  -2.4386  -2.4204  -2.4125
    -2.3922  -2.3670  -2.3423  -2.3237  -2.3173  -2.2817  -2.2693  -2.2544
    -2.2484  -2.2369  -2.2182  -2.1775  -2.0699  -1.9479  -1.9142  -1.8787
    -1.8388  -1.7799  -1.7736  -1.7596  -1.7254  -1.7247  -1.7085  -1.6304
    -1.4660  -1.4042  -1.3427  -1.3208  -1.2471  -1.2348  -1.2192  -1.1755
    -1.1351  -1.0881  -1.0434  -1.0202  -0.9646  -0.9204  -0.7922  -0.7379
    -0.6534  -0.6482  -0.6257  -0.6106  -0.5566  -0.5318  -0.5069  -0.4625
    -0.4278  -0.3835  -0.3516  -0.3428  -0.3206  -0.2595  -0.1596  -0.1106
    -0.0482  -0.0424   0.0404   0.1698   0.3553   0.3856   0.4439   0.4949
     0.5843   0.6066   0.6554   0.6752   0.7327   0.7598   0.8012   0.8614
     0.9221   0.9503   1.5139   1.7290   1.7354   1.7986   1.8080   3.7437
     3.8312   3.9238   3.9377   3.9720   3.9843   3.9901   4.0194   4.0765
     4.1139

     the Fermi energy is     3.4497 ev

!    total energy              =   -2966.15826547 Ry
     estimated scf accuracy    <       0.00000005 Ry
     smearing contrib. (-TS)   =      -0.02139703 Ry
     internal energy E=F+TS    =   -2966.13686844 Ry

     The total energy is F=E-TS. E is the sum of the following terms:
     one-electron contribution =  -24755.63466889 Ry
     hartree contribution      =   12470.33063829 Ry
     xc contribution           =    -490.95988694 Ry
     ewald contribution        =    9810.12514606 Ry
     electric field correction =       0.00190305 Ry

     convergence has been achieved in  77 iterations

     Forces acting on atoms (cartesian axes, Ry/au):

     atom    1 type  1   force =     0.00075738   -0.00018752    0.09531808
     atom    2 type  1   force =     0.00024544   -0.00220466   -0.17570150
     atom    3 type  2   force =    -0.00066024   -0.00040863   -0.03007530
     atom    4 type  2   force =    -0.00085056    0.00063512    0.05235026
     atom    5 type  2   force =    -0.01386616   -0.00099825    0.00146439
     atom    6 type  2   force =     0.01581874    0.00241045    0.00318865
     atom    7 type  1   force =     0.00033830    0.00039031   -0.00028423
     atom    8 type  1   force =    -0.00035904    0.00140326    0.00065262
     atom    9 type  2   force =     0.00011110   -0.00002254    0.00023785
     atom   10 type  2   force =     0.00017523    0.00016939   -0.00057571
     atom   11 type  2   force =    -0.00023842    0.00024908    0.00018445
     atom   12 type  2   force =    -0.00037828    0.00008743    0.00008139
     atom   13 type  1   force =     0.00022981   -0.00018051   -0.00062298
     atom   14 type  1   force =    -0.00100865    0.00001623    0.00028933
     atom   15 type  2   force =     0.00006687   -0.00116573   -0.00014640
     atom   16 type  2   force =    -0.00001205   -0.00006812   -0.00019018
     atom   17 type  2   force =    -0.00043221   -0.00036437   -0.00018186
     atom   18 type  2   force =     0.00033498   -0.00030796    0.00010971
     atom   19 type  1   force =     0.00007036    0.00033091    0.00014796
     atom   20 type  1   force =     0.00013595    0.00086859    0.00019016
     atom   21 type  2   force =     0.00014731    0.00019777    0.10303118
     atom   22 type  2   force =     0.00016587   -0.00096233    0.00015853
     atom   23 type  2   force =    -0.07128732    0.00094438   -0.02828877
     atom   24 type  2   force =     0.07134047    0.00133783   -0.02832505
     atom   25 type  1   force =     0.00021587    0.00038501    0.10639645
     atom   26 type  1   force =    -0.00000238    0.00252725   -0.17558852
     atom   27 type  2   force =    -0.00037706    0.00013250   -0.02785999
     atom   28 type  2   force =    -0.00096206    0.00076120    0.05165440
     atom   29 type  2   force =    -0.01301616   -0.00123236    0.00107096
     atom   30 type  2   force =     0.01546207    0.00037063    0.00295456
     atom   31 type  1   force =     0.00051673    0.00002812   -0.00002812
     atom   32 type  1   force =    -0.00040970   -0.00140831    0.00017551
     atom   33 type  2   force =    -0.00016782   -0.00031452    0.00019491
     atom   34 type  2   force =     0.00000631    0.00010601   -0.00014477
     atom   35 type  2   force =    -0.00062171   -0.00019275    0.00065999
     atom   36 type  2   force =     0.00002970   -0.00036974    0.00024094
     atom   37 type  1   force =     0.00059729    0.00026634    0.00052615
     atom   38 type  1   force =    -0.00091965    0.00014014    0.00046168
     atom   39 type  2   force =    -0.00017447    0.00067434    0.00024109
     atom   40 type  2   force =    -0.00003028   -0.00052051   -0.00065902
     atom   41 type  2   force =     0.00123053   -0.00010184   -0.00005652
     atom   42 type  2   force =    -0.00087064   -0.00015809    0.00013147
     atom   43 type  1   force =     0.00020258   -0.00097755   -0.00000907
     atom   44 type  1   force =    -0.00027645    0.00035176    0.00001654
     atom   45 type  2   force =     0.00012196    0.00015460    0.10331108
     atom   46 type  2   force =    -0.07121185   -0.00126093   -0.02828267
     atom   47 type  2   force =     0.07128106   -0.00086505   -0.02832207
     atom   48 type  3   force =    -0.00074623   -0.00011479   -0.00003680
     atom   49 type  2   force =    -0.00058124   -0.00067539   -0.00174472
     atom   50 type  4   force =     0.00108682    0.00015391    0.00144393
     atom   51 type  4   force =    -0.00070777   -0.00013146    0.00011732
     atom   52 type  4   force =    -0.00032496   -0.00001555   -0.00035113
     atom   53 type  2   force =     0.00151366   -0.00036255    0.00081575
     atom   54 type  4   force =    -0.00023342    0.00041248    0.00007397
     atom   55 type  4   force =    -0.00147559    0.00006692   -0.00041589

     Total force =     0.367355     Total SCF correction =     0.000564
  @ DRIVER MODE: Message from server: STATUS
  @ DRIVER MODE: Message from server: GETFORCE
  @ DRIVER MODE: Returning v,forces,stress,ensemble

     Writing output data file ./calc.save/
  @ DRIVER MODE: Message from server: EXIT
  @ DRIVE MODE: Exiting

     General routines

     Parallel routines

   This run was terminated on:  20:40:46  15Sep2021

   JOB DONE.