     Program PWSCF v.6.7GPU starts on 18Oct2021 at 13: 9: 3

     R & G space division:  proc/nbgrp/npool/nimage =       8
     Reading input from /storage/home/hcoda1/3/ntian30/research/carbon/CxH_vib/Thiel_calc/ads_slab/HNNH_perslab/out_0003/pw.inp
Warning: card &CELL ignored
Warning: card   CELL_DYNAMICS='IPI', ignored
Warning: card / ignored

     Current dimensions of program PWSCF are:
     Max number of different atomic species (ntypx) = 10
     Max number of k-points (npk) =  40000
     Max angular momentum in pseudopotentials (lmaxx) =  3
     Presently no symmetry can be used with electric field

     Message from routine cell_base_init:
     DEPRECATED: use true lattice parameter, not A to a.u. conversion factor

     IMPORTANT: XC functional enforced from input :
     Exchange-correlation= BEEF-VDW
                           (   1   4  43  14   2   0   0)
     Any further DFT definition will be discarded
     Please, verify this is what you really want

  @ DRIVER MODE: Connecting to
 qe_1139763_3255131.sched-torque.pace.gatech.eduueesozsm_scratch
  using UNIX socket
  @ DRIVER MODE: Message from server: STATUS
  @ DRIVER MODE: Message from server: INIT
  @ DRIVER MODE: Receiving replica           0          -1
  @ DRIVER MODE: Receiving encoded integer          25
  @ DRIVER MODE:  SCF:  T  FORCE:  T  STRESS:  F  VC:  F  ENSEMBLE:  F
  @ DRIVER MODE:  SCF:  T  FORCE:  T  STRESS:  F  VC:  F  ENSEMBLE:  F

     Using Slab Decomposition

     bravais-lattice index     =            0
     lattice parameter (alat)  =       1.8897  a.u.
     unit-cell volume          =    9988.4706 (a.u.)^3
     number of atoms/cell      =           57
     number of atomic types    =            4
     number of electrons       =       438.00
     number of Kohn-Sham states=          229
     kinetic-energy cutoff     =      29.3995  Ry
     charge density cutoff     =     293.9946  Ry
     scf convergence threshold =      7.3E-08
     mixing beta               =       0.0500
     number of iterations used =            8  plain     mixing
     Exchange-correlation= BEEF-VDW
                           (   1   4  43  14   2   0   0)

     celldm(1)=   1.889726  celldm(2)=   0.000000  celldm(3)=   0.000000
     celldm(4)=   0.000000  celldm(5)=   0.000000  celldm(6)=   0.000000

     crystal axes: (cart. coord. in units of alat)
               a(1) = (   6.579727   0.000000   0.000000 )
               a(2) = (  -0.001163   8.942395   0.000000 )
               a(3) = (   0.000000   0.000000  25.155947 )

     reciprocal axes: (cart. coord. in units 2 pi/alat)
               b(1) = (  0.151982  0.000020  0.000000 )
               b(2) = (  0.000000  0.111827  0.000000 )
               b(3) = (  0.000000  0.000000  0.039752 )

     PseudoPot. # 1 for O  read from file:
     /storage/coda1/p-amedford6/0/shared/rich_project_chbe-medford/medford-share/data/pseudos_module/espresso/nninc/pbe/van/O.UPF
     MD5 check sum: 78c19812648e8988a0fe644b0f25305e
     Pseudo is Ultrasoft, Zval =  6.0
     Generated by new atomic code, or converted to UPF format
     Using radial grid of  737 points,  4 beta functions with:
                l(1) =   0
                l(2) =   0
                l(3) =   1
                l(4) =   1
     Q(r) pseudized with  8 coefficients,  rinner =    0.800   0.800   0.800

     PseudoPot. # 2 for Ti read from file:
     /storage/coda1/p-amedford6/0/shared/rich_project_chbe-medford/medford-share/data/pseudos_module/espresso/nninc/pbe/van/Ti.UPF
     MD5 check sum: 8e4df49b7f0d34bbd5052bf3f5ea0213
     Pseudo is Ultrasoft, Zval = 12.0
     Generated by new atomic code, or converted to UPF format
     Using radial grid of  851 points,  6 beta functions with:
                l(1) =   0
                l(2) =   0
                l(3) =   1
                l(4) =   1
                l(5) =   2
                l(6) =   2
     Q(r) pseudized with  8 coefficients,  rinner =    1.000   1.000   1.000
                                                       1.000   1.000

     PseudoPot. # 3 for H  read from file:
     /storage/coda1/p-amedford6/0/shared/rich_project_chbe-medford/medford-share/data/pseudos_module/espresso/nninc/pbe/van/H.UPF
     MD5 check sum: b5ee9d7bfd3a09ee7748110bda690ff7
     Pseudo is Ultrasoft, Zval =  1.0
     Generated by new atomic code, or converted to UPF format
     Using radial grid of  615 points,  1 beta functions with:
                l(1) =   0
     Q(r) pseudized with  8 coefficients,  rinner =    0.800

     PseudoPot. # 4 for N  read from file:
     /storage/coda1/p-amedford6/0/shared/rich_project_chbe-medford/medford-share/data/pseudos_module/espresso/nninc/pbe/van/N.UPF
     MD5 check sum: 90d10febe142ad51ac9d5be1deb811c4
     Pseudo is Ultrasoft, Zval =  5.0
     Generated by new atomic code, or converted to UPF format
     Using radial grid of  729 points,  4 beta functions with:
                l(1) =   0
                l(2) =   0
                l(3) =   1
                l(4) =   1
     Q(r) pseudized with  8 coefficients,  rinner =    0.800   0.800   0.800

     atomic species   valence    mass     pseudopotential
        O1             6.00    15.99900     O ( 1.00)
        Ti1           12.00    47.86700     Ti( 1.00)
        H1             1.00     1.00800     H ( 1.00)
        N1             5.00    14.00700     N ( 1.00)

     No symmetry found

   Cartesian axes

     site n.     atom                  positions (alat units)
         1           O1  tau(   1) = (   0.0007354   0.0005023  10.5931620  )
         2           O1  tau(   2) = (   3.2896598   8.9340738  13.9086047  )
         3           O1  tau(   3) = (   6.5779785   8.9335072  17.2267929  )
         4           O1  tau(   4) = (   0.0006271   0.0005054   7.9858123  )
         5           O1  tau(   5) = (   3.2892818   8.9168625  11.1887994  )
         6           O1  tau(   6) = (   0.0000953   0.0200859  14.6187425  )
         7           O1  tau(   7) = (   1.9868534   1.4903216   9.2879459  )
         8           O1  tau(   8) = (   5.2299496   1.5903429  12.5639559  )
         9           O1  tau(   9) = (   2.0057315   1.6103507  16.0678580  )
        10           Ti1 tau(  10) = (   0.0007404   1.4906270   9.2895810  )
        11           Ti1 tau(  11) = (   3.2903845   1.3415648  12.5012035  )
        12           Ti1 tau(  12) = (   0.0001950   1.2451541  15.9845895  )
        13           O1  tau(  13) = (   4.5942328   1.4918067   9.2879030  )
        14           O1  tau(  14) = (   1.3504490   1.5899334  12.5641350  )
        15           O1  tau(  15) = (   4.5723762   1.6092463  16.0679920  )
        16           Ti1 tau(  16) = (   3.2902859   2.9801868   9.2893338  )
        17           Ti1 tau(  17) = (  -0.0000381   2.8017340  12.4757424  )
        18           Ti1 tau(  18) = (   3.2890522   2.9119407  15.7046117  )
        19           O1  tau(  19) = (   0.0003479   2.9813005  10.5931620  )
        20           O1  tau(  20) = (   3.2896940   2.9634103  13.8950687  )
        21           O1  tau(  21) = (   0.0002396   2.9813036   7.9858123  )
        22           O1  tau(  22) = (   3.2899864   2.9652420  11.1892519  )
        23           O1  tau(  23) = (  -0.0000843   3.0239999  14.5506518  )
        24           O1  tau(  24) = (   1.9864658   4.4711199   9.2879459  )
        25           O1  tau(  25) = (   5.2265999   4.6000300  12.5825491  )
        26           O1  tau(  26) = (   2.0173024   4.5375175  16.0298170  )
        27           Ti1 tau(  27) = (   0.0003529   4.4714252   9.2895810  )
        28           Ti1 tau(  28) = (   3.2900658   4.3228872  12.5050252  )
        29           Ti1 tau(  29) = (   0.0015352   4.3959346  15.6897578  )
        30           O1  tau(  30) = (   4.5938453   4.4726049   9.2879030  )
        31           O1  tau(  31) = (   1.3532953   4.6000771  12.5829012  )
        32           O1  tau(  32) = (   4.5620845   4.5358613  16.0300787  )
        33           Ti1 tau(  33) = (   3.2898983   5.9609850   9.2893338  )
        34           Ti1 tau(  34) = (  -0.0003676   5.8120669  12.4544080  )
        35           Ti1 tau(  35) = (   3.2921900   5.8807914  15.7090278  )
        36           O1  tau(  36) = (  -0.0000397   5.9620987  10.5931620  )
        37           O1  tau(  37) = (   3.2903388   5.9631658  13.9136923  )
        38           O1  tau(  38) = (  -0.0000761   5.9602876  17.3216368  )
        39           O1  tau(  39) = (  -0.0001480   5.9621018   7.9858123  )
        40           O1  tau(  40) = (   3.2896813   5.9437884  11.1873515  )
        41           O1  tau(  41) = (  -0.0004454   6.0514558  14.6911356  )
        42           O1  tau(  42) = (   1.9860782   7.4519181   9.2879459  )
        43           O1  tau(  43) = (   5.2331690   7.5528723  12.5749626  )
        44           O1  tau(  44) = (   2.0197658   7.5481525  16.0489791  )
        45           Ti1 tau(  45) = (  -0.0000347   7.4522234   9.2895810  )
        46           Ti1 tau(  46) = (   3.2899396   7.3045924  12.4973202  )
        47           Ti1 tau(  47) = (   0.0022254   7.3576980  16.0878887  )
        48           O1  tau(  48) = (   4.5934577   7.4534031   9.2879030  )
        49           O1  tau(  49) = (   1.3462119   7.5526743  12.5754142  )
        50           O1  tau(  50) = (   4.5579802   7.5455642  16.0489991  )
        51           Ti1 tau(  51) = (   3.2895107   8.9417832   9.2893338  )
        52           Ti1 tau(  52) = (  -0.0004108   8.7719052  12.5005688  )
        53           Ti1 tau(  53) = (   3.2909707   8.8596889  15.7095313  )
        54           H1  tau(  54) = (   6.5770345   5.6146256  18.2315160  )
        55           N1  tau(  55) = (   6.5773047   3.3138987  18.5316601  )
        56           N1  tau(  56) = (   6.5788436   3.1068121  17.3210979  )
        57           H1  tau(  57) = (   6.5767427   2.4184016  19.0716447  )

     number of k points=    10  Fermi-Dirac smearing, width (Ry)=  0.0073
                       cart. coord. in units 2pi/alat
        k(    1) = (   0.0000000   0.0000000   0.0000000), wk =   0.1250000
        k(    2) = (   0.0000000   0.0279567   0.0000000), wk =   0.2500000
        k(    3) = (   0.0000000  -0.0559134   0.0000000), wk =   0.1250000
        k(    4) = (   0.0379955   0.0000049   0.0000000), wk =   0.2500000
        k(    5) = (   0.0379955   0.0279617   0.0000000), wk =   0.2500000
        k(    6) = (   0.0379955  -0.0559085   0.0000000), wk =   0.2500000
        k(    7) = (   0.0379955  -0.0279518   0.0000000), wk =   0.2500000
        k(    8) = (  -0.0759910  -0.0000099   0.0000000), wk =   0.1250000
        k(    9) = (  -0.0759910   0.0279468   0.0000000), wk =   0.2500000
        k(   10) = (  -0.0759910  -0.0559233   0.0000000), wk =   0.1250000

     Initial potential from superposition of free atoms

     starting charge  419.99912, renormalised to  438.00000

     negative rho (up, down):  3.865E-02 0.000E+00

     %%%%%%%%%%%%%%%%%%%%%%%%%%%%%%%%%%%%%%%%%%%%%%%%%%%%%%%%%%%%%%%%%%%%%%%%
     %                                                                      %
     % You are using vdW-DF, which was implemented by the Thonhauser group. %
     % Please cite the following two papers that made this development      %
     % possible and the two reviews that describe the various versions:     %
     %                                                                      %
     %   T. Thonhauser et al., PRL 115, 136402 (2015).                      %
     %   T. Thonhauser et al., PRB 76, 125112 (2007).                       %
     %   K. Berland et al., Rep. Prog. Phys. 78, 066501 (2015).             %
     %   D.C. Langreth et al., J. Phys.: Condens. Matter 21, 084203 (2009). %
     %                                                                      %
     %                                                                      %
     % If you are calculating the stress with vdW-DF, please also cite:     %
     %                                                                      %
     %   R. Sabatini et al., J. Phys.: Condens. Matter 24, 424209 (2012).   %
     %                                                                      %
     %%%%%%%%%%%%%%%%%%%%%%%%%%%%%%%%%%%%%%%%%%%%%%%%%%%%%%%%%%%%%%%%%%%%%%%%

     Adding external electric field

     Computed dipole along edir(3) :
        Dipole               -4.5407 Ry au,        -11.5413 Debye
        Dipole field         -0.0057 Ry au,

        Potential amp.        0.5296 Ry
        Total length         46.3494 bohr

     Starting wfcs are  330 atomic wfcs
  @ DRIVER MODE: Message from server: STATUS
  @ DRIVER MODE: Message from server: POSDATA
  @ DRIVER MODE: Reading and sharing cell
  @ DRIVER MODE: Reading and sharing positions
  @ DRIVER MODE: Received positions

     Self-consistent Calculation

     iteration #  1     ecut=    29.40 Ry     beta= 0.05
     Davidson diagonalization with overlap
     c_bands:  3 eigenvalues not converged
     c_bands:  5 eigenvalues not converged
     c_bands:  3 eigenvalues not converged
     c_bands:  5 eigenvalues not converged
     c_bands:  5 eigenvalues not converged
     c_bands:  1 eigenvalues not converged
     c_bands:  2 eigenvalues not converged
     ethr =  1.00E-05,  avg # of iterations = 22.8

[...]

     total energy              =   -3289.15957783 Ry
     estimated scf accuracy    <      57.71957163 Ry

     iteration #  2     ecut=    29.40 Ry     beta= 0.05
     Davidson diagonalization with overlap
     ethr =  1.00E-02,  avg # of iterations =  5.5

[...]

     iteration # 37     ecut=    29.40 Ry     beta= 0.05
     Davidson diagonalization with overlap
     c_bands:  1 eigenvalues not converged
     ethr =  4.91E-08,  avg # of iterations = 13.4

[...]

     total energy              =   -3290.76661707 Ry
     estimated scf accuracy    <       0.00000012 Ry

     iteration # 52     ecut=    29.40 Ry     beta= 0.05
     Davidson diagonalization with overlap
     ethr =  2.63E-11,  avg # of iterations =  6.7

     negative rho (up, down):  3.654E-02 0.000E+00

     Adding external electric field

     Computed dipole along edir(3) :
        Dipole                1.2067 Ry au,          3.0672 Debye
        Dipole field          0.0015 Ry au,

        Potential amp.       -0.1407 Ry
        Total length         46.3494 bohr

     End of self-consistent calculation

          k = 0.0000 0.0000 0.0000 ( 26871 PWs)   bands (ev):

   -57.9823 -57.9782 -57.9745 -57.9577 -57.9551 -57.9176 -57.8552 -57.8143
   -57.7905 -57.7812 -57.7104 -57.6884 -57.6561 -57.3920 -57.3675 -56.9225
   -56.8993 -56.8852 -34.3755 -34.3694 -34.3681 -34.3569 -34.3542 -34.3212
   -34.3109 -34.3029 -34.3012 -34.2941 -34.2547 -34.2491 -34.1937 -34.1886
   -34.1793 -34.1786 -34.1648 -34.1565 -34.1516 -34.1485 -34.1278 -34.1075
   -34.0984 -34.0798 -34.0778 -34.0727 -34.0677 -34.0416 -34.0223 -33.9752
   -33.9740 -33.9641 -33.9466 -33.9392 -33.9352 -33.9305 -33.9028 -33.8786
   -33.8683 -33.8242 -33.6895 -33.6722 -33.6337 -33.6080 -33.5796 -33.2444
   -33.2368 -33.2277 -33.2215 -33.2151 -33.1439 -33.0850 -33.0693 -32.9417
   -20.7950 -19.3683 -18.8145 -18.4151 -18.2285 -18.2122 -18.2033 -18.1460
   -18.0699 -18.0662 -17.8852 -17.7953 -17.7726 -17.7464 -17.7282 -17.6952
   -17.6375 -17.6182 -17.5974 -17.5878 -17.5673 -17.5620 -17.4836 -17.4192
   -17.3939 -17.3868 -17.3794 -17.3758 -17.3059 -17.2200 -17.1301 -17.0713
   -17.0364 -15.3870 -15.3335 -15.3282 -11.2645  -7.6494  -7.1690  -6.1372
    -5.9260  -5.8608  -5.7854  -5.4357  -5.4244  -5.4205  -5.3553  -5.3342
    -5.2978  -5.2851  -5.2346  -5.2148  -5.2142  -5.1864  -5.1109  -5.0878
    -5.0612  -4.9854  -4.9396  -4.9088  -4.8584  -4.8446  -4.7451  -4.7437
    -4.7204  -4.7183  -4.7059  -4.6867  -4.6376  -4.6298  -4.5357  -4.5184
    -4.4743  -4.3547  -4.3313  -4.2717  -4.2550  -4.2257  -4.1419  -4.0790
    -4.0674  -4.0495  -4.0148  -3.9830  -3.9481  -3.9150  -3.8647  -3.7823
    -3.7204  -3.6820  -3.5695  -3.5129  -3.4791  -3.4567  -3.3770  -3.3582
    -3.3182  -3.2465  -3.1991  -3.1583  -3.1229  -3.1202  -3.0853  -2.9879
    -2.9797  -2.9031  -2.8209  -2.7947  -2.7161  -2.7042  -2.6972  -2.6800
    -2.6605  -2.6325  -2.6039  -2.5742  -2.4954  -2.4799  -2.4564  -2.4030
    -2.2956  -2.2788  -2.2741  -2.2577  -2.2530  -2.1870  -2.0881  -1.9784
    -1.9778  -1.9706  -1.8269  -1.7999  -1.7476  -1.7442  -1.6954  -1.6249
    -1.5684  -1.1787  -0.9406  -0.6546  -0.6221  -0.6136  -0.3753  -0.3655
    -0.2473   0.0021   0.9950   1.2640   1.3439   1.4313   1.4811   1.4868
     1.6127   1.6351   1.6682   1.7115   1.7212

[...]

          k = 0.0380-0.0280 0.0000 ( 26873 PWs)   bands (ev):

[...]

          k =-0.0760-0.0000 0.0000 ( 26902 PWs)   bands (ev):

[...]

          k =-0.0760-0.0559 0.0000 ( 26868 PWs)   bands (ev):

   -57.9768 -57.9754 -57.9749 -57.9723 -57.9479 -57.9183 -57.8549 -57.8101
   -57.7989 -57.7767 -57.7082 -57.6918 -57.6549 -57.3921 -57.3673 -56.9187
   -56.9065 -56.8818 -34.4486 -34.4358 -34.3802 -34.3697 -34.3359 -34.3146
   -34.3111 -34.2999 -34.2725 -34.2647 -34.2267 -34.2051 -34.2042 -34.1665
   -34.1661 -34.1655 -34.1633 -34.1447 -34.1244 -34.1222 -34.1177 -34.1074
   -34.1073 -34.0682 -34.0651 -34.0554 -34.0354 -34.0302 -34.0076 -34.0016
   -33.9957 -33.9951 -33.9820 -33.9787 -33.9515 -33.9344 -33.9300 -33.8788
   -33.8615 -33.7791 -33.7309 -33.6753 -33.6351 -33.6099 -33.5809 -33.3210
   -33.2461 -33.2347 -33.2116 -33.1294 -33.1147 -33.0563 -33.0447 -33.0312
   -20.7940 -19.3622 -18.5070 -18.4943 -18.1812 -18.1119 -18.0780 -18.0469
   -18.0070 -17.9714 -17.9416 -17.9289 -17.9002 -17.8058 -17.7968 -17.7257
   -17.7010 -17.6783 -17.6652 -17.6370 -17.6023 -17.5982 -17.5847 -17.4759
   -17.4654 -17.3824 -17.3638 -17.3209 -17.2642 -17.2193 -17.1188 -17.1059
   -17.0044 -15.3894 -15.3818 -15.2680 -11.2620  -7.6320  -7.1519  -5.7661
    -5.7601  -5.7251  -5.7005  -5.6415  -5.3720  -5.3455  -5.2183  -5.2139
    -5.2062  -5.1735  -5.1526  -5.1121  -5.0961  -5.0842  -5.0718  -5.0668
    -5.0014  -4.9995  -4.9462  -4.9152  -4.8687  -4.8619  -4.8533  -4.7969
    -4.7722  -4.7352  -4.7293  -4.6949  -4.5747  -4.5542  -4.5297  -4.4887
    -4.4530  -4.4345  -4.3520  -4.2966  -4.2274  -4.1142  -4.0909  -4.0860
    -4.0309  -3.9884  -3.9282  -3.8783  -3.7241  -3.6880  -3.6632  -3.5972
    -3.5690  -3.5548  -3.5390  -3.5179  -3.5039  -3.4519  -3.4459  -3.3919
    -3.3557  -3.3275  -3.3080  -3.2141  -3.1653  -3.1322  -3.0931  -3.0725
    -3.0640  -3.0527  -3.0257  -3.0185  -3.0173  -2.9522  -2.9423  -2.9008
    -2.8561  -2.7690  -2.7390  -2.7001  -2.6420  -2.5370  -2.5187  -2.4678
    -2.4506  -2.3949  -2.2123  -2.1982  -2.1818  -2.1384  -2.0909  -2.0520
    -2.0436  -2.0232  -1.9755  -1.8663  -1.7327  -1.7134  -1.5523  -1.4841
    -1.4770  -1.4563  -1.2549  -0.8381  -0.5536  -0.5256  -0.5204  -0.3787
    -0.3754   0.0043   1.1552   1.1797   1.2465   1.3180   1.3539   1.3620
     1.3824   1.4852   1.4887   1.5909   1.6558

     the Fermi energy is     1.0941 ev

!    total energy              =   -3290.76671099 Ry
     estimated scf accuracy    <       0.00000007 Ry
     smearing contrib. (-TS)   =      -0.03255741 Ry
     internal energy E=F+TS    =   -3290.73415359 Ry

     The total energy is F=E-TS. E is the sum of the following terms:
     one-electron contribution =  -34499.02534850 Ry
     hartree contribution      =   17310.86560511 Ry
     xc contribution           =    -540.50993853 Ry
     ewald contribution        =   14437.93369631 Ry
     electric field correction =       0.00183202 Ry

     convergence has been achieved in  52 iterations

     Forces acting on atoms (cartesian axes, Ry/au):

     atom    1 type  1   force =    -0.00000291    0.00295980    0.06150307
     atom    2 type  1   force =     0.00005575    0.00057974   -0.00876448
     atom    3 type  1   force =     0.00000837   -0.00436790    0.00111512
     atom    4 type  1   force =     0.00004956   -0.00105685    0.10515887
     atom    5 type  1   force =     0.00004997   -0.00000541    0.01003885
     atom    6 type  1   force =    -0.00003299   -0.00433655    0.00694420
     atom    7 type  1   force =     0.07080436   -0.00017921   -0.02969603
     atom    8 type  1   force =     0.00422180   -0.02882446    0.00201840
     atom    9 type  1   force =     0.00643555   -0.02306145    0.00267385
     atom   10 type  2   force =    -0.00005418   -0.00530923   -0.17413861
     atom   11 type  2   force =    -0.00025163    0.02021884   -0.00523191
     atom   12 type  2   force =    -0.00005779    0.02576557   -0.00804593
     atom   13 type  1   force =    -0.07089914   -0.00062731   -0.02963637
     atom   14 type  1   force =    -0.00451571   -0.02852890    0.00199643
     atom   15 type  1   force =    -0.00632719   -0.02311697    0.00264519
     atom   16 type  2   force =     0.00011233   -0.00200037    0.06351058
     atom   17 type  2   force =     0.00046923    0.03497521    0.00378604
     atom   18 type  2   force =    -0.00005780    0.01822864   -0.00076631
     atom   19 type  1   force =    -0.00001206    0.00864869    0.05614145
     atom   20 type  1   force =     0.00004099    0.00030004   -0.00815967
     atom   21 type  1   force =     0.00004798    0.00236384    0.10554542
     atom   22 type  1   force =     0.00004597   -0.00045741    0.00966802
     atom   23 type  1   force =    -0.00001467   -0.00198133    0.00316693
     atom   24 type  1   force =     0.06933258   -0.00029007   -0.02956144
     atom   25 type  1   force =     0.00470153   -0.02810233    0.00243662
     atom   26 type  1   force =     0.00623209   -0.01518298   -0.00032489
     atom   27 type  2   force =    -0.00005342   -0.00797193   -0.18325505
     atom   28 type  2   force =    -0.00026777    0.02039562   -0.00596046
     atom   29 type  2   force =    -0.00009145    0.02397643    0.00516550
     atom   30 type  1   force =    -0.06942871   -0.00074351   -0.02950785
     atom   31 type  1   force =    -0.00497225   -0.02780925    0.00240482
     atom   32 type  1   force =    -0.00596570   -0.01504391   -0.00031697
     atom   33 type  2   force =     0.00008026   -0.00100939    0.06381584
     atom   34 type  2   force =     0.00047274    0.03463049    0.00498024
     atom   35 type  2   force =    -0.00012411    0.02158849    0.00156632
     atom   36 type  1   force =    -0.00001313    0.00376700    0.05850360
     atom   37 type  1   force =     0.00004743   -0.00064263   -0.00670423
     atom   38 type  1   force =    -0.00001387   -0.00389448    0.00587439
     atom   39 type  1   force =     0.00005317   -0.00051384    0.10665032
     atom   40 type  1   force =     0.00004763   -0.00050455    0.00898700
     atom   41 type  1   force =    -0.00000790   -0.00422845   -0.00116383
     atom   42 type  1   force =     0.06973075   -0.00119831   -0.02999646
     atom   43 type  1   force =     0.00450152   -0.02930291    0.00148214
     atom   44 type  1   force =     0.00991645   -0.02498850    0.00499053
     atom   45 type  2   force =    -0.00006724    0.00911214   -0.17961975
     atom   46 type  2   force =    -0.00025369    0.02118940   -0.00514443
     atom   47 type  2   force =    -0.00012741    0.02411520   -0.00932155
     atom   48 type  1   force =    -0.06983003   -0.00165125   -0.02994620
     atom   49 type  1   force =    -0.00478408   -0.02899647    0.00145144
     atom   50 type  1   force =    -0.00966576   -0.02489060    0.00501342
     atom   51 type  2   force =     0.00011576   -0.00178609    0.06382080
     atom   52 type  2   force =     0.00047636    0.03632550    0.00329491
     atom   53 type  2   force =    -0.00014899    0.03615022    0.00386044
     atom   54 type  3   force =     0.00001469    0.00150483   -0.00673828
     atom   55 type  4   force =    -0.00000198    0.00282217    0.00027290
     atom   56 type  4   force =     0.00000624   -0.00585595    0.00130664
     atom   57 type  3   force =    -0.00002751   -0.00115709    0.00021042

     Total force =     0.453347     Total SCF correction =     0.000497
  @ DRIVER MODE: Message from server: STATUS
  @ DRIVER MODE: Message from server: GETFORCE
  @ DRIVER MODE: Returning v,forces,stress,ensemble

     Writing output data file ./calc.save/
  @ DRIVER MODE: Message from server: EXIT
  @ DRIVE MODE: Exiting

     General routines

     Parallel routines

   This run was terminated on:  13:36: 7  18Oct2021

   JOB DONE.