     Program PWSCF v.6.7GPU starts on 16Sep2021 at  2: 6:24

     R & G space division:  proc/nbgrp/npool/nimage =      10
     Reading input from /storage/home/hcoda1/3/ntian30/research/carbon/CxH_vib/H2O_calc/ads_slab/CH3NH2NHH2O_c/out_0029/pw.inp
Warning: card &CELL ignored
Warning: card   CELL_DYNAMICS='IPI', ignored
Warning: card / ignored

     Current dimensions of program PWSCF are:
     Max number of different atomic species (ntypx) = 10
     Max number of k-points (npk) =  40000
     Max angular momentum in pseudopotentials (lmaxx) =  3
     Presently no symmetry can be used with electric field

     Message from routine cell_base_init:
     DEPRECATED: use true lattice parameter, not A to a.u. conversion factor

     IMPORTANT: XC functional enforced from input :
     Exchange-correlation= BEEF-VDW
                           (   1   4  43  14   2   0   0)
     Any further DFT definition will be discarded
     Please, verify this is what you really want

  @ DRIVER MODE: Connecting to
 qe_1139763_2852614.sched-torque.pace.gatech.edulvw2go9u_scratch
  using UNIX socket
  @ DRIVER MODE: Message from server: STATUS
  @ DRIVER MODE: Message from server: INIT
  @ DRIVER MODE: Receiving replica           0          -1
  @ DRIVER MODE: Receiving encoded integer          25
  @ DRIVER MODE:  SCF:  T  FORCE:  T  STRESS:  F  VC:  F  ENSEMBLE:  F
  @ DRIVER MODE:  SCF:  T  FORCE:  T  STRESS:  F  VC:  F  ENSEMBLE:  F

     Using Slab Decomposition

     bravais-lattice index     =            0
     lattice parameter (alat)  =       1.8897  a.u.
     unit-cell volume          =    6658.9804 (a.u.)^3
     number of atoms/cell      =           59
     number of atomic types    =            5
     number of electrons       =       406.00
     number of Kohn-Sham states=          213
     kinetic-energy cutoff     =      29.3995  Ry
     charge density cutoff     =     293.9946  Ry
     scf convergence threshold =      7.3E-08
     mixing beta               =       0.0500
     number of iterations used =            8  plain     mixing
     Exchange-correlation= BEEF-VDW
                           (   1   4  43  14   2   0   0)

     celldm(1)=   1.889726  celldm(2)=   0.000000  celldm(3)=   0.000000
     celldm(4)=   0.000000  celldm(5)=   0.000000  celldm(6)=   0.000000

     crystal axes: (cart. coord. in units of alat)
               a(1) = (   6.579727   0.000000   0.000000 )
               a(2) = (  -0.000775   5.961596   0.000000 )
               a(3) = (   0.000000   0.000000  25.155947 )

     reciprocal axes: (cart. coord. in units 2 pi/alat)
               b(1) = (  0.151982  0.000020  0.000000 )
               b(2) = (  0.000000  0.167740  0.000000 )
               b(3) = (  0.000000  0.000000  0.039752 )

     PseudoPot. # 1 for Ti read from file:
     /storage/coda1/p-amedford6/0/shared/rich_project_chbe-medford/medford-share/data/pseudos_module/espresso/nninc/pbe/van/Ti.UPF
     MD5 check sum: 8e4df49b7f0d34bbd5052bf3f5ea0213
     Pseudo is Ultrasoft, Zval = 12.0
     Generated by new atomic code, or converted to UPF format
     Using radial grid of  851 points,  6 beta functions with:
                l(1) =   0
                l(2) =   0
                l(3) =   1
                l(4) =   1
                l(5) =   2
                l(6) =   2
     Q(r) pseudized with  8 coefficients,  rinner =    1.000   1.000   1.000
                                                       1.000   1.000

     PseudoPot. # 2 for O  read from file:
     /storage/coda1/p-amedford6/0/shared/rich_project_chbe-medford/medford-share/data/pseudos_module/espresso/nninc/pbe/van/O.UPF
     MD5 check sum: 78c19812648e8988a0fe644b0f25305e
     Pseudo is Ultrasoft, Zval =  6.0
     Generated by new atomic code, or converted to UPF format
     Using radial grid of  737 points,  4 beta functions with:
                l(1) =   0
                l(2) =   0
                l(3) =   1
                l(4) =   1
     Q(r) pseudized with  8 coefficients,  rinner =    0.800   0.800   0.800

     PseudoPot. # 3 for N  read from file:
     /storage/coda1/p-amedford6/0/shared/rich_project_chbe-medford/medford-share/data/pseudos_module/espresso/nninc/pbe/van/N.UPF
     MD5 check sum: 90d10febe142ad51ac9d5be1deb811c4
     Pseudo is Ultrasoft, Zval =  5.0
     Generated by new atomic code, or converted to UPF format
     Using radial grid of  729 points,  4 beta functions with:
                l(1) =   0
                l(2) =   0
                l(3) =   1
                l(4) =   1
     Q(r) pseudized with  8 coefficients,  rinner =    0.800   0.800   0.800

     PseudoPot. # 4 for C  read from file:
     /storage/coda1/p-amedford6/0/shared/rich_project_chbe-medford/medford-share/data/pseudos_module/espresso/nninc/pbe/van/C.UPF
     MD5 check sum: 1a69bf6b8db32088f5b2163dbdb77a27
     Pseudo is Ultrasoft, Zval =  4.0
     Generated by new atomic code, or converted to UPF format
     Using radial grid of  721 points,  4 beta functions with:
                l(1) =   0
                l(2) =   0
                l(3) =   1
                l(4) =   1
     Q(r) pseudized with  8 coefficients,  rinner =    0.800   0.800   0.800

     PseudoPot. # 5 for H  read from file:
     /storage/coda1/p-amedford6/0/shared/rich_project_chbe-medford/medford-share/data/pseudos_module/espresso/nninc/pbe/van/H.UPF
     MD5 check sum: b5ee9d7bfd3a09ee7748110bda690ff7
     Pseudo is Ultrasoft, Zval =  1.0
     Generated by new atomic code, or converted to UPF format
     Using radial grid of  615 points,  1 beta functions with:
                l(1) =   0
     Q(r) pseudized with  8 coefficients,  rinner =    0.800

     atomic species   valence    mass     pseudopotential
        Ti1           12.00    47.86700     Ti( 1.00)
        O1             6.00    15.99900     O ( 1.00)
        N1             5.00    14.00700     N ( 1.00)
        C1             4.00    12.01100     C ( 1.00)
        H1             1.00     1.00800     H ( 1.00)

     No symmetry found

   Cartesian axes

     site n.     atom                  positions (alat units)
         1           Ti1 tau(   1) = (   0.0004258   2.9801865   6.0000000  )
         2           Ti1 tau(   2) = (   3.2906075   1.4906267   6.0002472  )
         3           O1  tau(   3) = (   0.0006271   0.0005054   7.9858123  )
         4           O1  tau(   4) = (   3.2906025   0.0005020   7.3038282  )
         5           O1  tau(   5) = (   4.5942328   1.4918067   9.2879030  )
         6           O1  tau(   6) = (   1.9868534   1.4903216   9.2879459  )
         7           Ti1 tau(   7) = (   3.2907910   2.8959150   9.1758416  )
         8           Ti1 tau(   8) = (   0.0015273   1.4827037   9.2680791  )
         9           O1  tau(   9) = (   3.2795193   0.0050042  11.3600746  )
        10           O1  tau(  10) = (   0.0116148   5.9584955  10.6183126  )
        11           O1  tau(  11) = (   1.2764768   1.4833402  12.6625751  )
        12           O1  tau(  12) = (   5.2691860   1.4824858  12.6730715  )
        13           Ti1 tau(  13) = (   6.5785005   2.9712200  12.5432933  )
        14           Ti1 tau(  14) = (   3.2815129   1.4861921  12.5133659  )
        15           O1  tau(  15) = (   0.0084525   5.9333602  14.7514412  )
        16           O1  tau(  16) = (   3.2474592   5.9449689  14.0025778  )
        17           O1  tau(  17) = (   4.5272503   1.5270814  16.0535473  )
        18           O1  tau(  18) = (   2.0088677   1.5398698  16.1918835  )
        19           Ti1 tau(  19) = (   3.2695027   3.0127370  15.7044713  )
        20           Ti1 tau(  20) = (   6.4897317   1.5391078  15.7731133  )
        21           O1  tau(  21) = (   3.2904802   0.0005063   4.7018136  )
        22           O1  tau(  22) = (   6.4943121   0.0104379  17.3746616  )
        23           O1  tau(  23) = (   1.3043587   1.4918075   6.0039043  )
        24           O1  tau(  24) = (   5.2767064   1.4903225   6.0039473  )
        25           Ti1 tau(  25) = (   0.0000382   5.9609847   6.0000000  )
        26           Ti1 tau(  26) = (   3.2902200   4.4714249   6.0002472  )
        27           O1  tau(  27) = (   0.0002396   2.9813036   7.9858123  )
        28           O1  tau(  28) = (   3.2902150   2.9813002   7.3038282  )
        29           O1  tau(  29) = (   4.5938453   4.4726049   9.2879030  )
        30           O1  tau(  30) = (   1.9864658   4.4711199   9.2879459  )
        31           Ti1 tau(  31) = (   3.2891106   5.8743827   9.1763621  )
        32           Ti1 tau(  32) = (   0.0006254   4.4649316   9.2693709  )
        33           O1  tau(  33) = (   3.2806081   2.9711243  11.3509633  )
        34           O1  tau(  34) = (   0.0092240   2.9805883  10.6323155  )
        35           O1  tau(  35) = (   1.2760424   4.4718827  12.6381679  )
        36           O1  tau(  36) = (   5.2690016   4.4731519  12.6446470  )
        37           Ti1 tau(  37) = (   6.5708669   5.9382087  12.5160675  )
        38           Ti1 tau(  38) = (   3.2845625   4.4656782  12.4980923  )
        39           O1  tau(  39) = (   6.5779858   3.0049062  14.7590937  )
        40           O1  tau(  40) = (   3.2501146   3.0001303  13.9242794  )
        41           O1  tau(  41) = (   4.5300198   4.4412671  16.1793791  )
        42           O1  tau(  42) = (   2.0030354   4.4482434  16.2507355  )
        43           Ti1 tau(  43) = (   3.2558399   0.0045369  15.7947069  )
        44           Ti1 tau(  44) = (   0.0024851   4.6597080  16.1671864  )
        45           O1  tau(  45) = (   3.2900926   2.9813045   4.7018136  )
        46           O1  tau(  46) = (   1.3039711   4.4726057   6.0039043  )
        47           O1  tau(  47) = (   5.2763189   4.4711207   6.0039473  )
        48           N1  tau(  48) = (   0.8610865   2.3037131  18.4629187  )
        49           N1  tau(  49) = (   6.4642385   2.8627238  17.5618644  )
        50           C1  tau(  50) = (   1.1134797   3.0572184  19.7121060  )
        51           H1  tau(  51) = (   0.2160447   3.0254214  20.3281890  )
        52           H1  tau(  52) = (   1.9467850   2.5864873  20.2253232  )
        53           H1  tau(  53) = (   1.3463996   4.0866186  19.4485780  )
        54           H1  tau(  54) = (   0.5832711   1.3114681  18.6183785  )
        55           H1  tau(  55) = (   5.5643591   2.7461405  18.0238738  )
        56           H1  tau(  56) = (   1.7079168   2.1891883  17.8702682  )
        57           O1  tau(  57) = (   4.0734316   0.3075885  18.7765601  )
        58           H1  tau(  58) = (   4.9241673   0.1787741  18.2816895  )
        59           H1  tau(  59) = (   3.8734322   5.3936830  19.1372508  )

     number of k points=    10  Fermi-Dirac smearing, width (Ry)=  0.0073
                       cart. coord. in units 2pi/alat
        k(    1) = (   0.0000000   0.0000000   0.0000000), wk =   0.1250000
        k(    2) = (   0.0000000   0.0419351   0.0000000), wk =   0.2500000
        k(    3) = (   0.0000000  -0.0838702   0.0000000), wk =   0.1250000
        k(    4) = (   0.0379955   0.0000049   0.0000000), wk =   0.2500000
        k(    5) = (   0.0379955   0.0419400   0.0000000), wk =   0.2500000
        k(    6) = (   0.0379955  -0.0838652   0.0000000), wk =   0.2500000
        k(    7) = (   0.0379955  -0.0419301   0.0000000), wk =   0.2500000
        k(    8) = (  -0.0759910  -0.0000099   0.0000000), wk =   0.1250000
        k(    9) = (  -0.0759910   0.0419252   0.0000000), wk =   0.2500000
        k(   10) = (  -0.0759910  -0.0838800   0.0000000), wk =   0.1250000

     Initial potential from superposition of free atoms

     starting charge  389.99912, renormalised to  406.00000

     negative rho (up, down):  1.393E-02 0.000E+00

     %%%%%%%%%%%%%%%%%%%%%%%%%%%%%%%%%%%%%%%%%%%%%%%%%%%%%%%%%%%%%%%%%%%%%%%%
     %                                                                      %
     % You are using vdW-DF, which was implemented by the Thonhauser group. %
     % Please cite the following two papers that made this development      %
     % possible and the two reviews that describe the various versions:     %
     %                                                                      %
     %   T. Thonhauser et al., PRL 115, 136402 (2015).                      %
     %   T. Thonhauser et al., PRB 76, 125112 (2007).                       %
     %   K. Berland et al., Rep. Prog. Phys. 78, 066501 (2015).             %
     %   D.C. Langreth et al., J. Phys.: Condens. Matter 21, 084203 (2009). %
     %                                                                      %
     %                                                                      %
     % If you are calculating the stress with vdW-DF, please also cite:     %
     %                                                                      %
     %   R. Sabatini et al., J. Phys.: Condens. Matter 24, 424209 (2012).   %
     %                                                                      %
     %%%%%%%%%%%%%%%%%%%%%%%%%%%%%%%%%%%%%%%%%%%%%%%%%%%%%%%%%%%%%%%%%%%%%%%%

     Adding external electric field

     Computed dipole along edir(3) :
        Dipole              -15.6801 Ry au,        -39.8548 Debye
        Dipole field         -0.0296 Ry au,

        Potential amp.        2.7430 Ry
        Total length         46.3494 bohr

     Starting wfcs are  308 atomic wfcs
  @ DRIVER MODE: Message from server: STATUS
  @ DRIVER MODE: Message from server: POSDATA
  @ DRIVER MODE: Reading and sharing cell
  @ DRIVER MODE: Reading and sharing positions
  @ DRIVER MODE: Received positions

     Self-consistent Calculation

     iteration #  1     ecut=    29.40 Ry     beta= 0.05
     Davidson diagonalization with overlap
     c_bands:  2 eigenvalues not converged
     c_bands:  5 eigenvalues not converged
     c_bands:  2 eigenvalues not converged
     c_bands:  4 eigenvalues not converged
     c_bands:  4 eigenvalues not converged
     c_bands:  5 eigenvalues not converged
     c_bands:  5 eigenvalues not converged
     c_bands:  1 eigenvalues not converged
     ethr =  1.00E-05,  avg # of iterations = 22.5

[...]

     total energy              =   -2140.12116589 Ry
     estimated scf accuracy    <    9575.49178093 Ry

     iteration #  2     ecut=    29.40 Ry     beta= 0.05
     Davidson diagonalization with overlap
     ethr =  1.00E-02,  avg # of iterations = 31.7

[...]

     iteration # 92     ecut=    29.40 Ry     beta= 0.05
     Davidson diagonalization with overlap
     ethr =  5.98E-11,  avg # of iterations =  5.0

[...]

     total energy              =   -2977.68490131 Ry
     estimated scf accuracy    <       0.00000009 Ry

     iteration # 93     ecut=    29.40 Ry     beta= 0.05
     Davidson diagonalization with overlap
     c_bands:  2 eigenvalues not converged
     c_bands:  3 eigenvalues not converged
     ethr =  2.32E-11,  avg # of iterations = 14.2

     negative rho (up, down):  1.243E-02 0.000E+00

     Adding external electric field

     Computed dipole along edir(3) :
        Dipole                1.6066 Ry au,          4.0836 Debye
        Dipole field          0.0030 Ry au,

        Potential amp.       -0.2811 Ry
        Total length         46.3494 bohr

     End of self-consistent calculation

          k = 0.0000 0.0000 0.0000 ( 18029 PWs)   bands (ev):

   -54.9540 -54.9174 -54.9147 -54.8833 -54.8437 -54.8337 -54.7936 -54.7618
   -54.7575 -54.7467 -54.7266 -54.7217 -54.7134 -54.6593 -53.9329 -53.8988
   -31.5260 -31.4076 -31.3203 -31.2817 -31.2647 -31.2513 -31.2489 -31.2436
   -31.2093 -31.2073 -31.1628 -31.1624 -31.1569 -31.1268 -31.1081 -31.0882
   -31.0776 -31.0718 -31.0705 -31.0631 -31.0291 -31.0245 -31.0181 -31.0123
   -30.9923 -30.9744 -30.9637 -30.9629 -30.9554 -30.9554 -30.9449 -30.9364
   -30.9202 -30.9199 -30.9111 -30.9095 -30.8841 -30.8774 -30.8755 -30.8747
   -30.8560 -30.8555 -30.3416 -30.2491 -30.2269 -30.1581 -30.0714 -29.9605
   -18.9617 -18.2101 -15.7890 -15.5214 -15.3961 -15.1959 -15.1427 -15.0379
   -14.8780 -14.8172 -14.7523 -14.7274 -14.7218 -14.6947 -14.6221 -14.5666
   -14.5376 -14.4854 -14.4847 -14.4485 -14.4414 -14.4366 -14.3820 -14.3781
   -14.3416 -14.3278 -14.3202 -14.1771 -14.0985 -14.0509 -14.0398 -13.2029
   -12.4355 -12.3183 -10.9872  -7.5863  -6.3997  -5.9746  -5.7614  -4.0125
    -3.8634  -3.1330  -2.9624  -2.9504  -2.8725  -2.8490  -2.6781  -2.6184
    -2.5109  -2.3932  -2.3179  -2.2204  -2.1765  -2.1584  -2.1446  -2.0311
    -1.9455  -1.9082  -1.8688  -1.8303  -1.8133  -1.7679  -1.7467  -1.7367
    -1.7040  -1.6788  -1.5255  -1.4509  -1.4144  -1.3801  -1.3402  -1.2830
    -1.2614  -1.2451  -1.2397  -1.2317  -1.2153  -1.1910  -1.1551  -1.1233
    -1.0552  -0.9714  -0.9618  -0.8503  -0.7663  -0.6341  -0.5806  -0.5226
    -0.4923  -0.4258  -0.3842  -0.3364  -0.3003  -0.2940  -0.2473  -0.1603
    -0.1477  -0.0896  -0.0712   0.0135   0.0594   0.0654   0.0765   0.2530
     0.2633   0.2811   0.3841   0.4649   0.5037   0.5204   0.5779   0.6404
     0.6428   0.6811   0.7031   0.7336   0.8166   0.9201   0.9451   0.9836
     0.9979   1.0234   1.0404   1.0674   1.1066   1.1879   1.1939   1.2712
     1.3641   1.3749   1.6376   1.6696   2.0003   2.0274   2.0896   2.2755
     2.6643   2.7117   4.1481   4.2101   4.2553   4.2809   4.2991   4.3805
     4.4000   4.6160   4.6423   4.6432   4.6525

[...]

          k = 0.0380-0.0419 0.0000 ( 17876 PWs)   bands (ev):

[...]

          k =-0.0760-0.0000 0.0000 ( 17886 PWs)   bands (ev):

[...]

          k =-0.0760-0.0839 0.0000 ( 17948 PWs)   bands (ev):

   -54.9422 -54.9263 -54.9004 -54.9002 -54.8412 -54.8241 -54.8031 -54.7551
   -54.7465 -54.7410 -54.7319 -54.7289 -54.7240 -54.6617 -53.9159 -53.9157
   -31.3347 -31.3234 -31.2574 -31.2228 -31.2226 -31.2163 -31.1928 -31.1927
   -31.1675 -31.1652 -31.1562 -31.1524 -31.1444 -31.0943 -31.0807 -31.0801
   -31.0757 -31.0746 -31.0714 -31.0686 -31.0415 -31.0314 -31.0291 -31.0226
   -31.0217 -31.0198 -31.0197 -31.0186 -30.9977 -30.9801 -30.9740 -30.9673
   -30.9608 -30.9551 -30.9537 -30.9496 -30.9493 -30.9221 -30.9152 -30.9122
   -30.9075 -30.8972 -30.2397 -30.2395 -30.1543 -30.1541 -30.1148 -30.1147
   -18.9568 -18.2107 -15.2797 -15.1529 -15.0540 -14.9983 -14.9516 -14.9360
   -14.9184 -14.8650 -14.8350 -14.7752 -14.7514 -14.7031 -14.6590 -14.6551
   -14.6273 -14.5477 -14.5326 -14.5201 -14.5126 -14.4617 -14.4477 -14.4249
   -14.4023 -14.3982 -14.3798 -14.3072 -14.2977 -14.2935 -14.2545 -13.2122
   -12.4200 -12.4198 -10.9878  -7.5974  -6.3903  -5.9738  -5.7466  -3.9920
    -3.8561  -2.5628  -2.5404  -2.4047  -2.3902  -2.2794  -2.1872  -2.1369
    -2.1312  -1.9923  -1.9595  -1.9436  -1.9283  -1.9158  -1.8672  -1.8439
    -1.8081  -1.7906  -1.7810  -1.7711  -1.7555  -1.7350  -1.6829  -1.6789
    -1.6683  -1.6539  -1.6098  -1.5943  -1.5633  -1.5525  -1.5242  -1.5016
    -1.4348  -1.3401  -1.2926  -1.2495  -1.1949  -1.1423  -1.1363  -1.0576
    -1.0398  -1.0082  -0.9772  -0.9523  -0.8570  -0.7832  -0.6886  -0.6862
    -0.6826  -0.5630  -0.5227  -0.5052  -0.4927  -0.4624  -0.3781  -0.3679
    -0.3084  -0.2340  -0.2074  -0.2026  -0.1768  -0.0579  -0.0318   0.0280
     0.0583   0.0907   0.0929   0.1724   0.1855   0.2447   0.2591   0.2724
     0.3173   0.3350   0.4333   0.5232   0.5587   0.6619   0.7549   0.7841
     0.8792   0.9370   1.0417   1.0620   1.0859   1.1823   1.1907   1.2255
     1.3545   1.3613   1.4773   1.5170   1.5270   1.5296   2.4478   2.4492
     2.5318   2.5318   4.2745   4.3974   4.4129   4.4590   4.5134   4.6548
     4.6783   4.7253   4.7271   4.8015   4.8100

     the Fermi energy is     4.2003 ev

!    total energy              =   -2977.68490541 Ry
     estimated scf accuracy    <       0.00000005 Ry
     smearing contrib. (-TS)   =      -0.03700409 Ry
     internal energy E=F+TS    =   -2977.64790132 Ry

     The total energy is F=E-TS. E is the sum of the following terms:
     one-electron contribution =  -23306.16046027 Ry
     hartree contribution      =   11754.07632138 Ry
     xc contribution           =    -496.61197742 Ry
     ewald contribution        =    9071.04334390 Ry
     electric field correction =       0.00487109 Ry

     convergence has been achieved in  93 iterations

     Forces acting on atoms (cartesian axes, Ry/au):

     atom    1 type  1   force =     0.00009114   -0.00025344    0.09409337
     atom    2 type  1   force =    -0.00008078   -0.00045750   -0.17747061
     atom    3 type  2   force =     0.00006020   -0.00033007   -0.02122936
     atom    4 type  2   force =     0.00003639   -0.00179216    0.05731644
     atom    5 type  2   force =    -0.01079578   -0.00102107    0.00668313
     atom    6 type  2   force =     0.01199352   -0.00033673    0.00503383
     atom    7 type  1   force =    -0.00060390    0.00105220   -0.01458943
     atom    8 type  1   force =     0.00086258    0.00331586    0.00460441
     atom    9 type  2   force =     0.00000664   -0.00005257    0.00013175
     atom   10 type  2   force =    -0.00368432    0.00210843   -0.00165556
     atom   11 type  2   force =    -0.00017005    0.00061908   -0.00010340
     atom   12 type  2   force =     0.00018444    0.00028662   -0.00021974
     atom   13 type  1   force =    -0.00019444   -0.00027614    0.00011386
     atom   14 type  1   force =     0.00024859   -0.00022047   -0.00039085
     atom   15 type  2   force =     0.00020892    0.00033472   -0.00011369
     atom   16 type  2   force =    -0.00012188    0.00024841   -0.00020687
     atom   17 type  2   force =    -0.00009674   -0.00029082    0.00033542
     atom   18 type  2   force =     0.00015928    0.00004320    0.00000803
     atom   19 type  1   force =     0.00001141    0.00021482   -0.00044132
     atom   20 type  1   force =     0.00039978    0.00002034   -0.00002219
     atom   21 type  2   force =     0.00011996   -0.00008039    0.10377638
     atom   22 type  2   force =     0.00055566   -0.00029977   -0.00064560
     atom   23 type  2   force =    -0.07070060   -0.00015460   -0.02713418
     atom   24 type  2   force =     0.07066474    0.00032003   -0.02714025
     atom   25 type  1   force =     0.00011104   -0.00016569    0.09370875
     atom   26 type  1   force =    -0.00006325   -0.00053747   -0.17770060
     atom   27 type  2   force =     0.00006940   -0.00005148   -0.02032649
     atom   28 type  2   force =     0.00006572   -0.00145885    0.05631789
     atom   29 type  2   force =    -0.01130446   -0.00039696    0.00736422
     atom   30 type  2   force =     0.01241750    0.00000057    0.00575325
     atom   31 type  1   force =    -0.00074398    0.00573295   -0.01562239
     atom   32 type  1   force =     0.00082054   -0.00459130    0.00434333
     atom   33 type  2   force =     0.00002261    0.00015268    0.00028307
     atom   34 type  2   force =    -0.00321148   -0.00103106   -0.00520277
     atom   35 type  2   force =    -0.00011014   -0.00039678    0.00007290
     atom   36 type  2   force =     0.00020961   -0.00006831   -0.00010056
     atom   37 type  1   force =    -0.00012840    0.00043082   -0.00011848
     atom   38 type  1   force =     0.00009007    0.00015085   -0.00013910
     atom   39 type  2   force =    -0.00045339   -0.00030520   -0.00018148
     atom   40 type  2   force =     0.00012974   -0.00007831    0.00026437
     atom   41 type  2   force =    -0.00002548    0.00021871   -0.00014967
     atom   42 type  2   force =     0.00044425    0.00008603   -0.00026797
     atom   43 type  1   force =    -0.00015693   -0.00000567   -0.00012656
     atom   44 type  1   force =     0.00034574    0.00034255    0.00030558
     atom   45 type  2   force =     0.00010642   -0.00006274    0.10375701
     atom   46 type  2   force =    -0.07069183   -0.00006822   -0.02711147
     atom   47 type  2   force =     0.07067299    0.00033160   -0.02713526
     atom   48 type  3   force =    -0.00037268   -0.00016138    0.00042442
     atom   49 type  3   force =    -0.00021483   -0.00057426    0.00029467
     atom   50 type  4   force =    -0.00296935    0.00224605   -0.00408953
     atom   51 type  5   force =     0.00113497    0.00048534    0.00011644
     atom   52 type  5   force =     0.00386386   -0.00174553    0.00458577
     atom   53 type  5   force =    -0.00004198   -0.00044276   -0.00059917
     atom   54 type  5   force =     0.00040404   -0.00012959    0.00022427
     atom   55 type  5   force =     0.00034030   -0.00058990   -0.00014951
     atom   56 type  5   force =     0.00020471   -0.00012401    0.00039775
     atom   57 type  2   force =    -0.00086014    0.00080214    0.00149653
     atom   58 type  5   force =     0.00035129   -0.00062473   -0.00106586
     atom   59 type  5   force =     0.00038874   -0.00036811   -0.00035687

     Total force =     0.365934     Total SCF correction =     0.000599
  @ DRIVER MODE: Message from server: STATUS
  @ DRIVER MODE: Message from server: GETFORCE
  @ DRIVER MODE: Returning v,forces,stress,ensemble

     Writing output data file ./calc.save/
  @ DRIVER MODE: Message from server: EXIT
  @ DRIVE MODE: Exiting

     General routines

     Parallel routines

   This run was terminated on:   2:30:50  16Sep2021

   JOB DONE.