     Program PWSCF v.6.7GPU starts on 16Sep2021 at  4:30:14

     R & G space division:  proc/nbgrp/npool/nimage =      10
     Reading input from /storage/home/hcoda1/3/ntian30/research/carbon/CxH_vib/H2O_calc/ads_slab/CH2NHHH2O_a/out_0038/pw.inp
Warning: card &CELL ignored
Warning: card   CELL_DYNAMICS='IPI', ignored
Warning: card / ignored

     Current dimensions of program PWSCF are:
     Max number of different atomic species (ntypx) = 10
     Max number of k-points (npk) =  40000
     Max angular momentum in pseudopotentials (lmaxx) =  3
     Presently no symmetry can be used with electric field

     Message from routine cell_base_init:
     DEPRECATED: use true lattice parameter, not A to a.u. conversion factor

     IMPORTANT: XC functional enforced from input :
     Exchange-correlation= BEEF-VDW
                           (   1   4  43  14   2   0   0)
     Any further DFT definition will be discarded
     Please, verify this is what you really want

  @ DRIVER MODE: Connecting to
 qe_1139763_2852609.sched-torque.pace.gatech.edumwrn_l5u_scratch
  using UNIX socket
  @ DRIVER MODE: Message from server: STATUS
  @ DRIVER MODE: Message from server: INIT
  @ DRIVER MODE: Receiving replica           0          -1
  @ DRIVER MODE: Receiving encoded integer          25
  @ DRIVER MODE:  SCF:  T  FORCE:  T  STRESS:  F  VC:  F  ENSEMBLE:  F
  @ DRIVER MODE:  SCF:  T  FORCE:  T  STRESS:  F  VC:  F  ENSEMBLE:  F

     Using Slab Decomposition

     bravais-lattice index     =            0
     lattice parameter (alat)  =       1.8897  a.u.
     unit-cell volume          =    6658.9804 (a.u.)^3
     number of atoms/cell      =           56
     number of atomic types    =            5
     number of electrons       =       399.00
     number of Kohn-Sham states=          209
     kinetic-energy cutoff     =      29.3995  Ry
     charge density cutoff     =     293.9946  Ry
     scf convergence threshold =      7.3E-08
     mixing beta               =       0.0500
     number of iterations used =            8  plain     mixing
     Exchange-correlation= BEEF-VDW
                           (   1   4  43  14   2   0   0)

     celldm(1)=   1.889726  celldm(2)=   0.000000  celldm(3)=   0.000000
     celldm(4)=   0.000000  celldm(5)=   0.000000  celldm(6)=   0.000000

     crystal axes: (cart. coord. in units of alat)
               a(1) = (   6.579727   0.000000   0.000000 )
               a(2) = (  -0.000775   5.961596   0.000000 )
               a(3) = (   0.000000   0.000000  25.155947 )

     reciprocal axes: (cart. coord. in units 2 pi/alat)
               b(1) = (  0.151982  0.000020  0.000000 )
               b(2) = (  0.000000  0.167740  0.000000 )
               b(3) = (  0.000000  0.000000  0.039752 )

     PseudoPot. # 1 for Ti read from file:
     /storage/coda1/p-amedford6/0/shared/rich_project_chbe-medford/medford-share/data/pseudos_module/espresso/nninc/pbe/van/Ti.UPF
     MD5 check sum: 8e4df49b7f0d34bbd5052bf3f5ea0213
     Pseudo is Ultrasoft, Zval = 12.0
     Generated by new atomic code, or converted to UPF format
     Using radial grid of  851 points,  6 beta functions with:
                l(1) =   0
                l(2) =   0
                l(3) =   1
                l(4) =   1
                l(5) =   2
                l(6) =   2
     Q(r) pseudized with  8 coefficients,  rinner =    1.000   1.000   1.000
                                                       1.000   1.000

     PseudoPot. # 2 for O  read from file:
     /storage/coda1/p-amedford6/0/shared/rich_project_chbe-medford/medford-share/data/pseudos_module/espresso/nninc/pbe/van/O.UPF
     MD5 check sum: 78c19812648e8988a0fe644b0f25305e
     Pseudo is Ultrasoft, Zval =  6.0
     Generated by new atomic code, or converted to UPF format
     Using radial grid of  737 points,  4 beta functions with:
                l(1) =   0
                l(2) =   0
                l(3) =   1
                l(4) =   1
     Q(r) pseudized with  8 coefficients,  rinner =    0.800   0.800   0.800

     PseudoPot. # 3 for N  read from file:
     /storage/coda1/p-amedford6/0/shared/rich_project_chbe-medford/medford-share/data/pseudos_module/espresso/nninc/pbe/van/N.UPF
     MD5 check sum: 90d10febe142ad51ac9d5be1deb811c4
     Pseudo is Ultrasoft, Zval =  5.0
     Generated by new atomic code, or converted to UPF format
     Using radial grid of  729 points,  4 beta functions with:
                l(1) =   0
                l(2) =   0
                l(3) =   1
                l(4) =   1
     Q(r) pseudized with  8 coefficients,  rinner =    0.800   0.800   0.800

     PseudoPot. # 4 for C  read from file:
     /storage/coda1/p-amedford6/0/shared/rich_project_chbe-medford/medford-share/data/pseudos_module/espresso/nninc/pbe/van/C.UPF
     MD5 check sum: 1a69bf6b8db32088f5b2163dbdb77a27
     Pseudo is Ultrasoft, Zval =  4.0
     Generated by new atomic code, or converted to UPF format
     Using radial grid of  721 points,  4 beta functions with:
                l(1) =   0
                l(2) =   0
                l(3) =   1
                l(4) =   1
     Q(r) pseudized with  8 coefficients,  rinner =    0.800   0.800   0.800

     PseudoPot. # 5 for H  read from file:
     /storage/coda1/p-amedford6/0/shared/rich_project_chbe-medford/medford-share/data/pseudos_module/espresso/nninc/pbe/van/H.UPF
     MD5 check sum: b5ee9d7bfd3a09ee7748110bda690ff7
     Pseudo is Ultrasoft, Zval =  1.0
     Generated by new atomic code, or converted to UPF format
     Using radial grid of  615 points,  1 beta functions with:
                l(1) =   0
     Q(r) pseudized with  8 coefficients,  rinner =    0.800

     atomic species   valence    mass     pseudopotential
        Ti1           12.00    47.86700     Ti( 1.00)
        O1             6.00    15.99900     O ( 1.00)
        N1             5.00    14.00700     N ( 1.00)
        C1             4.00    12.01100     C ( 1.00)
        H1             1.00     1.00800     H ( 1.00)

     No symmetry found

   Cartesian axes

     site n.     atom                  positions (alat units)
         1           Ti1 tau(   1) = (   0.0004258   2.9801865   6.0000000  )
         2           Ti1 tau(   2) = (   3.2906075   1.4906267   6.0002472  )
         3           O1  tau(   3) = (   0.0006271   0.0005054   7.9858123  )
         4           O1  tau(   4) = (   3.2906025   0.0005020   7.3038282  )
         5           O1  tau(   5) = (   4.5942328   1.4918067   9.2879030  )
         6           O1  tau(   6) = (   1.9868534   1.4903216   9.2879459  )
         7           Ti1 tau(   7) = (   3.2907910   2.8959150   9.1758416  )
         8           Ti1 tau(   8) = (   0.0015273   1.4827037   9.2680791  )
         9           O1  tau(   9) = (   3.2861202   0.0128588  11.3777969  )
        10           O1  tau(  10) = (   0.0116148   5.9584955  10.6183126  )
        11           O1  tau(  11) = (   1.2831632   1.4993340  12.6921085  )
        12           O1  tau(  12) = (   5.2921761   1.5015178  12.6679780  )
        13           Ti1 tau(  13) = (   0.0111066   2.9912061  12.5123142  )
        14           Ti1 tau(  14) = (   3.3187119   1.4875497  12.5412637  )
        15           O1  tau(  15) = (   6.5416963   5.9006142  14.6662030  )
        16           O1  tau(  16) = (   3.3066524   0.0016155  14.0179881  )
        17           O1  tau(  17) = (   4.5377470   1.5714702  16.1207712  )
        18           O1  tau(  18) = (   1.9925948   1.5577299  16.0387284  )
        19           Ti1 tau(  19) = (   3.2598466   3.0207798  15.7337896  )
        20           Ti1 tau(  20) = (   0.0086319   1.3133152  15.8444473  )
        21           O1  tau(  21) = (   3.2904802   0.0005063   4.7018136  )
        22           O1  tau(  22) = (   6.5660721   0.1678205  17.2271563  )
        23           O1  tau(  23) = (   1.3043587   1.4918075   6.0039043  )
        24           O1  tau(  24) = (   5.2767064   1.4903225   6.0039473  )
        25           Ti1 tau(  25) = (   0.0000382   5.9609847   6.0000000  )
        26           Ti1 tau(  26) = (   3.2902200   4.4714249   6.0002472  )
        27           O1  tau(  27) = (   0.0002396   2.9813036   7.9858123  )
        28           O1  tau(  28) = (   3.2902150   2.9813002   7.3038282  )
        29           O1  tau(  29) = (   4.5938453   4.4726049   9.2879030  )
        30           O1  tau(  30) = (   1.9864658   4.4711199   9.2879459  )
        31           Ti1 tau(  31) = (   3.2891106   5.8743827   9.1763621  )
        32           Ti1 tau(  32) = (   0.0006254   4.4649316   9.2693709  )
        33           O1  tau(  33) = (   3.2870289   2.9785969  11.3746142  )
        34           O1  tau(  34) = (   0.0092240   2.9805883  10.6323155  )
        35           O1  tau(  35) = (   1.2865429   4.4729593  12.6568099  )
        36           O1  tau(  36) = (   5.2907978   4.4713399  12.6331247  )
        37           Ti1 tau(  37) = (   0.0245089   0.0029545  12.5000319  )
        38           Ti1 tau(  38) = (   3.3192338   4.4773935  12.5310228  )
        39           O1  tau(  39) = (   6.5398775   3.0461246  14.9162120  )
        40           O1  tau(  40) = (   3.2968145   3.0151409  13.9465962  )
        41           O1  tau(  41) = (   4.5189833   4.4812017  16.2068643  )
        42           O1  tau(  42) = (   1.9905864   4.4756957  16.1679402  )
        43           Ti1 tau(  43) = (   3.3140030   0.0507474  15.8534526  )
        44           Ti1 tau(  44) = (   0.0184218   4.5194176  15.9927436  )
        45           O1  tau(  45) = (   3.2900926   2.9813045   4.7018136  )
        46           O1  tau(  46) = (   1.3039711   4.4726057   6.0039043  )
        47           O1  tau(  47) = (   5.2763189   4.4711207   6.0039473  )
        48           N1  tau(  48) = (   6.2908993   3.4294391  18.1752670  )
        49           C1  tau(  49) = (   0.7550536   3.1452864  19.0745941  )
        50           H1  tau(  50) = (   1.1396299   3.9643166  19.6610198  )
        51           H1  tau(  51) = (   1.3301158   2.2513941  18.9084762  )
        52           H1  tau(  52) = (   5.7550451   4.2450011  18.4501662  )
        53           H1  tau(  53) = (   5.6463078   2.6497838  18.0429669  )
        54           O1  tau(  54) = (   3.1280431   0.1968263  18.2683150  )
        55           H1  tau(  55) = (   3.8687171   5.7182160  18.6922429  )
        56           H1  tau(  56) = (   2.3371514   5.6040609  18.4451484  )

     number of k points=    10  Fermi-Dirac smearing, width (Ry)=  0.0073
                       cart. coord. in units 2pi/alat
        k(    1) = (   0.0000000   0.0000000   0.0000000), wk =   0.1250000
        k(    2) = (   0.0000000   0.0419351   0.0000000), wk =   0.2500000
        k(    3) = (   0.0000000  -0.0838702   0.0000000), wk =   0.1250000
        k(    4) = (   0.0379955   0.0000049   0.0000000), wk =   0.2500000
        k(    5) = (   0.0379955   0.0419400   0.0000000), wk =   0.2500000
        k(    6) = (   0.0379955  -0.0838652   0.0000000), wk =   0.2500000
        k(    7) = (   0.0379955  -0.0419301   0.0000000), wk =   0.2500000
        k(    8) = (  -0.0759910  -0.0000099   0.0000000), wk =   0.1250000
        k(    9) = (  -0.0759910   0.0419252   0.0000000), wk =   0.2500000
        k(   10) = (  -0.0759910  -0.0838800   0.0000000), wk =   0.1250000

     Initial potential from superposition of free atoms

     starting charge  382.99914, renormalised to  399.00000

     negative rho (up, down):  1.613E-02 0.000E+00

     %%%%%%%%%%%%%%%%%%%%%%%%%%%%%%%%%%%%%%%%%%%%%%%%%%%%%%%%%%%%%%%%%%%%%%%%
     %                                                                      %
     % You are using vdW-DF, which was implemented by the Thonhauser group. %
     % Please cite the following two papers that made this development      %
     % possible and the two reviews that describe the various versions:     %
     %                                                                      %
     %   T. Thonhauser et al., PRL 115, 136402 (2015).                      %
     %   T. Thonhauser et al., PRB 76, 125112 (2007).                       %
     %   K. Berland et al., Rep. Prog. Phys. 78, 066501 (2015).             %
     %   D.C. Langreth et al., J. Phys.: Condens. Matter 21, 084203 (2009). %
     %                                                                      %
     %                                                                      %
     % If you are calculating the stress with vdW-DF, please also cite:     %
     %                                                                      %
     %   R. Sabatini et al., J. Phys.: Condens. Matter 24, 424209 (2012).   %
     %                                                                      %
     %%%%%%%%%%%%%%%%%%%%%%%%%%%%%%%%%%%%%%%%%%%%%%%%%%%%%%%%%%%%%%%%%%%%%%%%

     Adding external electric field

     Computed dipole along edir(3) :
        Dipole              -11.3169 Ry au,        -28.7647 Debye
        Dipole field         -0.0214 Ry au,

        Potential amp.        1.9797 Ry
        Total length         46.3494 bohr

     Starting wfcs are  302 atomic wfcs
  @ DRIVER MODE: Message from server: STATUS
  @ DRIVER MODE: Message from server: POSDATA
  @ DRIVER MODE: Reading and sharing cell
  @ DRIVER MODE: Reading and sharing positions
  @ DRIVER MODE: Received positions

     Self-consistent Calculation

     iteration #  1     ecut=    29.40 Ry     beta= 0.05
     Davidson diagonalization with overlap
     c_bands:  3 eigenvalues not converged
     c_bands:  3 eigenvalues not converged
     c_bands:  1 eigenvalues not converged
     c_bands:  4 eigenvalues not converged
     c_bands:  1 eigenvalues not converged
     c_bands:  1 eigenvalues not converged
     c_bands:  1 eigenvalues not converged
     c_bands:  2 eigenvalues not converged
     c_bands:  3 eigenvalues not converged
     ethr =  1.00E-05,  avg # of iterations = 24.0

[...]

     total energy              =   -2437.56522811 Ry
     estimated scf accuracy    <    5825.82906207 Ry

     iteration #  2     ecut=    29.40 Ry     beta= 0.05
     Davidson diagonalization with overlap
     ethr =  1.00E-02,  avg # of iterations = 27.7

[...]

     iteration # 97     ecut=    29.40 Ry     beta= 0.05
     Davidson diagonalization with overlap
     c_bands:  1 eigenvalues not converged
     ethr =  1.23E-10,  avg # of iterations = 12.5

[...]

     total energy              =   -2955.08662349 Ry
     estimated scf accuracy    <       0.00000013 Ry

     iteration #102     ecut=    29.40 Ry     beta= 0.05
     Davidson diagonalization with overlap
     ethr =  3.35E-11,  avg # of iterations =  1.5

     negative rho (up, down):  1.530E-02 0.000E+00

     Adding external electric field

     Computed dipole along edir(3) :
        Dipole                0.9569 Ry au,          2.4322 Debye
        Dipole field          0.0018 Ry au,

        Potential amp.       -0.1674 Ry
        Total length         46.3494 bohr

     End of self-consistent calculation

          k = 0.0000 0.0000 0.0000 ( 18029 PWs)   bands (ev):

   -55.5435 -55.5102 -55.5070 -55.4893 -55.4761 -55.4275 -55.3912 -55.3717
   -55.3548 -55.3420 -55.3368 -55.3085 -55.2967 -55.1143 -54.5358 -54.5017
   -32.0995 -32.0023 -31.9158 -31.9007 -31.8757 -31.8605 -31.8468 -31.8418
   -31.7992 -31.7638 -31.7582 -31.7550 -31.7450 -31.7207 -31.7153 -31.6945
   -31.6850 -31.6823 -31.6708 -31.6624 -31.6412 -31.6237 -31.6065 -31.6005
   -31.5713 -31.5673 -31.5627 -31.5601 -31.5578 -31.5452 -31.5360 -31.5292
   -31.5250 -31.5198 -31.5092 -31.4969 -31.4854 -31.4701 -31.4681 -31.4530
   -31.3397 -31.2953 -30.9450 -30.8511 -30.8290 -30.7615 -30.6747 -30.5638
   -19.2377 -16.4003 -16.3101 -16.0878 -15.9229 -15.8437 -15.7470 -15.6064
   -15.5349 -15.4243 -15.3882 -15.2293 -15.2050 -15.1980 -15.1636 -15.1454
   -15.1070 -15.0887 -15.0597 -15.0482 -15.0466 -15.0247 -14.9882 -14.9842
   -14.9419 -14.9288 -14.8693 -14.7736 -14.7055 -14.6415 -14.3289 -13.0384
   -12.9210  -9.2145  -7.0063  -6.5548  -4.6055  -3.7168  -3.5849  -3.5619
    -3.5027  -3.4483  -3.4065  -3.2999  -3.0698  -3.0231  -2.9784  -2.9315
    -2.8114  -2.7403  -2.7360  -2.6566  -2.5812  -2.5391  -2.4848  -2.4757
    -2.3979  -2.3640  -2.3461  -2.3228  -2.2792  -2.2518  -2.2103  -2.1189
    -2.0977  -2.0195  -1.9903  -1.9460  -1.9421  -1.8946  -1.8767  -1.8378
    -1.8369  -1.8266  -1.8060  -1.7687  -1.7261  -1.6698  -1.5796  -1.5514
    -1.3862  -1.2741  -1.2095  -1.1825  -1.1301  -1.0985  -1.0329  -0.9847
    -0.9706  -0.9344  -0.8675  -0.7651  -0.6988  -0.6858  -0.6265  -0.5352
    -0.4772  -0.4386  -0.3570  -0.3314  -0.3127  -0.3073  -0.2433  -0.1756
    -0.1291  -0.0549  -0.0386   0.0168   0.0393   0.0895   0.1204   0.1873
     0.2430   0.2832   0.3348   0.3893   0.3907   0.4058   0.4408   0.4423
     0.5426   0.5545   0.5769   0.6774   0.7766   0.9643   1.0624   1.0976
     1.3950   1.4105   1.4869   1.6713   2.0625   2.1106   3.5173   3.5477
     3.6315   3.6869   3.6958   3.7257   3.7823   4.0356   4.0471   4.0691
     4.0821

[...]

          k = 0.0380-0.0419 0.0000 ( 17876 PWs)   bands (ev):

[...]

          k =-0.0760-0.0000 0.0000 ( 17886 PWs)   bands (ev):

[...]

          k =-0.0760-0.0839 0.0000 ( 17948 PWs)   bands (ev):

   -55.5290 -55.5213 -55.4931 -55.4930 -55.4870 -55.4151 -55.4035 -55.3570
   -55.3568 -55.3510 -55.3256 -55.3252 -55.2949 -55.1161 -54.5189 -54.5185
   -31.9112 -31.8989 -31.8174 -31.8173 -31.8006 -31.7994 -31.7882 -31.7845
   -31.7845 -31.7681 -31.7569 -31.7497 -31.7322 -31.7146 -31.6954 -31.6895
   -31.6863 -31.6842 -31.6797 -31.6730 -31.6703 -31.6605 -31.6327 -31.6317
   -31.6127 -31.6126 -31.6097 -31.6002 -31.5891 -31.5808 -31.5703 -31.5647
   -31.5553 -31.5550 -31.5525 -31.5431 -31.5134 -31.5052 -31.5047 -31.4822
   -31.3789 -31.3427 -30.8419 -30.8415 -30.7577 -30.7573 -30.7182 -30.7179
   -19.2368 -16.3287 -15.8845 -15.7852 -15.6552 -15.5724 -15.5497 -15.4763
   -15.4180 -15.3846 -15.3280 -15.3054 -15.2912 -15.2762 -15.2413 -15.2153
   -15.1952 -15.1524 -15.1351 -15.1170 -15.0856 -15.0603 -15.0494 -15.0442
   -15.0385 -15.0040 -14.9996 -14.9141 -14.9050 -14.9015 -14.5708 -13.0226
   -13.0224  -9.2136  -7.0384  -6.4944  -4.5883  -3.5492  -3.0944  -3.0487
    -2.9944  -2.8544  -2.7950  -2.7291  -2.6933  -2.6505  -2.6001  -2.5665
    -2.5485  -2.4971  -2.4896  -2.4244  -2.4090  -2.3938  -2.3752  -2.3717
    -2.3633  -2.3261  -2.2915  -2.2774  -2.2701  -2.2613  -2.2474  -2.2006
    -2.1853  -2.1539  -2.1443  -2.1109  -2.0813  -2.0512  -1.9381  -1.9063
    -1.8816  -1.8178  -1.7533  -1.7475  -1.6662  -1.6444  -1.5881  -1.5843
    -1.5638  -1.5260  -1.3985  -1.2926  -1.2813  -1.2305  -1.1970  -1.1737
    -1.1110  -1.0601  -1.0055  -1.0032  -0.9113  -0.8651  -0.8392  -0.7373
    -0.7071  -0.6989  -0.5824  -0.5571  -0.5186  -0.5077  -0.5015  -0.4423
    -0.4347  -0.4099  -0.3281  -0.3094  -0.2824  -0.2708  -0.2083  -0.0477
    -0.0169   0.0272   0.1550   0.1944   0.3582   0.3890   0.4208   0.5270
     0.5719   0.6197   0.6240   0.7468   0.7567   0.8439   0.8556   0.8733
     0.9091   0.9208   1.8438   1.8451   1.9306   1.9307   3.5332   3.7770
     3.8423   3.8496   3.8868   4.0230   4.0668   4.1255   4.1289   4.1387
     4.1570

     the Fermi energy is     3.6039 ev

!    total energy              =   -2955.08662527 Ry
     estimated scf accuracy    <       0.00000007 Ry
     smearing contrib. (-TS)   =      -0.04070782 Ry
     internal energy E=F+TS    =   -2955.04591745 Ry

     The total energy is F=E-TS. E is the sum of the following terms:
     one-electron contribution =  -23873.28104351 Ry
     hartree contribution      =   12028.80945892 Ry
     xc contribution           =    -489.73287744 Ry
     ewald contribution        =    9379.15681658 Ry
     electric field correction =       0.00172800 Ry

     convergence has been achieved in 102 iterations

     Forces acting on atoms (cartesian axes, Ry/au):

     atom    1 type  1   force =    -0.00000599   -0.00025627    0.09336645
     atom    2 type  1   force =    -0.00015917   -0.00040095   -0.17808295
     atom    3 type  2   force =     0.00001194   -0.00034815   -0.02033535
     atom    4 type  2   force =    -0.00003669   -0.00190701    0.05856692
     atom    5 type  2   force =    -0.01018771   -0.00084915    0.00745225
     atom    6 type  2   force =     0.01152742   -0.00017573    0.00625312
     atom    7 type  1   force =    -0.00076106    0.00201910   -0.01054729
     atom    8 type  1   force =     0.00031582    0.00073312   -0.00332641
     atom    9 type  2   force =     0.00024315    0.00042940    0.00014235
     atom   10 type  2   force =    -0.00108485    0.00267524   -0.00406776
     atom   11 type  2   force =    -0.00026725    0.00005263    0.00001908
     atom   12 type  2   force =    -0.00004772   -0.00002725    0.00011630
     atom   13 type  1   force =     0.00074947    0.00071490    0.00039895
     atom   14 type  1   force =    -0.00092723   -0.00012578   -0.00008405
     atom   15 type  2   force =    -0.00012328   -0.00027191    0.00057290
     atom   16 type  2   force =     0.00031862    0.00055701   -0.00000828
     atom   17 type  2   force =     0.00019427   -0.00015066    0.00005546
     atom   18 type  2   force =     0.00066621    0.00007565    0.00027029
     atom   19 type  1   force =    -0.00062211   -0.00061525    0.00012079
     atom   20 type  1   force =     0.00008893   -0.00053281   -0.00038168
     atom   21 type  2   force =     0.00002400   -0.00011648    0.10390766
     atom   22 type  2   force =     0.00011526   -0.00132843    0.00056932
     atom   23 type  2   force =    -0.07054183   -0.00021715   -0.02693882
     atom   24 type  2   force =     0.07036015    0.00022183   -0.02698239
     atom   25 type  1   force =     0.00003221   -0.00021648    0.09298387
     atom   26 type  1   force =    -0.00023735   -0.00043979   -0.17804463
     atom   27 type  2   force =     0.00006913   -0.00024679   -0.01931060
     atom   28 type  2   force =     0.00002330   -0.00162177    0.05766411
     atom   29 type  2   force =    -0.01077248   -0.00046401    0.00807937
     atom   30 type  2   force =     0.01198985   -0.00007425    0.00683982
     atom   31 type  1   force =    -0.00063583    0.00608561   -0.01377876
     atom   32 type  1   force =     0.00027981   -0.00084898   -0.00338278
     atom   33 type  2   force =     0.00014069    0.00006412    0.00000481
     atom   34 type  2   force =    -0.00051013   -0.00107345   -0.00267353
     atom   35 type  2   force =    -0.00040629    0.00006212    0.00004201
     atom   36 type  2   force =     0.00004322    0.00001544    0.00025938
     atom   37 type  1   force =     0.00083035   -0.00081973    0.00024443
     atom   38 type  1   force =    -0.00088823    0.00034284   -0.00053308
     atom   39 type  2   force =    -0.00019640   -0.00013825   -0.00014794
     atom   40 type  2   force =     0.00031929    0.00014048    0.00040868
     atom   41 type  2   force =     0.00007997   -0.00041010   -0.00023349
     atom   42 type  2   force =     0.00056280   -0.00000431   -0.00032768
     atom   43 type  1   force =    -0.00070334    0.00001922    0.00050310
     atom   44 type  1   force =     0.00114845   -0.00048639   -0.00029051
     atom   45 type  2   force =     0.00000798   -0.00012000    0.10390616
     atom   46 type  2   force =    -0.07053381   -0.00016686   -0.02691792
     atom   47 type  2   force =     0.07035927    0.00027222   -0.02698717
     atom   48 type  3   force =     0.00065730   -0.00024498    0.00023967
     atom   49 type  4   force =     0.00082673    0.00143390    0.00001854
     atom   50 type  5   force =    -0.00050416   -0.00093369   -0.00057887
     atom   51 type  5   force =     0.00020989    0.00007278    0.00027538
     atom   52 type  5   force =     0.00027651   -0.00020105   -0.00028227
     atom   53 type  5   force =    -0.00040004   -0.00022781    0.00068449
     atom   54 type  2   force =    -0.02479647   -0.00097595   -0.00393542
     atom   55 type  5   force =     0.01168516   -0.00742900    0.00668189
     atom   56 type  5   force =     0.01119228    0.00847900   -0.00246788

     Total force =     0.367250     Total SCF correction =     0.000620
  @ DRIVER MODE: Message from server: STATUS
  @ DRIVER MODE: Message from server: GETFORCE
  @ DRIVER MODE: Returning v,forces,stress,ensemble

     Writing output data file ./calc.save/
  @ DRIVER MODE: Message from server: EXIT
  @ DRIVE MODE: Exiting

     General routines

     Parallel routines

   This run was terminated on:   4:55: 6  16Sep2021

   JOB DONE.