     Program PWSCF v.6.7GPU starts on 22Sep2021 at 18:28:54

     R & G space division:  proc/nbgrp/npool/nimage =      10
     Reading input from /storage/home/hcoda1/3/ntian30/research/carbon/CxH_vib/H2O_calc/ads_slab/CH3NNH3HO_a/out_0006/pw.inp
Warning: card &CELL ignored
Warning: card   CELL_DYNAMICS='IPI', ignored
Warning: card / ignored

     Current dimensions of program PWSCF are:
     Max number of different atomic species (ntypx) = 10
     Max number of k-points (npk) =  40000
     Max angular momentum in pseudopotentials (lmaxx) =  3
     Presently no symmetry can be used with electric field

     Message from routine cell_base_init:
     DEPRECATED: use true lattice parameter, not A to a.u. conversion factor

     IMPORTANT: XC functional enforced from input :
     Exchange-correlation= BEEF-VDW
                           (   1   4  43  14   2   0   0)
     Any further DFT definition will be discarded
     Please, verify this is what you really want

  @ DRIVER MODE: Connecting to
 qe_1139763_2937318.sched-torque.pace.gatech.edu_bbw9_5__scratch
  using UNIX socket
  @ DRIVER MODE: Message from server: STATUS
  @ DRIVER MODE: Message from server: INIT
  @ DRIVER MODE: Receiving replica           0          -1
  @ DRIVER MODE: Receiving encoded integer          25
  @ DRIVER MODE:  SCF:  T  FORCE:  T  STRESS:  F  VC:  F  ENSEMBLE:  F
  @ DRIVER MODE:  SCF:  T  FORCE:  T  STRESS:  F  VC:  F  ENSEMBLE:  F

     Using Slab Decomposition

     bravais-lattice index     =            0
     lattice parameter (alat)  =       1.8897  a.u.
     unit-cell volume          =    6658.9804 (a.u.)^3
     number of atoms/cell      =           58
     number of atomic types    =            5
     number of electrons       =       405.00
     number of Kohn-Sham states=          212
     kinetic-energy cutoff     =      29.3995  Ry
     charge density cutoff     =     293.9946  Ry
     scf convergence threshold =      7.3E-08
     mixing beta               =       0.0500
     number of iterations used =            8  plain     mixing
     Exchange-correlation= BEEF-VDW
                           (   1   4  43  14   2   0   0)

     celldm(1)=   1.889726  celldm(2)=   0.000000  celldm(3)=   0.000000
     celldm(4)=   0.000000  celldm(5)=   0.000000  celldm(6)=   0.000000

     crystal axes: (cart. coord. in units of alat)
               a(1) = (   6.579727   0.000000   0.000000 )
               a(2) = (  -0.000775   5.961596   0.000000 )
               a(3) = (   0.000000   0.000000  25.155947 )

     reciprocal axes: (cart. coord. in units 2 pi/alat)
               b(1) = (  0.151982  0.000020  0.000000 )
               b(2) = (  0.000000  0.167740  0.000000 )
               b(3) = (  0.000000  0.000000  0.039752 )

     PseudoPot. # 1 for Ti read from file:
     /storage/coda1/p-amedford6/0/shared/rich_project_chbe-medford/medford-share/data/pseudos_module/espresso/nninc/pbe/van/Ti.UPF
     MD5 check sum: 8e4df49b7f0d34bbd5052bf3f5ea0213
     Pseudo is Ultrasoft, Zval = 12.0
     Generated by new atomic code, or converted to UPF format
     Using radial grid of  851 points,  6 beta functions with:
                l(1) =   0
                l(2) =   0
                l(3) =   1
                l(4) =   1
                l(5) =   2
                l(6) =   2
     Q(r) pseudized with  8 coefficients,  rinner =    1.000   1.000   1.000
                                                       1.000   1.000

     PseudoPot. # 2 for O  read from file:
     /storage/coda1/p-amedford6/0/shared/rich_project_chbe-medford/medford-share/data/pseudos_module/espresso/nninc/pbe/van/O.UPF
     MD5 check sum: 78c19812648e8988a0fe644b0f25305e
     Pseudo is Ultrasoft, Zval =  6.0
     Generated by new atomic code, or converted to UPF format
     Using radial grid of  737 points,  4 beta functions with:
                l(1) =   0
                l(2) =   0
                l(3) =   1
                l(4) =   1
     Q(r) pseudized with  8 coefficients,  rinner =    0.800   0.800   0.800

     PseudoPot. # 3 for N  read from file:
     /storage/coda1/p-amedford6/0/shared/rich_project_chbe-medford/medford-share/data/pseudos_module/espresso/nninc/pbe/van/N.UPF
     MD5 check sum: 90d10febe142ad51ac9d5be1deb811c4
     Pseudo is Ultrasoft, Zval =  5.0
     Generated by new atomic code, or converted to UPF format
     Using radial grid of  729 points,  4 beta functions with:
                l(1) =   0
                l(2) =   0
                l(3) =   1
                l(4) =   1
     Q(r) pseudized with  8 coefficients,  rinner =    0.800   0.800   0.800

     PseudoPot. # 4 for C  read from file:
     /storage/coda1/p-amedford6/0/shared/rich_project_chbe-medford/medford-share/data/pseudos_module/espresso/nninc/pbe/van/C.UPF
     MD5 check sum: 1a69bf6b8db32088f5b2163dbdb77a27
     Pseudo is Ultrasoft, Zval =  4.0
     Generated by new atomic code, or converted to UPF format
     Using radial grid of  721 points,  4 beta functions with:
                l(1) =   0
                l(2) =   0
                l(3) =   1
                l(4) =   1
     Q(r) pseudized with  8 coefficients,  rinner =    0.800   0.800   0.800

     PseudoPot. # 5 for H  read from file:
     /storage/coda1/p-amedford6/0/shared/rich_project_chbe-medford/medford-share/data/pseudos_module/espresso/nninc/pbe/van/H.UPF
     MD5 check sum: b5ee9d7bfd3a09ee7748110bda690ff7
     Pseudo is Ultrasoft, Zval =  1.0
     Generated by new atomic code, or converted to UPF format
     Using radial grid of  615 points,  1 beta functions with:
                l(1) =   0
     Q(r) pseudized with  8 coefficients,  rinner =    0.800

     atomic species   valence    mass     pseudopotential
        Ti1           12.00    47.86700     Ti( 1.00)
        O1             6.00    15.99900     O ( 1.00)
        N1             5.00    14.00700     N ( 1.00)
        C1             4.00    12.01100     C ( 1.00)
        H1             1.00     1.00800     H ( 1.00)

     No symmetry found

   Cartesian axes

     site n.     atom                  positions (alat units)
         1           Ti1 tau(   1) = (   0.0004258   2.9801865   6.0000000  )
         2           Ti1 tau(   2) = (   3.2906075   1.4906267   6.0002472  )
         3           O1  tau(   3) = (   0.0006271   0.0005054   7.9858123  )
         4           O1  tau(   4) = (   3.2906025   0.0005020   7.3038282  )
         5           O1  tau(   5) = (   4.5942328   1.4918067   9.2879030  )
         6           O1  tau(   6) = (   1.9868534   1.4903216   9.2879459  )
         7           Ti1 tau(   7) = (   3.2907910   2.8959150   9.1758416  )
         8           Ti1 tau(   8) = (   0.0015273   1.4827037   9.2680791  )
         9           O1  tau(   9) = (   3.2949357   5.9297256  11.2770696  )
        10           O1  tau(  10) = (   0.0116148   5.9584955  10.6183126  )
        11           O1  tau(  11) = (   1.2901270   1.4659759  12.6218969  )
        12           O1  tau(  12) = (   5.3029181   1.4690452  12.6271982  )
        13           Ti1 tau(  13) = (   6.5637346   3.0486055  12.7052252  )
        14           Ti1 tau(  14) = (   3.3207578   1.2909511  12.6638180  )
        15           O1  tau(  15) = (   0.0081040   5.9567798  14.6379979  )
        16           O1  tau(  16) = (   3.2944190   0.0149942  13.8863584  )
        17           O1  tau(  17) = (   4.5334936   1.5584448  16.0391558  )
        18           O1  tau(  18) = (   2.0244848   1.5379376  16.0854781  )
        19           Ti1 tau(  19) = (   3.2579824   3.0118882  15.6538344  )
        20           Ti1 tau(  20) = (   6.4918182   1.5199401  15.8876453  )
        21           O1  tau(  21) = (   3.2904802   0.0005063   4.7018136  )
        22           O1  tau(  22) = (   6.5166677   0.0216046  17.1949088  )
        23           O1  tau(  23) = (   1.3043587   1.4918075   6.0039043  )
        24           O1  tau(  24) = (   5.2767064   1.4903225   6.0039473  )
        25           Ti1 tau(  25) = (   0.0000382   5.9609847   6.0000000  )
        26           Ti1 tau(  26) = (   3.2902200   4.4714249   6.0002472  )
        27           O1  tau(  27) = (   0.0002396   2.9813036   7.9858123  )
        28           O1  tau(  28) = (   3.2902150   2.9813002   7.3038282  )
        29           O1  tau(  29) = (   4.5938453   4.4726049   9.2879030  )
        30           O1  tau(  30) = (   1.9864658   4.4711199   9.2879459  )
        31           Ti1 tau(  31) = (   3.2891106   5.8743827   9.1763621  )
        32           Ti1 tau(  32) = (   0.0006254   4.4649316   9.2693709  )
        33           O1  tau(  33) = (   3.2959121   3.0085915  11.2438341  )
        34           O1  tau(  34) = (   0.0092240   2.9805883  10.6323155  )
        35           O1  tau(  35) = (   1.2849535   4.4488585  12.6204231  )
        36           O1  tau(  36) = (   5.2878833   4.4365118  12.6243745  )
        37           Ti1 tau(  37) = (   0.0500071   0.0677371  12.6535751  )
        38           Ti1 tau(  38) = (   3.3027700   4.3871210  12.4110406  )
        39           O1  tau(  39) = (   6.5685058   2.9535060  14.6525041  )
        40           O1  tau(  40) = (   3.2696111   2.9719761  13.8704823  )
        41           O1  tau(  41) = (   4.5209813   4.4409030  16.0696701  )
        42           O1  tau(  42) = (   2.0131998   4.4599944  16.0916020  )
        43           Ti1 tau(  43) = (   3.2138439   0.0230873  16.3295100  )
        44           Ti1 tau(  44) = (   6.5234412   4.6200706  16.0754176  )
        45           O1  tau(  45) = (   3.2900926   2.9813045   4.7018136  )
        46           O1  tau(  46) = (   1.3039711   4.4726057   6.0039043  )
        47           O1  tau(  47) = (   5.2763189   4.4711207   6.0039473  )
        48           N1  tau(  48) = (   0.0251376   2.9556585  17.3346074  )
        49           N1  tau(  49) = (   6.3772498   2.5461882  22.2688425  )
        50           C1  tau(  50) = (   0.2111848   2.8484408  18.7116211  )
        51           H1  tau(  51) = (   0.3920758   3.8074029  19.2116250  )
        52           H1  tau(  52) = (   5.9044209   2.3708277  19.1722604  )
        53           H1  tau(  53) = (   1.0233575   2.1342068  18.9364007  )
        54           H1  tau(  54) = (   6.0930523   3.2289774  22.9628454  )
        55           H1  tau(  55) = (   0.2277240   1.7755739  22.7685771  )
        56           H1  tau(  56) = (   0.5282093   2.9785696  21.7129995  )
        57           O1  tau(  57) = (   3.3838229   0.0530270  18.1522483  )
        58           H1  tau(  58) = (   4.2718821   5.8932998  18.5223319  )

     number of k points=    10  Fermi-Dirac smearing, width (Ry)=  0.0073
                       cart. coord. in units 2pi/alat
        k(    1) = (   0.0000000   0.0000000   0.0000000), wk =   0.1250000
        k(    2) = (   0.0000000   0.0419351   0.0000000), wk =   0.2500000
        k(    3) = (   0.0000000  -0.0838702   0.0000000), wk =   0.1250000
        k(    4) = (   0.0379955   0.0000049   0.0000000), wk =   0.2500000
        k(    5) = (   0.0379955   0.0419400   0.0000000), wk =   0.2500000
        k(    6) = (   0.0379955  -0.0838652   0.0000000), wk =   0.2500000
        k(    7) = (   0.0379955  -0.0419301   0.0000000), wk =   0.2500000
        k(    8) = (  -0.0759910  -0.0000099   0.0000000), wk =   0.1250000
        k(    9) = (  -0.0759910   0.0419252   0.0000000), wk =   0.2500000
        k(   10) = (  -0.0759910  -0.0838800   0.0000000), wk =   0.1250000

     Initial potential from superposition of free atoms

     starting charge  388.99913, renormalised to  405.00000

     negative rho (up, down):  7.831E-03 0.000E+00

     %%%%%%%%%%%%%%%%%%%%%%%%%%%%%%%%%%%%%%%%%%%%%%%%%%%%%%%%%%%%%%%%%%%%%%%%
     %                                                                      %
     % You are using vdW-DF, which was implemented by the Thonhauser group. %
     % Please cite the following two papers that made this development      %
     % possible and the two reviews that describe the various versions:     %
     %                                                                      %
     %   T. Thonhauser et al., PRL 115, 136402 (2015).                      %
     %   T. Thonhauser et al., PRB 76, 125112 (2007).                       %
     %   K. Berland et al., Rep. Prog. Phys. 78, 066501 (2015).             %
     %   D.C. Langreth et al., J. Phys.: Condens. Matter 21, 084203 (2009). %
     %                                                                      %
     %                                                                      %
     % If you are calculating the stress with vdW-DF, please also cite:     %
     %                                                                      %
     %   R. Sabatini et al., J. Phys.: Condens. Matter 24, 424209 (2012).   %
     %                                                                      %
     %%%%%%%%%%%%%%%%%%%%%%%%%%%%%%%%%%%%%%%%%%%%%%%%%%%%%%%%%%%%%%%%%%%%%%%%

     Adding external electric field

     Computed dipole along edir(3) :
        Dipole              -15.1972 Ry au,        -38.6275 Debye
        Dipole field         -0.0287 Ry au,

        Potential amp.        2.6585 Ry
        Total length         46.3494 bohr

     Starting wfcs are  307 atomic wfcs
  @ DRIVER MODE: Message from server: STATUS
  @ DRIVER MODE: Message from server: POSDATA
  @ DRIVER MODE: Reading and sharing cell
  @ DRIVER MODE: Reading and sharing positions
  @ DRIVER MODE: Received positions

     Self-consistent Calculation

     iteration #  1     ecut=    29.40 Ry     beta= 0.05
     Davidson diagonalization with overlap
     c_bands:  4 eigenvalues not converged
     c_bands:  1 eigenvalues not converged
     c_bands:  1 eigenvalues not converged
     c_bands:  2 eigenvalues not converged
     c_bands:  1 eigenvalues not converged
     c_bands:  2 eigenvalues not converged
     ethr =  1.00E-05,  avg # of iterations = 31.5

[...]

     total energy              =   -2295.04421549 Ry
     estimated scf accuracy    <    7744.19107947 Ry

     iteration #  2     ecut=    29.40 Ry     beta= 0.05
     Davidson diagonalization with overlap
     ethr =  1.00E-02,  avg # of iterations = 22.3

[...]

     iteration # 83     ecut=    29.40 Ry     beta= 0.05
     Davidson diagonalization with overlap
     c_bands:  1 eigenvalues not converged
     ethr =  3.99E-11,  avg # of iterations =  4.5

[...]

     total energy              =   -2976.42341254 Ry
     estimated scf accuracy    <       0.00000008 Ry

     iteration # 86     ecut=    29.40 Ry     beta= 0.05
     Davidson diagonalization with overlap
     ethr =  1.92E-11,  avg # of iterations =  3.8

     negative rho (up, down):  9.584E-03 0.000E+00

     Adding external electric field

     Computed dipole along edir(3) :
        Dipole                0.6371 Ry au,          1.6194 Debye
        Dipole field          0.0012 Ry au,

        Potential amp.       -0.1115 Ry
        Total length         46.3494 bohr

     End of self-consistent calculation

          k = 0.0000 0.0000 0.0000 ( 18029 PWs)   bands (ev):

   -56.5598 -56.5262 -55.6390 -55.6039 -55.4229 -55.3564 -55.2328 -55.1122
   -55.0784 -55.0374 -55.0053 -54.9712 -54.9108 -54.8271 -54.7461 -54.6239
   -32.9786 -32.8304 -32.8024 -32.7390 -32.6488 -32.6056 -32.1208 -31.8978
   -31.8593 -31.8377 -31.7832 -31.7754 -31.7501 -31.6562 -31.6360 -31.5911
   -31.5595 -31.5484 -31.5198 -31.5122 -31.5069 -31.4902 -31.4648 -31.4592
   -31.4347 -31.4215 -31.3564 -31.3163 -31.3016 -31.3005 -31.2359 -31.2355
   -31.2184 -31.1962 -31.1836 -31.1667 -31.1619 -31.1257 -31.1245 -31.0922
   -31.0570 -31.0103 -31.0030 -30.9810 -30.9484 -30.8974 -30.8605 -30.8104
   -16.6640 -16.1082 -16.0892 -15.8769 -15.7544 -15.7519 -15.7074 -15.6432
   -15.4680 -15.4048 -15.3742 -15.3115 -15.1721 -15.0525 -14.9553 -14.7834
   -14.7061 -14.7010 -14.6778 -14.6746 -14.6567 -14.6363 -14.5784 -14.5170
   -14.4764 -14.4104 -14.3686 -14.2219 -14.0266 -13.9958 -13.9533 -13.6095
   -13.5858 -13.5025  -7.7158  -4.2392  -4.0332  -4.0139  -3.7009  -3.5752
    -3.4025  -3.2486  -3.2303  -3.1510  -3.0815  -3.0760  -2.9453  -2.9247
    -2.9178  -2.9094  -2.8247  -2.7759  -2.6999  -2.6149  -2.5998  -2.5067
    -2.4605  -2.3000  -2.2775  -2.1749  -2.1031  -2.0983  -2.0286  -2.0095
    -1.9616  -1.9181  -1.9090  -1.8736  -1.8267  -1.7829  -1.7581  -1.6533
    -1.6468  -1.5838  -1.5752  -1.5516  -1.4401  -1.4194  -1.3474  -1.2030
    -1.1810  -1.1775  -1.1271  -1.1128  -1.0287  -0.9382  -0.8658  -0.8399
    -0.7804  -0.6961  -0.6497  -0.6284  -0.5566  -0.5380  -0.4626  -0.4196
    -0.4007  -0.3840  -0.3437  -0.2270  -0.1392  -0.1090  -0.0534  -0.0277
     0.0050   0.0300   0.0482   0.0978   0.1683   0.2521   0.2741   0.4117
     0.4659   0.5023   0.5782   0.6135   0.6176   0.7068   0.7401   0.7667
     0.8150   0.8900   0.9044   0.9094   0.9640   1.0499   1.1018   1.1548
     1.1685   1.2048   1.2107   1.2611   1.3498   1.3725   1.4453   1.4996
     1.8371   1.8825   2.4981   2.7343   2.9054   3.1824   3.3721   3.6751
     3.7202   3.7376   3.7380   4.0410

[...]

          k = 0.0380-0.0419 0.0000 ( 17876 PWs)   bands (ev):

[...]

          k =-0.0760-0.0000 0.0000 ( 17886 PWs)   bands (ev):

[...]

          k =-0.0760-0.0839 0.0000 ( 17948 PWs)   bands (ev):

   -56.5436 -56.5422 -55.6266 -55.6162 -55.4182 -55.3610 -55.2320 -55.0958
   -55.0946 -55.0326 -55.0059 -54.9758 -54.9092 -54.8257 -54.7477 -54.6252
   -32.8169 -32.8154 -32.7965 -32.7951 -32.6930 -32.6919 -31.9453 -31.9362
   -31.8210 -31.8157 -31.8099 -31.8081 -31.7177 -31.6749 -31.6495 -31.6365
   -31.5868 -31.5850 -31.5037 -31.4765 -31.4667 -31.4482 -31.4473 -31.3714
   -31.3522 -31.3159 -31.3145 -31.3037 -31.2953 -31.2854 -31.2765 -31.2758
   -31.2537 -31.2363 -31.2175 -31.2028 -31.2023 -31.1628 -31.1584 -31.1024
   -31.0912 -31.0601 -31.0070 -31.0035 -30.9688 -30.9531 -30.8626 -30.8451
   -16.0775 -16.0227 -16.0208 -15.9769 -15.9753 -15.7145 -15.7100 -15.4606
   -15.4312 -15.2561 -15.1492 -15.1250 -15.0814 -15.0395 -14.9743 -14.9192
   -14.8877 -14.8569 -14.8301 -14.7684 -14.7391 -14.6337 -14.6007 -14.5539
   -14.5201 -14.4573 -14.4140 -14.3639 -14.1832 -14.1332 -13.9527 -13.6116
   -13.6070 -13.6065  -7.7149  -4.0439  -4.0141  -3.6924  -3.1864  -3.0982
    -3.0938  -3.0629  -3.0556  -3.0063  -2.8479  -2.8452  -2.7690  -2.6453
    -2.6179  -2.5957  -2.5352  -2.5271  -2.4255  -2.3736  -2.3687  -2.3575
    -2.3212  -2.2905  -2.2841  -2.2254  -2.0917  -2.0754  -2.0239  -1.9706
    -1.8987  -1.8895  -1.8769  -1.8401  -1.7976  -1.7734  -1.7637  -1.7346
    -1.7297  -1.7268  -1.6195  -1.5126  -1.4645  -1.3693  -1.3657  -1.3560
    -1.3185  -1.2895  -1.2588  -1.2486  -1.2228  -1.1396  -1.1140  -1.0462
    -0.9357  -0.9176  -0.8730  -0.8256  -0.7231  -0.7048  -0.6135  -0.5758
    -0.5654  -0.5093  -0.4773  -0.4617  -0.4064  -0.3669  -0.2338  -0.1930
    -0.1826  -0.1643  -0.1409  -0.1068  -0.0435   0.0123   0.0490   0.0538
     0.1566   0.2558   0.3412   0.4129   0.4217   0.4431   0.5316   0.6357
     0.6779   0.7031   0.7507   0.8715   0.9898   1.0221   1.1259   1.1510
     1.1601   1.2641   1.2857   1.2907   1.3094   1.3192   1.3512   1.4166
     1.4777   1.7815   2.3342   3.3264   3.3296   3.3877   3.3933   3.7040
     3.7064   3.8170   3.8221   4.1378

     the Fermi energy is     2.4097 ev

!    total energy              =   -2976.42342362 Ry
     estimated scf accuracy    <       0.00000003 Ry
     smearing contrib. (-TS)   =      -0.01089489 Ry
     internal energy E=F+TS    =   -2976.41252872 Ry

     The total energy is F=E-TS. E is the sum of the following terms:
     one-electron contribution =  -22705.07770424 Ry
     hartree contribution      =   11448.88802639 Ry
     xc contribution           =    -495.34778917 Ry
     ewald contribution        =    8775.12417229 Ry
     electric field correction =       0.00076600 Ry

     convergence has been achieved in  86 iterations

     Forces acting on atoms (cartesian axes, Ry/au):

     atom    1 type  1   force =     0.00002199   -0.00052148    0.12618498
     atom    2 type  1   force =    -0.00008956    0.00041724   -0.15478049
     atom    3 type  2   force =     0.00002688    0.00002940   -0.06810367
     atom    4 type  2   force =     0.00005899   -0.00011056    0.01715779
     atom    5 type  2   force =    -0.00487528   -0.00242989   -0.01320838
     atom    6 type  2   force =     0.00655742   -0.00180849   -0.01372506
     atom    7 type  1   force =    -0.00029191   -0.00660535    0.05899424
     atom    8 type  1   force =     0.00037996    0.00687381    0.10006943
     atom    9 type  2   force =    -0.00002243    0.00066249    0.00142515
     atom   10 type  2   force =    -0.00260983   -0.00001174   -0.06313615
     atom   11 type  2   force =     0.00035973   -0.00070863   -0.00020139
     atom   12 type  2   force =    -0.00076457   -0.00114519   -0.00101646
     atom   13 type  1   force =    -0.00031223    0.00074999   -0.00188691
     atom   14 type  1   force =    -0.00033150   -0.00047246   -0.00029018
     atom   15 type  2   force =    -0.00073914   -0.00010965    0.00042262
     atom   16 type  2   force =     0.00019051    0.00094754   -0.00031846
     atom   17 type  2   force =     0.00111984    0.00009923   -0.00051873
     atom   18 type  2   force =    -0.00046307   -0.00013336    0.00004853
     atom   19 type  1   force =    -0.00021004   -0.00013794   -0.00102799
     atom   20 type  1   force =     0.00076997    0.00174545    0.00074812
     atom   21 type  2   force =     0.00005978    0.00015646    0.09782912
     atom   22 type  2   force =     0.00043409   -0.00050429    0.00138659
     atom   23 type  2   force =    -0.08271503    0.00005420   -0.03311313
     atom   24 type  2   force =     0.08265581    0.00050226   -0.03319230
     atom   25 type  1   force =     0.00006855   -0.00035464    0.12632707
     atom   26 type  1   force =    -0.00011845   -0.00150424   -0.15496296
     atom   27 type  2   force =     0.00011512   -0.00046680   -0.06647837
     atom   28 type  2   force =     0.00004741    0.00166857    0.01209787
     atom   29 type  2   force =    -0.00342842    0.00421770   -0.01618086
     atom   30 type  2   force =     0.00505688    0.00456144   -0.01658171
     atom   31 type  1   force =    -0.00015630    0.00218462    0.04234398
     atom   32 type  1   force =     0.00043987   -0.00893407    0.10064520
     atom   33 type  2   force =    -0.00048582   -0.00009942   -0.00025600
     atom   34 type  2   force =    -0.00212681   -0.00025934   -0.07600876
     atom   35 type  2   force =    -0.00018647    0.00070443    0.00095523
     atom   36 type  2   force =    -0.00040435    0.00050616    0.00047046
     atom   37 type  1   force =     0.00042491    0.00065326   -0.00079775
     atom   38 type  1   force =    -0.00042501   -0.00065116   -0.00078301
     atom   39 type  2   force =     0.00047345   -0.00040533    0.00081865
     atom   40 type  2   force =     0.00036187   -0.00062122    0.00008912
     atom   41 type  2   force =     0.00052840    0.00048631   -0.00002356
     atom   42 type  2   force =    -0.00043879   -0.00020945    0.00017142
     atom   43 type  1   force =     0.00049903    0.00137426   -0.00110125
     atom   44 type  1   force =    -0.00026014   -0.00170882    0.00169793
     atom   45 type  2   force =     0.00009160   -0.00001363    0.09767487
     atom   46 type  2   force =    -0.08276338    0.00003676   -0.03316623
     atom   47 type  2   force =     0.08267006    0.00045590   -0.03317425
     atom   48 type  3   force =    -0.00166585    0.00079917   -0.01539861
     atom   49 type  3   force =     0.00014099   -0.00003470   -0.00100396
     atom   50 type  4   force =     0.00215440    0.00079992    0.00932540
     atom   51 type  5   force =     0.00011820   -0.00010303    0.00074400
     atom   52 type  5   force =    -0.00011936    0.00029512    0.00060224
     atom   53 type  5   force =     0.00007796   -0.00039825    0.00131930
     atom   54 type  5   force =    -0.00008481   -0.00005053    0.00004511
     atom   55 type  5   force =     0.00033988    0.00014440    0.00012527
     atom   56 type  5   force =     0.00012103   -0.00003823    0.00019029
     atom   57 type  2   force =    -0.00180897   -0.00056509    0.00039692
     atom   58 type  5   force =     0.00153294   -0.00000906    0.00012969

     Total force =     0.420743     Total SCF correction =     0.000573
  @ DRIVER MODE: Message from server: STATUS
  @ DRIVER MODE: Message from server: GETFORCE
  @ DRIVER MODE: Returning v,forces,stress,ensemble

     Writing output data file ./calc.save/
  @ DRIVER MODE: Message from server: EXIT
  @ DRIVE MODE: Exiting

     General routines

     Parallel routines

   This run was terminated on:  18:51:34  22Sep2021

   JOB DONE.