     Program PWSCF v.6.7GPU starts on 22Sep2021 at 12:22: 4

     R & G space division:  proc/nbgrp/npool/nimage =      10
     Reading input from /storage/home/hcoda1/3/ntian30/research/carbon/CxH_vib/CH_calc/ads_slab/CHNHNH2H2O_b/out_0040/pw.inp
Warning: card &CELL ignored
Warning: card   CELL_DYNAMICS='IPI', ignored
Warning: card / ignored

     Current dimensions of program PWSCF are:
     Max number of different atomic species (ntypx) = 10
     Max number of k-points (npk) =  40000
     Max angular momentum in pseudopotentials (lmaxx) =  3
     Presently no symmetry can be used with electric field

     Message from routine cell_base_init:
     DEPRECATED: use true lattice parameter, not A to a.u. conversion factor

     IMPORTANT: XC functional enforced from input :
     Exchange-correlation= BEEF-VDW
                           (   1   4  43  14   2   0   0)
     Any further DFT definition will be discarded
     Please, verify this is what you really want

  @ DRIVER MODE: Connecting to
 qe_1139763_2927425.sched-torque.pace.gatech.edu9vb5d90j_scratch
  using UNIX socket
  @ DRIVER MODE: Message from server: STATUS
  @ DRIVER MODE: Message from server: INIT
  @ DRIVER MODE: Receiving replica           0          -1
  @ DRIVER MODE: Receiving encoded integer          25
  @ DRIVER MODE:  SCF:  T  FORCE:  T  STRESS:  F  VC:  F  ENSEMBLE:  F
  @ DRIVER MODE:  SCF:  T  FORCE:  T  STRESS:  F  VC:  F  ENSEMBLE:  F

     Using Slab Decomposition

     bravais-lattice index     =            0
     lattice parameter (alat)  =       1.8897  a.u.
     unit-cell volume          =    6658.9804 (a.u.)^3
     number of atoms/cell      =           57
     number of atomic types    =            5
     number of electrons       =       404.00
     number of Kohn-Sham states=          212
     kinetic-energy cutoff     =      29.3995  Ry
     charge density cutoff     =     293.9946  Ry
     scf convergence threshold =      7.3E-08
     mixing beta               =       0.0500
     number of iterations used =            8  plain     mixing
     Exchange-correlation= BEEF-VDW
                           (   1   4  43  14   2   0   0)

     celldm(1)=   1.889726  celldm(2)=   0.000000  celldm(3)=   0.000000
     celldm(4)=   0.000000  celldm(5)=   0.000000  celldm(6)=   0.000000

     crystal axes: (cart. coord. in units of alat)
               a(1) = (   6.579727   0.000000   0.000000 )
               a(2) = (  -0.000775   5.961596   0.000000 )
               a(3) = (   0.000000   0.000000  25.155947 )

     reciprocal axes: (cart. coord. in units 2 pi/alat)
               b(1) = (  0.151982  0.000020  0.000000 )
               b(2) = (  0.000000  0.167740  0.000000 )
               b(3) = (  0.000000  0.000000  0.039752 )

     PseudoPot. # 1 for Ti read from file:
     /storage/coda1/p-amedford6/0/shared/rich_project_chbe-medford/medford-share/data/pseudos_module/espresso/nninc/pbe/van/Ti.UPF
     MD5 check sum: 8e4df49b7f0d34bbd5052bf3f5ea0213
     Pseudo is Ultrasoft, Zval = 12.0
     Generated by new atomic code, or converted to UPF format
     Using radial grid of  851 points,  6 beta functions with:
                l(1) =   0
                l(2) =   0
                l(3) =   1
                l(4) =   1
                l(5) =   2
                l(6) =   2
     Q(r) pseudized with  8 coefficients,  rinner =    1.000   1.000   1.000
                                                       1.000   1.000

     PseudoPot. # 2 for O  read from file:
     /storage/coda1/p-amedford6/0/shared/rich_project_chbe-medford/medford-share/data/pseudos_module/espresso/nninc/pbe/van/O.UPF
     MD5 check sum: 78c19812648e8988a0fe644b0f25305e
     Pseudo is Ultrasoft, Zval =  6.0
     Generated by new atomic code, or converted to UPF format
     Using radial grid of  737 points,  4 beta functions with:
                l(1) =   0
                l(2) =   0
                l(3) =   1
                l(4) =   1
     Q(r) pseudized with  8 coefficients,  rinner =    0.800   0.800   0.800

     PseudoPot. # 3 for N  read from file:
     /storage/coda1/p-amedford6/0/shared/rich_project_chbe-medford/medford-share/data/pseudos_module/espresso/nninc/pbe/van/N.UPF
     MD5 check sum: 90d10febe142ad51ac9d5be1deb811c4
     Pseudo is Ultrasoft, Zval =  5.0
     Generated by new atomic code, or converted to UPF format
     Using radial grid of  729 points,  4 beta functions with:
                l(1) =   0
                l(2) =   0
                l(3) =   1
                l(4) =   1
     Q(r) pseudized with  8 coefficients,  rinner =    0.800   0.800   0.800

     PseudoPot. # 4 for C  read from file:
     /storage/coda1/p-amedford6/0/shared/rich_project_chbe-medford/medford-share/data/pseudos_module/espresso/nninc/pbe/van/C.UPF
     MD5 check sum: 1a69bf6b8db32088f5b2163dbdb77a27
     Pseudo is Ultrasoft, Zval =  4.0
     Generated by new atomic code, or converted to UPF format
     Using radial grid of  721 points,  4 beta functions with:
                l(1) =   0
                l(2) =   0
                l(3) =   1
                l(4) =   1
     Q(r) pseudized with  8 coefficients,  rinner =    0.800   0.800   0.800

     PseudoPot. # 5 for H  read from file:
     /storage/coda1/p-amedford6/0/shared/rich_project_chbe-medford/medford-share/data/pseudos_module/espresso/nninc/pbe/van/H.UPF
     MD5 check sum: b5ee9d7bfd3a09ee7748110bda690ff7
     Pseudo is Ultrasoft, Zval =  1.0
     Generated by new atomic code, or converted to UPF format
     Using radial grid of  615 points,  1 beta functions with:
                l(1) =   0
     Q(r) pseudized with  8 coefficients,  rinner =    0.800

     atomic species   valence    mass     pseudopotential
        Ti1           12.00    47.86700     Ti( 1.00)
        O1             6.00    15.99900     O ( 1.00)
        N1             5.00    14.00700     N ( 1.00)
        C1             4.00    12.01100     C ( 1.00)
        H1             1.00     1.00800     H ( 1.00)

     No symmetry found

   Cartesian axes

     site n.     atom                  positions (alat units)
         1           Ti1 tau(   1) = (   0.0004258   2.9801865   6.0000000  )
         2           Ti1 tau(   2) = (   3.2906075   1.4906267   6.0002472  )
         3           O1  tau(   3) = (   0.0006271   0.0005054   7.9858123  )
         4           O1  tau(   4) = (   3.2906025   0.0005020   7.3038282  )
         5           O1  tau(   5) = (   4.5942328   1.4918067   9.2879030  )
         6           O1  tau(   6) = (   1.9868534   1.4903216   9.2879459  )
         7           Ti1 tau(   7) = (   3.2907910   2.8959150   9.1758416  )
         8           Ti1 tau(   8) = (   0.0015273   1.4827037   9.2680791  )
         9           O1  tau(   9) = (   3.3066417   5.9496923  11.3845403  )
        10           O1  tau(  10) = (   0.0116148   5.9584955  10.6183126  )
        11           O1  tau(  11) = (   1.3010148   1.4986442  12.6442229  )
        12           O1  tau(  12) = (   5.3085967   1.5001388  12.6592367  )
        13           Ti1 tau(  13) = (   0.0282779   2.9853959  12.5065338  )
        14           Ti1 tau(  14) = (   3.3279724   1.4707331  12.5413945  )
        15           O1  tau(  15) = (   0.0378505   0.0859181  14.6860672  )
        16           O1  tau(  16) = (   3.3018867   0.0259462  14.0338077  )
        17           O1  tau(  17) = (   4.5998927   1.5484098  16.1661054  )
        18           O1  tau(  18) = (   2.0454451   1.5021798  16.2221046  )
        19           Ti1 tau(  19) = (   3.3206312   2.9825829  15.7321521  )
        20           Ti1 tau(  20) = (   0.0140791   1.4435866  15.9983415  )
        21           O1  tau(  21) = (   3.2904802   0.0005063   4.7018136  )
        22           O1  tau(  22) = (   6.5273045   5.8164216  17.2577718  )
        23           O1  tau(  23) = (   1.3043587   1.4918075   6.0039043  )
        24           O1  tau(  24) = (   5.2767064   1.4903225   6.0039473  )
        25           Ti1 tau(  25) = (   0.0000382   5.9609847   6.0000000  )
        26           Ti1 tau(  26) = (   3.2902200   4.4714249   6.0002472  )
        27           O1  tau(  27) = (   0.0002396   2.9813036   7.9858123  )
        28           O1  tau(  28) = (   3.2902150   2.9813002   7.3038282  )
        29           O1  tau(  29) = (   4.5938453   4.4726049   9.2879030  )
        30           O1  tau(  30) = (   1.9864658   4.4711199   9.2879459  )
        31           Ti1 tau(  31) = (   3.2891106   5.8743827   9.1763621  )
        32           Ti1 tau(  32) = (   0.0006254   4.4649316   9.2693709  )
        33           O1  tau(  33) = (   3.3068470   2.9864458  11.3814114  )
        34           O1  tau(  34) = (   0.0092240   2.9805883  10.6323155  )
        35           O1  tau(  35) = (   1.2982948   4.4740332  12.6840172  )
        36           O1  tau(  36) = (   5.3097620   4.4704985  12.6972095  )
        37           Ti1 tau(  37) = (   0.0348817   0.0130325  12.4954113  )
        38           Ti1 tau(  38) = (   3.3270268   4.4633798  12.5435021  )
        39           O1  tau(  39) = (   0.0563025   2.9439880  14.9425960  )
        40           O1  tau(  40) = (   3.2900316   2.9661073  13.9503945  )
        41           O1  tau(  41) = (   4.5967999   4.4093095  16.0633277  )
        42           O1  tau(  42) = (   2.0412097   4.4536800  16.1303113  )
        43           Ti1 tau(  43) = (   3.2964201   5.9600488  15.8742613  )
        44           Ti1 tau(  44) = (   0.0241369   4.6516137  15.8518307  )
        45           O1  tau(  45) = (   3.2900926   2.9813045   4.7018136  )
        46           O1  tau(  46) = (   1.3039711   4.4726057   6.0039043  )
        47           O1  tau(  47) = (   5.2763189   4.4711207   6.0039473  )
        48           N1  tau(  48) = (   1.4509408   2.7109095  18.7602185  )
        49           N1  tau(  49) = (   0.0917387   2.5303350  18.2207845  )
        50           C1  tau(  50) = (   1.9503960   3.7723240  19.2784661  )
        51           H1  tau(  51) = (   1.1612915   4.5273475  19.4152495  )
        52           H1  tau(  52) = (   2.0208952   1.9183395  18.4664618  )
        53           H1  tau(  53) = (   6.1377449   3.3539424  18.4987646  )
        54           H1  tau(  54) = (   6.2616785   1.7235167  18.6767212  )
        55           O1  tau(  55) = (   3.7012217   5.9496235  18.2853534  )
        56           H1  tau(  56) = (   4.6684668   5.8470116  18.1670174  )
        57           H1  tau(  57) = (   3.3852657   5.1278045  18.7338684  )

     number of k points=    10  Fermi-Dirac smearing, width (Ry)=  0.0073
                       cart. coord. in units 2pi/alat
        k(    1) = (   0.0000000   0.0000000   0.0000000), wk =   0.1250000
        k(    2) = (   0.0000000   0.0419351   0.0000000), wk =   0.2500000
        k(    3) = (   0.0000000  -0.0838702   0.0000000), wk =   0.1250000
        k(    4) = (   0.0379955   0.0000049   0.0000000), wk =   0.2500000
        k(    5) = (   0.0379955   0.0419400   0.0000000), wk =   0.2500000
        k(    6) = (   0.0379955  -0.0838652   0.0000000), wk =   0.2500000
        k(    7) = (   0.0379955  -0.0419301   0.0000000), wk =   0.2500000
        k(    8) = (  -0.0759910  -0.0000099   0.0000000), wk =   0.1250000
        k(    9) = (  -0.0759910   0.0419252   0.0000000), wk =   0.2500000
        k(   10) = (  -0.0759910  -0.0838800   0.0000000), wk =   0.1250000

     Initial potential from superposition of free atoms

     starting charge  387.99913, renormalised to  404.00000

     negative rho (up, down):  1.598E-02 0.000E+00

     %%%%%%%%%%%%%%%%%%%%%%%%%%%%%%%%%%%%%%%%%%%%%%%%%%%%%%%%%%%%%%%%%%%%%%%%
     %                                                                      %
     % You are using vdW-DF, which was implemented by the Thonhauser group. %
     % Please cite the following two papers that made this development      %
     % possible and the two reviews that describe the various versions:     %
     %                                                                      %
     %   T. Thonhauser et al., PRL 115, 136402 (2015).                      %
     %   T. Thonhauser et al., PRB 76, 125112 (2007).                       %
     %   K. Berland et al., Rep. Prog. Phys. 78, 066501 (2015).             %
     %   D.C. Langreth et al., J. Phys.: Condens. Matter 21, 084203 (2009). %
     %                                                                      %
     %                                                                      %
     % If you are calculating the stress with vdW-DF, please also cite:     %
     %                                                                      %
     %   R. Sabatini et al., J. Phys.: Condens. Matter 24, 424209 (2012).   %
     %                                                                      %
     %%%%%%%%%%%%%%%%%%%%%%%%%%%%%%%%%%%%%%%%%%%%%%%%%%%%%%%%%%%%%%%%%%%%%%%%

     Adding external electric field

     Computed dipole along edir(3) :
        Dipole              -14.3585 Ry au,        -36.4957 Debye
        Dipole field         -0.0271 Ry au,

        Potential amp.        2.5118 Ry
        Total length         46.3494 bohr

     Starting wfcs are  306 atomic wfcs
  @ DRIVER MODE: Message from server: STATUS
  @ DRIVER MODE: Message from server: POSDATA
  @ DRIVER MODE: Reading and sharing cell
  @ DRIVER MODE: Reading and sharing positions
  @ DRIVER MODE: Received positions

     Self-consistent Calculation

     iteration #  1     ecut=    29.40 Ry     beta= 0.05
     Davidson diagonalization with overlap
     c_bands:  3 eigenvalues not converged
     c_bands:  4 eigenvalues not converged
     c_bands:  4 eigenvalues not converged
     c_bands:  4 eigenvalues not converged
     c_bands:  5 eigenvalues not converged
     c_bands:  3 eigenvalues not converged
     c_bands:  2 eigenvalues not converged
     c_bands:  4 eigenvalues not converged
     ethr =  1.00E-05,  avg # of iterations = 21.9

[...]

     total energy              =   -2220.91369728 Ry
     estimated scf accuracy    <    8587.39426492 Ry

     iteration #  2     ecut=    29.40 Ry     beta= 0.05
     Davidson diagonalization with overlap
     ethr =  1.00E-02,  avg # of iterations = 28.0

[...]

     iteration # 78     ecut=    29.40 Ry     beta= 0.05
     Davidson diagonalization with overlap
     c_bands:  1 eigenvalues not converged
     ethr =  4.75E-11,  avg # of iterations =  3.6

[...]

     total energy              =   -2975.10520616 Ry
     estimated scf accuracy    <       0.00000019 Ry

     iteration # 81     ecut=    29.40 Ry     beta= 0.05
     Davidson diagonalization with overlap
     ethr =  4.75E-11,  avg # of iterations = 11.2

     negative rho (up, down):  1.579E-02 0.000E+00

     Adding external electric field

     Computed dipole along edir(3) :
        Dipole                1.0254 Ry au,          2.6063 Debye
        Dipole field          0.0019 Ry au,

        Potential amp.       -0.1794 Ry
        Total length         46.3494 bohr

     End of self-consistent calculation

          k = 0.0000 0.0000 0.0000 ( 18029 PWs)   bands (ev):

   -55.3842 -55.3484 -55.3441 -55.3100 -55.3071 -55.3013 -55.2663 -55.2310
   -55.2157 -55.1808 -55.1741 -55.1588 -55.1404 -55.1109 -54.3755 -54.3415
   -31.9433 -31.8791 -31.8368 -31.7560 -31.7070 -31.7043 -31.6800 -31.6772
   -31.6329 -31.5974 -31.5903 -31.5887 -31.5818 -31.5784 -31.5603 -31.5582
   -31.5336 -31.5256 -31.5227 -31.5112 -31.4968 -31.4905 -31.4716 -31.4666
   -31.4582 -31.4453 -31.4449 -31.4158 -31.4014 -31.3980 -31.3947 -31.3725
   -31.3689 -31.3645 -31.3610 -31.3397 -31.3288 -31.3168 -31.3019 -31.3017
   -31.2912 -31.2852 -30.7850 -30.6904 -30.6684 -30.6013 -30.5146 -30.4037
   -18.8927 -18.4557 -16.2191 -15.9717 -15.8357 -15.7313 -15.5937 -15.4957
   -15.3865 -15.2732 -15.2501 -15.1563 -15.0821 -15.0784 -15.0413 -15.0154
   -14.9526 -14.9312 -14.9076 -14.9016 -14.8869 -14.8768 -14.8402 -14.8292
   -14.8013 -14.7854 -14.7680 -14.6688 -14.6263 -14.5507 -14.4801 -14.3439
   -12.8779 -12.7604  -9.8394  -7.0308  -6.3783  -6.0900  -4.4325  -3.7334
    -3.5428  -3.4092  -3.3311  -3.3024  -3.2845  -3.1530  -3.0604  -2.9011
    -2.8623  -2.8060  -2.6727  -2.5968  -2.5904  -2.5026  -2.4302  -2.4066
    -2.3737  -2.2647  -2.2582  -2.2088  -2.1911  -2.1679  -2.1587  -2.1120
    -2.0660  -2.0389  -1.9537  -1.8522  -1.8086  -1.7889  -1.7523  -1.7298
    -1.7254  -1.6812  -1.6749  -1.6516  -1.6127  -1.5883  -1.5432  -1.4308
    -1.3900  -1.2310  -1.1937  -1.0390  -1.0185  -0.9793  -0.9594  -0.9300
    -0.8927  -0.8763  -0.8631  -0.7710  -0.7128  -0.6467  -0.5825  -0.4915
    -0.4813  -0.4075  -0.3816  -0.3165  -0.2287  -0.1841  -0.1744  -0.1499
    -0.1465  -0.0329   0.0121   0.0724   0.0909   0.1483   0.1642   0.1864
     0.2564   0.3098   0.3795   0.4103   0.4893   0.5075   0.5425   0.5517
     0.5840   0.5946   0.6708   0.6856   0.7138   0.8165   0.9139   1.0073
     1.2170   1.2195   1.2504   1.5521   1.5542   1.6475   1.8309   2.2238
     2.2722   3.7057   3.7841   3.8336   3.8513   3.8558   3.9406   4.1952
     4.2094   4.2221   4.2284   4.2692

[...]

          k = 0.0380-0.0419 0.0000 ( 17876 PWs)   bands (ev):

[...]

          k =-0.0760-0.0000 0.0000 ( 17886 PWs)   bands (ev):

[...]

          k =-0.0760-0.0839 0.0000 ( 17948 PWs)   bands (ev):

   -55.3674 -55.3650 -55.3273 -55.3267 -55.3042 -55.3004 -55.2526 -55.2446
   -55.2014 -55.1946 -55.1606 -55.1581 -55.1566 -55.1126 -54.3585 -54.3584
   -31.7937 -31.7557 -31.7416 -31.6522 -31.6516 -31.6376 -31.6257 -31.6184
   -31.6179 -31.5975 -31.5925 -31.5894 -31.5663 -31.5584 -31.5467 -31.5327
   -31.5297 -31.5269 -31.5231 -31.5150 -31.5104 -31.5084 -31.5072 -31.4994
   -31.4676 -31.4662 -31.4470 -31.4467 -31.4466 -31.4415 -31.4390 -31.4343
   -31.4247 -31.4135 -31.4076 -31.3910 -31.3893 -31.3790 -31.3381 -31.3371
   -31.3365 -31.3174 -30.6811 -30.6810 -30.5976 -30.5974 -30.5580 -30.5579
   -18.8870 -18.4580 -15.8386 -15.6520 -15.5005 -15.4287 -15.4083 -15.3252
   -15.2699 -15.2667 -15.1940 -15.1755 -15.1631 -15.1415 -15.1318 -15.0844
   -15.0474 -15.0107 -14.9919 -14.9693 -14.9262 -14.9034 -14.9017 -14.8949
   -14.8872 -14.8472 -14.8417 -14.8384 -14.7467 -14.7448 -14.7252 -14.5671
   -12.8619 -12.8618  -9.8487  -7.0194  -6.3537  -6.0664  -4.4459  -3.6613
    -3.0227  -2.9102  -2.8994  -2.6706  -2.6521  -2.5912  -2.5787  -2.4906
    -2.4749  -2.4143  -2.3908  -2.3407  -2.3178  -2.2800  -2.2661  -2.2443
    -2.2232  -2.2095  -2.1831  -2.1669  -2.1502  -2.1306  -2.1192  -2.1078
    -2.0528  -2.0469  -2.0381  -2.0127  -1.9897  -1.9536  -1.9436  -1.9276
    -1.7720  -1.7564  -1.7349  -1.5992  -1.5949  -1.5622  -1.5208  -1.4934
    -1.4355  -1.4266  -1.3986  -1.3400  -1.1478  -1.1361  -1.1235  -1.1065
    -1.0349  -0.9791  -0.9650  -0.9473  -0.8934  -0.8152  -0.7828  -0.7295
    -0.6430  -0.5881  -0.5787  -0.5528  -0.4316  -0.4085  -0.3660  -0.3479
    -0.3317  -0.2972  -0.2957  -0.2388  -0.1858  -0.1501  -0.1271  -0.1129
    -0.0760   0.0786   0.1310   0.1472   0.2620   0.2908   0.4688   0.5116
     0.5334   0.6383   0.7219   0.7496   0.7642   0.8901   0.9120   0.9143
     0.9826   1.0048   1.0649   1.0707   1.2068   2.0036   2.0049   2.0920
     2.0922   3.8308   3.9538   3.9979   4.0337   4.1102   4.1624   4.2195
     4.2785   4.2901   4.2937   4.3607

     the Fermi energy is     3.7678 ev

!    total energy              =   -2975.10521877 Ry
     estimated scf accuracy    <       0.00000005 Ry
     smearing contrib. (-TS)   =      -0.03671697 Ry
     internal energy E=F+TS    =   -2975.06850180 Ry

     The total energy is F=E-TS. E is the sum of the following terms:
     one-electron contribution =  -23505.52178892 Ry
     hartree contribution      =   11848.78792353 Ry
     xc contribution           =    -494.92452138 Ry
     ewald contribution        =    9176.58790082 Ry
     electric field correction =       0.00198415 Ry

     convergence has been achieved in  81 iterations

     Forces acting on atoms (cartesian axes, Ry/au):

     atom    1 type  1   force =     0.00002857   -0.00024792    0.09308829
     atom    2 type  1   force =    -0.00018966   -0.00032289   -0.17839605
     atom    3 type  2   force =     0.00006004   -0.00017731   -0.02025452
     atom    4 type  2   force =     0.00001611   -0.00203586    0.05924763
     atom    5 type  2   force =    -0.01034304   -0.00110279    0.00808804
     atom    6 type  2   force =     0.01218417   -0.00054756    0.00816557
     atom    7 type  1   force =     0.00015138    0.00328782   -0.01111661
     atom    8 type  1   force =    -0.00030270    0.00053345   -0.00560879
     atom    9 type  2   force =     0.00004076    0.00017677   -0.00014895
     atom   10 type  2   force =    -0.00146428   -0.00004030   -0.00171887
     atom   11 type  2   force =     0.00038703   -0.00003420   -0.00005873
     atom   12 type  2   force =    -0.00010266    0.00010849   -0.00008948
     atom   13 type  1   force =    -0.00008915   -0.00017577   -0.00025100
     atom   14 type  1   force =    -0.00021588   -0.00036427    0.00033425
     atom   15 type  2   force =     0.00006690   -0.00046026    0.00008420
     atom   16 type  2   force =     0.00022012    0.00009285    0.00026891
     atom   17 type  2   force =     0.00036017   -0.00015489    0.00019799
     atom   18 type  2   force =    -0.00006727   -0.00011246   -0.00011138
     atom   19 type  1   force =    -0.00027875   -0.00044680   -0.00000373
     atom   20 type  1   force =     0.00010871    0.00013179    0.00062703
     atom   21 type  2   force =    -0.00000344   -0.00007675    0.10403839
     atom   22 type  2   force =    -0.00007715   -0.00004467   -0.00025619
     atom   23 type  2   force =    -0.07033489   -0.00014747   -0.02683312
     atom   24 type  2   force =     0.07020459    0.00029761   -0.02690932
     atom   25 type  1   force =     0.00002776   -0.00015567    0.09273707
     atom   26 type  1   force =    -0.00016029   -0.00039053   -0.17833908
     atom   27 type  2   force =     0.00011109   -0.00030429   -0.01920353
     atom   28 type  2   force =     0.00004693   -0.00163289    0.05840022
     atom   29 type  2   force =    -0.01029033   -0.00064306    0.00729473
     atom   30 type  2   force =     0.01202478   -0.00030993    0.00742864
     atom   31 type  1   force =     0.00007590    0.00514482   -0.01466493
     atom   32 type  1   force =    -0.00013772   -0.00051969   -0.00595044
     atom   33 type  2   force =     0.00012947   -0.00039422   -0.00023934
     atom   34 type  2   force =    -0.00078810    0.00261064   -0.00104044
     atom   35 type  2   force =    -0.00006452   -0.00011636   -0.00012504
     atom   36 type  2   force =     0.00023173    0.00000182   -0.00015107
     atom   37 type  1   force =    -0.00043437    0.00008576    0.00001943
     atom   38 type  1   force =    -0.00003324   -0.00024421   -0.00025820
     atom   39 type  2   force =    -0.00030325   -0.00023460   -0.00015797
     atom   40 type  2   force =    -0.00013320   -0.00005957   -0.00002659
     atom   41 type  2   force =    -0.00015947   -0.00016178    0.00037762
     atom   42 type  2   force =    -0.00005645   -0.00027187    0.00015654
     atom   43 type  1   force =     0.00001180   -0.00030969    0.00010061
     atom   44 type  1   force =    -0.00000757    0.00011414    0.00025538
     atom   45 type  2   force =     0.00001196   -0.00010907    0.10400057
     atom   46 type  2   force =    -0.07035585   -0.00012979   -0.02685251
     atom   47 type  2   force =     0.07020175    0.00030756   -0.02690980
     atom   48 type  3   force =     0.00023107    0.00076945    0.00047636
     atom   49 type  3   force =     0.00293084    0.00958916   -0.00461846
     atom   50 type  4   force =     0.00034652    0.00114444    0.00065645
     atom   51 type  5   force =     0.00002018   -0.00063839   -0.00044871
     atom   52 type  5   force =    -0.00007633   -0.00103098   -0.00029982
     atom   53 type  5   force =     0.00042039    0.00081176   -0.00063984
     atom   54 type  5   force =    -0.00417706   -0.01049271    0.00534908
     atom   55 type  2   force =     0.00010172   -0.00014669    0.00059281
     atom   56 type  5   force =     0.00030492   -0.00032959   -0.00041301
     atom   57 type  5   force =    -0.00041073   -0.00009056    0.00010969

     Total force =     0.366579     Total SCF correction =     0.000524
  @ DRIVER MODE: Message from server: STATUS
  @ DRIVER MODE: Message from server: GETFORCE
  @ DRIVER MODE: Returning v,forces,stress,ensemble

     Writing output data file ./calc.save/
  @ DRIVER MODE: Message from server: EXIT
  @ DRIVE MODE: Exiting

     General routines

     Parallel routines

   This run was terminated on:  12:43:57  22Sep2021

   JOB DONE.