     Program PWSCF v.6.7GPU starts on 23Aug2021 at 14:26:54

     R & G space division:  proc/nbgrp/npool/nimage =       6
     Reading input from /storage/home/hcoda1/3/ntian30/research/carbon/CH_vib/ads_slab/CHNHHH_a/out_0003/pw.inp
Warning: card &CELL ignored
Warning: card   CELL_DYNAMICS='IPI', ignored
Warning: card / ignored

     Current dimensions of program PWSCF are:
     Max number of different atomic species (ntypx) = 10
     Max number of k-points (npk) =  40000
     Max angular momentum in pseudopotentials (lmaxx) =  3
     Presently no symmetry can be used with electric field

     Message from routine cell_base_init:
     DEPRECATED: use true lattice parameter, not A to a.u. conversion factor

     IMPORTANT: XC functional enforced from input :
     Exchange-correlation= BEEF-VDW
                           (   1   4  43  14   2   0   0)
     Any further DFT definition will be discarded
     Please, verify this is what you really want

  @ DRIVER MODE: Connecting to
 qe_1139763_2632793.sched-torque.pace.gatech.edu1fewmuex_scratch
  using UNIX socket
  @ DRIVER MODE: Message from server: STATUS
  @ DRIVER MODE: Message from server: INIT
  @ DRIVER MODE: Receiving replica           0          -1
  @ DRIVER MODE: Receiving encoded integer          25
  @ DRIVER MODE:  SCF:  T  FORCE:  T  STRESS:  F  VC:  F  ENSEMBLE:  F
  @ DRIVER MODE:  SCF:  T  FORCE:  T  STRESS:  F  VC:  F  ENSEMBLE:  F

     Using Slab Decomposition

     bravais-lattice index     =            0
     lattice parameter (alat)  =       1.8897  a.u.
     unit-cell volume          =    6658.9804 (a.u.)^3
     number of atoms/cell      =           53
     number of atomic types    =            5
     number of electrons       =       391.00
     number of Kohn-Sham states=          205
     kinetic-energy cutoff     =      29.3995  Ry
     charge density cutoff     =     293.9946  Ry
     scf convergence threshold =      7.3E-08
     mixing beta               =       0.0500
     number of iterations used =            8  plain     mixing
     Exchange-correlation= BEEF-VDW
                           (   1   4  43  14   2   0   0)

     celldm(1)=   1.889726  celldm(2)=   0.000000  celldm(3)=   0.000000
     celldm(4)=   0.000000  celldm(5)=   0.000000  celldm(6)=   0.000000

     crystal axes: (cart. coord. in units of alat)
               a(1) = (   6.579727   0.000000   0.000000 )
               a(2) = (  -0.000775   5.961596   0.000000 )
               a(3) = (   0.000000   0.000000  25.155947 )

     reciprocal axes: (cart. coord. in units 2 pi/alat)
               b(1) = (  0.151982  0.000020  0.000000 )
               b(2) = (  0.000000  0.167740  0.000000 )
               b(3) = (  0.000000  0.000000  0.039752 )

     PseudoPot. # 1 for Ti read from file:
     /storage/coda1/p-amedford6/0/shared/rich_project_chbe-medford/medford-share/data/pseudos_module/espresso/nninc/pbe/van/Ti.UPF
     MD5 check sum: 8e4df49b7f0d34bbd5052bf3f5ea0213
     Pseudo is Ultrasoft, Zval = 12.0
     Generated by new atomic code, or converted to UPF format
     Using radial grid of  851 points,  6 beta functions with:
                l(1) =   0
                l(2) =   0
                l(3) =   1
                l(4) =   1
                l(5) =   2
                l(6) =   2
     Q(r) pseudized with  8 coefficients,  rinner =    1.000   1.000   1.000
                                                       1.000   1.000

     PseudoPot. # 2 for O  read from file:
     /storage/coda1/p-amedford6/0/shared/rich_project_chbe-medford/medford-share/data/pseudos_module/espresso/nninc/pbe/van/O.UPF
     MD5 check sum: 78c19812648e8988a0fe644b0f25305e
     Pseudo is Ultrasoft, Zval =  6.0
     Generated by new atomic code, or converted to UPF format
     Using radial grid of  737 points,  4 beta functions with:
                l(1) =   0
                l(2) =   0
                l(3) =   1
                l(4) =   1
     Q(r) pseudized with  8 coefficients,  rinner =    0.800   0.800   0.800

     PseudoPot. # 3 for N  read from file:
     /storage/coda1/p-amedford6/0/shared/rich_project_chbe-medford/medford-share/data/pseudos_module/espresso/nninc/pbe/van/N.UPF
     MD5 check sum: 90d10febe142ad51ac9d5be1deb811c4
     Pseudo is Ultrasoft, Zval =  5.0
     Generated by new atomic code, or converted to UPF format
     Using radial grid of  729 points,  4 beta functions with:
                l(1) =   0
                l(2) =   0
                l(3) =   1
                l(4) =   1
     Q(r) pseudized with  8 coefficients,  rinner =    0.800   0.800   0.800

     PseudoPot. # 4 for C  read from file:
     /storage/coda1/p-amedford6/0/shared/rich_project_chbe-medford/medford-share/data/pseudos_module/espresso/nninc/pbe/van/C.UPF
     MD5 check sum: 1a69bf6b8db32088f5b2163dbdb77a27
     Pseudo is Ultrasoft, Zval =  4.0
     Generated by new atomic code, or converted to UPF format
     Using radial grid of  721 points,  4 beta functions with:
                l(1) =   0
                l(2) =   0
                l(3) =   1
                l(4) =   1
     Q(r) pseudized with  8 coefficients,  rinner =    0.800   0.800   0.800

     PseudoPot. # 5 for H  read from file:
     /storage/coda1/p-amedford6/0/shared/rich_project_chbe-medford/medford-share/data/pseudos_module/espresso/nninc/pbe/van/H.UPF
     MD5 check sum: b5ee9d7bfd3a09ee7748110bda690ff7
     Pseudo is Ultrasoft, Zval =  1.0
     Generated by new atomic code, or converted to UPF format
     Using radial grid of  615 points,  1 beta functions with:
                l(1) =   0
     Q(r) pseudized with  8 coefficients,  rinner =    0.800

     atomic species   valence    mass     pseudopotential
        Ti1           12.00    47.86700     Ti( 1.00)
        O1             6.00    15.99900     O ( 1.00)
        N1             5.00    14.00700     N ( 1.00)
        C1             4.00    12.01100     C ( 1.00)
        H1             1.00     1.00800     H ( 1.00)

     No symmetry found

   Cartesian axes

     site n.     atom                  positions (alat units)
         1           Ti1 tau(   1) = (   0.0004258   2.9801865   6.0000000  )
         2           Ti1 tau(   2) = (   3.2906075   1.4906267   6.0002472  )
         3           O1  tau(   3) = (   0.0006271   0.0005054   7.9858123  )
         4           O1  tau(   4) = (   3.2906025   0.0005020   7.3038282  )
         5           O1  tau(   5) = (   4.5942328   1.4918067   9.2879030  )
         6           O1  tau(   6) = (   1.9868534   1.4903216   9.2879459  )
         7           Ti1 tau(   7) = (   3.2907910   2.8959150   9.1758416  )
         8           Ti1 tau(   8) = (   0.0015273   1.4827037   9.2680791  )
         9           O1  tau(   9) = (   3.3113122   5.9567026  11.3833813  )
        10           O1  tau(  10) = (   0.0116148   5.9584955  10.6183126  )
        11           O1  tau(  11) = (   1.3074368   1.4838846  12.6958875  )
        12           O1  tau(  12) = (   5.3165545   1.4905306  12.6890028  )
        13           Ti1 tau(  13) = (   0.0319163   2.9634337  12.5060949  )
        14           Ti1 tau(  14) = (   3.3348194   1.4676286  12.5406051  )
        15           O1  tau(  15) = (   6.5718004   5.8756060  14.7032446  )
        16           O1  tau(  16) = (   3.3285255   5.9545307  14.0046557  )
        17           O1  tau(  17) = (   4.5620449   1.5282301  16.1894795  )
        18           O1  tau(  18) = (   2.0507131   1.5111456  16.1254446  )
        19           Ti1 tau(  19) = (   3.3090684   3.0029381  15.7706148  )
        20           Ti1 tau(  20) = (   0.0350077   1.2886257  15.8758580  )
        21           O1  tau(  21) = (   3.2904802   0.0005063   4.7018136  )
        22           O1  tau(  22) = (   0.0240991   0.1326893  17.2553962  )
        23           O1  tau(  23) = (   1.3043587   1.4918075   6.0039043  )
        24           O1  tau(  24) = (   5.2767064   1.4903225   6.0039473  )
        25           Ti1 tau(  25) = (   0.0000382   5.9609847   6.0000000  )
        26           Ti1 tau(  26) = (   3.2902200   4.4714249   6.0002472  )
        27           O1  tau(  27) = (   0.0002396   2.9813036   7.9858123  )
        28           O1  tau(  28) = (   3.2902150   2.9813002   7.3038282  )
        29           O1  tau(  29) = (   4.5938453   4.4726049   9.2879030  )
        30           O1  tau(  30) = (   1.9864658   4.4711199   9.2879459  )
        31           Ti1 tau(  31) = (   3.2891106   5.8743827   9.1763621  )
        32           Ti1 tau(  32) = (   0.0006254   4.4649316   9.2693709  )
        33           O1  tau(  33) = (   3.3073171   2.9646269  11.3784001  )
        34           O1  tau(  34) = (   0.0092240   2.9805883  10.6323155  )
        35           O1  tau(  35) = (   1.3112202   4.4579144  12.6624112  )
        36           O1  tau(  36) = (   5.3138049   4.4530836  12.6532163  )
        37           Ti1 tau(  37) = (   0.0383750   5.9352221  12.5084026  )
        38           Ti1 tau(  38) = (   3.3346062   4.4465110  12.5317211  )
        39           O1  tau(  39) = (   0.0124192   3.0170750  14.9941726  )
        40           O1  tau(  40) = (   3.3221393   2.9969786  13.9787254  )
        41           O1  tau(  41) = (   4.5445774   4.4782521  16.2319081  )
        42           O1  tau(  42) = (   2.0501905   4.4790704  16.2078326  )
        43           Ti1 tau(  43) = (   3.3285819   0.0194352  15.8051934  )
        44           Ti1 tau(  44) = (   0.0611752   4.5099810  16.0683830  )
        45           O1  tau(  45) = (   3.2900926   2.9813045   4.7018136  )
        46           O1  tau(  46) = (   1.3039711   4.4726057   6.0039043  )
        47           O1  tau(  47) = (   5.2763189   4.4711207   6.0039473  )
        48           N1  tau(  48) = (   6.2166669   3.4126028  18.2351681  )
        49           C1  tau(  49) = (   0.7325778   3.1430902  19.0455235  )
        50           H1  tau(  50) = (   1.1688338   2.1628109  18.9760543  )
        51           H1  tau(  51) = (   5.7007151   4.2593073  18.4945226  )
        52           H1  tau(  52) = (   5.5741914   2.6425579  18.1107425  )
        53           H1  tau(  53) = (   1.2593429   3.9788434  19.4721980  )

     number of k points=    10  Fermi-Dirac smearing, width (Ry)=  0.0073
                       cart. coord. in units 2pi/alat
        k(    1) = (   0.0000000   0.0000000   0.0000000), wk =   0.1250000
        k(    2) = (   0.0000000   0.0419351   0.0000000), wk =   0.2500000
        k(    3) = (   0.0000000  -0.0838702   0.0000000), wk =   0.1250000
        k(    4) = (   0.0379955   0.0000049   0.0000000), wk =   0.2500000
        k(    5) = (   0.0379955   0.0419400   0.0000000), wk =   0.2500000
        k(    6) = (   0.0379955  -0.0838652   0.0000000), wk =   0.2500000
        k(    7) = (   0.0379955  -0.0419301   0.0000000), wk =   0.2500000
        k(    8) = (  -0.0759910  -0.0000099   0.0000000), wk =   0.1250000
        k(    9) = (  -0.0759910   0.0419252   0.0000000), wk =   0.2500000
        k(   10) = (  -0.0759910  -0.0838800   0.0000000), wk =   0.1250000

     Initial potential from superposition of free atoms

     starting charge  374.99916, renormalised to  391.00000

     negative rho (up, down):  1.698E-02 0.000E+00

     %%%%%%%%%%%%%%%%%%%%%%%%%%%%%%%%%%%%%%%%%%%%%%%%%%%%%%%%%%%%%%%%%%%%%%%%
     %                                                                      %
     % You are using vdW-DF, which was implemented by the Thonhauser group. %
     % Please cite the following two papers that made this development      %
     % possible and the two reviews that describe the various versions:     %
     %                                                                      %
     %   T. Thonhauser et al., PRL 115, 136402 (2015).                      %
     %   T. Thonhauser et al., PRB 76, 125112 (2007).                       %
     %   K. Berland et al., Rep. Prog. Phys. 78, 066501 (2015).             %
     %   D.C. Langreth et al., J. Phys.: Condens. Matter 21, 084203 (2009). %
     %                                                                      %
     %                                                                      %
     % If you are calculating the stress with vdW-DF, please also cite:     %
     %                                                                      %
     %   R. Sabatini et al., J. Phys.: Condens. Matter 24, 424209 (2012).   %
     %                                                                      %
     %%%%%%%%%%%%%%%%%%%%%%%%%%%%%%%%%%%%%%%%%%%%%%%%%%%%%%%%%%%%%%%%%%%%%%%%

     Adding external electric field

     Computed dipole along edir(3) :
        Dipole               -6.8871 Ry au,        -17.5052 Debye
        Dipole field         -0.0130 Ry au,

        Potential amp.        1.2048 Ry
        Total length         46.3494 bohr

     Starting wfcs are  296 atomic wfcs
  @ DRIVER MODE: Message from server: STATUS
  @ DRIVER MODE: Message from server: POSDATA
  @ DRIVER MODE: Reading and sharing cell
  @ DRIVER MODE: Reading and sharing positions
  @ DRIVER MODE: Received positions

     Self-consistent Calculation

     iteration #  1     ecut=    29.40 Ry     beta= 0.05
     Davidson diagonalization with overlap
     c_bands:  1 eigenvalues not converged
     c_bands:  2 eigenvalues not converged
     ethr =  1.00E-05,  avg # of iterations = 15.9

[...]

     total energy              =   -2713.95773456 Ry
     estimated scf accuracy    <    2276.04643917 Ry

     iteration #  2     ecut=    29.40 Ry     beta= 0.05
     Davidson diagonalization with overlap
     ethr =  1.00E-02,  avg # of iterations = 18.6

[...]

     iteration # 79     ecut=    29.40 Ry     beta= 0.05
     Davidson diagonalization with overlap
     c_bands:  1 eigenvalues not converged
     c_bands:  1 eigenvalues not converged
     c_bands:  1 eigenvalues not converged
     ethr =  3.51E-11,  avg # of iterations = 16.3

[...]

     total energy              =   -2920.25672162 Ry
     estimated scf accuracy    <       0.00000011 Ry

     iteration # 80     ecut=    29.40 Ry     beta= 0.05
     Davidson diagonalization with overlap
     ethr =  2.81E-11,  avg # of iterations =  8.9

     negative rho (up, down):  1.634E-02 0.000E+00

     Adding external electric field

     Computed dipole along edir(3) :
        Dipole                0.9048 Ry au,          2.2998 Debye
        Dipole field          0.0017 Ry au,

        Potential amp.       -0.1583 Ry
        Total length         46.3494 bohr

     End of self-consistent calculation

          k = 0.0000 0.0000 0.0000 ( 18029 PWs)   bands (ev):

   -55.7175 -55.6811 -55.6712 -55.6371 -55.6042 -55.6007 -55.5664 -55.5425
   -55.5342 -55.5081 -55.5029 -55.4693 -55.4522 -55.2889 -54.7028 -54.6687
   -32.2825 -32.1642 -32.0882 -32.0409 -32.0366 -32.0315 -32.0269 -32.0088
   -31.9601 -31.9502 -31.9299 -31.9248 -31.9161 -31.8863 -31.8714 -31.8708
   -31.8561 -31.8425 -31.8384 -31.8236 -31.8185 -31.7856 -31.7780 -31.7730
   -31.7448 -31.7361 -31.7323 -31.7282 -31.7221 -31.7152 -31.7028 -31.7010
   -31.6913 -31.6886 -31.6572 -31.6559 -31.6510 -31.6309 -31.6243 -31.6144
   -31.5082 -31.4622 -31.1123 -31.0177 -30.9957 -30.9286 -30.8418 -30.7309
   -16.6991 -16.5250 -16.2682 -16.1031 -16.0037 -15.9177 -15.7763 -15.7571
   -15.6408 -15.5640 -15.4217 -15.3861 -15.3723 -15.3552 -15.3335 -15.3212
   -15.2657 -15.2599 -15.2389 -15.2149 -15.2104 -15.1624 -15.1591 -15.1189
   -15.0957 -15.0348 -14.9635 -14.8798 -14.8078 -14.4809 -13.2054 -13.0879
    -9.5437  -6.8763  -4.9790  -3.8811  -3.7380  -3.6731  -3.6194  -3.6126
    -3.4683  -3.2972  -3.1502  -3.1304  -3.0971  -2.9871  -2.9227  -2.9083
    -2.8845  -2.7542  -2.7279  -2.6784  -2.6432  -2.5683  -2.5647  -2.5236
    -2.5099  -2.4660  -2.4598  -2.4330  -2.3018  -2.2868  -2.2496  -2.1850
    -2.1251  -2.1239  -2.0665  -2.0487  -2.0091  -2.0004  -1.9899  -1.9481
    -1.9418  -1.9069  -1.8063  -1.7423  -1.6100  -1.5761  -1.4305  -1.3597
    -1.3110  -1.2924  -1.2089  -1.1888  -1.1381  -1.0984  -1.0893  -1.0559
    -0.9426  -0.8578  -0.8062  -0.7515  -0.7195  -0.7028  -0.6136  -0.5212
    -0.4985  -0.4856  -0.4451  -0.3425  -0.3210  -0.2591  -0.1993  -0.1835
    -0.1744  -0.0799  -0.0476   0.0253   0.0747   0.0962   0.1683   0.1939
     0.2134   0.2187   0.2536   0.2652   0.3404   0.3580   0.3827   0.4695
     0.5950   0.8407   0.8907   0.9026   1.2208   1.2248   1.3200   1.5033
     1.8964   1.9447   3.3730   3.3918   3.4553   3.5243   3.5280   3.5915
     3.6151   3.8603   3.8814   3.8888   3.9054

[...]

          k = 0.0380-0.0419 0.0000 ( 17876 PWs)   bands (ev):

[...]

          k =-0.0760-0.0000 0.0000 ( 17886 PWs)   bands (ev):

[...]

          k =-0.0760-0.0839 0.0000 ( 17948 PWs)   bands (ev):

   -55.7023 -55.6961 -55.6544 -55.6537 -55.5997 -55.5842 -55.5829 -55.5385
   -55.5269 -55.5232 -55.4864 -55.4859 -55.4501 -55.2909 -54.6859 -54.6855
   -32.0893 -32.0846 -31.9933 -31.9795 -31.9790 -31.9751 -31.9509 -31.9456
   -31.9453 -31.9290 -31.9225 -31.9136 -31.9084 -31.8678 -31.8644 -31.8591
   -31.8551 -31.8505 -31.8451 -31.8418 -31.8256 -31.8057 -31.7976 -31.7968
   -31.7792 -31.7746 -31.7739 -31.7733 -31.7597 -31.7560 -31.7397 -31.7367
   -31.7359 -31.7233 -31.7189 -31.7163 -31.6718 -31.6667 -31.6661 -31.6307
   -31.5535 -31.5104 -31.0086 -31.0081 -30.9249 -30.9245 -30.8854 -30.8851
   -16.6694 -16.0089 -15.9421 -15.9040 -15.7557 -15.7147 -15.6800 -15.6685
   -15.5452 -15.5139 -15.4926 -15.4720 -15.4366 -15.4221 -15.4155 -15.3642
   -15.3368 -15.3166 -15.3123 -15.2983 -15.2359 -15.2295 -15.2247 -15.2174
   -15.1698 -15.1662 -15.0749 -15.0720 -15.0499 -14.7683 -13.1893 -13.1893
    -9.5459  -6.8578  -4.9583  -3.2122  -3.1951  -3.1584  -3.1320  -2.9761
    -2.9157  -2.8993  -2.8695  -2.7986  -2.7459  -2.7293  -2.6859  -2.6816
    -2.6276  -2.5951  -2.5699  -2.5558  -2.5500  -2.5356  -2.5142  -2.4779
    -2.4491  -2.4477  -2.4383  -2.3932  -2.3665  -2.3559  -2.3179  -2.3119
    -2.3040  -2.2762  -2.2139  -2.1127  -2.0829  -2.0555  -1.9599  -1.9270
    -1.9219  -1.8422  -1.8091  -1.7542  -1.7476  -1.7403  -1.5752  -1.5030
    -1.4660  -1.4630  -1.4410  -1.3134  -1.2989  -1.2206  -1.1965  -1.1845
    -1.1009  -1.0756  -1.0320  -1.0054  -0.9283  -0.8996  -0.8376  -0.7506
    -0.7128  -0.7051  -0.6757  -0.6719  -0.6228  -0.6117  -0.5267  -0.4880
    -0.4530  -0.4426  -0.3948  -0.2099  -0.1927  -0.1629  -0.0236   0.0254
     0.1517   0.1750   0.2358   0.3101   0.3500   0.3946   0.4311   0.5761
     0.5860   0.6161   0.6635   0.6746   0.7329   0.7417   1.6763   1.6768
     1.7646   1.7648   3.3883   3.6342   3.6365   3.6718   3.6950   3.8494
     3.8947   3.9376   3.9614   3.9754   4.0310

     the Fermi energy is     3.4417 ev

!    total energy              =   -2920.25672944 Ry
     estimated scf accuracy    <       0.00000007 Ry
     smearing contrib. (-TS)   =      -0.04248839 Ry
     internal energy E=F+TS    =   -2920.21424105 Ry

     The total energy is F=E-TS. E is the sum of the following terms:
     one-electron contribution =  -24059.34394964 Ry
     hartree contribution      =   12115.88973887 Ry
     xc contribution           =    -480.85902589 Ry
     ewald contribution        =    9504.09745062 Ry
     electric field correction =       0.00154497 Ry

     convergence has been achieved in  80 iterations

     Forces acting on atoms (cartesian axes, Ry/au):

     atom    1 type  1   force =    -0.00001454   -0.00018125    0.09319894
     atom    2 type  1   force =    -0.00011143   -0.00034026   -0.17840032
     atom    3 type  2   force =     0.00009054   -0.00038907   -0.02007656
     atom    4 type  2   force =     0.00004614   -0.00200090    0.05911032
     atom    5 type  2   force =    -0.01019896   -0.00081915    0.00743140
     atom    6 type  2   force =     0.01220772   -0.00042933    0.00774471
     atom    7 type  1   force =     0.00015107    0.00228867   -0.01368225
     atom    8 type  1   force =    -0.00034975   -0.00183459   -0.00452534
     atom    9 type  2   force =    -0.00034083    0.00036629   -0.00022422
     atom   10 type  2   force =    -0.00027076    0.00142025    0.00224256
     atom   11 type  2   force =    -0.00012324    0.00010770   -0.00008865
     atom   12 type  2   force =    -0.00028159   -0.00022664   -0.00060385
     atom   13 type  1   force =    -0.00048745    0.00091716   -0.00027790
     atom   14 type  1   force =    -0.00069699    0.00043696   -0.00048188
     atom   15 type  2   force =     0.00000858   -0.00036696    0.00022715
     atom   16 type  2   force =    -0.00041065   -0.00009972    0.00005183
     atom   17 type  2   force =    -0.00008974   -0.00031773   -0.00044171
     atom   18 type  2   force =    -0.00038382   -0.00017230    0.00049472
     atom   19 type  1   force =    -0.00062929   -0.00012551   -0.00008385
     atom   20 type  1   force =    -0.00010323    0.00019592   -0.00032845
     atom   21 type  2   force =     0.00002337   -0.00005746    0.10400714
     atom   22 type  2   force =    -0.00059329   -0.00059540    0.00027760
     atom   23 type  2   force =    -0.07036965   -0.00013681   -0.02687478
     atom   24 type  2   force =     0.07024759    0.00030331   -0.02695888
     atom   25 type  1   force =     0.00003447   -0.00015729    0.09258157
     atom   26 type  1   force =    -0.00015339   -0.00046461   -0.17847241
     atom   27 type  2   force =     0.00015846   -0.00028046   -0.01917210
     atom   28 type  2   force =     0.00005757   -0.00176253    0.05849564
     atom   29 type  2   force =    -0.01068960   -0.00129195    0.00789710
     atom   30 type  2   force =     0.01256587   -0.00082272    0.00816186
     atom   31 type  1   force =     0.00028255    0.00599099   -0.01441813
     atom   32 type  1   force =    -0.00036969    0.00121355   -0.00499213
     atom   33 type  2   force =    -0.00004694   -0.00045383   -0.00007841
     atom   34 type  2   force =     0.00078266   -0.00258737    0.00064014
     atom   35 type  2   force =    -0.00059705   -0.00027899   -0.00010957
     atom   36 type  2   force =     0.00058749    0.00005906    0.00005894
     atom   37 type  1   force =    -0.00046625   -0.00043994   -0.00000106
     atom   38 type  1   force =    -0.00026495    0.00035498   -0.00087399
     atom   39 type  2   force =    -0.00058593    0.00039058   -0.00018840
     atom   40 type  2   force =    -0.00014861   -0.00035994   -0.00054123
     atom   41 type  2   force =    -0.00087519    0.00005487    0.00016318
     atom   42 type  2   force =    -0.00005321   -0.00015495    0.00035320
     atom   43 type  1   force =     0.00050961    0.00003198   -0.00053328
     atom   44 type  1   force =     0.00046112    0.00058290   -0.00041419
     atom   45 type  2   force =     0.00003740   -0.00007675    0.10396002
     atom   46 type  2   force =    -0.07032704   -0.00009858   -0.02685375
     atom   47 type  2   force =     0.07022871    0.00034266   -0.02690752
     atom   48 type  3   force =    -0.00106363    0.02711076    0.00427841
     atom   49 type  4   force =     0.00087783   -0.00295185    0.00110011
     atom   50 type  5   force =     0.00148525   -0.00090296    0.00056434
     atom   51 type  5   force =     0.00712625   -0.01164261   -0.00444663
     atom   52 type  5   force =    -0.00669697   -0.00973182   -0.00076222
     atom   53 type  5   force =    -0.00017660    0.00038362   -0.00122721

     Total force =     0.367854     Total SCF correction =     0.000584
  @ DRIVER MODE: Message from server: STATUS
  @ DRIVER MODE: Message from server: GETFORCE
  @ DRIVER MODE: Returning v,forces,stress,ensemble

     Writing output data file ./calc.save/
  @ DRIVER MODE: Message from server: EXIT
  @ DRIVE MODE: Exiting

     General routines

     Parallel routines

   This run was terminated on:  15: 0:27  23Aug2021

   JOB DONE.