     Program PWSCF v.6.7GPU starts on 23Sep2021 at  3:19:27

     R & G space division:  proc/nbgrp/npool/nimage =      10
     Reading input from /storage/home/hcoda1/3/ntian30/research/carbon/CxH_vib/H2O_calc/ads_slab/CH2NHNHO_a/out_0034/pw.inp
Warning: card &CELL ignored
Warning: card   CELL_DYNAMICS='IPI', ignored
Warning: card / ignored

     Current dimensions of program PWSCF are:
     Max number of different atomic species (ntypx) = 10
     Max number of k-points (npk) =  40000
     Max angular momentum in pseudopotentials (lmaxx) =  3
     Presently no symmetry can be used with electric field

     Message from routine cell_base_init:
     DEPRECATED: use true lattice parameter, not A to a.u. conversion factor

     IMPORTANT: XC functional enforced from input :
     Exchange-correlation= BEEF-VDW
                           (   1   4  43  14   2   0   0)
     Any further DFT definition will be discarded
     Please, verify this is what you really want

  @ DRIVER MODE: Connecting to
 qe_1139763_2937322.sched-torque.pace.gatech.eduhmnclptq_scratch
  using UNIX socket
  @ DRIVER MODE: Message from server: STATUS
  @ DRIVER MODE: Message from server: INIT
  @ DRIVER MODE: Receiving replica           0          -1
  @ DRIVER MODE: Receiving encoded integer          25
  @ DRIVER MODE:  SCF:  T  FORCE:  T  STRESS:  F  VC:  F  ENSEMBLE:  F
  @ DRIVER MODE:  SCF:  T  FORCE:  T  STRESS:  F  VC:  F  ENSEMBLE:  F

     Using Slab Decomposition

     bravais-lattice index     =            0
     lattice parameter (alat)  =       1.8897  a.u.
     unit-cell volume          =    6658.9804 (a.u.)^3
     number of atoms/cell      =           55
     number of atomic types    =            5
     number of electrons       =       402.00
     number of Kohn-Sham states=          211
     kinetic-energy cutoff     =      29.3995  Ry
     charge density cutoff     =     293.9946  Ry
     scf convergence threshold =      7.3E-08
     mixing beta               =       0.0500
     number of iterations used =            8  plain     mixing
     Exchange-correlation= BEEF-VDW
                           (   1   4  43  14   2   0   0)

     celldm(1)=   1.889726  celldm(2)=   0.000000  celldm(3)=   0.000000
     celldm(4)=   0.000000  celldm(5)=   0.000000  celldm(6)=   0.000000

     crystal axes: (cart. coord. in units of alat)
               a(1) = (   6.579727   0.000000   0.000000 )
               a(2) = (  -0.000775   5.961596   0.000000 )
               a(3) = (   0.000000   0.000000  25.155947 )

     reciprocal axes: (cart. coord. in units 2 pi/alat)
               b(1) = (  0.151982  0.000020  0.000000 )
               b(2) = (  0.000000  0.167740  0.000000 )
               b(3) = (  0.000000  0.000000  0.039752 )

     PseudoPot. # 1 for Ti read from file:
     /storage/coda1/p-amedford6/0/shared/rich_project_chbe-medford/medford-share/data/pseudos_module/espresso/nninc/pbe/van/Ti.UPF
     MD5 check sum: 8e4df49b7f0d34bbd5052bf3f5ea0213
     Pseudo is Ultrasoft, Zval = 12.0
     Generated by new atomic code, or converted to UPF format
     Using radial grid of  851 points,  6 beta functions with:
                l(1) =   0
                l(2) =   0
                l(3) =   1
                l(4) =   1
                l(5) =   2
                l(6) =   2
     Q(r) pseudized with  8 coefficients,  rinner =    1.000   1.000   1.000
                                                       1.000   1.000

     PseudoPot. # 2 for O  read from file:
     /storage/coda1/p-amedford6/0/shared/rich_project_chbe-medford/medford-share/data/pseudos_module/espresso/nninc/pbe/van/O.UPF
     MD5 check sum: 78c19812648e8988a0fe644b0f25305e
     Pseudo is Ultrasoft, Zval =  6.0
     Generated by new atomic code, or converted to UPF format
     Using radial grid of  737 points,  4 beta functions with:
                l(1) =   0
                l(2) =   0
                l(3) =   1
                l(4) =   1
     Q(r) pseudized with  8 coefficients,  rinner =    0.800   0.800   0.800

     PseudoPot. # 3 for N  read from file:
     /storage/coda1/p-amedford6/0/shared/rich_project_chbe-medford/medford-share/data/pseudos_module/espresso/nninc/pbe/van/N.UPF
     MD5 check sum: 90d10febe142ad51ac9d5be1deb811c4
     Pseudo is Ultrasoft, Zval =  5.0
     Generated by new atomic code, or converted to UPF format
     Using radial grid of  729 points,  4 beta functions with:
                l(1) =   0
                l(2) =   0
                l(3) =   1
                l(4) =   1
     Q(r) pseudized with  8 coefficients,  rinner =    0.800   0.800   0.800

     PseudoPot. # 4 for C  read from file:
     /storage/coda1/p-amedford6/0/shared/rich_project_chbe-medford/medford-share/data/pseudos_module/espresso/nninc/pbe/van/C.UPF
     MD5 check sum: 1a69bf6b8db32088f5b2163dbdb77a27
     Pseudo is Ultrasoft, Zval =  4.0
     Generated by new atomic code, or converted to UPF format
     Using radial grid of  721 points,  4 beta functions with:
                l(1) =   0
                l(2) =   0
                l(3) =   1
                l(4) =   1
     Q(r) pseudized with  8 coefficients,  rinner =    0.800   0.800   0.800

     PseudoPot. # 5 for H  read from file:
     /storage/coda1/p-amedford6/0/shared/rich_project_chbe-medford/medford-share/data/pseudos_module/espresso/nninc/pbe/van/H.UPF
     MD5 check sum: b5ee9d7bfd3a09ee7748110bda690ff7
     Pseudo is Ultrasoft, Zval =  1.0
     Generated by new atomic code, or converted to UPF format
     Using radial grid of  615 points,  1 beta functions with:
                l(1) =   0
     Q(r) pseudized with  8 coefficients,  rinner =    0.800

     atomic species   valence    mass     pseudopotential
        Ti1           12.00    47.86700     Ti( 1.00)
        O1             6.00    15.99900     O ( 1.00)
        N1             5.00    14.00700     N ( 1.00)
        C1             4.00    12.01100     C ( 1.00)
        H1             1.00     1.00800     H ( 1.00)

     No symmetry found

   Cartesian axes

     site n.     atom                  positions (alat units)
         1           Ti1 tau(   1) = (   0.0004258   2.9801865   6.0000000  )
         2           Ti1 tau(   2) = (   3.2906075   1.4906267   6.0002472  )
         3           O1  tau(   3) = (   0.0006271   0.0005054   7.9858123  )
         4           O1  tau(   4) = (   3.2906025   0.0005020   7.3038282  )
         5           O1  tau(   5) = (   4.5942328   1.4918067   9.2879030  )
         6           O1  tau(   6) = (   1.9868534   1.4903216   9.2879459  )
         7           Ti1 tau(   7) = (   3.2907910   2.8959150   9.1758416  )
         8           Ti1 tau(   8) = (   0.0015273   1.4827037   9.2680791  )
         9           O1  tau(   9) = (   3.2865774   0.0244666  11.2672233  )
        10           O1  tau(  10) = (   0.0116148   5.9584955  10.6183126  )
        11           O1  tau(  11) = (   1.2851059   1.4881214  12.6284388  )
        12           O1  tau(  12) = (   5.2821296   1.4859116  12.6239949  )
        13           Ti1 tau(  13) = (   6.5757640   3.1226837  12.6583379  )
        14           Ti1 tau(  14) = (   3.2808560   1.5553189  12.4169499  )
        15           O1  tau(  15) = (   6.5631415   0.0020138  14.6662933  )
        16           O1  tau(  16) = (   3.2768600   5.9282172  13.8639556  )
        17           O1  tau(  17) = (   4.5247100   1.5609280  15.9911388  )
        18           O1  tau(  18) = (   2.0319249   1.5505618  16.0334288  )
        19           Ti1 tau(  19) = (   3.2655126   3.0139642  15.6417618  )
        20           Ti1 tau(  20) = (   6.4701730   1.5779936  15.7979382  )
        21           O1  tau(  21) = (   3.2904802   0.0005063   4.7018136  )
        22           O1  tau(  22) = (   6.5470303   0.0764028  17.2486596  )
        23           O1  tau(  23) = (   1.3043587   1.4918075   6.0039043  )
        24           O1  tau(  24) = (   5.2767064   1.4903225   6.0039473  )
        25           Ti1 tau(  25) = (   0.0000382   5.9609847   6.0000000  )
        26           Ti1 tau(  26) = (   3.2902200   4.4714249   6.0002472  )
        27           O1  tau(  27) = (   0.0002396   2.9813036   7.9858123  )
        28           O1  tau(  28) = (   3.2902150   2.9813002   7.3038282  )
        29           O1  tau(  29) = (   4.5938453   4.4726049   9.2879030  )
        30           O1  tau(  30) = (   1.9864658   4.4711199   9.2879459  )
        31           Ti1 tau(  31) = (   3.2891106   5.8743827   9.1763621  )
        32           Ti1 tau(  32) = (   0.0006254   4.4649316   9.2693709  )
        33           O1  tau(  33) = (   3.2856154   2.9374191  11.2445503  )
        34           O1  tau(  34) = (   0.0092240   2.9805883  10.6323155  )
        35           O1  tau(  35) = (   1.2776263   4.4762221  12.6158080  )
        36           O1  tau(  36) = (   5.2889682   4.4773653  12.6103441  )
        37           Ti1 tau(  37) = (   6.5721904   0.1276321  12.6579576  )
        38           Ti1 tau(  38) = (   3.2825792   4.6513186  12.6446142  )
        39           O1  tau(  39) = (   6.5601178   2.9984380  14.6401328  )
        40           O1  tau(  40) = (   3.2784952   3.0022753  13.8540846  )
        41           O1  tau(  41) = (   4.5130724   4.4679886  16.1105769  )
        42           O1  tau(  42) = (   2.0068779   4.4712703  16.0772645  )
        43           Ti1 tau(  43) = (   3.1879138   0.0422448  16.2953621  )
        44           Ti1 tau(  44) = (   6.5239028   4.6756254  16.1574449  )
        45           O1  tau(  45) = (   3.2900926   2.9813045   4.7018136  )
        46           O1  tau(  46) = (   1.3039711   4.4726057   6.0039043  )
        47           O1  tau(  47) = (   5.2763189   4.4711207   6.0039473  )
        48           N1  tau(  48) = (   0.1470516   2.5879757  18.5611170  )
        49           N1  tau(  49) = (   6.5778558   2.9357776  17.3215245  )
        50           C1  tau(  50) = (   0.2601206   3.3452726  19.6311682  )
        51           H1  tau(  51) = (   0.3627438   2.8498571  20.5812141  )
        52           H1  tau(  52) = (   0.2464683   4.4174571  19.5160682  )
        53           H1  tau(  53) = (   0.1772712   1.5712145  18.6921905  )
        54           O1  tau(  54) = (   3.2326362   0.0923429  18.1472848  )
        55           H1  tau(  55) = (   3.6209404   5.2806276  18.5811828  )

     number of k points=    10  Fermi-Dirac smearing, width (Ry)=  0.0073
                       cart. coord. in units 2pi/alat
        k(    1) = (   0.0000000   0.0000000   0.0000000), wk =   0.1250000
        k(    2) = (   0.0000000   0.0419351   0.0000000), wk =   0.2500000
        k(    3) = (   0.0000000  -0.0838702   0.0000000), wk =   0.1250000
        k(    4) = (   0.0379955   0.0000049   0.0000000), wk =   0.2500000
        k(    5) = (   0.0379955   0.0419400   0.0000000), wk =   0.2500000
        k(    6) = (   0.0379955  -0.0838652   0.0000000), wk =   0.2500000
        k(    7) = (   0.0379955  -0.0419301   0.0000000), wk =   0.2500000
        k(    8) = (  -0.0759910  -0.0000099   0.0000000), wk =   0.1250000
        k(    9) = (  -0.0759910   0.0419252   0.0000000), wk =   0.2500000
        k(   10) = (  -0.0759910  -0.0838800   0.0000000), wk =   0.1250000

     Initial potential from superposition of free atoms

     starting charge  385.99915, renormalised to  402.00000

     negative rho (up, down):  1.462E-02 0.000E+00

     %%%%%%%%%%%%%%%%%%%%%%%%%%%%%%%%%%%%%%%%%%%%%%%%%%%%%%%%%%%%%%%%%%%%%%%%
     %                                                                      %
     % You are using vdW-DF, which was implemented by the Thonhauser group. %
     % Please cite the following two papers that made this development      %
     % possible and the two reviews that describe the various versions:     %
     %                                                                      %
     %   T. Thonhauser et al., PRL 115, 136402 (2015).                      %
     %   T. Thonhauser et al., PRB 76, 125112 (2007).                       %
     %   K. Berland et al., Rep. Prog. Phys. 78, 066501 (2015).             %
     %   D.C. Langreth et al., J. Phys.: Condens. Matter 21, 084203 (2009). %
     %                                                                      %
     %                                                                      %
     % If you are calculating the stress with vdW-DF, please also cite:     %
     %                                                                      %
     %   R. Sabatini et al., J. Phys.: Condens. Matter 24, 424209 (2012).   %
     %                                                                      %
     %%%%%%%%%%%%%%%%%%%%%%%%%%%%%%%%%%%%%%%%%%%%%%%%%%%%%%%%%%%%%%%%%%%%%%%%

     Adding external electric field

     Computed dipole along edir(3) :
        Dipole              -11.6290 Ry au,        -29.5581 Debye
        Dipole field         -0.0219 Ry au,

        Potential amp.        2.0343 Ry
        Total length         46.3494 bohr

     Starting wfcs are  304 atomic wfcs
  @ DRIVER MODE: Message from server: STATUS
  @ DRIVER MODE: Message from server: POSDATA
  @ DRIVER MODE: Reading and sharing cell
  @ DRIVER MODE: Reading and sharing positions
  @ DRIVER MODE: Received positions

     Self-consistent Calculation

     iteration #  1     ecut=    29.40 Ry     beta= 0.05
     Davidson diagonalization with overlap
     c_bands:  3 eigenvalues not converged
     c_bands:  2 eigenvalues not converged
     c_bands:  3 eigenvalues not converged
     c_bands:  4 eigenvalues not converged
     c_bands:  1 eigenvalues not converged
     c_bands:  4 eigenvalues not converged
     c_bands:  5 eigenvalues not converged
     c_bands:  5 eigenvalues not converged
     c_bands:  5 eigenvalues not converged
     ethr =  1.00E-05,  avg # of iterations = 23.9

[...]

     total energy              =   -2412.14261491 Ry
     estimated scf accuracy    <    6293.13978284 Ry

     iteration #  2     ecut=    29.40 Ry     beta= 0.05
     Davidson diagonalization with overlap
     ethr =  1.00E-02,  avg # of iterations = 23.8

[...]

     iteration # 46     ecut=    29.40 Ry     beta= 0.05
     Davidson diagonalization with overlap
     c_bands:  1 eigenvalues not converged
     ethr =  9.10E-08,  avg # of iterations =  7.4

[...]

     total energy              =   -2972.74098157 Ry
     estimated scf accuracy    <       0.00000015 Ry

     iteration # 64     ecut=    29.40 Ry     beta= 0.05
     Davidson diagonalization with overlap
     ethr =  3.71E-11,  avg # of iterations =  5.0

     negative rho (up, down):  1.521E-02 0.000E+00

     Adding external electric field

     Computed dipole along edir(3) :
        Dipole                0.6675 Ry au,          1.6965 Debye
        Dipole field          0.0013 Ry au,

        Potential amp.       -0.1168 Ry
        Total length         46.3494 bohr

     End of self-consistent calculation

          k = 0.0000 0.0000 0.0000 ( 18029 PWs)   bands (ev):

   -56.4998 -56.4662 -55.6999 -55.6658 -55.4407 -55.3844 -55.1382 -55.1064
   -55.0876 -55.0537 -55.0331 -54.9821 -54.9782 -54.7858 -54.7528 -54.6385
   -32.9234 -32.7774 -32.7493 -32.6737 -32.5830 -32.5499 -32.1832 -31.9218
   -31.9211 -31.8912 -31.8399 -31.8353 -31.8157 -31.6699 -31.6618 -31.6147
   -31.5907 -31.5869 -31.5450 -31.5124 -31.4741 -31.4597 -31.4326 -31.4082
   -31.3719 -31.3706 -31.3670 -31.3560 -31.3041 -31.2944 -31.2707 -31.2484
   -31.2299 -31.2138 -31.2127 -31.2011 -31.1822 -31.1711 -31.1560 -31.1010
   -31.0457 -31.0252 -30.9961 -30.9839 -30.9681 -30.9157 -30.8537 -30.8296
   -18.6703 -16.6344 -16.1275 -16.0782 -15.8370 -15.7744 -15.7187 -15.7147
   -15.6687 -15.4281 -15.3900 -15.3567 -15.3132 -15.2162 -15.0861 -14.9894
   -14.7970 -14.7435 -14.7412 -14.7117 -14.6865 -14.6542 -14.6289 -14.5975
   -14.5930 -14.5601 -14.5043 -14.3331 -14.2675 -14.0560 -14.0418 -13.5856
   -13.4777 -12.4176  -8.6193  -6.0137  -4.5894  -4.2005  -3.6413  -3.6070
    -3.4295  -3.3493  -3.2488  -3.1668  -3.0750  -3.0411  -2.9616  -2.9217
    -2.9052  -2.8400  -2.8167  -2.6543  -2.6277  -2.6090  -2.5203  -2.4921
    -2.3297  -2.3051  -2.2232  -2.1501  -2.1297  -2.0728  -2.0602  -1.9996
    -1.9480  -1.9306  -1.8646  -1.8586  -1.8434  -1.7304  -1.7161  -1.6794
    -1.6314  -1.5709  -1.5600  -1.5062  -1.4218  -1.4082  -1.2750  -1.1917
    -1.1473  -1.1412  -1.1063  -1.0635  -1.0149  -0.8827  -0.8722  -0.7621
    -0.7423  -0.7404  -0.6726  -0.5761  -0.5547  -0.5222  -0.4467  -0.4103
    -0.3672  -0.3155  -0.2621  -0.1401  -0.1324  -0.1157  -0.0714  -0.0294
    -0.0142   0.0616   0.1518   0.1672   0.2738   0.2904   0.3380   0.4313
     0.5122   0.5224   0.5416   0.6033   0.6455   0.6802   0.7547   0.7735
     0.8149   0.8266   0.8756   0.9338   0.9612   1.0630   1.1094   1.1289
     1.1629   1.2100   1.2892   1.3729   1.4686   1.5103   1.5410   1.8125
     2.3271   2.7829   2.9456   3.2232   3.3349   3.6459   3.7702   3.7711
     3.7816   3.9855   4.1344

[...]

          k = 0.0380-0.0419 0.0000 ( 17876 PWs)   bands (ev):

[...]

          k =-0.0760-0.0000 0.0000 ( 17886 PWs)   bands (ev):

[...]

          k =-0.0760-0.0839 0.0000 ( 17948 PWs)   bands (ev):

   -56.4832 -56.4827 -55.6858 -55.6797 -55.4350 -55.3900 -55.1370 -55.1020
   -55.0708 -55.0704 -55.0373 -54.9812 -54.9788 -54.7872 -54.7506 -54.6405
   -32.7633 -32.7628 -32.7407 -32.7401 -32.6272 -32.6266 -32.0057 -32.0009
   -31.8806 -31.8751 -31.8701 -31.8602 -31.7422 -31.7074 -31.6632 -31.6563
   -31.6163 -31.6125 -31.4435 -31.4343 -31.4213 -31.4211 -31.3816 -31.3763
   -31.3609 -31.3528 -31.3399 -31.3207 -31.2991 -31.2925 -31.2918 -31.2736
   -31.2540 -31.2540 -31.2529 -31.2385 -31.2203 -31.1859 -31.1779 -31.1471
   -31.1332 -31.0496 -31.0033 -31.0001 -30.9850 -30.9468 -30.8683 -30.8557
   -18.6666 -16.0687 -16.0034 -16.0007 -15.9405 -15.9387 -15.7059 -15.7020
   -15.4659 -15.4377 -15.2792 -15.1862 -15.1683 -15.1065 -15.0684 -15.0158
   -14.9617 -14.9327 -14.8220 -14.7843 -14.7531 -14.7155 -14.6886 -14.6687
   -14.6085 -14.5721 -14.5476 -14.4488 -14.4257 -14.1904 -14.1778 -13.5819
   -13.5816 -12.4225  -8.6215  -6.0087  -4.5466  -3.6637  -3.3403  -3.0707
    -3.0666  -3.0609  -3.0559  -3.0204  -2.8166  -2.8131  -2.6596  -2.6262
    -2.6144  -2.5891  -2.5581  -2.4544  -2.3781  -2.3614  -2.3597  -2.3557
    -2.3066  -2.2984  -2.2470  -2.1682  -2.1057  -2.0970  -2.0630  -2.0014
    -1.9419  -1.8939  -1.8895  -1.8516  -1.8286  -1.7972  -1.7781  -1.7563
    -1.7112  -1.6280  -1.5039  -1.4284  -1.3969  -1.3799  -1.3415  -1.2945
    -1.2820  -1.2697  -1.2180  -1.2032  -1.1391  -1.1094  -1.0686  -0.9718
    -0.9126  -0.8811  -0.8568  -0.7520  -0.7128  -0.6384  -0.5933  -0.5588
    -0.5229  -0.4998  -0.4382  -0.4260  -0.3448  -0.2769  -0.2500  -0.1942
    -0.1805  -0.1683  -0.1511  -0.1057  -0.0001   0.0152   0.0484   0.1472
     0.2109   0.2832   0.3011   0.3932   0.4215   0.4926   0.6080   0.6462
     0.7149   0.7801   0.8537   0.9386   0.9863   1.0316   1.1385   1.2226
     1.2372   1.2849   1.3117   1.3164   1.3177   1.3707   1.3909   1.5200
     2.1633   3.3665   3.3682   3.4249   3.4296   3.7294   3.7347   3.8407
     3.8442   4.0946   4.1158

     the Fermi energy is     2.5938 ev

!    total energy              =   -2972.74104159 Ry
     estimated scf accuracy    <       0.00000007 Ry
     smearing contrib. (-TS)   =      -0.00418416 Ry
     internal energy E=F+TS    =   -2972.73685742 Ry

     The total energy is F=E-TS. E is the sum of the following terms:
     one-electron contribution =  -23700.11710550 Ry
     hartree contribution      =   11945.36884890 Ry
     xc contribution           =    -493.13012027 Ry
     ewald contribution        =    9275.14067873 Ry
     electric field correction =       0.00084071 Ry

     convergence has been achieved in  64 iterations

     Forces acting on atoms (cartesian axes, Ry/au):

     atom    1 type  1   force =     0.00016300   -0.00043039    0.12204863
     atom    2 type  1   force =    -0.00004030    0.00028450   -0.15635945
     atom    3 type  2   force =     0.00004805   -0.00048265   -0.06056054
     atom    4 type  2   force =     0.00005036    0.00071555    0.01971579
     atom    5 type  2   force =    -0.00084929   -0.00260253   -0.01520119
     atom    6 type  2   force =     0.00220043   -0.00198516   -0.01655994
     atom    7 type  1   force =    -0.00030151   -0.00091034    0.05415755
     atom    8 type  1   force =     0.00082044    0.00107668    0.09010019
     atom    9 type  2   force =    -0.00035978   -0.00026787    0.00004966
     atom   10 type  2   force =    -0.00296134    0.00316538   -0.05932863
     atom   11 type  2   force =    -0.00024169    0.00019165    0.00004176
     atom   12 type  2   force =    -0.00024452    0.00014298   -0.00038885
     atom   13 type  1   force =    -0.00052330    0.00040048    0.00039844
     atom   14 type  1   force =     0.00005992    0.00141072   -0.00107375
     atom   15 type  2   force =    -0.00000894   -0.00061879   -0.00156920
     atom   16 type  2   force =     0.00011473    0.00069525    0.00049906
     atom   17 type  2   force =    -0.00084294   -0.00041143   -0.00010886
     atom   18 type  2   force =     0.00045151    0.00012862   -0.00031416
     atom   19 type  1   force =     0.00005882    0.00126121   -0.00015116
     atom   20 type  1   force =     0.00008281    0.00031156    0.00043140
     atom   21 type  2   force =     0.00009163   -0.00002997    0.09827247
     atom   22 type  2   force =     0.00031766   -0.00078329   -0.00011580
     atom   23 type  2   force =    -0.08162292   -0.00005081   -0.03247883
     atom   24 type  2   force =     0.08160791    0.00036679   -0.03251376
     atom   25 type  1   force =     0.00002531   -0.00029196    0.12172076
     atom   26 type  1   force =     0.00003914   -0.00155688   -0.15638504
     atom   27 type  2   force =     0.00012912    0.00020574   -0.05952865
     atom   28 type  2   force =     0.00005360    0.00039000    0.01457936
     atom   29 type  2   force =    -0.00455743    0.00218157   -0.01163954
     atom   30 type  2   force =     0.00588983    0.00262758   -0.01294683
     atom   31 type  1   force =    -0.00043557   -0.00213183    0.04016050
     atom   32 type  1   force =     0.00078591   -0.00225206    0.09112424
     atom   33 type  2   force =    -0.00012538    0.00037269    0.00006794
     atom   34 type  2   force =    -0.00234978    0.00049016   -0.06883703
     atom   35 type  2   force =    -0.00021579    0.00006457    0.00026247
     atom   36 type  2   force =     0.00059206   -0.00026315    0.00002674
     atom   37 type  1   force =    -0.00002616    0.00019314   -0.00063688
     atom   38 type  1   force =     0.00013154    0.00105170   -0.00043226
     atom   39 type  2   force =    -0.00048598   -0.00122149    0.00035995
     atom   40 type  2   force =    -0.00001658    0.00044095   -0.00014600
     atom   41 type  2   force =     0.00072987   -0.00044132   -0.00000772
     atom   42 type  2   force =    -0.00055201   -0.00071764   -0.00071248
     atom   43 type  1   force =    -0.00016489   -0.00131377    0.00006062
     atom   44 type  1   force =    -0.00011475   -0.00040696    0.00072769
     atom   45 type  2   force =     0.00009338    0.00008341    0.09807857
     atom   46 type  2   force =    -0.08157475   -0.00002544   -0.03246963
     atom   47 type  2   force =     0.08156154    0.00041152   -0.03248799
     atom   48 type  3   force =    -0.00009174    0.01327757   -0.00074185
     atom   49 type  3   force =    -0.00029774   -0.00118705   -0.00038418
     atom   50 type  4   force =     0.00034892    0.00064758    0.00009791
     atom   51 type  5   force =     0.00071011    0.00028081   -0.00061886
     atom   52 type  5   force =     0.00054731   -0.00106113   -0.00007166
     atom   53 type  5   force =     0.00041654   -0.01244029    0.00176631
     atom   54 type  2   force =    -0.00049960    0.00103378   -0.00095176
     atom   55 type  5   force =     0.00138322   -0.00001992    0.00097447

     Total force =     0.408756     Total SCF correction =     0.000504
  @ DRIVER MODE: Message from server: STATUS
  @ DRIVER MODE: Message from server: GETFORCE
  @ DRIVER MODE: Returning v,forces,stress,ensemble

     Writing output data file ./calc.save/
  @ DRIVER MODE: Message from server: EXIT
  @ DRIVE MODE: Exiting

     General routines

     Parallel routines

   This run was terminated on:   3:37: 7  23Sep2021

   JOB DONE.