     Program PWSCF v.6.7GPU starts on 24Aug2021 at 20:20:55

     R & G space division:  proc/nbgrp/npool/nimage =       6
     Reading input from /storage/home/hcoda1/3/ntian30/research/carbon/CH3_vib_end_on/ads_slab/CH3N2H_a/out_0008/pw.inp
Warning: card &CELL ignored
Warning: card   CELL_DYNAMICS='IPI', ignored
Warning: card / ignored

     Current dimensions of program PWSCF are:
     Max number of different atomic species (ntypx) = 10
     Max number of k-points (npk) =  40000
     Max angular momentum in pseudopotentials (lmaxx) =  3
     Presently no symmetry can be used with electric field

     Message from routine cell_base_init:
     DEPRECATED: use true lattice parameter, not A to a.u. conversion factor

     IMPORTANT: XC functional enforced from input :
     Exchange-correlation= BEEF-VDW
                           (   1   4  43  14   2   0   0)
     Any further DFT definition will be discarded
     Please, verify this is what you really want

  @ DRIVER MODE: Connecting to
 qe_1139763_2643869.sched-torque.pace.gatech.edum25wg6y__scratch
  using UNIX socket
  @ DRIVER MODE: Message from server: STATUS
  @ DRIVER MODE: Message from server: INIT
  @ DRIVER MODE: Receiving replica           0          -1
  @ DRIVER MODE: Receiving encoded integer          25
  @ DRIVER MODE:  SCF:  T  FORCE:  T  STRESS:  F  VC:  F  ENSEMBLE:  F
  @ DRIVER MODE:  SCF:  T  FORCE:  T  STRESS:  F  VC:  F  ENSEMBLE:  F

     Using Slab Decomposition

     bravais-lattice index     =            0
     lattice parameter (alat)  =       1.8897  a.u.
     unit-cell volume          =    6658.9804 (a.u.)^3
     number of atoms/cell      =           54
     number of atomic types    =            5
     number of electrons       =       396.00
     number of Kohn-Sham states=          208
     kinetic-energy cutoff     =      29.3995  Ry
     charge density cutoff     =     293.9946  Ry
     scf convergence threshold =      7.3E-08
     mixing beta               =       0.0500
     number of iterations used =            8  plain     mixing
     Exchange-correlation= BEEF-VDW
                           (   1   4  43  14   2   0   0)

     celldm(1)=   1.889726  celldm(2)=   0.000000  celldm(3)=   0.000000
     celldm(4)=   0.000000  celldm(5)=   0.000000  celldm(6)=   0.000000

     crystal axes: (cart. coord. in units of alat)
               a(1) = (   6.579727   0.000000   0.000000 )
               a(2) = (  -0.000775   5.961596   0.000000 )
               a(3) = (   0.000000   0.000000  25.155947 )

     reciprocal axes: (cart. coord. in units 2 pi/alat)
               b(1) = (  0.151982  0.000020  0.000000 )
               b(2) = (  0.000000  0.167740  0.000000 )
               b(3) = (  0.000000  0.000000  0.039752 )

     PseudoPot. # 1 for Ti read from file:
     /storage/coda1/p-amedford6/0/shared/rich_project_chbe-medford/medford-share/data/pseudos_module/espresso/nninc/pbe/van/Ti.UPF
     MD5 check sum: 8e4df49b7f0d34bbd5052bf3f5ea0213
     Pseudo is Ultrasoft, Zval = 12.0
     Generated by new atomic code, or converted to UPF format
     Using radial grid of  851 points,  6 beta functions with:
                l(1) =   0
                l(2) =   0
                l(3) =   1
                l(4) =   1
                l(5) =   2
                l(6) =   2
     Q(r) pseudized with  8 coefficients,  rinner =    1.000   1.000   1.000
                                                       1.000   1.000

     PseudoPot. # 2 for O  read from file:
     /storage/coda1/p-amedford6/0/shared/rich_project_chbe-medford/medford-share/data/pseudos_module/espresso/nninc/pbe/van/O.UPF
     MD5 check sum: 78c19812648e8988a0fe644b0f25305e
     Pseudo is Ultrasoft, Zval =  6.0
     Generated by new atomic code, or converted to UPF format
     Using radial grid of  737 points,  4 beta functions with:
                l(1) =   0
                l(2) =   0
                l(3) =   1
                l(4) =   1
     Q(r) pseudized with  8 coefficients,  rinner =    0.800   0.800   0.800

     PseudoPot. # 3 for N  read from file:
     /storage/coda1/p-amedford6/0/shared/rich_project_chbe-medford/medford-share/data/pseudos_module/espresso/nninc/pbe/van/N.UPF
     MD5 check sum: 90d10febe142ad51ac9d5be1deb811c4
     Pseudo is Ultrasoft, Zval =  5.0
     Generated by new atomic code, or converted to UPF format
     Using radial grid of  729 points,  4 beta functions with:
                l(1) =   0
                l(2) =   0
                l(3) =   1
                l(4) =   1
     Q(r) pseudized with  8 coefficients,  rinner =    0.800   0.800   0.800

     PseudoPot. # 4 for C  read from file:
     /storage/coda1/p-amedford6/0/shared/rich_project_chbe-medford/medford-share/data/pseudos_module/espresso/nninc/pbe/van/C.UPF
     MD5 check sum: 1a69bf6b8db32088f5b2163dbdb77a27
     Pseudo is Ultrasoft, Zval =  4.0
     Generated by new atomic code, or converted to UPF format
     Using radial grid of  721 points,  4 beta functions with:
                l(1) =   0
                l(2) =   0
                l(3) =   1
                l(4) =   1
     Q(r) pseudized with  8 coefficients,  rinner =    0.800   0.800   0.800

     PseudoPot. # 5 for H  read from file:
     /storage/coda1/p-amedford6/0/shared/rich_project_chbe-medford/medford-share/data/pseudos_module/espresso/nninc/pbe/van/H.UPF
     MD5 check sum: b5ee9d7bfd3a09ee7748110bda690ff7
     Pseudo is Ultrasoft, Zval =  1.0
     Generated by new atomic code, or converted to UPF format
     Using radial grid of  615 points,  1 beta functions with:
                l(1) =   0
     Q(r) pseudized with  8 coefficients,  rinner =    0.800

     atomic species   valence    mass     pseudopotential
        Ti1           12.00    47.86700     Ti( 1.00)
        O1             6.00    15.99900     O ( 1.00)
        N1             5.00    14.00700     N ( 1.00)
        C1             4.00    12.01100     C ( 1.00)
        H1             1.00     1.00800     H ( 1.00)

     No symmetry found

   Cartesian axes

     site n.     atom                  positions (alat units)
         1           Ti1 tau(   1) = (   0.0004258   2.9801865   6.0000000  )
         2           Ti1 tau(   2) = (   3.2906075   1.4906267   6.0002472  )
         3           O1  tau(   3) = (   0.0006271   0.0005054   7.9858123  )
         4           O1  tau(   4) = (   3.2906025   0.0005020   7.3038282  )
         5           O1  tau(   5) = (   4.5942328   1.4918067   9.2879030  )
         6           O1  tau(   6) = (   1.9868534   1.4903216   9.2879459  )
         7           Ti1 tau(   7) = (   3.2907910   2.8959150   9.1758416  )
         8           Ti1 tau(   8) = (   0.0015273   1.4827037   9.2680791  )
         9           O1  tau(   9) = (   3.2896288   0.0042867  11.3205077  )
        10           O1  tau(  10) = (   0.0116148   5.9584955  10.6183126  )
        11           O1  tau(  11) = (   1.2848067   1.4985890  12.6232755  )
        12           O1  tau(  12) = (   5.2688617   1.4893877  12.6055203  )
        13           Ti1 tau(  13) = (   0.0799559   3.0171279  12.6206390  )
        14           Ti1 tau(  14) = (   3.4009582   1.4891986  12.4726338  )
        15           O1  tau(  15) = (   6.5707323   0.0080309  14.6263129  )
        16           O1  tau(  16) = (   3.2902489   0.0120312  13.8979102  )
        17           O1  tau(  17) = (   4.5126121   1.5346005  16.0500440  )
        18           O1  tau(  18) = (   2.0453867   1.5362785  16.0447169  )
        19           Ti1 tau(  19) = (   3.2767562   3.0203775  15.6892921  )
        20           Ti1 tau(  20) = (   6.5596632   1.5778499  15.8310978  )
        21           O1  tau(  21) = (   3.2904802   0.0005063   4.7018136  )
        22           O1  tau(  22) = (   6.5709656   0.0671247  17.2345223  )
        23           O1  tau(  23) = (   1.3043587   1.4918075   6.0039043  )
        24           O1  tau(  24) = (   5.2767064   1.4903225   6.0039473  )
        25           Ti1 tau(  25) = (   0.0000382   5.9609847   6.0000000  )
        26           Ti1 tau(  26) = (   3.2902200   4.4714249   6.0002472  )
        27           O1  tau(  27) = (   0.0002396   2.9813036   7.9858123  )
        28           O1  tau(  28) = (   3.2902150   2.9813002   7.3038282  )
        29           O1  tau(  29) = (   4.5938453   4.4726049   9.2879030  )
        30           O1  tau(  30) = (   1.9864658   4.4711199   9.2879459  )
        31           Ti1 tau(  31) = (   3.2891106   5.8743827   9.1763621  )
        32           Ti1 tau(  32) = (   0.0006254   4.4649316   9.2693709  )
        33           O1  tau(  33) = (   3.2919429   2.9835650  11.3172650  )
        34           O1  tau(  34) = (   0.0092240   2.9805883  10.6323155  )
        35           O1  tau(  35) = (   1.2842535   4.4799506  12.6241420  )
        36           O1  tau(  36) = (   5.2755836   4.4732255  12.6042992  )
        37           Ti1 tau(  37) = (   0.0783641   0.0295629  12.6394962  )
        38           Ti1 tau(  38) = (   3.4022659   4.4693352  12.4708195  )
        39           O1  tau(  39) = (   6.5693815   2.9799975  14.6326336  )
        40           O1  tau(  40) = (   3.2899495   3.0014797  13.8849495  )
        41           O1  tau(  41) = (   4.5062741   4.5069571  16.0893315  )
        42           O1  tau(  42) = (   2.0480812   4.5060041  16.0753496  )
        43           Ti1 tau(  43) = (   3.2742444   0.0367023  15.7020416  )
        44           Ti1 tau(  44) = (   6.5658628   4.6518251  16.1481936  )
        45           O1  tau(  45) = (   3.2900926   2.9813045   4.7018136  )
        46           O1  tau(  46) = (   1.3039711   4.4726057   6.0039043  )
        47           O1  tau(  47) = (   5.2763189   4.4711207   6.0039473  )
        48           N1  tau(  48) = (   6.5201982   2.6597193  18.5868863  )
        49           N1  tau(  49) = (   6.5763212   2.9659568  17.3251533  )
        50           C1  tau(  50) = (   0.1092964   3.6297355  19.6533281  )
        51           H1  tau(  51) = (   6.1365678   4.5355971  19.4091500  )
        52           H1  tau(  52) = (   6.3142024   3.1981282  20.5813133  )
        53           H1  tau(  53) = (   1.1661384   3.8973747  19.7839464  )
        54           H1  tau(  54) = (   6.5756389   1.6632157  18.8047554  )

     number of k points=    10  Fermi-Dirac smearing, width (Ry)=  0.0073
                       cart. coord. in units 2pi/alat
        k(    1) = (   0.0000000   0.0000000   0.0000000), wk =   0.1250000
        k(    2) = (   0.0000000   0.0419351   0.0000000), wk =   0.2500000
        k(    3) = (   0.0000000  -0.0838702   0.0000000), wk =   0.1250000
        k(    4) = (   0.0379955   0.0000049   0.0000000), wk =   0.2500000
        k(    5) = (   0.0379955   0.0419400   0.0000000), wk =   0.2500000
        k(    6) = (   0.0379955  -0.0838652   0.0000000), wk =   0.2500000
        k(    7) = (   0.0379955  -0.0419301   0.0000000), wk =   0.2500000
        k(    8) = (  -0.0759910  -0.0000099   0.0000000), wk =   0.1250000
        k(    9) = (  -0.0759910   0.0419252   0.0000000), wk =   0.2500000
        k(   10) = (  -0.0759910  -0.0838800   0.0000000), wk =   0.1250000

     Initial potential from superposition of free atoms

     starting charge  379.99915, renormalised to  396.00000

     negative rho (up, down):  1.474E-02 0.000E+00

     %%%%%%%%%%%%%%%%%%%%%%%%%%%%%%%%%%%%%%%%%%%%%%%%%%%%%%%%%%%%%%%%%%%%%%%%
     %                                                                      %
     % You are using vdW-DF, which was implemented by the Thonhauser group. %
     % Please cite the following two papers that made this development      %
     % possible and the two reviews that describe the various versions:     %
     %                                                                      %
     %   T. Thonhauser et al., PRL 115, 136402 (2015).                      %
     %   T. Thonhauser et al., PRB 76, 125112 (2007).                       %
     %   K. Berland et al., Rep. Prog. Phys. 78, 066501 (2015).             %
     %   D.C. Langreth et al., J. Phys.: Condens. Matter 21, 084203 (2009). %
     %                                                                      %
     %                                                                      %
     % If you are calculating the stress with vdW-DF, please also cite:     %
     %                                                                      %
     %   R. Sabatini et al., J. Phys.: Condens. Matter 24, 424209 (2012).   %
     %                                                                      %
     %%%%%%%%%%%%%%%%%%%%%%%%%%%%%%%%%%%%%%%%%%%%%%%%%%%%%%%%%%%%%%%%%%%%%%%%

     Adding external electric field

     Computed dipole along edir(3) :
        Dipole               -9.2704 Ry au,        -23.5631 Debye
        Dipole field         -0.0175 Ry au,

        Potential amp.        1.6217 Ry
        Total length         46.3494 bohr

     Starting wfcs are  300 atomic wfcs
  @ DRIVER MODE: Message from server: STATUS
  @ DRIVER MODE: Message from server: POSDATA
  @ DRIVER MODE: Reading and sharing cell
  @ DRIVER MODE: Reading and sharing positions
  @ DRIVER MODE: Received positions

     Self-consistent Calculation

     iteration #  1     ecut=    29.40 Ry     beta= 0.05
     Davidson diagonalization with overlap
     c_bands:  1 eigenvalues not converged
     c_bands:  1 eigenvalues not converged
     c_bands:  1 eigenvalues not converged
     ethr =  1.00E-05,  avg # of iterations = 17.9

[...]

     total energy              =   -2585.25045621 Ry
     estimated scf accuracy    <    3947.48915693 Ry

     iteration #  2     ecut=    29.40 Ry     beta= 0.05
     Davidson diagonalization with overlap
     ethr =  1.00E-02,  avg # of iterations = 22.4

[...]

     iteration # 52     ecut=    29.40 Ry     beta= 0.05
     Davidson diagonalization with overlap
     c_bands:  1 eigenvalues not converged
     ethr =  1.15E-06,  avg # of iterations = 12.8

[...]

     total energy              =   -2940.39768034 Ry
     estimated scf accuracy    <       0.00000011 Ry

     iteration # 74     ecut=    29.40 Ry     beta= 0.05
     Davidson diagonalization with overlap
     ethr =  1.88E-11,  avg # of iterations = 11.3

     negative rho (up, down):  1.568E-02 0.000E+00

     Adding external electric field

     Computed dipole along edir(3) :
        Dipole                1.1295 Ry au,          2.8709 Debye
        Dipole field          0.0021 Ry au,

        Potential amp.       -0.1976 Ry
        Total length         46.3494 bohr

     End of self-consistent calculation

          k = 0.0000 0.0000 0.0000 ( 18029 PWs)   bands (ev):

   -55.6450 -55.6110 -55.5524 -55.5148 -55.4090 -55.3860 -55.3752 -55.3516
   -55.3436 -55.3361 -55.3178 -55.2667 -54.7259 -54.5870 -54.5578 -54.5530
   -32.1195 -32.0960 -31.9393 -31.9262 -31.8954 -31.8655 -31.8469 -31.8411
   -31.7982 -31.7806 -31.7800 -31.7418 -31.7322 -31.7144 -31.7037 -31.6927
   -31.6829 -31.6747 -31.6404 -31.6298 -31.6068 -31.5873 -31.5801 -31.5647
   -31.5529 -31.5458 -31.5392 -31.5377 -31.5324 -31.5151 -31.5052 -31.5046
   -31.4998 -31.4638 -31.4482 -31.3807 -31.2236 -30.9928 -30.9490 -30.9344
   -30.9080 -30.8950 -30.8854 -30.8096 -30.7664 -30.7374 -30.7233 -30.6123
   -17.9952 -16.2788 -16.0513 -15.7738 -15.6721 -15.6492 -15.5283 -15.3963
   -15.2960 -15.2004 -15.1607 -15.1063 -15.1012 -15.0721 -15.0422 -15.0062
   -14.9779 -14.9392 -14.9194 -14.9015 -14.8749 -14.8659 -14.7568 -14.7422
   -14.7181 -14.6271 -14.6168 -14.5425 -14.5175 -14.0860 -13.0892 -12.9735
   -12.0140  -8.9278  -5.7223  -4.4542  -4.1473  -3.6617  -3.5362  -3.5058
    -3.4043  -3.2272  -3.1398  -3.0793  -2.9485  -2.7661  -2.7310  -2.7212
    -2.7009  -2.6430  -2.4454  -2.4200  -2.3880  -2.3487  -2.3388  -2.3362
    -2.3222  -2.2603  -2.1933  -2.1296  -2.0297  -2.0258  -1.9691  -1.9562
    -1.9397  -1.9031  -1.8607  -1.8216  -1.8005  -1.7572  -1.7398  -1.7328
    -1.6904  -1.6087  -1.5065  -1.3493  -1.3288  -1.3017  -1.2531  -1.1991
    -1.0345  -1.0180  -0.9810  -0.9754  -0.9423  -0.8679  -0.7999  -0.7157
    -0.6783  -0.6020  -0.5867  -0.5576  -0.4833  -0.3979  -0.3750  -0.3601
    -0.3527  -0.3370  -0.2783  -0.1630  -0.0691  -0.0388   0.0823   0.0868
     0.1220   0.1659   0.1830   0.2645   0.3004   0.3146   0.3654   0.3658
     0.3778   0.4217   0.4446   0.5078   0.5638   0.6476   0.7208   0.7861
     0.8231   0.9391   1.0099   1.0750   1.1082   1.2371   1.3671   1.3732
     1.4347   1.6307   1.6327   2.0032   2.0476   3.5264   3.5472   3.6399
     3.6836   3.7819   3.8208   3.9649   4.0210   4.0578   4.1716   4.2034

[...]

          k = 0.0380-0.0419 0.0000 ( 17876 PWs)   bands (ev):

[...]

          k =-0.0760-0.0000 0.0000 ( 17886 PWs)   bands (ev):

[...]

          k =-0.0760-0.0839 0.0000 ( 17948 PWs)   bands (ev):

   -55.6281 -55.6278 -55.5394 -55.5277 -55.3921 -55.3918 -55.3770 -55.3525
   -55.3361 -55.3334 -55.3314 -55.2712 -54.7243 -54.5700 -54.5699 -54.5593
   -31.9350 -31.9349 -31.9245 -31.9245 -31.9038 -31.8944 -31.7970 -31.7872
   -31.7633 -31.7506 -31.7490 -31.7485 -31.7040 -31.7010 -31.6878 -31.6845
   -31.6767 -31.6728 -31.6718 -31.6461 -31.6021 -31.5996 -31.5877 -31.5847
   -31.5804 -31.5787 -31.5766 -31.5669 -31.5644 -31.5577 -31.5510 -31.5480
   -31.5396 -31.5300 -31.5037 -31.4689 -31.1328 -30.9693 -30.9354 -30.9222
   -30.8981 -30.8981 -30.8057 -30.8057 -30.7853 -30.7676 -30.7666 -30.7664
   -17.9894 -15.7016 -15.6903 -15.5118 -15.5066 -15.4457 -15.4395 -15.2870
   -15.2861 -15.2672 -15.2589 -15.1363 -15.1325 -15.1000 -15.0964 -15.0540
   -15.0450 -15.0281 -15.0197 -15.0182 -15.0115 -14.9838 -14.9328 -14.9003
   -14.8948 -14.7166 -14.7162 -14.5956 -14.5624 -14.2212 -13.0755 -13.0754
   -12.0149  -8.9376  -5.7142  -4.3927  -4.1499  -2.9914  -2.9794  -2.9646
    -2.7063  -2.7012  -2.6769  -2.6665  -2.4610  -2.4484  -2.4272  -2.4217
    -2.3942  -2.3885  -2.3735  -2.3663  -2.2829  -2.2725  -2.2615  -2.2377
    -2.2328  -2.2292  -2.2132  -2.2058  -2.1959  -2.1623  -2.1259  -2.0970
    -2.0625  -2.0396  -1.9201  -1.8092  -1.7326  -1.7260  -1.6957  -1.6899
    -1.6841  -1.6776  -1.6441  -1.5399  -1.4823  -1.4272  -1.2913  -1.2666
    -1.2489  -1.2028  -1.1145  -1.0338  -0.9710  -0.9527  -0.9062  -0.8631
    -0.8382  -0.7536  -0.7296  -0.7219  -0.6539  -0.6218  -0.5774  -0.5720
    -0.5561  -0.4908  -0.4424  -0.3932  -0.3704  -0.3397  -0.2942  -0.2737
    -0.2106  -0.1574  -0.1115  -0.1060  -0.0578  -0.0495   0.0166   0.1657
     0.2152   0.4685   0.4825   0.5139   0.6387   0.7090   0.7143   0.7430
     0.7749   0.8266   0.8381   0.9715   0.9832   0.9863   1.1510   1.1753
     1.2653   1.8031   1.8033   1.8666   1.8670   3.4290   3.9194   3.9366
     3.9619   3.9769   4.0477   4.0487   4.0571   4.0646   4.2423   4.2626

     the Fermi energy is     3.5035 ev

!    total energy              =   -2940.39769343 Ry
     estimated scf accuracy    <       0.00000002 Ry
     smearing contrib. (-TS)   =      -0.02301295 Ry
     internal energy E=F+TS    =   -2940.37468048 Ry

     The total energy is F=E-TS. E is the sum of the following terms:
     one-electron contribution =  -24109.30169362 Ry
     hartree contribution      =   12145.87091849 Ry
     xc contribution           =    -486.04518236 Ry
     ewald contribution        =    9509.09886955 Ry
     electric field correction =       0.00240746 Ry

     convergence has been achieved in  74 iterations

     Forces acting on atoms (cartesian axes, Ry/au):

     atom    1 type  1   force =     0.00015640   -0.00012734    0.09933573
     atom    2 type  1   force =    -0.00012968   -0.00047660   -0.17360355
     atom    3 type  2   force =    -0.00004906    0.00000090   -0.02878986
     atom    4 type  2   force =     0.00007310   -0.00124613    0.04997323
     atom    5 type  2   force =    -0.01306051    0.00057675    0.00121175
     atom    6 type  2   force =     0.01460780    0.00138152   -0.00011341
     atom    7 type  1   force =    -0.00143679   -0.00059776   -0.00834608
     atom    8 type  1   force =     0.00087887   -0.00412386    0.04513507
     atom    9 type  2   force =    -0.00003236   -0.00065881   -0.00027108
     atom   10 type  2   force =    -0.00129359    0.00227543   -0.02843242
     atom   11 type  2   force =     0.00018045    0.00061947   -0.00003846
     atom   12 type  2   force =     0.00025915    0.00040875    0.00010977
     atom   13 type  1   force =     0.00037978    0.00021004   -0.00052324
     atom   14 type  1   force =     0.00003928    0.00047379    0.00035281
     atom   15 type  2   force =     0.00033909   -0.00009203   -0.00011093
     atom   16 type  2   force =    -0.00038954   -0.00023174   -0.00022788
     atom   17 type  2   force =    -0.00055945    0.00033418   -0.00027708
     atom   18 type  2   force =     0.00133720   -0.00001343   -0.00006101
     atom   19 type  1   force =     0.00004295   -0.00007787    0.00009876
     atom   20 type  1   force =    -0.00010940   -0.00078805    0.00035243
     atom   21 type  2   force =     0.00009049   -0.00006928    0.10274636
     atom   22 type  2   force =    -0.00006587    0.00002648    0.00001479
     atom   23 type  2   force =    -0.07213590   -0.00016138   -0.02832548
     atom   24 type  2   force =     0.07213308    0.00029710   -0.02832417
     atom   25 type  1   force =     0.00012076   -0.00019998    0.09864543
     atom   26 type  1   force =    -0.00011136   -0.00046440   -0.17381918
     atom   27 type  2   force =     0.00000768   -0.00002673   -0.02806696
     atom   28 type  2   force =     0.00011316   -0.00100488    0.04942701
     atom   29 type  2   force =    -0.01338042    0.00005106    0.00127238
     atom   30 type  2   force =     0.01483541    0.00041891   -0.00006877
     atom   31 type  1   force =    -0.00138598    0.00250991   -0.00862696
     atom   32 type  1   force =     0.00106901    0.00237722    0.04546835
     atom   33 type  2   force =    -0.00013368    0.00104161    0.00055096
     atom   34 type  2   force =    -0.00072072    0.00120164   -0.03117578
     atom   35 type  2   force =     0.00067472   -0.00051653   -0.00018271
     atom   36 type  2   force =    -0.00163200   -0.00011119    0.00005888
     atom   37 type  1   force =    -0.00015696   -0.00153435    0.00023785
     atom   38 type  1   force =     0.00079526   -0.00005495    0.00055371
     atom   39 type  2   force =     0.00035715    0.00017071   -0.00063221
     atom   40 type  2   force =    -0.00039697    0.00032989   -0.00007939
     atom   41 type  2   force =     0.00081913   -0.00076219    0.00028122
     atom   42 type  2   force =    -0.00003018   -0.00051050    0.00021395
     atom   43 type  1   force =     0.00011885   -0.00030330   -0.00051551
     atom   44 type  1   force =     0.00014804   -0.00064372   -0.00011792
     atom   45 type  2   force =     0.00010805   -0.00006946    0.10277396
     atom   46 type  2   force =    -0.07216181   -0.00009485   -0.02832125
     atom   47 type  2   force =     0.07214457    0.00034509   -0.02829947
     atom   48 type  3   force =     0.00062770   -0.00030692   -0.00139122
     atom   49 type  3   force =    -0.00260435   -0.00063623    0.00005547
     atom   50 type  4   force =     0.00115918    0.00022313    0.00098535
     atom   51 type  5   force =    -0.00021648   -0.00046112    0.00012075
     atom   52 type  5   force =     0.00030773    0.00013643   -0.00045362
     atom   53 type  5   force =    -0.00106664    0.00050953   -0.00090760
     atom   54 type  5   force =    -0.00066437    0.00044605    0.00012722

     Total force =     0.372223     Total SCF correction =     0.000335
  @ DRIVER MODE: Message from server: STATUS
  @ DRIVER MODE: Message from server: GETFORCE
  @ DRIVER MODE: Returning v,forces,stress,ensemble

     Writing output data file ./calc.save/
  @ DRIVER MODE: Message from server: EXIT
  @ DRIVE MODE: Exiting

     General routines

     Parallel routines

   This run was terminated on:  20:52:26  24Aug2021

   JOB DONE.