     Program PWSCF v.6.7GPU starts on 16Jul2021 at 12: 7:27

     R & G space division:  proc/nbgrp/npool/nimage =      16
     Reading input from /storage/home/hcoda1/3/ntian30/research/carbon/15Jul_vib/ads_slab/CH3NH2_a/out_0006/pw.inp
Warning: card &CELL ignored
Warning: card   CELL_DYNAMICS='IPI', ignored
Warning: card / ignored

     Current dimensions of program PWSCF are:
     Max number of different atomic species (ntypx) = 10
     Max number of k-points (npk) =  40000
     Max angular momentum in pseudopotentials (lmaxx) =  3
     Presently no symmetry can be used with electric field

     Message from routine cell_base_init:
     DEPRECATED: use true lattice parameter, not A to a.u. conversion factor

     IMPORTANT: XC functional enforced from input :
     Exchange-correlation= BEEF-VDW
                           (   1   4  43  14   2   0   0)
     Any further DFT definition will be discarded
     Please, verify this is what you really want

  @ DRIVER MODE: Connecting to
 qe_1139763_2351647.sched-torque.pace.gatech.eduibq0u67p_scratch
  using UNIX socket
  @ DRIVER MODE: Message from server: STATUS
  @ DRIVER MODE: Message from server: INIT
  @ DRIVER MODE: Receiving replica           0          -1
  @ DRIVER MODE: Receiving encoded integer          25
  @ DRIVER MODE:  SCF:  T  FORCE:  T  STRESS:  F  VC:  F  ENSEMBLE:  F
  @ DRIVER MODE:  SCF:  T  FORCE:  T  STRESS:  F  VC:  F  ENSEMBLE:  F

     Using Slab Decomposition

     bravais-lattice index     =            0
     lattice parameter (alat)  =       1.8897  a.u.
     unit-cell volume          =    6658.9804 (a.u.)^3
     number of atoms/cell      =           54
     number of atomic types    =            5
     number of electrons       =       392.00
     number of Kohn-Sham states=          206
     kinetic-energy cutoff     =      29.3995  Ry
     charge density cutoff     =     293.9946  Ry
     scf convergence threshold =      7.3E-08
     mixing beta               =       0.0500
     number of iterations used =            8  plain     mixing
     Exchange-correlation= BEEF-VDW
                           (   1   4  43  14   2   0   0)

     celldm(1)=   1.889726  celldm(2)=   0.000000  celldm(3)=   0.000000
     celldm(4)=   0.000000  celldm(5)=   0.000000  celldm(6)=   0.000000

     crystal axes: (cart. coord. in units of alat)
               a(1) = (   6.579727   0.000000   0.000000 )
               a(2) = (  -0.000775   5.961596   0.000000 )
               a(3) = (   0.000000   0.000000  25.155947 )

     reciprocal axes: (cart. coord. in units 2 pi/alat)
               b(1) = (  0.151982  0.000020  0.000000 )
               b(2) = (  0.000000  0.167740  0.000000 )
               b(3) = (  0.000000  0.000000  0.039752 )

     PseudoPot. # 1 for Ti read from file:
     /storage/coda1/p-amedford6/0/shared/rich_project_chbe-medford/medford-share/data/pseudos_module/espresso/nninc/pbe/van/Ti.UPF
     MD5 check sum: 8e4df49b7f0d34bbd5052bf3f5ea0213
     Pseudo is Ultrasoft, Zval = 12.0
     Generated by new atomic code, or converted to UPF format
     Using radial grid of  851 points,  6 beta functions with:
                l(1) =   0
                l(2) =   0
                l(3) =   1
                l(4) =   1
                l(5) =   2
                l(6) =   2
     Q(r) pseudized with  8 coefficients,  rinner =    1.000   1.000   1.000
                                                       1.000   1.000

     PseudoPot. # 2 for O  read from file:
     /storage/coda1/p-amedford6/0/shared/rich_project_chbe-medford/medford-share/data/pseudos_module/espresso/nninc/pbe/van/O.UPF
     MD5 check sum: 78c19812648e8988a0fe644b0f25305e
     Pseudo is Ultrasoft, Zval =  6.0
     Generated by new atomic code, or converted to UPF format
     Using radial grid of  737 points,  4 beta functions with:
                l(1) =   0
                l(2) =   0
                l(3) =   1
                l(4) =   1
     Q(r) pseudized with  8 coefficients,  rinner =    0.800   0.800   0.800

     PseudoPot. # 3 for H  read from file:
     /storage/coda1/p-amedford6/0/shared/rich_project_chbe-medford/medford-share/data/pseudos_module/espresso/nninc/pbe/van/H.UPF
     MD5 check sum: b5ee9d7bfd3a09ee7748110bda690ff7
     Pseudo is Ultrasoft, Zval =  1.0
     Generated by new atomic code, or converted to UPF format
     Using radial grid of  615 points,  1 beta functions with:
                l(1) =   0
     Q(r) pseudized with  8 coefficients,  rinner =    0.800

     PseudoPot. # 4 for N  read from file:
     /storage/coda1/p-amedford6/0/shared/rich_project_chbe-medford/medford-share/data/pseudos_module/espresso/nninc/pbe/van/N.UPF
     MD5 check sum: 90d10febe142ad51ac9d5be1deb811c4
     Pseudo is Ultrasoft, Zval =  5.0
     Generated by new atomic code, or converted to UPF format
     Using radial grid of  729 points,  4 beta functions with:
                l(1) =   0
                l(2) =   0
                l(3) =   1
                l(4) =   1
     Q(r) pseudized with  8 coefficients,  rinner =    0.800   0.800   0.800

     PseudoPot. # 5 for C  read from file:
     /storage/coda1/p-amedford6/0/shared/rich_project_chbe-medford/medford-share/data/pseudos_module/espresso/nninc/pbe/van/C.UPF
     MD5 check sum: 1a69bf6b8db32088f5b2163dbdb77a27
     Pseudo is Ultrasoft, Zval =  4.0
     Generated by new atomic code, or converted to UPF format
     Using radial grid of  721 points,  4 beta functions with:
                l(1) =   0
                l(2) =   0
                l(3) =   1
                l(4) =   1
     Q(r) pseudized with  8 coefficients,  rinner =    0.800   0.800   0.800

     atomic species   valence    mass     pseudopotential
        Ti1           12.00    47.86700     Ti( 1.00)
        O1             6.00    15.99900     O ( 1.00)
        H1             1.00     1.00800     H ( 1.00)
        N1             5.00    14.00700     N ( 1.00)
        C1             4.00    12.01100     C ( 1.00)

     Starting magnetic structure
     atomic species   magnetization
        Ti1          0.000
        O1           0.000
        H1           0.000
        N1           0.000
        C1           0.025

     No symmetry found

   Cartesian axes

     site n.     atom                  positions (alat units)
         1           Ti1 tau(   1) = (   0.0004258   2.9801865   6.0000000  )
         2           Ti1 tau(   2) = (   3.2906075   1.4906267   6.0002472  )
         3           O1  tau(   3) = (   0.0006271   0.0005054   7.9858123  )
         4           O1  tau(   4) = (   3.2906025   0.0005020   7.3038282  )
         5           O1  tau(   5) = (   4.5942328   1.4918067   9.2879030  )
         6           O1  tau(   6) = (   1.9868534   1.4903216   9.2879459  )
         7           Ti1 tau(   7) = (   3.2907910   2.8959150   9.1758416  )
         8           Ti1 tau(   8) = (   0.0015273   1.4827037   9.2680791  )
         9           O1  tau(   9) = (   3.2764298   0.0032354  11.3770789  )
        10           O1  tau(  10) = (   0.0116148   5.9584955  10.6183126  )
        11           O1  tau(  11) = (   1.2747638   1.4931710  12.6971893  )
        12           O1  tau(  12) = (   5.2817712   1.4903522  12.6806618  )
        13           Ti1 tau(  13) = (   6.5676529   2.9732189  12.5062122  )
        14           Ti1 tau(  14) = (   3.2766800   1.4809802  12.5336434  )
        15           O1  tau(  15) = (   6.5470194   5.8867849  14.7036171  )
        16           O1  tau(  16) = (   3.2776651   5.9556151  14.0032320  )
        17           O1  tau(  17) = (   4.5091997   1.5331545  16.1660716  )
        18           O1  tau(  18) = (   1.9944719   1.5276542  16.1393230  )
        19           Ti1 tau(  19) = (   3.2573122   3.0077756  15.7593658  )
        20           Ti1 tau(  20) = (   6.5589466   1.3143649  15.8680718  )
        21           O1  tau(  21) = (   3.2904802   0.0005063   4.7018136  )
        22           O1  tau(  22) = (   6.5386106   0.1512346  17.2501133  )
        23           O1  tau(  23) = (   1.3043587   1.4918075   6.0039043  )
        24           O1  tau(  24) = (   5.2767064   1.4903225   6.0039473  )
        25           Ti1 tau(  25) = (   0.0000382   5.9609847   6.0000000  )
        26           Ti1 tau(  26) = (   3.2902200   4.4714249   6.0002472  )
        27           O1  tau(  27) = (   0.0002396   2.9813036   7.9858123  )
        28           O1  tau(  28) = (   3.2902150   2.9813002   7.3038282  )
        29           O1  tau(  29) = (   4.5938453   4.4726049   9.2879030  )
        30           O1  tau(  30) = (   1.9864658   4.4711199   9.2879459  )
        31           Ti1 tau(  31) = (   3.2891106   5.8743827   9.1763621  )
        32           Ti1 tau(  32) = (   0.0006254   4.4649316   9.2693709  )
        33           O1  tau(  33) = (   3.2800745   2.9703478  11.3709363  )
        34           O1  tau(  34) = (   0.0092240   2.9805883  10.6323155  )
        35           O1  tau(  35) = (   1.2777299   4.4606407  12.6608526  )
        36           O1  tau(  36) = (   5.2778393   4.4632610  12.6460003  )
        37           Ti1 tau(  37) = (   6.5690533   5.9429793  12.5031582  )
        38           Ti1 tau(  38) = (   3.2786254   4.4589551  12.5214668  )
        39           O1  tau(  39) = (   6.5354733   3.0384833  14.9766919  )
        40           O1  tau(  40) = (   3.2791638   3.0036098  13.9700814  )
        41           O1  tau(  41) = (   4.4983502   4.4848413  16.2456934  )
        42           O1  tau(  42) = (   1.9866127   4.4820094  16.2221982  )
        43           Ti1 tau(  43) = (   3.2666378   0.0261420  15.7997788  )
        44           Ti1 tau(  44) = (   6.5668271   4.5279224  16.0664899  )
        45           O1  tau(  45) = (   3.2900926   2.9813045   4.7018136  )
        46           O1  tau(  46) = (   1.3039711   4.4726057   6.0039043  )
        47           O1  tau(  47) = (   5.2763189   4.4711207   6.0039473  )
        48           H1  tau(  48) = (   5.7254277   4.1132278  18.4843583  )
        49           H1  tau(  49) = (   5.8544422   2.5125186  18.2095680  )
        50           N1  tau(  50) = (   6.3703568   3.3906518  18.1617682  )
        51           C1  tau(  51) = (   0.9530889   3.3347298  19.0741625  )
        52           H1  tau(  52) = (   1.4659278   4.2935310  19.0402106  )
        53           H1  tau(  53) = (   0.6569204   3.1189037  20.1036144  )
        54           H1  tau(  54) = (   1.6325849   2.5561260  18.7331930  )

     number of k points=    10  Fermi-Dirac smearing, width (Ry)=  0.0073
                       cart. coord. in units 2pi/alat
        k(    1) = (   0.0000000   0.0000000   0.0000000), wk =   0.0625000
        k(    2) = (   0.0000000   0.0419351   0.0000000), wk =   0.1250000
        k(    3) = (   0.0000000  -0.0838702   0.0000000), wk =   0.0625000
        k(    4) = (   0.0379955   0.0000049   0.0000000), wk =   0.1250000
        k(    5) = (   0.0379955   0.0419400   0.0000000), wk =   0.1250000
        k(    6) = (   0.0379955  -0.0838652   0.0000000), wk =   0.1250000
        k(    7) = (   0.0379955  -0.0419301   0.0000000), wk =   0.1250000
[...]

     starting charge  375.99915, renormalised to  392.00000

     negative rho (up, down):  8.112E-03 8.118E-03

     %%%%%%%%%%%%%%%%%%%%%%%%%%%%%%%%%%%%%%%%%%%%%%%%%%%%%%%%%%%%%%%%%%%%%%%%
     %                                                                      %
     % You are using vdW-DF, which was implemented by the Thonhauser group. %
     % Please cite the following two papers that made this development      %
     % possible and the two reviews that describe the various versions:     %
     %                                                                      %
     %   T. Thonhauser et al., PRL 115, 136402 (2015).                      %
     %   T. Thonhauser et al., PRB 76, 125112 (2007).                       %
     %   K. Berland et al., Rep. Prog. Phys. 78, 066501 (2015).             %
     %   D.C. Langreth et al., J. Phys.: Condens. Matter 21, 084203 (2009). %
     %                                                                      %
     %                                                                      %
     % If you are calculating the stress with vdW-DF, please also cite:     %
     %                                                                      %
     %   R. Sabatini et al., J. Phys.: Condens. Matter 24, 424209 (2012).   %
     %                                                                      %
     %%%%%%%%%%%%%%%%%%%%%%%%%%%%%%%%%%%%%%%%%%%%%%%%%%%%%%%%%%%%%%%%%%%%%%%%

     Adding external electric field

     Computed dipole along edir(3) :
        Dipole               -7.5688 Ry au,        -19.2380 Debye
        Dipole field         -0.0143 Ry au,

        Potential amp.        1.3240 Ry
        Total length         46.3494 bohr

[...]

     Starting wfcs are  297 atomic wfcs
  @ DRIVER MODE: Message from server: STATUS
  @ DRIVER MODE: Message from server: POSDATA
  @ DRIVER MODE: Reading and sharing cell
  @ DRIVER MODE: Reading and sharing positions
  @ DRIVER MODE: Received positions

     Self-consistent Calculation

     iteration #  1     ecut=    29.40 Ry     beta= 0.05
     Davidson diagonalization with overlap
     c_bands:  1 eigenvalues not converged
     c_bands:  2 eigenvalues not converged
     c_bands:  2 eigenvalues not converged
     c_bands:  1 eigenvalues not converged
     c_bands:  1 eigenvalues not converged
     c_bands:  1 eigenvalues not converged
     c_bands:  1 eigenvalues not converged
     c_bands:  2 eigenvalues not converged
     c_bands:  1 eigenvalues not converged
     c_bands:  1 eigenvalues not converged
     c_bands:  1 eigenvalues not converged
     c_bands:  1 eigenvalues not converged
     ethr =  1.00E-05,  avg # of iterations = 19.6

[...]

     total energy              =   -2678.27864016 Ry
     estimated scf accuracy    <    2693.42238376 Ry

     total magnetization       =     0.00 Bohr mag/cell
     absolute magnetization    =     0.01 Bohr mag/cell

[...]

     iteration #  3     ecut=    29.40 Ry     beta= 0.05
     Davidson diagonalization with overlap
     ethr =  1.00E-02,  avg # of iterations = 14.7

[...]

     iteration #311     ecut=    29.40 Ry     beta= 0.05
     Davidson diagonalization with overlap
     ethr =  2.11E-11,  avg # of iterations = 10.8

[...]

     total energy              =   -2921.63348438 Ry
     estimated scf accuracy    <       0.00000007 Ry

[...]

     iteration #316     ecut=    29.40 Ry     beta= 0.05
     Davidson diagonalization with overlap
     c_bands:  1 eigenvalues not converged
     c_bands:  3 eigenvalues not converged
     c_bands:  1 eigenvalues not converged
     c_bands:  1 eigenvalues not converged
     c_bands:  2 eigenvalues not converged
     c_bands:  1 eigenvalues not converged
     ethr =  1.89E-11,  avg # of iterations = 16.8

     negative rho (up, down):  8.556E-03 8.555E-03

[...]

     Adding external electric field

     Computed dipole along edir(3) :
        Dipole                1.3104 Ry au,          3.3307 Debye
        Dipole field          0.0025 Ry au,

        Potential amp.       -0.2292 Ry
        Total length         46.3494 bohr

     Magnetic moment per site  (integrated on atomic sphere of radius R)
     atom   1 (R=0.738)  charge=  8.0466  magn= -0.0129
     atom   2 (R=0.738)  charge=  8.0283  magn= -0.0005
     atom   3 (R=0.738)  charge=  5.0153  magn=  0.0013
     atom   4 (R=0.738)  charge=  5.0522  magn=  0.0001
     atom   5 (R=0.738)  charge=  5.0214  magn=  0.0002
     atom   6 (R=0.738)  charge=  5.0219  magn=  0.0002
     atom   7 (R=0.738)  charge=  8.0284  magn= -0.0007
     atom   8 (R=0.738)  charge=  8.0296  magn= -0.0082
     atom   9 (R=0.738)  charge=  5.0288  magn= -0.0001
     atom  10 (R=0.738)  charge=  5.0292  magn=  0.0005
     atom  11 (R=0.738)  charge=  5.0169  magn=  0.0001
     atom  12 (R=0.738)  charge=  5.0160  magn=  0.0001
     atom  13 (R=0.738)  charge=  8.0365  magn= -0.0014
     atom  14 (R=0.738)  charge=  8.0338  magn=  0.0015
     atom  15 (R=0.738)  charge=  5.0279  magn=  0.0001
     atom  16 (R=0.738)  charge=  5.0249  magn= -0.0007
     atom  17 (R=0.738)  charge=  5.0031  magn= -0.0006
     atom  18 (R=0.738)  charge=  5.0056  magn= -0.0006
     atom  19 (R=0.738)  charge=  8.0663  magn=  0.0103
     atom  20 (R=0.738)  charge=  8.0805  magn=  0.0019
     atom  21 (R=0.738)  charge=  4.9002  magn=  0.0004
     atom  22 (R=0.738)  charge=  4.9790  magn= -0.0004
     atom  23 (R=0.738)  charge=  5.0126  magn=  0.0014
     atom  24 (R=0.738)  charge=  5.0127  magn=  0.0014
     atom  25 (R=0.738)  charge=  8.0467  magn= -0.0128
     atom  26 (R=0.738)  charge=  8.0283  magn= -0.0005
     atom  27 (R=0.738)  charge=  5.0151  magn=  0.0013
     atom  28 (R=0.738)  charge=  5.0526  magn=  0.0001
     atom  29 (R=0.738)  charge=  5.0223  magn=  0.0002
     atom  30 (R=0.738)  charge=  5.0226  magn=  0.0002
     atom  31 (R=0.738)  charge=  8.0286  magn= -0.0007
     atom  32 (R=0.738)  charge=  8.0297  magn= -0.0083
     atom  33 (R=0.738)  charge=  5.0280  magn= -0.0001
     atom  34 (R=0.738)  charge=  5.0267  magn=  0.0005
     atom  35 (R=0.738)  charge=  5.0201  magn=  0.0001
     atom  36 (R=0.738)  charge=  5.0197  magn=  0.0001
     atom  37 (R=0.738)  charge=  8.0323  magn= -0.0012
     atom  38 (R=0.738)  charge=  8.0346  magn=  0.0016
     atom  39 (R=0.738)  charge=  5.0089  magn= -0.0002
     atom  40 (R=0.738)  charge=  5.0372  magn= -0.0007
     atom  41 (R=0.738)  charge=  5.0004  magn= -0.0008
     atom  42 (R=0.738)  charge=  5.0042  magn= -0.0008
     atom  43 (R=0.738)  charge=  8.0647  magn=  0.0105
     atom  44 (R=0.738)  charge=  8.0444  magn=  0.0043
     atom  45 (R=0.738)  charge=  4.9002  magn=  0.0004
     atom  46 (R=0.738)  charge=  5.0126  magn=  0.0014
     atom  47 (R=0.738)  charge=  5.0127  magn=  0.0014
     atom  48 (R=0.421)  charge=  0.4503  magn=  0.0000
     atom  49 (R=0.421)  charge=  0.4525  magn=  0.0000
     atom  50 (R=0.421)  charge=  1.3450  magn= -0.0000
     atom  51 (R=0.449)  charge=  0.8460  magn=  0.0000
     atom  52 (R=0.421)  charge=  0.4461  magn= -0.0000
     atom  53 (R=0.421)  charge=  0.4482  magn= -0.0000
     atom  54 (R=0.421)  charge=  0.4461  magn= -0.0000

     End of self-consistent calculation

 ------ SPIN UP ------------

          k = 0.0000 0.0000 0.0000 ( 18029 PWs)   bands (ev):

   -55.4284 -55.3911 -55.3653 -55.3546 -55.3312 -55.3154 -55.3043 -55.2700
   -55.2464 -55.2383 -55.2120 -55.2015 -55.1678 -55.0998 -54.4068 -54.3727
   -31.9962 -31.8814 -31.8645 -31.7924 -31.7434 -31.7407 -31.7358 -31.7067
   -31.6687 -31.6524 -31.6385 -31.6365 -31.6137 -31.6088 -31.5972 -31.5952
   -31.5833 -31.5700 -31.5647 -31.5415 -31.5253 -31.5160 -31.5046 -31.4857
   -31.4815 -31.4772 -31.4729 -31.4489 -31.4343 -31.4241 -31.4202 -31.4123
   -31.4070 -31.4004 -31.3945 -31.3914 -31.3600 -31.3586 -31.3290 -31.3124
   -31.3068 -31.2881 -30.8162 -30.7215 -30.6995 -30.6323 -30.5455 -30.4349
   -16.2792 -16.1542 -15.9709 -15.8203 -15.7347 -15.6260 -15.5067 -15.4878
   -15.3563 -15.2787 -15.1526 -15.1266 -15.0980 -15.0811 -15.0707 -15.0575
   -14.9719 -14.9665 -14.9504 -14.9216 -14.9209 -14.8751 -14.8658 -14.8245
   -14.8020 -14.7905 -14.6758 -14.5867 -14.5140 -14.2702 -12.9102 -12.7927
   -10.2150  -6.2718  -4.8282  -3.9435  -3.5983  -3.4465  -3.3534  -3.3251
    -3.3175  -3.1816  -3.0307  -2.8829  -2.8340  -2.8311  -2.7110  -2.6372
    -2.6266  -2.6071  -2.4545  -2.4232  -2.3747  -2.3286  -2.2864  -2.2350
    -2.2175  -2.2079  -2.1920  -2.1686  -2.1579  -2.0493  -1.9934  -1.9077
    -1.8513  -1.8275  -1.7780  -1.7613  -1.7361  -1.7160  -1.7056  -1.6598
    -1.6349  -1.6202  -1.5673  -1.4537  -1.3495  -1.2996  -1.1806  -1.0643
    -1.0261  -1.0118  -0.9620  -0.9230  -0.9114  -0.8420  -0.8032  -0.7733
    -0.7184  -0.6577  -0.5888  -0.5403  -0.4734  -0.4575  -0.4143  -0.3516
    -0.2441  -0.2086  -0.1936  -0.1653  -0.0695  -0.0372   0.0129   0.0934
     0.0991   0.1122   0.2147   0.2300   0.3018   0.3512   0.3688   0.4546
     0.4885   0.5041   0.5077   0.5342   0.5580   0.6138   0.6470   0.6745
     0.7499   0.8734   1.0960   1.1660   1.1854   1.5107   1.5206   1.6154
     1.7987   2.1912   2.2400   3.6783   3.7411   3.8242   3.8265   3.8318
     3.9132   4.1447   4.1657   4.1785   4.1852   4.2010

[...]

          k =-0.0760-0.0000 0.0000 ( 17886 PWs)   bands (ev):

[...]

 ------ SPIN DOWN ----------

[...]

          k = 0.0380-0.0419 0.0000 ( 17876 PWs)   bands (ev):

[...]

          k =-0.0760-0.0839 0.0000 ( 17948 PWs)   bands (ev):

   -55.4121 -55.4019 -55.3712 -55.3706 -55.3454 -55.2930 -55.2902 -55.2884
   -55.2321 -55.2281 -55.2241 -55.1989 -55.1980 -55.0977 -54.3908 -54.3905
   -31.8013 -31.7951 -31.7940 -31.7039 -31.6894 -31.6889 -31.6817 -31.6638
   -31.6635 -31.6355 -31.6285 -31.6222 -31.6140 -31.5911 -31.5744 -31.5703
   -31.5649 -31.5606 -31.5600 -31.5511 -31.5488 -31.5442 -31.5108 -31.5082
   -31.4950 -31.4929 -31.4923 -31.4916 -31.4890 -31.4831 -31.4795 -31.4652
   -31.4613 -31.4454 -31.4415 -31.4290 -31.4260 -31.4111 -31.3798 -31.3791
   -31.3639 -31.3068 -30.7135 -30.7132 -30.6293 -30.6291 -30.5900 -30.5898
   -16.1264 -15.7621 -15.6748 -15.6271 -15.4629 -15.4300 -15.4097 -15.3925
   -15.2618 -15.2358 -15.2112 -15.1931 -15.1712 -15.1344 -15.1287 -15.1231
   -15.0475 -15.0315 -15.0267 -15.0086 -14.9455 -14.9361 -14.9329 -14.9258
   -14.8743 -14.8707 -14.8070 -14.7792 -14.7761 -14.5601 -12.8934 -12.8933
   -10.2189  -6.2442  -4.8243  -3.9060  -2.9452  -2.9160  -2.8804  -2.8776
    -2.6798  -2.6283  -2.5948  -2.5682  -2.4795  -2.4442  -2.4196  -2.4167
    -2.3453  -2.3274  -2.3103  -2.2689  -2.2621  -2.2476  -2.2250  -2.1885
    -2.1622  -2.1532  -2.1465  -2.1233  -2.0794  -2.0659  -2.0493  -2.0248
    -2.0208  -2.0104  -1.9827  -1.9350  -1.8086  -1.7994  -1.7242  -1.6346
    -1.6297  -1.5537  -1.5377  -1.4904  -1.4729  -1.4592  -1.4177  -1.2337
    -1.1961  -1.1738  -1.1637  -1.0983  -1.0362  -1.0200  -0.9468  -0.9308
    -0.9143  -0.8058  -0.7586  -0.7474  -0.6563  -0.6451  -0.5671  -0.5108
    -0.4534  -0.4331  -0.3949  -0.3818  -0.3788  -0.3338  -0.3264  -0.2409
    -0.1970  -0.1606  -0.1472  -0.1139   0.0874   0.0930   0.1156   0.2592
     0.2908   0.4153   0.4475   0.5000   0.5758   0.6097   0.6852   0.7198
     0.8528   0.8804   0.8814   0.9531   0.9623   1.0261   1.0357   1.9722
     1.9729   2.0601   2.0603   3.8372   3.9187   3.9348   3.9741   4.0902
     4.1637   4.1828   4.2057   4.2523   4.2554   4.3133

     the Fermi energy is     3.7350 ev

!    total energy              =   -2921.63348465 Ry
     estimated scf accuracy    <       0.00000007 Ry
     smearing contrib. (-TS)   =      -0.03702378 Ry
     internal energy E=F+TS    =   -2921.59646087 Ry

     The total energy is F=E-TS. E is the sum of the following terms:
     one-electron contribution =  -23999.40941746 Ry
     hartree contribution      =   12088.86809950 Ry
     xc contribution           =    -481.73382514 Ry
     ewald contribution        =    9470.67544173 Ry
     electric field correction =       0.00324050 Ry

     total magnetization       =    -0.02 Bohr mag/cell
     absolute magnetization    =     0.14 Bohr mag/cell

     convergence has been achieved in 316 iterations

     Forces acting on atoms (cartesian axes, Ry/au):

     atom    1 type  1   force =     0.00019413   -0.00022722    0.09320058
     atom    2 type  1   force =    -0.00003854   -0.00042362   -0.17834432
     atom    3 type  2   force =     0.00008040   -0.00040119   -0.02015609
     atom    4 type  2   force =     0.00001529   -0.00194809    0.05891786
     atom    5 type  2   force =    -0.01033452   -0.00094812    0.00825379
     atom    6 type  2   force =     0.01152196   -0.00018247    0.00659105
     atom    7 type  1   force =    -0.00062903    0.00206906   -0.01451755
     atom    8 type  1   force =     0.00067556   -0.00093625   -0.00516102
     atom    9 type  2   force =     0.00014014    0.00031738    0.00008652
     atom   10 type  2   force =    -0.00249158    0.00189225    0.00102266
     atom   11 type  2   force =    -0.00015380    0.00003979    0.00030230
     atom   12 type  2   force =     0.00001290    0.00030471    0.00019162
     atom   13 type  1   force =    -0.00002347    0.00006432    0.00004008
     atom   14 type  1   force =     0.00006129   -0.00003133    0.00013051
     atom   15 type  2   force =     0.00007597   -0.00018252   -0.00001762
     atom   16 type  2   force =     0.00034140    0.00000810   -0.00004175
     atom   17 type  2   force =     0.00010104   -0.00035574    0.00007689
     atom   18 type  2   force =     0.00002993    0.00002157    0.00001175
     atom   19 type  1   force =     0.00052069    0.00004239    0.00048452
     atom   20 type  1   force =     0.00029085    0.00027689    0.00023705
     atom   21 type  2   force =     0.00014287   -0.00009145    0.10394470
     atom   22 type  2   force =     0.00016265    0.00076337    0.00051921
     atom   23 type  2   force =    -0.07031191   -0.00019078   -0.02690594
     atom   24 type  2   force =     0.07032675    0.00027011   -0.02693634
     atom   25 type  1   force =     0.00013732   -0.00018163    0.09279576
     atom   26 type  1   force =    -0.00005102   -0.00052778   -0.17838079
     atom   27 type  2   force =     0.00011730   -0.00026026   -0.01922760
     atom   28 type  2   force =     0.00008635   -0.00171170    0.05823285
     atom   29 type  2   force =    -0.01083255   -0.00099232    0.00882868
     atom   30 type  2   force =     0.01193972   -0.00068410    0.00714761
     atom   31 type  1   force =    -0.00065394    0.00610999   -0.01534099
     atom   32 type  1   force =     0.00081601    0.00035434   -0.00556176
     atom   33 type  2   force =    -0.00037782   -0.00032889    0.00017601
     atom   34 type  2   force =    -0.00223814   -0.00204166   -0.00000631
     atom   35 type  2   force =    -0.00072891    0.00026034    0.00035684
     atom   36 type  2   force =     0.00075910   -0.00010470   -0.00016566
     atom   37 type  1   force =     0.00003911    0.00021217    0.00000540
     atom   38 type  1   force =    -0.00028949    0.00023141    0.00049900
     atom   39 type  2   force =    -0.00036728   -0.00007474    0.00002008
     atom   40 type  2   force =    -0.00006615   -0.00009248    0.00032994
     atom   41 type  2   force =    -0.00035104    0.00008140   -0.00022565
     atom   42 type  2   force =     0.00039856   -0.00019529   -0.00011984
     atom   43 type  1   force =    -0.00021974   -0.00005720    0.00007735
     atom   44 type  1   force =     0.00020577   -0.00001867    0.00039968
     atom   45 type  2   force =     0.00012615   -0.00010838    0.10390947
     atom   46 type  2   force =    -0.07029786   -0.00012081   -0.02685537
     atom   47 type  2   force =     0.07029280    0.00029595   -0.02688976
     atom   48 type  3   force =     0.00251683   -0.00367691   -0.00281546
     atom   49 type  3   force =     0.00060211    0.00058052   -0.00088879
     atom   50 type  4   force =    -0.00358407    0.00370915    0.00250625
     atom   51 type  5   force =     0.00178256   -0.00037156   -0.00080582
     atom   52 type  3   force =    -0.00006549   -0.00042792   -0.00007976
     atom   53 type  3   force =    -0.00002980   -0.00000121   -0.00010147
     atom   54 type  3   force =    -0.00037737   -0.00000818    0.00024965

     Total force =     0.366361     Total SCF correction =     0.000510
  @ DRIVER MODE: Message from server: STATUS
  @ DRIVER MODE: Message from server: GETFORCE
  @ DRIVER MODE: Returning v,forces,stress,ensemble

     Writing output data file ./calc.save/
  @ DRIVER MODE: Message from server: EXIT
  @ DRIVE MODE: Exiting

     General routines

     Parallel routines

   This run was terminated on:  18:22:26  16Jul2021

   JOB DONE.