     Program PWSCF v.6.7GPU starts on  9Sep2021 at  3:28:23

     R & G space division:  proc/nbgrp/npool/nimage =      10
     Reading input from /storage/home/hcoda1/3/ntian30/research/carbon/CxH_vib/CH3_calc/ads_slab/CH3NNH3_a/out_0017/pw.inp
Warning: card &CELL ignored
Warning: card   CELL_DYNAMICS='IPI', ignored
Warning: card / ignored

     Current dimensions of program PWSCF are:
     Max number of different atomic species (ntypx) = 10
     Max number of k-points (npk) =  40000
     Max angular momentum in pseudopotentials (lmaxx) =  3
     Presently no symmetry can be used with electric field

     Message from routine cell_base_init:
     DEPRECATED: use true lattice parameter, not A to a.u. conversion factor

     IMPORTANT: XC functional enforced from input :
     Exchange-correlation= BEEF-VDW
                           (   1   4  43  14   2   0   0)
     Any further DFT definition will be discarded
     Please, verify this is what you really want

  @ DRIVER MODE: Connecting to
 qe_1139763_2767402.sched-torque.pace.gatech.edufjri2qyq_scratch
  using UNIX socket
  @ DRIVER MODE: Message from server: STATUS
  @ DRIVER MODE: Message from server: INIT
  @ DRIVER MODE: Receiving replica           0          -1
  @ DRIVER MODE: Receiving encoded integer          25
  @ DRIVER MODE:  SCF:  T  FORCE:  T  STRESS:  F  VC:  F  ENSEMBLE:  F
  @ DRIVER MODE:  SCF:  T  FORCE:  T  STRESS:  F  VC:  F  ENSEMBLE:  F

     Using Slab Decomposition

     bravais-lattice index     =            0
     lattice parameter (alat)  =       1.8897  a.u.
     unit-cell volume          =    6658.9804 (a.u.)^3
     number of atoms/cell      =           56
     number of atomic types    =            5
     number of electrons       =       398.00
     number of Kohn-Sham states=          209
     kinetic-energy cutoff     =      29.3995  Ry
     charge density cutoff     =     293.9946  Ry
     scf convergence threshold =      7.3E-08
     mixing beta               =       0.0500
     number of iterations used =            8  plain     mixing
     Exchange-correlation= BEEF-VDW
                           (   1   4  43  14   2   0   0)

     celldm(1)=   1.889726  celldm(2)=   0.000000  celldm(3)=   0.000000
     celldm(4)=   0.000000  celldm(5)=   0.000000  celldm(6)=   0.000000

     crystal axes: (cart. coord. in units of alat)
               a(1) = (   6.579727   0.000000   0.000000 )
               a(2) = (  -0.000775   5.961596   0.000000 )
               a(3) = (   0.000000   0.000000  25.155947 )

     reciprocal axes: (cart. coord. in units 2 pi/alat)
               b(1) = (  0.151982  0.000020  0.000000 )
               b(2) = (  0.000000  0.167740  0.000000 )
               b(3) = (  0.000000  0.000000  0.039752 )

     PseudoPot. # 1 for Ti read from file:
     /storage/coda1/p-amedford6/0/shared/rich_project_chbe-medford/medford-share/data/pseudos_module/espresso/nninc/pbe/van/Ti.UPF
     MD5 check sum: 8e4df49b7f0d34bbd5052bf3f5ea0213
     Pseudo is Ultrasoft, Zval = 12.0
     Generated by new atomic code, or converted to UPF format
     Using radial grid of  851 points,  6 beta functions with:
                l(1) =   0
                l(2) =   0
                l(3) =   1
                l(4) =   1
                l(5) =   2
                l(6) =   2
     Q(r) pseudized with  8 coefficients,  rinner =    1.000   1.000   1.000
                                                       1.000   1.000

     PseudoPot. # 2 for O  read from file:
     /storage/coda1/p-amedford6/0/shared/rich_project_chbe-medford/medford-share/data/pseudos_module/espresso/nninc/pbe/van/O.UPF
     MD5 check sum: 78c19812648e8988a0fe644b0f25305e
     Pseudo is Ultrasoft, Zval =  6.0
     Generated by new atomic code, or converted to UPF format
     Using radial grid of  737 points,  4 beta functions with:
                l(1) =   0
                l(2) =   0
                l(3) =   1
                l(4) =   1
     Q(r) pseudized with  8 coefficients,  rinner =    0.800   0.800   0.800

     PseudoPot. # 3 for N  read from file:
     /storage/coda1/p-amedford6/0/shared/rich_project_chbe-medford/medford-share/data/pseudos_module/espresso/nninc/pbe/van/N.UPF
     MD5 check sum: 90d10febe142ad51ac9d5be1deb811c4
     Pseudo is Ultrasoft, Zval =  5.0
     Generated by new atomic code, or converted to UPF format
     Using radial grid of  729 points,  4 beta functions with:
                l(1) =   0
                l(2) =   0
                l(3) =   1
                l(4) =   1
     Q(r) pseudized with  8 coefficients,  rinner =    0.800   0.800   0.800

     PseudoPot. # 4 for C  read from file:
     /storage/coda1/p-amedford6/0/shared/rich_project_chbe-medford/medford-share/data/pseudos_module/espresso/nninc/pbe/van/C.UPF
     MD5 check sum: 1a69bf6b8db32088f5b2163dbdb77a27
     Pseudo is Ultrasoft, Zval =  4.0
     Generated by new atomic code, or converted to UPF format
     Using radial grid of  721 points,  4 beta functions with:
                l(1) =   0
                l(2) =   0
                l(3) =   1
                l(4) =   1
     Q(r) pseudized with  8 coefficients,  rinner =    0.800   0.800   0.800

     PseudoPot. # 5 for H  read from file:
     /storage/coda1/p-amedford6/0/shared/rich_project_chbe-medford/medford-share/data/pseudos_module/espresso/nninc/pbe/van/H.UPF
     MD5 check sum: b5ee9d7bfd3a09ee7748110bda690ff7
     Pseudo is Ultrasoft, Zval =  1.0
     Generated by new atomic code, or converted to UPF format
     Using radial grid of  615 points,  1 beta functions with:
                l(1) =   0
     Q(r) pseudized with  8 coefficients,  rinner =    0.800

     atomic species   valence    mass     pseudopotential
        Ti1           12.00    47.86700     Ti( 1.00)
        O1             6.00    15.99900     O ( 1.00)
        N1             5.00    14.00700     N ( 1.00)
        C1             4.00    12.01100     C ( 1.00)
        H1             1.00     1.00800     H ( 1.00)

     No symmetry found

   Cartesian axes

     site n.     atom                  positions (alat units)
         1           Ti1 tau(   1) = (   0.0004258   2.9801865   6.0000000  )
         2           Ti1 tau(   2) = (   3.2906075   1.4906267   6.0002472  )
         3           O1  tau(   3) = (   0.0006271   0.0005054   7.9858123  )
         4           O1  tau(   4) = (   3.2906025   0.0005020   7.3038282  )
         5           O1  tau(   5) = (   4.5942328   1.4918067   9.2879030  )
         6           O1  tau(   6) = (   1.9868534   1.4903216   9.2879459  )
         7           Ti1 tau(   7) = (   3.2907910   2.8959150   9.1758416  )
         8           Ti1 tau(   8) = (   0.0015273   1.4827037   9.2680791  )
         9           O1  tau(   9) = (   3.2915376   0.0135470  11.3011085  )
        10           O1  tau(  10) = (   0.0116148   5.9584955  10.6183126  )
        11           O1  tau(  11) = (   1.3264285   1.5112823  12.6233503  )
        12           O1  tau(  12) = (   5.3038506   1.5117067  12.6402039  )
        13           Ti1 tau(  13) = (   6.4820107   2.9926285  12.7699842  )
        14           Ti1 tau(  14) = (   3.1705855   1.5046985  12.4703807  )
        15           O1  tau(  15) = (   0.0265921   0.0018185  14.6022993  )
        16           O1  tau(  16) = (   3.3077976   0.0231332  13.8844522  )
        17           O1  tau(  17) = (   4.5431088   1.5356983  16.0582573  )
        18           O1  tau(  18) = (   2.0919096   1.5355568  16.0602035  )
        19           Ti1 tau(  19) = (   3.3160089   3.0194793  15.6930983  )
        20           Ti1 tau(  20) = (   0.0166562   1.5958061  16.1043543  )
        21           O1  tau(  21) = (   3.2904802   0.0005063   4.7018136  )
        22           O1  tau(  22) = (   0.0292894   0.0555714  17.2141426  )
        23           O1  tau(  23) = (   1.3043587   1.4918075   6.0039043  )
        24           O1  tau(  24) = (   5.2767064   1.4903225   6.0039473  )
        25           Ti1 tau(  25) = (   0.0000382   5.9609847   6.0000000  )
        26           Ti1 tau(  26) = (   3.2902200   4.4714249   6.0002472  )
        27           O1  tau(  27) = (   0.0002396   2.9813036   7.9858123  )
        28           O1  tau(  28) = (   3.2902150   2.9813002   7.3038282  )
        29           O1  tau(  29) = (   4.5938453   4.4726049   9.2879030  )
        30           O1  tau(  30) = (   1.9864658   4.4711199   9.2879459  )
        31           Ti1 tau(  31) = (   3.2891106   5.8743827   9.1763621  )
        32           Ti1 tau(  32) = (   0.0006254   4.4649316   9.2693709  )
        33           O1  tau(  33) = (   3.2938734   2.9940915  11.3014364  )
        34           O1  tau(  34) = (   0.0092240   2.9805883  10.6323155  )
        35           O1  tau(  35) = (   1.3265148   4.4779228  12.6213786  )
        36           O1  tau(  36) = (   5.3043665   4.4729268  12.6387898  )
        37           Ti1 tau(  37) = (   6.5102921   0.0103953  12.7821347  )
        38           Ti1 tau(  38) = (   3.1702703   4.4844908  12.4724723  )
        39           O1  tau(  39) = (   0.0044238   2.9856840  14.6711682  )
        40           O1  tau(  40) = (   3.3052367   3.0047533  13.8869641  )
        41           O1  tau(  41) = (   4.5463945   4.5179403  16.0573015  )
        42           O1  tau(  42) = (   2.0913021   4.5186677  16.0620504  )
        43           Ti1 tau(  43) = (   3.3128124   0.0388915  15.6953448  )
        44           Ti1 tau(  44) = (   0.0191476   4.5695365  16.1495174  )
        45           O1  tau(  45) = (   3.2900926   2.9813045   4.7018136  )
        46           O1  tau(  46) = (   1.3039711   4.4726057   6.0039043  )
        47           O1  tau(  47) = (   5.2763189   4.4711207   6.0039473  )
        48           N1  tau(  48) = (   0.0657769   3.0188755  17.3428317  )
        49           N1  tau(  49) = (   6.3710133   2.5762042  22.6422586  )
        50           C1  tau(  50) = (   0.3130180   3.0007025  18.7558599  )
        51           H1  tau(  51) = (   0.2928038   4.0066326  19.1970245  )
        52           H1  tau(  52) = (   6.1505335   2.3845869  19.2855718  )
        53           H1  tau(  53) = (   1.2957935   2.5555442  18.9776258  )
        54           H1  tau(  54) = (   5.9555952   3.1943721  23.3306195  )
        55           H1  tau(  55) = (   0.0098814   1.7053999  23.1148127  )
        56           H1  tau(  56) = (   0.6724875   2.9916800  22.3598805  )

     number of k points=    10  Fermi-Dirac smearing, width (Ry)=  0.0073
                       cart. coord. in units 2pi/alat
        k(    1) = (   0.0000000   0.0000000   0.0000000), wk =   0.1250000
        k(    2) = (   0.0000000   0.0419351   0.0000000), wk =   0.2500000
        k(    3) = (   0.0000000  -0.0838702   0.0000000), wk =   0.1250000
        k(    4) = (   0.0379955   0.0000049   0.0000000), wk =   0.2500000
        k(    5) = (   0.0379955   0.0419400   0.0000000), wk =   0.2500000
        k(    6) = (   0.0379955  -0.0838652   0.0000000), wk =   0.2500000
        k(    7) = (   0.0379955  -0.0419301   0.0000000), wk =   0.2500000
        k(    8) = (  -0.0759910  -0.0000099   0.0000000), wk =   0.1250000
        k(    9) = (  -0.0759910   0.0419252   0.0000000), wk =   0.2500000
        k(   10) = (  -0.0759910  -0.0838800   0.0000000), wk =   0.1250000

     Initial potential from superposition of free atoms

     starting charge  381.99914, renormalised to  398.00000

     negative rho (up, down):  7.229E-03 0.000E+00

     %%%%%%%%%%%%%%%%%%%%%%%%%%%%%%%%%%%%%%%%%%%%%%%%%%%%%%%%%%%%%%%%%%%%%%%%
     %                                                                      %
     % You are using vdW-DF, which was implemented by the Thonhauser group. %
     % Please cite the following two papers that made this development      %
     % possible and the two reviews that describe the various versions:     %
     %                                                                      %
     %   T. Thonhauser et al., PRL 115, 136402 (2015).                      %
     %   T. Thonhauser et al., PRB 76, 125112 (2007).                       %
     %   K. Berland et al., Rep. Prog. Phys. 78, 066501 (2015).             %
     %   D.C. Langreth et al., J. Phys.: Condens. Matter 21, 084203 (2009). %
     %                                                                      %
     %                                                                      %
     % If you are calculating the stress with vdW-DF, please also cite:     %
     %                                                                      %
     %   R. Sabatini et al., J. Phys.: Condens. Matter 24, 424209 (2012).   %
     %                                                                      %
     %%%%%%%%%%%%%%%%%%%%%%%%%%%%%%%%%%%%%%%%%%%%%%%%%%%%%%%%%%%%%%%%%%%%%%%%

     Adding external electric field

     Computed dipole along edir(3) :
        Dipole              -12.0346 Ry au,        -30.5890 Debye
        Dipole field         -0.0227 Ry au,

        Potential amp.        2.1053 Ry
        Total length         46.3494 bohr

     Starting wfcs are  302 atomic wfcs
  @ DRIVER MODE: Message from server: STATUS
  @ DRIVER MODE: Message from server: POSDATA
  @ DRIVER MODE: Reading and sharing cell
  @ DRIVER MODE: Reading and sharing positions
  @ DRIVER MODE: Received positions

     Self-consistent Calculation

     iteration #  1     ecut=    29.40 Ry     beta= 0.05
     Davidson diagonalization with overlap
     c_bands:  1 eigenvalues not converged
     c_bands:  1 eigenvalues not converged
     c_bands:  1 eigenvalues not converged
     c_bands:  1 eigenvalues not converged
     c_bands:  1 eigenvalues not converged
     c_bands:  1 eigenvalues not converged
     c_bands:  1 eigenvalues not converged
     c_bands:  2 eigenvalues not converged
     c_bands:  1 eigenvalues not converged
     ethr =  1.00E-05,  avg # of iterations = 19.6

[...]

     total energy              =   -2520.08439862 Ry
     estimated scf accuracy    <    4724.87922268 Ry

[...]

     iteration #  3     ecut=    29.40 Ry     beta= 0.05
     Davidson diagonalization with overlap
     ethr =  1.00E-02,  avg # of iterations = 17.3

[...]

     iteration # 50     ecut=    29.40 Ry     beta= 0.05
     Davidson diagonalization with overlap
     c_bands:  1 eigenvalues not converged
     ethr =  5.03E-07,  avg # of iterations =  8.0

[...]

     total energy              =   -2942.90419255 Ry
     estimated scf accuracy    <       0.00000033 Ry

     iteration # 71     ecut=    29.40 Ry     beta= 0.05
     Davidson diagonalization with overlap
     ethr =  6.68E-11,  avg # of iterations =  5.4

     negative rho (up, down):  9.734E-03 0.000E+00

     Adding external electric field

     Computed dipole along edir(3) :
        Dipole                0.6746 Ry au,          1.7147 Debye
        Dipole field          0.0013 Ry au,

        Potential amp.       -0.1180 Ry
        Total length         46.3494 bohr

     End of self-consistent calculation

          k = 0.0000 0.0000 0.0000 ( 18029 PWs)   bands (ev):

   -56.5079 -56.4743 -55.6176 -55.6087 -55.5823 -55.5762 -55.4810 -55.4455
   -55.2673 -55.2322 -55.1723 -55.1680 -55.1383 -55.0553 -54.6182 -54.5747
   -32.9355 -32.7818 -32.7536 -32.6846 -32.5936 -32.5615 -32.0967 -32.0752
   -32.0224 -31.9054 -31.8644 -31.8249 -31.8227 -31.7892 -31.7608 -31.7602
   -31.7578 -31.7400 -31.7319 -31.7252 -31.7042 -31.6896 -31.6634 -31.6496
   -31.6366 -31.6164 -31.6106 -31.5869 -31.5645 -31.5107 -31.4989 -31.4865
   -31.4098 -31.4062 -31.3831 -31.3414 -31.3345 -31.2997 -31.2852 -31.2614
   -31.2422 -31.1889 -31.1451 -30.8628 -30.8386 -30.8217 -30.7960 -30.6766
   -16.6699 -16.2292 -16.0015 -15.8696 -15.7973 -15.7477 -15.6954 -15.5819
   -15.5027 -15.4995 -15.4616 -15.4275 -15.3575 -15.2139 -15.1161 -15.0607
   -15.0188 -14.9043 -14.8367 -14.8120 -14.8022 -14.7714 -14.7535 -14.5540
   -14.5107 -14.4208 -14.4095 -14.2734 -14.0726 -13.9863 -13.6707 -13.5607
   -12.7694  -7.4061  -4.2368  -4.0816  -4.0623  -3.7251  -3.4841  -3.3974
    -3.2949  -3.2812  -3.2127  -3.0876  -3.0354  -2.9892  -2.8744  -2.8731
    -2.7293  -2.7008  -2.6831  -2.6734  -2.6340  -2.6082  -2.5621  -2.5100
    -2.5084  -2.4972  -2.3439  -2.2473  -2.1812  -2.1530  -2.1385  -2.1082
    -2.0328  -2.0081  -1.9965  -1.9880  -1.9023  -1.7497  -1.7453  -1.7184
    -1.6731  -1.6714  -1.6268  -1.6189  -1.4798  -1.4009  -1.2939  -1.2854
    -1.2506  -1.1810  -1.1788  -1.0802  -1.0071  -0.9600  -0.9154  -0.8091
    -0.7696  -0.7411  -0.6567  -0.5842  -0.5507  -0.5356  -0.5114  -0.4123
    -0.3951  -0.3745  -0.2913  -0.2815  -0.2328  -0.1440  -0.1236  -0.1198
    -0.0327  -0.0252   0.0779   0.1140   0.1549   0.1833   0.2729   0.3020
     0.4050   0.4470   0.4645   0.5846   0.6014   0.6634   0.7356   0.7988
     0.8199   0.8493   0.8804   0.8917   0.9718   1.0939   1.0983   1.1461
     1.2002   1.2463   1.4033   1.4422   1.7332   1.7377   2.4129   2.7673
     2.9287   3.2273   3.4273   3.5339   3.7441   3.7637   3.9369   3.9892
     4.0739

[...]

          k = 0.0380-0.0419 0.0000 ( 17876 PWs)   bands (ev):

[...]

          k =-0.0760-0.0000 0.0000 ( 17886 PWs)   bands (ev):

[...]

          k =-0.0760-0.0839 0.0000 ( 17948 PWs)   bands (ev):

   -56.4912 -56.4908 -55.5995 -55.5987 -55.5959 -55.5904 -55.4652 -55.4611
   -55.2521 -55.2472 -55.1652 -55.1553 -55.1552 -55.0580 -54.6092 -54.5836
   -32.7677 -32.7673 -32.7524 -32.7521 -32.6377 -32.6373 -31.9255 -31.9231
   -31.8998 -31.8935 -31.8555 -31.8545 -31.8130 -31.8106 -31.8092 -31.8084
   -31.7862 -31.7842 -31.7828 -31.7792 -31.7164 -31.7130 -31.6676 -31.6619
   -31.6025 -31.5941 -31.5345 -31.5299 -31.4996 -31.4995 -31.4943 -31.4509
   -31.4500 -31.4174 -31.3809 -31.3807 -31.3787 -31.3416 -31.3415 -31.3368
   -31.3010 -31.2630 -31.0074 -30.9346 -30.8349 -30.8082 -30.8034 -30.7621
   -16.0168 -16.0148 -15.9849 -15.9846 -15.7106 -15.7071 -15.6609 -15.6588
   -15.4899 -15.4836 -15.2727 -15.2645 -15.2607 -15.2564 -15.1284 -15.1219
   -15.0647 -15.0472 -14.9647 -14.9606 -14.8980 -14.8878 -14.8528 -14.8347
   -14.5128 -14.4915 -14.3723 -14.3544 -14.2206 -13.9856 -13.6642 -13.6641
   -12.7864  -7.3965  -4.0923  -4.0662  -3.1171  -3.1165  -3.0459  -3.0449
    -2.9239  -2.9188  -2.8489  -2.8481  -2.7389  -2.7365  -2.6693  -2.6065
    -2.6030  -2.6003  -2.5799  -2.5526  -2.4568  -2.4415  -2.4294  -2.4100
    -2.3655  -2.3612  -2.3606  -2.2745  -2.2590  -2.2228  -2.1829  -2.0772
    -2.0647  -2.0504  -2.0204  -1.9634  -1.9481  -1.9330  -1.8837  -1.8649
    -1.7854  -1.7377  -1.6663  -1.5580  -1.5531  -1.5448  -1.5328  -1.3769
    -1.3374  -1.3096  -1.3019  -1.2946  -1.2506  -1.1504  -1.1429  -1.0015
    -1.0012  -0.9301  -0.8489  -0.8332  -0.8026  -0.6727  -0.6290  -0.5892
    -0.5827  -0.5611  -0.5376  -0.5166  -0.4840  -0.3388  -0.3259  -0.2954
    -0.2551  -0.2476  -0.1990  -0.1345  -0.0448   0.0193   0.0206   0.0843
     0.1483   0.2059   0.2896   0.3039   0.3088   0.5894   0.6723   0.7600
     0.8353   0.9024   0.9675   0.9902   1.0583   1.0901   1.1459   1.2291
     1.2330   1.2507   1.2511   1.3208   1.3228   1.7087   2.3053   3.3410
     3.3414   3.4094   3.4099   3.7337   3.7393   3.8494   3.8597   3.9675
     3.9715

     the Fermi energy is     2.6008 ev

!    total energy              =   -2942.90422347 Ry
     estimated scf accuracy    <       0.00000005 Ry
     smearing contrib. (-TS)   =      -0.00458657 Ry
     internal energy E=F+TS    =   -2942.89963690 Ry

     The total energy is F=E-TS. E is the sum of the following terms:
     one-electron contribution =  -23044.83307025 Ry
     hartree contribution      =   11612.99184224 Ry
     xc contribution           =    -487.44308770 Ry
     ewald contribution        =    8976.38381993 Ry
     electric field correction =       0.00085889 Ry

     convergence has been achieved in  71 iterations

     Forces acting on atoms (cartesian axes, Ry/au):

     atom    1 type  1   force =     0.00001270   -0.00050087    0.12491064
     atom    2 type  1   force =    -0.00013706   -0.00063696   -0.16066979
     atom    3 type  2   force =     0.00017233   -0.00022283   -0.06927056
     atom    4 type  2   force =    -0.00004150   -0.00028050    0.02768677
     atom    5 type  2   force =    -0.01719856    0.00222268   -0.00886118
     atom    6 type  2   force =     0.01887830    0.00287378   -0.00918336
     atom    7 type  1   force =     0.00087986   -0.00375085    0.02225937
     atom    8 type  1   force =    -0.00036364   -0.00328447    0.11344226
     atom    9 type  2   force =     0.00049981   -0.00039666    0.00011147
     atom   10 type  2   force =    -0.00234467    0.00260110   -0.07309514
     atom   11 type  2   force =     0.00010957   -0.00095692   -0.00007749
     atom   12 type  2   force =     0.00001825   -0.00058620   -0.00000056
     atom   13 type  1   force =     0.00020721   -0.00019389   -0.00042790
     atom   14 type  1   force =    -0.00007718   -0.00053893   -0.00011069
     atom   15 type  2   force =    -0.00034740   -0.00099860    0.00100057
     atom   16 type  2   force =    -0.00013314   -0.00016944    0.00053939
     atom   17 type  2   force =     0.00098661   -0.00038950   -0.00031267
     atom   18 type  2   force =    -0.00070000   -0.00042306   -0.00027781
     atom   19 type  1   force =    -0.00025560    0.00006478   -0.00053165
     atom   20 type  1   force =     0.00051112   -0.00139435   -0.00171351
     atom   21 type  2   force =     0.00005121   -0.00006317    0.09969958
     atom   22 type  2   force =     0.00014651   -0.00034031   -0.00106974
     atom   23 type  2   force =    -0.07920586   -0.00006341   -0.03253221
     atom   24 type  2   force =     0.07905995    0.00036629   -0.03255676
     atom   25 type  1   force =     0.00003304   -0.00049553    0.12423862
     atom   26 type  1   force =    -0.00012745   -0.00048860   -0.16068149
     atom   27 type  2   force =     0.00028312   -0.00044840   -0.06827649
     atom   28 type  2   force =     0.00000386   -0.00013809    0.02754254
     atom   29 type  2   force =    -0.01765703    0.00173111   -0.00893453
     atom   30 type  2   force =     0.01922932    0.00199492   -0.00927277
     atom   31 type  1   force =     0.00079796   -0.00116001    0.02187613
     atom   32 type  1   force =    -0.00029126    0.00071499    0.11408688
     atom   33 type  2   force =    -0.00008164    0.00003870   -0.00051289
     atom   34 type  2   force =    -0.00201477    0.00206021   -0.07175232
     atom   35 type  2   force =     0.00000129   -0.00020727    0.00015322
     atom   36 type  2   force =    -0.00050621    0.00020599    0.00024426
     atom   37 type  1   force =     0.00087113    0.00095563   -0.00037587
     atom   38 type  1   force =    -0.00020480    0.00027045   -0.00025097
     atom   39 type  2   force =    -0.00002787   -0.00032184    0.00011225
     atom   40 type  2   force =    -0.00001332   -0.00019981   -0.00017157
     atom   41 type  2   force =     0.00028234   -0.00045809   -0.00030418
     atom   42 type  2   force =    -0.00007648   -0.00042934   -0.00034060
     atom   43 type  1   force =    -0.00037481    0.00007700   -0.00039142
     atom   44 type  1   force =     0.00001096    0.00140064   -0.00020804
     atom   45 type  2   force =     0.00004169   -0.00007451    0.09971708
     atom   46 type  2   force =    -0.07920449   -0.00002559   -0.03253700
     atom   47 type  2   force =     0.07905930    0.00041741   -0.03253602
     atom   48 type  3   force =    -0.00125467    0.00108448   -0.00833424
     atom   49 type  3   force =    -0.00074163   -0.00085891    0.00014810
     atom   50 type  4   force =    -0.00078219    0.00105903    0.01755423
     atom   51 type  5   force =    -0.00037494   -0.00345679   -0.00319300
     atom   52 type  5   force =     0.00273025    0.00228421   -0.00340216
     atom   53 type  5   force =    -0.00122242    0.00081969   -0.00179942
     atom   54 type  5   force =     0.00050391   -0.00007798   -0.00011827
     atom   55 type  5   force =     0.00031355    0.00095865   -0.00054049
     atom   56 type  5   force =     0.00006540   -0.00017006   -0.00069860

     Total force =     0.427041     Total SCF correction =     0.000569
  @ DRIVER MODE: Message from server: STATUS
  @ DRIVER MODE: Message from server: GETFORCE
  @ DRIVER MODE: Returning v,forces,stress,ensemble

     Writing output data file ./calc.save/
  @ DRIVER MODE: Message from server: EXIT
  @ DRIVE MODE: Exiting

     General routines

     Parallel routines

   This run was terminated on:   3:47:31   9Sep2021

   JOB DONE.