     Program PWSCF v.6.7GPU starts on  3Aug2021 at  1:40:12

     R & G space division:  proc/nbgrp/npool/nimage =      16
     Reading input from /storage/home/hcoda1/3/ntian30/research/carbon/02Aug_vib_paired/ads_slab/CH3NNH3_a/out_0049/pw.inp
Warning: card &CELL ignored
Warning: card   CELL_DYNAMICS='IPI', ignored
Warning: card / ignored

     Current dimensions of program PWSCF are:
     Max number of different atomic species (ntypx) = 10
     Max number of k-points (npk) =  40000
     Max angular momentum in pseudopotentials (lmaxx) =  3
     Presently no symmetry can be used with electric field

     Message from routine cell_base_init:
     DEPRECATED: use true lattice parameter, not A to a.u. conversion factor

     IMPORTANT: XC functional enforced from input :
     Exchange-correlation= BEEF-VDW
                           (   1   4  43  14   2   0   0)
     Any further DFT definition will be discarded
     Please, verify this is what you really want

  @ DRIVER MODE: Connecting to
 qe_1139763_2482544.sched-torque.pace.gatech.eduy4j2enrv_scratch
  using UNIX socket
  @ DRIVER MODE: Message from server: STATUS
  @ DRIVER MODE: Message from server: INIT
  @ DRIVER MODE: Receiving replica           0          -1
  @ DRIVER MODE: Receiving encoded integer          25
  @ DRIVER MODE:  SCF:  T  FORCE:  T  STRESS:  F  VC:  F  ENSEMBLE:  F
  @ DRIVER MODE:  SCF:  T  FORCE:  T  STRESS:  F  VC:  F  ENSEMBLE:  F

     Using Slab Decomposition

     bravais-lattice index     =            0
     lattice parameter (alat)  =       1.8897  a.u.
     unit-cell volume          =    6658.9804 (a.u.)^3
     number of atoms/cell      =           56
     number of atomic types    =            5
     number of electrons       =       398.00
     number of Kohn-Sham states=          209
     kinetic-energy cutoff     =      29.3995  Ry
     charge density cutoff     =     293.9946  Ry
     scf convergence threshold =      7.3E-08
     mixing beta               =       0.0500
     number of iterations used =            8  plain     mixing
     Exchange-correlation= BEEF-VDW
                           (   1   4  43  14   2   0   0)

     celldm(1)=   1.889726  celldm(2)=   0.000000  celldm(3)=   0.000000
     celldm(4)=   0.000000  celldm(5)=   0.000000  celldm(6)=   0.000000

     crystal axes: (cart. coord. in units of alat)
               a(1) = (   6.579727   0.000000   0.000000 )
               a(2) = (  -0.000775   5.961596   0.000000 )
               a(3) = (   0.000000   0.000000  25.155947 )

     reciprocal axes: (cart. coord. in units 2 pi/alat)
               b(1) = (  0.151982  0.000020  0.000000 )
               b(2) = (  0.000000  0.167740  0.000000 )
               b(3) = (  0.000000  0.000000  0.039752 )

     PseudoPot. # 1 for Ti read from file:
     /storage/coda1/p-amedford6/0/shared/rich_project_chbe-medford/medford-share/data/pseudos_module/espresso/nninc/pbe/van/Ti.UPF
     MD5 check sum: 8e4df49b7f0d34bbd5052bf3f5ea0213
     Pseudo is Ultrasoft, Zval = 12.0
     Generated by new atomic code, or converted to UPF format
     Using radial grid of  851 points,  6 beta functions with:
                l(1) =   0
                l(2) =   0
                l(3) =   1
                l(4) =   1
                l(5) =   2
                l(6) =   2
     Q(r) pseudized with  8 coefficients,  rinner =    1.000   1.000   1.000
                                                       1.000   1.000

     PseudoPot. # 2 for O  read from file:
     /storage/coda1/p-amedford6/0/shared/rich_project_chbe-medford/medford-share/data/pseudos_module/espresso/nninc/pbe/van/O.UPF
     MD5 check sum: 78c19812648e8988a0fe644b0f25305e
     Pseudo is Ultrasoft, Zval =  6.0
     Generated by new atomic code, or converted to UPF format
     Using radial grid of  737 points,  4 beta functions with:
                l(1) =   0
                l(2) =   0
                l(3) =   1
                l(4) =   1
     Q(r) pseudized with  8 coefficients,  rinner =    0.800   0.800   0.800

     PseudoPot. # 3 for N  read from file:
     /storage/coda1/p-amedford6/0/shared/rich_project_chbe-medford/medford-share/data/pseudos_module/espresso/nninc/pbe/van/N.UPF
     MD5 check sum: 90d10febe142ad51ac9d5be1deb811c4
     Pseudo is Ultrasoft, Zval =  5.0
     Generated by new atomic code, or converted to UPF format
     Using radial grid of  729 points,  4 beta functions with:
                l(1) =   0
                l(2) =   0
                l(3) =   1
                l(4) =   1
     Q(r) pseudized with  8 coefficients,  rinner =    0.800   0.800   0.800

     PseudoPot. # 4 for C  read from file:
     /storage/coda1/p-amedford6/0/shared/rich_project_chbe-medford/medford-share/data/pseudos_module/espresso/nninc/pbe/van/C.UPF
     MD5 check sum: 1a69bf6b8db32088f5b2163dbdb77a27
     Pseudo is Ultrasoft, Zval =  4.0
     Generated by new atomic code, or converted to UPF format
     Using radial grid of  721 points,  4 beta functions with:
                l(1) =   0
                l(2) =   0
                l(3) =   1
                l(4) =   1
     Q(r) pseudized with  8 coefficients,  rinner =    0.800   0.800   0.800

     PseudoPot. # 5 for H  read from file:
     /storage/coda1/p-amedford6/0/shared/rich_project_chbe-medford/medford-share/data/pseudos_module/espresso/nninc/pbe/van/H.UPF
     MD5 check sum: b5ee9d7bfd3a09ee7748110bda690ff7
     Pseudo is Ultrasoft, Zval =  1.0
     Generated by new atomic code, or converted to UPF format
     Using radial grid of  615 points,  1 beta functions with:
                l(1) =   0
     Q(r) pseudized with  8 coefficients,  rinner =    0.800

     atomic species   valence    mass     pseudopotential
        Ti1           12.00    47.86700     Ti( 1.00)
        O1             6.00    15.99900     O ( 1.00)
        N1             5.00    14.00700     N ( 1.00)
        C1             4.00    12.01100     C ( 1.00)
        H1             1.00     1.00800     H ( 1.00)

     No symmetry found

   Cartesian axes

     site n.     atom                  positions (alat units)
         1           Ti1 tau(   1) = (   0.0004258   2.9801865   6.0000000  )
         2           Ti1 tau(   2) = (   3.2906075   1.4906267   6.0002472  )
         3           O1  tau(   3) = (   0.0006271   0.0005054   7.9858123  )
         4           O1  tau(   4) = (   3.2906025   0.0005020   7.3038282  )
         5           O1  tau(   5) = (   4.5942328   1.4918067   9.2879030  )
         6           O1  tau(   6) = (   1.9868534   1.4903216   9.2879459  )
         7           Ti1 tau(   7) = (   3.2907910   2.8959150   9.1758416  )
         8           Ti1 tau(   8) = (   0.0015273   1.4827037   9.2680791  )
         9           O1  tau(   9) = (   3.2727297   5.9424138  11.2974721  )
        10           O1  tau(  10) = (   0.0116148   5.9584955  10.6183126  )
        11           O1  tau(  11) = (   1.3027692   1.4721713  12.6242268  )
        12           O1  tau(  12) = (   5.2784376   1.4723552  12.6258992  )
        13           Ti1 tau(  13) = (   6.4570204   2.9507206  12.7630554  )
        14           Ti1 tau(  14) = (   3.1467966   1.4649636  12.4688949  )
        15           O1  tau(  15) = (   6.5600513   5.9133837  14.5918744  )
        16           O1  tau(  16) = (   3.2766225   5.9390981  13.8789110  )
        17           O1  tau(  17) = (   4.4915826   1.4834571  16.0540230  )
        18           O1  tau(  18) = (   2.0416982   1.4849982  16.0411193  )
        19           Ti1 tau(  19) = (   3.2679172   2.9642910  15.6858091  )
        20           Ti1 tau(  20) = (   6.5495220   1.5641796  16.1095294  )
        21           O1  tau(  21) = (   3.2904802   0.0005063   4.7018136  )
        22           O1  tau(  22) = (   6.5606002   0.0080969  17.2010096  )
        23           O1  tau(  23) = (   1.3043587   1.4918075   6.0039043  )
        24           O1  tau(  24) = (   5.2767064   1.4903225   6.0039473  )
        25           Ti1 tau(  25) = (   0.0000382   5.9609847   6.0000000  )
        26           Ti1 tau(  26) = (   3.2902200   4.4714249   6.0002472  )
        27           O1  tau(  27) = (   0.0002396   2.9813036   7.9858123  )
        28           O1  tau(  28) = (   3.2902150   2.9813002   7.3038282  )
        29           O1  tau(  29) = (   4.5938453   4.4726049   9.2879030  )
        30           O1  tau(  30) = (   1.9864658   4.4711199   9.2879459  )
        31           Ti1 tau(  31) = (   3.2891106   5.8743827   9.1763621  )
        32           Ti1 tau(  32) = (   0.0006254   4.4649316   9.2693709  )
        33           O1  tau(  33) = (   3.2718307   2.9587034  11.2961003  )
        34           O1  tau(  34) = (   0.0092240   2.9805883  10.6323155  )
        35           O1  tau(  35) = (   1.3028232   4.4416136  12.6207192  )
        36           O1  tau(  36) = (   5.2777600   4.4366566  12.6238879  )
        37           Ti1 tau(  37) = (   6.4830488   5.9304874  12.7660964  )
        38           Ti1 tau(  38) = (   3.1463657   4.4448748  12.4639736  )
        39           O1  tau(  39) = (   6.5417323   2.9404903  14.6589984  )
        40           O1  tau(  40) = (   3.2789452   2.9619718  13.8791424  )
        41           O1  tau(  41) = (   4.4971312   4.4676043  16.0556370  )
        42           O1  tau(  42) = (   2.0400509   4.4648231  16.0515753  )
        43           Ti1 tau(  43) = (   3.2598176   5.9476019  15.6881950  )
        44           Ti1 tau(  44) = (   6.5485469   4.5424454  16.1156095  )
        45           O1  tau(  45) = (   3.2900926   2.9813045   4.7018136  )
        46           O1  tau(  46) = (   1.3039711   4.4726057   6.0039043  )
        47           O1  tau(  47) = (   5.2763189   4.4711207   6.0039473  )
        48           N1  tau(  48) = (   0.0016189   2.9795595  17.3279962  )
        49           C1  tau(  49) = (   0.1681806   3.0735589  18.7581663  )
        50           H1  tau(  50) = (   6.0068595   3.7517258  19.1994632  )
        51           H1  tau(  51) = (   0.0766375   2.0971904  19.2409400  )
        52           H1  tau(  52) = (   1.1565538   3.4901639  19.0026035  )
        53           N1  tau(  53) = (   4.7601180   1.8141088  21.6614004  )
        54           H1  tau(  54) = (   4.4666586   2.7830198  21.5980365  )
        55           H1  tau(  55) = (   4.1231612   1.2775871  21.0809158  )
        56           H1  tau(  56) = (   4.5915807   1.5257772  22.6208530  )

     number of k points=    10  Fermi-Dirac smearing, width (Ry)=  0.0073
                       cart. coord. in units 2pi/alat
        k(    1) = (   0.0000000   0.0000000   0.0000000), wk =   0.1250000
        k(    2) = (   0.0000000   0.0419351   0.0000000), wk =   0.2500000
        k(    3) = (   0.0000000  -0.0838702   0.0000000), wk =   0.1250000
        k(    4) = (   0.0379955   0.0000049   0.0000000), wk =   0.2500000
        k(    5) = (   0.0379955   0.0419400   0.0000000), wk =   0.2500000
        k(    6) = (   0.0379955  -0.0838652   0.0000000), wk =   0.2500000
        k(    7) = (   0.0379955  -0.0419301   0.0000000), wk =   0.2500000
        k(    8) = (  -0.0759910  -0.0000099   0.0000000), wk =   0.1250000
        k(    9) = (  -0.0759910   0.0419252   0.0000000), wk =   0.2500000
        k(   10) = (  -0.0759910  -0.0838800   0.0000000), wk =   0.1250000

     Initial potential from superposition of free atoms

     starting charge  381.99914, renormalised to  398.00000

     negative rho (up, down):  9.480E-03 0.000E+00

     %%%%%%%%%%%%%%%%%%%%%%%%%%%%%%%%%%%%%%%%%%%%%%%%%%%%%%%%%%%%%%%%%%%%%%%%
     %                                                                      %
     % You are using vdW-DF, which was implemented by the Thonhauser group. %
     % Please cite the following two papers that made this development      %
     % possible and the two reviews that describe the various versions:     %
     %                                                                      %
     %   T. Thonhauser et al., PRL 115, 136402 (2015).                      %
     %   T. Thonhauser et al., PRB 76, 125112 (2007).                       %
     %   K. Berland et al., Rep. Prog. Phys. 78, 066501 (2015).             %
     %   D.C. Langreth et al., J. Phys.: Condens. Matter 21, 084203 (2009). %
     %                                                                      %
     %                                                                      %
     % If you are calculating the stress with vdW-DF, please also cite:     %
     %                                                                      %
     %   R. Sabatini et al., J. Phys.: Condens. Matter 24, 424209 (2012).   %
     %                                                                      %
     %%%%%%%%%%%%%%%%%%%%%%%%%%%%%%%%%%%%%%%%%%%%%%%%%%%%%%%%%%%%%%%%%%%%%%%%

     Adding external electric field

     Computed dipole along edir(3) :
        Dipole              -11.3717 Ry au,        -28.9040 Debye
        Dipole field         -0.0215 Ry au,

        Potential amp.        1.9893 Ry
        Total length         46.3494 bohr

     Starting wfcs are  302 atomic wfcs
  @ DRIVER MODE: Message from server: STATUS
  @ DRIVER MODE: Message from server: POSDATA
  @ DRIVER MODE: Reading and sharing cell
  @ DRIVER MODE: Reading and sharing positions
  @ DRIVER MODE: Received positions

     Self-consistent Calculation

     iteration #  1     ecut=    29.40 Ry     beta= 0.05
     Davidson diagonalization with overlap
     c_bands:  1 eigenvalues not converged
     c_bands:  1 eigenvalues not converged
     c_bands:  2 eigenvalues not converged
     c_bands:  1 eigenvalues not converged
     c_bands:  1 eigenvalues not converged
     c_bands:  1 eigenvalues not converged
     c_bands:  1 eigenvalues not converged
     c_bands:  2 eigenvalues not converged
     c_bands:  2 eigenvalues not converged
     ethr =  1.00E-05,  avg # of iterations = 19.6

[...]

     total energy              =   -2520.80981182 Ry
     estimated scf accuracy    <    4705.91272529 Ry

     iteration #  2     ecut=    29.40 Ry     beta= 0.05
     Davidson diagonalization with overlap
     ethr =  1.00E-02,  avg # of iterations = 22.0

[...]

     iteration # 41     ecut=    29.40 Ry     beta= 0.05
     Davidson diagonalization with overlap
     c_bands:  1 eigenvalues not converged
     c_bands:  2 eigenvalues not converged
     ethr =  3.14E-06,  avg # of iterations = 17.0

[...]

     total energy              =   -2942.90678341 Ry
     estimated scf accuracy    <       0.00000008 Ry

     iteration # 67     ecut=    29.40 Ry     beta= 0.05
     Davidson diagonalization with overlap
     ethr =  1.89E-11,  avg # of iterations =  2.0

     negative rho (up, down):  1.096E-02 0.000E+00

     Adding external electric field

     Computed dipole along edir(3) :
        Dipole                0.4516 Ry au,          1.1478 Debye
        Dipole field          0.0009 Ry au,

        Potential amp.       -0.0790 Ry
        Total length         46.3494 bohr

     End of self-consistent calculation

          k = 0.0000 0.0000 0.0000 ( 18029 PWs)   bands (ev):

   -56.6146 -56.5810 -55.7340 -55.7254 -55.6986 -55.6931 -55.5884 -55.5526
   -55.3716 -55.3363 -55.2791 -55.2732 -55.2452 -55.1711 -54.7341 -54.6209
   -33.0425 -32.8892 -32.8611 -32.7909 -32.6998 -32.6685 -32.2086 -32.1979
   -32.1314 -32.0203 -31.9753 -31.9472 -31.9332 -31.9084 -31.8758 -31.8732
   -31.8692 -31.8625 -31.8394 -31.8362 -31.8246 -31.7966 -31.7714 -31.7578
   -31.7446 -31.7246 -31.7166 -31.6933 -31.6715 -31.6176 -31.6030 -31.5935
   -31.5154 -31.5103 -31.4902 -31.4486 -31.4383 -31.4067 -31.3999 -31.3755
   -31.3543 -31.2957 -31.2356 -30.9751 -30.9626 -30.8804 -30.8409 -30.7499
   -16.7788 -16.3444 -16.1147 -15.9773 -15.9096 -15.8554 -15.8100 -15.6889
   -15.6160 -15.6095 -15.5692 -15.5388 -15.4682 -15.3273 -15.2292 -15.1758
   -15.1315 -15.0105 -14.9503 -14.9177 -14.9129 -14.8786 -14.8590 -14.6630
   -14.6385 -14.5359 -14.5261 -14.4004 -14.1780 -13.7780 -13.7228 -13.6679
   -12.7983  -7.4947  -4.3445  -3.8395  -3.7733  -3.7716  -3.6022  -3.5152
    -3.4077  -3.3948  -3.3137  -3.1956  -3.1495  -3.1018  -2.9858  -2.9858
    -2.8363  -2.7964  -2.7905  -2.7865  -2.7415  -2.6782  -2.6624  -2.6235
    -2.6181  -2.6087  -2.4580  -2.3578  -2.2906  -2.2691  -2.2588  -2.2229
    -2.1448  -2.1247  -2.1099  -2.1063  -2.0058  -1.8572  -1.8555  -1.8245
    -1.7810  -1.7792  -1.7414  -1.7266  -1.5912  -1.5175  -1.4146  -1.3973
    -1.3589  -1.2945  -1.2883  -1.1903  -1.1159  -1.0534  -1.0278  -0.9188
    -0.8763  -0.8538  -0.7641  -0.7021  -0.6624  -0.6448  -0.6280  -0.5243
    -0.5043  -0.4932  -0.4084  -0.3967  -0.3394  -0.2580  -0.2383  -0.2322
    -0.1440  -0.1388  -0.0466  -0.0047   0.0370   0.0820   0.1778   0.1961
     0.2990   0.3344   0.3559   0.4756   0.4887   0.5515   0.6188   0.6864
     0.7176   0.7421   0.7715   0.7932   0.8664   0.9813   0.9862   1.0880
     1.1273   1.2951   1.3340   1.3700   1.6219   1.6476   2.3187   2.6599
     2.8199   3.1183   3.3093   3.4204   3.6353   3.6504   3.6557   3.8338
     3.8795

[...]

          k = 0.0380-0.0419 0.0000 ( 17876 PWs)   bands (ev):

[...]

          k =-0.0760-0.0000 0.0000 ( 17886 PWs)   bands (ev):

[...]

          k =-0.0760-0.0839 0.0000 ( 17948 PWs)   bands (ev):

   -56.5979 -56.5976 -55.7180 -55.7128 -55.7103 -55.7096 -55.5732 -55.5677
   -55.3567 -55.3510 -55.2701 -55.2622 -55.2621 -55.1740 -54.7312 -54.6237
   -32.8750 -32.8748 -32.8595 -32.8592 -32.7439 -32.7436 -32.0382 -32.0356
   -32.0222 -32.0161 -31.9660 -31.9648 -31.9226 -31.9211 -31.9198 -31.9188
   -31.9078 -31.9052 -31.9038 -31.9015 -31.8253 -31.8208 -31.7745 -31.7691
   -31.7081 -31.7008 -31.6397 -31.6330 -31.6065 -31.6064 -31.5997 -31.5557
   -31.5536 -31.5258 -31.4908 -31.4877 -31.4876 -31.4486 -31.4486 -31.4438
   -31.4169 -31.3776 -31.1144 -30.9951 -30.9622 -30.9304 -30.8434 -30.8086
   -16.1271 -16.1250 -16.0929 -16.0926 -15.8228 -15.8191 -15.7749 -15.7732
   -15.6005 -15.5945 -15.3878 -15.3777 -15.3718 -15.3677 -15.2436 -15.2347
   -15.1714 -15.1606 -15.0713 -15.0679 -15.0050 -14.9989 -14.9609 -14.9411
   -14.6246 -14.6170 -14.4894 -14.4807 -14.3280 -13.7714 -13.7714 -13.7220
   -12.8148  -7.4847  -3.7878  -3.7719  -3.2266  -3.2261  -3.1605  -3.1592
    -3.0384  -3.0336  -2.9570  -2.9565  -2.8572  -2.8529  -2.7572  -2.7133
    -2.7111  -2.7085  -2.6956  -2.6530  -2.5575  -2.5572  -2.5424  -2.5273
    -2.4718  -2.4697  -2.4552  -2.3827  -2.3692  -2.3333  -2.2940  -2.1874
    -2.1738  -2.1573  -2.1314  -2.0713  -2.0567  -2.0453  -1.9978  -1.9733
    -1.8955  -1.8289  -1.7876  -1.6678  -1.6643  -1.6545  -1.6424  -1.4873
    -1.4515  -1.4202  -1.4106  -1.4045  -1.3601  -1.2621  -1.2541  -1.1196
    -1.1170  -1.0473  -0.9654  -0.9422  -0.9201  -0.7858  -0.7454  -0.7045
    -0.6995  -0.6745  -0.6488  -0.6292  -0.6016  -0.4501  -0.4308  -0.3966
    -0.3658  -0.3576  -0.3164  -0.2481  -0.1683  -0.0876  -0.0864  -0.0200
     0.0322   0.0940   0.1820   0.1944   0.1984   0.4812   0.5614   0.6486
     0.7277   0.7916   0.8574   0.8820   0.9425   0.9816   1.1216   1.1244
     1.1431   1.1436   1.2036   1.2119   1.3528   1.6435   2.2053   3.2330
     3.2333   3.3004   3.3008   3.6246   3.6301   3.7391   3.7481   3.8581
     3.8635

     the Fermi energy is     2.4979 ev

!    total energy              =   -2942.90680709 Ry
     estimated scf accuracy    <       0.00000006 Ry
     smearing contrib. (-TS)   =      -0.00477551 Ry
     internal energy E=F+TS    =   -2942.90203158 Ry

     The total energy is F=E-TS. E is the sum of the following terms:
     one-electron contribution =  -23225.47351508 Ry
     hartree contribution      =   11703.01427983 Ry
     xc contribution           =    -487.46694935 Ry
     ewald contribution        =    9067.02376821 Ry
     electric field correction =       0.00038481 Ry

     convergence has been achieved in  67 iterations

     Forces acting on atoms (cartesian axes, Ry/au):

     atom    1 type  1   force =     0.00000706   -0.00044107    0.12432418
     atom    2 type  1   force =    -0.00005638   -0.00055003   -0.16062295
     atom    3 type  2   force =     0.00016449   -0.00030137   -0.06835474
     atom    4 type  2   force =    -0.00005259   -0.00038753    0.02753490
     atom    5 type  2   force =    -0.01677479    0.00112339   -0.00831813
     atom    6 type  2   force =     0.01782602    0.00162325   -0.01021166
     atom    7 type  1   force =     0.00039899   -0.00407696    0.02180506
     atom    8 type  1   force =     0.00020156   -0.00219434    0.11168549
     atom    9 type  2   force =     0.00010369    0.00018729   -0.00029989
     atom   10 type  2   force =    -0.00319705    0.00010765   -0.07304496
     atom   11 type  2   force =    -0.00035600    0.00033022   -0.00006657
     atom   12 type  2   force =     0.00013883    0.00044849   -0.00002796
     atom   13 type  1   force =     0.00013879   -0.00024591   -0.00002317
     atom   14 type  1   force =    -0.00015793    0.00003892   -0.00031770
     atom   15 type  2   force =    -0.00004654   -0.00024368    0.00018026
     atom   16 type  2   force =     0.00032785    0.00076760   -0.00000180
     atom   17 type  2   force =     0.00019687    0.00030910   -0.00029632
     atom   18 type  2   force =    -0.00020292    0.00021170    0.00010324
     atom   19 type  1   force =     0.00050282   -0.00008806   -0.00022084
     atom   20 type  1   force =     0.00026187   -0.00037626   -0.00050140
     atom   21 type  2   force =     0.00010246    0.00008027    0.09965034
     atom   22 type  2   force =     0.00007793    0.00095531    0.00045289
     atom   23 type  2   force =    -0.07915760    0.00008591   -0.03242993
     atom   24 type  2   force =     0.07906484    0.00051210   -0.03242310
     atom   25 type  1   force =     0.00002673   -0.00041612    0.12384089
     atom   26 type  1   force =    -0.00003788   -0.00042299   -0.16074423
     atom   27 type  2   force =     0.00028780   -0.00046810   -0.06734609
     atom   28 type  2   force =    -0.00005540   -0.00020293    0.02727074
     atom   29 type  2   force =    -0.01730586    0.00073803   -0.00824426
     atom   30 type  2   force =     0.01827282    0.00113533   -0.01008166
     atom   31 type  1   force =     0.00033806   -0.00099646    0.02127042
     atom   32 type  1   force =     0.00021696   -0.00027192    0.11224167
     atom   33 type  2   force =     0.00012179    0.00051164   -0.00006660
     atom   34 type  2   force =    -0.00294450   -0.00065494   -0.07289740
     atom   35 type  2   force =    -0.00026085    0.00027396   -0.00009104
     atom   36 type  2   force =     0.00009690    0.00014125   -0.00003132
     atom   37 type  1   force =     0.00013896   -0.00015250    0.00023336
     atom   38 type  1   force =     0.00007146    0.00005348    0.00031187
     atom   39 type  2   force =     0.00021258    0.00037819   -0.00016233
     atom   40 type  2   force =     0.00010000    0.00034578    0.00013826
     atom   41 type  2   force =    -0.00015476    0.00033298    0.00015121
     atom   42 type  2   force =    -0.00003415    0.00060194   -0.00003127
     atom   43 type  1   force =     0.00060243    0.00052504    0.00047368
     atom   44 type  1   force =     0.00014925    0.00032911   -0.00041461
     atom   45 type  2   force =     0.00010557    0.00005109    0.09968408
     atom   46 type  2   force =    -0.07916829    0.00012909   -0.03243098
     atom   47 type  2   force =     0.07906895    0.00056129   -0.03241853
     atom   48 type  3   force =     0.00042518    0.00029547   -0.00025824
     atom   49 type  4   force =     0.00072455   -0.00036171    0.00179279
     atom   50 type  5   force =     0.00056077   -0.00035900   -0.00036914
     atom   51 type  5   force =    -0.00021330    0.00033793   -0.00011419
     atom   52 type  5   force =    -0.00072423   -0.00060092    0.00024025
     atom   53 type  3   force =     0.00005589   -0.00160648    0.00350851
     atom   54 type  5   force =    -0.00022282    0.00103945   -0.00133364
     atom   55 type  5   force =     0.00017332    0.00063792   -0.00068793
     atom   56 type  5   force =    -0.00014019    0.00021906   -0.00200952

     Total force =     0.424925     Total SCF correction =     0.000529
  @ DRIVER MODE: Message from server: STATUS
  @ DRIVER MODE: Message from server: GETFORCE
  @ DRIVER MODE: Returning v,forces,stress,ensemble

     Writing output data file ./calc.save/
  @ DRIVER MODE: Message from server: EXIT
  @ DRIVE MODE: Exiting

     General routines

     Parallel routines

   This run was terminated on:   1:54:49   3Aug2021

   JOB DONE.