     Program PWSCF v.6.7GPU starts on 22Sep2021 at 17:51: 1

     R & G space division:  proc/nbgrp/npool/nimage =      10
     Reading input from /storage/home/hcoda1/3/ntian30/research/carbon/CxH_vib/H2O_calc/ads_slab/CHNHNHH2O_b/out_0006/pw.inp
Warning: card &CELL ignored
Warning: card   CELL_DYNAMICS='IPI', ignored
Warning: card / ignored

     Current dimensions of program PWSCF are:
     Max number of different atomic species (ntypx) = 10
     Max number of k-points (npk) =  40000
     Max angular momentum in pseudopotentials (lmaxx) =  3
     Presently no symmetry can be used with electric field

     Message from routine cell_base_init:
     DEPRECATED: use true lattice parameter, not A to a.u. conversion factor

     IMPORTANT: XC functional enforced from input :
     Exchange-correlation= BEEF-VDW
                           (   1   4  43  14   2   0   0)
     Any further DFT definition will be discarded
     Please, verify this is what you really want

  @ DRIVER MODE: Connecting to
 qe_1139763_2937311.sched-torque.pace.gatech.eduzi7stqrt_scratch
  using UNIX socket
  @ DRIVER MODE: Message from server: STATUS
  @ DRIVER MODE: Message from server: INIT
  @ DRIVER MODE: Receiving replica           0          -1
  @ DRIVER MODE: Receiving encoded integer          25
  @ DRIVER MODE:  SCF:  T  FORCE:  T  STRESS:  F  VC:  F  ENSEMBLE:  F
  @ DRIVER MODE:  SCF:  T  FORCE:  T  STRESS:  F  VC:  F  ENSEMBLE:  F

     Using Slab Decomposition

     bravais-lattice index     =            0
     lattice parameter (alat)  =       1.8897  a.u.
     unit-cell volume          =    6658.9804 (a.u.)^3
     number of atoms/cell      =           56
     number of atomic types    =            5
     number of electrons       =       403.00
     number of Kohn-Sham states=          211
     kinetic-energy cutoff     =      29.3995  Ry
     charge density cutoff     =     293.9946  Ry
     scf convergence threshold =      7.3E-08
     mixing beta               =       0.0500
     number of iterations used =            8  plain     mixing
     Exchange-correlation= BEEF-VDW
                           (   1   4  43  14   2   0   0)

     celldm(1)=   1.889726  celldm(2)=   0.000000  celldm(3)=   0.000000
     celldm(4)=   0.000000  celldm(5)=   0.000000  celldm(6)=   0.000000

     crystal axes: (cart. coord. in units of alat)
               a(1) = (   6.579727   0.000000   0.000000 )
               a(2) = (  -0.000775   5.961596   0.000000 )
               a(3) = (   0.000000   0.000000  25.155947 )

     reciprocal axes: (cart. coord. in units 2 pi/alat)
               b(1) = (  0.151982  0.000020  0.000000 )
               b(2) = (  0.000000  0.167740  0.000000 )
               b(3) = (  0.000000  0.000000  0.039752 )

     PseudoPot. # 1 for Ti read from file:
     /storage/coda1/p-amedford6/0/shared/rich_project_chbe-medford/medford-share/data/pseudos_module/espresso/nninc/pbe/van/Ti.UPF
     MD5 check sum: 8e4df49b7f0d34bbd5052bf3f5ea0213
     Pseudo is Ultrasoft, Zval = 12.0
     Generated by new atomic code, or converted to UPF format
     Using radial grid of  851 points,  6 beta functions with:
                l(1) =   0
                l(2) =   0
                l(3) =   1
                l(4) =   1
                l(5) =   2
                l(6) =   2
     Q(r) pseudized with  8 coefficients,  rinner =    1.000   1.000   1.000
                                                       1.000   1.000

     PseudoPot. # 2 for O  read from file:
     /storage/coda1/p-amedford6/0/shared/rich_project_chbe-medford/medford-share/data/pseudos_module/espresso/nninc/pbe/van/O.UPF
     MD5 check sum: 78c19812648e8988a0fe644b0f25305e
     Pseudo is Ultrasoft, Zval =  6.0
     Generated by new atomic code, or converted to UPF format
     Using radial grid of  737 points,  4 beta functions with:
                l(1) =   0
                l(2) =   0
                l(3) =   1
                l(4) =   1
     Q(r) pseudized with  8 coefficients,  rinner =    0.800   0.800   0.800

     PseudoPot. # 3 for N  read from file:
     /storage/coda1/p-amedford6/0/shared/rich_project_chbe-medford/medford-share/data/pseudos_module/espresso/nninc/pbe/van/N.UPF
     MD5 check sum: 90d10febe142ad51ac9d5be1deb811c4
     Pseudo is Ultrasoft, Zval =  5.0
     Generated by new atomic code, or converted to UPF format
     Using radial grid of  729 points,  4 beta functions with:
                l(1) =   0
                l(2) =   0
                l(3) =   1
                l(4) =   1
     Q(r) pseudized with  8 coefficients,  rinner =    0.800   0.800   0.800

     PseudoPot. # 4 for C  read from file:
     /storage/coda1/p-amedford6/0/shared/rich_project_chbe-medford/medford-share/data/pseudos_module/espresso/nninc/pbe/van/C.UPF
     MD5 check sum: 1a69bf6b8db32088f5b2163dbdb77a27
     Pseudo is Ultrasoft, Zval =  4.0
     Generated by new atomic code, or converted to UPF format
     Using radial grid of  721 points,  4 beta functions with:
                l(1) =   0
                l(2) =   0
                l(3) =   1
                l(4) =   1
     Q(r) pseudized with  8 coefficients,  rinner =    0.800   0.800   0.800

     PseudoPot. # 5 for H  read from file:
     /storage/coda1/p-amedford6/0/shared/rich_project_chbe-medford/medford-share/data/pseudos_module/espresso/nninc/pbe/van/H.UPF
     MD5 check sum: b5ee9d7bfd3a09ee7748110bda690ff7
     Pseudo is Ultrasoft, Zval =  1.0
     Generated by new atomic code, or converted to UPF format
     Using radial grid of  615 points,  1 beta functions with:
                l(1) =   0
     Q(r) pseudized with  8 coefficients,  rinner =    0.800

     atomic species   valence    mass     pseudopotential
        Ti1           12.00    47.86700     Ti( 1.00)
        O1             6.00    15.99900     O ( 1.00)
        N1             5.00    14.00700     N ( 1.00)
        C1             4.00    12.01100     C ( 1.00)
        H1             1.00     1.00800     H ( 1.00)

     No symmetry found

   Cartesian axes

     site n.     atom                  positions (alat units)
         1           Ti1 tau(   1) = (   0.0004258   2.9801865   6.0000000  )
         2           Ti1 tau(   2) = (   3.2906075   1.4906267   6.0002472  )
         3           O1  tau(   3) = (   0.0006271   0.0005054   7.9858123  )
         4           O1  tau(   4) = (   3.2906025   0.0005020   7.3038282  )
         5           O1  tau(   5) = (   4.5942328   1.4918067   9.2879030  )
         6           O1  tau(   6) = (   1.9868534   1.4903216   9.2879459  )
         7           Ti1 tau(   7) = (   3.2907910   2.8959150   9.1758416  )
         8           Ti1 tau(   8) = (   0.0015273   1.4827037   9.2680791  )
         9           O1  tau(   9) = (   3.2780774   5.9605562  11.3537357  )
        10           O1  tau(  10) = (   0.0116148   5.9584955  10.6183126  )
        11           O1  tau(  11) = (   1.2922713   1.4781662  12.6511241  )
        12           O1  tau(  12) = (   5.2965393   1.5043564  12.6031353  )
        13           Ti1 tau(  13) = (   6.5273184   3.0207086  12.5807821  )
        14           Ti1 tau(  14) = (   3.2344070   1.4559942  12.5004267  )
        15           O1  tau(  15) = (   6.4759410   0.0295824  14.6525783  )
        16           O1  tau(  16) = (   3.3604338   0.0238249  13.9383540  )
        17           O1  tau(  17) = (   4.5324113   1.5808541  16.1066768  )
        18           O1  tau(  18) = (   1.9684897   1.4712893  15.8817925  )
        19           Ti1 tau(  19) = (   3.2566353   3.0739815  15.8599551  )
        20           Ti1 tau(  20) = (   6.5466614   1.5318677  15.7800735  )
        21           O1  tau(  21) = (   3.2904802   0.0005063   4.7018136  )
        22           O1  tau(  22) = (   6.5744325   0.0155309  17.2227980  )
        23           O1  tau(  23) = (   1.3043587   1.4918075   6.0039043  )
        24           O1  tau(  24) = (   5.2767064   1.4903225   6.0039473  )
        25           Ti1 tau(  25) = (   0.0000382   5.9609847   6.0000000  )
        26           Ti1 tau(  26) = (   3.2902200   4.4714249   6.0002472  )
        27           O1  tau(  27) = (   0.0002396   2.9813036   7.9858123  )
        28           O1  tau(  28) = (   3.2902150   2.9813002   7.3038282  )
        29           O1  tau(  29) = (   4.5938453   4.4726049   9.2879030  )
        30           O1  tau(  30) = (   1.9864658   4.4711199   9.2879459  )
        31           Ti1 tau(  31) = (   3.2891106   5.8743827   9.1763621  )
        32           Ti1 tau(  32) = (   0.0006254   4.4649316   9.2693709  )
        33           O1  tau(  33) = (   3.2727763   2.9788165  11.3438337  )
        34           O1  tau(  34) = (   0.0092240   2.9805883  10.6323155  )
        35           O1  tau(  35) = (   1.2865780   4.4896361  12.6556599  )
        36           O1  tau(  36) = (   5.2967437   4.4749066  12.6066920  )
        37           Ti1 tau(  37) = (   6.5467059   0.0356701  12.5108493  )
        38           Ti1 tau(  38) = (   3.2305653   4.4019604  12.5605372  )
        39           O1  tau(  39) = (   6.5199767   2.9846217  14.6905747  )
        40           O1  tau(  40) = (   3.2851694   3.0254550  13.9321539  )
        41           O1  tau(  41) = (   4.5310495   4.4602642  16.1636806  )
        42           O1  tau(  42) = (   1.9842988   4.5744318  15.9411167  )
        43           Ti1 tau(  43) = (   3.2691225   0.1036042  15.7405456  )
        44           Ti1 tau(  44) = (   6.5697781   4.6877429  16.0360384  )
        45           O1  tau(  45) = (   3.2900926   2.9813045   4.7018136  )
        46           O1  tau(  46) = (   1.3039711   4.4726057   6.0039043  )
        47           O1  tau(  47) = (   5.2763189   4.4711207   6.0039473  )
        48           N1  tau(  48) = (   1.2792381   2.8578196  18.3796018  )
        49           N1  tau(  49) = (   0.1888888   2.9646215  17.5057353  )
        50           C1  tau(  50) = (   2.5352320   2.9081513  18.0382144  )
        51           H1  tau(  51) = (   3.1442446   2.7411670  18.9317345  )
        52           H1  tau(  52) = (   1.0014291   2.6635404  19.3302151  )
        53           H1  tau(  53) = (   5.9397212   2.8571719  18.0851170  )
        54           O1  tau(  54) = (   3.2630597   0.0341043  18.2348460  )
        55           H1  tau(  55) = (   4.0455299   5.4198958  18.2485053  )
        56           H1  tau(  56) = (   2.4923979   5.4091459  18.3156537  )

     number of k points=    10  Fermi-Dirac smearing, width (Ry)=  0.0073
                       cart. coord. in units 2pi/alat
        k(    1) = (   0.0000000   0.0000000   0.0000000), wk =   0.1250000
        k(    2) = (   0.0000000   0.0419351   0.0000000), wk =   0.2500000
        k(    3) = (   0.0000000  -0.0838702   0.0000000), wk =   0.1250000
        k(    4) = (   0.0379955   0.0000049   0.0000000), wk =   0.2500000
        k(    5) = (   0.0379955   0.0419400   0.0000000), wk =   0.2500000
        k(    6) = (   0.0379955  -0.0838652   0.0000000), wk =   0.2500000
        k(    7) = (   0.0379955  -0.0419301   0.0000000), wk =   0.2500000
        k(    8) = (  -0.0759910  -0.0000099   0.0000000), wk =   0.1250000
        k(    9) = (  -0.0759910   0.0419252   0.0000000), wk =   0.2500000
        k(   10) = (  -0.0759910  -0.0838800   0.0000000), wk =   0.1250000

     Initial potential from superposition of free atoms

     starting charge  386.99914, renormalised to  403.00000

     negative rho (up, down):  1.738E-02 0.000E+00

     %%%%%%%%%%%%%%%%%%%%%%%%%%%%%%%%%%%%%%%%%%%%%%%%%%%%%%%%%%%%%%%%%%%%%%%%
     %                                                                      %
     % You are using vdW-DF, which was implemented by the Thonhauser group. %
     % Please cite the following two papers that made this development      %
     % possible and the two reviews that describe the various versions:     %
     %                                                                      %
     %   T. Thonhauser et al., PRL 115, 136402 (2015).                      %
     %   T. Thonhauser et al., PRB 76, 125112 (2007).                       %
     %   K. Berland et al., Rep. Prog. Phys. 78, 066501 (2015).             %
     %   D.C. Langreth et al., J. Phys.: Condens. Matter 21, 084203 (2009). %
     %                                                                      %
     %                                                                      %
     % If you are calculating the stress with vdW-DF, please also cite:     %
     %                                                                      %
     %   R. Sabatini et al., J. Phys.: Condens. Matter 24, 424209 (2012).   %
     %                                                                      %
     %%%%%%%%%%%%%%%%%%%%%%%%%%%%%%%%%%%%%%%%%%%%%%%%%%%%%%%%%%%%%%%%%%%%%%%%

     Adding external electric field

     Computed dipole along edir(3) :
        Dipole              -12.3502 Ry au,        -31.3910 Debye
        Dipole field         -0.0233 Ry au,

        Potential amp.        2.1605 Ry
        Total length         46.3494 bohr

     Starting wfcs are  305 atomic wfcs
  @ DRIVER MODE: Message from server: STATUS
  @ DRIVER MODE: Message from server: POSDATA
  @ DRIVER MODE: Reading and sharing cell
  @ DRIVER MODE: Reading and sharing positions
  @ DRIVER MODE: Received positions

     Self-consistent Calculation

     iteration #  1     ecut=    29.40 Ry     beta= 0.05
     Davidson diagonalization with overlap
     c_bands:  5 eigenvalues not converged
     c_bands:  3 eigenvalues not converged
     c_bands:  3 eigenvalues not converged
     c_bands:  1 eigenvalues not converged
     c_bands:  2 eigenvalues not converged
     c_bands:  2 eigenvalues not converged
     c_bands:  5 eigenvalues not converged
     c_bands:  2 eigenvalues not converged
     c_bands:  4 eigenvalues not converged
     ethr =  1.00E-05,  avg # of iterations = 29.3

[...]

     total energy              =   -2358.71976810 Ry
     estimated scf accuracy    <    6971.48858521 Ry

     iteration #  2     ecut=    29.40 Ry     beta= 0.05
     Davidson diagonalization with overlap
     ethr =  1.00E-02,  avg # of iterations = 26.2

[...]

     iteration # 50     ecut=    29.40 Ry     beta= 0.05
     Davidson diagonalization with overlap
     c_bands:  2 eigenvalues not converged
     ethr =  1.23E-10,  avg # of iterations = 10.7

[...]

     total energy              =   -2973.93980488 Ry
     estimated scf accuracy    <       0.00000012 Ry

     iteration # 53     ecut=    29.40 Ry     beta= 0.05
     Davidson diagonalization with overlap
     ethr =  2.97E-11,  avg # of iterations = 12.3

     negative rho (up, down):  1.726E-02 0.000E+00

     Adding external electric field

     Computed dipole along edir(3) :
        Dipole                1.3991 Ry au,          3.5562 Debye
        Dipole field          0.0026 Ry au,

        Potential amp.       -0.2448 Ry
        Total length         46.3494 bohr

     End of self-consistent calculation

          k = 0.0000 0.0000 0.0000 ( 18029 PWs)   bands (ev):

   -55.3201 -55.2861 -55.2110 -55.1863 -55.1680 -55.1563 -55.1411 -55.1190
   -55.1072 -55.1068 -55.0983 -55.0638 -54.9902 -54.8318 -54.3005 -54.2665
   -31.8044 -31.7320 -31.6580 -31.6506 -31.6408 -31.6121 -31.5880 -31.5653
   -31.5204 -31.4992 -31.4725 -31.4646 -31.4562 -31.4415 -31.4262 -31.4221
   -31.3987 -31.3809 -31.3774 -31.3656 -31.3369 -31.3337 -31.3294 -31.3265
   -31.3238 -31.3199 -31.3157 -31.2976 -31.2899 -31.2799 -31.2734 -31.2730
   -31.2645 -31.2613 -31.2528 -31.2489 -31.2381 -31.2132 -31.2108 -31.0878
   -31.0733 -31.0473 -30.7074 -30.6193 -30.5969 -30.5244 -30.4379 -30.3266
   -18.8768 -18.6087 -15.9784 -15.7945 -15.6134 -15.4746 -15.3924 -15.1609
   -15.1020 -15.0639 -14.9829 -14.9595 -14.8597 -14.8407 -14.8389 -14.8210
   -14.8181 -14.7631 -14.7471 -14.7433 -14.6947 -14.6879 -14.6626 -14.6473
   -14.5939 -14.5159 -14.5078 -14.4611 -14.4158 -14.3693 -14.0198 -13.3801
   -12.8012 -12.6847  -8.8770  -7.2324  -6.6173  -4.2814  -3.7624  -3.3605
    -3.2835  -3.2499  -3.2250  -3.0891  -2.9719  -2.8587  -2.7589  -2.6714
    -2.5850  -2.4807  -2.4241  -2.3786  -2.3183  -2.2581  -2.2318  -2.1461
    -2.1262  -2.1069  -2.0849  -2.0587  -2.0291  -1.9913  -1.8696  -1.8588
    -1.7770  -1.7203  -1.6820  -1.6639  -1.6392  -1.6343  -1.6009  -1.5815
    -1.5732  -1.5619  -1.5599  -1.5244  -1.3862  -1.3633  -1.3329  -1.3091
    -1.1631  -1.0267  -0.9368  -0.9350  -0.8257  -0.7611  -0.7579  -0.7194
    -0.7037  -0.6005  -0.5163  -0.4792  -0.4546  -0.3765  -0.3190  -0.2623
    -0.2110  -0.1756  -0.1101  -0.0855  -0.0691  -0.0521   0.0179   0.0796
     0.1411   0.2258   0.2699   0.2936   0.3849   0.3992   0.4216   0.4871
     0.5186   0.5636   0.5989   0.6280   0.6517   0.6820   0.7072   0.7505
     0.7879   0.9146   0.9332   0.9611   0.9828   1.1568   1.2071   1.3007
     1.3389   1.4465   1.4835   1.6621   1.7236   1.8028   1.9153   2.2936
     2.3394   3.7890   3.9004   3.9344   3.9596   3.9989   4.0499   4.2567
     4.3299   4.3709   4.4293

[...]

          k = 0.0380-0.0419 0.0000 ( 17876 PWs)   bands (ev):

[...]

          k =-0.0760-0.0000 0.0000 ( 17886 PWs)   bands (ev):

[...]

          k =-0.0760-0.0839 0.0000 ( 17948 PWs)   bands (ev):

   -55.3033 -55.3027 -55.2016 -55.1828 -55.1766 -55.1449 -55.1308 -55.1242
   -55.1234 -55.1106 -55.0851 -55.0772 -54.9885 -54.8334 -54.2835 -54.2834
   -31.6199 -31.6194 -31.5978 -31.5973 -31.5662 -31.5340 -31.5027 -31.4905
   -31.4834 -31.4681 -31.4495 -31.4457 -31.4404 -31.4313 -31.4261 -31.4227
   -31.4224 -31.4222 -31.4174 -31.4016 -31.3901 -31.3767 -31.3667 -31.3637
   -31.3585 -31.3540 -31.3448 -31.3322 -31.3265 -31.3250 -31.3099 -31.3007
   -31.2973 -31.2968 -31.2950 -31.2921 -31.2644 -31.2315 -31.2176 -31.1443
   -31.0901 -31.0763 -30.6097 -30.6096 -30.5202 -30.5201 -30.4812 -30.4811
   -18.8676 -18.6136 -15.3552 -15.3207 -15.2830 -15.2555 -15.2390 -15.1185
   -15.1045 -15.0688 -15.0272 -15.0144 -14.9839 -14.9553 -14.9063 -14.8979
   -14.8640 -14.8444 -14.8050 -14.7787 -14.7595 -14.7551 -14.7385 -14.7168
   -14.6735 -14.6516 -14.6390 -14.6347 -14.5825 -14.4875 -14.2043 -13.4028
   -12.7865 -12.7864  -8.8733  -7.1564  -6.6183  -4.4908  -3.5362  -2.8652
    -2.6737  -2.6309  -2.5790  -2.4894  -2.4419  -2.3198  -2.3129  -2.2906
    -2.2452  -2.2320  -2.1908  -2.1508  -2.1450  -2.1174  -2.1048  -2.0603
    -2.0490  -2.0455  -2.0316  -1.9978  -1.9925  -1.9720  -1.9474  -1.9446
    -1.9339  -1.9181  -1.8847  -1.8776  -1.8497  -1.8311  -1.6803  -1.6070
    -1.5630  -1.4862  -1.4631  -1.4463  -1.4270  -1.3926  -1.3723  -1.3466
    -1.3181  -1.1713  -1.0315  -0.9972  -0.9728  -0.8743  -0.8584  -0.8389
    -0.7942  -0.7513  -0.7147  -0.6559  -0.6489  -0.6002  -0.5808  -0.4602
    -0.4230  -0.3240  -0.2886  -0.2865  -0.2691  -0.2548  -0.2368  -0.2112
    -0.1629  -0.0906  -0.0751  -0.0265  -0.0027  -0.0000   0.0130   0.1596
     0.2297   0.2498   0.3542   0.3827   0.5580   0.7214   0.7332   0.8012
     0.8643   0.9205   0.9528   0.9928   1.0024   1.0687   1.0926   1.1961
     1.2080   1.2574   1.2579   1.3451   1.3540   2.0872   2.0889   2.1593
     2.1595   4.1533   4.1661   4.1967   4.2597   4.3031   4.3147   4.3523
     4.3560   4.4590   4.4830

     the Fermi energy is     3.8071 ev

!    total energy              =   -2973.93990090 Ry
     estimated scf accuracy    <       0.00000007 Ry
     smearing contrib. (-TS)   =      -0.02072918 Ry
     internal energy E=F+TS    =   -2973.91917172 Ry

     The total energy is F=E-TS. E is the sum of the following terms:
     one-electron contribution =  -24336.35584603 Ry
     hartree contribution      =   12265.89352118 Ry
     xc contribution           =    -494.11674503 Ry
     ewald contribution        =    9590.65620408 Ry
     electric field correction =       0.00369407 Ry

     convergence has been achieved in  53 iterations

     Forces acting on atoms (cartesian axes, Ry/au):

     atom    1 type  1   force =     0.00003125   -0.00009538    0.09507380
     atom    2 type  1   force =     0.00018338   -0.00069345   -0.17566058
     atom    3 type  2   force =     0.00008958   -0.00005668   -0.02294796
     atom    4 type  2   force =     0.00002109   -0.00143469    0.05287425
     atom    5 type  2   force =    -0.01001333   -0.00031183    0.00381064
     atom    6 type  2   force =     0.01113632    0.00020579    0.00206447
     atom    7 type  1   force =    -0.00021685    0.00180588   -0.00589609
     atom    8 type  1   force =     0.00080788    0.01009523    0.01604316
     atom    9 type  2   force =    -0.00015417    0.00086747    0.00035366
     atom   10 type  2   force =    -0.00227449    0.00217053   -0.01803917
     atom   11 type  2   force =     0.00024963   -0.00003134    0.00007593
     atom   12 type  2   force =    -0.00034772   -0.00018634    0.00055783
     atom   13 type  1   force =    -0.00001892    0.00125253    0.00023562
     atom   14 type  1   force =    -0.00012220    0.00002197   -0.00001442
     atom   15 type  2   force =     0.00012760    0.00025959   -0.00009376
     atom   16 type  2   force =    -0.00038009    0.00044451   -0.00024262
     atom   17 type  2   force =    -0.00029093   -0.00017645   -0.00003261
     atom   18 type  2   force =     0.00012603    0.00005477    0.00049426
     atom   19 type  1   force =    -0.00080504    0.00030739   -0.00054475
     atom   20 type  1   force =    -0.00008659   -0.00004081    0.00077363
     atom   21 type  2   force =     0.00009384   -0.00008717    0.10320133
     atom   22 type  2   force =     0.00035413   -0.00005895    0.00035378
     atom   23 type  2   force =    -0.07160020   -0.00016559   -0.02760821
     atom   24 type  2   force =     0.07156236    0.00024987   -0.02765580
     atom   25 type  1   force =     0.00022924   -0.00038962    0.09518251
     atom   26 type  1   force =    -0.00004129   -0.00020049   -0.17580982
     atom   27 type  2   force =     0.00012224   -0.00011147   -0.02197522
     atom   28 type  2   force =     0.00001401   -0.00139624    0.05320347
     atom   29 type  2   force =    -0.01035214   -0.00022567    0.00365051
     atom   30 type  2   force =     0.01138894    0.00042601    0.00191774
     atom   31 type  1   force =    -0.00031024    0.00267609   -0.00009446
     atom   32 type  1   force =     0.00067493   -0.01115231    0.01692628
     atom   33 type  2   force =     0.00037297   -0.00026632    0.00003697
     atom   34 type  2   force =    -0.00034057    0.00145061   -0.01896458
     atom   35 type  2   force =     0.00000439   -0.00035319   -0.00016837
     atom   36 type  2   force =    -0.00000162   -0.00024635    0.00043005
     atom   37 type  1   force =    -0.00005022   -0.00124087    0.00042395
     atom   38 type  1   force =    -0.00040181    0.00095347    0.00002629
     atom   39 type  2   force =     0.00008176    0.00008865    0.00009097
     atom   40 type  2   force =    -0.00045634   -0.00057827    0.00021918
     atom   41 type  2   force =     0.00004371   -0.00020237    0.00028078
     atom   42 type  2   force =    -0.00000218   -0.00032055   -0.00021962
     atom   43 type  1   force =    -0.00024040   -0.00022401    0.00046218
     atom   44 type  1   force =     0.00021831   -0.00039573    0.00083912
     atom   45 type  2   force =     0.00009695   -0.00009966    0.10322352
     atom   46 type  2   force =    -0.07158617   -0.00016596   -0.02759691
     atom   47 type  2   force =     0.07158800    0.00024551   -0.02761105
     atom   48 type  3   force =     0.00454441    0.00343734   -0.02546223
     atom   49 type  3   force =     0.00287699   -0.00054258    0.00580421
     atom   50 type  4   force =    -0.00413634   -0.00099922    0.00592208
     atom   51 type  5   force =     0.00121258   -0.00049759   -0.00017194
     atom   52 type  5   force =    -0.00338728   -0.00371245    0.01282334
     atom   53 type  5   force =    -0.00067599   -0.00035229   -0.00085325
     atom   54 type  2   force =    -0.00008257    0.00099159   -0.00009780
     atom   55 type  5   force =     0.00019485   -0.00021901   -0.00000612
     atom   56 type  5   force =    -0.00007170   -0.00077389    0.00039184

     Total force =     0.366541     Total SCF correction =     0.000994
  @ DRIVER MODE: Message from server: STATUS
  @ DRIVER MODE: Message from server: GETFORCE
  @ DRIVER MODE: Returning v,forces,stress,ensemble

     Writing output data file ./calc.save/
  @ DRIVER MODE: Message from server: EXIT
  @ DRIVE MODE: Exiting

     General routines

     Parallel routines

   This run was terminated on:  18: 8:10  22Sep2021

   JOB DONE.