     Program PWSCF v.6.7GPU starts on  9Sep2021 at  0:29:22

     R & G space division:  proc/nbgrp/npool/nimage =      10
     Reading input from /storage/home/hcoda1/3/ntian30/research/carbon/CxH_vib/CH_calc/ads_slab/CHNHH_a/out_0009/pw.inp
Warning: card &CELL ignored
Warning: card   CELL_DYNAMICS='IPI', ignored
Warning: card / ignored

     Current dimensions of program PWSCF are:
     Max number of different atomic species (ntypx) = 10
     Max number of k-points (npk) =  40000
     Max angular momentum in pseudopotentials (lmaxx) =  3
     Presently no symmetry can be used with electric field

     Message from routine cell_base_init:
     DEPRECATED: use true lattice parameter, not A to a.u. conversion factor

     IMPORTANT: XC functional enforced from input :
     Exchange-correlation= BEEF-VDW
                           (   1   4  43  14   2   0   0)
     Any further DFT definition will be discarded
     Please, verify this is what you really want

  @ DRIVER MODE: Connecting to
 qe_1139763_2767378.sched-torque.pace.gatech.eduw6kpb8jt_scratch
  using UNIX socket
  @ DRIVER MODE: Message from server: STATUS
  @ DRIVER MODE: Message from server: INIT
  @ DRIVER MODE: Receiving replica           0          -1
  @ DRIVER MODE: Receiving encoded integer          25
  @ DRIVER MODE:  SCF:  T  FORCE:  T  STRESS:  F  VC:  F  ENSEMBLE:  F
  @ DRIVER MODE:  SCF:  T  FORCE:  T  STRESS:  F  VC:  F  ENSEMBLE:  F

     Using Slab Decomposition

     bravais-lattice index     =            0
     lattice parameter (alat)  =       1.8897  a.u.
     unit-cell volume          =    6658.9804 (a.u.)^3
     number of atoms/cell      =           52
     number of atomic types    =            5
     number of electrons       =       390.00
     number of Kohn-Sham states=          205
     kinetic-energy cutoff     =      29.3995  Ry
     charge density cutoff     =     293.9946  Ry
     scf convergence threshold =      7.3E-08
     mixing beta               =       0.0500
     number of iterations used =            8  plain     mixing
     Exchange-correlation= BEEF-VDW
                           (   1   4  43  14   2   0   0)

     celldm(1)=   1.889726  celldm(2)=   0.000000  celldm(3)=   0.000000
     celldm(4)=   0.000000  celldm(5)=   0.000000  celldm(6)=   0.000000

     crystal axes: (cart. coord. in units of alat)
               a(1) = (   6.579727   0.000000   0.000000 )
               a(2) = (  -0.000775   5.961596   0.000000 )
               a(3) = (   0.000000   0.000000  25.155947 )

     reciprocal axes: (cart. coord. in units 2 pi/alat)
               b(1) = (  0.151982  0.000020  0.000000 )
               b(2) = (  0.000000  0.167740  0.000000 )
               b(3) = (  0.000000  0.000000  0.039752 )

     PseudoPot. # 1 for Ti read from file:
     /storage/coda1/p-amedford6/0/shared/rich_project_chbe-medford/medford-share/data/pseudos_module/espresso/nninc/pbe/van/Ti.UPF
     MD5 check sum: 8e4df49b7f0d34bbd5052bf3f5ea0213
     Pseudo is Ultrasoft, Zval = 12.0
     Generated by new atomic code, or converted to UPF format
     Using radial grid of  851 points,  6 beta functions with:
                l(1) =   0
                l(2) =   0
                l(3) =   1
                l(4) =   1
                l(5) =   2
                l(6) =   2
     Q(r) pseudized with  8 coefficients,  rinner =    1.000   1.000   1.000
                                                       1.000   1.000

     PseudoPot. # 2 for O  read from file:
     /storage/coda1/p-amedford6/0/shared/rich_project_chbe-medford/medford-share/data/pseudos_module/espresso/nninc/pbe/van/O.UPF
     MD5 check sum: 78c19812648e8988a0fe644b0f25305e
     Pseudo is Ultrasoft, Zval =  6.0
     Generated by new atomic code, or converted to UPF format
     Using radial grid of  737 points,  4 beta functions with:
                l(1) =   0
                l(2) =   0
                l(3) =   1
                l(4) =   1
     Q(r) pseudized with  8 coefficients,  rinner =    0.800   0.800   0.800

     PseudoPot. # 3 for N  read from file:
     /storage/coda1/p-amedford6/0/shared/rich_project_chbe-medford/medford-share/data/pseudos_module/espresso/nninc/pbe/van/N.UPF
     MD5 check sum: 90d10febe142ad51ac9d5be1deb811c4
     Pseudo is Ultrasoft, Zval =  5.0
     Generated by new atomic code, or converted to UPF format
     Using radial grid of  729 points,  4 beta functions with:
                l(1) =   0
                l(2) =   0
                l(3) =   1
                l(4) =   1
     Q(r) pseudized with  8 coefficients,  rinner =    0.800   0.800   0.800

     PseudoPot. # 4 for C  read from file:
     /storage/coda1/p-amedford6/0/shared/rich_project_chbe-medford/medford-share/data/pseudos_module/espresso/nninc/pbe/van/C.UPF
     MD5 check sum: 1a69bf6b8db32088f5b2163dbdb77a27
     Pseudo is Ultrasoft, Zval =  4.0
     Generated by new atomic code, or converted to UPF format
     Using radial grid of  721 points,  4 beta functions with:
                l(1) =   0
                l(2) =   0
                l(3) =   1
                l(4) =   1
     Q(r) pseudized with  8 coefficients,  rinner =    0.800   0.800   0.800

     PseudoPot. # 5 for H  read from file:
     /storage/coda1/p-amedford6/0/shared/rich_project_chbe-medford/medford-share/data/pseudos_module/espresso/nninc/pbe/van/H.UPF
     MD5 check sum: b5ee9d7bfd3a09ee7748110bda690ff7
     Pseudo is Ultrasoft, Zval =  1.0
     Generated by new atomic code, or converted to UPF format
     Using radial grid of  615 points,  1 beta functions with:
                l(1) =   0
     Q(r) pseudized with  8 coefficients,  rinner =    0.800

     atomic species   valence    mass     pseudopotential
        Ti1           12.00    47.86700     Ti( 1.00)
        O1             6.00    15.99900     O ( 1.00)
        N1             5.00    14.00700     N ( 1.00)
        C1             4.00    12.01100     C ( 1.00)
        H1             1.00     1.00800     H ( 1.00)

     No symmetry found

   Cartesian axes

     site n.     atom                  positions (alat units)
         1           Ti1 tau(   1) = (   0.0004258   2.9801865   6.0000000  )
         2           Ti1 tau(   2) = (   3.2906075   1.4906267   6.0002472  )
         3           O1  tau(   3) = (   0.0006271   0.0005054   7.9858123  )
         4           O1  tau(   4) = (   3.2906025   0.0005020   7.3038282  )
         5           O1  tau(   5) = (   4.5942328   1.4918067   9.2879030  )
         6           O1  tau(   6) = (   1.9868534   1.4903216   9.2879459  )
         7           Ti1 tau(   7) = (   3.2907910   2.8959150   9.1758416  )
         8           Ti1 tau(   8) = (   0.0015273   1.4827037   9.2680791  )
         9           O1  tau(   9) = (   3.2768318   5.9518058  11.3501096  )
        10           O1  tau(  10) = (   0.0116148   5.9584955  10.6183126  )
        11           O1  tau(  11) = (   1.2820894   1.4890407  12.6429483  )
        12           O1  tau(  12) = (   5.2701592   1.4861355  12.6244956  )
        13           Ti1 tau(  13) = (   0.0263608   2.9732685  12.5725065  )
        14           Ti1 tau(  14) = (   3.3311081   1.4825583  12.4934812  )
        15           O1  tau(  15) = (   6.5448050   0.0382128  14.6485099  )
        16           O1  tau(  16) = (   3.2835306   5.9556129  13.9684075  )
        17           O1  tau(  17) = (   4.5065730   1.5084740  16.1486978  )
        18           O1  tau(  18) = (   2.0110176   1.4968469  16.1316129  )
        19           Ti1 tau(  19) = (   3.2365874   2.9692752  15.7101938  )
        20           Ti1 tau(  20) = (   6.5183500   1.5288441  15.9766389  )
        21           O1  tau(  21) = (   3.2904802   0.0005063   4.7018136  )
        22           O1  tau(  22) = (   6.5552815   5.8936090  17.2115513  )
        23           O1  tau(  23) = (   1.3043587   1.4918075   6.0039043  )
        24           O1  tau(  24) = (   5.2767064   1.4903225   6.0039473  )
        25           Ti1 tau(  25) = (   0.0000382   5.9609847   6.0000000  )
        26           Ti1 tau(  26) = (   3.2902200   4.4714249   6.0002472  )
        27           O1  tau(  27) = (   0.0002396   2.9813036   7.9858123  )
        28           O1  tau(  28) = (   3.2902150   2.9813002   7.3038282  )
        29           O1  tau(  29) = (   4.5938453   4.4726049   9.2879030  )
        30           O1  tau(  30) = (   1.9864658   4.4711199   9.2879459  )
        31           Ti1 tau(  31) = (   3.2891106   5.8743827   9.1763621  )
        32           Ti1 tau(  32) = (   0.0006254   4.4649316   9.2693709  )
        33           O1  tau(  33) = (   3.2825058   2.9767457  11.3441782  )
        34           O1  tau(  34) = (   0.0092240   2.9805883  10.6323155  )
        35           O1  tau(  35) = (   1.2778777   4.4660374  12.6604661  )
        36           O1  tau(  36) = (   5.2710664   4.4675109  12.6369154  )
        37           Ti1 tau(  37) = (   0.0243246   5.9574881  12.5203091  )
        38           Ti1 tau(  38) = (   3.3318591   4.4611298  12.5006215  )
        39           O1  tau(  39) = (   6.5359656   2.9584677  14.7835642  )
        40           O1  tau(  40) = (   3.2771955   2.9708399  13.9242642  )
        41           O1  tau(  41) = (   4.4981441   4.4410618  16.1740548  )
        42           O1  tau(  42) = (   2.0042129   4.4512231  16.1075086  )
        43           Ti1 tau(  43) = (   3.2538698   5.9555144  15.7617387  )
        44           Ti1 tau(  44) = (   6.5531130   4.6830099  15.9084494  )
        45           O1  tau(  45) = (   3.2900926   2.9813045   4.7018136  )
        46           O1  tau(  46) = (   1.3039711   4.4726057   6.0039043  )
        47           O1  tau(  47) = (   5.2763189   4.4711207   6.0039473  )
        48           N1  tau(  48) = (   5.6690603   3.2568973  18.6585782  )
        49           C1  tau(  49) = (   0.0091554   2.6744975  17.9068455  )
        50           H1  tau(  50) = (   0.8805123   2.3964943  18.5001670  )
        51           H1  tau(  51) = (   4.8619660   3.6873350  18.2178346  )
        52           H1  tau(  52) = (   5.8095507   3.4768026  19.6356901  )

     number of k points=    10  Fermi-Dirac smearing, width (Ry)=  0.0073
                       cart. coord. in units 2pi/alat
        k(    1) = (   0.0000000   0.0000000   0.0000000), wk =   0.1250000
        k(    2) = (   0.0000000   0.0419351   0.0000000), wk =   0.2500000
        k(    3) = (   0.0000000  -0.0838702   0.0000000), wk =   0.1250000
        k(    4) = (   0.0379955   0.0000049   0.0000000), wk =   0.2500000
        k(    5) = (   0.0379955   0.0419400   0.0000000), wk =   0.2500000
        k(    6) = (   0.0379955  -0.0838652   0.0000000), wk =   0.2500000
        k(    7) = (   0.0379955  -0.0419301   0.0000000), wk =   0.2500000
        k(    8) = (  -0.0759910  -0.0000099   0.0000000), wk =   0.1250000
        k(    9) = (  -0.0759910   0.0419252   0.0000000), wk =   0.2500000
        k(   10) = (  -0.0759910  -0.0838800   0.0000000), wk =   0.1250000

     Initial potential from superposition of free atoms

     starting charge  373.99917, renormalised to  390.00000

     negative rho (up, down):  1.782E-02 0.000E+00

     %%%%%%%%%%%%%%%%%%%%%%%%%%%%%%%%%%%%%%%%%%%%%%%%%%%%%%%%%%%%%%%%%%%%%%%%
     %                                                                      %
     % You are using vdW-DF, which was implemented by the Thonhauser group. %
     % Please cite the following two papers that made this development      %
     % possible and the two reviews that describe the various versions:     %
     %                                                                      %
     %   T. Thonhauser et al., PRL 115, 136402 (2015).                      %
     %   T. Thonhauser et al., PRB 76, 125112 (2007).                       %
     %   K. Berland et al., Rep. Prog. Phys. 78, 066501 (2015).             %
     %   D.C. Langreth et al., J. Phys.: Condens. Matter 21, 084203 (2009). %
     %                                                                      %
     %                                                                      %
     % If you are calculating the stress with vdW-DF, please also cite:     %
     %                                                                      %
     %   R. Sabatini et al., J. Phys.: Condens. Matter 24, 424209 (2012).   %
     %                                                                      %
     %%%%%%%%%%%%%%%%%%%%%%%%%%%%%%%%%%%%%%%%%%%%%%%%%%%%%%%%%%%%%%%%%%%%%%%%

     Adding external electric field

     Computed dipole along edir(3) :
        Dipole               -5.8555 Ry au,        -14.8831 Debye
        Dipole field         -0.0111 Ry au,

        Potential amp.        1.0243 Ry
        Total length         46.3494 bohr

     Starting wfcs are  295 atomic wfcs
  @ DRIVER MODE: Message from server: STATUS
  @ DRIVER MODE: Message from server: POSDATA
  @ DRIVER MODE: Reading and sharing cell
  @ DRIVER MODE: Reading and sharing positions
  @ DRIVER MODE: Received positions

     Self-consistent Calculation

     iteration #  1     ecut=    29.40 Ry     beta= 0.05
     Davidson diagonalization with overlap
     c_bands:  4 eigenvalues not converged
     c_bands:  1 eigenvalues not converged
     c_bands:  2 eigenvalues not converged
     c_bands:  2 eigenvalues not converged
     c_bands:  3 eigenvalues not converged
     c_bands:  3 eigenvalues not converged
     c_bands:  3 eigenvalues not converged
     c_bands:  3 eigenvalues not converged
     c_bands:  3 eigenvalues not converged
     c_bands:  5 eigenvalues not converged
     ethr =  1.00E-05,  avg # of iterations = 20.0

[...]

     total energy              =   -2777.21447117 Ry
     estimated scf accuracy    <    1561.78646208 Ry

[...]

     iteration #  3     ecut=    29.40 Ry     beta= 0.05
     Davidson diagonalization with overlap
     ethr =  1.00E-02,  avg # of iterations = 15.6

[...]

     iteration # 70     ecut=    29.40 Ry     beta= 0.05
     Davidson diagonalization with overlap
     c_bands:  1 eigenvalues not converged
     c_bands:  1 eigenvalues not converged
     c_bands:  1 eigenvalues not converged
     ethr =  1.58E-10,  avg # of iterations = 17.4

[...]

     total energy              =   -2919.04282776 Ry
     estimated scf accuracy    <       0.00000008 Ry

     iteration # 76     ecut=    29.40 Ry     beta= 0.05
     Davidson diagonalization with overlap
     ethr =  2.05E-11,  avg # of iterations =  7.4

     negative rho (up, down):  1.803E-02 0.000E+00

     Adding external electric field

     Computed dipole along edir(3) :
        Dipole                1.3757 Ry au,          3.4966 Debye
        Dipole field          0.0026 Ry au,

        Potential amp.       -0.2407 Ry
        Total length         46.3494 bohr

     End of self-consistent calculation

          k = 0.0000 0.0000 0.0000 ( 18029 PWs)   bands (ev):

   -55.5136 -55.4882 -55.4773 -55.4541 -55.4275 -55.3824 -55.3405 -55.3322
   -55.3134 -55.3065 -55.2770 -55.2750 -55.0504 -54.9475 -54.4919 -54.4579
   -32.0805 -31.9759 -31.8739 -31.8519 -31.8416 -31.8089 -31.8012 -31.7787
   -31.7684 -31.7321 -31.7280 -31.7231 -31.6901 -31.6650 -31.6552 -31.6525
   -31.6411 -31.6165 -31.6055 -31.5975 -31.5811 -31.5712 -31.5456 -31.5417
   -31.5394 -31.5206 -31.5180 -31.5135 -31.5123 -31.5031 -31.4889 -31.4737
   -31.4624 -31.4623 -31.4393 -31.4282 -31.4127 -31.3547 -31.2903 -31.1883
   -31.1821 -31.0915 -30.9002 -30.8090 -30.7868 -30.7168 -30.6302 -30.5191
   -16.9798 -16.3122 -16.0284 -15.8625 -15.7209 -15.6904 -15.5796 -15.4047
   -15.3248 -15.2511 -15.2322 -15.1526 -15.1345 -15.1193 -15.1008 -15.0430
   -15.0352 -14.9900 -14.9845 -14.9481 -14.9309 -14.8989 -14.8814 -14.8740
   -14.8167 -14.7790 -14.7154 -14.6498 -14.5946 -14.1193 -12.9945 -12.8775
    -9.4437  -7.1958  -4.6019  -3.6699  -3.5004  -3.4194  -3.4105  -3.3876
    -3.2001  -3.1232  -2.8468  -2.7541  -2.7190  -2.7131  -2.6864  -2.6236
    -2.5420  -2.4548  -2.3792  -2.3537  -2.3340  -2.3256  -2.3101  -2.2985
    -2.2900  -2.2596  -2.1828  -2.1252  -2.0539  -1.9740  -1.8989  -1.8829
    -1.8232  -1.7953  -1.7802  -1.7738  -1.7664  -1.7400  -1.7357  -1.6448
    -1.5497  -1.5145  -1.4151  -1.3929  -1.2958  -1.1609  -1.1355  -1.0309
    -1.0238  -0.9685  -0.9421  -0.9001  -0.8492  -0.8419  -0.8223  -0.6806
    -0.6130  -0.5520  -0.4935  -0.4666  -0.4481  -0.3635  -0.2948  -0.2880
    -0.2706  -0.2486  -0.0715  -0.0413  -0.0203   0.0012   0.0157   0.1050
     0.1365   0.2124   0.2922   0.3057   0.3111   0.3894   0.4130   0.4547
     0.4576   0.4848   0.4903   0.6614   0.6715   0.6981   0.7312   0.8111
     0.8935   1.0995   1.1203   1.1643   1.4460   1.5129   1.5305   1.7182
     2.1040   2.1510   3.5762   3.6819   3.7139   3.7294   3.7577   3.8284
     3.8927   4.0727   4.0797   4.1106   4.1173

[...]

          k = 0.0380-0.0419 0.0000 ( 17876 PWs)   bands (ev):

[...]

          k =-0.0760-0.0000 0.0000 ( 17886 PWs)   bands (ev):

[...]

          k =-0.0760-0.0839 0.0000 ( 17948 PWs)   bands (ev):

   -55.4978 -55.4929 -55.4714 -55.4708 -55.4243 -55.3734 -55.3494 -55.3353
   -55.2947 -55.2932 -55.2927 -55.2910 -55.0474 -54.9503 -54.4749 -54.4748
   -31.8859 -31.8820 -31.8164 -31.7913 -31.7908 -31.7793 -31.7644 -31.7638
   -31.7240 -31.7189 -31.7170 -31.7098 -31.6805 -31.6437 -31.6348 -31.6307
   -31.6302 -31.6278 -31.6234 -31.6221 -31.6120 -31.5912 -31.5906 -31.5778
   -31.5743 -31.5637 -31.5515 -31.5352 -31.5279 -31.5255 -31.5094 -31.5087
   -31.5081 -31.5069 -31.4790 -31.4711 -31.4666 -31.3592 -31.2850 -31.2084
   -31.1848 -31.1748 -30.7995 -30.7994 -30.7128 -30.7127 -30.6735 -30.6735
   -16.9744 -15.7700 -15.7084 -15.5713 -15.4916 -15.4695 -15.4582 -15.4334
   -15.2942 -15.2791 -15.2602 -15.2115 -15.2079 -15.2056 -15.1643 -15.1086
   -15.0761 -15.0735 -15.0652 -15.0381 -15.0044 -14.9992 -14.9649 -14.9564
   -14.9428 -14.8531 -14.8481 -14.8458 -14.6710 -14.3430 -12.9792 -12.9792
    -9.4484  -7.1972  -4.5839  -3.0531  -2.9796  -2.8186  -2.7170  -2.6873
    -2.6554  -2.5103  -2.4765  -2.4660  -2.4497  -2.4115  -2.3887  -2.3829
    -2.3568  -2.3429  -2.3384  -2.3187  -2.3093  -2.2976  -2.2521  -2.2123
    -2.2052  -2.1996  -2.1688  -2.1499  -2.1371  -2.1083  -2.0888  -2.0730
    -2.0587  -2.0093  -1.8366  -1.8061  -1.7048  -1.6859  -1.6767  -1.6528
    -1.5884  -1.5612  -1.5290  -1.4882  -1.4365  -1.3140  -1.2490  -1.2283
    -1.1973  -1.1878  -1.1351  -1.0146  -0.9785  -0.9558  -0.9095  -0.8727
    -0.8277  -0.8180  -0.6981  -0.6920  -0.6472  -0.6039  -0.4910  -0.4749
    -0.4656  -0.4518  -0.4381  -0.3096  -0.3001  -0.2934  -0.2761  -0.2328
    -0.2151  -0.1089  -0.0115   0.0049   0.1083   0.1576   0.2851   0.3516
     0.4454   0.4905   0.5146   0.6043   0.6400   0.7226   0.7486   0.7983
     0.8099   0.9084   0.9611   0.9786   0.9867   1.0550   1.8906   1.8914
     1.9709   1.9710   3.7377   3.8338   3.8723   3.8934   3.9396   4.0986
     4.1137   4.1615   4.1638   4.1819   4.2597

     the Fermi energy is     3.6346 ev

!    total energy              =   -2919.04283565 Ry
     estimated scf accuracy    <       0.00000005 Ry
     smearing contrib. (-TS)   =      -0.03607090 Ry
     internal energy E=F+TS    =   -2919.00676475 Ry

     The total energy is F=E-TS. E is the sum of the following terms:
     one-electron contribution =  -24479.15502090 Ry
     hartree contribution      =   12327.71675031 Ry
     xc contribution           =    -479.99697554 Ry
     ewald contribution        =    9712.42491003 Ry
     electric field correction =       0.00357135 Ry

     convergence has been achieved in  76 iterations

     Forces acting on atoms (cartesian axes, Ry/au):

     atom    1 type  1   force =     0.00009677   -0.00020049    0.09493177
     atom    2 type  1   force =    -0.00023144   -0.00035352   -0.17676990
     atom    3 type  2   force =    -0.00004445   -0.00006744   -0.02292605
     atom    4 type  2   force =    -0.00004416   -0.00167785    0.05578300
     atom    5 type  2   force =    -0.01134539   -0.00123455    0.00625914
     atom    6 type  2   force =     0.01252502   -0.00035197    0.00442327
     atom    7 type  1   force =    -0.00113722    0.00152642   -0.01375836
     atom    8 type  1   force =     0.00062655    0.00696261    0.01266908
     atom    9 type  2   force =     0.00020077   -0.00005107    0.00012652
     atom   10 type  2   force =    -0.00163740    0.00010957   -0.00999450
     atom   11 type  2   force =    -0.00020680    0.00002407    0.00013373
     atom   12 type  2   force =     0.00022617    0.00010986   -0.00009058
     atom   13 type  1   force =     0.00007797    0.00000584    0.00042277
     atom   14 type  1   force =     0.00002087   -0.00015005    0.00025937
     atom   15 type  2   force =     0.00008406   -0.00049639   -0.00021902
     atom   16 type  2   force =     0.00025537    0.00027763   -0.00007591
     atom   17 type  2   force =    -0.00031695   -0.00024092    0.00005649
     atom   18 type  2   force =     0.00056989    0.00006954    0.00001920
     atom   19 type  1   force =     0.00044297   -0.00011240   -0.00001921
     atom   20 type  1   force =    -0.00005191   -0.00027844    0.00044385
     atom   21 type  2   force =     0.00004708   -0.00004326    0.10360736
     atom   22 type  2   force =     0.00010593   -0.00055052    0.00001713
     atom   23 type  2   force =    -0.07099585   -0.00016082   -0.02732568
     atom   24 type  2   force =     0.07084664    0.00032227   -0.02734020
     atom   25 type  1   force =    -0.00012163   -0.00020615    0.09463159
     atom   26 type  1   force =    -0.00019646   -0.00047009   -0.17692482
     atom   27 type  2   force =     0.00006920   -0.00035449   -0.02196071
     atom   28 type  2   force =     0.00003669   -0.00138907    0.05533507
     atom   29 type  2   force =    -0.01157049   -0.00009481    0.00586793
     atom   30 type  2   force =     0.01264217    0.00012781    0.00408375
     atom   31 type  1   force =    -0.00125275    0.00416680   -0.01463140
     atom   32 type  1   force =     0.00055603   -0.00779485    0.01252429
     atom   33 type  2   force =    -0.00001356    0.00009353    0.00003739
     atom   34 type  2   force =    -0.00127470    0.00083275   -0.00838188
     atom   35 type  2   force =     0.00012362    0.00019846   -0.00004408
     atom   36 type  2   force =     0.00010392    0.00004311    0.00015616
     atom   37 type  1   force =     0.00003699   -0.00001887    0.00014022
     atom   38 type  1   force =    -0.00003202   -0.00016150   -0.00011231
     atom   39 type  2   force =    -0.00018660   -0.00004719   -0.00012466
     atom   40 type  2   force =     0.00022959   -0.00001914   -0.00022006
     atom   41 type  2   force =     0.00020745   -0.00008381    0.00003523
     atom   42 type  2   force =    -0.00010808    0.00009195   -0.00037942
     atom   43 type  1   force =    -0.00020603    0.00010168    0.00027094
     atom   44 type  1   force =     0.00038900    0.00053450    0.00008401
     atom   45 type  2   force =     0.00003418   -0.00004774    0.10355926
     atom   46 type  2   force =    -0.07099880   -0.00007639   -0.02731509
     atom   47 type  2   force =     0.07085479    0.00032477   -0.02734604
     atom   48 type  3   force =     0.00401419   -0.00310195   -0.00485848
     atom   49 type  4   force =    -0.00737895    0.00650600    0.00316436
     atom   50 type  5   force =     0.00249713   -0.00188201    0.00131216
     atom   51 type  5   force =     0.00106773   -0.00078632   -0.00027000
     atom   52 type  5   force =     0.00036290    0.00007494    0.00073331

     Total force =     0.366286     Total SCF correction =     0.000495
  @ DRIVER MODE: Message from server: STATUS
  @ DRIVER MODE: Message from server: GETFORCE
  @ DRIVER MODE: Returning v,forces,stress,ensemble

     Writing output data file ./calc.save/
  @ DRIVER MODE: Message from server: EXIT
  @ DRIVE MODE: Exiting

     General routines

     Parallel routines

   This run was terminated on:   0:48: 6   9Sep2021

   JOB DONE.