     Program PWSCF v.6.7GPU starts on 23Sep2021 at  1:10:35

     R & G space division:  proc/nbgrp/npool/nimage =       8
     Reading input from /storage/home/hcoda1/3/ntian30/research/carbon/CxH_vib/H2O_calc/ads_slab/CH3N2HO_c/out_0008/pw.inp
Warning: card &CELL ignored
Warning: card   CELL_DYNAMICS='IPI', ignored
Warning: card / ignored

     Current dimensions of program PWSCF are:
     Max number of different atomic species (ntypx) = 10
     Max number of k-points (npk) =  40000
     Max angular momentum in pseudopotentials (lmaxx) =  3
     Presently no symmetry can be used with electric field

     Message from routine cell_base_init:
     DEPRECATED: use true lattice parameter, not A to a.u. conversion factor

     IMPORTANT: XC functional enforced from input :
     Exchange-correlation= BEEF-VDW
                           (   1   4  43  14   2   0   0)
     Any further DFT definition will be discarded
     Please, verify this is what you really want

  @ DRIVER MODE: Connecting to
 qe_1139763_2941007.sched-torque.pace.gatech.edutahobnv4_scratch
  using UNIX socket
  @ DRIVER MODE: Message from server: STATUS
  @ DRIVER MODE: Message from server: INIT
  @ DRIVER MODE: Receiving replica           0          -1
  @ DRIVER MODE: Receiving encoded integer          25
  @ DRIVER MODE:  SCF:  T  FORCE:  T  STRESS:  F  VC:  F  ENSEMBLE:  F
  @ DRIVER MODE:  SCF:  T  FORCE:  T  STRESS:  F  VC:  F  ENSEMBLE:  F

     Using Slab Decomposition

     bravais-lattice index     =            0
     lattice parameter (alat)  =       1.8897  a.u.
     unit-cell volume          =    6658.9804 (a.u.)^3
     number of atoms/cell      =           55
     number of atomic types    =            5
     number of electrons       =       402.00
     number of Kohn-Sham states=          211
     kinetic-energy cutoff     =      29.3995  Ry
     charge density cutoff     =     293.9946  Ry
     scf convergence threshold =      7.3E-08
     mixing beta               =       0.0500
     number of iterations used =            8  plain     mixing
     Exchange-correlation= BEEF-VDW
                           (   1   4  43  14   2   0   0)

     celldm(1)=   1.889726  celldm(2)=   0.000000  celldm(3)=   0.000000
     celldm(4)=   0.000000  celldm(5)=   0.000000  celldm(6)=   0.000000

     crystal axes: (cart. coord. in units of alat)
               a(1) = (   6.579727   0.000000   0.000000 )
               a(2) = (  -0.000775   5.961596   0.000000 )
               a(3) = (   0.000000   0.000000  25.155947 )

     reciprocal axes: (cart. coord. in units 2 pi/alat)
               b(1) = (  0.151982  0.000020  0.000000 )
               b(2) = (  0.000000  0.167740  0.000000 )
               b(3) = (  0.000000  0.000000  0.039752 )

     PseudoPot. # 1 for Ti read from file:
     /storage/coda1/p-amedford6/0/shared/rich_project_chbe-medford/medford-share/data/pseudos_module/espresso/nninc/pbe/van/Ti.UPF
     MD5 check sum: 8e4df49b7f0d34bbd5052bf3f5ea0213
     Pseudo is Ultrasoft, Zval = 12.0
     Generated by new atomic code, or converted to UPF format
     Using radial grid of  851 points,  6 beta functions with:
                l(1) =   0
                l(2) =   0
                l(3) =   1
                l(4) =   1
                l(5) =   2
                l(6) =   2
     Q(r) pseudized with  8 coefficients,  rinner =    1.000   1.000   1.000
                                                       1.000   1.000

     PseudoPot. # 2 for O  read from file:
     /storage/coda1/p-amedford6/0/shared/rich_project_chbe-medford/medford-share/data/pseudos_module/espresso/nninc/pbe/van/O.UPF
     MD5 check sum: 78c19812648e8988a0fe644b0f25305e
     Pseudo is Ultrasoft, Zval =  6.0
     Generated by new atomic code, or converted to UPF format
     Using radial grid of  737 points,  4 beta functions with:
                l(1) =   0
                l(2) =   0
                l(3) =   1
                l(4) =   1
     Q(r) pseudized with  8 coefficients,  rinner =    0.800   0.800   0.800

     PseudoPot. # 3 for N  read from file:
     /storage/coda1/p-amedford6/0/shared/rich_project_chbe-medford/medford-share/data/pseudos_module/espresso/nninc/pbe/van/N.UPF
     MD5 check sum: 90d10febe142ad51ac9d5be1deb811c4
     Pseudo is Ultrasoft, Zval =  5.0
     Generated by new atomic code, or converted to UPF format
     Using radial grid of  729 points,  4 beta functions with:
                l(1) =   0
                l(2) =   0
                l(3) =   1
                l(4) =   1
     Q(r) pseudized with  8 coefficients,  rinner =    0.800   0.800   0.800

     PseudoPot. # 4 for C  read from file:
     /storage/coda1/p-amedford6/0/shared/rich_project_chbe-medford/medford-share/data/pseudos_module/espresso/nninc/pbe/van/C.UPF
     MD5 check sum: 1a69bf6b8db32088f5b2163dbdb77a27
     Pseudo is Ultrasoft, Zval =  4.0
     Generated by new atomic code, or converted to UPF format
     Using radial grid of  721 points,  4 beta functions with:
                l(1) =   0
                l(2) =   0
                l(3) =   1
                l(4) =   1
     Q(r) pseudized with  8 coefficients,  rinner =    0.800   0.800   0.800

     PseudoPot. # 5 for H  read from file:
     /storage/coda1/p-amedford6/0/shared/rich_project_chbe-medford/medford-share/data/pseudos_module/espresso/nninc/pbe/van/H.UPF
     MD5 check sum: b5ee9d7bfd3a09ee7748110bda690ff7
     Pseudo is Ultrasoft, Zval =  1.0
     Generated by new atomic code, or converted to UPF format
     Using radial grid of  615 points,  1 beta functions with:
                l(1) =   0
     Q(r) pseudized with  8 coefficients,  rinner =    0.800

     atomic species   valence    mass     pseudopotential
        Ti1           12.00    47.86700     Ti( 1.00)
        O1             6.00    15.99900     O ( 1.00)
        N1             5.00    14.00700     N ( 1.00)
        C1             4.00    12.01100     C ( 1.00)
        H1             1.00     1.00800     H ( 1.00)

     No symmetry found

   Cartesian axes

     site n.     atom                  positions (alat units)
         1           Ti1 tau(   1) = (   0.0004258   2.9801865   6.0000000  )
         2           Ti1 tau(   2) = (   3.2906075   1.4906267   6.0002472  )
         3           O1  tau(   3) = (   0.0006271   0.0005054   7.9858123  )
         4           O1  tau(   4) = (   3.2906025   0.0005020   7.3038282  )
         5           O1  tau(   5) = (   4.5942328   1.4918067   9.2879030  )
         6           O1  tau(   6) = (   1.9868534   1.4903216   9.2879459  )
         7           Ti1 tau(   7) = (   3.2907910   2.8959150   9.1758416  )
         8           Ti1 tau(   8) = (   0.0015273   1.4827037   9.2680791  )
         9           O1  tau(   9) = (   3.2989311   0.0219330  11.3020621  )
        10           O1  tau(  10) = (   0.0116148   5.9584955  10.6183126  )
        11           O1  tau(  11) = (   1.3029919   1.4976758  12.6257209  )
        12           O1  tau(  12) = (   5.3026591   1.4951023  12.6306759  )
        13           Ti1 tau(  13) = (   0.0286689   2.8598525  12.6759356  )
        14           Ti1 tau(  14) = (   3.3054201   1.5706400  12.4108957  )
        15           O1  tau(  15) = (   0.0066217   5.9386728  14.6456674  )
        16           O1  tau(  16) = (   3.2936494   5.9217248  13.9190535  )
        17           O1  tau(  17) = (   4.5783085   1.5227378  16.0725395  )
        18           O1  tau(  18) = (   2.0661487   1.5008106  16.0935948  )
        19           Ti1 tau(  19) = (   3.3004316   2.9577776  15.6622982  )
        20           Ti1 tau(  20) = (   6.5114840   1.4532315  15.8500040  )
        21           O1  tau(  21) = (   3.2904802   0.0005063   4.7018136  )
        22           O1  tau(  22) = (   0.0101108   5.9483577  17.1703567  )
        23           O1  tau(  23) = (   1.3043587   1.4918075   6.0039043  )
        24           O1  tau(  24) = (   5.2767064   1.4903225   6.0039473  )
        25           Ti1 tau(  25) = (   0.0000382   5.9609847   6.0000000  )
        26           Ti1 tau(  26) = (   3.2902200   4.4714249   6.0002472  )
        27           O1  tau(  27) = (   0.0002396   2.9813036   7.9858123  )
        28           O1  tau(  28) = (   3.2902150   2.9813002   7.3038282  )
        29           O1  tau(  29) = (   4.5938453   4.4726049   9.2879030  )
        30           O1  tau(  30) = (   1.9864658   4.4711199   9.2879459  )
        31           Ti1 tau(  31) = (   3.2891106   5.8743827   9.1763621  )
        32           Ti1 tau(  32) = (   0.0006254   4.4649316   9.2693709  )
        33           O1  tau(  33) = (   3.2985377   2.9527140  11.2683515  )
        34           O1  tau(  34) = (   0.0092240   2.9805883  10.6323155  )
        35           O1  tau(  35) = (   1.2869011   4.4751273  12.6337776  )
        36           O1  tau(  36) = (   5.3033013   4.4751711  12.6363117  )
        37           Ti1 tau(  37) = (   6.5677423   5.8343599  12.5653580  )
        38           Ti1 tau(  38) = (   3.2861748   4.6640272  12.6826305  )
        39           O1  tau(  39) = (   0.0268303   2.9326313  14.6927244  )
        40           O1  tau(  40) = (   3.2973518   2.9805258  13.8830516  )
        41           O1  tau(  41) = (   4.5656241   4.3944478  16.1024780  )
        42           O1  tau(  42) = (   2.0389263   4.3990843  16.1000718  )
        43           Ti1 tau(  43) = (   3.2183859   5.9292641  16.3327267  )
        44           Ti1 tau(  44) = (   6.5399727   4.6159235  16.0325440  )
        45           O1  tau(  45) = (   3.2900926   2.9813045   4.7018136  )
        46           O1  tau(  46) = (   1.3039711   4.4726057   6.0039043  )
        47           O1  tau(  47) = (   5.2763189   4.4711207   6.0039473  )
        48           N1  tau(  48) = (   0.1383159   2.7169024  18.7005470  )
        49           N1  tau(  49) = (   0.0554196   2.8879789  17.5111406  )
        50           C1  tau(  50) = (   0.1807782   3.8735959  19.6428767  )
        51           H1  tau(  51) = (   6.4938760   4.8136915  19.1652781  )
        52           H1  tau(  52) = (   6.0945921   3.6282151  20.4682347  )
        53           H1  tau(  53) = (   1.2016282   3.9139503  20.0277151  )
        54           O1  tau(  54) = (   3.2907091   5.9158944  18.1602194  )
        55           H1  tau(  55) = (   3.1351319   0.7410148  18.7017648  )

     number of k points=    10  Fermi-Dirac smearing, width (Ry)=  0.0073
                       cart. coord. in units 2pi/alat
        k(    1) = (   0.0000000   0.0000000   0.0000000), wk =   0.1250000
        k(    2) = (   0.0000000   0.0419351   0.0000000), wk =   0.2500000
        k(    3) = (   0.0000000  -0.0838702   0.0000000), wk =   0.1250000
        k(    4) = (   0.0379955   0.0000049   0.0000000), wk =   0.2500000
        k(    5) = (   0.0379955   0.0419400   0.0000000), wk =   0.2500000
        k(    6) = (   0.0379955  -0.0838652   0.0000000), wk =   0.2500000
        k(    7) = (   0.0379955  -0.0419301   0.0000000), wk =   0.2500000
        k(    8) = (  -0.0759910  -0.0000099   0.0000000), wk =   0.1250000
        k(    9) = (  -0.0759910   0.0419252   0.0000000), wk =   0.2500000
        k(   10) = (  -0.0759910  -0.0838800   0.0000000), wk =   0.1250000

     Initial potential from superposition of free atoms

     starting charge  385.99915, renormalised to  402.00000

     negative rho (up, down):  1.431E-02 0.000E+00

     %%%%%%%%%%%%%%%%%%%%%%%%%%%%%%%%%%%%%%%%%%%%%%%%%%%%%%%%%%%%%%%%%%%%%%%%
     %                                                                      %
     % You are using vdW-DF, which was implemented by the Thonhauser group. %
     % Please cite the following two papers that made this development      %
     % possible and the two reviews that describe the various versions:     %
     %                                                                      %
     %   T. Thonhauser et al., PRL 115, 136402 (2015).                      %
     %   T. Thonhauser et al., PRB 76, 125112 (2007).                       %
     %   K. Berland et al., Rep. Prog. Phys. 78, 066501 (2015).             %
     %   D.C. Langreth et al., J. Phys.: Condens. Matter 21, 084203 (2009). %
     %                                                                      %
     %                                                                      %
     % If you are calculating the stress with vdW-DF, please also cite:     %
     %                                                                      %
     %   R. Sabatini et al., J. Phys.: Condens. Matter 24, 424209 (2012).   %
     %                                                                      %
     %%%%%%%%%%%%%%%%%%%%%%%%%%%%%%%%%%%%%%%%%%%%%%%%%%%%%%%%%%%%%%%%%%%%%%%%

     Adding external electric field

     Computed dipole along edir(3) :
        Dipole              -12.0462 Ry au,        -30.6184 Debye
        Dipole field         -0.0227 Ry au,

        Potential amp.        2.1073 Ry
        Total length         46.3494 bohr

     Starting wfcs are  304 atomic wfcs
  @ DRIVER MODE: Message from server: STATUS
  @ DRIVER MODE: Message from server: POSDATA
  @ DRIVER MODE: Reading and sharing cell
  @ DRIVER MODE: Reading and sharing positions
  @ DRIVER MODE: Received positions

     Self-consistent Calculation

     iteration #  1     ecut=    29.40 Ry     beta= 0.05
     Davidson diagonalization with overlap
     c_bands:  5 eigenvalues not converged
     c_bands:  3 eigenvalues not converged
     c_bands:  5 eigenvalues not converged
     c_bands:  5 eigenvalues not converged
     c_bands:  3 eigenvalues not converged
     c_bands:  3 eigenvalues not converged
     c_bands:  2 eigenvalues not converged
     c_bands:  5 eigenvalues not converged
     c_bands:  5 eigenvalues not converged
     ethr =  1.00E-05,  avg # of iterations = 21.3

[...]

     total energy              =   -2397.70074540 Ry
     estimated scf accuracy    <    6480.67975892 Ry

     iteration #  2     ecut=    29.40 Ry     beta= 0.05
     Davidson diagonalization with overlap
     ethr =  1.00E-02,  avg # of iterations = 22.2

[...]

     iteration # 76     ecut=    29.40 Ry     beta= 0.05
     Davidson diagonalization with overlap
     c_bands:  1 eigenvalues not converged
     ethr =  5.16E-11,  avg # of iterations =  7.4

[...]

     total energy              =   -2972.75304714 Ry
     estimated scf accuracy    <       0.00000020 Ry

     iteration # 78     ecut=    29.40 Ry     beta= 0.05
     Davidson diagonalization with overlap
     ethr =  5.04E-11,  avg # of iterations =  5.0

     negative rho (up, down):  1.492E-02 0.000E+00

     Adding external electric field

     Computed dipole along edir(3) :
        Dipole                0.6531 Ry au,          1.6599 Debye
        Dipole field          0.0012 Ry au,

        Potential amp.       -0.1142 Ry
        Total length         46.3494 bohr

     End of self-consistent calculation

          k = 0.0000 0.0000 0.0000 ( 18029 PWs)   bands (ev):

   -56.2007 -56.1669 -55.7868 -55.7533 -55.5832 -55.5468 -55.4969 -55.3485
   -55.3149 -55.3129 -55.1685 -55.1553 -55.0283 -55.0050 -54.9724 -54.9384
   -32.6510 -32.4931 -32.4662 -32.3591 -32.2752 -32.2665 -32.2664 -32.0308
   -32.0056 -31.9861 -31.9341 -31.9288 -31.9262 -31.8939 -31.8461 -31.8202
   -31.7926 -31.7692 -31.7674 -31.7254 -31.7104 -31.6971 -31.6852 -31.6547
   -31.6378 -31.6247 -31.5543 -31.5336 -31.5252 -31.5208 -31.4988 -31.4652
   -31.4349 -31.4026 -31.3690 -31.3633 -31.3581 -31.3055 -31.2850 -31.2819
   -31.2573 -31.2404 -31.2402 -31.2374 -31.2162 -31.1877 -31.1031 -30.9912
   -18.8207 -16.4943 -16.4428 -16.1600 -15.9539 -15.7783 -15.6951 -15.6819
   -15.6320 -15.5110 -15.5006 -15.3876 -15.3001 -15.2241 -15.1974 -15.1957
   -15.1007 -15.0572 -15.0147 -14.9899 -14.9781 -14.9714 -14.9387 -14.8313
   -14.8228 -14.7950 -14.6966 -14.6864 -14.5819 -14.2865 -14.2701 -13.4701
   -13.3579 -11.4422  -6.8923  -4.3559  -4.1592  -4.0036  -3.9843  -3.9407
    -3.7081  -3.4956  -3.4107  -3.2486  -3.1935  -3.1151  -2.9171  -2.9072
    -2.8523  -2.7818  -2.7072  -2.6484  -2.6016  -2.5849  -2.4913  -2.4520
    -2.4312  -2.4274  -2.3953  -2.3794  -2.2549  -2.2533  -2.2209  -2.1711
    -2.1116  -2.0976  -2.0304  -2.0217  -2.0045  -1.9568  -1.9223  -1.8748
    -1.8047  -1.7895  -1.6551  -1.6295  -1.6223  -1.5422  -1.5151  -1.5057
    -1.4574  -1.2958  -1.2249  -1.1780  -1.1743  -1.0356  -1.0220  -0.9851
    -0.9038  -0.8688  -0.7796  -0.7691  -0.7593  -0.7506  -0.6664  -0.6300
    -0.6151  -0.5892  -0.4062  -0.3781  -0.3170  -0.2633  -0.1640  -0.1201
    -0.1142  -0.1047  -0.0659  -0.0091   0.0120   0.0271   0.1257   0.1496
     0.2038   0.2727   0.3076   0.3799   0.4002   0.4029   0.4139   0.4695
     0.5612   0.6536   0.6967   0.7116   0.7805   0.7942   0.9313   0.9447
     1.0520   1.0933   1.1012   1.1619   1.2830   1.5652   1.6003   1.6396
     2.7584   3.0256   3.1531   3.3097   3.4576   3.5535   3.8440   3.8909
     3.9299   3.9534   3.9963

[...]

          k = 0.0380-0.0419 0.0000 ( 17876 PWs)   bands (ev):

[...]

          k =-0.0760-0.0000 0.0000 ( 17886 PWs)   bands (ev):

[...]

          k =-0.0760-0.0839 0.0000 ( 17948 PWs)   bands (ev):

   -56.1838 -56.1835 -55.7707 -55.7692 -55.5825 -55.5401 -55.5035 -55.3358
   -55.3254 -55.3154 -55.1666 -55.1533 -55.0301 -55.0068 -54.9554 -54.9552
   -32.4787 -32.4784 -32.4670 -32.4670 -32.3113 -32.3107 -32.0911 -32.0874
   -31.9648 -31.9622 -31.9595 -31.9587 -31.8701 -31.8459 -31.8213 -31.8196
   -31.7831 -31.7622 -31.7616 -31.7283 -31.7201 -31.6915 -31.6696 -31.6580
   -31.6052 -31.5985 -31.5746 -31.5581 -31.5422 -31.5420 -31.5268 -31.5058
   -31.4271 -31.4070 -31.3729 -31.3691 -31.3563 -31.3014 -31.2948 -31.2947
   -31.2898 -31.2497 -31.2457 -31.2413 -31.1839 -31.1834 -31.1457 -31.1454
   -18.8179 -16.4337 -15.9030 -15.8938 -15.7673 -15.7623 -15.5880 -15.5755
   -15.5740 -15.4907 -15.4523 -15.4282 -15.2858 -15.2725 -15.2123 -15.1873
   -15.1709 -15.1475 -15.1373 -15.1049 -15.0949 -15.0430 -14.9861 -14.9786
   -14.9196 -14.9120 -14.7546 -14.6922 -14.6463 -14.4998 -14.4051 -13.4611
   -13.4606 -11.4401  -6.9061  -4.2966  -4.1804  -3.9714  -3.9356  -3.0684
    -3.0197  -2.9173  -2.8798  -2.7993  -2.7871  -2.6758  -2.6595  -2.6126
    -2.5965  -2.5881  -2.5433  -2.4970  -2.4875  -2.4647  -2.4384  -2.4239
    -2.4108  -2.3736  -2.3241  -2.3074  -2.3021  -2.2768  -2.1744  -2.1446
    -2.1313  -2.1235  -2.0970  -2.0726  -2.0300  -1.9585  -1.9250  -1.8868
    -1.8751  -1.8061  -1.7447  -1.6947  -1.6835  -1.6118  -1.5545  -1.5298
    -1.4519  -1.4044  -1.2906  -1.2783  -1.2599  -1.1970  -1.1746  -1.1210
    -1.1016  -1.0392  -0.9888  -0.9656  -0.9616  -0.9480  -0.8807  -0.8192
    -0.7113  -0.6636  -0.6477  -0.6126  -0.6085  -0.5792  -0.5454  -0.5086
    -0.4080  -0.3941  -0.3826  -0.3303  -0.3208  -0.2470  -0.1708  -0.0554
     0.0645   0.1422   0.1525   0.1720   0.2121   0.2937   0.3725   0.4131
     0.4581   0.5179   0.5606   0.5996   0.6652   0.8078   0.8591   0.8807
     0.9659   1.0029   1.0734   1.1610   1.4402   1.4510   1.4556   1.4564
     2.8111   3.5748   3.5772   3.6066   3.6175   3.7317   3.8121   3.8298
     3.9544   4.0691   4.0709

     the Fermi energy is     2.9620 ev

!    total energy              =   -2972.75305784 Ry
     estimated scf accuracy    <       0.00000004 Ry
     smearing contrib. (-TS)   =      -0.01284902 Ry
     internal energy E=F+TS    =   -2972.74020882 Ry

     The total energy is F=E-TS. E is the sum of the following terms:
     one-electron contribution =  -23538.61365462 Ry
     hartree contribution      =   11862.92208771 Ry
     xc contribution           =    -493.07156173 Ry
     ewald contribution        =    9196.02211495 Ry
     electric field correction =       0.00080487 Ry

     convergence has been achieved in  78 iterations

     Forces acting on atoms (cartesian axes, Ry/au):

     atom    1 type  1   force =     0.00008254   -0.00036226    0.10676803
     atom    2 type  1   force =    -0.00012984    0.00015545   -0.16546635
     atom    3 type  2   force =     0.00006702   -0.00044614   -0.03888370
     atom    4 type  2   force =     0.00000061    0.00016055    0.03537528
     atom    5 type  2   force =    -0.00264432   -0.00317744   -0.00913221
     atom    6 type  2   force =     0.00446412   -0.00251261   -0.00941628
     atom    7 type  1   force =    -0.00001828    0.00132866    0.03444768
     atom    8 type  1   force =     0.00023689    0.01555916    0.06075094
     atom    9 type  2   force =    -0.00018007   -0.00045386    0.00009498
     atom   10 type  2   force =    -0.00255530    0.00087900   -0.04248860
     atom   11 type  2   force =    -0.00099572    0.00036328    0.00040003
     atom   12 type  2   force =     0.00049316    0.00024536    0.00029993
     atom   13 type  1   force =     0.00045534    0.00066507   -0.00046040
     atom   14 type  1   force =     0.00025210   -0.00016423    0.00039667
     atom   15 type  2   force =     0.00040950    0.00069228    0.00018393
     atom   16 type  2   force =    -0.00008144   -0.00036498   -0.00072940
     atom   17 type  2   force =     0.00011213    0.00034306    0.00026106
     atom   18 type  2   force =     0.00045098   -0.00018289   -0.00029246
     atom   19 type  1   force =     0.00002727   -0.00095475    0.00006106
     atom   20 type  1   force =     0.00037918    0.00017267   -0.00039839
     atom   21 type  2   force =     0.00003041    0.00013305    0.10041926
     atom   22 type  2   force =     0.00002980    0.00070555    0.00004752
     atom   23 type  2   force =    -0.07679488   -0.00000205   -0.03010463
     atom   24 type  2   force =     0.07666174    0.00046836   -0.03015121
     atom   25 type  1   force =    -0.00008821   -0.00046188    0.10715695
     atom   26 type  1   force =    -0.00021054   -0.00130629   -0.16552032
     atom   27 type  2   force =     0.00010067   -0.00031787   -0.03717895
     atom   28 type  2   force =     0.00004602   -0.00000557    0.03054117
     atom   29 type  2   force =    -0.00568182    0.00365992   -0.00700283
     atom   30 type  2   force =     0.00731642    0.00400787   -0.00727405
     atom   31 type  1   force =    -0.00011482   -0.00228422    0.02264736
     atom   32 type  1   force =     0.00032788   -0.01776409    0.06122984
     atom   33 type  2   force =    -0.00016937    0.00019266   -0.00012553
     atom   34 type  2   force =    -0.00143808    0.00001389   -0.05422198
     atom   35 type  2   force =    -0.00001800   -0.00017857   -0.00019526
     atom   36 type  2   force =    -0.00030173    0.00005256   -0.00004166
     atom   37 type  1   force =     0.00013997   -0.00005543    0.00048136
     atom   38 type  1   force =     0.00032777    0.00002072    0.00010960
     atom   39 type  2   force =    -0.00020554    0.00029493   -0.00031418
     atom   40 type  2   force =     0.00000945    0.00030992    0.00051456
     atom   41 type  2   force =     0.00007773    0.00004760    0.00009668
     atom   42 type  2   force =     0.00054891    0.00017507   -0.00019059
     atom   43 type  1   force =     0.00005583    0.00049171    0.00027164
     atom   44 type  1   force =     0.00055744    0.00014238   -0.00046967
     atom   45 type  2   force =     0.00003413    0.00013570    0.10027918
     atom   46 type  2   force =    -0.07677123    0.00003272   -0.03009702
     atom   47 type  2   force =     0.07662952    0.00046852   -0.03011497
     atom   48 type  3   force =     0.00124709    0.00044785    0.00056424
     atom   49 type  3   force =    -0.00178145   -0.00023417   -0.00242934
     atom   50 type  4   force =    -0.00005660   -0.00002904    0.00013165
     atom   51 type  5   force =    -0.00012990   -0.00054804   -0.00065577
     atom   52 type  5   force =    -0.00018246   -0.00038085   -0.00022047
     atom   53 type  5   force =     0.00021660    0.00011828   -0.00051998
     atom   54 type  2   force =     0.00017154   -0.00019726    0.00171886
     atom   55 type  5   force =    -0.00141014   -0.00009933   -0.00115328

     Total force =     0.380746     Total SCF correction =     0.000549
  @ DRIVER MODE: Message from server: STATUS
  @ DRIVER MODE: Message from server: GETFORCE
  @ DRIVER MODE: Returning v,forces,stress,ensemble

     Writing output data file ./calc.save/
  @ DRIVER MODE: Message from server: EXIT
  @ DRIVE MODE: Exiting

     General routines

     Parallel routines

   This run was terminated on:   1:36:24  23Sep2021

   JOB DONE.