     Program PWSCF v.6.7GPU starts on  2Aug2021 at 12:36:38

     R & G space division:  proc/nbgrp/npool/nimage =      16
     Reading input from /storage/home/hcoda1/3/ntian30/research/carbon/02Aug_vib_paired/ads_slab/CH3N2H_a/out_0002/pw.inp
Warning: card &CELL ignored
Warning: card   CELL_DYNAMICS='IPI', ignored
Warning: card / ignored

     Current dimensions of program PWSCF are:
     Max number of different atomic species (ntypx) = 10
     Max number of k-points (npk) =  40000
     Max angular momentum in pseudopotentials (lmaxx) =  3
     Presently no symmetry can be used with electric field

     Message from routine cell_base_init:
     DEPRECATED: use true lattice parameter, not A to a.u. conversion factor

     IMPORTANT: XC functional enforced from input :
     Exchange-correlation= BEEF-VDW
                           (   1   4  43  14   2   0   0)
     Any further DFT definition will be discarded
     Please, verify this is what you really want

  @ DRIVER MODE: Connecting to
 qe_1139763_2482535.sched-torque.pace.gatech.edu1e4jlq2l_scratch
  using UNIX socket
  @ DRIVER MODE: Message from server: STATUS
  @ DRIVER MODE: Message from server: INIT
  @ DRIVER MODE: Receiving replica           0          -1
  @ DRIVER MODE: Receiving encoded integer          25
  @ DRIVER MODE:  SCF:  T  FORCE:  T  STRESS:  F  VC:  F  ENSEMBLE:  F
  @ DRIVER MODE:  SCF:  T  FORCE:  T  STRESS:  F  VC:  F  ENSEMBLE:  F

     Using Slab Decomposition

     bravais-lattice index     =            0
     lattice parameter (alat)  =       1.8897  a.u.
     unit-cell volume          =    6658.9804 (a.u.)^3
     number of atoms/cell      =           54
     number of atomic types    =            5
     number of electrons       =       396.00
     number of Kohn-Sham states=          208
     kinetic-energy cutoff     =      29.3995  Ry
     charge density cutoff     =     293.9946  Ry
     scf convergence threshold =      7.3E-08
     mixing beta               =       0.0500
     number of iterations used =            8  plain     mixing
     Exchange-correlation= BEEF-VDW
                           (   1   4  43  14   2   0   0)

     celldm(1)=   1.889726  celldm(2)=   0.000000  celldm(3)=   0.000000
     celldm(4)=   0.000000  celldm(5)=   0.000000  celldm(6)=   0.000000

     crystal axes: (cart. coord. in units of alat)
               a(1) = (   6.579727   0.000000   0.000000 )
               a(2) = (  -0.000775   5.961596   0.000000 )
               a(3) = (   0.000000   0.000000  25.155947 )

     reciprocal axes: (cart. coord. in units 2 pi/alat)
               b(1) = (  0.151982  0.000020  0.000000 )
               b(2) = (  0.000000  0.167740  0.000000 )
               b(3) = (  0.000000  0.000000  0.039752 )

     PseudoPot. # 1 for Ti read from file:
     /storage/coda1/p-amedford6/0/shared/rich_project_chbe-medford/medford-share/data/pseudos_module/espresso/nninc/pbe/van/Ti.UPF
     MD5 check sum: 8e4df49b7f0d34bbd5052bf3f5ea0213
     Pseudo is Ultrasoft, Zval = 12.0
     Generated by new atomic code, or converted to UPF format
     Using radial grid of  851 points,  6 beta functions with:
                l(1) =   0
                l(2) =   0
                l(3) =   1
                l(4) =   1
                l(5) =   2
                l(6) =   2
     Q(r) pseudized with  8 coefficients,  rinner =    1.000   1.000   1.000
                                                       1.000   1.000

     PseudoPot. # 2 for O  read from file:
     /storage/coda1/p-amedford6/0/shared/rich_project_chbe-medford/medford-share/data/pseudos_module/espresso/nninc/pbe/van/O.UPF
     MD5 check sum: 78c19812648e8988a0fe644b0f25305e
     Pseudo is Ultrasoft, Zval =  6.0
     Generated by new atomic code, or converted to UPF format
     Using radial grid of  737 points,  4 beta functions with:
                l(1) =   0
                l(2) =   0
                l(3) =   1
                l(4) =   1
     Q(r) pseudized with  8 coefficients,  rinner =    0.800   0.800   0.800

     PseudoPot. # 3 for N  read from file:
     /storage/coda1/p-amedford6/0/shared/rich_project_chbe-medford/medford-share/data/pseudos_module/espresso/nninc/pbe/van/N.UPF
     MD5 check sum: 90d10febe142ad51ac9d5be1deb811c4
     Pseudo is Ultrasoft, Zval =  5.0
     Generated by new atomic code, or converted to UPF format
     Using radial grid of  729 points,  4 beta functions with:
                l(1) =   0
                l(2) =   0
                l(3) =   1
                l(4) =   1
     Q(r) pseudized with  8 coefficients,  rinner =    0.800   0.800   0.800

     PseudoPot. # 4 for C  read from file:
     /storage/coda1/p-amedford6/0/shared/rich_project_chbe-medford/medford-share/data/pseudos_module/espresso/nninc/pbe/van/C.UPF
     MD5 check sum: 1a69bf6b8db32088f5b2163dbdb77a27
     Pseudo is Ultrasoft, Zval =  4.0
     Generated by new atomic code, or converted to UPF format
     Using radial grid of  721 points,  4 beta functions with:
                l(1) =   0
                l(2) =   0
                l(3) =   1
                l(4) =   1
     Q(r) pseudized with  8 coefficients,  rinner =    0.800   0.800   0.800

     PseudoPot. # 5 for H  read from file:
     /storage/coda1/p-amedford6/0/shared/rich_project_chbe-medford/medford-share/data/pseudos_module/espresso/nninc/pbe/van/H.UPF
     MD5 check sum: b5ee9d7bfd3a09ee7748110bda690ff7
     Pseudo is Ultrasoft, Zval =  1.0
     Generated by new atomic code, or converted to UPF format
     Using radial grid of  615 points,  1 beta functions with:
                l(1) =   0
     Q(r) pseudized with  8 coefficients,  rinner =    0.800

     atomic species   valence    mass     pseudopotential
        Ti1           12.00    47.86700     Ti( 1.00)
        O1             6.00    15.99900     O ( 1.00)
        N1             5.00    14.00700     N ( 1.00)
        C1             4.00    12.01100     C ( 1.00)
        H1             1.00     1.00800     H ( 1.00)

     No symmetry found

   Cartesian axes

     site n.     atom                  positions (alat units)
         1           Ti1 tau(   1) = (   0.0004258   2.9801865   6.0000000  )
         2           Ti1 tau(   2) = (   3.2906075   1.4906267   6.0002472  )
         3           O1  tau(   3) = (   0.0006271   0.0005054   7.9858123  )
         4           O1  tau(   4) = (   3.2906025   0.0005020   7.3038282  )
         5           O1  tau(   5) = (   4.5942328   1.4918067   9.2879030  )
         6           O1  tau(   6) = (   1.9868534   1.4903216   9.2879459  )
         7           Ti1 tau(   7) = (   3.2907910   2.8959150   9.1758416  )
         8           Ti1 tau(   8) = (   0.0015273   1.4827037   9.2680791  )
         9           O1  tau(   9) = (   3.3106937   0.0084137  11.2927479  )
        10           O1  tau(  10) = (   0.0116148   5.9584955  10.6183126  )
        11           O1  tau(  11) = (   1.3255326   1.5151957  12.5859258  )
        12           O1  tau(  12) = (   5.3246634   1.4871208  12.6441624  )
        13           Ti1 tau(  13) = (   6.5358624   2.9940264  12.7507449  )
        14           Ti1 tau(  14) = (   3.1828407   1.5032771  12.4528579  )
        15           O1  tau(  15) = (   0.1336207   0.0073438  14.6266748  )
        16           O1  tau(  16) = (   3.2550344   0.0288700  13.8306396  )
        17           O1  tau(  17) = (   4.6334483   1.5013943  15.9792279  )
        18           O1  tau(  18) = (   2.1409664   1.5470880  15.9954950  )
        19           Ti1 tau(  19) = (   3.4798582   3.0305884  15.6593850  )
        20           Ti1 tau(  20) = (   0.1386493   1.3724552  15.8613965  )
        21           O1  tau(  21) = (   3.2904802   0.0005063   4.7018136  )
        22           O1  tau(  22) = (   0.1429122   0.0333940  17.1908172  )
        23           O1  tau(  23) = (   1.3043587   1.4918075   6.0039043  )
        24           O1  tau(  24) = (   5.2767064   1.4903225   6.0039473  )
        25           Ti1 tau(  25) = (   0.0000382   5.9609847   6.0000000  )
        26           Ti1 tau(  26) = (   3.2902200   4.4714249   6.0002472  )
        27           O1  tau(  27) = (   0.0002396   2.9813036   7.9858123  )
        28           O1  tau(  28) = (   3.2902150   2.9813002   7.3038282  )
        29           O1  tau(  29) = (   4.5938453   4.4726049   9.2879030  )
        30           O1  tau(  30) = (   1.9864658   4.4711199   9.2879459  )
        31           Ti1 tau(  31) = (   3.2891106   5.8743827   9.1763621  )
        32           Ti1 tau(  32) = (   0.0006254   4.4649316   9.2693709  )
        33           O1  tau(  33) = (   3.3137399   2.9960163  11.2943833  )
        34           O1  tau(  34) = (   0.0092240   2.9805883  10.6323155  )
        35           O1  tau(  35) = (   1.3234708   4.4688006  12.5930975  )
        36           O1  tau(  36) = (   5.3222282   4.4932535  12.6449723  )
        37           Ti1 tau(  37) = (   6.5041614   0.0053836  12.5833808  )
        38           Ti1 tau(  38) = (   3.1843229   4.4812189  12.4522442  )
        39           O1  tau(  39) = (   0.0584892   2.9792810  14.6723703  )
        40           O1  tau(  40) = (   3.3232524   2.9928384  13.8523860  )
        41           O1  tau(  41) = (   4.6237859   4.5837569  15.7472905  )
        42           O1  tau(  42) = (   2.1882403   4.4693611  16.1038286  )
        43           Ti1 tau(  43) = (   3.3015484   0.0242660  15.6383815  )
        44           Ti1 tau(  44) = (   0.0181797   4.4930750  16.1931172  )
        45           O1  tau(  45) = (   3.2900926   2.9813045   4.7018136  )
        46           O1  tau(  46) = (   1.3039711   4.4726057   6.0039043  )
        47           O1  tau(  47) = (   5.2763189   4.4711207   6.0039473  )
        48           N1  tau(  48) = (   0.2777213   2.8760844  17.5655548  )
        49           C1  tau(  49) = (   1.2271684   2.7639891  18.6598760  )
        50           H1  tau(  50) = (   1.2930054   3.7106696  19.2072709  )
        51           H1  tau(  51) = (   0.8976878   1.9730418  19.3402421  )
        52           H1  tau(  52) = (   2.2102292   2.4972526  18.2850250  )
        53           N1  tau(  53) = (   5.6732178   3.4927010  17.8452151  )
        54           H1  tau(  54) = (   5.7345573   4.0058295  18.7343860  )

     number of k points=    10  Fermi-Dirac smearing, width (Ry)=  0.0073
                       cart. coord. in units 2pi/alat
        k(    1) = (   0.0000000   0.0000000   0.0000000), wk =   0.1250000
        k(    2) = (   0.0000000   0.0419351   0.0000000), wk =   0.2500000
        k(    3) = (   0.0000000  -0.0838702   0.0000000), wk =   0.1250000
        k(    4) = (   0.0379955   0.0000049   0.0000000), wk =   0.2500000
        k(    5) = (   0.0379955   0.0419400   0.0000000), wk =   0.2500000
        k(    6) = (   0.0379955  -0.0838652   0.0000000), wk =   0.2500000
        k(    7) = (   0.0379955  -0.0419301   0.0000000), wk =   0.2500000
        k(    8) = (  -0.0759910  -0.0000099   0.0000000), wk =   0.1250000
        k(    9) = (  -0.0759910   0.0419252   0.0000000), wk =   0.2500000
        k(   10) = (  -0.0759910  -0.0838800   0.0000000), wk =   0.1250000

     Initial potential from superposition of free atoms

     starting charge  379.99915, renormalised to  396.00000

     negative rho (up, down):  1.686E-02 0.000E+00

     %%%%%%%%%%%%%%%%%%%%%%%%%%%%%%%%%%%%%%%%%%%%%%%%%%%%%%%%%%%%%%%%%%%%%%%%
     %                                                                      %
     % You are using vdW-DF, which was implemented by the Thonhauser group. %
     % Please cite the following two papers that made this development      %
     % possible and the two reviews that describe the various versions:     %
     %                                                                      %
     %   T. Thonhauser et al., PRL 115, 136402 (2015).                      %
     %   T. Thonhauser et al., PRB 76, 125112 (2007).                       %
     %   K. Berland et al., Rep. Prog. Phys. 78, 066501 (2015).             %
     %   D.C. Langreth et al., J. Phys.: Condens. Matter 21, 084203 (2009). %
     %                                                                      %
     %                                                                      %
     % If you are calculating the stress with vdW-DF, please also cite:     %
     %                                                                      %
     %   R. Sabatini et al., J. Phys.: Condens. Matter 24, 424209 (2012).   %
     %                                                                      %
     %%%%%%%%%%%%%%%%%%%%%%%%%%%%%%%%%%%%%%%%%%%%%%%%%%%%%%%%%%%%%%%%%%%%%%%%

     Adding external electric field

     Computed dipole along edir(3) :
        Dipole               -8.2222 Ry au,        -20.8988 Debye
        Dipole field         -0.0155 Ry au,

        Potential amp.        1.4384 Ry
        Total length         46.3494 bohr

     Starting wfcs are  300 atomic wfcs
  @ DRIVER MODE: Message from server: STATUS
  @ DRIVER MODE: Message from server: POSDATA
  @ DRIVER MODE: Reading and sharing cell
  @ DRIVER MODE: Reading and sharing positions
  @ DRIVER MODE: Received positions

     Self-consistent Calculation

     iteration #  1     ecut=    29.40 Ry     beta= 0.05
     Davidson diagonalization with overlap
     c_bands:  1 eigenvalues not converged
     c_bands:  1 eigenvalues not converged
     c_bands:  1 eigenvalues not converged
     c_bands:  1 eigenvalues not converged
     c_bands:  4 eigenvalues not converged
     c_bands:  1 eigenvalues not converged
     c_bands:  4 eigenvalues not converged
     c_bands:  2 eigenvalues not converged
     c_bands:  1 eigenvalues not converged
     ethr =  1.00E-05,  avg # of iterations = 20.0

[...]

     total energy              =   -2607.34630955 Ry
     estimated scf accuracy    <    3677.86022409 Ry

     iteration #  2     ecut=    29.40 Ry     beta= 0.05
     Davidson diagonalization with overlap
     ethr =  1.00E-02,  avg # of iterations = 22.0

[...]

     iteration # 39     ecut=    29.40 Ry     beta= 0.05
     Davidson diagonalization with overlap
     c_bands:  1 eigenvalues not converged
     c_bands:  2 eigenvalues not converged
     ethr =  1.00E-06,  avg # of iterations =  8.6

[...]

     total energy              =   -2940.35205950 Ry
     estimated scf accuracy    <       0.00000015 Ry

     iteration # 65     ecut=    29.40 Ry     beta= 0.05
     Davidson diagonalization with overlap
     ethr =  1.87E-11,  avg # of iterations =  3.4

     negative rho (up, down):  1.747E-02 0.000E+00

     Adding external electric field

     Computed dipole along edir(3) :
        Dipole                0.7272 Ry au,          1.8483 Debye
        Dipole field          0.0014 Ry au,

        Potential amp.       -0.1272 Ry
        Total length         46.3494 bohr

     End of self-consistent calculation

          k = 0.0000 0.0000 0.0000 ( 18029 PWs)   bands (ev):

   -56.0333 -55.9993 -55.8111 -55.7722 -55.7346 -55.7001 -55.6705 -55.6484
   -55.6363 -55.6137 -55.5782 -55.4977 -55.2446 -54.9291 -54.8951 -54.7924
   -32.4999 -32.3531 -32.3274 -32.3039 -32.2015 -32.1882 -32.1731 -32.1379
   -32.1227 -32.1056 -32.0942 -32.0520 -32.0240 -31.9882 -31.9850 -31.9799
   -31.9512 -31.9377 -31.9231 -31.9057 -31.8939 -31.8771 -31.8734 -31.8624
   -31.8486 -31.8444 -31.8385 -31.8322 -31.8289 -31.8048 -31.8026 -31.8000
   -31.7831 -31.7611 -31.6941 -31.6685 -31.6184 -31.4710 -31.4677 -31.3326
   -31.2533 -31.2303 -31.2086 -31.1499 -31.0639 -30.9953 -30.9526 -30.9178
   -17.2162 -16.5659 -16.3768 -16.0867 -15.9344 -15.9086 -15.7941 -15.6994
   -15.6236 -15.5243 -15.4673 -15.4159 -15.4046 -15.3754 -15.3161 -15.2971
   -15.2536 -15.2384 -15.1936 -15.1803 -15.1323 -15.1182 -15.0918 -15.0520
   -14.9931 -14.9216 -14.9117 -14.7475 -14.6150 -14.4571 -13.4301 -13.3153
   -11.5646  -8.3101  -4.9785  -4.0014  -3.9532  -3.8852  -3.8306  -3.7811
    -3.7005  -3.4497  -3.4202  -3.3623  -3.0795  -3.0305  -3.0066  -3.0020
    -2.9032  -2.7667  -2.7351  -2.6749  -2.6682  -2.6491  -2.6261  -2.6108
    -2.5526  -2.4915  -2.4782  -2.4362  -2.3081  -2.2775  -2.2716  -2.2520
    -2.1817  -2.1729  -2.1074  -2.0924  -2.0686  -2.0518  -2.0120  -1.8774
    -1.8431  -1.7781  -1.6939  -1.6109  -1.5327  -1.4921  -1.3968  -1.3959
    -1.3222  -1.2697  -1.2336  -1.1813  -1.1535  -1.0670  -1.0476  -1.0107
    -0.9064  -0.8740  -0.8154  -0.7597  -0.7184  -0.7027  -0.6640  -0.6399
    -0.6318  -0.6125  -0.6021  -0.4053  -0.3811  -0.2367  -0.1921  -0.1664
    -0.1268  -0.0998  -0.0433  -0.0239  -0.0151   0.0212   0.0390   0.0830
     0.1405   0.1565   0.1807   0.2776   0.3107   0.3630   0.4889   0.5008
     0.5912   0.6551   0.7657   0.7732   0.8256   0.9591   1.0504   1.0761
     1.0933   1.2987   1.4068   1.6573   1.6997   3.0137   3.1604   3.2560
     3.3650   3.4857   3.5634   3.5982   3.7766   3.8176   3.8578   3.9286

[...]

          k = 0.0380-0.0419 0.0000 ( 17876 PWs)   bands (ev):

[...]

          k =-0.0760-0.0000 0.0000 ( 17886 PWs)   bands (ev):

[...]

          k =-0.0760-0.0839 0.0000 ( 17948 PWs)   bands (ev):

   -56.0172 -56.0152 -55.7989 -55.7842 -55.7209 -55.7135 -55.6553 -55.6515
   -55.6350 -55.6271 -55.5743 -55.5014 -55.2440 -54.9121 -54.9119 -54.7929
   -32.3163 -32.3153 -32.3131 -32.3114 -32.1605 -32.1484 -32.1402 -32.1380
   -32.0568 -32.0440 -32.0345 -32.0329 -32.0258 -32.0210 -31.9799 -31.9744
   -31.9626 -31.9504 -31.9162 -31.9119 -31.8998 -31.8952 -31.8902 -31.8879
   -31.8783 -31.8778 -31.8647 -31.8583 -31.8497 -31.8471 -31.8447 -31.8243
   -31.8014 -31.7988 -31.7670 -31.7078 -31.6104 -31.4734 -31.4672 -31.2588
   -31.2432 -31.2430 -31.1459 -31.1457 -31.1070 -31.1069 -31.0073 -30.9215
   -17.1953 -15.9820 -15.9539 -15.8502 -15.8309 -15.7399 -15.7269 -15.6129
   -15.6047 -15.5911 -15.5250 -15.4810 -15.4701 -15.3834 -15.3588 -15.3465
   -15.3244 -15.3149 -15.3080 -15.2965 -15.2788 -15.2063 -15.2010 -15.1910
   -15.1166 -15.0978 -14.9084 -14.8657 -14.6641 -14.6264 -13.4178 -13.4174
   -11.5681  -8.2899  -4.9849  -3.8974  -3.8266  -3.2840  -3.2480  -3.0357
    -3.0076  -2.9873  -2.9605  -2.7744  -2.7603  -2.7553  -2.7365  -2.7232
    -2.6857  -2.6664  -2.6530  -2.5878  -2.5774  -2.5596  -2.5552  -2.5428
    -2.5248  -2.5096  -2.5012  -2.4824  -2.4630  -2.4183  -2.3638  -2.3428
    -2.2908  -2.1966  -2.0908  -2.0511  -2.0395  -2.0306  -2.0071  -1.9982
    -1.9545  -1.9422  -1.8573  -1.6645  -1.6188  -1.5658  -1.5592  -1.5333
    -1.4847  -1.4312  -1.3778  -1.3027  -1.2446  -1.1955  -1.1660  -1.1457
    -1.1050  -1.0408  -0.9761  -0.9561  -0.9412  -0.9179  -0.9161  -0.8915
    -0.8140  -0.7275  -0.6901  -0.6613  -0.6397  -0.6272  -0.6115  -0.5862
    -0.4716  -0.4127  -0.3646  -0.3189  -0.2745  -0.2333  -0.1142  -0.1001
     0.1031   0.1605   0.1822   0.2652   0.3622   0.3846   0.3934   0.4634
     0.5381   0.6011   0.6366   0.6893   0.7020   0.7254   0.7914   1.0075
     1.0608   1.4674   1.4690   1.5179   1.5189   2.9780   3.6630   3.6693
     3.6727   3.6823   3.7049   3.7289   3.7823   3.8170   3.9154   3.9381

     the Fermi energy is     3.1248 ev

!    total energy              =   -2940.35208520 Ry
     estimated scf accuracy    <       0.00000007 Ry
     smearing contrib. (-TS)   =      -0.01861346 Ry
     internal energy E=F+TS    =   -2940.33347174 Ry

     The total energy is F=E-TS. E is the sum of the following terms:
     one-electron contribution =  -24661.46846956 Ry
     hartree contribution      =   12419.80915491 Ry
     xc contribution           =    -486.04559940 Ry
     ewald contribution        =    9787.37044440 Ry
     electric field correction =       0.00099791 Ry

     convergence has been achieved in  65 iterations

     Forces acting on atoms (cartesian axes, Ry/au):

     atom    1 type  1   force =     0.00026005   -0.00036483    0.10154978
     atom    2 type  1   force =     0.00003764   -0.00086134   -0.17135330
     atom    3 type  2   force =     0.00028872    0.00021690   -0.03329387
     atom    4 type  2   force =     0.00003154   -0.00078423    0.04476462
     atom    5 type  2   force =    -0.01194679   -0.00020303   -0.00235241
     atom    6 type  2   force =     0.01438029    0.00039047   -0.00115632
     atom    7 type  1   force =     0.00140455   -0.00129281   -0.00416808
     atom    8 type  1   force =    -0.00078622    0.02218950    0.05631260
     atom    9 type  2   force =     0.00003306   -0.00032469    0.00034869
     atom   10 type  2   force =    -0.00266039    0.00207834   -0.02609298
     atom   11 type  2   force =     0.00001569    0.00023840   -0.00012002
     atom   12 type  2   force =     0.00012528    0.00072968   -0.00005065
     atom   13 type  1   force =    -0.00004157    0.00014605    0.00056356
     atom   14 type  1   force =     0.00026738    0.00025654    0.00020856
     atom   15 type  2   force =     0.00025638   -0.00015894   -0.00023935
     atom   16 type  2   force =    -0.00002653   -0.00013054    0.00042514
     atom   17 type  2   force =    -0.00010587   -0.00082198   -0.00014122
     atom   18 type  2   force =     0.00079033   -0.00092042   -0.00005899
     atom   19 type  1   force =    -0.00004812   -0.00051100    0.00068481
     atom   20 type  1   force =     0.00005958    0.00011612    0.00060153
     atom   21 type  2   force =     0.00006705   -0.00000743    0.10208828
     atom   22 type  2   force =    -0.00014951   -0.00011030   -0.00013568
     atom   23 type  2   force =    -0.07329091   -0.00015720   -0.02889385
     atom   24 type  2   force =     0.07324019    0.00033457   -0.02894082
     atom   25 type  1   force =    -0.00029173   -0.00032583    0.10197795
     atom   26 type  1   force =     0.00003332   -0.00017283   -0.17134584
     atom   27 type  2   force =     0.00036485   -0.00022756   -0.03201637
     atom   28 type  2   force =     0.00009182   -0.00056652    0.04537547
     atom   29 type  2   force =    -0.01209673    0.00213755   -0.00290714
     atom   30 type  2   force =     0.01440838    0.00229580   -0.00165742
     atom   31 type  1   force =     0.00159514    0.00092484   -0.00549064
     atom   32 type  1   force =    -0.00059624   -0.02474535    0.05738440
     atom   33 type  2   force =     0.00015525    0.00035534    0.00051266
     atom   34 type  2   force =    -0.00420695    0.00212353   -0.04847339
     atom   35 type  2   force =     0.00061886   -0.00059076   -0.00006436
     atom   36 type  2   force =    -0.00036507   -0.00071937    0.00007793
     atom   37 type  1   force =     0.00004482    0.00059705    0.00024645
     atom   38 type  1   force =    -0.00000439   -0.00012190    0.00010912
     atom   39 type  2   force =     0.00015056    0.00000464   -0.00087144
     atom   40 type  2   force =    -0.00011358   -0.00003594   -0.00062674
     atom   41 type  2   force =    -0.00000984    0.00052478   -0.00017951
     atom   42 type  2   force =     0.00026409    0.00058846    0.00037994
     atom   43 type  1   force =    -0.00030789   -0.00012514    0.00051374
     atom   44 type  1   force =     0.00043235   -0.00075102    0.00191593
     atom   45 type  2   force =     0.00004441   -0.00005127    0.10214617
     atom   46 type  2   force =    -0.07330450   -0.00009531   -0.02886793
     atom   47 type  2   force =     0.07325300    0.00028423   -0.02890369
     atom   48 type  3   force =    -0.01488076    0.00593903   -0.00155127
     atom   49 type  4   force =     0.00369546   -0.00058228    0.00221452
     atom   50 type  5   force =     0.00028689   -0.00017903    0.00036036
     atom   51 type  5   force =    -0.00057900   -0.00063273    0.00069697
     atom   52 type  5   force =     0.00066433   -0.00055511    0.00109638
     atom   53 type  3   force =     0.00804963   -0.00474776   -0.00210730
     atom   54 type  5   force =     0.00040175   -0.00059740   -0.00049496

     Total force =     0.378302     Total SCF correction =     0.000675
  @ DRIVER MODE: Message from server: STATUS
  @ DRIVER MODE: Message from server: GETFORCE
  @ DRIVER MODE: Returning v,forces,stress,ensemble

     Writing output data file ./calc.save/
  @ DRIVER MODE: Message from server: EXIT
  @ DRIVE MODE: Exiting

     General routines

     Parallel routines

   This run was terminated on:  12:51:24   2Aug2021

   JOB DONE.