     Program PWSCF v.6.7GPU starts on 23Aug2021 at 20:50:33

     R & G space division:  proc/nbgrp/npool/nimage =       6
     Reading input from /storage/home/hcoda1/3/ntian30/research/carbon/CH_vib/ads_slab/CHN_a/out_0017/pw.inp
Warning: card &CELL ignored
Warning: card   CELL_DYNAMICS='IPI', ignored
Warning: card / ignored

     Current dimensions of program PWSCF are:
     Max number of different atomic species (ntypx) = 10
     Max number of k-points (npk) =  40000
     Max angular momentum in pseudopotentials (lmaxx) =  3
     Presently no symmetry can be used with electric field

     Message from routine cell_base_init:
     DEPRECATED: use true lattice parameter, not A to a.u. conversion factor

     IMPORTANT: XC functional enforced from input :
     Exchange-correlation= BEEF-VDW
                           (   1   4  43  14   2   0   0)
     Any further DFT definition will be discarded
     Please, verify this is what you really want

  @ DRIVER MODE: Connecting to
 qe_1139763_2632801.sched-torque.pace.gatech.eduoe68n5oi_scratch
  using UNIX socket
  @ DRIVER MODE: Message from server: STATUS
  @ DRIVER MODE: Message from server: INIT
  @ DRIVER MODE: Receiving replica           0          -1
  @ DRIVER MODE: Receiving encoded integer          25
  @ DRIVER MODE:  SCF:  T  FORCE:  T  STRESS:  F  VC:  F  ENSEMBLE:  F
  @ DRIVER MODE:  SCF:  T  FORCE:  T  STRESS:  F  VC:  F  ENSEMBLE:  F

     Using Slab Decomposition

     bravais-lattice index     =            0
     lattice parameter (alat)  =       1.8897  a.u.
     unit-cell volume          =    6658.9804 (a.u.)^3
     number of atoms/cell      =           50
     number of atomic types    =            5
     number of electrons       =       388.00
     number of Kohn-Sham states=          204
     kinetic-energy cutoff     =      29.3995  Ry
     charge density cutoff     =     293.9946  Ry
     scf convergence threshold =      7.3E-08
     mixing beta               =       0.0500
     number of iterations used =            8  plain     mixing
     Exchange-correlation= BEEF-VDW
                           (   1   4  43  14   2   0   0)

     celldm(1)=   1.889726  celldm(2)=   0.000000  celldm(3)=   0.000000
     celldm(4)=   0.000000  celldm(5)=   0.000000  celldm(6)=   0.000000

     crystal axes: (cart. coord. in units of alat)
               a(1) = (   6.579727   0.000000   0.000000 )
               a(2) = (  -0.000775   5.961596   0.000000 )
               a(3) = (   0.000000   0.000000  25.155947 )

     reciprocal axes: (cart. coord. in units 2 pi/alat)
               b(1) = (  0.151982  0.000020  0.000000 )
               b(2) = (  0.000000  0.167740  0.000000 )
               b(3) = (  0.000000  0.000000  0.039752 )

     PseudoPot. # 1 for Ti read from file:
     /storage/coda1/p-amedford6/0/shared/rich_project_chbe-medford/medford-share/data/pseudos_module/espresso/nninc/pbe/van/Ti.UPF
     MD5 check sum: 8e4df49b7f0d34bbd5052bf3f5ea0213
     Pseudo is Ultrasoft, Zval = 12.0
     Generated by new atomic code, or converted to UPF format
     Using radial grid of  851 points,  6 beta functions with:
                l(1) =   0
                l(2) =   0
                l(3) =   1
                l(4) =   1
                l(5) =   2
                l(6) =   2
     Q(r) pseudized with  8 coefficients,  rinner =    1.000   1.000   1.000
                                                       1.000   1.000

     PseudoPot. # 2 for O  read from file:
     /storage/coda1/p-amedford6/0/shared/rich_project_chbe-medford/medford-share/data/pseudos_module/espresso/nninc/pbe/van/O.UPF
     MD5 check sum: 78c19812648e8988a0fe644b0f25305e
     Pseudo is Ultrasoft, Zval =  6.0
     Generated by new atomic code, or converted to UPF format
     Using radial grid of  737 points,  4 beta functions with:
                l(1) =   0
                l(2) =   0
                l(3) =   1
                l(4) =   1
     Q(r) pseudized with  8 coefficients,  rinner =    0.800   0.800   0.800

     PseudoPot. # 3 for N  read from file:
     /storage/coda1/p-amedford6/0/shared/rich_project_chbe-medford/medford-share/data/pseudos_module/espresso/nninc/pbe/van/N.UPF
     MD5 check sum: 90d10febe142ad51ac9d5be1deb811c4
     Pseudo is Ultrasoft, Zval =  5.0
     Generated by new atomic code, or converted to UPF format
     Using radial grid of  729 points,  4 beta functions with:
                l(1) =   0
                l(2) =   0
                l(3) =   1
                l(4) =   1
     Q(r) pseudized with  8 coefficients,  rinner =    0.800   0.800   0.800

     PseudoPot. # 4 for C  read from file:
     /storage/coda1/p-amedford6/0/shared/rich_project_chbe-medford/medford-share/data/pseudos_module/espresso/nninc/pbe/van/C.UPF
     MD5 check sum: 1a69bf6b8db32088f5b2163dbdb77a27
     Pseudo is Ultrasoft, Zval =  4.0
     Generated by new atomic code, or converted to UPF format
     Using radial grid of  721 points,  4 beta functions with:
                l(1) =   0
                l(2) =   0
                l(3) =   1
                l(4) =   1
     Q(r) pseudized with  8 coefficients,  rinner =    0.800   0.800   0.800

     PseudoPot. # 5 for H  read from file:
     /storage/coda1/p-amedford6/0/shared/rich_project_chbe-medford/medford-share/data/pseudos_module/espresso/nninc/pbe/van/H.UPF
     MD5 check sum: b5ee9d7bfd3a09ee7748110bda690ff7
     Pseudo is Ultrasoft, Zval =  1.0
     Generated by new atomic code, or converted to UPF format
     Using radial grid of  615 points,  1 beta functions with:
                l(1) =   0
     Q(r) pseudized with  8 coefficients,  rinner =    0.800

     atomic species   valence    mass     pseudopotential
        Ti1           12.00    47.86700     Ti( 1.00)
        O1             6.00    15.99900     O ( 1.00)
        N1             5.00    14.00700     N ( 1.00)
        C1             4.00    12.01100     C ( 1.00)
        H1             1.00     1.00800     H ( 1.00)

     No symmetry found

   Cartesian axes

     site n.     atom                  positions (alat units)
         1           Ti1 tau(   1) = (   0.0004258   2.9801865   6.0000000  )
         2           Ti1 tau(   2) = (   3.2906075   1.4906267   6.0002472  )
         3           O1  tau(   3) = (   0.0006271   0.0005054   7.9858123  )
         4           O1  tau(   4) = (   3.2906025   0.0005020   7.3038282  )
         5           O1  tau(   5) = (   4.5942328   1.4918067   9.2879030  )
         6           O1  tau(   6) = (   1.9868534   1.4903216   9.2879459  )
         7           Ti1 tau(   7) = (   3.2907910   2.8959150   9.1758416  )
         8           Ti1 tau(   8) = (   0.0015273   1.4827037   9.2680791  )
         9           O1  tau(   9) = (   3.3014052   0.0114069  11.3737528  )
        10           O1  tau(  10) = (   0.0116148   5.9584955  10.6183126  )
        11           O1  tau(  11) = (   1.3012034   1.4994444  12.6801950  )
        12           O1  tau(  12) = (   5.3042999   1.4981222  12.6788946  )
        13           Ti1 tau(  13) = (   0.0222102   2.9879630  12.5217794  )
        14           Ti1 tau(  14) = (   3.3166014   1.4969944  12.5290657  )
        15           O1  tau(  15) = (   0.0131148   5.9114811  14.6787674  )
        16           O1  tau(  16) = (   3.3052116   5.9585997  13.9918696  )
        17           O1  tau(  17) = (   4.5573354   1.5165695  16.1403462  )
        18           O1  tau(  18) = (   2.0429717   1.5180214  16.1331141  )
        19           Ti1 tau(  19) = (   3.3061463   3.0045039  15.7576854  )
        20           Ti1 tau(  20) = (   0.0190008   1.3629876  15.8180984  )
        21           O1  tau(  21) = (   3.2904802   0.0005063   4.7018136  )
        22           O1  tau(  22) = (   0.0120025   0.1123878  17.2186474  )
        23           O1  tau(  23) = (   1.3043587   1.4918075   6.0039043  )
        24           O1  tau(  24) = (   5.2767064   1.4903225   6.0039473  )
        25           Ti1 tau(  25) = (   0.0000382   5.9609847   6.0000000  )
        26           Ti1 tau(  26) = (   3.2902200   4.4714249   6.0002472  )
        27           O1  tau(  27) = (   0.0002396   2.9813036   7.9858123  )
        28           O1  tau(  28) = (   3.2902150   2.9813002   7.3038282  )
        29           O1  tau(  29) = (   4.5938453   4.4726049   9.2879030  )
        30           O1  tau(  30) = (   1.9864658   4.4711199   9.2879459  )
        31           Ti1 tau(  31) = (   3.2891106   5.8743827   9.1763621  )
        32           Ti1 tau(  32) = (   0.0006254   4.4649316   9.2693709  )
        33           O1  tau(  33) = (   3.3015003   2.9799855  11.3692792  )
        34           O1  tau(  34) = (   0.0092240   2.9805883  10.6323155  )
        35           O1  tau(  35) = (   1.3024855   4.4701597  12.6493271  )
        36           O1  tau(  36) = (   5.3029933   4.4710749  12.6473438  )
        37           Ti1 tau(  37) = (   0.0213219   5.9581237  12.5009821  )
        38           Ti1 tau(  38) = (   3.3165689   4.4756321  12.5216884  )
        39           O1  tau(  39) = (   0.0062450   3.0260372  14.9395602  )
        40           O1  tau(  40) = (   3.3068494   3.0035608  13.9656762  )
        41           O1  tau(  41) = (   4.5532872   4.4785133  16.2063021  )
        42           O1  tau(  42) = (   2.0453360   4.4758230  16.1992630  )
        43           Ti1 tau(  43) = (   3.3068391   0.0190840  15.7907057  )
        44           Ti1 tau(  44) = (   0.0173475   4.5946531  16.0781683  )
        45           O1  tau(  45) = (   3.2900926   2.9813045   4.7018136  )
        46           O1  tau(  46) = (   1.3039711   4.4726057   6.0039043  )
        47           O1  tau(  47) = (   5.2763189   4.4711207   6.0039473  )
        48           N1  tau(  48) = (   0.0050225   3.2246995  17.9653954  )
        49           C1  tau(  49) = (   6.5749124   2.4458835  18.8135322  )
        50           H1  tau(  50) = (   6.5624368   1.6931146  19.5545906  )

     number of k points=    10  Fermi-Dirac smearing, width (Ry)=  0.0073
                       cart. coord. in units 2pi/alat
        k(    1) = (   0.0000000   0.0000000   0.0000000), wk =   0.1250000
        k(    2) = (   0.0000000   0.0419351   0.0000000), wk =   0.2500000
        k(    3) = (   0.0000000  -0.0838702   0.0000000), wk =   0.1250000
        k(    4) = (   0.0379955   0.0000049   0.0000000), wk =   0.2500000
        k(    5) = (   0.0379955   0.0419400   0.0000000), wk =   0.2500000
        k(    6) = (   0.0379955  -0.0838652   0.0000000), wk =   0.2500000
        k(    7) = (   0.0379955  -0.0419301   0.0000000), wk =   0.2500000
        k(    8) = (  -0.0759910  -0.0000099   0.0000000), wk =   0.1250000
        k(    9) = (  -0.0759910   0.0419252   0.0000000), wk =   0.2500000
        k(   10) = (  -0.0759910  -0.0838800   0.0000000), wk =   0.1250000

     Initial potential from superposition of free atoms

     starting charge  371.99919, renormalised to  388.00000

     negative rho (up, down):  1.811E-02 0.000E+00

     %%%%%%%%%%%%%%%%%%%%%%%%%%%%%%%%%%%%%%%%%%%%%%%%%%%%%%%%%%%%%%%%%%%%%%%%
     %                                                                      %
     % You are using vdW-DF, which was implemented by the Thonhauser group. %
     % Please cite the following two papers that made this development      %
     % possible and the two reviews that describe the various versions:     %
     %                                                                      %
     %   T. Thonhauser et al., PRL 115, 136402 (2015).                      %
     %   T. Thonhauser et al., PRB 76, 125112 (2007).                       %
     %   K. Berland et al., Rep. Prog. Phys. 78, 066501 (2015).             %
     %   D.C. Langreth et al., J. Phys.: Condens. Matter 21, 084203 (2009). %
     %                                                                      %
     %                                                                      %
     % If you are calculating the stress with vdW-DF, please also cite:     %
     %                                                                      %
     %   R. Sabatini et al., J. Phys.: Condens. Matter 24, 424209 (2012).   %
     %                                                                      %
     %%%%%%%%%%%%%%%%%%%%%%%%%%%%%%%%%%%%%%%%%%%%%%%%%%%%%%%%%%%%%%%%%%%%%%%%

     Adding external electric field

     Computed dipole along edir(3) :
        Dipole               -4.8577 Ry au,        -12.3470 Debye
        Dipole field         -0.0092 Ry au,

        Potential amp.        0.8498 Ry
        Total length         46.3494 bohr

     Starting wfcs are  293 atomic wfcs
  @ DRIVER MODE: Message from server: STATUS
  @ DRIVER MODE: Message from server: POSDATA
  @ DRIVER MODE: Reading and sharing cell
  @ DRIVER MODE: Reading and sharing positions
  @ DRIVER MODE: Received positions

     Self-consistent Calculation

     iteration #  1     ecut=    29.40 Ry     beta= 0.05
     Davidson diagonalization with overlap
     c_bands:  5 eigenvalues not converged
     c_bands:  5 eigenvalues not converged
     c_bands:  5 eigenvalues not converged
     c_bands:  5 eigenvalues not converged
     c_bands:  3 eigenvalues not converged
     c_bands:  5 eigenvalues not converged
     c_bands:  4 eigenvalues not converged
     c_bands:  3 eigenvalues not converged
     c_bands:  1 eigenvalues not converged
     ethr =  1.00E-05,  avg # of iterations = 20.0

[...]

     total energy              =   -2846.20526100 Ry
     estimated scf accuracy    <     789.29060783 Ry

     iteration #  2     ecut=    29.40 Ry     beta= 0.05
     Davidson diagonalization with overlap
     ethr =  1.00E-02,  avg # of iterations = 15.3

[...]

     iteration # 58     ecut=    29.40 Ry     beta= 0.05
     Davidson diagonalization with overlap
     c_bands:  1 eigenvalues not converged
     ethr =  1.36E-09,  avg # of iterations = 12.4

[...]

     total energy              =   -2916.61473847 Ry
     estimated scf accuracy    <       0.00000027 Ry

     iteration # 66     ecut=    29.40 Ry     beta= 0.05
     Davidson diagonalization with overlap
     ethr =  4.37E-11,  avg # of iterations = 10.8

     negative rho (up, down):  1.833E-02 0.000E+00

     Adding external electric field

     Computed dipole along edir(3) :
        Dipole                1.5097 Ry au,          3.8373 Debye
        Dipole field          0.0028 Ry au,

        Potential amp.       -0.2641 Ry
        Total length         46.3494 bohr

     End of self-consistent calculation

          k = 0.0000 0.0000 0.0000 ( 18029 PWs)   bands (ev):

   -55.4492 -55.4131 -55.4056 -55.3715 -55.3281 -55.3243 -55.2884 -55.2679
   -55.2586 -55.2461 -55.2353 -55.2334 -55.2017 -55.1413 -54.4318 -54.3977
   -32.0156 -31.8976 -31.8504 -31.8130 -31.7586 -31.7571 -31.7521 -31.7398
   -31.6948 -31.6809 -31.6581 -31.6503 -31.6446 -31.6195 -31.6029 -31.5904
   -31.5860 -31.5718 -31.5660 -31.5580 -31.5380 -31.5289 -31.5190 -31.5037
   -31.4983 -31.4775 -31.4702 -31.4629 -31.4552 -31.4517 -31.4477 -31.4333
   -31.4275 -31.4191 -31.4161 -31.4157 -31.3817 -31.3667 -31.3636 -31.3482
   -31.3458 -31.2623 -30.8410 -30.7472 -30.7251 -30.6575 -30.5707 -30.4598
   -17.4158 -16.2660 -15.9974 -15.8449 -15.7400 -15.6441 -15.5095 -15.4910
   -15.3659 -15.2753 -15.1536 -15.1001 -15.0811 -15.0627 -15.0544 -15.0381
   -14.9906 -14.9860 -14.9552 -14.9435 -14.9208 -14.8833 -14.8779 -14.8445
   -14.8254 -14.7548 -14.6804 -14.6041 -14.5379 -14.2340 -12.9343 -12.8169
    -9.1038  -4.6891  -3.6085  -3.5053  -3.4615  -3.3614  -3.3438  -3.2697
    -3.2506  -3.1927  -3.0292  -2.8504  -2.7881  -2.7142  -2.6499  -2.6378
    -2.6088  -2.4496  -2.4116  -2.3623  -2.3079  -2.2833  -2.2559  -2.2328
    -2.1982  -2.1802  -2.1759  -2.1686  -2.0124  -1.9418  -1.9083  -1.8577
    -1.8408  -1.7892  -1.7670  -1.7346  -1.7310  -1.7249  -1.6735  -1.6580
    -1.6222  -1.5247  -1.4686  -1.3337  -1.2918  -1.1501  -1.0862  -1.0233
    -1.0111  -0.9322  -0.8944  -0.8865  -0.8301  -0.8004  -0.7854  -0.6620
    -0.5609  -0.5141  -0.4577  -0.4275  -0.3807  -0.3444  -0.2548  -0.2289
    -0.2125  -0.2021  -0.0589  -0.0320   0.0501   0.0755   0.1080   0.1090
     0.2160   0.2300   0.3045   0.3519   0.3827   0.4432   0.4936   0.4966
     0.5184   0.5424   0.5510   0.6443   0.6640   0.6757   0.7476   0.8925
     1.1242   1.1653   1.1772   1.4976   1.5098   1.5909   1.7752   2.1668
     2.2149   3.6488   3.7208   3.7906   3.7995   3.8376   3.8857   4.1184
     4.1299   4.1499   4.1563   4.1907

[...]

          k = 0.0380-0.0419 0.0000 ( 17876 PWs)   bands (ev):

[...]

          k =-0.0760-0.0000 0.0000 ( 17886 PWs)   bands (ev):

[...]

          k =-0.0760-0.0839 0.0000 ( 17948 PWs)   bands (ev):

   -55.4327 -55.4294 -55.3886 -55.3884 -55.3242 -55.3116 -55.3010 -55.2558
   -55.2518 -55.2498 -55.2490 -55.2188 -55.2183 -55.1439 -54.4148 -54.4146
   -31.8206 -31.8180 -31.7742 -31.7244 -31.7128 -31.7126 -31.7006 -31.6802
   -31.6800 -31.6571 -31.6478 -31.6448 -31.6352 -31.5927 -31.5849 -31.5814
   -31.5794 -31.5754 -31.5741 -31.5678 -31.5372 -31.5341 -31.5261 -31.5250
   -31.5164 -31.5084 -31.5082 -31.5071 -31.4939 -31.4846 -31.4829 -31.4819
   -31.4652 -31.4622 -31.4489 -31.4475 -31.4463 -31.4386 -31.3993 -31.3986
   -31.3531 -31.3516 -30.7379 -30.7377 -30.6536 -30.6535 -30.6141 -30.6140
   -17.4103 -15.7805 -15.6703 -15.6377 -15.4561 -15.4456 -15.4093 -15.3975
   -15.2542 -15.2103 -15.2043 -15.1932 -15.1464 -15.1422 -15.1418 -15.1162
   -15.0456 -15.0394 -15.0347 -15.0185 -14.9622 -14.9509 -14.9479 -14.9309
   -14.8996 -14.8956 -14.8015 -14.7983 -14.6903 -14.5900 -12.9185 -12.9184
    -9.1014  -4.6768  -3.4152  -3.2648  -2.9403  -2.9050  -2.8995  -2.6665
    -2.6390  -2.6071  -2.5629  -2.4914  -2.4435  -2.4202  -2.4189  -2.3504
    -2.3022  -2.2950  -2.2865  -2.2690  -2.2619  -2.2411  -2.2070  -2.1740
    -2.1641  -2.1358  -2.1201  -2.1009  -2.0823  -2.0469  -2.0333  -2.0085
    -2.0050  -1.9025  -1.8770  -1.7948  -1.7545  -1.7225  -1.6514  -1.6458
    -1.5432  -1.5394  -1.4865  -1.4750  -1.4344  -1.3288  -1.2436  -1.1929
    -1.1879  -1.1786  -1.0745  -1.0101  -0.9821  -0.9474  -0.9224  -0.8408
    -0.7839  -0.7635  -0.7220  -0.6387  -0.6337  -0.5704  -0.4683  -0.4266
    -0.4105  -0.4049  -0.3837  -0.3315  -0.3202  -0.2583  -0.2149  -0.1799
    -0.1691  -0.1240   0.0870   0.0896   0.1371   0.2492   0.2902   0.4381
     0.5156   0.5338   0.6093   0.6450   0.6691   0.7360   0.8440   0.8618
     0.8753   0.9459   0.9853   1.0093   1.0189   1.9480   1.9485   2.0348
     2.0350   3.7705   3.8840   3.9171   3.9660   4.0097   4.0647   4.1688
     4.1898   4.2322   4.2336   4.3071

     the Fermi energy is     3.7084 ev

!    total energy              =   -2916.61475848 Ry
     estimated scf accuracy    <       0.00000006 Ry
     smearing contrib. (-TS)   =      -0.03748621 Ry
     internal energy E=F+TS    =   -2916.57727227 Ry

     The total energy is F=E-TS. E is the sum of the following terms:
     one-electron contribution =  -24445.09802316 Ry
     hartree contribution      =   12309.99176197 Ry
     xc contribution           =    -478.37692853 Ry
     ewald contribution        =    9696.90161625 Ry
     electric field correction =       0.00430120 Ry

     convergence has been achieved in  66 iterations

     Forces acting on atoms (cartesian axes, Ry/au):

     atom    1 type  1   force =     0.00000409   -0.00029271    0.09342381
     atom    2 type  1   force =    -0.00018061   -0.00046332   -0.17790651
     atom    3 type  2   force =     0.00002226   -0.00033056   -0.02064511
     atom    4 type  2   force =    -0.00003563   -0.00186430    0.05838661
     atom    5 type  2   force =    -0.01034993   -0.00073739    0.00709835
     atom    6 type  2   force =     0.01201276   -0.00013866    0.00687172
     atom    7 type  1   force =    -0.00010916    0.00192637   -0.01365197
     atom    8 type  1   force =    -0.00009491    0.00176138   -0.00205808
     atom    9 type  2   force =    -0.00004755   -0.00044586   -0.00037504
     atom   10 type  2   force =    -0.00120384    0.00259770   -0.00300568
     atom   11 type  2   force =    -0.00066415   -0.00013048    0.00011533
     atom   12 type  2   force =     0.00050592   -0.00008942   -0.00007780
     atom   13 type  1   force =    -0.00007169   -0.00002450    0.00009852
     atom   14 type  1   force =    -0.00001873   -0.00004499    0.00026687
     atom   15 type  2   force =    -0.00010865    0.00016765   -0.00000850
     atom   16 type  2   force =    -0.00002982   -0.00010764   -0.00020766
     atom   17 type  2   force =     0.00062491    0.00003659   -0.00013301
     atom   18 type  2   force =    -0.00017346    0.00001813    0.00024333
     atom   19 type  1   force =    -0.00027029    0.00035627    0.00028107
     atom   20 type  1   force =    -0.00013817    0.00032984    0.00032952
     atom   21 type  2   force =    -0.00002284   -0.00012133    0.10392558
     atom   22 type  2   force =    -0.00007419    0.00028980    0.00030848
     atom   23 type  2   force =    -0.07051077   -0.00022331   -0.02694607
     atom   24 type  2   force =     0.07029699    0.00021520   -0.02699459
     atom   25 type  1   force =     0.00001090   -0.00033284    0.09300733
     atom   26 type  1   force =    -0.00019119   -0.00053519   -0.17811977
     atom   27 type  2   force =     0.00005969   -0.00024855   -0.01963853
     atom   28 type  2   force =     0.00001302   -0.00164034    0.05785152
     atom   29 type  2   force =    -0.01086673   -0.00057528    0.00759607
     atom   30 type  2   force =     0.01239317   -0.00022871    0.00733919
     atom   31 type  1   force =    -0.00004105    0.00594141   -0.01473774
     atom   32 type  1   force =    -0.00011741   -0.00213548   -0.00201233
     atom   33 type  2   force =     0.00001990   -0.00006205   -0.00034512
     atom   34 type  2   force =    -0.00064722   -0.00101230   -0.00064433
     atom   35 type  2   force =    -0.00011791   -0.00006798    0.00011654
     atom   36 type  2   force =    -0.00007382   -0.00000865    0.00019143
     atom   37 type  1   force =     0.00022292   -0.00078897    0.00010755
     atom   38 type  1   force =    -0.00005508   -0.00009434    0.00022871
     atom   39 type  2   force =     0.00011536   -0.00046841    0.00005044
     atom   40 type  2   force =    -0.00021855   -0.00011824   -0.00047057
     atom   41 type  2   force =     0.00035383   -0.00012022   -0.00046780
     atom   42 type  2   force =     0.00006922    0.00010431   -0.00005686
     atom   43 type  1   force =    -0.00015950   -0.00009260    0.00020784
     atom   44 type  1   force =     0.00008803    0.00016700    0.00043442
     atom   45 type  2   force =    -0.00002425   -0.00014721    0.10387547
     atom   46 type  2   force =    -0.07049569   -0.00016627   -0.02693456
     atom   47 type  2   force =     0.07028944    0.00026207   -0.02699063
     atom   48 type  3   force =     0.00026720    0.00046746    0.00071845
     atom   49 type  4   force =    -0.00018429    0.00767276   -0.00840153
     atom   50 type  5   force =    -0.00007255   -0.00845586    0.00775562

     Total force =     0.366239     Total SCF correction =     0.000544
  @ DRIVER MODE: Message from server: STATUS
  @ DRIVER MODE: Message from server: GETFORCE
  @ DRIVER MODE: Returning v,forces,stress,ensemble

     Writing output data file ./calc.save/
  @ DRIVER MODE: Message from server: EXIT
  @ DRIVE MODE: Exiting

     General routines

     Parallel routines

   This run was terminated on:  21:19:31  23Aug2021

   JOB DONE.