     Program PWSCF v.6.7GPU starts on 18Oct2021 at 11:58: 4

     R & G space division:  proc/nbgrp/npool/nimage =       8
     Reading input from /storage/home/hcoda1/3/ntian30/research/carbon/CxH_vib/Thiel_calc/ads_slab/NH3NH3_perslab/out_0001/pw.inp
Warning: card &CELL ignored
Warning: card   CELL_DYNAMICS='IPI', ignored
Warning: card / ignored

     Current dimensions of program PWSCF are:
     Max number of different atomic species (ntypx) = 10
     Max number of k-points (npk) =  40000
     Max angular momentum in pseudopotentials (lmaxx) =  3
     Presently no symmetry can be used with electric field

     Message from routine cell_base_init:
     DEPRECATED: use true lattice parameter, not A to a.u. conversion factor

     IMPORTANT: XC functional enforced from input :
     Exchange-correlation= BEEF-VDW
                           (   1   4  43  14   2   0   0)
     Any further DFT definition will be discarded
     Please, verify this is what you really want

  @ DRIVER MODE: Connecting to
 qe_1139763_3255140.sched-torque.pace.gatech.edulbb01pg8_scratch
  using UNIX socket
  @ DRIVER MODE: Message from server: STATUS
  @ DRIVER MODE: Message from server: INIT
  @ DRIVER MODE: Receiving replica           0          -1
  @ DRIVER MODE: Receiving encoded integer          25
  @ DRIVER MODE:  SCF:  T  FORCE:  T  STRESS:  F  VC:  F  ENSEMBLE:  F
  @ DRIVER MODE:  SCF:  T  FORCE:  T  STRESS:  F  VC:  F  ENSEMBLE:  F

     Using Slab Decomposition

     bravais-lattice index     =            0
     lattice parameter (alat)  =       1.8897  a.u.
     unit-cell volume          =    9988.4706 (a.u.)^3
     number of atoms/cell      =           61
     number of atomic types    =            4
     number of electrons       =       442.00
     number of Kohn-Sham states=          231
     kinetic-energy cutoff     =      29.3995  Ry
     charge density cutoff     =     293.9946  Ry
     scf convergence threshold =      7.3E-08
     mixing beta               =       0.0500
     number of iterations used =            8  plain     mixing
     Exchange-correlation= BEEF-VDW
                           (   1   4  43  14   2   0   0)

     celldm(1)=   1.889726  celldm(2)=   0.000000  celldm(3)=   0.000000
     celldm(4)=   0.000000  celldm(5)=   0.000000  celldm(6)=   0.000000

     crystal axes: (cart. coord. in units of alat)
               a(1) = (   6.579727   0.000000   0.000000 )
               a(2) = (  -0.001163   8.942395   0.000000 )
               a(3) = (   0.000000   0.000000  25.155947 )

     reciprocal axes: (cart. coord. in units 2 pi/alat)
               b(1) = (  0.151982  0.000020  0.000000 )
               b(2) = (  0.000000  0.111827  0.000000 )
               b(3) = (  0.000000  0.000000  0.039752 )

     PseudoPot. # 1 for O  read from file:
     /storage/coda1/p-amedford6/0/shared/rich_project_chbe-medford/medford-share/data/pseudos_module/espresso/nninc/pbe/van/O.UPF
     MD5 check sum: 78c19812648e8988a0fe644b0f25305e
     Pseudo is Ultrasoft, Zval =  6.0
     Generated by new atomic code, or converted to UPF format
     Using radial grid of  737 points,  4 beta functions with:
                l(1) =   0
                l(2) =   0
                l(3) =   1
                l(4) =   1
     Q(r) pseudized with  8 coefficients,  rinner =    0.800   0.800   0.800

     PseudoPot. # 2 for Ti read from file:
     /storage/coda1/p-amedford6/0/shared/rich_project_chbe-medford/medford-share/data/pseudos_module/espresso/nninc/pbe/van/Ti.UPF
     MD5 check sum: 8e4df49b7f0d34bbd5052bf3f5ea0213
     Pseudo is Ultrasoft, Zval = 12.0
     Generated by new atomic code, or converted to UPF format
     Using radial grid of  851 points,  6 beta functions with:
                l(1) =   0
                l(2) =   0
                l(3) =   1
                l(4) =   1
                l(5) =   2
                l(6) =   2
     Q(r) pseudized with  8 coefficients,  rinner =    1.000   1.000   1.000
                                                       1.000   1.000

     PseudoPot. # 3 for N  read from file:
     /storage/coda1/p-amedford6/0/shared/rich_project_chbe-medford/medford-share/data/pseudos_module/espresso/nninc/pbe/van/N.UPF
     MD5 check sum: 90d10febe142ad51ac9d5be1deb811c4
     Pseudo is Ultrasoft, Zval =  5.0
     Generated by new atomic code, or converted to UPF format
     Using radial grid of  729 points,  4 beta functions with:
                l(1) =   0
                l(2) =   0
                l(3) =   1
                l(4) =   1
     Q(r) pseudized with  8 coefficients,  rinner =    0.800   0.800   0.800

     PseudoPot. # 4 for H  read from file:
     /storage/coda1/p-amedford6/0/shared/rich_project_chbe-medford/medford-share/data/pseudos_module/espresso/nninc/pbe/van/H.UPF
     MD5 check sum: b5ee9d7bfd3a09ee7748110bda690ff7
     Pseudo is Ultrasoft, Zval =  1.0
     Generated by new atomic code, or converted to UPF format
     Using radial grid of  615 points,  1 beta functions with:
                l(1) =   0
     Q(r) pseudized with  8 coefficients,  rinner =    0.800

     atomic species   valence    mass     pseudopotential
        O1             6.00    15.99900     O ( 1.00)
        Ti1           12.00    47.86700     Ti( 1.00)
        N1             5.00    14.00700     N ( 1.00)
        H1             1.00     1.00800     H ( 1.00)

     No symmetry found

   Cartesian axes

     site n.     atom                  positions (alat units)
         1           O1  tau(   1) = (   0.0007354   0.0005023  10.5931620  )
         2           O1  tau(   2) = (   3.2905679   0.0262843  13.8966672  )
         3           O1  tau(   3) = (   0.0007290   0.0579300  17.2579193  )
         4           O1  tau(   4) = (   0.0006271   0.0005054   7.9858123  )
         5           O1  tau(   5) = (   3.2893100   8.9214726  11.1892856  )
         6           O1  tau(   6) = (   0.0005199   0.0455907  14.6396817  )
         7           O1  tau(   7) = (   1.9868534   1.4903216   9.2879459  )
         8           O1  tau(   8) = (   5.2380180   1.6024468  12.5713634  )
         9           O1  tau(   9) = (   2.0277759   1.4975965  16.1012153  )
        10           Ti1 tau(  10) = (   0.0007404   1.4906270   9.2895810  )
        11           Ti1 tau(  11) = (   3.2903786   1.3551844  12.4711573  )
        12           Ti1 tau(  12) = (   0.0003174   1.4440192  15.7330511  )
        13           O1  tau(  13) = (   4.5942328   1.4918067   9.2879030  )
        14           O1  tau(  14) = (   1.3426987   1.6023923  12.5713351  )
        15           O1  tau(  15) = (   4.5529958   1.4977110  16.1013444  )
        16           Ti1 tau(  16) = (   3.2902859   2.9801868   9.2893338  )
        17           Ti1 tau(  17) = (   0.0005333   2.8255407  12.4640987  )
        18           Ti1 tau(  18) = (   3.2895849   3.0341113  15.6952405  )
        19           O1  tau(  19) = (   0.0003479   2.9813005  10.5931620  )
        20           O1  tau(  20) = (   3.2900438   2.9627632  13.8881152  )
        21           O1  tau(  21) = (   0.0002396   2.9813036   7.9858123  )
        22           O1  tau(  22) = (   3.2902621   2.9759438  11.1922459  )
        23           O1  tau(  23) = (   0.0002943   2.9805036  14.7119039  )
        24           O1  tau(  24) = (   1.9864658   4.4711199   9.2879459  )
        25           O1  tau(  25) = (   5.2407125   4.5787950  12.5855407  )
        26           O1  tau(  26) = (   1.9842138   4.3634165  16.0604883  )
        27           Ti1 tau(  27) = (   0.0003529   4.4714252   9.2895810  )
        28           Ti1 tau(  28) = (   3.2904166   4.3402611  12.5252975  )
        29           Ti1 tau(  29) = (  -0.0003584   4.7219071  15.7914592  )
        30           O1  tau(  30) = (   4.5938453   4.4726049   9.2879030  )
        31           O1  tau(  31) = (   1.3394863   4.5787101  12.5854501  )
        32           O1  tau(  32) = (   4.5953883   4.3633133  16.0606172  )
        33           Ti1 tau(  33) = (   3.2898983   5.9609850   9.2893338  )
        34           Ti1 tau(  34) = (   0.0004309   5.8055675  12.4642027  )
        35           Ti1 tau(  35) = (   3.2895961   6.0676247  15.8182862  )
        36           O1  tau(  36) = (  -0.0000397   5.9620987  10.5931620  )
        37           O1  tau(  37) = (   3.2897974   5.9491097  13.9522666  )
        38           O1  tau(  38) = (  -0.0001005   5.9419674  17.2168411  )
        39           O1  tau(  39) = (  -0.0001480   5.9621018   7.9858123  )
        40           O1  tau(  40) = (   3.2898294   5.9516608  11.2068290  )
        41           O1  tau(  41) = (  -0.0002620   6.0093330  14.6024556  )
        42           O1  tau(  42) = (   1.9860782   7.4519181   9.2879459  )
        43           O1  tau(  43) = (   5.2335766   7.5615516  12.5803788  )
        44           O1  tau(  44) = (   2.0229086   7.4656171  16.0362607  )
        45           Ti1 tau(  45) = (  -0.0000347   7.4522234   9.2895810  )
        46           Ti1 tau(  46) = (   3.2895523   7.2794780  12.5477951  )
        47           Ti1 tau(  47) = (  -0.0001499   7.5569733  16.2601047  )
        48           O1  tau(  48) = (   4.5934577   7.4534031   9.2879030  )
        49           O1  tau(  49) = (   1.3453152   7.5613653  12.5804751  )
        50           O1  tau(  50) = (   4.5562564   7.4656138  16.0364310  )
        51           Ti1 tau(  51) = (   3.2895107   8.9417832   9.2893338  )
        52           Ti1 tau(  52) = (  -0.0004710   8.7769229  12.4586551  )
        53           Ti1 tau(  53) = (   3.2909234   0.0582169  15.6986445  )
        54           N1  tau(  54) = (   3.2792347   5.9685454  18.1810142  )
        55           H1  tau(  55) = (   3.2893406   5.0219839  18.5418895  )
        56           H1  tau(  56) = (   2.4590131   6.4368771  18.5304692  )
        57           H1  tau(  57) = (   4.1190552   6.4372901  18.5310312  )
        58           N1  tau(  58) = (  -0.0003436   2.9015831  17.9177722  )
        59           H1  tau(  59) = (   6.5794260   1.9611702  18.3102355  )
        60           H1  tau(  60) = (   5.7593157   3.3919262  18.2600543  )
        61           H1  tau(  61) = (   0.8192290   3.3923488  18.2608005  )

     number of k points=    10  Fermi-Dirac smearing, width (Ry)=  0.0073
                       cart. coord. in units 2pi/alat
        k(    1) = (   0.0000000   0.0000000   0.0000000), wk =   0.1250000
        k(    2) = (   0.0000000   0.0279567   0.0000000), wk =   0.2500000
        k(    3) = (   0.0000000  -0.0559134   0.0000000), wk =   0.1250000
        k(    4) = (   0.0379955   0.0000049   0.0000000), wk =   0.2500000
        k(    5) = (   0.0379955   0.0279617   0.0000000), wk =   0.2500000
        k(    6) = (   0.0379955  -0.0559085   0.0000000), wk =   0.2500000
        k(    7) = (   0.0379955  -0.0279518   0.0000000), wk =   0.2500000
        k(    8) = (  -0.0759910  -0.0000099   0.0000000), wk =   0.1250000
        k(    9) = (  -0.0759910   0.0279468   0.0000000), wk =   0.2500000
        k(   10) = (  -0.0759910  -0.0559233   0.0000000), wk =   0.1250000

     Initial potential from superposition of free atoms

     starting charge  423.99908, renormalised to  442.00000

     negative rho (up, down):  3.646E-02 0.000E+00

     %%%%%%%%%%%%%%%%%%%%%%%%%%%%%%%%%%%%%%%%%%%%%%%%%%%%%%%%%%%%%%%%%%%%%%%%
     %                                                                      %
     % You are using vdW-DF, which was implemented by the Thonhauser group. %
     % Please cite the following two papers that made this development      %
     % possible and the two reviews that describe the various versions:     %
     %                                                                      %
     %   T. Thonhauser et al., PRL 115, 136402 (2015).                      %
     %   T. Thonhauser et al., PRB 76, 125112 (2007).                       %
     %   K. Berland et al., Rep. Prog. Phys. 78, 066501 (2015).             %
     %   D.C. Langreth et al., J. Phys.: Condens. Matter 21, 084203 (2009). %
     %                                                                      %
     %                                                                      %
     % If you are calculating the stress with vdW-DF, please also cite:     %
     %                                                                      %
     %   R. Sabatini et al., J. Phys.: Condens. Matter 24, 424209 (2012).   %
     %                                                                      %
     %%%%%%%%%%%%%%%%%%%%%%%%%%%%%%%%%%%%%%%%%%%%%%%%%%%%%%%%%%%%%%%%%%%%%%%%

     Adding external electric field

     Computed dipole along edir(3) :
        Dipole               -6.4271 Ry au,        -16.3360 Debye
        Dipole field         -0.0081 Ry au,

        Potential amp.        0.7495 Ry
        Total length         46.3494 bohr

     Starting wfcs are  334 atomic wfcs
  @ DRIVER MODE: Message from server: STATUS
  @ DRIVER MODE: Message from server: POSDATA
  @ DRIVER MODE: Reading and sharing cell
  @ DRIVER MODE: Reading and sharing positions
  @ DRIVER MODE: Received positions

     Self-consistent Calculation

     iteration #  1     ecut=    29.40 Ry     beta= 0.05
     Davidson diagonalization with overlap
     c_bands:  1 eigenvalues not converged
     c_bands:  2 eigenvalues not converged
     c_bands:  2 eigenvalues not converged
     c_bands:  1 eigenvalues not converged
     c_bands:  3 eigenvalues not converged
     c_bands:  5 eigenvalues not converged
     c_bands:  3 eigenvalues not converged
     c_bands:  2 eigenvalues not converged
     c_bands:  3 eigenvalues not converged
     ethr =  1.00E-05,  avg # of iterations = 19.8

[...]

     total energy              =   -3273.09719088 Ry
     estimated scf accuracy    <     292.48990045 Ry

     iteration #  2     ecut=    29.40 Ry     beta= 0.05
     Davidson diagonalization with overlap
     ethr =  1.00E-02,  avg # of iterations = 16.1

[...]

     iteration # 61     ecut=    29.40 Ry     beta= 0.05
     Davidson diagonalization with overlap
     c_bands:  1 eigenvalues not converged
     ethr =  3.88E-11,  avg # of iterations = 12.5

[...]

     total energy              =   -3295.91260881 Ry
     estimated scf accuracy    <       0.00000012 Ry

     iteration # 63     ecut=    29.40 Ry     beta= 0.05
     Davidson diagonalization with overlap
     ethr =  2.64E-11,  avg # of iterations =  6.5

     negative rho (up, down):  3.470E-02 0.000E+00

     Adding external electric field

     Computed dipole along edir(3) :
        Dipole                1.8688 Ry au,          4.7501 Debye
        Dipole field          0.0024 Ry au,

        Potential amp.       -0.2179 Ry
        Total length         46.3494 bohr

     End of self-consistent calculation

          k = 0.0000 0.0000 0.0000 ( 26871 PWs)   bands (ev):

   -57.5941 -57.5539 -57.5303 -57.5243 -57.4942 -57.3948 -57.3872 -57.3665
   -57.3518 -57.3268 -57.3004 -57.2814 -57.2180 -57.1587 -57.0619 -56.5662
   -56.5411 -56.5400 -33.9750 -33.9354 -33.9309 -33.9048 -33.8868 -33.8682
   -33.8661 -33.8566 -33.8299 -33.8196 -33.8088 -33.7937 -33.7771 -33.7591
   -33.7490 -33.7353 -33.7210 -33.6882 -33.6804 -33.6772 -33.6673 -33.6525
   -33.6472 -33.6444 -33.6386 -33.6071 -33.5884 -33.5850 -33.5749 -33.5606
   -33.5577 -33.5517 -33.5379 -33.5363 -33.5330 -33.5190 -33.5148 -33.5010
   -33.4993 -33.4709 -33.4120 -33.3666 -33.3386 -33.3329 -33.2391 -32.8815
   -32.8792 -32.8777 -32.8649 -32.8638 -32.7920 -32.7280 -32.7270 -32.5919
   -18.3896 -18.0514 -17.8389 -17.7845 -17.7615 -17.6886 -17.6389 -17.6219
   -17.5547 -17.4897 -17.3653 -17.3271 -17.3219 -17.3085 -17.2988 -17.2367
   -17.2230 -17.2057 -17.2033 -17.1865 -17.1823 -17.1392 -17.0663 -17.0572
   -17.0163 -17.0022 -16.9816 -16.9789 -16.9311 -16.8783 -16.8684 -16.6743
   -16.6351 -16.4815 -15.0329 -14.9758 -14.9735  -7.8011  -7.6713  -7.5139
    -7.4508  -5.7134  -5.5308  -5.4659  -5.3714  -4.9990  -4.9414  -4.9270
    -4.9010  -4.8592  -4.8182  -4.8031  -4.7782  -4.7770  -4.7333  -4.6897
    -4.6644  -4.6449  -4.5452  -4.5082  -4.4700  -4.4398  -4.4335  -4.3821
    -4.3664  -4.3267  -4.3263  -4.2779  -4.2376  -4.2269  -4.2060  -4.1386
    -4.1200  -4.0161  -3.9279  -3.8702  -3.8631  -3.8223  -3.8091  -3.7633
    -3.7405  -3.7029  -3.6813  -3.6350  -3.6110  -3.5429  -3.4908  -3.3903
    -3.2944  -3.2676  -3.2414  -3.2192  -3.1743  -3.1213  -3.0016  -2.9610
    -2.9289  -2.9070  -2.8174  -2.8161  -2.7268  -2.7106  -2.6962  -2.6522
    -2.6008  -2.5862  -2.5522  -2.4356  -2.4147  -2.3222  -2.3130  -2.3110
    -2.2814  -2.2198  -2.2082  -2.1841  -2.1623  -2.1348  -2.1204  -2.0816
    -2.0783  -1.9796  -1.9581  -1.9018  -1.8792  -1.8790  -1.7805  -1.7630
    -1.7375  -1.7251  -1.6574  -1.5736  -1.4634  -1.4126  -1.3876  -1.3845
    -1.2852  -1.2568  -1.2138  -1.1333  -0.7976  -0.6010  -0.3140  -0.2698
    -0.2694  -0.0068  -0.0052   0.1234   1.4462   1.6615   1.6828   1.8748
     1.8971   1.9410   2.0275   2.0355   2.0975   2.1971   2.2140

[...]

          k = 0.0380-0.0280 0.0000 ( 26873 PWs)   bands (ev):

[...]

          k =-0.0760-0.0000 0.0000 ( 26902 PWs)   bands (ev):

[...]

          k =-0.0760-0.0559 0.0000 ( 26868 PWs)   bands (ev):

   -57.5940 -57.5477 -57.5423 -57.5185 -57.4944 -57.3925 -57.3871 -57.3713
   -57.3489 -57.3247 -57.3049 -57.2792 -57.2179 -57.1590 -57.0617 -56.5581
   -56.5571 -56.5321 -34.0264 -34.0144 -33.9179 -33.8927 -33.8829 -33.8782
   -33.8765 -33.8550 -33.8264 -33.8133 -33.7782 -33.7439 -33.7385 -33.7355
   -33.7243 -33.6966 -33.6931 -33.6883 -33.6829 -33.6799 -33.6423 -33.6363
   -33.6334 -33.6263 -33.6079 -33.6076 -33.6050 -33.6029 -33.5990 -33.5864
   -33.5789 -33.5710 -33.5695 -33.5604 -33.5396 -33.5277 -33.5232 -33.5155
   -33.4995 -33.4251 -33.4184 -33.3721 -33.3391 -33.3346 -33.2721 -32.9701
   -32.8806 -32.8796 -32.8558 -32.7711 -32.7701 -32.7059 -32.6894 -32.6881
   -18.0793 -18.0160 -17.7604 -17.7058 -17.6895 -17.6534 -17.6384 -17.5611
   -17.5410 -17.5258 -17.5043 -17.4405 -17.3860 -17.3370 -17.3350 -17.3284
   -17.2583 -17.2532 -17.2457 -17.2411 -17.1950 -17.1807 -17.1583 -17.1146
   -17.0369 -16.9674 -16.9544 -16.9477 -16.9088 -16.8939 -16.8427 -16.7081
   -16.6996 -16.4087 -15.0314 -15.0289 -14.9123  -7.8001  -7.6661  -7.5228
    -7.4499  -5.3361  -5.3061  -5.2764  -5.2120  -5.0213  -4.8615  -4.8308
    -4.8243  -4.7866  -4.7372  -4.7100  -4.7033  -4.6944  -4.6770  -4.6623
    -4.6140  -4.6101  -4.5844  -4.5117  -4.4707  -4.4659  -4.4470  -4.4328
    -4.4269  -4.3587  -4.2840  -4.2169  -4.1708  -4.1560  -4.1397  -4.0919
    -4.0553  -4.0255  -3.9825  -3.9720  -3.9037  -3.7950  -3.7120  -3.6721
    -3.6716  -3.6310  -3.5820  -3.5809  -3.4800  -3.4181  -3.3430  -3.2115
    -3.2054  -3.1929  -3.1682  -3.1540  -3.1147  -3.1043  -3.0798  -3.0287
    -3.0187  -2.9971  -2.9363  -2.8701  -2.7849  -2.7568  -2.7234  -2.7174
    -2.6923  -2.6816  -2.6540  -2.6509  -2.6169  -2.6079  -2.5540  -2.5267
    -2.4756  -2.4482  -2.4047  -2.3193  -2.3034  -2.2812  -2.1897  -2.1272
    -2.1103  -2.1054  -2.0762  -2.0290  -1.9321  -1.8382  -1.8026  -1.7582
    -1.6464  -1.6459  -1.6423  -1.6265  -1.5528  -1.5384  -1.3348  -1.3227
    -1.2633  -1.1881  -1.1486  -1.1129  -1.1105  -0.8931  -0.4827  -0.1993
    -0.1862  -0.1625  -0.0098  -0.0047   1.5924   1.6743   1.7092   1.7588
     1.7945   1.7978   1.8038   1.8675   1.9312   1.9411   2.1817

     the Fermi energy is     1.5305 ev

!    total energy              =   -3295.91263806 Ry
     estimated scf accuracy    <       0.00000004 Ry
     smearing contrib. (-TS)   =      -0.03397144 Ry
     internal energy E=F+TS    =   -3295.87866661 Ry

     The total energy is F=E-TS. E is the sum of the following terms:
     one-electron contribution =  -34427.48776745 Ry
     hartree contribution      =   17282.25992265 Ry
     xc contribution           =    -543.75724099 Ry
     ewald contribution        =   14393.10202530 Ry
     electric field correction =       0.00439387 Ry

     convergence has been achieved in  63 iterations

     Forces acting on atoms (cartesian axes, Ry/au):

     atom    1 type  1   force =     0.00001477    0.00450746    0.05616504
     atom    2 type  1   force =     0.00000609   -0.00094860   -0.00072412
     atom    3 type  1   force =    -0.00000220    0.00148876   -0.00022462
     atom    4 type  1   force =     0.00005787    0.00031269    0.10697879
     atom    5 type  1   force =     0.00000279    0.00080429    0.00980480
     atom    6 type  1   force =     0.00000151   -0.00264769    0.00104853
     atom    7 type  1   force =     0.06729211   -0.00022955   -0.02911340
     atom    8 type  1   force =     0.00475589   -0.02827511    0.00257775
     atom    9 type  1   force =     0.00734693   -0.00159403   -0.00303337
     atom   10 type  2   force =    -0.00004579   -0.00147803   -0.18423607
     atom   11 type  2   force =     0.00004228    0.02164694   -0.00780175
     atom   12 type  2   force =     0.00004722   -0.00244173    0.01226913
     atom   13 type  1   force =    -0.06739412   -0.00069182   -0.02907779
     atom   14 type  1   force =    -0.00478078   -0.02827546    0.00258079
     atom   15 type  1   force =    -0.00735144   -0.00158938   -0.00303773
     atom   16 type  2   force =     0.00009963    0.00013127    0.06632192
     atom   17 type  2   force =    -0.00001985    0.03586500    0.00370843
     atom   18 type  2   force =    -0.00011730   -0.01056151   -0.00434572
     atom   19 type  1   force =     0.00001996    0.00443749    0.05988739
     atom   20 type  1   force =     0.00001037    0.00082474   -0.00594446
     atom   21 type  1   force =     0.00005788    0.00018564    0.10721865
     atom   22 type  1   force =     0.00000204   -0.00066595    0.00884800
     atom   23 type  1   force =    -0.00002887    0.00498144    0.00312954
     atom   24 type  1   force =     0.06804269    0.00051498   -0.02900836
     atom   25 type  1   force =     0.00342256   -0.02996858    0.00209553
     atom   26 type  1   force =     0.01005318    0.02011804    0.00181629
     atom   27 type  2   force =    -0.00006454    0.00002386   -0.18365364
     atom   28 type  2   force =     0.00002320    0.02158762   -0.00596359
     atom   29 type  2   force =     0.00013472   -0.02174045   -0.00594461
     atom   30 type  1   force =    -0.06814108    0.00006550   -0.02897585
     atom   31 type  1   force =    -0.00345590   -0.02995312    0.00209711
     atom   32 type  1   force =    -0.01021209    0.02048796    0.00227776
     atom   33 type  2   force =     0.00009493   -0.00026587    0.06933131
     atom   34 type  2   force =    -0.00001002    0.03686848    0.00371053
     atom   35 type  2   force =    -0.00034307   -0.02928832    0.01039739
     atom   36 type  1   force =     0.00002647    0.00482267    0.05629327
     atom   37 type  1   force =    -0.00004096    0.00205380   -0.00517612
     atom   38 type  1   force =    -0.00011165    0.00425435   -0.00009355
     atom   39 type  1   force =     0.00005944    0.00002681    0.10680971
     atom   40 type  1   force =    -0.00000902   -0.00060745    0.00811667
     atom   41 type  1   force =    -0.00000488    0.00070993    0.00247186
     atom   42 type  1   force =     0.06806579   -0.00121622   -0.02960390
     atom   43 type  1   force =     0.00353258   -0.02804713    0.00206111
     atom   44 type  1   force =     0.01051962    0.01144699    0.00270228
     atom   45 type  2   force =    -0.00006444   -0.00196653   -0.18352438
     atom   46 type  2   force =     0.00003618    0.01958800   -0.00655655
     atom   47 type  2   force =     0.00008548   -0.01030589   -0.01267938
     atom   48 type  1   force =    -0.06815990   -0.00165620   -0.02956574
     atom   49 type  1   force =    -0.00355010   -0.02804834    0.00205669
     atom   50 type  1   force =    -0.01058368    0.01121221    0.00293237
     atom   51 type  2   force =     0.00009681   -0.00308238    0.06761472
     atom   52 type  2   force =    -0.00002409    0.03494503    0.00627578
     atom   53 type  2   force =    -0.00004452    0.00512206    0.00129502
     atom   54 type  3   force =     0.02499390    0.00016173   -0.00278531
     atom   55 type  4   force =    -0.00218542   -0.00135412   -0.00040770
     atom   56 type  4   force =    -0.01262357    0.00574109    0.00528892
     atom   57 type  4   force =    -0.00961042   -0.00422781   -0.00455059
     atom   58 type  3   force =     0.00011788   -0.00182311    0.00125166
     atom   59 type  4   force =    -0.00000740   -0.00007323    0.00016580
     atom   60 type  4   force =     0.00071449   -0.00094398   -0.00077403
     atom   61 type  4   force =    -0.00079017   -0.00096924   -0.00079824

     Total force =     0.455855     Total SCF correction =     0.000594
  @ DRIVER MODE: Message from server: STATUS
  @ DRIVER MODE: Message from server: GETFORCE
  @ DRIVER MODE: Returning v,forces,stress,ensemble

     Writing output data file ./calc.save/
  @ DRIVER MODE: Message from server: EXIT
  @ DRIVE MODE: Exiting

     General routines

     Parallel routines

   This run was terminated on:  12:30:13  18Oct2021

   JOB DONE.