     Program PWSCF v.6.7GPU starts on 16Sep2021 at  6:40:52

     R & G space division:  proc/nbgrp/npool/nimage =      10
     Reading input from /storage/home/hcoda1/3/ntian30/research/carbon/CxH_vib/H2O_calc/ads_slab/CH2N2HH2O_a/out_0045/pw.inp
Warning: card &CELL ignored
Warning: card   CELL_DYNAMICS='IPI', ignored
Warning: card / ignored

     Current dimensions of program PWSCF are:
     Max number of different atomic species (ntypx) = 10
     Max number of k-points (npk) =  40000
     Max angular momentum in pseudopotentials (lmaxx) =  3
     Presently no symmetry can be used with electric field

     Message from routine cell_base_init:
     DEPRECATED: use true lattice parameter, not A to a.u. conversion factor

     IMPORTANT: XC functional enforced from input :
     Exchange-correlation= BEEF-VDW
                           (   1   4  43  14   2   0   0)
     Any further DFT definition will be discarded
     Please, verify this is what you really want

  @ DRIVER MODE: Connecting to
 qe_1139763_2852606.sched-torque.pace.gatech.edurjnr7vvm_scratch
  using UNIX socket
  @ DRIVER MODE: Message from server: STATUS
  @ DRIVER MODE: Message from server: INIT
  @ DRIVER MODE: Receiving replica           0          -1
  @ DRIVER MODE: Receiving encoded integer          25
  @ DRIVER MODE:  SCF:  T  FORCE:  T  STRESS:  F  VC:  F  ENSEMBLE:  F
  @ DRIVER MODE:  SCF:  T  FORCE:  T  STRESS:  F  VC:  F  ENSEMBLE:  F

     Using Slab Decomposition

     bravais-lattice index     =            0
     lattice parameter (alat)  =       1.8897  a.u.
     unit-cell volume          =    6658.9804 (a.u.)^3
     number of atoms/cell      =           56
     number of atomic types    =            5
     number of electrons       =       403.00
     number of Kohn-Sham states=          211
     kinetic-energy cutoff     =      29.3995  Ry
     charge density cutoff     =     293.9946  Ry
     scf convergence threshold =      7.3E-08
     mixing beta               =       0.0500
     number of iterations used =            8  plain     mixing
     Exchange-correlation= BEEF-VDW
                           (   1   4  43  14   2   0   0)

     celldm(1)=   1.889726  celldm(2)=   0.000000  celldm(3)=   0.000000
     celldm(4)=   0.000000  celldm(5)=   0.000000  celldm(6)=   0.000000

     crystal axes: (cart. coord. in units of alat)
               a(1) = (   6.579727   0.000000   0.000000 )
               a(2) = (  -0.000775   5.961596   0.000000 )
               a(3) = (   0.000000   0.000000  25.155947 )

     reciprocal axes: (cart. coord. in units 2 pi/alat)
               b(1) = (  0.151982  0.000020  0.000000 )
               b(2) = (  0.000000  0.167740  0.000000 )
               b(3) = (  0.000000  0.000000  0.039752 )

     PseudoPot. # 1 for Ti read from file:
     /storage/coda1/p-amedford6/0/shared/rich_project_chbe-medford/medford-share/data/pseudos_module/espresso/nninc/pbe/van/Ti.UPF
     MD5 check sum: 8e4df49b7f0d34bbd5052bf3f5ea0213
     Pseudo is Ultrasoft, Zval = 12.0
     Generated by new atomic code, or converted to UPF format
     Using radial grid of  851 points,  6 beta functions with:
                l(1) =   0
                l(2) =   0
                l(3) =   1
                l(4) =   1
                l(5) =   2
                l(6) =   2
     Q(r) pseudized with  8 coefficients,  rinner =    1.000   1.000   1.000
                                                       1.000   1.000

     PseudoPot. # 2 for O  read from file:
     /storage/coda1/p-amedford6/0/shared/rich_project_chbe-medford/medford-share/data/pseudos_module/espresso/nninc/pbe/van/O.UPF
     MD5 check sum: 78c19812648e8988a0fe644b0f25305e
     Pseudo is Ultrasoft, Zval =  6.0
     Generated by new atomic code, or converted to UPF format
     Using radial grid of  737 points,  4 beta functions with:
                l(1) =   0
                l(2) =   0
                l(3) =   1
                l(4) =   1
     Q(r) pseudized with  8 coefficients,  rinner =    0.800   0.800   0.800

     PseudoPot. # 3 for N  read from file:
     /storage/coda1/p-amedford6/0/shared/rich_project_chbe-medford/medford-share/data/pseudos_module/espresso/nninc/pbe/van/N.UPF
     MD5 check sum: 90d10febe142ad51ac9d5be1deb811c4
     Pseudo is Ultrasoft, Zval =  5.0
     Generated by new atomic code, or converted to UPF format
     Using radial grid of  729 points,  4 beta functions with:
                l(1) =   0
                l(2) =   0
                l(3) =   1
                l(4) =   1
     Q(r) pseudized with  8 coefficients,  rinner =    0.800   0.800   0.800

     PseudoPot. # 4 for C  read from file:
     /storage/coda1/p-amedford6/0/shared/rich_project_chbe-medford/medford-share/data/pseudos_module/espresso/nninc/pbe/van/C.UPF
     MD5 check sum: 1a69bf6b8db32088f5b2163dbdb77a27
     Pseudo is Ultrasoft, Zval =  4.0
     Generated by new atomic code, or converted to UPF format
     Using radial grid of  721 points,  4 beta functions with:
                l(1) =   0
                l(2) =   0
                l(3) =   1
                l(4) =   1
     Q(r) pseudized with  8 coefficients,  rinner =    0.800   0.800   0.800

     PseudoPot. # 5 for H  read from file:
     /storage/coda1/p-amedford6/0/shared/rich_project_chbe-medford/medford-share/data/pseudos_module/espresso/nninc/pbe/van/H.UPF
     MD5 check sum: b5ee9d7bfd3a09ee7748110bda690ff7
     Pseudo is Ultrasoft, Zval =  1.0
     Generated by new atomic code, or converted to UPF format
     Using radial grid of  615 points,  1 beta functions with:
                l(1) =   0
     Q(r) pseudized with  8 coefficients,  rinner =    0.800

     atomic species   valence    mass     pseudopotential
        Ti1           12.00    47.86700     Ti( 1.00)
        O1             6.00    15.99900     O ( 1.00)
        N1             5.00    14.00700     N ( 1.00)
        C1             4.00    12.01100     C ( 1.00)
        H1             1.00     1.00800     H ( 1.00)

     No symmetry found

   Cartesian axes

     site n.     atom                  positions (alat units)
         1           Ti1 tau(   1) = (   0.0004258   2.9801865   6.0000000  )
         2           Ti1 tau(   2) = (   3.2906075   1.4906267   6.0002472  )
         3           O1  tau(   3) = (   0.0006271   0.0005054   7.9858123  )
         4           O1  tau(   4) = (   3.2906025   0.0005020   7.3038282  )
         5           O1  tau(   5) = (   4.5942328   1.4918067   9.2879030  )
         6           O1  tau(   6) = (   1.9868534   1.4903216   9.2879459  )
         7           Ti1 tau(   7) = (   3.2907910   2.8959150   9.1758416  )
         8           Ti1 tau(   8) = (   0.0015273   1.4827037   9.2680791  )
         9           O1  tau(   9) = (   3.2932810   5.9556063  11.3276769  )
        10           O1  tau(  10) = (   0.0116148   5.9584955  10.6183126  )
        11           O1  tau(  11) = (   1.2966828   1.5020869  12.6141357  )
        12           O1  tau(  12) = (   5.2995835   1.4923495  12.6341875  )
        13           Ti1 tau(  13) = (   6.5470072   2.9473109  12.5798724  )
        14           Ti1 tau(  14) = (   3.2302912   1.4573256  12.5082679  )
        15           O1  tau(  15) = (   0.0525813   0.0137714  14.6435187  )
        16           O1  tau(  16) = (   3.2708393   0.0302713  13.9228694  )
        17           O1  tau(  17) = (   4.5627544   1.5900677  16.0055000  )
        18           O1  tau(  18) = (   2.0437599   1.5040777  16.0764052  )
        19           Ti1 tau(  19) = (   3.3063064   2.9825517  15.6619520  )
        20           Ti1 tau(  20) = (   6.5607061   1.3194196  15.9785141  )
        21           O1  tau(  21) = (   3.2904802   0.0005063   4.7018136  )
        22           O1  tau(  22) = (   6.3855286   5.9589440  17.1610702  )
        23           O1  tau(  23) = (   1.3043587   1.4918075   6.0039043  )
        24           O1  tau(  24) = (   5.2767064   1.4903225   6.0039473  )
        25           Ti1 tau(  25) = (   0.0000382   5.9609847   6.0000000  )
        26           Ti1 tau(  26) = (   3.2902200   4.4714249   6.0002472  )
        27           O1  tau(  27) = (   0.0002396   2.9813036   7.9858123  )
        28           O1  tau(  28) = (   3.2902150   2.9813002   7.3038282  )
        29           O1  tau(  29) = (   4.5938453   4.4726049   9.2879030  )
        30           O1  tau(  30) = (   1.9864658   4.4711199   9.2879459  )
        31           Ti1 tau(  31) = (   3.2891106   5.8743827   9.1763621  )
        32           Ti1 tau(  32) = (   0.0006254   4.4649316   9.2693709  )
        33           O1  tau(  33) = (   3.2946552   2.9814125  11.3288906  )
        34           O1  tau(  34) = (   0.0092240   2.9805883  10.6323155  )
        35           O1  tau(  35) = (   1.2978438   4.4726441  12.6233041  )
        36           O1  tau(  36) = (   5.2969606   4.4732664  12.6435870  )
        37           Ti1 tau(  37) = (   6.5415350   5.9305516  12.5357152  )
        38           Ti1 tau(  38) = (   3.2303862   4.4559975  12.4807118  )
        39           O1  tau(  39) = (   0.0164246   2.9899045  14.7829194  )
        40           O1  tau(  40) = (   3.2688228   2.9752494  13.8698570  )
        41           O1  tau(  41) = (   4.5210259   4.4573316  15.9082071  )
        42           O1  tau(  42) = (   2.0412773   4.4882057  16.0214637  )
        43           Ti1 tau(  43) = (   3.2233344   5.9452837  15.7820064  )
        44           Ti1 tau(  44) = (   6.5355943   4.4735413  15.8975681  )
        45           O1  tau(  45) = (   3.2900926   2.9813045   4.7018136  )
        46           O1  tau(  46) = (   1.3039711   4.4726057   6.0039043  )
        47           O1  tau(  47) = (   5.2763189   4.4711207   6.0039473  )
        48           N1  tau(  48) = (   0.2167872   2.3688911  18.0161765  )
        49           C1  tau(  49) = (   0.4968348   1.8934616  19.1878903  )
        50           H1  tau(  50) = (   0.5617972   2.5522217  20.0513624  )
        51           H1  tau(  51) = (   0.6371857   0.8299532  19.2874115  )
        52           N1  tau(  52) = (   6.5661014   3.6386027  17.7750644  )
        53           H1  tau(  53) = (   0.0713089   4.2532688  18.5884219  )
        54           O1  tau(  54) = (   3.6608114   5.9026821  18.0962282  )
        55           H1  tau(  55) = (   4.6417887   5.9554783  18.0438526  )
        56           H1  tau(  56) = (   3.3558581   0.7595698  18.5153002  )

     number of k points=    10  Fermi-Dirac smearing, width (Ry)=  0.0073
                       cart. coord. in units 2pi/alat
        k(    1) = (   0.0000000   0.0000000   0.0000000), wk =   0.1250000
        k(    2) = (   0.0000000   0.0419351   0.0000000), wk =   0.2500000
        k(    3) = (   0.0000000  -0.0838702   0.0000000), wk =   0.1250000
        k(    4) = (   0.0379955   0.0000049   0.0000000), wk =   0.2500000
        k(    5) = (   0.0379955   0.0419400   0.0000000), wk =   0.2500000
        k(    6) = (   0.0379955  -0.0838652   0.0000000), wk =   0.2500000
        k(    7) = (   0.0379955  -0.0419301   0.0000000), wk =   0.2500000
        k(    8) = (  -0.0759910  -0.0000099   0.0000000), wk =   0.1250000
        k(    9) = (  -0.0759910   0.0419252   0.0000000), wk =   0.2500000
        k(   10) = (  -0.0759910  -0.0838800   0.0000000), wk =   0.1250000

     Initial potential from superposition of free atoms

     starting charge  386.99914, renormalised to  403.00000

     negative rho (up, down):  1.554E-02 0.000E+00

     %%%%%%%%%%%%%%%%%%%%%%%%%%%%%%%%%%%%%%%%%%%%%%%%%%%%%%%%%%%%%%%%%%%%%%%%
     %                                                                      %
     % You are using vdW-DF, which was implemented by the Thonhauser group. %
     % Please cite the following two papers that made this development      %
     % possible and the two reviews that describe the various versions:     %
     %                                                                      %
     %   T. Thonhauser et al., PRL 115, 136402 (2015).                      %
     %   T. Thonhauser et al., PRB 76, 125112 (2007).                       %
     %   K. Berland et al., Rep. Prog. Phys. 78, 066501 (2015).             %
     %   D.C. Langreth et al., J. Phys.: Condens. Matter 21, 084203 (2009). %
     %                                                                      %
     %                                                                      %
     % If you are calculating the stress with vdW-DF, please also cite:     %
     %                                                                      %
     %   R. Sabatini et al., J. Phys.: Condens. Matter 24, 424209 (2012).   %
     %                                                                      %
     %%%%%%%%%%%%%%%%%%%%%%%%%%%%%%%%%%%%%%%%%%%%%%%%%%%%%%%%%%%%%%%%%%%%%%%%

     Adding external electric field

     Computed dipole along edir(3) :
        Dipole              -12.7952 Ry au,        -32.5221 Debye
        Dipole field         -0.0241 Ry au,

        Potential amp.        2.2383 Ry
        Total length         46.3494 bohr

     Starting wfcs are  305 atomic wfcs
  @ DRIVER MODE: Message from server: STATUS
  @ DRIVER MODE: Message from server: POSDATA
  @ DRIVER MODE: Reading and sharing cell
  @ DRIVER MODE: Reading and sharing positions
  @ DRIVER MODE: Received positions

     Self-consistent Calculation

     iteration #  1     ecut=    29.40 Ry     beta= 0.05
     Davidson diagonalization with overlap
     c_bands:  3 eigenvalues not converged
     c_bands:  3 eigenvalues not converged
     c_bands:  4 eigenvalues not converged
     c_bands:  5 eigenvalues not converged
     c_bands:  1 eigenvalues not converged
     c_bands:  1 eigenvalues not converged
     c_bands:  4 eigenvalues not converged
     c_bands:  3 eigenvalues not converged
     ethr =  1.00E-05,  avg # of iterations = 27.5

[...]

     total energy              =   -2369.05745909 Ry
     estimated scf accuracy    <    6884.45525115 Ry

     iteration #  2     ecut=    29.40 Ry     beta= 0.05
     Davidson diagonalization with overlap
     ethr =  1.00E-02,  avg # of iterations = 25.7

[...]

     iteration # 64     ecut=    29.40 Ry     beta= 0.05
     Davidson diagonalization with overlap
     c_bands:  1 eigenvalues not converged
     ethr =  2.20E-11,  avg # of iterations = 16.1

[...]

     total energy              =   -2973.98331834 Ry
     estimated scf accuracy    <       0.00000017 Ry

     iteration # 65     ecut=    29.40 Ry     beta= 0.05
     Davidson diagonalization with overlap
     ethr =  2.20E-11,  avg # of iterations =  9.3

     negative rho (up, down):  1.541E-02 0.000E+00

     Adding external electric field

     Computed dipole along edir(3) :
        Dipole                0.9241 Ry au,          2.3489 Debye
        Dipole field          0.0017 Ry au,

        Potential amp.       -0.1617 Ry
        Total length         46.3494 bohr

     End of self-consistent calculation

          k = 0.0000 0.0000 0.0000 ( 18029 PWs)   bands (ev):

   -55.6130 -55.5849 -55.5789 -55.5469 -55.4943 -55.4830 -55.4527 -55.4305
   -55.3964 -55.3921 -55.3581 -55.3349 -55.0414 -54.9910 -54.5927 -54.5586
   -32.1289 -32.0971 -31.9851 -31.9302 -31.9169 -31.9049 -31.8834 -31.8704
   -31.8574 -31.8164 -31.7655 -31.7614 -31.7331 -31.7325 -31.7290 -31.7189
   -31.7144 -31.7109 -31.7079 -31.7056 -31.6750 -31.6704 -31.6614 -31.6337
   -31.6243 -31.6234 -31.6162 -31.6130 -31.5977 -31.5896 -31.5723 -31.5591
   -31.5468 -31.5404 -31.5352 -31.5055 -31.5029 -31.3049 -31.2656 -31.2424
   -31.1894 -31.1468 -30.9995 -30.9116 -30.8892 -30.8166 -30.7301 -30.6187
   -18.6611 -17.9054 -16.3327 -16.0904 -15.8509 -15.7737 -15.7413 -15.5277
   -15.4247 -15.3691 -15.2338 -15.1849 -15.1714 -15.1512 -15.1261 -15.0920
   -15.0659 -15.0524 -15.0453 -15.0289 -15.0035 -14.9768 -14.9564 -14.9526
   -14.9115 -14.8428 -14.7733 -14.7477 -14.6857 -14.6736 -14.2342 -13.0939
   -12.9774 -12.0740  -7.8476  -6.4772  -5.3041  -4.4983  -3.7064  -3.5685
    -3.5209  -3.4714  -3.4622  -3.2733  -3.1806  -3.0539  -2.8967  -2.8484
    -2.7793  -2.7409  -2.7024  -2.6385  -2.5988  -2.4926  -2.4552  -2.4256
    -2.4103  -2.3651  -2.3597  -2.3560  -2.2944  -2.2578  -2.1792  -2.1530
    -2.0741  -2.0037  -1.9750  -1.9488  -1.9270  -1.9097  -1.9063  -1.8572
    -1.8561  -1.8542  -1.7825  -1.7353  -1.6601  -1.6142  -1.5568  -1.4168
    -1.3757  -1.2659  -1.2204  -1.0992  -1.0952  -1.0724  -1.0482  -1.0092
    -1.0012  -0.8777  -0.7924  -0.7430  -0.7075  -0.6453  -0.5420  -0.5212
    -0.4323  -0.4268  -0.3732  -0.3600  -0.3441  -0.3151  -0.2368  -0.1242
    -0.1056  -0.0449   0.0042   0.0671   0.1105   0.1354   0.1735   0.2232
     0.2469   0.2880   0.3145   0.3256   0.3587   0.3964   0.4187   0.4969
     0.5695   0.6191   0.6683   0.7089   0.7128   0.8906   1.0029   1.0417
     1.1728   1.1953   1.3632   1.4309   1.5010   1.6227   2.0010   2.0467
     2.2164   3.4948   3.6085   3.6329   3.6428   3.7461   3.8795   3.9623
     4.0030   4.0275   4.0664

[...]

          k = 0.0380-0.0419 0.0000 ( 17876 PWs)   bands (ev):

[...]

          k =-0.0760-0.0000 0.0000 ( 17886 PWs)   bands (ev):

[...]

          k =-0.0760-0.0839 0.0000 ( 17948 PWs)   bands (ev):

   -55.5961 -55.5957 -55.5722 -55.5593 -55.4853 -55.4809 -55.4617 -55.4138
   -55.4127 -55.3778 -55.3726 -55.3368 -55.0344 -54.9978 -54.5757 -54.5755
   -31.9452 -31.9200 -31.9125 -31.9122 -31.8905 -31.8901 -31.8251 -31.8204
   -31.8121 -31.8071 -31.7885 -31.7384 -31.7345 -31.7314 -31.7222 -31.7207
   -31.7187 -31.7160 -31.7151 -31.7135 -31.7119 -31.6993 -31.6900 -31.6753
   -31.6727 -31.6680 -31.6467 -31.6178 -31.6169 -31.6073 -31.5985 -31.5944
   -31.5912 -31.5901 -31.5887 -31.5438 -31.5182 -31.2935 -31.2680 -31.2625
   -31.2464 -31.1905 -30.9020 -30.9018 -30.8124 -30.8122 -30.7734 -30.7733
   -18.6590 -17.8927 -15.7736 -15.6806 -15.5935 -15.5515 -15.4729 -15.4544
   -15.4005 -15.3355 -15.2972 -15.2786 -15.2374 -15.2086 -15.1641 -15.1516
   -15.1440 -15.1203 -15.0960 -15.0720 -15.0607 -15.0546 -15.0498 -15.0366
   -15.0029 -14.9711 -14.9343 -14.9305 -14.9021 -14.6595 -14.5835 -13.0793
   -13.0791 -12.0268  -7.7703  -6.4713  -5.3691  -4.5688  -3.1732  -3.0615
    -2.8907  -2.8509  -2.8005  -2.7488  -2.7418  -2.6876  -2.5631  -2.5541
    -2.5233  -2.4588  -2.4353  -2.4323  -2.4236  -2.4198  -2.3986  -2.3620
    -2.3612  -2.3068  -2.2975  -2.2861  -2.2808  -2.2620  -2.2452  -2.2423
    -2.2186  -2.1723  -2.1574  -2.1418  -2.0348  -1.9334  -1.8768  -1.8390
    -1.8085  -1.7616  -1.7566  -1.7364  -1.7205  -1.6826  -1.6666  -1.6107
    -1.4959  -1.4175  -1.3305  -1.3009  -1.2714  -1.2015  -1.1563  -1.0920
    -1.0518  -1.0461  -0.9627  -0.8481  -0.8348  -0.7976  -0.7699  -0.6935
    -0.6650  -0.6322  -0.5718  -0.5650  -0.5375  -0.5094  -0.4733  -0.3813
    -0.3636  -0.3573  -0.3274  -0.3187  -0.3074  -0.2668  -0.1929  -0.0946
    -0.0229  -0.0162   0.0895   0.2163   0.3138   0.4457   0.4740   0.5216
     0.5751   0.6087   0.6926   0.7003   0.7263   0.7903   0.8331   0.9013
     0.9254   0.9405   1.0259   1.0333   1.7948   1.7960   1.8667   1.8668
     2.1604   3.8592   3.8876   3.9082   3.9529   4.0304   4.0543   4.0551
     4.0611   4.1780   4.1855

     the Fermi energy is     3.5137 ev

!    total energy              =   -2973.98334617 Ry
     estimated scf accuracy    <       0.00000007 Ry
     smearing contrib. (-TS)   =      -0.02040437 Ry
     internal energy E=F+TS    =   -2973.96294181 Ry

     The total energy is F=E-TS. E is the sum of the following terms:
     one-electron contribution =  -24204.26522027 Ry
     hartree contribution      =   12196.76545690 Ry
     xc contribution           =    -494.26080735 Ry
     ewald contribution        =    9527.79601733 Ry
     electric field correction =       0.00161158 Ry

     convergence has been achieved in  65 iterations

     Forces acting on atoms (cartesian axes, Ry/au):

     atom    1 type  1   force =    -0.00005729   -0.00019466    0.09553488
     atom    2 type  1   force =     0.00002545   -0.00035577   -0.17556699
     atom    3 type  2   force =     0.00009549   -0.00012535   -0.02314857
     atom    4 type  2   force =     0.00000583   -0.00139119    0.05290274
     atom    5 type  2   force =    -0.01000463   -0.00075066    0.00324683
     atom    6 type  2   force =     0.01153523   -0.00009221    0.00282155
     atom    7 type  1   force =     0.00045749    0.00027934   -0.00663185
     atom    8 type  1   force =     0.00029177    0.00536721    0.01758202
     atom    9 type  2   force =    -0.00015029   -0.00015638   -0.00038380
     atom   10 type  2   force =    -0.00346500    0.00075214   -0.01265988
     atom   11 type  2   force =    -0.00080970   -0.00032881    0.00009133
     atom   12 type  2   force =     0.00033084   -0.00017222    0.00009500
     atom   13 type  1   force =    -0.00025757    0.00039431   -0.00022174
     atom   14 type  1   force =     0.00021874    0.00003444    0.00067355
     atom   15 type  2   force =    -0.00013059    0.00007484   -0.00036048
     atom   16 type  2   force =    -0.00003327   -0.00023275   -0.00007634
     atom   17 type  2   force =     0.00050300   -0.00009325   -0.00014433
     atom   18 type  2   force =    -0.00023452   -0.00039288   -0.00002768
     atom   19 type  1   force =    -0.00011031   -0.00021948    0.00030348
     atom   20 type  1   force =     0.00041517   -0.00000187   -0.00033921
     atom   21 type  2   force =     0.00007096    0.00003290    0.10319748
     atom   22 type  2   force =     0.00002884   -0.00016489    0.00000040
     atom   23 type  2   force =    -0.07161374   -0.00013124   -0.02755038
     atom   24 type  2   force =     0.07153974    0.00037063   -0.02758937
     atom   25 type  1   force =     0.00018548   -0.00009224    0.09519759
     atom   26 type  1   force =     0.00008261   -0.00040053   -0.17574727
     atom   27 type  2   force =     0.00011130   -0.00024218   -0.02207204
     atom   28 type  2   force =     0.00002817   -0.00099403    0.05230491
     atom   29 type  2   force =    -0.01015484    0.00037336    0.00285176
     atom   30 type  2   force =     0.01155525    0.00074906    0.00247319
     atom   31 type  1   force =     0.00027681    0.00394115   -0.01131248
     atom   32 type  1   force =     0.00045769   -0.00673123    0.01787621
     atom   33 type  2   force =    -0.00008008    0.00004945   -0.00019297
     atom   34 type  2   force =    -0.00395602    0.00073421   -0.01214068
     atom   35 type  2   force =    -0.00021442    0.00008101   -0.00017497
     atom   36 type  2   force =    -0.00000198    0.00003246   -0.00008287
     atom   37 type  1   force =    -0.00004126   -0.00041517    0.00035940
     atom   38 type  1   force =     0.00005662    0.00001660    0.00040288
     atom   39 type  2   force =     0.00035941   -0.00035050    0.00026144
     atom   40 type  2   force =    -0.00050380    0.00027207   -0.00009167
     atom   41 type  2   force =     0.00010531    0.00010569   -0.00010644
     atom   42 type  2   force =     0.00030663    0.00016760    0.00021204
     atom   43 type  1   force =    -0.00013430   -0.00021966    0.00005298
     atom   44 type  1   force =    -0.00005168   -0.00016809    0.00010633
     atom   45 type  2   force =     0.00007211   -0.00000546    0.10315881
     atom   46 type  2   force =    -0.07161523   -0.00004290   -0.02752269
     atom   47 type  2   force =     0.07154686    0.00034779   -0.02761126
     atom   48 type  3   force =     0.00010866    0.00002585   -0.00023551
     atom   49 type  4   force =     0.00084023   -0.00009905    0.00026200
     atom   50 type  5   force =     0.00026763   -0.00023897    0.00041792
     atom   51 type  5   force =     0.00048867   -0.00029226    0.00005201
     atom   52 type  3   force =    -0.00019065    0.00011360   -0.00037192
     atom   53 type  5   force =     0.00060950    0.00038440   -0.00008357
     atom   54 type  2   force =    -0.00265482   -0.00286452   -0.00120139
     atom   55 type  5   force =     0.00227966    0.00170984    0.00072597
     atom   56 type  5   force =     0.00120884    0.00155043    0.00048367

     Total force =     0.364767     Total SCF correction =     0.000631
  @ DRIVER MODE: Message from server: STATUS
  @ DRIVER MODE: Message from server: GETFORCE
  @ DRIVER MODE: Returning v,forces,stress,ensemble

     Writing output data file ./calc.save/
  @ DRIVER MODE: Message from server: EXIT
  @ DRIVE MODE: Exiting

     General routines

     Parallel routines

   This run was terminated on:   7: 0:12  16Sep2021

   JOB DONE.