     Program PWSCF v.6.7GPU starts on 12Oct2021 at 11:13:33

     R & G space division:  proc/nbgrp/npool/nimage =       8
     Reading input from /storage/home/hcoda1/3/ntian30/research/carbon/ACS_vib/ads_slab/NH2/out_0006/pw.inp
Warning: card &CELL ignored
Warning: card   CELL_DYNAMICS='IPI', ignored
Warning: card / ignored

     Current dimensions of program PWSCF are:
     Max number of different atomic species (ntypx) = 10
     Max number of k-points (npk) =  40000
     Max angular momentum in pseudopotentials (lmaxx) =  3
     Presently no symmetry can be used with electric field

     Message from routine cell_base_init:
     DEPRECATED: use true lattice parameter, not A to a.u. conversion factor

     IMPORTANT: XC functional enforced from input :
     Exchange-correlation= BEEF-VDW
                           (   1   4  43  14   2   0   0)
     Any further DFT definition will be discarded
     Please, verify this is what you really want

  @ DRIVER MODE: Connecting to
 qe_1139763_3181316.sched-torque.pace.gatech.edu8t6tm4pv_scratch
  using UNIX socket
  @ DRIVER MODE: Message from server: STATUS
  @ DRIVER MODE: Message from server: INIT
  @ DRIVER MODE: Receiving replica           0          -1
  @ DRIVER MODE: Receiving encoded integer          25
  @ DRIVER MODE:  SCF:  T  FORCE:  T  STRESS:  F  VC:  F  ENSEMBLE:  F
  @ DRIVER MODE:  SCF:  T  FORCE:  T  STRESS:  F  VC:  F  ENSEMBLE:  F

     Using Slab Decomposition

     bravais-lattice index     =            0
     lattice parameter (alat)  =       1.8897  a.u.
     unit-cell volume          =    6658.9804 (a.u.)^3
     number of atoms/cell      =           50
     number of atomic types    =            4
     number of electrons       =       385.00
     number of Kohn-Sham states=          202
     kinetic-energy cutoff     =      29.3995  Ry
     charge density cutoff     =     293.9946  Ry
     scf convergence threshold =      7.3E-08
     mixing beta               =       0.0500
     number of iterations used =            8  plain     mixing
     Exchange-correlation= BEEF-VDW
                           (   1   4  43  14   2   0   0)

     celldm(1)=   1.889726  celldm(2)=   0.000000  celldm(3)=   0.000000
     celldm(4)=   0.000000  celldm(5)=   0.000000  celldm(6)=   0.000000

     crystal axes: (cart. coord. in units of alat)
               a(1) = (   6.579727   0.000000   0.000000 )
               a(2) = (  -0.000775   5.961596   0.000000 )
               a(3) = (   0.000000   0.000000  25.155947 )

     reciprocal axes: (cart. coord. in units 2 pi/alat)
               b(1) = (  0.151982  0.000020  0.000000 )
               b(2) = (  0.000000  0.167740  0.000000 )
               b(3) = (  0.000000  0.000000  0.039752 )

     PseudoPot. # 1 for Ti read from file:
     /storage/coda1/p-amedford6/0/shared/rich_project_chbe-medford/medford-share/data/pseudos_module/espresso/nninc/pbe/van/Ti.UPF
     MD5 check sum: 8e4df49b7f0d34bbd5052bf3f5ea0213
     Pseudo is Ultrasoft, Zval = 12.0
     Generated by new atomic code, or converted to UPF format
     Using radial grid of  851 points,  6 beta functions with:
                l(1) =   0
                l(2) =   0
                l(3) =   1
                l(4) =   1
                l(5) =   2
                l(6) =   2
     Q(r) pseudized with  8 coefficients,  rinner =    1.000   1.000   1.000
                                                       1.000   1.000

     PseudoPot. # 2 for O  read from file:
     /storage/coda1/p-amedford6/0/shared/rich_project_chbe-medford/medford-share/data/pseudos_module/espresso/nninc/pbe/van/O.UPF
     MD5 check sum: 78c19812648e8988a0fe644b0f25305e
     Pseudo is Ultrasoft, Zval =  6.0
     Generated by new atomic code, or converted to UPF format
     Using radial grid of  737 points,  4 beta functions with:
                l(1) =   0
                l(2) =   0
                l(3) =   1
                l(4) =   1
     Q(r) pseudized with  8 coefficients,  rinner =    0.800   0.800   0.800

     PseudoPot. # 3 for H  read from file:
     /storage/coda1/p-amedford6/0/shared/rich_project_chbe-medford/medford-share/data/pseudos_module/espresso/nninc/pbe/van/H.UPF
     MD5 check sum: b5ee9d7bfd3a09ee7748110bda690ff7
     Pseudo is Ultrasoft, Zval =  1.0
     Generated by new atomic code, or converted to UPF format
     Using radial grid of  615 points,  1 beta functions with:
                l(1) =   0
     Q(r) pseudized with  8 coefficients,  rinner =    0.800

     PseudoPot. # 4 for N  read from file:
     /storage/coda1/p-amedford6/0/shared/rich_project_chbe-medford/medford-share/data/pseudos_module/espresso/nninc/pbe/van/N.UPF
     MD5 check sum: 90d10febe142ad51ac9d5be1deb811c4
     Pseudo is Ultrasoft, Zval =  5.0
     Generated by new atomic code, or converted to UPF format
     Using radial grid of  729 points,  4 beta functions with:
                l(1) =   0
                l(2) =   0
                l(3) =   1
                l(4) =   1
     Q(r) pseudized with  8 coefficients,  rinner =    0.800   0.800   0.800

     atomic species   valence    mass     pseudopotential
        Ti1           12.00    47.86700     Ti( 1.00)
        O1             6.00    15.99900     O ( 1.00)
        H1             1.00     1.00800     H ( 1.00)
        N1             5.00    14.00700     N ( 1.00)

     No symmetry found

   Cartesian axes

     site n.     atom                  positions (alat units)
         1           Ti1 tau(   1) = (   0.0004258   2.9801865   6.0000000  )
         2           Ti1 tau(   2) = (   3.2906075   1.4906267   6.0002472  )
         3           O1  tau(   3) = (   0.0006271   0.0005054   7.9858123  )
         4           O1  tau(   4) = (   3.2906025   0.0005020   7.3038282  )
         5           O1  tau(   5) = (   4.5942328   1.4918067   9.2879030  )
         6           O1  tau(   6) = (   1.9868534   1.4903216   9.2879459  )
         7           Ti1 tau(   7) = (   3.2907910   2.8959150   9.1758416  )
         8           Ti1 tau(   8) = (   0.0015273   1.4827037   9.2680791  )
         9           O1  tau(   9) = (   3.3258991   5.9546141  11.3332578  )
        10           O1  tau(  10) = (   0.0116148   5.9584955  10.6183126  )
        11           O1  tau(  11) = (   1.3488932   1.4798543  12.6053297  )
        12           O1  tau(  12) = (   5.3234149   1.4779677  12.6259018  )
        13           Ti1 tau(  13) = (   0.0250334   2.9927558  12.6206450  )
        14           Ti1 tau(  14) = (   3.3016322   1.4795038  12.4820857  )
        15           O1  tau(  15) = (   0.0664024   0.0157593  14.6586037  )
        16           O1  tau(  16) = (   3.3323282   0.0041071  13.9289915  )
        17           O1  tau(  17) = (   4.5995015   1.5314437  16.0640773  )
        18           O1  tau(  18) = (   2.1161456   1.5293183  16.0749432  )
        19           Ti1 tau(  19) = (   3.3498380   3.0088313  15.6963580  )
        20           Ti1 tau(  20) = (   0.0530739   1.5396549  15.8437714  )
        21           O1  tau(  21) = (   3.2904802   0.0005063   4.7018136  )
        22           O1  tau(  22) = (   0.0625368   0.0441461  17.2188842  )
        23           O1  tau(  23) = (   1.3043587   1.4918075   6.0039043  )
        24           O1  tau(  24) = (   5.2767064   1.4903225   6.0039473  )
        25           Ti1 tau(  25) = (   0.0000382   5.9609847   6.0000000  )
        26           Ti1 tau(  26) = (   3.2902200   4.4714249   6.0002472  )
        27           O1  tau(  27) = (   0.0002396   2.9813036   7.9858123  )
        28           O1  tau(  28) = (   3.2902150   2.9813002   7.3038282  )
        29           O1  tau(  29) = (   4.5938453   4.4726049   9.2879030  )
        30           O1  tau(  30) = (   1.9864658   4.4711199   9.2879459  )
        31           Ti1 tau(  31) = (   3.2891106   5.8743827   9.1763621  )
        32           Ti1 tau(  32) = (   0.0006254   4.4649316   9.2693709  )
        33           O1  tau(  33) = (   3.3263537   2.9785333  11.3304563  )
        34           O1  tau(  34) = (   0.0092240   2.9805883  10.6323155  )
        35           O1  tau(  35) = (   1.3430786   4.4678698  12.6172051  )
        36           O1  tau(  36) = (   5.3277099   4.4710525  12.6377626  )
        37           Ti1 tau(  37) = (   0.0170098   0.0068522  12.5677129  )
        38           Ti1 tau(  38) = (   3.3012998   4.4598595  12.4837504  )
        39           O1  tau(  39) = (   0.0613649   2.9331972  14.6385027  )
        40           O1  tau(  40) = (   3.3336062   2.9900835  13.9042222  )
        41           O1  tau(  41) = (   4.5971590   4.4874278  16.0927711  )
        42           O1  tau(  42) = (   2.1143488   4.4887574  16.1000639  )
        43           Ti1 tau(  43) = (   3.3470598   0.0240971  15.7232225  )
        44           Ti1 tau(  44) = (   0.0592690   4.6672874  16.1350517  )
        45           O1  tau(  45) = (   3.2900926   2.9813045   4.7018136  )
        46           O1  tau(  46) = (   1.3039711   4.4726057   6.0039043  )
        47           O1  tau(  47) = (   5.2763189   4.4711207   6.0039473  )
        48           H1  tau(  48) = (   5.8602933   2.9036204  18.0517654  )
        49           H1  tau(  49) = (   0.9096825   2.8932289  17.9980414  )
        50           N1  tau(  50) = (   0.0797844   2.9726167  17.4194980  )

     number of k points=    10  Fermi-Dirac smearing, width (Ry)=  0.0073
                       cart. coord. in units 2pi/alat
        k(    1) = (   0.0000000   0.0000000   0.0000000), wk =   0.1250000
        k(    2) = (   0.0000000   0.0419351   0.0000000), wk =   0.2500000
        k(    3) = (   0.0000000  -0.0838702   0.0000000), wk =   0.1250000
        k(    4) = (   0.0379955   0.0000049   0.0000000), wk =   0.2500000
        k(    5) = (   0.0379955   0.0419400   0.0000000), wk =   0.2500000
        k(    6) = (   0.0379955  -0.0838652   0.0000000), wk =   0.2500000
        k(    7) = (   0.0379955  -0.0419301   0.0000000), wk =   0.2500000
        k(    8) = (  -0.0759910  -0.0000099   0.0000000), wk =   0.1250000
        k(    9) = (  -0.0759910   0.0419252   0.0000000), wk =   0.2500000
        k(   10) = (  -0.0759910  -0.0838800   0.0000000), wk =   0.1250000

     Initial potential from superposition of free atoms

     starting charge  368.99922, renormalised to  385.00000

     negative rho (up, down):  2.141E-02 0.000E+00

     %%%%%%%%%%%%%%%%%%%%%%%%%%%%%%%%%%%%%%%%%%%%%%%%%%%%%%%%%%%%%%%%%%%%%%%%
     %                                                                      %
     % You are using vdW-DF, which was implemented by the Thonhauser group. %
     % Please cite the following two papers that made this development      %
     % possible and the two reviews that describe the various versions:     %
     %                                                                      %
     %   T. Thonhauser et al., PRL 115, 136402 (2015).                      %
     %   T. Thonhauser et al., PRB 76, 125112 (2007).                       %
     %   K. Berland et al., Rep. Prog. Phys. 78, 066501 (2015).             %
     %   D.C. Langreth et al., J. Phys.: Condens. Matter 21, 084203 (2009). %
     %                                                                      %
     %                                                                      %
     % If you are calculating the stress with vdW-DF, please also cite:     %
     %                                                                      %
     %   R. Sabatini et al., J. Phys.: Condens. Matter 24, 424209 (2012).   %
     %                                                                      %
     %%%%%%%%%%%%%%%%%%%%%%%%%%%%%%%%%%%%%%%%%%%%%%%%%%%%%%%%%%%%%%%%%%%%%%%%

     Adding external electric field

     Computed dipole along edir(3) :
        Dipole               -1.9928 Ry au,         -5.0652 Debye
        Dipole field         -0.0038 Ry au,

        Potential amp.        0.3486 Ry
        Total length         46.3494 bohr

     Starting wfcs are  290 atomic wfcs
  @ DRIVER MODE: Message from server: STATUS
  @ DRIVER MODE: Message from server: POSDATA
  @ DRIVER MODE: Reading and sharing cell
  @ DRIVER MODE: Reading and sharing positions
  @ DRIVER MODE: Received positions

     Self-consistent Calculation

     iteration #  1     ecut=    29.40 Ry     beta= 0.05
     Davidson diagonalization with overlap
     c_bands:  2 eigenvalues not converged
     c_bands:  1 eigenvalues not converged
     c_bands:  4 eigenvalues not converged
     c_bands:  1 eigenvalues not converged
     c_bands:  3 eigenvalues not converged
     ethr =  1.00E-05,  avg # of iterations = 18.3

[...]

     total energy              =   -2907.97520113 Ry
     estimated scf accuracy    <      12.38410759 Ry

     iteration #  2     ecut=    29.40 Ry     beta= 0.05
     Davidson diagonalization with overlap
     ethr =  3.22E-03,  avg # of iterations =  1.0

[...]

     iteration # 50     ecut=    29.40 Ry     beta= 0.05
     Davidson diagonalization with overlap
     c_bands:  1 eigenvalues not converged
     c_bands:  1 eigenvalues not converged
     c_bands:  1 eigenvalues not converged
     ethr =  2.37E-09,  avg # of iterations = 17.8

[...]

     total energy              =   -2906.48797527 Ry
     estimated scf accuracy    <       0.00000035 Ry

     iteration # 59     ecut=    29.40 Ry     beta= 0.05
     Davidson diagonalization with overlap
     ethr =  9.07E-11,  avg # of iterations = 10.2

     negative rho (up, down):  2.069E-02 0.000E+00

     Adding external electric field

     Computed dipole along edir(3) :
        Dipole                0.6503 Ry au,          1.6528 Debye
        Dipole field          0.0012 Ry au,

        Potential amp.       -0.1138 Ry
        Total length         46.3494 bohr

     End of self-consistent calculation

          k = 0.0000 0.0000 0.0000 ( 18029 PWs)   bands (ev):

   -56.1942 -56.1882 -56.1602 -56.1522 -56.0907 -56.0176 -56.0090 -55.9999
   -55.9741 -55.9662 -55.9615 -55.9278 -55.7378 -55.4382 -55.1683 -55.1342
   -32.7491 -32.6756 -32.5316 -32.5068 -32.4991 -32.4951 -32.4877 -32.4519
   -32.4362 -32.4255 -32.3864 -32.3838 -32.3688 -32.3466 -32.3334 -32.3199
   -32.3167 -32.2975 -32.2787 -32.2516 -32.2338 -32.2122 -32.2041 -32.1921
   -32.1862 -32.1781 -32.1666 -32.1641 -32.1584 -32.1399 -32.1371 -32.1306
   -32.1288 -32.1164 -32.1143 -32.1064 -32.0736 -31.9922 -31.9204 -31.7293
   -31.7040 -31.6404 -31.5754 -31.4873 -31.4648 -31.3921 -31.3056 -31.1946
   -16.9227 -16.6637 -16.4479 -16.3421 -16.2701 -16.2133 -16.0212 -15.9043
   -15.8653 -15.7672 -15.7293 -15.6943 -15.6923 -15.6667 -15.6449 -15.6239
   -15.6130 -15.5943 -15.5577 -15.5488 -15.5123 -15.4576 -15.3539 -15.3377
   -15.3283 -15.2836 -15.2333 -15.2199 -14.7529 -13.6712 -13.5549 -13.4811
    -4.6771  -4.2995  -4.1090  -4.0939  -4.0601  -4.0221  -3.7929  -3.7513
    -3.3979  -3.3599  -3.3523  -3.3179  -3.2973  -3.2656  -3.0823  -3.0125
    -3.0038  -2.9646  -2.9626  -2.9477  -2.9465  -2.9161  -2.9112  -2.7936
    -2.7245  -2.6093  -2.5863  -2.5048  -2.4921  -2.4736  -2.4427  -2.4223
    -2.4133  -2.4041  -2.3762  -2.3650  -2.2234  -2.1911  -2.0393  -1.9915
    -1.9770  -1.8450  -1.7973  -1.6638  -1.6471  -1.6148  -1.5900  -1.5803
    -1.4876  -1.4693  -1.3772  -1.3306  -1.2620  -1.2575  -1.1927  -1.1753
    -1.0674  -1.0577  -1.0426  -0.9506  -0.9331  -0.9227  -0.8727  -0.7838
    -0.6294  -0.5920  -0.5883  -0.5653  -0.4929  -0.4492  -0.3706  -0.3492
    -0.3406  -0.2855  -0.2555  -0.2160  -0.1839  -0.1665  -0.1592  -0.1101
     0.0718   0.1086   0.1626   0.1972   0.2049   0.3549   0.3974   0.4742
     0.5782   0.7793   0.8091   0.8531   0.9707   1.0459   1.4245   1.4699
     2.9481   3.0245   3.0296   3.0813   3.1902   3.2058   3.3982   3.4198
     3.4426   3.4477

[...]

          k = 0.0380-0.0419 0.0000 ( 17876 PWs)   bands (ev):

[...]

          k =-0.0760-0.0000 0.0000 ( 17886 PWs)   bands (ev):

[...]

          k =-0.0760-0.0839 0.0000 ( 17948 PWs)   bands (ev):

   -56.1776 -56.1766 -56.1708 -56.1694 -56.0863 -56.0218 -55.9951 -55.9880
   -55.9836 -55.9820 -55.9451 -55.9444 -55.7370 -55.4390 -55.1513 -55.1511
   -32.5531 -32.5504 -32.4913 -32.4905 -32.4735 -32.4725 -32.4718 -32.4479
   -32.3927 -32.3845 -32.3646 -32.3589 -32.3499 -32.3120 -32.3008 -32.2972
   -32.2963 -32.2955 -32.2870 -32.2851 -32.2844 -32.2820 -32.2775 -32.2259
   -32.2040 -32.2008 -32.2003 -32.1865 -32.1807 -32.1803 -32.1770 -32.1766
   -32.1598 -32.1590 -32.1510 -32.1432 -32.0765 -31.9949 -31.9173 -31.7879
   -31.7055 -31.6627 -31.4776 -31.4775 -31.3883 -31.3881 -31.3489 -31.3489
   -16.3780 -16.3451 -16.1234 -16.1146 -16.1014 -16.0991 -15.9183 -15.8878
   -15.8848 -15.8521 -15.8344 -15.8002 -15.7623 -15.7304 -15.6972 -15.6863
   -15.6775 -15.6642 -15.6412 -15.6271 -15.6211 -15.6133 -15.5050 -15.5008
   -15.4706 -15.4082 -15.3333 -15.1947 -14.9122 -13.6567 -13.6566 -13.5001
    -4.7013  -3.6741  -3.6372  -3.3549  -3.3456  -3.3383  -3.2864  -3.1257
    -3.0771  -3.0497  -3.0414  -3.0003  -2.9963  -2.9841  -2.9708  -2.9412
    -2.9237  -2.9173  -2.8947  -2.8543  -2.8454  -2.8413  -2.8091  -2.8059
    -2.7998  -2.7580  -2.7272  -2.7151  -2.6974  -2.6754  -2.6424  -2.3992
    -2.3839  -2.3281  -2.3228  -2.3169  -2.2727  -2.2510  -2.2450  -2.2373
    -2.1452  -2.0405  -1.9128  -1.8811  -1.8711  -1.7885  -1.7399  -1.6287
    -1.5912  -1.5605  -1.5569  -1.4937  -1.4424  -1.3966  -1.3829  -1.3113
    -1.2766  -1.2643  -1.1634  -1.1454  -1.1425  -1.1374  -1.0298  -0.9508
    -0.9476  -0.9393  -0.9055  -0.8969  -0.7990  -0.7966  -0.7531  -0.6792
    -0.6726  -0.6515  -0.5070  -0.3770  -0.1824  -0.1460  -0.1120  -0.0433
     0.0349   0.0922   0.1215   0.1303   0.1420   0.2021   0.2404   0.3501
     0.3535   0.4606   0.5598   0.8028   1.2172   1.2179   1.2897   1.2898
     3.2299   3.2383   3.2688   3.2963   3.4495   3.4541   3.4760   3.4769
     3.6208   3.6355

     the Fermi energy is     2.9420 ev

!    total energy              =   -2906.48801746 Ry
     estimated scf accuracy    <       0.00000004 Ry
     smearing contrib. (-TS)   =      -0.02176255 Ry
     internal energy E=F+TS    =   -2906.46625491 Ry

     The total energy is F=E-TS. E is the sum of the following terms:
     one-electron contribution =  -25124.91780790 Ry
     hartree contribution      =   12642.68090070 Ry
     xc contribution           =    -475.65271401 Ry
     ewald contribution        =   10051.42256832 Ry
     electric field correction =       0.00079798 Ry

     convergence has been achieved in  59 iterations

     Forces acting on atoms (cartesian axes, Ry/au):

     atom    1 type  1   force =     0.00015768   -0.00026497    0.09705395
     atom    2 type  1   force =    -0.00009195   -0.00052859   -0.17534415
     atom    3 type  2   force =     0.00014816   -0.00009101   -0.02537314
     atom    4 type  2   force =     0.00004956   -0.00152506    0.05272921
     atom    5 type  2   force =    -0.01201389   -0.00048646    0.00188542
     atom    6 type  2   force =     0.01461787   -0.00001943    0.00349957
     atom    7 type  1   force =     0.00108634    0.00036193   -0.01158692
     atom    8 type  1   force =    -0.00051555    0.00756824    0.03127729
     atom    9 type  2   force =     0.00006464    0.00014056   -0.00038644
     atom   10 type  2   force =    -0.00054048    0.00073226   -0.01782721
     atom   11 type  2   force =     0.00023864   -0.00020099   -0.00001013
     atom   12 type  2   force =    -0.00020363   -0.00006904   -0.00000628
     atom   13 type  1   force =    -0.00030485    0.00076697    0.00096940
     atom   14 type  1   force =    -0.00068509    0.00037338   -0.00170153
     atom   15 type  2   force =    -0.00021366   -0.00044152   -0.00021639
     atom   16 type  2   force =     0.00024270   -0.00000113    0.00097982
     atom   17 type  2   force =    -0.00026424   -0.00020699    0.00008323
     atom   18 type  2   force =    -0.00041875    0.00000823    0.00001923
     atom   19 type  1   force =    -0.00016480    0.00027257    0.00102166
     atom   20 type  1   force =    -0.00035113    0.00135990   -0.00031174
     atom   21 type  2   force =     0.00003502   -0.00009047    0.10321582
     atom   22 type  2   force =    -0.00023054    0.00075542    0.00139780
     atom   23 type  2   force =    -0.07154655   -0.00018900   -0.02785212
     atom   24 type  2   force =     0.07146964    0.00027953   -0.02790726
     atom   25 type  1   force =     0.00003103   -0.00025130    0.09657985
     atom   26 type  1   force =    -0.00009086   -0.00036748   -0.17550202
     atom   27 type  2   force =     0.00018729   -0.00020952   -0.02447048
     atom   28 type  2   force =     0.00009237   -0.00126366    0.05252418
     atom   29 type  2   force =    -0.01217468    0.00020267    0.00163882
     atom   30 type  2   force =     0.01466704    0.00048540    0.00328648
     atom   31 type  1   force =     0.00096432    0.00320672   -0.01216598
     atom   32 type  1   force =    -0.00070358   -0.00920330    0.03172629
     atom   33 type  2   force =     0.00010619    0.00002915    0.00011157
     atom   34 type  2   force =    -0.00009482    0.00026889   -0.02691077
     atom   35 type  2   force =     0.00044792    0.00016248    0.00019787
     atom   36 type  2   force =    -0.00038501    0.00019079    0.00024642
     atom   37 type  1   force =    -0.00054602    0.00020533    0.00029880
     atom   38 type  1   force =    -0.00072960   -0.00007668   -0.00165966
     atom   39 type  2   force =    -0.00002341   -0.00013965    0.00026280
     atom   40 type  2   force =     0.00013516   -0.00012312    0.00053064
     atom   41 type  2   force =    -0.00065798    0.00019765   -0.00020172
     atom   42 type  2   force =    -0.00011887    0.00009303   -0.00020152
     atom   43 type  1   force =    -0.00008386   -0.00004754    0.00088061
     atom   44 type  1   force =    -0.00039031   -0.00146571   -0.00072388
     atom   45 type  2   force =     0.00001739   -0.00009330    0.10319358
     atom   46 type  2   force =    -0.07154358   -0.00011417   -0.02784361
     atom   47 type  2   force =     0.07149302    0.00029461   -0.02791698
     atom   48 type  3   force =     0.00648556    0.00047144   -0.00748233
     atom   49 type  3   force =     0.00064564    0.00033779    0.00006579
     atom   50 type  4   force =    -0.00829550   -0.00129482    0.00792617

     Total force =     0.369349     Total SCF correction =     0.000696
  @ DRIVER MODE: Message from server: STATUS
  @ DRIVER MODE: Message from server: GETFORCE
  @ DRIVER MODE: Returning v,forces,stress,ensemble

     Writing output data file ./calc.save/
  @ DRIVER MODE: Message from server: EXIT
  @ DRIVE MODE: Exiting

     General routines

     Parallel routines

   This run was terminated on:  11:32:56  12Oct2021

   JOB DONE.