     Program PWSCF v.6.7GPU starts on 23Aug2021 at 15:47:58

     R & G space division:  proc/nbgrp/npool/nimage =       6
     Reading input from /storage/home/hcoda1/3/ntian30/research/carbon/CH_vib/ads_slab/CHNNHH_a/out_0006/pw.inp
Warning: card &CELL ignored
Warning: card   CELL_DYNAMICS='IPI', ignored
Warning: card / ignored

     Current dimensions of program PWSCF are:
     Max number of different atomic species (ntypx) = 10
     Max number of k-points (npk) =  40000
     Max angular momentum in pseudopotentials (lmaxx) =  3
     Presently no symmetry can be used with electric field

     Message from routine cell_base_init:
     DEPRECATED: use true lattice parameter, not A to a.u. conversion factor

     IMPORTANT: XC functional enforced from input :
     Exchange-correlation= BEEF-VDW
                           (   1   4  43  14   2   0   0)
     Any further DFT definition will be discarded
     Please, verify this is what you really want

  @ DRIVER MODE: Connecting to
 qe_1139763_2632796.sched-torque.pace.gatech.edud5cjwz2m_scratch
  using UNIX socket
  @ DRIVER MODE: Message from server: STATUS
  @ DRIVER MODE: Message from server: INIT
  @ DRIVER MODE: Receiving replica           0          -1
  @ DRIVER MODE: Receiving encoded integer          25
  @ DRIVER MODE:  SCF:  T  FORCE:  T  STRESS:  F  VC:  F  ENSEMBLE:  F
  @ DRIVER MODE:  SCF:  T  FORCE:  T  STRESS:  F  VC:  F  ENSEMBLE:  F

     Using Slab Decomposition

     bravais-lattice index     =            0
     lattice parameter (alat)  =       1.8897  a.u.
     unit-cell volume          =    6658.9804 (a.u.)^3
     number of atoms/cell      =           53
     number of atomic types    =            5
     number of electrons       =       395.00
     number of Kohn-Sham states=          207
     kinetic-energy cutoff     =      29.3995  Ry
     charge density cutoff     =     293.9946  Ry
     scf convergence threshold =      7.3E-08
     mixing beta               =       0.0500
     number of iterations used =            8  plain     mixing
     Exchange-correlation= BEEF-VDW
                           (   1   4  43  14   2   0   0)

     celldm(1)=   1.889726  celldm(2)=   0.000000  celldm(3)=   0.000000
     celldm(4)=   0.000000  celldm(5)=   0.000000  celldm(6)=   0.000000

     crystal axes: (cart. coord. in units of alat)
               a(1) = (   6.579727   0.000000   0.000000 )
               a(2) = (  -0.000775   5.961596   0.000000 )
               a(3) = (   0.000000   0.000000  25.155947 )

     reciprocal axes: (cart. coord. in units 2 pi/alat)
               b(1) = (  0.151982  0.000020  0.000000 )
               b(2) = (  0.000000  0.167740  0.000000 )
               b(3) = (  0.000000  0.000000  0.039752 )

     PseudoPot. # 1 for Ti read from file:
     /storage/coda1/p-amedford6/0/shared/rich_project_chbe-medford/medford-share/data/pseudos_module/espresso/nninc/pbe/van/Ti.UPF
     MD5 check sum: 8e4df49b7f0d34bbd5052bf3f5ea0213
     Pseudo is Ultrasoft, Zval = 12.0
     Generated by new atomic code, or converted to UPF format
     Using radial grid of  851 points,  6 beta functions with:
                l(1) =   0
                l(2) =   0
                l(3) =   1
                l(4) =   1
                l(5) =   2
                l(6) =   2
     Q(r) pseudized with  8 coefficients,  rinner =    1.000   1.000   1.000
                                                       1.000   1.000

     PseudoPot. # 2 for O  read from file:
     /storage/coda1/p-amedford6/0/shared/rich_project_chbe-medford/medford-share/data/pseudos_module/espresso/nninc/pbe/van/O.UPF
     MD5 check sum: 78c19812648e8988a0fe644b0f25305e
     Pseudo is Ultrasoft, Zval =  6.0
     Generated by new atomic code, or converted to UPF format
     Using radial grid of  737 points,  4 beta functions with:
                l(1) =   0
                l(2) =   0
                l(3) =   1
                l(4) =   1
     Q(r) pseudized with  8 coefficients,  rinner =    0.800   0.800   0.800

     PseudoPot. # 3 for N  read from file:
     /storage/coda1/p-amedford6/0/shared/rich_project_chbe-medford/medford-share/data/pseudos_module/espresso/nninc/pbe/van/N.UPF
     MD5 check sum: 90d10febe142ad51ac9d5be1deb811c4
     Pseudo is Ultrasoft, Zval =  5.0
     Generated by new atomic code, or converted to UPF format
     Using radial grid of  729 points,  4 beta functions with:
                l(1) =   0
                l(2) =   0
                l(3) =   1
                l(4) =   1
     Q(r) pseudized with  8 coefficients,  rinner =    0.800   0.800   0.800

     PseudoPot. # 4 for C  read from file:
     /storage/coda1/p-amedford6/0/shared/rich_project_chbe-medford/medford-share/data/pseudos_module/espresso/nninc/pbe/van/C.UPF
     MD5 check sum: 1a69bf6b8db32088f5b2163dbdb77a27
     Pseudo is Ultrasoft, Zval =  4.0
     Generated by new atomic code, or converted to UPF format
     Using radial grid of  721 points,  4 beta functions with:
                l(1) =   0
                l(2) =   0
                l(3) =   1
                l(4) =   1
     Q(r) pseudized with  8 coefficients,  rinner =    0.800   0.800   0.800

     PseudoPot. # 5 for H  read from file:
     /storage/coda1/p-amedford6/0/shared/rich_project_chbe-medford/medford-share/data/pseudos_module/espresso/nninc/pbe/van/H.UPF
     MD5 check sum: b5ee9d7bfd3a09ee7748110bda690ff7
     Pseudo is Ultrasoft, Zval =  1.0
     Generated by new atomic code, or converted to UPF format
     Using radial grid of  615 points,  1 beta functions with:
                l(1) =   0
     Q(r) pseudized with  8 coefficients,  rinner =    0.800

     atomic species   valence    mass     pseudopotential
        Ti1           12.00    47.86700     Ti( 1.00)
        O1             6.00    15.99900     O ( 1.00)
        N1             5.00    14.00700     N ( 1.00)
        C1             4.00    12.01100     C ( 1.00)
        H1             1.00     1.00800     H ( 1.00)

     No symmetry found

   Cartesian axes

     site n.     atom                  positions (alat units)
         1           Ti1 tau(   1) = (   0.0004258   2.9801865   6.0000000  )
         2           Ti1 tau(   2) = (   3.2906075   1.4906267   6.0002472  )
         3           O1  tau(   3) = (   0.0006271   0.0005054   7.9858123  )
         4           O1  tau(   4) = (   3.2906025   0.0005020   7.3038282  )
         5           O1  tau(   5) = (   4.5942328   1.4918067   9.2879030  )
         6           O1  tau(   6) = (   1.9868534   1.4903216   9.2879459  )
         7           Ti1 tau(   7) = (   3.2907910   2.8959150   9.1758416  )
         8           Ti1 tau(   8) = (   0.0015273   1.4827037   9.2680791  )
         9           O1  tau(   9) = (   3.2912281   5.9459940  11.3193265  )
        10           O1  tau(  10) = (   0.0116148   5.9584955  10.6183126  )
        11           O1  tau(  11) = (   1.3103257   1.4650607  12.6442557  )
        12           O1  tau(  12) = (   5.3047449   1.4806448  12.6312737  )
        13           Ti1 tau(  13) = (   6.5337005   3.0128982  12.6900614  )
        14           Ti1 tau(  14) = (   3.2207025   1.4698770  12.4715817  )
        15           O1  tau(  15) = (   6.5518216   5.9146589  14.6704082  )
        16           O1  tau(  16) = (   3.3240203   5.9583723  13.8895330  )
        17           O1  tau(  17) = (   4.5456974   1.5225049  16.1264218  )
        18           O1  tau(  18) = (   2.0489736   1.4727210  15.9535721  )
        19           Ti1 tau(  19) = (   3.2591190   2.9927146  15.6788090  )
        20           Ti1 tau(  20) = (   0.0289511   1.3544711  15.7732889  )
        21           O1  tau(  21) = (   3.2904802   0.0005063   4.7018136  )
        22           O1  tau(  22) = (   0.0559926   0.0451390  17.2112278  )
        23           O1  tau(  23) = (   1.3043587   1.4918075   6.0039043  )
        24           O1  tau(  24) = (   5.2767064   1.4903225   6.0039473  )
        25           Ti1 tau(  25) = (   0.0000382   5.9609847   6.0000000  )
        26           Ti1 tau(  26) = (   3.2902200   4.4714249   6.0002472  )
        27           O1  tau(  27) = (   0.0002396   2.9813036   7.9858123  )
        28           O1  tau(  28) = (   3.2902150   2.9813002   7.3038282  )
        29           O1  tau(  29) = (   4.5938453   4.4726049   9.2879030  )
        30           O1  tau(  30) = (   1.9864658   4.4711199   9.2879459  )
        31           Ti1 tau(  31) = (   3.2891106   5.8743827   9.1763621  )
        32           Ti1 tau(  32) = (   0.0006254   4.4649316   9.2693709  )
        33           O1  tau(  33) = (   3.2889932   2.9698301  11.3211337  )
        34           O1  tau(  34) = (   0.0092240   2.9805883  10.6323155  )
        35           O1  tau(  35) = (   1.3069247   4.4567274  12.6410950  )
        36           O1  tau(  36) = (   5.3013738   4.4587240  12.6283471  )
        37           Ti1 tau(  37) = (   6.5339814   0.0202798  12.5235249  )
        38           Ti1 tau(  38) = (   3.2191325   4.4512509  12.4750946  )
        39           O1  tau(  39) = (   6.5688456   2.9522374  14.7547250  )
        40           O1  tau(  40) = (   3.3031296   2.9710333  13.8824388  )
        41           O1  tau(  41) = (   4.5425837   4.4734130  15.9989242  )
        42           O1  tau(  42) = (   2.0771424   4.4889556  16.0364895  )
        43           Ti1 tau(  43) = (   3.3121389   0.0026565  15.6888161  )
        44           Ti1 tau(  44) = (   6.5128106   4.4989306  16.3061806  )
        45           O1  tau(  45) = (   3.2900926   2.9813045   4.7018136  )
        46           O1  tau(  46) = (   1.3039711   4.4726057   6.0039043  )
        47           O1  tau(  47) = (   5.2763189   4.4711207   6.0039473  )
        48           N1  tau(  48) = (   0.4628824   2.9849886  17.8076856  )
        49           C1  tau(  49) = (   1.4182946   2.9518240  18.6700831  )
        50           H1  tau(  50) = (   2.3503500   2.6458988  18.1556329  )
        51           N1  tau(  51) = (   5.7893717   3.5482605  18.2279111  )
        52           H1  tau(  52) = (   5.8942619   4.0012392  19.1365464  )
        53           H1  tau(  53) = (   5.0734348   2.8266848  18.2415795  )

     number of k points=    10  Fermi-Dirac smearing, width (Ry)=  0.0073
                       cart. coord. in units 2pi/alat
        k(    1) = (   0.0000000   0.0000000   0.0000000), wk =   0.1250000
        k(    2) = (   0.0000000   0.0419351   0.0000000), wk =   0.2500000
        k(    3) = (   0.0000000  -0.0838702   0.0000000), wk =   0.1250000
        k(    4) = (   0.0379955   0.0000049   0.0000000), wk =   0.2500000
        k(    5) = (   0.0379955   0.0419400   0.0000000), wk =   0.2500000
        k(    6) = (   0.0379955  -0.0838652   0.0000000), wk =   0.2500000
        k(    7) = (   0.0379955  -0.0419301   0.0000000), wk =   0.2500000
        k(    8) = (  -0.0759910  -0.0000099   0.0000000), wk =   0.1250000
        k(    9) = (  -0.0759910   0.0419252   0.0000000), wk =   0.2500000
        k(   10) = (  -0.0759910  -0.0838800   0.0000000), wk =   0.1250000

     Initial potential from superposition of free atoms

     starting charge  378.99916, renormalised to  395.00000

     negative rho (up, down):  1.776E-02 0.000E+00

     %%%%%%%%%%%%%%%%%%%%%%%%%%%%%%%%%%%%%%%%%%%%%%%%%%%%%%%%%%%%%%%%%%%%%%%%
     %                                                                      %
     % You are using vdW-DF, which was implemented by the Thonhauser group. %
     % Please cite the following two papers that made this development      %
     % possible and the two reviews that describe the various versions:     %
     %                                                                      %
     %   T. Thonhauser et al., PRL 115, 136402 (2015).                      %
     %   T. Thonhauser et al., PRB 76, 125112 (2007).                       %
     %   K. Berland et al., Rep. Prog. Phys. 78, 066501 (2015).             %
     %   D.C. Langreth et al., J. Phys.: Condens. Matter 21, 084203 (2009). %
     %                                                                      %
     %                                                                      %
     % If you are calculating the stress with vdW-DF, please also cite:     %
     %                                                                      %
     %   R. Sabatini et al., J. Phys.: Condens. Matter 24, 424209 (2012).   %
     %                                                                      %
     %%%%%%%%%%%%%%%%%%%%%%%%%%%%%%%%%%%%%%%%%%%%%%%%%%%%%%%%%%%%%%%%%%%%%%%%

     Adding external electric field

     Computed dipole along edir(3) :
        Dipole               -8.0659 Ry au,        -20.5016 Debye
        Dipole field         -0.0152 Ry au,

        Potential amp.        1.4110 Ry
        Total length         46.3494 bohr

     Starting wfcs are  299 atomic wfcs
  @ DRIVER MODE: Message from server: STATUS
  @ DRIVER MODE: Message from server: POSDATA
  @ DRIVER MODE: Reading and sharing cell
  @ DRIVER MODE: Reading and sharing positions
  @ DRIVER MODE: Received positions

     Self-consistent Calculation

     iteration #  1     ecut=    29.40 Ry     beta= 0.05
     Davidson diagonalization with overlap
     c_bands:  1 eigenvalues not converged
     c_bands:  1 eigenvalues not converged
     c_bands:  2 eigenvalues not converged
     c_bands:  3 eigenvalues not converged
     c_bands:  3 eigenvalues not converged
     c_bands:  2 eigenvalues not converged
     c_bands:  1 eigenvalues not converged
     ethr =  1.00E-05,  avg # of iterations = 19.3

[...]

     total energy              =   -2614.85543058 Ry
     estimated scf accuracy    <    3584.05039127 Ry

[...]

     iteration #  3     ecut=    29.40 Ry     beta= 0.05
     Davidson diagonalization with overlap
     ethr =  1.00E-02,  avg # of iterations = 14.3

[...]

     iteration # 61     ecut=    29.40 Ry     beta= 0.05
     Davidson diagonalization with overlap
     c_bands:  1 eigenvalues not converged
     ethr =  9.04E-11,  avg # of iterations = 12.1

[...]

     total energy              =   -2939.00594595 Ry
     estimated scf accuracy    <       0.00000009 Ry

     iteration # 66     ecut=    29.40 Ry     beta= 0.05
     Davidson diagonalization with overlap
     ethr =  2.40E-11,  avg # of iterations =  9.4

     negative rho (up, down):  1.644E-02 0.000E+00

     Adding external electric field

     Computed dipole along edir(3) :
        Dipole                0.3045 Ry au,          0.7740 Debye
        Dipole field          0.0006 Ry au,

        Potential amp.       -0.0533 Ry
        Total length         46.3494 bohr

     End of self-consistent calculation

          k = 0.0000 0.0000 0.0000 ( 18029 PWs)   bands (ev):

   -56.1060 -56.1036 -56.0718 -56.0672 -55.9941 -55.9605 -55.9536 -55.9199
   -55.9033 -55.8691 -55.8678 -55.8335 -55.6460 -55.5856 -55.0756 -55.0416
   -32.6627 -32.5871 -32.4856 -32.4265 -32.4114 -32.4070 -32.3984 -32.3589
   -32.3459 -32.3313 -32.3061 -32.2842 -32.2790 -32.2583 -32.2512 -32.2444
   -32.2090 -32.1968 -32.1931 -32.1887 -32.1846 -32.1633 -32.1572 -32.1410
   -32.1159 -32.1018 -32.1009 -32.1007 -32.0947 -32.0912 -32.0699 -32.0432
   -32.0427 -32.0293 -32.0209 -32.0013 -31.9798 -31.9526 -31.8743 -31.8451
   -31.8013 -31.7363 -31.4822 -31.3950 -31.3725 -31.2992 -31.2127 -31.1015
   -18.0238 -16.8723 -16.5823 -16.3688 -16.2615 -16.2461 -16.1399 -15.9543
   -15.8208 -15.7929 -15.6861 -15.6797 -15.6382 -15.6274 -15.5968 -15.5746
   -15.5666 -15.5388 -15.5367 -15.5196 -15.4755 -15.4519 -15.4328 -15.3379
   -15.2970 -15.2362 -15.2162 -15.1531 -15.0310 -14.7976 -13.5777 -13.4614
   -13.3573  -8.0594  -6.3839  -4.3892  -4.2463  -4.0696  -4.0086  -3.9692
    -3.9615  -3.7185  -3.6862  -3.3269  -3.2945  -3.2738  -3.2638  -3.2532
    -3.1294  -3.0184  -2.9632  -2.9204  -2.9103  -2.9000  -2.8923  -2.8797
    -2.8535  -2.8311  -2.7285  -2.6852  -2.6528  -2.5433  -2.5240  -2.4426
    -2.4159  -2.4047  -2.3716  -2.3507  -2.3417  -2.3154  -2.3041  -2.2831
    -2.1928  -2.1443  -2.0287  -1.9652  -1.8870  -1.8513  -1.7023  -1.6601
    -1.5722  -1.5665  -1.5467  -1.5237  -1.4906  -1.4045  -1.3329  -1.2413
    -1.2010  -1.1619  -1.1258  -1.0825  -1.0025  -0.9823  -0.9649  -0.8683
    -0.8641  -0.8548  -0.8126  -0.6110  -0.5897  -0.5522  -0.5394  -0.4642
    -0.4033  -0.3878  -0.3661  -0.3184  -0.2577  -0.1947  -0.1492  -0.1339
    -0.1222  -0.1186  -0.0861  -0.0589   0.0840   0.0941   0.1885   0.2009
     0.2227   0.3483   0.5242   0.5634   0.5787   0.7015   0.8775   0.9468
     1.0482   1.1397   1.5171   1.5624   2.4312   3.0320   3.1181   3.1517
     3.1713   3.2767   3.3086   3.4794   3.4946   3.5295   3.5489

[...]

          k = 0.0380-0.0419 0.0000 ( 17876 PWs)   bands (ev):

[...]

          k =-0.0760-0.0000 0.0000 ( 17886 PWs)   bands (ev):

[...]

          k =-0.0760-0.0839 0.0000 ( 17948 PWs)   bands (ev):

   -56.0899 -56.0877 -56.0873 -56.0833 -55.9849 -55.9627 -55.9507 -55.9296
   -55.8881 -55.8837 -55.8541 -55.8474 -55.6427 -55.5887 -55.0586 -55.0584
   -32.4662 -32.4617 -32.4030 -32.4017 -32.3848 -32.3832 -32.3651 -32.3530
   -32.3337 -32.3141 -32.2912 -32.2753 -32.2484 -32.2390 -32.2386 -32.2207
   -32.2193 -32.2097 -32.2073 -32.2017 -32.2005 -32.1926 -32.1868 -32.1724
   -32.1676 -32.1503 -32.1344 -32.1309 -32.0876 -32.0857 -32.0839 -32.0800
   -32.0712 -32.0690 -32.0653 -32.0637 -32.0596 -31.9707 -31.8856 -31.8383
   -31.8046 -31.7927 -31.3853 -31.3851 -31.2952 -31.2949 -31.2561 -31.2559
   -18.0144 -16.3081 -16.2923 -16.0753 -16.0311 -16.0270 -16.0056 -15.9178
   -15.8282 -15.8088 -15.7939 -15.7770 -15.7621 -15.6818 -15.6557 -15.6333
   -15.6294 -15.6177 -15.5620 -15.5569 -15.5538 -15.5478 -15.5278 -15.4948
   -15.4122 -15.4072 -15.3979 -15.1595 -15.0939 -15.0220 -13.5635 -13.5630
   -13.3700  -8.0168  -6.3233  -4.4090  -3.6011  -3.5823  -3.3537  -3.3047
    -3.2822  -3.2730  -3.1585  -3.0570  -3.0261  -3.0138  -2.9754  -2.9570
    -2.9454  -2.9327  -2.9194  -2.9002  -2.8743  -2.8412  -2.8358  -2.7907
    -2.7726  -2.7516  -2.7342  -2.7124  -2.7115  -2.6707  -2.6654  -2.6267
    -2.5881  -2.5458  -2.4352  -2.3795  -2.3461  -2.2956  -2.2350  -2.2248
    -2.2153  -2.1610  -2.1559  -2.1239  -2.0389  -1.9623  -1.8265  -1.8042
    -1.7712  -1.7318  -1.6976  -1.6014  -1.5566  -1.5074  -1.4549  -1.3999
    -1.3878  -1.3448  -1.3082  -1.2417  -1.2251  -1.1857  -1.1641  -1.1021
    -1.0593  -1.0552  -0.9929  -0.9260  -0.8670  -0.8646  -0.8443  -0.8275
    -0.7708  -0.7225  -0.6561  -0.6067  -0.5650  -0.4693  -0.4117  -0.2980
    -0.1869  -0.0689   0.0036   0.0067   0.0627   0.1395   0.1847   0.2210
     0.2299   0.2468   0.3405   0.4116   0.4320   0.4444   0.5036   0.6986
     1.3115   1.3127   1.3817   1.3826   2.4286   3.3198   3.3577   3.3722
     3.4027   3.5486   3.5512   3.5637   3.5674   3.6855   3.7290

     the Fermi energy is     3.0290 ev

!    total energy              =   -2939.00597606 Ry
     estimated scf accuracy    <       0.00000002 Ry
     smearing contrib. (-TS)   =      -0.02208057 Ry
     internal energy E=F+TS    =   -2938.98389549 Ry

     The total energy is F=E-TS. E is the sum of the following terms:
     one-electron contribution =  -24450.27352700 Ry
     hartree contribution      =   12310.20624576 Ry
     xc contribution           =    -485.13726532 Ry
     ewald contribution        =    9686.22047611 Ry
     electric field correction =       0.00017497 Ry

     convergence has been achieved in  66 iterations

     Forces acting on atoms (cartesian axes, Ry/au):

     atom    1 type  1   force =     0.00019095   -0.00027774    0.09687798
     atom    2 type  1   force =     0.00006191   -0.00078075   -0.17498248
     atom    3 type  2   force =     0.00014669   -0.00008687   -0.02554254
     atom    4 type  2   force =    -0.00003055   -0.00142822    0.05152735
     atom    5 type  2   force =    -0.01206185   -0.00173350    0.00278755
     atom    6 type  2   force =     0.01348165   -0.00134218    0.00222844
     atom    7 type  1   force =     0.00040249    0.00015693   -0.01207333
     atom    8 type  1   force =     0.00019102    0.02418769    0.02898921
     atom    9 type  2   force =    -0.00004263    0.00052254   -0.00006089
     atom   10 type  2   force =    -0.00266351    0.00014717   -0.01163934
     atom   11 type  2   force =    -0.00002355    0.00027371    0.00005991
     atom   12 type  2   force =    -0.00025678   -0.00000535    0.00015374
     atom   13 type  1   force =    -0.00012065    0.00114341   -0.00022688
     atom   14 type  1   force =    -0.00000101    0.00051200    0.00001124
     atom   15 type  2   force =     0.00011740   -0.00013657   -0.00005265
     atom   16 type  2   force =    -0.00020853    0.00022718   -0.00019313
     atom   17 type  2   force =     0.00037794    0.00021110   -0.00028454
     atom   18 type  2   force =    -0.00038623    0.00020418    0.00006196
     atom   19 type  1   force =    -0.00016925   -0.00027885   -0.00068840
     atom   20 type  1   force =     0.00016063   -0.00019504   -0.00024419
     atom   21 type  2   force =     0.00006882   -0.00007352    0.10300491
     atom   22 type  2   force =     0.00005462   -0.00012312   -0.00024924
     atom   23 type  2   force =    -0.07169782   -0.00017183   -0.02792456
     atom   24 type  2   force =     0.07160319    0.00028779   -0.02796114
     atom   25 type  1   force =     0.00004089   -0.00025492    0.09680786
     atom   26 type  1   force =    -0.00000666   -0.00018148   -0.17516278
     atom   27 type  2   force =     0.00015536   -0.00026883   -0.02420684
     atom   28 type  2   force =     0.00001470   -0.00117854    0.05207488
     atom   29 type  2   force =    -0.01222244    0.00078100    0.00246517
     atom   30 type  2   force =     0.01352553    0.00126427    0.00187442
     atom   31 type  1   force =     0.00045683    0.00287706   -0.01398445
     atom   32 type  1   force =     0.00038738   -0.02517915    0.03048409
     atom   33 type  2   force =     0.00004339   -0.00007958   -0.00017069
     atom   34 type  2   force =    -0.00184292   -0.00050143   -0.02069413
     atom   35 type  2   force =    -0.00000249    0.00021390   -0.00004115
     atom   36 type  2   force =     0.00016447    0.00032176    0.00017851
     atom   37 type  1   force =    -0.00020297   -0.00086288   -0.00006450
     atom   38 type  1   force =     0.00008420    0.00010851   -0.00024339
     atom   39 type  2   force =     0.00010928    0.00032162    0.00010168
     atom   40 type  2   force =    -0.00007899    0.00009906    0.00047875
     atom   41 type  2   force =     0.00065765   -0.00001040    0.00006946
     atom   42 type  2   force =    -0.00056088   -0.00024190    0.00004233
     atom   43 type  1   force =    -0.00038193    0.00038633   -0.00000548
     atom   44 type  1   force =     0.00020104   -0.00019930   -0.00002070
     atom   45 type  2   force =     0.00005212   -0.00006673    0.10302961
     atom   46 type  2   force =    -0.07172621   -0.00012005   -0.02792534
     atom   47 type  2   force =     0.07161525    0.00025694   -0.02794958
     atom   48 type  3   force =    -0.00483418   -0.00096476   -0.01328879
     atom   49 type  4   force =     0.00672296    0.00035588    0.00843355
     atom   50 type  5   force =    -0.00020989    0.00055785    0.00001118
     atom   51 type  3   force =     0.00005628    0.00096700    0.00346543
     atom   52 type  5   force =    -0.00133942    0.00055948    0.00039921
     atom   53 type  5   force =    -0.00007328   -0.00020089    0.00026272

     Total force =     0.369456     Total SCF correction =     0.000527
  @ DRIVER MODE: Message from server: STATUS
  @ DRIVER MODE: Message from server: GETFORCE
  @ DRIVER MODE: Returning v,forces,stress,ensemble

     Writing output data file ./calc.save/
  @ DRIVER MODE: Message from server: EXIT
  @ DRIVE MODE: Exiting

     General routines

     Parallel routines

   This run was terminated on:  16:19: 6  23Aug2021

   JOB DONE.