     Program PWSCF v.6.7GPU starts on 18Oct2021 at 17:26:58

     R & G space division:  proc/nbgrp/npool/nimage =       8
     Reading input from /storage/home/hcoda1/3/ntian30/research/carbon/CxH_vib/Thiel_calc/ads_slab/NH3NH2H_perslab/out_0012/pw.inp
Warning: card &CELL ignored
Warning: card   CELL_DYNAMICS='IPI', ignored
Warning: card / ignored

     Current dimensions of program PWSCF are:
     Max number of different atomic species (ntypx) = 10
     Max number of k-points (npk) =  40000
     Max angular momentum in pseudopotentials (lmaxx) =  3
     Presently no symmetry can be used with electric field

     Message from routine cell_base_init:
     DEPRECATED: use true lattice parameter, not A to a.u. conversion factor

     IMPORTANT: XC functional enforced from input :
     Exchange-correlation= BEEF-VDW
                           (   1   4  43  14   2   0   0)
     Any further DFT definition will be discarded
     Please, verify this is what you really want

  @ DRIVER MODE: Connecting to
 qe_1139763_3255139.sched-torque.pace.gatech.edua7zgb9nw_scratch
  using UNIX socket
  @ DRIVER MODE: Message from server: STATUS
  @ DRIVER MODE: Message from server: INIT
  @ DRIVER MODE: Receiving replica           0          -1
  @ DRIVER MODE: Receiving encoded integer          25
  @ DRIVER MODE:  SCF:  T  FORCE:  T  STRESS:  F  VC:  F  ENSEMBLE:  F
  @ DRIVER MODE:  SCF:  T  FORCE:  T  STRESS:  F  VC:  F  ENSEMBLE:  F

     Using Slab Decomposition

     bravais-lattice index     =            0
     lattice parameter (alat)  =       1.8897  a.u.
     unit-cell volume          =    9988.4706 (a.u.)^3
     number of atoms/cell      =           61
     number of atomic types    =            4
     number of electrons       =       442.00
     number of Kohn-Sham states=          231
     kinetic-energy cutoff     =      29.3995  Ry
     charge density cutoff     =     293.9946  Ry
     scf convergence threshold =      7.3E-08
     mixing beta               =       0.0500
     number of iterations used =            8  plain     mixing
     Exchange-correlation= BEEF-VDW
                           (   1   4  43  14   2   0   0)

     celldm(1)=   1.889726  celldm(2)=   0.000000  celldm(3)=   0.000000
     celldm(4)=   0.000000  celldm(5)=   0.000000  celldm(6)=   0.000000

     crystal axes: (cart. coord. in units of alat)
               a(1) = (   6.579727   0.000000   0.000000 )
               a(2) = (  -0.001163   8.942395   0.000000 )
               a(3) = (   0.000000   0.000000  25.155947 )

     reciprocal axes: (cart. coord. in units 2 pi/alat)
               b(1) = (  0.151982  0.000020  0.000000 )
               b(2) = (  0.000000  0.111827  0.000000 )
               b(3) = (  0.000000  0.000000  0.039752 )

     PseudoPot. # 1 for O  read from file:
     /storage/coda1/p-amedford6/0/shared/rich_project_chbe-medford/medford-share/data/pseudos_module/espresso/nninc/pbe/van/O.UPF
     MD5 check sum: 78c19812648e8988a0fe644b0f25305e
     Pseudo is Ultrasoft, Zval =  6.0
     Generated by new atomic code, or converted to UPF format
     Using radial grid of  737 points,  4 beta functions with:
                l(1) =   0
                l(2) =   0
                l(3) =   1
                l(4) =   1
     Q(r) pseudized with  8 coefficients,  rinner =    0.800   0.800   0.800

     PseudoPot. # 2 for Ti read from file:
     /storage/coda1/p-amedford6/0/shared/rich_project_chbe-medford/medford-share/data/pseudos_module/espresso/nninc/pbe/van/Ti.UPF
     MD5 check sum: 8e4df49b7f0d34bbd5052bf3f5ea0213
     Pseudo is Ultrasoft, Zval = 12.0
     Generated by new atomic code, or converted to UPF format
     Using radial grid of  851 points,  6 beta functions with:
                l(1) =   0
                l(2) =   0
                l(3) =   1
                l(4) =   1
                l(5) =   2
                l(6) =   2
     Q(r) pseudized with  8 coefficients,  rinner =    1.000   1.000   1.000
                                                       1.000   1.000

     PseudoPot. # 3 for H  read from file:
     /storage/coda1/p-amedford6/0/shared/rich_project_chbe-medford/medford-share/data/pseudos_module/espresso/nninc/pbe/van/H.UPF
     MD5 check sum: b5ee9d7bfd3a09ee7748110bda690ff7
     Pseudo is Ultrasoft, Zval =  1.0
     Generated by new atomic code, or converted to UPF format
     Using radial grid of  615 points,  1 beta functions with:
                l(1) =   0
     Q(r) pseudized with  8 coefficients,  rinner =    0.800

     PseudoPot. # 4 for N  read from file:
     /storage/coda1/p-amedford6/0/shared/rich_project_chbe-medford/medford-share/data/pseudos_module/espresso/nninc/pbe/van/N.UPF
     MD5 check sum: 90d10febe142ad51ac9d5be1deb811c4
     Pseudo is Ultrasoft, Zval =  5.0
     Generated by new atomic code, or converted to UPF format
     Using radial grid of  729 points,  4 beta functions with:
                l(1) =   0
                l(2) =   0
                l(3) =   1
                l(4) =   1
     Q(r) pseudized with  8 coefficients,  rinner =    0.800   0.800   0.800

     atomic species   valence    mass     pseudopotential
        O1             6.00    15.99900     O ( 1.00)
        Ti1           12.00    47.86700     Ti( 1.00)
        H1             1.00     1.00800     H ( 1.00)
        N1             5.00    14.00700     N ( 1.00)

     No symmetry found

   Cartesian axes

     site n.     atom                  positions (alat units)
         1           O1  tau(   1) = (   0.0007354   0.0005023  10.5931620  )
         2           O1  tau(   2) = (   3.2892937   8.9423630  13.8814308  )
         3           O1  tau(   3) = (   6.5785080   0.0907754  17.2996570  )
         4           O1  tau(   4) = (   0.0006271   0.0005054   7.9858123  )
         5           O1  tau(   5) = (   3.2892617   8.9274694  11.1867540  )
         6           O1  tau(   6) = (   0.0001068   0.0384811  14.5856928  )
         7           O1  tau(   7) = (   1.9868534   1.4903216   9.2879459  )
         8           O1  tau(   8) = (   5.2392332   1.6199063  12.5840971  )
         9           O1  tau(   9) = (   2.0046145   1.5651943  16.0652335  )
        10           Ti1 tau(  10) = (   0.0007404   1.4906270   9.2895810  )
        11           Ti1 tau(  11) = (   3.2903033   1.3475644  12.4784176  )
        12           Ti1 tau(  12) = (   0.0002083   1.2954417  15.7753146  )
        13           O1  tau(  13) = (   4.5942328   1.4918067   9.2879030  )
        14           O1  tau(  14) = (   1.3408909   1.6195689  12.5841697  )
        15           O1  tau(  15) = (   4.5747373   1.5650701  16.0650860  )
        16           Ti1 tau(  16) = (   3.2902859   2.9801868   9.2893338  )
        17           Ti1 tau(  17) = (   0.0003213   2.8429885  12.4272127  )
        18           Ti1 tau(  18) = (   3.2894782   2.8703589  15.6911549  )
        19           O1  tau(  19) = (   0.0003479   2.9813005  10.5931620  )
        20           O1  tau(  20) = (   3.2897922   2.9583395  13.9032781  )
        21           O1  tau(  21) = (   0.0002396   2.9813036   7.9858123  )
        22           O1  tau(  22) = (   3.2900450   2.9730570  11.1907869  )
        23           O1  tau(  23) = (   0.0001206   2.9807552  14.9070210  )
        24           O1  tau(  24) = (   1.9864658   4.4711199   9.2879459  )
        25           O1  tau(  25) = (   5.2482068   4.5640541  12.6028892  )
        26           O1  tau(  26) = (   2.0118887   4.5193519  16.0312246  )
        27           Ti1 tau(  27) = (   0.0003529   4.4714252   9.2895810  )
        28           Ti1 tau(  28) = (   3.2901403   4.3402809  12.5217819  )
        29           Ti1 tau(  29) = (   0.0009811   4.3515161  16.1888847  )
        30           O1  tau(  30) = (   4.5938453   4.4726049   9.2879030  )
        31           O1  tau(  31) = (   1.3314901   4.5639303  12.6028828  )
        32           O1  tau(  32) = (   4.5682806   4.5188618  16.0312494  )
        33           Ti1 tau(  33) = (   3.2898983   5.9609850   9.2893338  )
        34           Ti1 tau(  34) = (   0.0001002   5.8006911  12.4939615  )
        35           Ti1 tau(  35) = (   3.2910898   5.8128663  15.8108673  )
        36           O1  tau(  36) = (  -0.0000397   5.9620987  10.5931620  )
        37           O1  tau(  37) = (   3.2898758   5.9691391  13.9384534  )
        38           O1  tau(  38) = (   0.0001572   5.9906873  17.2924393  )
        39           O1  tau(  39) = (  -0.0001480   5.9621018   7.9858123  )
        40           O1  tau(  40) = (   3.2897271   5.9334558  11.2049738  )
        41           O1  tau(  41) = (   0.0000685   5.9641935  14.6703060  )
        42           O1  tau(  42) = (   1.9860782   7.4519181   9.2879459  )
        43           O1  tau(  43) = (   5.2398882   7.5535610  12.5750285  )
        44           O1  tau(  44) = (   1.9879998   7.5809304  16.0172394  )
        45           Ti1 tau(  45) = (  -0.0000347   7.4522234   9.2895810  )
        46           Ti1 tau(  46) = (   3.2896426   7.2731609  12.5447809  )
        47           Ti1 tau(  47) = (   0.0002275   7.1890881  15.9781391  )
        48           O1  tau(  48) = (   4.5934577   7.4534031   9.2879030  )
        49           O1  tau(  49) = (   1.3388943   7.5534522  12.5751898  )
        50           O1  tau(  50) = (   4.5903976   7.5792304  16.0166626  )
        51           Ti1 tau(  51) = (   3.2895107   8.9417832   9.2893338  )
        52           Ti1 tau(  52) = (  -0.0003648   8.7758640  12.4444508  )
        53           Ti1 tau(  53) = (   3.2897763   8.8353469  15.6829021  )
        54           H1  tau(  54) = (   0.0028024   0.0378429  18.2586218  )
        55           N1  tau(  55) = (   0.0000016   3.3024973  17.8530138  )
        56           H1  tau(  56) = (   6.5772996   2.3364033  18.1430564  )
        57           H1  tau(  57) = (   6.5785254   3.8921159  18.6668881  )
        58           N1  tau(  58) = (   3.2892544   5.9906839  18.1401779  )
        59           H1  tau(  59) = (   3.2890604   5.0659402  18.5578254  )
        60           H1  tau(  60) = (   2.4549486   6.4784715  18.4500629  )
        61           H1  tau(  61) = (   4.1227990   6.4789769  18.4516084  )

     number of k points=    10  Fermi-Dirac smearing, width (Ry)=  0.0073
                       cart. coord. in units 2pi/alat
        k(    1) = (   0.0000000   0.0000000   0.0000000), wk =   0.1250000
        k(    2) = (   0.0000000   0.0279567   0.0000000), wk =   0.2500000
        k(    3) = (   0.0000000  -0.0559134   0.0000000), wk =   0.1250000
        k(    4) = (   0.0379955   0.0000049   0.0000000), wk =   0.2500000
        k(    5) = (   0.0379955   0.0279617   0.0000000), wk =   0.2500000
        k(    6) = (   0.0379955  -0.0559085   0.0000000), wk =   0.2500000
        k(    7) = (   0.0379955  -0.0279518   0.0000000), wk =   0.2500000
        k(    8) = (  -0.0759910  -0.0000099   0.0000000), wk =   0.1250000
        k(    9) = (  -0.0759910   0.0279468   0.0000000), wk =   0.2500000
        k(   10) = (  -0.0759910  -0.0559233   0.0000000), wk =   0.1250000

     Initial potential from superposition of free atoms

     starting charge  423.99908, renormalised to  442.00000

     negative rho (up, down):  3.653E-02 0.000E+00

     %%%%%%%%%%%%%%%%%%%%%%%%%%%%%%%%%%%%%%%%%%%%%%%%%%%%%%%%%%%%%%%%%%%%%%%%
     %                                                                      %
     % You are using vdW-DF, which was implemented by the Thonhauser group. %
     % Please cite the following two papers that made this development      %
     % possible and the two reviews that describe the various versions:     %
     %                                                                      %
     %   T. Thonhauser et al., PRL 115, 136402 (2015).                      %
     %   T. Thonhauser et al., PRB 76, 125112 (2007).                       %
     %   K. Berland et al., Rep. Prog. Phys. 78, 066501 (2015).             %
     %   D.C. Langreth et al., J. Phys.: Condens. Matter 21, 084203 (2009). %
     %                                                                      %
     %                                                                      %
     % If you are calculating the stress with vdW-DF, please also cite:     %
     %                                                                      %
     %   R. Sabatini et al., J. Phys.: Condens. Matter 24, 424209 (2012).   %
     %                                                                      %
     %%%%%%%%%%%%%%%%%%%%%%%%%%%%%%%%%%%%%%%%%%%%%%%%%%%%%%%%%%%%%%%%%%%%%%%%

     Adding external electric field

     Computed dipole along edir(3) :
        Dipole               -6.3714 Ry au,        -16.1945 Debye
        Dipole field         -0.0080 Ry au,

        Potential amp.        0.7431 Ry
        Total length         46.3494 bohr

     Starting wfcs are  334 atomic wfcs
  @ DRIVER MODE: Message from server: STATUS
  @ DRIVER MODE: Message from server: POSDATA
  @ DRIVER MODE: Reading and sharing cell
  @ DRIVER MODE: Reading and sharing positions
  @ DRIVER MODE: Received positions

     Self-consistent Calculation

     iteration #  1     ecut=    29.40 Ry     beta= 0.05
     Davidson diagonalization with overlap
     c_bands:  2 eigenvalues not converged
     c_bands:  3 eigenvalues not converged
     c_bands:  3 eigenvalues not converged
     c_bands:  2 eigenvalues not converged
     c_bands:  1 eigenvalues not converged
     c_bands:  4 eigenvalues not converged
     c_bands:  1 eigenvalues not converged
     c_bands:  1 eigenvalues not converged
     c_bands:  5 eigenvalues not converged
     ethr =  1.00E-05,  avg # of iterations = 20.0

[...]

     total energy              =   -3277.08399052 Ry
     estimated scf accuracy    <     252.40545673 Ry

     iteration #  2     ecut=    29.40 Ry     beta= 0.05
     Davidson diagonalization with overlap
     ethr =  1.00E-02,  avg # of iterations = 15.7

[...]

     iteration # 47     ecut=    29.40 Ry     beta= 0.05
     Davidson diagonalization with overlap
     c_bands:  1 eigenvalues not converged
     ethr =  7.71E-10,  avg # of iterations = 15.7

[...]

     total energy              =   -3295.81865067 Ry
     estimated scf accuracy    <       0.00000008 Ry

     iteration # 55     ecut=    29.40 Ry     beta= 0.05
     Davidson diagonalization with overlap
     ethr =  1.83E-11,  avg # of iterations =  9.6

     negative rho (up, down):  3.515E-02 0.000E+00

     Adding external electric field

     Computed dipole along edir(3) :
        Dipole                1.9982 Ry au,          5.0789 Debye
        Dipole field          0.0025 Ry au,

        Potential amp.       -0.2330 Ry
        Total length         46.3494 bohr

     End of self-consistent calculation

          k = 0.0000 0.0000 0.0000 ( 26871 PWs)   bands (ev):

   -57.4517 -57.4287 -57.4201 -57.4129 -57.3689 -57.3624 -57.3175 -57.3127
   -57.2987 -57.2694 -57.2488 -57.2405 -57.2315 -57.1966 -57.0167 -56.5168
   -56.4901 -56.4736 -33.8491 -33.8380 -33.8310 -33.8267 -33.8183 -33.7849
   -33.7736 -33.7674 -33.7586 -33.7463 -33.7409 -33.7199 -33.6994 -33.6864
   -33.6587 -33.6555 -33.6435 -33.6397 -33.6196 -33.6184 -33.5970 -33.5865
   -33.5643 -33.5595 -33.5592 -33.5496 -33.5460 -33.5435 -33.5433 -33.5325
   -33.5233 -33.5113 -33.4961 -33.4800 -33.4730 -33.4619 -33.4470 -33.4450
   -33.4406 -33.4380 -33.4095 -33.3861 -33.3470 -33.3109 -33.2380 -32.8363
   -32.8290 -32.8154 -32.8083 -32.7941 -32.7412 -32.6824 -32.6624 -32.5374
   -19.1421 -18.3066 -17.9789 -17.7630 -17.7158 -17.6932 -17.6115 -17.5475
   -17.5388 -17.4662 -17.3904 -17.3104 -17.2829 -17.2772 -17.2433 -17.2150
   -17.1963 -17.1721 -17.1710 -17.1301 -17.1199 -17.1002 -17.0736 -17.0263
   -16.9531 -16.9398 -16.9056 -16.8986 -16.8933 -16.8931 -16.7501 -16.6712
   -16.5905 -15.2778 -14.9770 -14.9206 -14.9133  -7.7048  -7.6409  -7.2363
    -6.7908  -5.6304  -5.4698  -5.3847  -5.2826  -4.9439  -4.8776  -4.8556
    -4.8429  -4.7964  -4.7580  -4.7577  -4.7002  -4.6907  -4.6712  -4.5902
    -4.5776  -4.5552  -4.5030  -4.4802  -4.4311  -4.4300  -4.3806  -4.3216
    -4.2735  -4.2673  -4.2662  -4.2403  -4.2357  -4.2147  -4.2126  -4.0987
    -4.0914  -4.0182  -3.9111  -3.8910  -3.8436  -3.7825  -3.7671  -3.7462
    -3.7189  -3.6565  -3.6102  -3.5569  -3.5494  -3.5356  -3.4701  -3.4474
    -3.3674  -3.2623  -3.2503  -3.2170  -3.1729  -3.1583  -3.1111  -3.0818
    -3.0072  -2.9335  -2.8536  -2.8278  -2.7226  -2.6776  -2.6577  -2.6248
    -2.6180  -2.5442  -2.5401  -2.5157  -2.3632  -2.2593  -2.2500  -2.2306
    -2.2187  -2.1919  -2.1885  -2.1611  -2.0960  -2.0498  -2.0418  -2.0260
    -2.0058  -1.9942  -1.9046  -1.8458  -1.8185  -1.7900  -1.7737  -1.6794
    -1.6408  -1.6041  -1.5940  -1.4899  -1.4344  -1.3286  -1.3238  -1.3087
    -1.2389  -1.1923  -1.1202  -0.7986  -0.6134  -0.5620  -0.2749  -0.2168
    -0.2088   0.0511   0.0634   0.1916   1.5371   1.7682   1.9692   1.9711
     1.9867   2.0574   2.1247   2.1392   2.2033   2.2579   2.2726

[...]

          k = 0.0380-0.0280 0.0000 ( 26873 PWs)   bands (ev):

[...]

          k =-0.0760-0.0000 0.0000 ( 26902 PWs)   bands (ev):

[...]

          k =-0.0760-0.0559 0.0000 ( 26868 PWs)   bands (ev):

   -57.4462 -57.4391 -57.4151 -57.4122 -57.3696 -57.3627 -57.3165 -57.3134
   -57.2978 -57.2679 -57.2515 -57.2424 -57.2297 -57.1960 -57.0167 -56.5142
   -56.4954 -56.4708 -33.9283 -33.9101 -33.8613 -33.8290 -33.8131 -33.7889
   -33.7800 -33.7714 -33.7296 -33.7152 -33.6997 -33.6696 -33.6473 -33.6429
   -33.6391 -33.6184 -33.6052 -33.6043 -33.6028 -33.5953 -33.5933 -33.5873
   -33.5757 -33.5666 -33.5636 -33.5619 -33.5414 -33.5357 -33.5293 -33.5237
   -33.5227 -33.5197 -33.5107 -33.5079 -33.5009 -33.4926 -33.4626 -33.4619
   -33.4533 -33.4414 -33.4398 -33.4009 -33.3678 -33.3104 -33.2414 -32.9177
   -32.8319 -32.8143 -32.7914 -32.7293 -32.7081 -32.6525 -32.6427 -32.6238
   -19.1355 -18.0001 -17.9285 -17.6867 -17.6334 -17.6204 -17.6055 -17.5686
   -17.5141 -17.4834 -17.4414 -17.4167 -17.3781 -17.3318 -17.3194 -17.2452
   -17.2404 -17.2367 -17.1706 -17.1686 -17.1510 -17.1061 -17.0927 -17.0700
   -17.0211 -16.9801 -16.9655 -16.8874 -16.8621 -16.8221 -16.7277 -16.6581
   -16.6238 -15.2753 -14.9783 -14.9679 -14.8551  -7.6869  -7.6392  -7.2271
    -6.7930  -5.2522  -5.2209  -5.1858  -5.1575  -5.0521  -4.8658  -4.7906
    -4.7578  -4.7525  -4.6888  -4.6676  -4.6625  -4.6177  -4.6053  -4.5806
    -4.5575  -4.5252  -4.4934  -4.4857  -4.4488  -4.4169  -4.4023  -4.3808
    -4.3630  -4.3564  -4.3435  -4.2552  -4.1934  -4.1658  -4.1194  -4.0928
    -4.0690  -4.0227  -4.0136  -3.9698  -3.9271  -3.7182  -3.6309  -3.6154
    -3.6135  -3.5879  -3.5517  -3.4956  -3.4380  -3.4063  -3.3758  -3.2493
    -3.2092  -3.1977  -3.1937  -3.1568  -3.0740  -3.0472  -3.0182  -2.9869
    -2.9705  -2.9207  -2.9077  -2.8679  -2.8272  -2.7525  -2.7121  -2.6747
    -2.6414  -2.6093  -2.5979  -2.5718  -2.5424  -2.5382  -2.5107  -2.4915
    -2.4192  -2.4176  -2.3784  -2.3221  -2.2491  -2.2154  -2.1975  -2.1187
    -2.0404  -1.9891  -1.9653  -1.9436  -1.8668  -1.7503  -1.7247  -1.7154
    -1.6819  -1.6340  -1.5824  -1.5493  -1.4987  -1.4078  -1.2767  -1.2563
    -1.1882  -1.0921  -1.0709  -1.0507  -0.8297  -0.7117  -0.4257  -0.1669
    -0.1221  -0.1029   0.0561   0.0637   1.6977   1.7646   1.8275   1.8604
     1.8768   1.9081   1.9108   1.9795   2.0357   2.1030   2.1235

     the Fermi energy is     1.6366 ev

!    total energy              =   -3295.81871473 Ry
     estimated scf accuracy    <       0.00000003 Ry
     smearing contrib. (-TS)   =      -0.03295546 Ry
     internal energy E=F+TS    =   -3295.78575927 Ry

     The total energy is F=E-TS. E is the sum of the following terms:
     one-electron contribution =  -34380.07189737 Ry
     hartree contribution      =   17259.25187813 Ry
     xc contribution           =    -543.90063862 Ry
     ewald contribution        =   14368.92987530 Ry
     electric field correction =       0.00502330 Ry

     convergence has been achieved in  55 iterations

     Forces acting on atoms (cartesian axes, Ry/au):

     atom    1 type  1   force =     0.00000516    0.00791101    0.05043390
     atom    2 type  1   force =    -0.00000888    0.00035384   -0.00974431
     atom    3 type  1   force =    -0.00002679   -0.00464062   -0.00073686
     atom    4 type  1   force =     0.00005787    0.00281893    0.10763569
     atom    5 type  1   force =     0.00000372    0.00070948    0.00923878
     atom    6 type  1   force =    -0.00000637   -0.00159404    0.00012941
     atom    7 type  1   force =     0.06464386    0.00007495   -0.02899726
     atom    8 type  1   force =     0.00389918   -0.02785984    0.00323591
     atom    9 type  1   force =     0.00820808   -0.01825780    0.00236093
     atom   10 type  2   force =    -0.00005260   -0.00798286   -0.19369316
     atom   11 type  2   force =    -0.00002818    0.02062488   -0.00634592
     atom   12 type  2   force =    -0.00004788    0.02167701   -0.00292173
     atom   13 type  1   force =    -0.06473747   -0.00038010   -0.02894618
     atom   14 type  1   force =    -0.00389807   -0.02783923    0.00323128
     atom   15 type  1   force =    -0.00819825   -0.01824094    0.00234878
     atom   16 type  2   force =     0.00010294    0.00058119    0.06676128
     atom   17 type  2   force =     0.00002089    0.03324427    0.00608118
     atom   18 type  2   force =     0.00001030    0.02079313    0.00201718
     atom   19 type  1   force =     0.00000384    0.00225531    0.05629394
     atom   20 type  1   force =    -0.00000661   -0.00131872   -0.00689345
     atom   21 type  1   force =     0.00005934   -0.00139445    0.10886413
     atom   22 type  1   force =     0.00000882   -0.00023513    0.00987969
     atom   23 type  1   force =     0.00000890   -0.00469881    0.00144145
     atom   24 type  1   force =     0.06620069   -0.00050980   -0.02949494
     atom   25 type  1   force =     0.00418534   -0.03009309    0.00219724
     atom   26 type  1   force =     0.00968117   -0.02423957    0.00223633
     atom   27 type  2   force =    -0.00006627    0.01376348   -0.18654024
     atom   28 type  2   force =    -0.00002069    0.02335534   -0.00579990
     atom   29 type  2   force =    -0.00004637    0.01572786   -0.00570821
     atom   30 type  1   force =    -0.06630901   -0.00096139   -0.02945155
     atom   31 type  1   force =    -0.00418066   -0.03006358    0.00219736
     atom   32 type  1   force =    -0.00961958   -0.02421677    0.00222971
     atom   33 type  2   force =     0.00009425   -0.00141680    0.06833626
     atom   34 type  2   force =     0.00002267    0.03781696    0.00395395
     atom   35 type  2   force =    -0.00001971    0.03593892    0.00795243
     atom   36 type  1   force =     0.00001542    0.00056045    0.06525658
     atom   37 type  1   force =    -0.00001064    0.00227775   -0.01105978
     atom   38 type  1   force =    -0.00000407   -0.00105781    0.00161767
     atom   39 type  1   force =     0.00005805   -0.00143507    0.10681395
     atom   40 type  1   force =     0.00000151   -0.00040251    0.00778002
     atom   41 type  1   force =    -0.00000110   -0.00056931    0.00584269
     atom   42 type  1   force =     0.06732853   -0.00097013   -0.02906917
     atom   43 type  1   force =     0.00312805   -0.02831050    0.00237512
     atom   44 type  1   force =     0.00712900   -0.02150204    0.00449462
     atom   45 type  2   force =    -0.00006973   -0.00849857   -0.18085505
     atom   46 type  2   force =    -0.00000230    0.01743602   -0.00233825
     atom   47 type  2   force =    -0.00005130    0.02049495   -0.00615704
     atom   48 type  1   force =    -0.06742514   -0.00141621   -0.02902364
     atom   49 type  1   force =    -0.00309578   -0.02830978    0.00237230
     atom   50 type  1   force =    -0.00710235   -0.02146401    0.00446439
     atom   51 type  2   force =     0.00012439   -0.00304040    0.06674248
     atom   52 type  2   force =     0.00000879    0.03510366    0.00725703
     atom   53 type  2   force =    -0.00002003    0.02410649    0.00308563
     atom   54 type  3   force =     0.00011024   -0.00012069    0.00061414
     atom   55 type  4   force =     0.00001881   -0.00078753   -0.01752643
     atom   56 type  3   force =    -0.00004845   -0.00275131    0.00338406
     atom   57 type  3   force =    -0.00001736    0.00688493    0.01237561
     atom   58 type  4   force =     0.00012759    0.00076834   -0.00154535
     atom   59 type  3   force =    -0.00000216   -0.00007280    0.00007078
     atom   60 type  3   force =    -0.00052343    0.00072341   -0.00035762
     atom   61 type  3   force =     0.00037983    0.00064962   -0.00039786

     Total force =     0.462030     Total SCF correction =     0.000448
  @ DRIVER MODE: Message from server: STATUS
  @ DRIVER MODE: Message from server: GETFORCE
  @ DRIVER MODE: Returning v,forces,stress,ensemble

     Writing output data file ./calc.save/
  @ DRIVER MODE: Message from server: EXIT
  @ DRIVE MODE: Exiting

     General routines

     Parallel routines

   This run was terminated on:  17:56:25  18Oct2021

   JOB DONE.