     Program PWSCF v.6.7GPU starts on 16Sep2021 at  4:40: 6

     R & G space division:  proc/nbgrp/npool/nimage =      10
     Reading input from /storage/home/hcoda1/3/ntian30/research/carbon/CxH_vib/H2O_calc/ads_slab/CH3NHNH2H2O_a/out_0037/pw.inp
Warning: card &CELL ignored
Warning: card   CELL_DYNAMICS='IPI', ignored
Warning: card / ignored

     Current dimensions of program PWSCF are:
     Max number of different atomic species (ntypx) = 10
     Max number of k-points (npk) =  40000
     Max angular momentum in pseudopotentials (lmaxx) =  3
     Presently no symmetry can be used with electric field

     Message from routine cell_base_init:
     DEPRECATED: use true lattice parameter, not A to a.u. conversion factor

     IMPORTANT: XC functional enforced from input :
     Exchange-correlation= BEEF-VDW
                           (   1   4  43  14   2   0   0)
     Any further DFT definition will be discarded
     Please, verify this is what you really want

  @ DRIVER MODE: Connecting to
 qe_1139763_2852619.sched-torque.pace.gatech.edu0sdkge4z_scratch
  using UNIX socket
  @ DRIVER MODE: Message from server: STATUS
  @ DRIVER MODE: Message from server: INIT
  @ DRIVER MODE: Receiving replica           0          -1
  @ DRIVER MODE: Receiving encoded integer          25
  @ DRIVER MODE:  SCF:  T  FORCE:  T  STRESS:  F  VC:  F  ENSEMBLE:  F
  @ DRIVER MODE:  SCF:  T  FORCE:  T  STRESS:  F  VC:  F  ENSEMBLE:  F

     Using Slab Decomposition

     bravais-lattice index     =            0
     lattice parameter (alat)  =       1.8897  a.u.
     unit-cell volume          =    6658.9804 (a.u.)^3
     number of atoms/cell      =           59
     number of atomic types    =            5
     number of electrons       =       406.00
     number of Kohn-Sham states=          213
     kinetic-energy cutoff     =      29.3995  Ry
     charge density cutoff     =     293.9946  Ry
     scf convergence threshold =      7.3E-08
     mixing beta               =       0.0500
     number of iterations used =            8  plain     mixing
     Exchange-correlation= BEEF-VDW
                           (   1   4  43  14   2   0   0)

     celldm(1)=   1.889726  celldm(2)=   0.000000  celldm(3)=   0.000000
     celldm(4)=   0.000000  celldm(5)=   0.000000  celldm(6)=   0.000000

     crystal axes: (cart. coord. in units of alat)
               a(1) = (   6.579727   0.000000   0.000000 )
               a(2) = (  -0.000775   5.961596   0.000000 )
               a(3) = (   0.000000   0.000000  25.155947 )

     reciprocal axes: (cart. coord. in units 2 pi/alat)
               b(1) = (  0.151982  0.000020  0.000000 )
               b(2) = (  0.000000  0.167740  0.000000 )
               b(3) = (  0.000000  0.000000  0.039752 )

     PseudoPot. # 1 for Ti read from file:
     /storage/coda1/p-amedford6/0/shared/rich_project_chbe-medford/medford-share/data/pseudos_module/espresso/nninc/pbe/van/Ti.UPF
     MD5 check sum: 8e4df49b7f0d34bbd5052bf3f5ea0213
     Pseudo is Ultrasoft, Zval = 12.0
     Generated by new atomic code, or converted to UPF format
     Using radial grid of  851 points,  6 beta functions with:
                l(1) =   0
                l(2) =   0
                l(3) =   1
                l(4) =   1
                l(5) =   2
                l(6) =   2
     Q(r) pseudized with  8 coefficients,  rinner =    1.000   1.000   1.000
                                                       1.000   1.000

     PseudoPot. # 2 for O  read from file:
     /storage/coda1/p-amedford6/0/shared/rich_project_chbe-medford/medford-share/data/pseudos_module/espresso/nninc/pbe/van/O.UPF
     MD5 check sum: 78c19812648e8988a0fe644b0f25305e
     Pseudo is Ultrasoft, Zval =  6.0
     Generated by new atomic code, or converted to UPF format
     Using radial grid of  737 points,  4 beta functions with:
                l(1) =   0
                l(2) =   0
                l(3) =   1
                l(4) =   1
     Q(r) pseudized with  8 coefficients,  rinner =    0.800   0.800   0.800

     PseudoPot. # 3 for N  read from file:
     /storage/coda1/p-amedford6/0/shared/rich_project_chbe-medford/medford-share/data/pseudos_module/espresso/nninc/pbe/van/N.UPF
     MD5 check sum: 90d10febe142ad51ac9d5be1deb811c4
     Pseudo is Ultrasoft, Zval =  5.0
     Generated by new atomic code, or converted to UPF format
     Using radial grid of  729 points,  4 beta functions with:
                l(1) =   0
                l(2) =   0
                l(3) =   1
                l(4) =   1
     Q(r) pseudized with  8 coefficients,  rinner =    0.800   0.800   0.800

     PseudoPot. # 4 for C  read from file:
     /storage/coda1/p-amedford6/0/shared/rich_project_chbe-medford/medford-share/data/pseudos_module/espresso/nninc/pbe/van/C.UPF
     MD5 check sum: 1a69bf6b8db32088f5b2163dbdb77a27
     Pseudo is Ultrasoft, Zval =  4.0
     Generated by new atomic code, or converted to UPF format
     Using radial grid of  721 points,  4 beta functions with:
                l(1) =   0
                l(2) =   0
                l(3) =   1
                l(4) =   1
     Q(r) pseudized with  8 coefficients,  rinner =    0.800   0.800   0.800

     PseudoPot. # 5 for H  read from file:
     /storage/coda1/p-amedford6/0/shared/rich_project_chbe-medford/medford-share/data/pseudos_module/espresso/nninc/pbe/van/H.UPF
     MD5 check sum: b5ee9d7bfd3a09ee7748110bda690ff7
     Pseudo is Ultrasoft, Zval =  1.0
     Generated by new atomic code, or converted to UPF format
     Using radial grid of  615 points,  1 beta functions with:
                l(1) =   0
     Q(r) pseudized with  8 coefficients,  rinner =    0.800

     atomic species   valence    mass     pseudopotential
        Ti1           12.00    47.86700     Ti( 1.00)
        O1             6.00    15.99900     O ( 1.00)
        N1             5.00    14.00700     N ( 1.00)
        C1             4.00    12.01100     C ( 1.00)
        H1             1.00     1.00800     H ( 1.00)

     No symmetry found

   Cartesian axes

     site n.     atom                  positions (alat units)
         1           Ti1 tau(   1) = (   0.0004258   2.9801865   6.0000000  )
         2           Ti1 tau(   2) = (   3.2906075   1.4906267   6.0002472  )
         3           O1  tau(   3) = (   0.0006271   0.0005054   7.9858123  )
         4           O1  tau(   4) = (   3.2906025   0.0005020   7.3038282  )
         5           O1  tau(   5) = (   4.5942328   1.4918067   9.2879030  )
         6           O1  tau(   6) = (   1.9868534   1.4903216   9.2879459  )
         7           Ti1 tau(   7) = (   3.2907910   2.8959150   9.1758416  )
         8           Ti1 tau(   8) = (   0.0015273   1.4827037   9.2680791  )
         9           O1  tau(   9) = (   3.2683845   0.0132936  11.3796717  )
        10           O1  tau(  10) = (   0.0116148   5.9584955  10.6183126  )
        11           O1  tau(  11) = (   1.2681313   1.5011218  12.7194972  )
        12           O1  tau(  12) = (   5.2787963   1.4993765  12.6897032  )
        13           Ti1 tau(  13) = (   6.5560253   2.9823375  12.4990790  )
        14           Ti1 tau(  14) = (   3.2673924   1.4925278  12.5394213  )
        15           O1  tau(  15) = (   6.5345332   5.8735037  14.6996474  )
        16           O1  tau(  16) = (   3.2898196   5.9462848  13.9939205  )
        17           O1  tau(  17) = (   4.4957945   1.5291507  16.1605787  )
        18           O1  tau(  18) = (   1.9883785   1.5110281  16.0762771  )
        19           Ti1 tau(  19) = (   3.2526948   3.0056396  15.7740191  )
        20           Ti1 tau(  20) = (   0.0000763   1.3299063  15.8143521  )
        21           O1  tau(  21) = (   3.2904802   0.0005063   4.7018136  )
        22           O1  tau(  22) = (   6.5205728   0.2065101  17.2442985  )
        23           O1  tau(  23) = (   1.3043587   1.4918075   6.0039043  )
        24           O1  tau(  24) = (   5.2767064   1.4903225   6.0039473  )
        25           Ti1 tau(  25) = (   0.0000382   5.9609847   6.0000000  )
        26           Ti1 tau(  26) = (   3.2902200   4.4714249   6.0002472  )
        27           O1  tau(  27) = (   0.0002396   2.9813036   7.9858123  )
        28           O1  tau(  28) = (   3.2902150   2.9813002   7.3038282  )
        29           O1  tau(  29) = (   4.5938453   4.4726049   9.2879030  )
        30           O1  tau(  30) = (   1.9864658   4.4711199   9.2879459  )
        31           Ti1 tau(  31) = (   3.2891106   5.8743827   9.1763621  )
        32           Ti1 tau(  32) = (   0.0006254   4.4649316   9.2693709  )
        33           O1  tau(  33) = (   3.2688559   2.9716192  11.3757022  )
        34           O1  tau(  34) = (   0.0092240   2.9805883  10.6323155  )
        35           O1  tau(  35) = (   1.2711362   4.4646907  12.6658965  )
        36           O1  tau(  36) = (   5.2748280   4.4660984  12.6332574  )
        37           Ti1 tau(  37) = (   6.5627654   5.9477838  12.5072267  )
        38           Ti1 tau(  38) = (   3.2667511   4.4702655  12.5260729  )
        39           O1  tau(  39) = (   6.5087961   3.0586107  15.0099536  )
        40           O1  tau(  40) = (   3.2849776   3.0149387  13.9815115  )
        41           O1  tau(  41) = (   4.4906635   4.4862850  16.2792570  )
        42           O1  tau(  42) = (   1.9756856   4.4939852  16.2100911  )
        43           Ti1 tau(  43) = (   3.2747729   0.0241646  15.7895078  )
        44           Ti1 tau(  44) = (   6.5697470   4.5456975  16.1185117  )
        45           O1  tau(  45) = (   3.2900926   2.9813045   4.7018136  )
        46           O1  tau(  46) = (   1.3039711   4.4726057   6.0039043  )
        47           O1  tau(  47) = (   5.2763189   4.4711207   6.0039473  )
        48           N1  tau(  48) = (   0.9980056   3.0961469  19.0053282  )
        49           N1  tau(  49) = (   6.4063515   3.4839273  18.2229180  )
        50           C1  tau(  50) = (   1.6570833   4.2684698  19.5811903  )
        51           H1  tau(  51) = (   0.9936588   4.8902639  20.1979557  )
        52           H1  tau(  52) = (   2.4789334   3.9063689  20.1993048  )
        53           H1  tau(  53) = (   2.0598354   4.8861676  18.7819781  )
        54           H1  tau(  54) = (   0.6410520   2.5058952  19.7602174  )
        55           H1  tau(  55) = (   5.8507131   4.1735594  18.7414995  )
        56           H1  tau(  56) = (   5.8147758   2.6545292  18.1916272  )
        57           O1  tau(  57) = (   5.1718451   0.7889162  19.5681371  )
        58           H1  tau(  58) = (   5.5516362   0.5215711  18.6954158  )
        59           H1  tau(  59) = (   4.2099197   0.7512590  19.4668632  )

     number of k points=    10  Fermi-Dirac smearing, width (Ry)=  0.0073
                       cart. coord. in units 2pi/alat
        k(    1) = (   0.0000000   0.0000000   0.0000000), wk =   0.1250000
        k(    2) = (   0.0000000   0.0419351   0.0000000), wk =   0.2500000
        k(    3) = (   0.0000000  -0.0838702   0.0000000), wk =   0.1250000
        k(    4) = (   0.0379955   0.0000049   0.0000000), wk =   0.2500000
        k(    5) = (   0.0379955   0.0419400   0.0000000), wk =   0.2500000
        k(    6) = (   0.0379955  -0.0838652   0.0000000), wk =   0.2500000
        k(    7) = (   0.0379955  -0.0419301   0.0000000), wk =   0.2500000
        k(    8) = (  -0.0759910  -0.0000099   0.0000000), wk =   0.1250000
        k(    9) = (  -0.0759910   0.0419252   0.0000000), wk =   0.2500000
        k(   10) = (  -0.0759910  -0.0838800   0.0000000), wk =   0.1250000

     Initial potential from superposition of free atoms

     starting charge  389.99912, renormalised to  406.00000

     negative rho (up, down):  1.389E-02 0.000E+00

     %%%%%%%%%%%%%%%%%%%%%%%%%%%%%%%%%%%%%%%%%%%%%%%%%%%%%%%%%%%%%%%%%%%%%%%%
     %                                                                      %
     % You are using vdW-DF, which was implemented by the Thonhauser group. %
     % Please cite the following two papers that made this development      %
     % possible and the two reviews that describe the various versions:     %
     %                                                                      %
     %   T. Thonhauser et al., PRL 115, 136402 (2015).                      %
     %   T. Thonhauser et al., PRB 76, 125112 (2007).                       %
     %   K. Berland et al., Rep. Prog. Phys. 78, 066501 (2015).             %
     %   D.C. Langreth et al., J. Phys.: Condens. Matter 21, 084203 (2009). %
     %                                                                      %
     %                                                                      %
     % If you are calculating the stress with vdW-DF, please also cite:     %
     %                                                                      %
     %   R. Sabatini et al., J. Phys.: Condens. Matter 24, 424209 (2012).   %
     %                                                                      %
     %%%%%%%%%%%%%%%%%%%%%%%%%%%%%%%%%%%%%%%%%%%%%%%%%%%%%%%%%%%%%%%%%%%%%%%%

     Adding external electric field

     Computed dipole along edir(3) :
        Dipole              -16.7176 Ry au,        -42.4920 Debye
        Dipole field         -0.0315 Ry au,

        Potential amp.        2.9245 Ry
        Total length         46.3494 bohr

     Starting wfcs are  308 atomic wfcs
  @ DRIVER MODE: Message from server: STATUS
  @ DRIVER MODE: Message from server: POSDATA
  @ DRIVER MODE: Reading and sharing cell
  @ DRIVER MODE: Reading and sharing positions
  @ DRIVER MODE: Received positions

     Self-consistent Calculation

     iteration #  1     ecut=    29.40 Ry     beta= 0.05
     Davidson diagonalization with overlap
     c_bands:  2 eigenvalues not converged
     c_bands:  3 eigenvalues not converged
     c_bands:  2 eigenvalues not converged
     c_bands:  4 eigenvalues not converged
     c_bands:  1 eigenvalues not converged
     c_bands:  4 eigenvalues not converged
     c_bands:  3 eigenvalues not converged
     c_bands:  5 eigenvalues not converged
     c_bands:  3 eigenvalues not converged
     ethr =  1.00E-05,  avg # of iterations = 24.9

[...]

     total energy              =   -2136.65941873 Ry
     estimated scf accuracy    <    9692.88378916 Ry

     iteration #  2     ecut=    29.40 Ry     beta= 0.05
     Davidson diagonalization with overlap
     ethr =  1.00E-02,  avg # of iterations = 32.5

[...]

     iteration # 65     ecut=    29.40 Ry     beta= 0.05
     Davidson diagonalization with overlap
     ethr =  4.82E-11,  avg # of iterations =  5.8

[...]

     total energy              =   -2977.68378265 Ry
     estimated scf accuracy    <       0.00000008 Ry

     iteration # 66     ecut=    29.40 Ry     beta= 0.05
     Davidson diagonalization with overlap
     c_bands:  1 eigenvalues not converged
     ethr =  2.02E-11,  avg # of iterations = 13.2

     negative rho (up, down):  1.439E-02 0.000E+00

     Adding external electric field

     Computed dipole along edir(3) :
        Dipole                1.0191 Ry au,          2.5902 Debye
        Dipole field          0.0019 Ry au,

        Potential amp.       -0.1783 Ry
        Total length         46.3494 bohr

     End of self-consistent calculation

          k = 0.0000 0.0000 0.0000 ( 18029 PWs)   bands (ev):

   -55.3593 -55.3220 -55.3100 -55.2924 -55.2759 -55.2401 -55.2385 -55.2036
   -55.1823 -55.1812 -55.1480 -55.1422 -55.1085 -55.0177 -54.3418 -54.3077
   -31.9256 -31.8081 -31.8030 -31.7271 -31.6756 -31.6716 -31.6716 -31.6486
   -31.5987 -31.5946 -31.5715 -31.5689 -31.5549 -31.5386 -31.5297 -31.5262
   -31.5137 -31.5066 -31.4962 -31.4786 -31.4637 -31.4626 -31.4347 -31.4243
   -31.4168 -31.4129 -31.3924 -31.3849 -31.3686 -31.3672 -31.3624 -31.3535
   -31.3413 -31.3402 -31.3315 -31.3289 -31.2959 -31.2929 -31.2705 -31.2534
   -31.2299 -31.2278 -30.7513 -30.6567 -30.6347 -30.5676 -30.4808 -30.3699
   -18.0064 -17.6360 -16.1930 -15.9323 -15.7869 -15.6584 -15.5608 -15.4325
   -15.4132 -15.2913 -15.2210 -15.1174 -15.0662 -15.0480 -15.0119 -15.0018
   -14.9787 -14.9079 -14.9018 -14.8879 -14.8638 -14.8551 -14.8089 -14.8011
   -14.7599 -14.7356 -14.7114 -14.6125 -14.5223 -14.4476 -14.3404 -13.1447
   -12.8446 -12.7271  -9.4060  -6.3059  -5.8785  -5.7350  -4.2601  -3.5315
    -3.3827  -3.3142  -3.2778  -3.2524  -3.1189  -2.9617  -2.9239  -2.8067
    -2.7885  -2.6890  -2.6442  -2.5729  -2.5561  -2.5411  -2.3949  -2.3727
    -2.3471  -2.2805  -2.2538  -2.1870  -2.1650  -2.1549  -2.1447  -2.1216
    -2.0936  -2.0519  -1.9918  -1.9329  -1.8396  -1.8137  -1.7637  -1.7331
    -1.7133  -1.6962  -1.6507  -1.6397  -1.6004  -1.5857  -1.5652  -1.5514
    -1.3880  -1.3643  -1.2641  -1.2021  -1.1033  -0.9995  -0.9638  -0.9494
    -0.8523  -0.8338  -0.7807  -0.7403  -0.7375  -0.7030  -0.5912  -0.5287
    -0.4762  -0.4127  -0.3898  -0.3498  -0.2819  -0.1987  -0.1427  -0.1288
    -0.1137  -0.0979   0.0136   0.0260   0.0776   0.1526   0.1621   0.1683
     0.2421   0.2984   0.3687   0.3935   0.4113   0.5164   0.5321   0.5643
     0.5701   0.5999   0.6207   0.6457   0.7060   0.7363   0.8194   0.9411
     1.1327   1.2221   1.2497   1.3565   1.5727   1.5852   1.6808   1.8641
     2.2571   2.3055   3.7377   3.8088   3.8835   3.8876   3.9101   3.9740
     4.2108   4.2281   4.2426   4.2462   4.2704

[...]

          k = 0.0380-0.0419 0.0000 ( 17876 PWs)   bands (ev):

[...]

          k =-0.0760-0.0000 0.0000 ( 17886 PWs)   bands (ev):

[...]

          k =-0.0760-0.0839 0.0000 ( 17948 PWs)   bands (ev):

   -55.3455 -55.3356 -55.2931 -55.2926 -55.2911 -55.2329 -55.2280 -55.2156
   -55.1867 -55.1663 -55.1635 -55.1257 -55.1251 -55.0188 -54.3249 -54.3245
   -31.7336 -31.7258 -31.7237 -31.6393 -31.6197 -31.6182 -31.6179 -31.5841
   -31.5839 -31.5728 -31.5586 -31.5575 -31.5508 -31.5308 -31.5192 -31.5057
   -31.4993 -31.4961 -31.4946 -31.4931 -31.4863 -31.4788 -31.4467 -31.4391
   -31.4360 -31.4357 -31.4217 -31.4171 -31.4128 -31.4123 -31.4067 -31.3991
   -31.3968 -31.3795 -31.3764 -31.3743 -31.3595 -31.3563 -31.3065 -31.3063
   -31.3002 -31.2337 -30.6475 -30.6472 -30.5639 -30.5636 -30.5243 -30.5241
   -17.9947 -17.6447 -15.6736 -15.5885 -15.5676 -15.4124 -15.3608 -15.3344
   -15.3234 -15.2081 -15.1657 -15.1467 -15.1319 -15.1100 -15.0719 -15.0622
   -15.0554 -14.9922 -14.9720 -14.9630 -14.9371 -14.8831 -14.8756 -14.8676
   -14.8598 -14.8100 -14.8061 -14.7666 -14.7153 -14.7119 -14.6367 -13.1510
   -12.8285 -12.8285  -9.4109  -6.3310  -5.8977  -5.6589  -4.2380  -2.9363
    -2.8466  -2.8359  -2.8293  -2.6990  -2.6257  -2.5504  -2.5283  -2.5066
    -2.4216  -2.4088  -2.3782  -2.3529  -2.3234  -2.2843  -2.2468  -2.2401
    -2.2041  -2.1955  -2.1796  -2.1629  -2.1411  -2.1256  -2.0921  -2.0814
    -2.0678  -2.0239  -1.9980  -1.9838  -1.9628  -1.9424  -1.9348  -1.9160
    -1.8420  -1.7508  -1.7265  -1.6412  -1.5703  -1.5699  -1.5629  -1.5021
    -1.4588  -1.4203  -1.3954  -1.3781  -1.2387  -1.1677  -1.1234  -1.1092
    -1.0946  -0.9637  -0.9573  -0.8814  -0.8590  -0.8525  -0.7578  -0.7143
    -0.6759  -0.6690  -0.5823  -0.5701  -0.4944  -0.3958  -0.3740  -0.3601
    -0.3150  -0.3132  -0.2757  -0.2628  -0.1664  -0.1310  -0.1106  -0.0970
    -0.0807  -0.0389   0.1119   0.1612   0.1677   0.3006   0.3326   0.4711
     0.5010   0.5651   0.6449   0.6937   0.7462   0.7790   0.8653   0.9403
     0.9435   1.0069   1.0225   1.0885   1.1007   1.3618   2.0370   2.0376
     2.1253   2.1257   3.8857   4.0007   4.0043   4.0336   4.1557   4.1791
     4.2554   4.2829   4.3221   4.3256   4.3836

     the Fermi energy is     3.8017 ev

!    total energy              =   -2977.68382757 Ry
     estimated scf accuracy    <       0.00000004 Ry
     smearing contrib. (-TS)   =      -0.03717676 Ry
     internal energy E=F+TS    =   -2977.64665081 Ry

     The total energy is F=E-TS. E is the sum of the following terms:
     one-electron contribution =  -22681.86671332 Ry
     hartree contribution      =   11438.30125090 Ry
     xc contribution           =    -496.61277438 Ry
     ewald contribution        =    8762.52962625 Ry
     electric field correction =       0.00195974 Ry

     convergence has been achieved in  66 iterations

     Forces acting on atoms (cartesian axes, Ry/au):

     atom    1 type  1   force =     0.00024526   -0.00037818    0.09327600
     atom    2 type  1   force =     0.00002031   -0.00038561   -0.17814701
     atom    3 type  2   force =     0.00004903   -0.00041486   -0.02001529
     atom    4 type  2   force =     0.00000974   -0.00190091    0.05910430
     atom    5 type  2   force =    -0.01035692   -0.00059184    0.00860435
     atom    6 type  2   force =     0.01130341    0.00009948    0.00626928
     atom    7 type  1   force =    -0.00096692    0.00197951   -0.01427001
     atom    8 type  1   force =     0.00097663   -0.00255843   -0.00599329
     atom    9 type  2   force =     0.00016565   -0.00002280    0.00008065
     atom   10 type  2   force =    -0.00231106    0.00309427    0.00259720
     atom   11 type  2   force =     0.00042017   -0.00042848   -0.00057410
     atom   12 type  2   force =     0.00003233   -0.00040969   -0.00058192
     atom   13 type  1   force =     0.00034410   -0.00027855   -0.00021795
     atom   14 type  1   force =     0.00004471   -0.00009179   -0.00005798
     atom   15 type  2   force =    -0.00000221    0.00062293   -0.00005091
     atom   16 type  2   force =     0.00030582    0.00027523   -0.00013309
     atom   17 type  2   force =     0.00039963    0.00023793    0.00037410
     atom   18 type  2   force =    -0.00051726    0.00020583   -0.00009346
     atom   19 type  1   force =    -0.00011880    0.00006865    0.00030244
     atom   20 type  1   force =    -0.00008729   -0.00012860    0.00057640
     atom   21 type  2   force =     0.00011873   -0.00011056    0.10404212
     atom   22 type  2   force =     0.00015701   -0.00026101    0.00058834
     atom   23 type  2   force =    -0.07031123   -0.00019333   -0.02687334
     atom   24 type  2   force =     0.07028699    0.00024696   -0.02687410
     atom   25 type  1   force =     0.00017209   -0.00030879    0.09245491
     atom   26 type  1   force =     0.00005268   -0.00054476   -0.17847306
     atom   27 type  2   force =     0.00008209   -0.00021104   -0.01908025
     atom   28 type  2   force =     0.00006061   -0.00173333    0.05852474
     atom   29 type  2   force =    -0.01102573   -0.00114197    0.00943765
     atom   30 type  2   force =     0.01187870   -0.00069778    0.00722258
     atom   31 type  1   force =    -0.00087992    0.00646927   -0.01493219
     atom   32 type  1   force =     0.00101679    0.00219710   -0.00639740
     atom   33 type  2   force =     0.00026017    0.00010150    0.00001305
     atom   34 type  2   force =    -0.00214648   -0.00243523   -0.00033008
     atom   35 type  2   force =     0.00028458    0.00012849   -0.00001701
     atom   36 type  2   force =     0.00025013    0.00003635    0.00050440
     atom   37 type  1   force =    -0.00009685    0.00003632   -0.00004872
     atom   38 type  1   force =     0.00015061   -0.00006523   -0.00000640
     atom   39 type  2   force =    -0.00010720   -0.00020716    0.00041307
     atom   40 type  2   force =    -0.00014476    0.00008527    0.00005049
     atom   41 type  2   force =    -0.00044870    0.00015514    0.00026195
     atom   42 type  2   force =     0.00024232   -0.00010576   -0.00013472
     atom   43 type  1   force =     0.00040442    0.00029604   -0.00009374
     atom   44 type  1   force =    -0.00006653   -0.00021902    0.00004180
     atom   45 type  2   force =     0.00012311   -0.00011242    0.10397713
     atom   46 type  2   force =    -0.07027221   -0.00012869   -0.02681290
     atom   47 type  2   force =     0.07026181    0.00027781   -0.02688015
     atom   48 type  3   force =    -0.00371277   -0.00396441    0.00340434
     atom   49 type  3   force =     0.00007545    0.00107120   -0.00218113
     atom   50 type  4   force =    -0.00057264   -0.00029997    0.00031308
     atom   51 type  5   force =    -0.00064417    0.00038050    0.00035879
     atom   52 type  5   force =     0.00040789   -0.00003330    0.00037048
     atom   53 type  5   force =    -0.00008197    0.00006059   -0.00054538
     atom   54 type  5   force =     0.00398222    0.00299065   -0.00273983
     atom   55 type  5   force =     0.00034082    0.00039052   -0.00035533
     atom   56 type  5   force =    -0.00028470   -0.00077545    0.00052955
     atom   57 type  2   force =    -0.00098266   -0.00061812    0.00087708
     atom   58 type  5   force =     0.00010685   -0.00028965   -0.00021827
     atom   59 type  5   force =     0.00110614    0.00053920   -0.00144129

     Total force =     0.366406     Total SCF correction =     0.000550
  @ DRIVER MODE: Message from server: STATUS
  @ DRIVER MODE: Message from server: GETFORCE
  @ DRIVER MODE: Returning v,forces,stress,ensemble

     Writing output data file ./calc.save/
  @ DRIVER MODE: Message from server: EXIT
  @ DRIVE MODE: Exiting

     General routines

     Parallel routines

   This run was terminated on:   4:59:26  16Sep2021

   JOB DONE.