     Program PWSCF v.6.7GPU starts on 16Sep2021 at  0:39:44

     R & G space division:  proc/nbgrp/npool/nimage =      10
     Reading input from /storage/home/hcoda1/3/ntian30/research/carbon/CxH_vib/H2O_calc/ads_slab/CHOH2O_a/out_0028/pw.inp
Warning: card &CELL ignored
Warning: card   CELL_DYNAMICS='IPI', ignored
Warning: card / ignored

     Current dimensions of program PWSCF are:
     Max number of different atomic species (ntypx) = 10
     Max number of k-points (npk) =  40000
     Max angular momentum in pseudopotentials (lmaxx) =  3
     Presently no symmetry can be used with electric field

     Message from routine cell_base_init:
     DEPRECATED: use true lattice parameter, not A to a.u. conversion factor

     IMPORTANT: XC functional enforced from input :
     Exchange-correlation= BEEF-VDW
                           (   1   4  43  14   2   0   0)
     Any further DFT definition will be discarded
     Please, verify this is what you really want

  @ DRIVER MODE: Connecting to
 qe_1139763_2852631.sched-torque.pace.gatech.edum2k03ts3_scratch
  using UNIX socket
  @ DRIVER MODE: Message from server: STATUS
  @ DRIVER MODE: Message from server: INIT
  @ DRIVER MODE: Receiving replica           0          -1
  @ DRIVER MODE: Receiving encoded integer          25
  @ DRIVER MODE:  SCF:  T  FORCE:  T  STRESS:  F  VC:  F  ENSEMBLE:  F
  @ DRIVER MODE:  SCF:  T  FORCE:  T  STRESS:  F  VC:  F  ENSEMBLE:  F

     Using Slab Decomposition

     bravais-lattice index     =            0
     lattice parameter (alat)  =       1.8897  a.u.
     unit-cell volume          =    6658.9804 (a.u.)^3
     number of atoms/cell      =           53
     number of atomic types    =            4
     number of electrons       =       397.00
     number of Kohn-Sham states=          208
     kinetic-energy cutoff     =      29.3995  Ry
     charge density cutoff     =     293.9946  Ry
     scf convergence threshold =      7.3E-08
     mixing beta               =       0.0500
     number of iterations used =            8  plain     mixing
     Exchange-correlation= BEEF-VDW
                           (   1   4  43  14   2   0   0)

     celldm(1)=   1.889726  celldm(2)=   0.000000  celldm(3)=   0.000000
     celldm(4)=   0.000000  celldm(5)=   0.000000  celldm(6)=   0.000000

     crystal axes: (cart. coord. in units of alat)
               a(1) = (   6.579727   0.000000   0.000000 )
               a(2) = (  -0.000775   5.961596   0.000000 )
               a(3) = (   0.000000   0.000000  25.155947 )

     reciprocal axes: (cart. coord. in units 2 pi/alat)
               b(1) = (  0.151982  0.000020  0.000000 )
               b(2) = (  0.000000  0.167740  0.000000 )
               b(3) = (  0.000000  0.000000  0.039752 )

     PseudoPot. # 1 for O  read from file:
     /storage/coda1/p-amedford6/0/shared/rich_project_chbe-medford/medford-share/data/pseudos_module/espresso/nninc/pbe/van/O.UPF
     MD5 check sum: 78c19812648e8988a0fe644b0f25305e
     Pseudo is Ultrasoft, Zval =  6.0
     Generated by new atomic code, or converted to UPF format
     Using radial grid of  737 points,  4 beta functions with:
                l(1) =   0
                l(2) =   0
                l(3) =   1
                l(4) =   1
     Q(r) pseudized with  8 coefficients,  rinner =    0.800   0.800   0.800

     PseudoPot. # 2 for Ti read from file:
     /storage/coda1/p-amedford6/0/shared/rich_project_chbe-medford/medford-share/data/pseudos_module/espresso/nninc/pbe/van/Ti.UPF
     MD5 check sum: 8e4df49b7f0d34bbd5052bf3f5ea0213
     Pseudo is Ultrasoft, Zval = 12.0
     Generated by new atomic code, or converted to UPF format
     Using radial grid of  851 points,  6 beta functions with:
                l(1) =   0
                l(2) =   0
                l(3) =   1
                l(4) =   1
                l(5) =   2
                l(6) =   2
     Q(r) pseudized with  8 coefficients,  rinner =    1.000   1.000   1.000
                                                       1.000   1.000

     PseudoPot. # 3 for C  read from file:
     /storage/coda1/p-amedford6/0/shared/rich_project_chbe-medford/medford-share/data/pseudos_module/espresso/nninc/pbe/van/C.UPF
     MD5 check sum: 1a69bf6b8db32088f5b2163dbdb77a27
     Pseudo is Ultrasoft, Zval =  4.0
     Generated by new atomic code, or converted to UPF format
     Using radial grid of  721 points,  4 beta functions with:
                l(1) =   0
                l(2) =   0
                l(3) =   1
                l(4) =   1
     Q(r) pseudized with  8 coefficients,  rinner =    0.800   0.800   0.800

     PseudoPot. # 4 for H  read from file:
     /storage/coda1/p-amedford6/0/shared/rich_project_chbe-medford/medford-share/data/pseudos_module/espresso/nninc/pbe/van/H.UPF
     MD5 check sum: b5ee9d7bfd3a09ee7748110bda690ff7
     Pseudo is Ultrasoft, Zval =  1.0
     Generated by new atomic code, or converted to UPF format
     Using radial grid of  615 points,  1 beta functions with:
                l(1) =   0
     Q(r) pseudized with  8 coefficients,  rinner =    0.800

     atomic species   valence    mass     pseudopotential
        O1             6.00    15.99900     O ( 1.00)
        Ti1           12.00    47.86700     Ti( 1.00)
        C1             4.00    12.01100     C ( 1.00)
        H1             1.00     1.00800     H ( 1.00)

     No symmetry found

   Cartesian axes

     site n.     atom                  positions (alat units)
         1           O1  tau(   1) = (   3.2904802   0.0005063   4.7018136  )
         2           O1  tau(   2) = (   3.2900926   2.9813045   4.7018136  )
         3           Ti1 tau(   3) = (   0.0004258   2.9801865   6.0000000  )
         4           Ti1 tau(   4) = (   0.0000382   5.9609847   6.0000000  )
         5           Ti1 tau(   5) = (   3.2906075   1.4906267   6.0002472  )
         6           Ti1 tau(   6) = (   3.2902200   4.4714249   6.0002472  )
         7           O1  tau(   7) = (   1.3043587   1.4918075   6.0039043  )
         8           O1  tau(   8) = (   1.3039711   4.4726057   6.0039043  )
         9           O1  tau(   9) = (   5.2767064   1.4903225   6.0039473  )
        10           O1  tau(  10) = (   5.2763189   4.4711207   6.0039473  )
        11           O1  tau(  11) = (   3.2906025   0.0005020   7.3038282  )
        12           O1  tau(  12) = (   3.2902150   2.9813002   7.3038282  )
        13           O1  tau(  13) = (   0.0006271   0.0005054   7.9858123  )
        14           O1  tau(  14) = (   0.0002396   2.9813036   7.9858123  )
        15           Ti1 tau(  15) = (   3.2898052   0.0549011   9.1556235  )
        16           Ti1 tau(  16) = (   3.3203827   3.0319468   9.1649589  )
        17           Ti1 tau(  17) = (   0.0233352   4.5284096   9.2575609  )
        18           Ti1 tau(  18) = (   0.0173867   1.6076536   9.3607995  )
        19           O1  tau(  19) = (   4.5942328   1.4918067   9.2879030  )
        20           O1  tau(  20) = (   4.5938453   4.4726049   9.2879030  )
        21           O1  tau(  21) = (   1.9868534   1.4903216   9.2879459  )
        22           O1  tau(  22) = (   1.9864658   4.4711199   9.2879459  )
        23           O1  tau(  23) = (   0.0034721   0.0125384  10.6021848  )
        24           O1  tau(  24) = (   0.0020335   2.9928551  10.5785608  )
        25           O1  tau(  25) = (   3.2937812   2.9995440  11.3622203  )
        26           O1  tau(  26) = (   3.2898347   0.0201518  11.3605052  )
        27           Ti1 tau(  27) = (   0.0300534   0.0302837  12.4945235  )
        28           Ti1 tau(  28) = (   3.3347356   4.5017157  12.5123549  )
        29           Ti1 tau(  29) = (   3.3349302   1.5071924  12.5110355  )
        30           Ti1 tau(  30) = (   0.0295963   3.0145660  12.7881340  )
        31           O1  tau(  31) = (   1.2797855   4.4923438  12.6426172  )
        32           O1  tau(  32) = (   1.2799313   1.5104473  12.6443552  )
        33           O1  tau(  33) = (   5.2866386   4.4922094  12.6434695  )
        34           O1  tau(  34) = (   5.2866683   1.5083124  12.6439979  )
        35           O1  tau(  35) = (   3.2814828   3.0070543  13.9178409  )
        36           O1  tau(  36) = (   3.2867003   0.0227894  13.9786966  )
        37           O1  tau(  37) = (   0.0021618   0.0175046  14.6784646  )
        38           O1  tau(  38) = (   0.0002945   3.0143855  14.7103493  )
        39           Ti1 tau(  39) = (   3.2869621   3.0144872  15.7052805  )
        40           Ti1 tau(  40) = (   3.3044863   0.0423327  15.8215216  )
        41           Ti1 tau(  41) = (   0.0135451   4.5796903  15.9522020  )
        42           Ti1 tau(  42) = (   0.0105102   1.3838334  15.9764479  )
        43           O1  tau(  43) = (   4.5519026   4.4709862  16.0573678  )
        44           O1  tau(  44) = (   4.5564327   1.5473262  16.0430495  )
        45           O1  tau(  45) = (   2.0152543   1.5518810  16.0555283  )
        46           O1  tau(  46) = (   2.0123771   4.4621050  16.0713562  )
        47           O1  tau(  47) = (   0.0008539   0.0298781  17.1953024  )
        48           O1  tau(  48) = (   6.5358978   3.0350243  17.4695059  )
        49           C1  tau(  49) = (   6.3916590   3.0774531  18.7359330  )
        50           H1  tau(  50) = (   6.4332689   2.0249999  19.1325638  )
        51           O1  tau(  51) = (   3.2941481   0.0813851  18.1811625  )
        52           H1  tau(  52) = (   4.0521942   5.5877154  18.5714528  )
        53           H1  tau(  53) = (   2.4879692   5.6555715  18.5615442  )

     number of k points=    10  Fermi-Dirac smearing, width (Ry)=  0.0073
                       cart. coord. in units 2pi/alat
        k(    1) = (   0.0000000   0.0000000   0.0000000), wk =   0.1250000
        k(    2) = (   0.0000000   0.0419351   0.0000000), wk =   0.2500000
        k(    3) = (   0.0000000  -0.0838702   0.0000000), wk =   0.1250000
        k(    4) = (   0.0379955   0.0000049   0.0000000), wk =   0.2500000
        k(    5) = (   0.0379955   0.0419400   0.0000000), wk =   0.2500000
        k(    6) = (   0.0379955  -0.0838652   0.0000000), wk =   0.2500000
        k(    7) = (   0.0379955  -0.0419301   0.0000000), wk =   0.2500000
        k(    8) = (  -0.0759910  -0.0000099   0.0000000), wk =   0.1250000
        k(    9) = (  -0.0759910   0.0419252   0.0000000), wk =   0.2500000
        k(   10) = (  -0.0759910  -0.0838800   0.0000000), wk =   0.1250000

     Initial potential from superposition of free atoms

     starting charge  380.99918, renormalised to  397.00000

     negative rho (up, down):  1.751E-02 0.000E+00

     %%%%%%%%%%%%%%%%%%%%%%%%%%%%%%%%%%%%%%%%%%%%%%%%%%%%%%%%%%%%%%%%%%%%%%%%
     %                                                                      %
     % You are using vdW-DF, which was implemented by the Thonhauser group. %
     % Please cite the following two papers that made this development      %
     % possible and the two reviews that describe the various versions:     %
     %                                                                      %
     %   T. Thonhauser et al., PRL 115, 136402 (2015).                      %
     %   T. Thonhauser et al., PRB 76, 125112 (2007).                       %
     %   K. Berland et al., Rep. Prog. Phys. 78, 066501 (2015).             %
     %   D.C. Langreth et al., J. Phys.: Condens. Matter 21, 084203 (2009). %
     %                                                                      %
     %                                                                      %
     % If you are calculating the stress with vdW-DF, please also cite:     %
     %                                                                      %
     %   R. Sabatini et al., J. Phys.: Condens. Matter 24, 424209 (2012).   %
     %                                                                      %
     %%%%%%%%%%%%%%%%%%%%%%%%%%%%%%%%%%%%%%%%%%%%%%%%%%%%%%%%%%%%%%%%%%%%%%%%

     Adding external electric field

     Computed dipole along edir(3) :
        Dipole               -8.9490 Ry au,        -22.7462 Debye
        Dipole field         -0.0169 Ry au,

        Potential amp.        1.5655 Ry
        Total length         46.3494 bohr

     Starting wfcs are  299 atomic wfcs
  @ DRIVER MODE: Message from server: STATUS
  @ DRIVER MODE: Message from server: POSDATA
  @ DRIVER MODE: Reading and sharing cell
  @ DRIVER MODE: Reading and sharing positions
  @ DRIVER MODE: Received positions

     Self-consistent Calculation

     iteration #  1     ecut=    29.40 Ry     beta= 0.05
     Davidson diagonalization with overlap
     c_bands:  1 eigenvalues not converged
     c_bands:  1 eigenvalues not converged
     c_bands:  1 eigenvalues not converged
     c_bands:  1 eigenvalues not converged
     c_bands:  2 eigenvalues not converged
     ethr =  1.00E-05,  avg # of iterations = 19.3

[...]

     total energy              =   -2583.14597920 Ry
     estimated scf accuracy    <    4233.84285399 Ry

     iteration #  2     ecut=    29.40 Ry     beta= 0.05
     Davidson diagonalization with overlap
     ethr =  1.00E-02,  avg # of iterations = 24.0

[...]

     iteration # 80     ecut=    29.40 Ry     beta= 0.05
     Davidson diagonalization with overlap
     c_bands:  1 eigenvalues not converged
     c_bands:  1 eigenvalues not converged
     c_bands:  1 eigenvalues not converged
     ethr =  3.28E-11,  avg # of iterations = 17.9

[...]

     total energy              =   -2963.67529053 Ry
     estimated scf accuracy    <       0.00000008 Ry

     iteration # 82     ecut=    29.40 Ry     beta= 0.05
     Davidson diagonalization with overlap
     ethr =  1.90E-11,  avg # of iterations = 12.5

     negative rho (up, down):  1.624E-02 0.000E+00

     Adding external electric field

     Computed dipole along edir(3) :
        Dipole                0.4643 Ry au,          1.1801 Debye
        Dipole field          0.0009 Ry au,

        Potential amp.       -0.0812 Ry
        Total length         46.3494 bohr

     End of self-consistent calculation

          k = 0.0000 0.0000 0.0000 ( 18029 PWs)   bands (ev):

   -56.0134 -55.9769 -55.9766 -55.9554 -55.9408 -55.8964 -55.8625 -55.8280
   -55.7961 -55.7914 -55.7804 -55.7543 -55.7468 -55.6866 -55.0224 -54.9883
   -32.5301 -32.4840 -32.4061 -32.3733 -32.3641 -32.3093 -32.2897 -32.2786
   -32.2588 -32.2461 -32.2076 -32.2009 -32.1908 -32.1719 -32.1708 -32.1592
   -32.1325 -32.1191 -32.1060 -32.1053 -32.0849 -32.0766 -32.0713 -32.0647
   -32.0506 -32.0423 -32.0394 -32.0278 -32.0116 -32.0018 -31.9980 -31.9849
   -31.9652 -31.9589 -31.9559 -31.9535 -31.9248 -31.9069 -31.8970 -31.8858
   -31.8730 -31.8691 -31.4319 -31.3360 -31.3136 -31.2484 -31.1622 -31.0512
   -19.4387 -19.1392 -16.7341 -16.4729 -16.3131 -16.1944 -16.1458 -15.9294
   -15.8455 -15.7953 -15.7075 -15.6319 -15.6030 -15.5860 -15.5529 -15.5383
   -15.5319 -15.5107 -15.4589 -15.4420 -15.4198 -15.4147 -15.4031 -15.3839
   -15.3025 -15.2295 -15.1671 -15.1348 -15.0623 -15.0230 -14.9852 -13.5234
   -13.4055  -7.8979  -6.9642  -4.6599  -4.0923  -3.9494  -3.9298  -3.9012
    -3.8306  -3.6551  -3.6155  -3.4709  -3.3159  -3.3050  -3.1852  -3.1484
    -3.1237  -3.0558  -3.0378  -2.9775  -2.8487  -2.8355  -2.8245  -2.8066
    -2.7962  -2.7525  -2.7305  -2.6943  -2.6534  -2.5871  -2.5163  -2.4908
    -2.4159  -2.4097  -2.3725  -2.3169  -2.3113  -2.2867  -2.2725  -2.2464
    -2.1959  -2.1815  -2.1704  -2.0670  -1.9793  -1.8675  -1.7065  -1.6799
    -1.6770  -1.5544  -1.5055  -1.4491  -1.4188  -1.4169  -1.3672  -1.3186
    -1.2727  -1.2536  -1.1490  -1.0354  -1.0032  -0.9438  -0.9163  -0.7914
    -0.7408  -0.7350  -0.7258  -0.7176  -0.6954  -0.6242  -0.5099  -0.4372
    -0.4287  -0.3370  -0.3147  -0.3020  -0.2435  -0.2341  -0.2131  -0.1584
    -0.1132  -0.0662  -0.0493  -0.0193   0.0178   0.0227   0.1530   0.2025
     0.2312   0.2520   0.2899   0.4586   0.5030   0.6331   0.7385   0.9091
     1.0014   1.0664   1.1760   1.5870   1.6444   2.8420   3.1641   3.2083
     3.2218   3.2363   3.2989   3.4014   3.5466   3.6171   3.6316   3.6667

[...]

          k = 0.0380-0.0419 0.0000 ( 17876 PWs)   bands (ev):

[...]

          k =-0.0760-0.0000 0.0000 ( 17886 PWs)   bands (ev):

[...]

          k =-0.0760-0.0839 0.0000 ( 17948 PWs)   bands (ev):

   -56.0021 -55.9878 -55.9600 -55.9576 -55.9534 -55.8843 -55.8746 -55.8237
   -55.7932 -55.7929 -55.7655 -55.7619 -55.7584 -55.6893 -55.0059 -55.0047
   -32.3450 -32.3244 -32.3186 -32.3081 -32.2957 -32.2924 -32.2728 -32.2459
   -32.2374 -32.2262 -32.2163 -32.2096 -32.1684 -32.1580 -32.1502 -32.1395
   -32.1264 -32.1223 -32.1173 -32.1158 -32.1118 -32.1101 -32.0925 -32.0882
   -32.0879 -32.0813 -32.0754 -32.0478 -32.0313 -32.0253 -32.0174 -32.0155
   -32.0074 -31.9945 -31.9833 -31.9768 -31.9742 -31.9715 -31.9609 -31.9475
   -31.9135 -31.8829 -31.3270 -31.3256 -31.2453 -31.2443 -31.2058 -31.2048
   -19.4303 -19.1386 -16.1866 -16.0792 -16.0704 -15.8953 -15.8815 -15.8589
   -15.8168 -15.8067 -15.7140 -15.7112 -15.6675 -15.6544 -15.6283 -15.5939
   -15.5891 -15.5282 -15.5272 -15.5227 -15.4678 -15.4620 -15.4401 -15.4249
   -15.4031 -15.3932 -15.3479 -15.3364 -15.2731 -15.2040 -15.1914 -13.5080
   -13.5057  -7.8988  -6.9576  -4.6049  -3.7218  -3.4686  -3.3211  -3.2897
    -3.2288  -3.1317  -3.1050  -3.0674  -3.0191  -2.9787  -2.9294  -2.8696
    -2.8461  -2.8425  -2.8316  -2.8259  -2.8067  -2.8002  -2.7610  -2.7362
    -2.7048  -2.6759  -2.6572  -2.6343  -2.6287  -2.6106  -2.5860  -2.5748
    -2.5620  -2.5531  -2.4842  -2.4539  -2.3314  -2.3236  -2.2434  -2.2105
    -2.1494  -2.1426  -2.1199  -2.0774  -2.0688  -2.0536  -1.8789  -1.8550
    -1.7460  -1.7384  -1.7176  -1.6881  -1.5988  -1.5306  -1.4935  -1.4763
    -1.4235  -1.4059  -1.3330  -1.2693  -1.2088  -1.1727  -1.1045  -1.0733
    -1.0579  -0.9795  -0.9698  -0.9347  -0.9088  -0.8909  -0.7717  -0.7648
    -0.7296  -0.6935  -0.6628  -0.6100  -0.5619  -0.5451  -0.5085  -0.4558
    -0.3833  -0.3595  -0.1699   0.0118   0.0183   0.0479   0.1386   0.1776
     0.2961   0.3285   0.3338   0.3690   0.4097   0.5035   0.5262   0.5336
     0.6072   1.3618   1.3627   1.4492   1.4602   2.7089   3.3535   3.4129
     3.4770   3.5130   3.6177   3.6351   3.6497   3.6610   3.6973   3.7972

     the Fermi energy is     3.1373 ev

!    total energy              =   -2963.67529509 Ry
     estimated scf accuracy    <       0.00000005 Ry
     smearing contrib. (-TS)   =      -0.02583586 Ry
     internal energy E=F+TS    =   -2963.64945923 Ry

     The total energy is F=E-TS. E is the sum of the following terms:
     one-electron contribution =  -24422.99840516 Ry
     hartree contribution      =   12298.92293812 Ry
     xc contribution           =    -489.19389742 Ry
     ewald contribution        =    9649.61949843 Ry
     electric field correction =       0.00040680 Ry

     convergence has been achieved in  82 iterations

     Forces acting on atoms (cartesian axes, Ry/au):

     atom    1 type  1   force =    -0.00006338    0.00006701    0.10404004
     atom    2 type  1   force =    -0.00005560    0.00005299    0.10406718
     atom    3 type  2   force =    -0.00018467   -0.00196243    0.10275822
     atom    4 type  2   force =    -0.00008308    0.00161177    0.11465985
     atom    5 type  2   force =    -0.00026166    0.00156339   -0.17904691
     atom    6 type  2   force =    -0.00014050   -0.00105181   -0.17941512
     atom    7 type  1   force =    -0.06954271    0.00066023   -0.02929102
     atom    8 type  1   force =    -0.06908333   -0.00122471   -0.02933736
     atom    9 type  1   force =     0.06921973    0.00118880   -0.02934799
     atom   10 type  1   force =     0.06884393   -0.00085699   -0.02942028
     atom   11 type  1   force =     0.00005912    0.00064216    0.04737247
     atom   12 type  1   force =     0.00063949    0.00090225    0.04973982
     atom   13 type  1   force =     0.00021770   -0.00563660   -0.03308411
     atom   14 type  1   force =     0.00028222    0.00397930   -0.02649074
     atom   15 type  2   force =    -0.00015653   -0.00003506   -0.00072377
     atom   16 type  2   force =    -0.00019967   -0.00005693   -0.00077237
     atom   17 type  2   force =     0.00009007   -0.00093433   -0.00007059
     atom   18 type  2   force =     0.00011668    0.00110740   -0.00008951
     atom   19 type  1   force =    -0.01880604   -0.00005986    0.00452003
     atom   20 type  1   force =    -0.01690415    0.00164586    0.00397483
     atom   21 type  1   force =     0.01838438   -0.00109780    0.00450497
     atom   22 type  1   force =     0.01749587    0.00197496    0.00383349
     atom   23 type  1   force =     0.00018207    0.00005972   -0.00074726
     atom   24 type  1   force =     0.00011366   -0.00023242   -0.00029569
     atom   25 type  1   force =    -0.00031539    0.00016042   -0.00069462
     atom   26 type  1   force =    -0.00019760   -0.00004322   -0.00086846
     atom   27 type  2   force =    -0.00020667    0.00045409    0.00034484
     atom   28 type  2   force =     0.00026902    0.00064754    0.00080395
     atom   29 type  2   force =     0.00028220   -0.00011268    0.00098050
     atom   30 type  2   force =    -0.00019572   -0.00023293    0.00017877
     atom   31 type  1   force =     0.00024917   -0.00008145   -0.00036655
     atom   32 type  1   force =     0.00003290    0.00012706   -0.00009985
     atom   33 type  1   force =    -0.00010005   -0.00017857   -0.00073181
     atom   34 type  1   force =     0.00004290    0.00012657   -0.00043155
     atom   35 type  1   force =     0.00010371   -0.00003958   -0.00117151
     atom   36 type  1   force =     0.00012902   -0.00052835    0.00036354
     atom   37 type  1   force =    -0.00019941    0.00016428    0.00005374
     atom   38 type  1   force =     0.00015783   -0.00003563   -0.00065103
     atom   39 type  2   force =    -0.00010014   -0.00045007    0.00081585
     atom   40 type  2   force =     0.00003480   -0.00080040   -0.00001313
     atom   41 type  2   force =     0.00019837   -0.00084414   -0.00008600
     atom   42 type  2   force =     0.00007226    0.00048252    0.00016858
     atom   43 type  1   force =    -0.00085386   -0.00044822    0.00010032
     atom   44 type  1   force =    -0.00017456   -0.00018210    0.00012866
     atom   45 type  1   force =     0.00012052   -0.00031973    0.00017465
     atom   46 type  1   force =     0.00077094   -0.00012158    0.00009979
     atom   47 type  1   force =    -0.00031649    0.00038152    0.00019846
     atom   48 type  1   force =     0.00008665    0.00057442   -0.00008886
     atom   49 type  3   force =     0.00006894   -0.00008854   -0.00043134
     atom   50 type  4   force =    -0.00060767    0.00074918   -0.00074197
     atom   51 type  1   force =    -0.00749554    0.00477845   -0.00525923
     atom   52 type  4   force =     0.00750455   -0.00583570    0.00512656
     atom   53 type  4   force =     0.00047579   -0.00061007    0.00075951

     Total force =     0.374668     Total SCF correction =     0.000596
  @ DRIVER MODE: Message from server: STATUS
  @ DRIVER MODE: Message from server: GETFORCE
  @ DRIVER MODE: Returning v,forces,stress,ensemble

     Writing output data file ./calc.save/
  @ DRIVER MODE: Message from server: EXIT
  @ DRIVE MODE: Exiting

     General routines

     Parallel routines

   This run was terminated on:   1: 0:17  16Sep2021

   JOB DONE.