     Program PWSCF v.6.7GPU starts on 15Sep2021 at 16:20:26

     R & G space division:  proc/nbgrp/npool/nimage =      10
     Reading input from /storage/home/hcoda1/3/ntian30/research/carbon/CxH_vib/H2O_calc/ads_slab/CH2NNHHHH2O_a/out_0002/pw.inp
Warning: card &CELL ignored
Warning: card   CELL_DYNAMICS='IPI', ignored
Warning: card / ignored

     Current dimensions of program PWSCF are:
     Max number of different atomic species (ntypx) = 10
     Max number of k-points (npk) =  40000
     Max angular momentum in pseudopotentials (lmaxx) =  3
     Presently no symmetry can be used with electric field

     Message from routine cell_base_init:
     DEPRECATED: use true lattice parameter, not A to a.u. conversion factor

     IMPORTANT: XC functional enforced from input :
     Exchange-correlation= BEEF-VDW
                           (   1   4  43  14   2   0   0)
     Any further DFT definition will be discarded
     Please, verify this is what you really want

  @ DRIVER MODE: Connecting to
 qe_1139763_2852612.sched-torque.pace.gatech.edupe3rmrmq_scratch
  using UNIX socket
  @ DRIVER MODE: Message from server: STATUS
  @ DRIVER MODE: Message from server: INIT
  @ DRIVER MODE: Receiving replica           0          -1
  @ DRIVER MODE: Receiving encoded integer          25
  @ DRIVER MODE:  SCF:  T  FORCE:  T  STRESS:  F  VC:  F  ENSEMBLE:  F
  @ DRIVER MODE:  SCF:  T  FORCE:  T  STRESS:  F  VC:  F  ENSEMBLE:  F

     Using Slab Decomposition

     bravais-lattice index     =            0
     lattice parameter (alat)  =       1.8897  a.u.
     unit-cell volume          =    6658.9804 (a.u.)^3
     number of atoms/cell      =           58
     number of atomic types    =            5
     number of electrons       =       405.00
     number of Kohn-Sham states=          212
     kinetic-energy cutoff     =      29.3995  Ry
     charge density cutoff     =     293.9946  Ry
     scf convergence threshold =      7.3E-08
     mixing beta               =       0.0500
     number of iterations used =            8  plain     mixing
     Exchange-correlation= BEEF-VDW
                           (   1   4  43  14   2   0   0)

     celldm(1)=   1.889726  celldm(2)=   0.000000  celldm(3)=   0.000000
     celldm(4)=   0.000000  celldm(5)=   0.000000  celldm(6)=   0.000000

     crystal axes: (cart. coord. in units of alat)
               a(1) = (   6.579727   0.000000   0.000000 )
               a(2) = (  -0.000775   5.961596   0.000000 )
               a(3) = (   0.000000   0.000000  25.155947 )

     reciprocal axes: (cart. coord. in units 2 pi/alat)
               b(1) = (  0.151982  0.000020  0.000000 )
               b(2) = (  0.000000  0.167740  0.000000 )
               b(3) = (  0.000000  0.000000  0.039752 )

     PseudoPot. # 1 for Ti read from file:
     /storage/coda1/p-amedford6/0/shared/rich_project_chbe-medford/medford-share/data/pseudos_module/espresso/nninc/pbe/van/Ti.UPF
     MD5 check sum: 8e4df49b7f0d34bbd5052bf3f5ea0213
     Pseudo is Ultrasoft, Zval = 12.0
     Generated by new atomic code, or converted to UPF format
     Using radial grid of  851 points,  6 beta functions with:
                l(1) =   0
                l(2) =   0
                l(3) =   1
                l(4) =   1
                l(5) =   2
                l(6) =   2
     Q(r) pseudized with  8 coefficients,  rinner =    1.000   1.000   1.000
                                                       1.000   1.000

     PseudoPot. # 2 for O  read from file:
     /storage/coda1/p-amedford6/0/shared/rich_project_chbe-medford/medford-share/data/pseudos_module/espresso/nninc/pbe/van/O.UPF
     MD5 check sum: 78c19812648e8988a0fe644b0f25305e
     Pseudo is Ultrasoft, Zval =  6.0
     Generated by new atomic code, or converted to UPF format
     Using radial grid of  737 points,  4 beta functions with:
                l(1) =   0
                l(2) =   0
                l(3) =   1
                l(4) =   1
     Q(r) pseudized with  8 coefficients,  rinner =    0.800   0.800   0.800

     PseudoPot. # 3 for N  read from file:
     /storage/coda1/p-amedford6/0/shared/rich_project_chbe-medford/medford-share/data/pseudos_module/espresso/nninc/pbe/van/N.UPF
     MD5 check sum: 90d10febe142ad51ac9d5be1deb811c4
     Pseudo is Ultrasoft, Zval =  5.0
     Generated by new atomic code, or converted to UPF format
     Using radial grid of  729 points,  4 beta functions with:
                l(1) =   0
                l(2) =   0
                l(3) =   1
                l(4) =   1
     Q(r) pseudized with  8 coefficients,  rinner =    0.800   0.800   0.800

     PseudoPot. # 4 for C  read from file:
     /storage/coda1/p-amedford6/0/shared/rich_project_chbe-medford/medford-share/data/pseudos_module/espresso/nninc/pbe/van/C.UPF
     MD5 check sum: 1a69bf6b8db32088f5b2163dbdb77a27
     Pseudo is Ultrasoft, Zval =  4.0
     Generated by new atomic code, or converted to UPF format
     Using radial grid of  721 points,  4 beta functions with:
                l(1) =   0
                l(2) =   0
                l(3) =   1
                l(4) =   1
     Q(r) pseudized with  8 coefficients,  rinner =    0.800   0.800   0.800

     PseudoPot. # 5 for H  read from file:
     /storage/coda1/p-amedford6/0/shared/rich_project_chbe-medford/medford-share/data/pseudos_module/espresso/nninc/pbe/van/H.UPF
     MD5 check sum: b5ee9d7bfd3a09ee7748110bda690ff7
     Pseudo is Ultrasoft, Zval =  1.0
     Generated by new atomic code, or converted to UPF format
     Using radial grid of  615 points,  1 beta functions with:
                l(1) =   0
     Q(r) pseudized with  8 coefficients,  rinner =    0.800

     atomic species   valence    mass     pseudopotential
        Ti1           12.00    47.86700     Ti( 1.00)
        O1             6.00    15.99900     O ( 1.00)
        N1             5.00    14.00700     N ( 1.00)
        C1             4.00    12.01100     C ( 1.00)
        H1             1.00     1.00800     H ( 1.00)

     No symmetry found

   Cartesian axes

     site n.     atom                  positions (alat units)
         1           Ti1 tau(   1) = (   0.0004258   2.9801865   6.0000000  )
         2           Ti1 tau(   2) = (   3.2906075   1.4906267   6.0002472  )
         3           O1  tau(   3) = (   0.0006271   0.0005054   7.9858123  )
         4           O1  tau(   4) = (   3.2906025   0.0005020   7.3038282  )
         5           O1  tau(   5) = (   4.5942328   1.4918067   9.2879030  )
         6           O1  tau(   6) = (   1.9868534   1.4903216   9.2879459  )
         7           Ti1 tau(   7) = (   3.2907910   2.8959150   9.1758416  )
         8           Ti1 tau(   8) = (   0.0015273   1.4827037   9.2680791  )
         9           O1  tau(   9) = (   3.2987819   5.9401718  11.3551833  )
        10           O1  tau(  10) = (   0.0116148   5.9584955  10.6183126  )
        11           O1  tau(  11) = (   1.3094369   1.4889762  12.6418845  )
        12           O1  tau(  12) = (   5.3041503   1.4933078  12.6143371  )
        13           Ti1 tau(  13) = (   0.0302489   2.9730182  12.5448133  )
        14           Ti1 tau(  14) = (   3.3273137   1.4751619  12.4920661  )
        15           O1  tau(  15) = (   6.5331299   0.0759724  14.6728253  )
        16           O1  tau(  16) = (   3.3443954   0.0128112  13.9985917  )
        17           O1  tau(  17) = (   4.5384157   1.5150964  16.2525342  )
        18           O1  tau(  18) = (   2.0107438   1.5096167  16.1239609  )
        19           Ti1 tau(  19) = (   3.2468703   2.9375149  15.6823127  )
        20           Ti1 tau(  20) = (   6.5402329   1.3810098  16.1103674  )
        21           O1  tau(  21) = (   3.2904802   0.0005063   4.7018136  )
        22           O1  tau(  22) = (   0.0855018   5.8309792  17.2460454  )
        23           O1  tau(  23) = (   1.3043587   1.4918075   6.0039043  )
        24           O1  tau(  24) = (   5.2767064   1.4903225   6.0039473  )
        25           Ti1 tau(  25) = (   0.0000382   5.9609847   6.0000000  )
        26           Ti1 tau(  26) = (   3.2902200   4.4714249   6.0002472  )
        27           O1  tau(  27) = (   0.0002396   2.9813036   7.9858123  )
        28           O1  tau(  28) = (   3.2902150   2.9813002   7.3038282  )
        29           O1  tau(  29) = (   4.5938453   4.4726049   9.2879030  )
        30           O1  tau(  30) = (   1.9864658   4.4711199   9.2879459  )
        31           Ti1 tau(  31) = (   3.2891106   5.8743827   9.1763621  )
        32           Ti1 tau(  32) = (   0.0006254   4.4649316   9.2693709  )
        33           O1  tau(  33) = (   3.2978634   2.9839445  11.3486163  )
        34           O1  tau(  34) = (   0.0092240   2.9805883  10.6323155  )
        35           O1  tau(  35) = (   1.3057425   4.4725738  12.6940039  )
        36           O1  tau(  36) = (   5.3035974   4.4670288  12.6562451  )
        37           Ti1 tau(  37) = (   0.0240142   0.0094741  12.5095027  )
        38           Ti1 tau(  38) = (   3.3290383   4.4615466  12.5202027  )
        39           O1  tau(  39) = (   6.5484913   2.9337383  14.8377676  )
        40           O1  tau(  40) = (   3.3243726   2.9440003  13.9069550  )
        41           O1  tau(  41) = (   4.5478640   4.3999133  16.1372545  )
        42           O1  tau(  42) = (   2.0209518   4.4226222  15.9786897  )
        43           Ti1 tau(  43) = (   3.3220059   5.9437776  15.8132296  )
        44           Ti1 tau(  44) = (   0.0730556   4.5544523  15.7304118  )
        45           O1  tau(  45) = (   3.2900926   2.9813045   4.7018136  )
        46           O1  tau(  46) = (   1.3039711   4.4726057   6.0039043  )
        47           O1  tau(  47) = (   5.2763189   4.4711207   6.0039473  )
        48           N1  tau(  48) = (   0.0553545   2.8788619  17.9090770  )
        49           C1  tau(  49) = (   1.0089482   2.8008358  18.8431878  )
        50           H1  tau(  50) = (   1.0080222   3.4413729  19.7168629  )
        51           H1  tau(  51) = (   1.8954070   2.2543435  18.5800802  )
        52           N1  tau(  52) = (   5.5320326   3.6725468  18.4365114  )
        53           H1  tau(  53) = (   5.8975581   4.6271042  18.6377988  )
        54           H1  tau(  54) = (   4.8553295   3.8628436  17.6443034  )
        55           H1  tau(  55) = (   5.1025442   3.2364756  19.2632064  )
        56           O1  tau(  56) = (   2.8928424   5.6518753  18.2681889  )
        57           H1  tau(  57) = (   3.0708471   0.5134993  18.7460362  )
        58           H1  tau(  58) = (   1.9180978   5.6479514  18.1114729  )

     number of k points=    10  Fermi-Dirac smearing, width (Ry)=  0.0073
                       cart. coord. in units 2pi/alat
        k(    1) = (   0.0000000   0.0000000   0.0000000), wk =   0.1250000
        k(    2) = (   0.0000000   0.0419351   0.0000000), wk =   0.2500000
        k(    3) = (   0.0000000  -0.0838702   0.0000000), wk =   0.1250000
        k(    4) = (   0.0379955   0.0000049   0.0000000), wk =   0.2500000
        k(    5) = (   0.0379955   0.0419400   0.0000000), wk =   0.2500000
        k(    6) = (   0.0379955  -0.0838652   0.0000000), wk =   0.2500000
        k(    7) = (   0.0379955  -0.0419301   0.0000000), wk =   0.2500000
        k(    8) = (  -0.0759910  -0.0000099   0.0000000), wk =   0.1250000
        k(    9) = (  -0.0759910   0.0419252   0.0000000), wk =   0.2500000
        k(   10) = (  -0.0759910  -0.0838800   0.0000000), wk =   0.1250000

     Initial potential from superposition of free atoms

     starting charge  388.99913, renormalised to  405.00000

     negative rho (up, down):  1.579E-02 0.000E+00

     %%%%%%%%%%%%%%%%%%%%%%%%%%%%%%%%%%%%%%%%%%%%%%%%%%%%%%%%%%%%%%%%%%%%%%%%
     %                                                                      %
     % You are using vdW-DF, which was implemented by the Thonhauser group. %
     % Please cite the following two papers that made this development      %
     % possible and the two reviews that describe the various versions:     %
     %                                                                      %
     %   T. Thonhauser et al., PRL 115, 136402 (2015).                      %
     %   T. Thonhauser et al., PRB 76, 125112 (2007).                       %
     %   K. Berland et al., Rep. Prog. Phys. 78, 066501 (2015).             %
     %   D.C. Langreth et al., J. Phys.: Condens. Matter 21, 084203 (2009). %
     %                                                                      %
     %                                                                      %
     % If you are calculating the stress with vdW-DF, please also cite:     %
     %                                                                      %
     %   R. Sabatini et al., J. Phys.: Condens. Matter 24, 424209 (2012).   %
     %                                                                      %
     %%%%%%%%%%%%%%%%%%%%%%%%%%%%%%%%%%%%%%%%%%%%%%%%%%%%%%%%%%%%%%%%%%%%%%%%

     Adding external electric field

     Computed dipole along edir(3) :
        Dipole              -14.4816 Ry au,        -36.8086 Debye
        Dipole field         -0.0273 Ry au,

        Potential amp.        2.5333 Ry
        Total length         46.3494 bohr

     Starting wfcs are  307 atomic wfcs
  @ DRIVER MODE: Message from server: STATUS
  @ DRIVER MODE: Message from server: POSDATA
  @ DRIVER MODE: Reading and sharing cell
  @ DRIVER MODE: Reading and sharing positions
  @ DRIVER MODE: Received positions

     Self-consistent Calculation

     iteration #  1     ecut=    29.40 Ry     beta= 0.05
     Davidson diagonalization with overlap
     c_bands:  2 eigenvalues not converged
     c_bands:  5 eigenvalues not converged
     c_bands:  1 eigenvalues not converged
     c_bands:  3 eigenvalues not converged
     c_bands:  3 eigenvalues not converged
     c_bands:  4 eigenvalues not converged
     ethr =  1.00E-05,  avg # of iterations = 27.0

[...]

     total energy              =   -2173.25358863 Ry
     estimated scf accuracy    <    9121.37308575 Ry

     iteration #  2     ecut=    29.40 Ry     beta= 0.05
     Davidson diagonalization with overlap
     ethr =  1.00E-02,  avg # of iterations = 28.3

[...]

     iteration # 78     ecut=    29.40 Ry     beta= 0.05
     Davidson diagonalization with overlap
     c_bands:  1 eigenvalues not converged
     c_bands:  1 eigenvalues not converged
     c_bands:  2 eigenvalues not converged
     ethr =  2.63E-11,  avg # of iterations = 15.3

[...]

     total energy              =   -2976.32708954 Ry
     estimated scf accuracy    <       0.00000013 Ry

     iteration # 79     ecut=    29.40 Ry     beta= 0.05
     Davidson diagonalization with overlap
     ethr =  2.63E-11,  avg # of iterations = 12.7

     negative rho (up, down):  1.311E-02 0.000E+00

     Adding external electric field

     Computed dipole along edir(3) :
        Dipole                1.3442 Ry au,          3.4166 Debye
        Dipole field          0.0025 Ry au,

        Potential amp.       -0.2351 Ry
        Total length         46.3494 bohr

     End of self-consistent calculation

          k = 0.0000 0.0000 0.0000 ( 18029 PWs)   bands (ev):

   -55.1670 -55.1378 -55.1259 -55.1037 -55.0875 -55.0444 -55.0033 -54.9768
   -54.9659 -54.9505 -54.9413 -54.9331 -54.8668 -54.7208 -54.1496 -54.1156
   -31.7337 -31.6275 -31.5317 -31.4980 -31.4767 -31.4691 -31.4659 -31.4277
   -31.4048 -31.3828 -31.3769 -31.3746 -31.3630 -31.3413 -31.3149 -31.3119
   -31.3020 -31.2906 -31.2848 -31.2800 -31.2491 -31.2321 -31.2255 -31.2060
   -31.1947 -31.1770 -31.1751 -31.1744 -31.1651 -31.1627 -31.1462 -31.1370
   -31.1269 -31.1255 -31.1035 -31.0961 -31.0921 -31.0743 -31.0485 -31.0128
   -30.9974 -30.8664 -30.5581 -30.4661 -30.4440 -30.3747 -30.2880 -30.1769
   -19.0581 -18.8043 -16.0044 -15.7473 -15.6199 -15.4419 -15.3617 -15.2082
   -15.1393 -15.0569 -15.0331 -14.9639 -14.9274 -14.8948 -14.7819 -14.7749
   -14.7023 -14.7013 -14.6946 -14.6613 -14.6575 -14.6560 -14.5967 -14.5935
   -14.5541 -14.5430 -14.5309 -14.3889 -14.3136 -14.2566 -14.1450 -13.9900
   -12.6520 -12.5349  -8.9876  -7.6810  -6.9458  -6.5547  -5.7875  -3.8283
    -3.3423  -3.2122  -3.1709  -3.1137  -3.0671  -2.9922  -2.8902  -2.7694
    -2.5507  -2.4760  -2.4337  -2.3851  -2.3759  -2.3293  -2.2447  -2.1575
    -2.1246  -2.0891  -2.0398  -2.0239  -1.9820  -1.9560  -1.9370  -1.8954
    -1.8877  -1.7401  -1.6863  -1.6271  -1.5837  -1.5650  -1.5549  -1.4980
    -1.4847  -1.4618  -1.4586  -1.4488  -1.4211  -1.3829  -1.3789  -1.3267
    -1.2954  -1.1614  -1.0893  -0.9762  -0.9215  -0.8814  -0.7957  -0.7272
    -0.7109  -0.6386  -0.5764  -0.5548  -0.4976  -0.4629  -0.3708  -0.3385
    -0.2899  -0.2610  -0.1529  -0.1392  -0.1251  -0.0540   0.0369   0.0449
     0.0702   0.1100   0.1984   0.2327   0.2881   0.3143   0.4145   0.4459
     0.4872   0.5040   0.5302   0.6124   0.6814   0.7204   0.7813   0.7907
     0.8252   0.8303   0.8523   0.9469   0.9769   0.9831   1.0311   1.1976
     1.2528   1.4547   1.4562   1.7871   1.8226   1.8733   2.0595   2.4471
     2.4944   3.9320   3.9982   4.0466   4.0638   4.0822   4.1424   4.1751
     4.4024   4.4254   4.4396   4.4507

[...]

          k = 0.0380-0.0419 0.0000 ( 17876 PWs)   bands (ev):

[...]

          k =-0.0760-0.0000 0.0000 ( 17886 PWs)   bands (ev):

[...]

          k =-0.0760-0.0839 0.0000 ( 17948 PWs)   bands (ev):

   -55.1562 -55.1365 -55.1207 -55.1207 -55.0853 -55.0352 -55.0124 -54.9613
   -54.9555 -54.9525 -54.9510 -54.9491 -54.8651 -54.7225 -54.1326 -54.1325
   -31.5448 -31.5299 -31.4427 -31.4427 -31.4426 -31.4330 -31.4131 -31.4131
   -31.3786 -31.3731 -31.3635 -31.3618 -31.3316 -31.3035 -31.2960 -31.2938
   -31.2912 -31.2876 -31.2851 -31.2805 -31.2714 -31.2574 -31.2436 -31.2400
   -31.2400 -31.2379 -31.2355 -31.2092 -31.1945 -31.1865 -31.1755 -31.1711
   -31.1706 -31.1700 -31.1509 -31.1499 -31.1309 -31.1284 -31.0670 -31.0046
   -31.0011 -30.9405 -30.4566 -30.4566 -30.3707 -30.3706 -30.3314 -30.3314
   -19.0498 -18.8080 -15.5066 -15.3714 -15.3314 -15.2446 -15.1597 -15.1430
   -15.1356 -15.1027 -15.0499 -14.9910 -14.9446 -14.9100 -14.8685 -14.8674
   -14.8546 -14.7539 -14.7427 -14.7353 -14.7184 -14.6701 -14.6603 -14.6436
   -14.6183 -14.6166 -14.5916 -14.5108 -14.5099 -14.4135 -14.3224 -14.0985
   -12.6365 -12.6364  -8.9749  -7.6969  -6.9027  -6.5443  -5.8015  -3.9096
    -3.0162  -2.7640  -2.5701  -2.5415  -2.4234  -2.3730  -2.3254  -2.3069
    -2.2186  -2.1766  -2.1603  -2.1552  -2.1347  -2.0792  -2.0556  -2.0167
    -1.9966  -1.9829  -1.9757  -1.9503  -1.9450  -1.9157  -1.8979  -1.8781
    -1.8723  -1.8361  -1.7970  -1.7862  -1.7482  -1.7306  -1.7192  -1.6647
    -1.5634  -1.5337  -1.4869  -1.4230  -1.3569  -1.3532  -1.2898  -1.2763
    -1.2494  -1.2273  -1.1913  -1.1795  -1.0927  -1.0108  -0.9052  -0.8932
    -0.8877  -0.7843  -0.7487  -0.7069  -0.6780  -0.6390  -0.5843  -0.5069
    -0.5015  -0.4242  -0.3855  -0.3737  -0.3545  -0.2164  -0.1836  -0.1506
    -0.1253  -0.1210  -0.0700  -0.0240   0.0061   0.0436   0.0710   0.1039
     0.1201   0.1954   0.3301   0.3646   0.4049   0.5379   0.5665   0.6804
     0.7064   0.8273   0.9012   0.9451   0.9663   1.0436   1.1192   1.1425
     1.1483   1.2594   1.3102   1.3123   1.3294   2.2320   2.2335   2.3144
     2.3146   3.7856   4.0765   4.2029   4.2191   4.2604   4.3834   4.4495
     4.4843   4.5067   4.5094   4.5940

     the Fermi energy is     3.9810 ev

!    total energy              =   -2976.32709904 Ry
     estimated scf accuracy    <       0.00000004 Ry
     smearing contrib. (-TS)   =      -0.04073233 Ry
     internal energy E=F+TS    =   -2976.28636670 Ry

     The total energy is F=E-TS. E is the sum of the following terms:
     one-electron contribution =  -23820.74105331 Ry
     hartree contribution      =   12009.25520514 Ry
     xc contribution           =    -495.76065784 Ry
     ewald contribution        =    9330.95672945 Ry
     electric field correction =       0.00340986 Ry

     convergence has been achieved in  79 iterations

     Forces acting on atoms (cartesian axes, Ry/au):

     atom    1 type  1   force =     0.00015854   -0.00019613    0.09422519
     atom    2 type  1   force =    -0.00011894   -0.00035499   -0.17724448
     atom    3 type  2   force =     0.00008710    0.00003560   -0.02132849
     atom    4 type  2   force =     0.00002079   -0.00174333    0.05668252
     atom    5 type  2   force =    -0.01044068   -0.00127720    0.00673264
     atom    6 type  2   force =     0.01220222   -0.00072156    0.00624636
     atom    7 type  1   force =    -0.00028640    0.00287661   -0.01267367
     atom    8 type  1   force =    -0.00014763    0.00438345    0.00454384
     atom    9 type  2   force =    -0.00036085    0.00008944    0.00077519
     atom   10 type  2   force =    -0.00008037   -0.00089438   -0.00639305
     atom   11 type  2   force =    -0.00041223   -0.00031969    0.00007557
     atom   12 type  2   force =    -0.00032299   -0.00041810    0.00016543
     atom   13 type  1   force =    -0.00033728   -0.00016586   -0.00038612
     atom   14 type  1   force =     0.00002786   -0.00044182   -0.00036673
     atom   15 type  2   force =    -0.00012944   -0.00010627    0.00011599
     atom   16 type  2   force =    -0.00065376    0.00023707   -0.00026734
     atom   17 type  2   force =     0.00025034    0.00024888    0.00056317
     atom   18 type  2   force =     0.00036602   -0.00008234    0.00043796
     atom   19 type  1   force =     0.00026470   -0.00096602   -0.00026433
     atom   20 type  1   force =     0.00054575   -0.00050905   -0.00032642
     atom   21 type  2   force =     0.00004816    0.00001675    0.10364143
     atom   22 type  2   force =    -0.00027414    0.00014714    0.00116250
     atom   23 type  2   force =    -0.07081065   -0.00010478   -0.02715426
     atom   24 type  2   force =     0.07071103    0.00033348   -0.02718597
     atom   25 type  1   force =    -0.00006300   -0.00022814    0.09364885
     atom   26 type  1   force =    -0.00012981   -0.00042431   -0.17737461
     atom   27 type  2   force =     0.00015059   -0.00039281   -0.02028754
     atom   28 type  2   force =     0.00005454   -0.00138116    0.05583541
     atom   29 type  2   force =    -0.01030657   -0.00030012    0.00538498
     atom   30 type  2   force =     0.01198132    0.00009862    0.00502255
     atom   31 type  1   force =    -0.00017222    0.00358480   -0.01531572
     atom   32 type  1   force =    -0.00018532   -0.00484237    0.00439487
     atom   33 type  2   force =    -0.00006639   -0.00017019    0.00032879
     atom   34 type  2   force =     0.00120564    0.00258695   -0.00428521
     atom   35 type  2   force =    -0.00070096   -0.00017224    0.00019248
     atom   36 type  2   force =    -0.00002015   -0.00003396    0.00047094
     atom   37 type  1   force =     0.00039835    0.00041332   -0.00032839
     atom   38 type  1   force =     0.00000150    0.00053881   -0.00159059
     atom   39 type  2   force =     0.00022722   -0.00041403    0.00000347
     atom   40 type  2   force =     0.00005231    0.00004812    0.00063208
     atom   41 type  2   force =    -0.00012641   -0.00032659   -0.00000053
     atom   42 type  2   force =     0.00046437   -0.00035902    0.00015389
     atom   43 type  1   force =    -0.00072549    0.00066474    0.00037009
     atom   44 type  1   force =    -0.00004335    0.00030742   -0.00058085
     atom   45 type  2   force =     0.00004186   -0.00002545    0.10364458
     atom   46 type  2   force =    -0.07084420   -0.00006869   -0.02715328
     atom   47 type  2   force =     0.07074333    0.00033437   -0.02718435
     atom   48 type  3   force =    -0.01438460    0.00387421   -0.00492817
     atom   49 type  4   force =     0.00850929   -0.00106835    0.00673177
     atom   50 type  5   force =     0.00132264   -0.00021487   -0.00009766
     atom   51 type  5   force =    -0.00017232    0.00060430    0.00019083
     atom   52 type  3   force =     0.00467451   -0.00174724   -0.00078285
     atom   53 type  5   force =    -0.00135264   -0.00037506    0.00018817
     atom   54 type  5   force =     0.00089597   -0.00085449   -0.00012861
     atom   55 type  5   force =    -0.00003990   -0.00054075   -0.00006889
     atom   56 type  2   force =    -0.00032937    0.00118864   -0.00045242
     atom   57 type  5   force =    -0.00022743   -0.00077830    0.00040043
     atom   58 type  5   force =    -0.00114047    0.00040694    0.00118856

     Total force =     0.365833     Total SCF correction =     0.000475
  @ DRIVER MODE: Message from server: STATUS
  @ DRIVER MODE: Message from server: GETFORCE
  @ DRIVER MODE: Returning v,forces,stress,ensemble

     Writing output data file ./calc.save/
  @ DRIVER MODE: Message from server: EXIT
  @ DRIVE MODE: Exiting

     General routines

     Parallel routines

   This run was terminated on:  16:43:34  15Sep2021

   JOB DONE.