     Program PWSCF v.6.7GPU starts on 14Sep2021 at 16: 1:26

     R & G space division:  proc/nbgrp/npool/nimage =      10
     Reading input from /storage/home/hcoda1/3/ntian30/research/carbon/CxH_vib/CH2_calc/ads_slab/CH2ON2_b/out_0007/pw.inp
Warning: card &CELL ignored
Warning: card   CELL_DYNAMICS='IPI', ignored
Warning: card / ignored

     Current dimensions of program PWSCF are:
     Max number of different atomic species (ntypx) = 10
     Max number of k-points (npk) =  40000
     Max angular momentum in pseudopotentials (lmaxx) =  3
     Presently no symmetry can be used with electric field

     Message from routine cell_base_init:
     DEPRECATED: use true lattice parameter, not A to a.u. conversion factor

     IMPORTANT: XC functional enforced from input :
     Exchange-correlation= BEEF-VDW
                           (   1   4  43  14   2   0   0)
     Any further DFT definition will be discarded
     Please, verify this is what you really want

  @ DRIVER MODE: Connecting to
 qe_1139763_2840441.sched-torque.pace.gatech.eduo_tf9835_scratch
  using UNIX socket
  @ DRIVER MODE: Message from server: STATUS
  @ DRIVER MODE: Message from server: INIT
  @ DRIVER MODE: Receiving replica           0          -1
  @ DRIVER MODE: Receiving encoded integer          25
  @ DRIVER MODE:  SCF:  T  FORCE:  T  STRESS:  F  VC:  F  ENSEMBLE:  F
  @ DRIVER MODE:  SCF:  T  FORCE:  T  STRESS:  F  VC:  F  ENSEMBLE:  F

     Using Slab Decomposition

     bravais-lattice index     =            0
     lattice parameter (alat)  =       1.8897  a.u.
     unit-cell volume          =    6658.9804 (a.u.)^3
     number of atoms/cell      =           53
     number of atomic types    =            5
     number of electrons       =       400.00
     number of Kohn-Sham states=          210
     kinetic-energy cutoff     =      29.3995  Ry
     charge density cutoff     =     293.9946  Ry
     scf convergence threshold =      7.3E-08
     mixing beta               =       0.0500
     number of iterations used =            8  plain     mixing
     Exchange-correlation= BEEF-VDW
                           (   1   4  43  14   2   0   0)

     celldm(1)=   1.889726  celldm(2)=   0.000000  celldm(3)=   0.000000
     celldm(4)=   0.000000  celldm(5)=   0.000000  celldm(6)=   0.000000

     crystal axes: (cart. coord. in units of alat)
               a(1) = (   6.579727   0.000000   0.000000 )
               a(2) = (  -0.000775   5.961596   0.000000 )
               a(3) = (   0.000000   0.000000  25.155947 )

     reciprocal axes: (cart. coord. in units 2 pi/alat)
               b(1) = (  0.151982  0.000020  0.000000 )
               b(2) = (  0.000000  0.167740  0.000000 )
               b(3) = (  0.000000  0.000000  0.039752 )

     PseudoPot. # 1 for C  read from file:
     /storage/coda1/p-amedford6/0/shared/rich_project_chbe-medford/medford-share/data/pseudos_module/espresso/nninc/pbe/van/C.UPF
     MD5 check sum: 1a69bf6b8db32088f5b2163dbdb77a27
     Pseudo is Ultrasoft, Zval =  4.0
     Generated by new atomic code, or converted to UPF format
     Using radial grid of  721 points,  4 beta functions with:
                l(1) =   0
                l(2) =   0
                l(3) =   1
                l(4) =   1
     Q(r) pseudized with  8 coefficients,  rinner =    0.800   0.800   0.800

     PseudoPot. # 2 for H  read from file:
     /storage/coda1/p-amedford6/0/shared/rich_project_chbe-medford/medford-share/data/pseudos_module/espresso/nninc/pbe/van/H.UPF
     MD5 check sum: b5ee9d7bfd3a09ee7748110bda690ff7
     Pseudo is Ultrasoft, Zval =  1.0
     Generated by new atomic code, or converted to UPF format
     Using radial grid of  615 points,  1 beta functions with:
                l(1) =   0
     Q(r) pseudized with  8 coefficients,  rinner =    0.800

     PseudoPot. # 3 for O  read from file:
     /storage/coda1/p-amedford6/0/shared/rich_project_chbe-medford/medford-share/data/pseudos_module/espresso/nninc/pbe/van/O.UPF
     MD5 check sum: 78c19812648e8988a0fe644b0f25305e
     Pseudo is Ultrasoft, Zval =  6.0
     Generated by new atomic code, or converted to UPF format
     Using radial grid of  737 points,  4 beta functions with:
                l(1) =   0
                l(2) =   0
                l(3) =   1
                l(4) =   1
     Q(r) pseudized with  8 coefficients,  rinner =    0.800   0.800   0.800

     PseudoPot. # 4 for Ti read from file:
     /storage/coda1/p-amedford6/0/shared/rich_project_chbe-medford/medford-share/data/pseudos_module/espresso/nninc/pbe/van/Ti.UPF
     MD5 check sum: 8e4df49b7f0d34bbd5052bf3f5ea0213
     Pseudo is Ultrasoft, Zval = 12.0
     Generated by new atomic code, or converted to UPF format
     Using radial grid of  851 points,  6 beta functions with:
                l(1) =   0
                l(2) =   0
                l(3) =   1
                l(4) =   1
                l(5) =   2
                l(6) =   2
     Q(r) pseudized with  8 coefficients,  rinner =    1.000   1.000   1.000
                                                       1.000   1.000

     PseudoPot. # 5 for N  read from file:
     /storage/coda1/p-amedford6/0/shared/rich_project_chbe-medford/medford-share/data/pseudos_module/espresso/nninc/pbe/van/N.UPF
     MD5 check sum: 90d10febe142ad51ac9d5be1deb811c4
     Pseudo is Ultrasoft, Zval =  5.0
     Generated by new atomic code, or converted to UPF format
     Using radial grid of  729 points,  4 beta functions with:
                l(1) =   0
                l(2) =   0
                l(3) =   1
                l(4) =   1
     Q(r) pseudized with  8 coefficients,  rinner =    0.800   0.800   0.800

     atomic species   valence    mass     pseudopotential
        C1             4.00    12.01100     C ( 1.00)
        H1             1.00     1.00800     H ( 1.00)
        O1             6.00    15.99900     O ( 1.00)
        Ti1           12.00    47.86700     Ti( 1.00)
        N1             5.00    14.00700     N ( 1.00)

     No symmetry found

   Cartesian axes

     site n.     atom                  positions (alat units)
         1           C1  tau(   1) = (   6.4247902   2.9910588  18.6917704  )
         2           H1  tau(   2) = (   6.3980358   3.9338040  19.2291268  )
         3           H1  tau(   3) = (   6.3671137   2.0386567  19.2103458  )
         4           O1  tau(   4) = (   3.2904802   0.0005063   4.7018136  )
         5           O1  tau(   5) = (   3.2900926   2.9813045   4.7018136  )
         6           O1  tau(   6) = (   1.3043587   1.4918075   6.0039043  )
         7           O1  tau(   7) = (   1.3039711   4.4726057   6.0039043  )
         8           O1  tau(   8) = (   5.2767064   1.4903225   6.0039473  )
         9           O1  tau(   9) = (   5.2763189   4.4711207   6.0039473  )
        10           O1  tau(  10) = (   3.2906025   0.0005020   7.3038282  )
        11           O1  tau(  11) = (   3.2902150   2.9813002   7.3038282  )
        12           O1  tau(  12) = (   0.0006271   0.0005054   7.9858123  )
        13           O1  tau(  13) = (   0.0002396   2.9813036   7.9858123  )
        14           O1  tau(  14) = (   4.5942328   1.4918067   9.2879030  )
        15           O1  tau(  15) = (   4.5938453   4.4726049   9.2879030  )
        16           O1  tau(  16) = (   1.9868534   1.4903216   9.2879459  )
        17           O1  tau(  17) = (   1.9864658   4.4711199   9.2879459  )
        18           O1  tau(  18) = (   0.0058113   2.9878523  10.5832334  )
        19           O1  tau(  19) = (   0.0062988   0.0093020  10.6005518  )
        20           O1  tau(  20) = (   3.2955317   2.9954032  11.3404818  )
        21           O1  tau(  21) = (   3.2944299   0.0136787  11.3445968  )
        22           O1  tau(  22) = (   5.2904553   1.5027675  12.6317203  )
        23           O1  tau(  23) = (   5.2914467   4.4836083  12.6349631  )
        24           O1  tau(  24) = (   1.2933861   1.5040032  12.6362007  )
        25           O1  tau(  25) = (   1.2922507   4.4849626  12.6395598  )
        26           O1  tau(  26) = (   3.2955364   2.9961609  13.9180299  )
        27           O1  tau(  27) = (   3.2969677   0.0155663  13.9438287  )
        28           O1  tau(  28) = (   0.0016464   0.0229801  14.6780835  )
        29           O1  tau(  29) = (   0.0078505   2.9966620  14.7218711  )
        30           O1  tau(  30) = (   4.5417949   4.4807699  16.1031406  )
        31           O1  tau(  31) = (   4.5422182   1.5234006  16.1020929  )
        32           O1  tau(  32) = (   2.0382733   4.4802786  16.1011463  )
        33           O1  tau(  33) = (   2.0385641   1.5240134  16.0993588  )
        34           O1  tau(  34) = (   6.5794991   0.0244991  17.1995468  )
        35           O1  tau(  35) = (   6.5588415   3.0026814  17.4289308  )
        36           Ti1 tau(  36) = (   0.0004258   2.9801865   6.0000000  )
        37           Ti1 tau(  37) = (   0.0000382   5.9609847   6.0000000  )
        38           Ti1 tau(  38) = (   3.2906075   1.4906267   6.0002472  )
        39           Ti1 tau(  39) = (   3.2902200   4.4714249   6.0002472  )
        40           Ti1 tau(  40) = (   3.2947477   0.0499856   9.1537742  )
        41           Ti1 tau(  41) = (   3.3215383   3.0289251   9.1580241  )
        42           Ti1 tau(  42) = (   0.0276872   4.5181110   9.2597866  )
        43           Ti1 tau(  43) = (   0.0223396   1.5961087   9.3523429  )
        44           Ti1 tau(  44) = (   3.3278215   4.4891914  12.4850086  )
        45           Ti1 tau(  45) = (   3.3277968   1.5111787  12.4828596  )
        46           Ti1 tau(  46) = (   0.0250534   0.0277200  12.4935153  )
        47           Ti1 tau(  47) = (   0.0290128   3.0118426  12.7617797  )
        48           Ti1 tau(  48) = (   3.2948489   3.0033751  15.7103116  )
        49           Ti1 tau(  49) = (   3.2895243   0.0226186  15.7353524  )
        50           Ti1 tau(  50) = (   0.0095488   1.4190105  15.9501391  )
        51           Ti1 tau(  51) = (   0.0117608   4.6113996  15.9785021  )
        52           N1  tau(  52) = (   3.7826193   3.0501191  20.3090129  )
        53           N1  tau(  53) = (   2.7364546   2.9530354  19.9655958  )

     number of k points=    10  Fermi-Dirac smearing, width (Ry)=  0.0073
                       cart. coord. in units 2pi/alat
        k(    1) = (   0.0000000   0.0000000   0.0000000), wk =   0.1250000
        k(    2) = (   0.0000000   0.0419351   0.0000000), wk =   0.2500000
        k(    3) = (   0.0000000  -0.0838702   0.0000000), wk =   0.1250000
        k(    4) = (   0.0379955   0.0000049   0.0000000), wk =   0.2500000
        k(    5) = (   0.0379955   0.0419400   0.0000000), wk =   0.2500000
        k(    6) = (   0.0379955  -0.0838652   0.0000000), wk =   0.2500000
        k(    7) = (   0.0379955  -0.0419301   0.0000000), wk =   0.2500000
        k(    8) = (  -0.0759910  -0.0000099   0.0000000), wk =   0.1250000
        k(    9) = (  -0.0759910   0.0419252   0.0000000), wk =   0.2500000
        k(   10) = (  -0.0759910  -0.0838800   0.0000000), wk =   0.1250000

     Initial potential from superposition of free atoms

     starting charge  383.99917, renormalised to  400.00000

     negative rho (up, down):  1.498E-02 0.000E+00

     %%%%%%%%%%%%%%%%%%%%%%%%%%%%%%%%%%%%%%%%%%%%%%%%%%%%%%%%%%%%%%%%%%%%%%%%
     %                                                                      %
     % You are using vdW-DF, which was implemented by the Thonhauser group. %
     % Please cite the following two papers that made this development      %
     % possible and the two reviews that describe the various versions:     %
     %                                                                      %
     %   T. Thonhauser et al., PRL 115, 136402 (2015).                      %
     %   T. Thonhauser et al., PRB 76, 125112 (2007).                       %
     %   K. Berland et al., Rep. Prog. Phys. 78, 066501 (2015).             %
     %   D.C. Langreth et al., J. Phys.: Condens. Matter 21, 084203 (2009). %
     %                                                                      %
     %                                                                      %
     % If you are calculating the stress with vdW-DF, please also cite:     %
     %                                                                      %
     %   R. Sabatini et al., J. Phys.: Condens. Matter 24, 424209 (2012).   %
     %                                                                      %
     %%%%%%%%%%%%%%%%%%%%%%%%%%%%%%%%%%%%%%%%%%%%%%%%%%%%%%%%%%%%%%%%%%%%%%%%

     Adding external electric field

     Computed dipole along edir(3) :
        Dipole              -12.3567 Ry au,        -31.4077 Debye
        Dipole field         -0.0233 Ry au,

        Potential amp.        2.1616 Ry
        Total length         46.3494 bohr

     Starting wfcs are  302 atomic wfcs
  @ DRIVER MODE: Message from server: STATUS
  @ DRIVER MODE: Message from server: POSDATA
  @ DRIVER MODE: Reading and sharing cell
  @ DRIVER MODE: Reading and sharing positions
  @ DRIVER MODE: Received positions

     Self-consistent Calculation

     iteration #  1     ecut=    29.40 Ry     beta= 0.05
     Davidson diagonalization with overlap
     c_bands:  2 eigenvalues not converged
     c_bands:  2 eigenvalues not converged
     c_bands:  2 eigenvalues not converged
     c_bands:  2 eigenvalues not converged
     c_bands:  4 eigenvalues not converged
     c_bands:  2 eigenvalues not converged
     c_bands:  5 eigenvalues not converged
     c_bands:  1 eigenvalues not converged
     c_bands:  3 eigenvalues not converged
     c_bands:  5 eigenvalues not converged
     ethr =  1.00E-05,  avg # of iterations = 22.0

[...]

     total energy              =   -2430.19389389 Ry
     estimated scf accuracy    <    6093.24840705 Ry

     iteration #  2     ecut=    29.40 Ry     beta= 0.05
     Davidson diagonalization with overlap
     ethr =  1.00E-02,  avg # of iterations = 22.0

[...]

     iteration # 80     ecut=    29.40 Ry     beta= 0.05
     Davidson diagonalization with overlap
     c_bands:  1 eigenvalues not converged
     ethr =  3.28E-11,  avg # of iterations = 14.1

[...]

     total energy              =   -2970.35123901 Ry
     estimated scf accuracy    <       0.00000009 Ry

     iteration # 81     ecut=    29.40 Ry     beta= 0.05
     Davidson diagonalization with overlap
     ethr =  2.17E-11,  avg # of iterations =  4.8

     negative rho (up, down):  1.508E-02 0.000E+00

     Adding external electric field

     Computed dipole along edir(3) :
        Dipole                0.9953 Ry au,          2.5298 Debye
        Dipole field          0.0019 Ry au,

        Potential amp.       -0.1741 Ry
        Total length         46.3494 bohr

     End of self-consistent calculation

          k = 0.0000 0.0000 0.0000 ( 18029 PWs)   bands (ev):

   -55.5218 -55.5125 -55.4846 -55.4761 -55.4179 -55.4008 -55.3755 -55.3114
   -55.3058 -55.2961 -55.2929 -55.2596 -55.2411 -55.2165 -54.5464 -54.5123
   -32.0834 -31.9947 -31.8956 -31.8857 -31.8314 -31.8273 -31.8200 -31.8002
   -31.7722 -31.7562 -31.7542 -31.7289 -31.7048 -31.6945 -31.6798 -31.6615
   -31.6467 -31.6461 -31.6370 -31.6165 -31.5969 -31.5927 -31.5842 -31.5787
   -31.5744 -31.5473 -31.5467 -31.5253 -31.5196 -31.5182 -31.4969 -31.4749
   -31.4694 -31.4466 -31.4377 -31.4373 -31.4299 -31.4252 -31.4034 -31.3990
   -31.3937 -31.3860 -30.9564 -30.8589 -30.8366 -30.7731 -30.6870 -30.5757
   -21.4049 -19.7407 -16.3054 -16.0049 -15.8633 -15.7327 -15.6762 -15.5647
   -15.4080 -15.3484 -15.2512 -15.2019 -15.1514 -15.1232 -15.1102 -15.0977
   -15.0643 -15.0547 -15.0518 -14.9840 -14.9730 -14.9368 -14.9238 -14.9234
   -14.8260 -14.7766 -14.7111 -14.6518 -14.5981 -14.5447 -14.5199 -13.0472
   -12.9288  -9.1233  -6.6675  -5.3888  -5.3866  -4.5590  -4.5485  -3.6544
    -3.4760  -3.4314  -3.4267  -3.3728  -3.3620  -3.2643  -3.1448  -3.1086
    -2.8237  -2.7346  -2.7015  -2.6878  -2.6793  -2.5501  -2.4895  -2.3717
    -2.3667  -2.3524  -2.3503  -2.3417  -2.2987  -2.2943  -2.2513  -2.2209
    -2.1316  -2.0732  -1.9637  -1.9526  -1.9274  -1.8643  -1.8317  -1.8091
    -1.8062  -1.7610  -1.7587  -1.7556  -1.7112  -1.6234  -1.5192  -1.4780
    -1.3824  -1.3485  -1.2364  -1.1042  -1.0271  -0.9870  -0.9341  -0.8844
    -0.8797  -0.8607  -0.8321  -0.8216  -0.8068  -0.6898  -0.5752  -0.5733
    -0.4717  -0.4197  -0.3957  -0.3788  -0.2826  -0.2641  -0.2557  -0.1786
    -0.0216  -0.0193  -0.0056   0.1129   0.1417   0.1586   0.2086   0.2302
     0.2713   0.2955   0.3492   0.4050   0.4143   0.4639   0.4723   0.4937
     0.5995   0.6584   0.6639   0.7223   0.7663   0.9518   0.9664   1.1069
     1.1653   1.3815   1.4782   1.5287   1.6473   2.0652   2.1244   3.6384
     3.6737   3.6949   3.7435   3.7758   3.8063   3.8742   4.0807   4.0982
     4.1003   4.1277

[...]

          k = 0.0380-0.0419 0.0000 ( 17876 PWs)   bands (ev):

[...]

          k =-0.0760-0.0000 0.0000 ( 17886 PWs)   bands (ev):

[...]

          k =-0.0760-0.0839 0.0000 ( 17948 PWs)   bands (ev):

   -55.5106 -55.4957 -55.4954 -55.4929 -55.4101 -55.3973 -55.3832 -55.3146
   -55.3017 -55.2900 -55.2767 -55.2762 -55.2473 -55.2198 -54.5298 -54.5287
   -31.8861 -31.8833 -31.8187 -31.8050 -31.8027 -31.8006 -31.7909 -31.7800
   -31.7683 -31.7435 -31.7271 -31.7143 -31.7016 -31.6625 -31.6508 -31.6444
   -31.6392 -31.6344 -31.6288 -31.6247 -31.6133 -31.6065 -31.6045 -31.6008
   -31.5979 -31.5953 -31.5776 -31.5714 -31.5433 -31.5336 -31.5292 -31.5156
   -31.5040 -31.4947 -31.4896 -31.4823 -31.4802 -31.4755 -31.4587 -31.4381
   -31.4274 -31.4139 -30.8499 -30.8486 -30.7697 -30.7688 -30.7306 -30.7296
   -21.4047 -19.7335 -15.7363 -15.7062 -15.6071 -15.4731 -15.4624 -15.4216
   -15.3806 -15.3226 -15.2640 -15.2610 -15.2203 -15.2079 -15.1856 -15.1499
   -15.1188 -15.0747 -15.0614 -15.0569 -15.0448 -14.9900 -14.9833 -14.9437
   -14.9254 -14.9184 -14.8741 -14.8665 -14.7921 -14.7518 -14.7294 -13.0314
   -13.0287  -9.1359  -6.6512  -5.3649  -5.3186  -4.5638  -4.5582  -3.5714
    -3.1694  -3.0259  -2.9899  -2.8308  -2.6951  -2.6843  -2.6298  -2.5396
    -2.5061  -2.4622  -2.4104  -2.3958  -2.3730  -2.3686  -2.3598  -2.3561
    -2.3472  -2.2956  -2.2776  -2.2427  -2.1843  -2.1786  -2.1644  -2.1592
    -2.1163  -2.1007  -2.0923  -2.0873  -2.0801  -2.0121  -1.9456  -1.8714
    -1.7812  -1.7412  -1.7197  -1.6831  -1.6471  -1.6121  -1.5904  -1.5727
    -1.4620  -1.4332  -1.2900  -1.2660  -1.2493  -1.2389  -1.1974  -1.1934
    -1.0606  -0.9836  -0.9743  -0.9497  -0.8959  -0.8607  -0.8151  -0.7908
    -0.7034  -0.6674  -0.6269  -0.5755  -0.4963  -0.4864  -0.4347  -0.4190
    -0.3380  -0.3233  -0.2924  -0.2893  -0.2231  -0.1776  -0.1032  -0.0963
    -0.0728   0.0355   0.0910   0.1051   0.2878   0.4616   0.4744   0.4861
     0.5976   0.6078   0.6533   0.7278   0.7384   0.8226   0.8784   0.9756
     0.9949   1.0044   1.0835   1.8373   1.8382   1.9278   1.9393   3.6353
     3.8551   3.8858   3.9062   3.9594   4.1155   4.1203   4.1334   4.1463
     4.2588   4.2769

     the Fermi energy is     3.6271 ev

!    total energy              =   -2970.35124557 Ry
     estimated scf accuracy    <       0.00000007 Ry
     smearing contrib. (-TS)   =      -0.03416818 Ry
     internal energy E=F+TS    =   -2970.31707738 Ry

     The total energy is F=E-TS. E is the sum of the following terms:
     one-electron contribution =  -23485.56048844 Ry
     hartree contribution      =   11835.41540453 Ry
     xc contribution           =    -491.50784632 Ry
     ewald contribution        =    9171.33398336 Ry
     electric field correction =       0.00186949 Ry

     convergence has been achieved in  81 iterations

     Forces acting on atoms (cartesian axes, Ry/au):

     atom    1 type  1   force =    -0.00027290    0.00009176   -0.00013744
     atom    2 type  2   force =    -0.00047186    0.00079287    0.00027084
     atom    3 type  2   force =     0.00015340   -0.00058132   -0.00029252
     atom    4 type  3   force =    -0.00006927    0.00001891    0.10423507
     atom    5 type  3   force =    -0.00005441   -0.00001666    0.10430197
     atom    6 type  3   force =    -0.06901233    0.00075223   -0.02905602
     atom    7 type  3   force =    -0.06856779   -0.00135536   -0.02906186
     atom    8 type  3   force =     0.06868900    0.00127946   -0.02912934
     atom    9 type  3   force =     0.06834596   -0.00097984   -0.02913751
     atom   10 type  3   force =     0.00017376    0.00039119    0.04598395
     atom   11 type  3   force =     0.00058687    0.00071518    0.04716299
     atom   12 type  3   force =     0.00031703   -0.00529302   -0.03191807
     atom   13 type  3   force =     0.00036963    0.00311305   -0.02589386
     atom   14 type  3   force =    -0.01815679   -0.00007688    0.00387245
     atom   15 type  3   force =    -0.01657149    0.00120482    0.00341270
     atom   16 type  3   force =     0.01842927   -0.00125663    0.00384040
     atom   17 type  3   force =     0.01758354    0.00141655    0.00327842
     atom   18 type  3   force =     0.00002986    0.00030736    0.00040677
     atom   19 type  3   force =     0.00004187   -0.00012262    0.00013795
     atom   20 type  3   force =    -0.00005723    0.00027918    0.00034547
     atom   21 type  3   force =    -0.00008278   -0.00029822   -0.00038038
     atom   22 type  3   force =     0.00037570    0.00029285    0.00027074
     atom   23 type  3   force =     0.00031224   -0.00026318    0.00025715
     atom   24 type  3   force =    -0.00033322    0.00036288    0.00017965
     atom   25 type  3   force =    -0.00023597   -0.00029574    0.00015790
     atom   26 type  3   force =    -0.00032980    0.00013158    0.00029121
     atom   27 type  3   force =    -0.00070055   -0.00008627    0.00018047
     atom   28 type  3   force =     0.00049021   -0.00002063   -0.00019711
     atom   29 type  3   force =     0.00036042    0.00020237   -0.00051176
     atom   30 type  3   force =    -0.00112673   -0.00033335   -0.00027356
     atom   31 type  3   force =    -0.00136324    0.00038087   -0.00023849
     atom   32 type  3   force =    -0.00038451   -0.00064167    0.00060027
     atom   33 type  3   force =    -0.00018317    0.00070745    0.00061868
     atom   34 type  3   force =     0.00028371    0.00001040    0.00084643
     atom   35 type  3   force =    -0.00016429   -0.00056916   -0.00020036
     atom   36 type  4   force =    -0.00026123   -0.00176935    0.10173828
     atom   37 type  4   force =    -0.00006706    0.00135576    0.11447257
     atom   38 type  4   force =    -0.00031667    0.00053628   -0.18032296
     atom   39 type  4   force =    -0.00020499   -0.00040080   -0.18063508
     atom   40 type  4   force =     0.00022653    0.00082569   -0.00111689
     atom   41 type  4   force =     0.00023405   -0.00078746   -0.00089989
     atom   42 type  4   force =    -0.00021112    0.00087712   -0.00019396
     atom   43 type  4   force =    -0.00015906   -0.00020025    0.00003380
     atom   44 type  4   force =     0.00009852   -0.00008706    0.00030060
     atom   45 type  4   force =     0.00015018    0.00009380    0.00037686
     atom   46 type  4   force =    -0.00029522    0.00049459   -0.00009265
     atom   47 type  4   force =    -0.00032638   -0.00044134    0.00043247
     atom   48 type  4   force =     0.00265183   -0.00004672    0.00089275
     atom   49 type  4   force =     0.00346474    0.00008738    0.00025110
     atom   50 type  4   force =    -0.00210773    0.00029747   -0.00023062
     atom   51 type  4   force =    -0.00212904   -0.00054733   -0.00044558
     atom   52 type  5   force =     0.00115704    0.00044406    0.00134700
     atom   53 type  5   force =    -0.00030857   -0.00099226   -0.00013097

     Total force =     0.374196     Total SCF correction =     0.000812
  @ DRIVER MODE: Message from server: STATUS
  @ DRIVER MODE: Message from server: GETFORCE
  @ DRIVER MODE: Returning v,forces,stress,ensemble

     Writing output data file ./calc.save/
  @ DRIVER MODE: Message from server: EXIT
  @ DRIVE MODE: Exiting

     General routines

     Parallel routines

   This run was terminated on:  16:23:25  14Sep2021

   JOB DONE.