     Program PWSCF v.6.7GPU starts on  9Sep2021 at 20:48:52

     R & G space division:  proc/nbgrp/npool/nimage =      10
     Reading input from /storage/home/hcoda1/3/ntian30/research/carbon/CxH_vib/CH3_calc/ads_slab/CH3N2OH_j/out_0001/pw.inp
Warning: card &CELL ignored
Warning: card   CELL_DYNAMICS='IPI', ignored
Warning: card / ignored

     Current dimensions of program PWSCF are:
     Max number of different atomic species (ntypx) = 10
     Max number of k-points (npk) =  40000
     Max angular momentum in pseudopotentials (lmaxx) =  3
     Presently no symmetry can be used with electric field

     Message from routine cell_base_init:
     DEPRECATED: use true lattice parameter, not A to a.u. conversion factor

     IMPORTANT: XC functional enforced from input :
     Exchange-correlation= BEEF-VDW
                           (   1   4  43  14   2   0   0)
     Any further DFT definition will be discarded
     Please, verify this is what you really want

  @ DRIVER MODE: Connecting to
 qe_1139763_2779713.sched-torque.pace.gatech.eduapb1burl_scratch
  using UNIX socket
  @ DRIVER MODE: Message from server: STATUS
  @ DRIVER MODE: Message from server: INIT
  @ DRIVER MODE: Receiving replica           0          -1
  @ DRIVER MODE: Receiving encoded integer          25
  @ DRIVER MODE:  SCF:  T  FORCE:  T  STRESS:  F  VC:  F  ENSEMBLE:  F
  @ DRIVER MODE:  SCF:  T  FORCE:  T  STRESS:  F  VC:  F  ENSEMBLE:  F

     Using Slab Decomposition

     bravais-lattice index     =            0
     lattice parameter (alat)  =       1.8897  a.u.
     unit-cell volume          =    6658.9804 (a.u.)^3
     number of atoms/cell      =           55
     number of atomic types    =            5
     number of electrons       =       402.00
     number of Kohn-Sham states=          211
     kinetic-energy cutoff     =      29.3995  Ry
     charge density cutoff     =     293.9946  Ry
     scf convergence threshold =      7.3E-08
     mixing beta               =       0.0500
     number of iterations used =            8  plain     mixing
     Exchange-correlation= BEEF-VDW
                           (   1   4  43  14   2   0   0)

     celldm(1)=   1.889726  celldm(2)=   0.000000  celldm(3)=   0.000000
     celldm(4)=   0.000000  celldm(5)=   0.000000  celldm(6)=   0.000000

     crystal axes: (cart. coord. in units of alat)
               a(1) = (   6.579727   0.000000   0.000000 )
               a(2) = (  -0.000775   5.961596   0.000000 )
               a(3) = (   0.000000   0.000000  25.155947 )

     reciprocal axes: (cart. coord. in units 2 pi/alat)
               b(1) = (  0.151982  0.000020  0.000000 )
               b(2) = (  0.000000  0.167740  0.000000 )
               b(3) = (  0.000000  0.000000  0.039752 )

     PseudoPot. # 1 for Ti read from file:
     /storage/coda1/p-amedford6/0/shared/rich_project_chbe-medford/medford-share/data/pseudos_module/espresso/nninc/pbe/van/Ti.UPF
     MD5 check sum: 8e4df49b7f0d34bbd5052bf3f5ea0213
     Pseudo is Ultrasoft, Zval = 12.0
     Generated by new atomic code, or converted to UPF format
     Using radial grid of  851 points,  6 beta functions with:
                l(1) =   0
                l(2) =   0
                l(3) =   1
                l(4) =   1
                l(5) =   2
                l(6) =   2
     Q(r) pseudized with  8 coefficients,  rinner =    1.000   1.000   1.000
                                                       1.000   1.000

     PseudoPot. # 2 for O  read from file:
     /storage/coda1/p-amedford6/0/shared/rich_project_chbe-medford/medford-share/data/pseudos_module/espresso/nninc/pbe/van/O.UPF
     MD5 check sum: 78c19812648e8988a0fe644b0f25305e
     Pseudo is Ultrasoft, Zval =  6.0
     Generated by new atomic code, or converted to UPF format
     Using radial grid of  737 points,  4 beta functions with:
                l(1) =   0
                l(2) =   0
                l(3) =   1
                l(4) =   1
     Q(r) pseudized with  8 coefficients,  rinner =    0.800   0.800   0.800

     PseudoPot. # 3 for N  read from file:
     /storage/coda1/p-amedford6/0/shared/rich_project_chbe-medford/medford-share/data/pseudos_module/espresso/nninc/pbe/van/N.UPF
     MD5 check sum: 90d10febe142ad51ac9d5be1deb811c4
     Pseudo is Ultrasoft, Zval =  5.0
     Generated by new atomic code, or converted to UPF format
     Using radial grid of  729 points,  4 beta functions with:
                l(1) =   0
                l(2) =   0
                l(3) =   1
                l(4) =   1
     Q(r) pseudized with  8 coefficients,  rinner =    0.800   0.800   0.800

     PseudoPot. # 4 for C  read from file:
     /storage/coda1/p-amedford6/0/shared/rich_project_chbe-medford/medford-share/data/pseudos_module/espresso/nninc/pbe/van/C.UPF
     MD5 check sum: 1a69bf6b8db32088f5b2163dbdb77a27
     Pseudo is Ultrasoft, Zval =  4.0
     Generated by new atomic code, or converted to UPF format
     Using radial grid of  721 points,  4 beta functions with:
                l(1) =   0
                l(2) =   0
                l(3) =   1
                l(4) =   1
     Q(r) pseudized with  8 coefficients,  rinner =    0.800   0.800   0.800

     PseudoPot. # 5 for H  read from file:
     /storage/coda1/p-amedford6/0/shared/rich_project_chbe-medford/medford-share/data/pseudos_module/espresso/nninc/pbe/van/H.UPF
     MD5 check sum: b5ee9d7bfd3a09ee7748110bda690ff7
     Pseudo is Ultrasoft, Zval =  1.0
     Generated by new atomic code, or converted to UPF format
     Using radial grid of  615 points,  1 beta functions with:
                l(1) =   0
     Q(r) pseudized with  8 coefficients,  rinner =    0.800

     atomic species   valence    mass     pseudopotential
        Ti1           12.00    47.86700     Ti( 1.00)
        O1             6.00    15.99900     O ( 1.00)
        N1             5.00    14.00700     N ( 1.00)
        C1             4.00    12.01100     C ( 1.00)
        H1             1.00     1.00800     H ( 1.00)

     No symmetry found

   Cartesian axes

     site n.     atom                  positions (alat units)
         1           Ti1 tau(   1) = (   0.0004258   2.9801865   6.0000000  )
         2           Ti1 tau(   2) = (   3.2906075   1.4906267   6.0002472  )
         3           O1  tau(   3) = (   0.0006271   0.0005054   7.9858123  )
         4           O1  tau(   4) = (   3.2906025   0.0005020   7.3038282  )
         5           O1  tau(   5) = (   4.5942328   1.4918067   9.2879030  )
         6           O1  tau(   6) = (   1.9868534   1.4903216   9.2879459  )
         7           Ti1 tau(   7) = (   3.2907910   2.8959150   9.1758416  )
         8           Ti1 tau(   8) = (   0.0015273   1.4827037   9.2680791  )
         9           O1  tau(   9) = (   3.2817971   0.0424577  11.2706337  )
        10           O1  tau(  10) = (   0.0116148   5.9584955  10.6183126  )
        11           O1  tau(  11) = (   1.2813654   1.4951502  12.6332405  )
        12           O1  tau(  12) = (   5.2815101   1.4921423  12.6269808  )
        13           Ti1 tau(  13) = (   6.5662594   2.8603684  12.6843660  )
        14           Ti1 tau(  14) = (   3.2717346   1.4252475  12.4210995  )
        15           O1  tau(  15) = (   6.5710910   0.0045200  14.6317625  )
        16           O1  tau(  16) = (   3.2759495   0.0084639  13.8932321  )
        17           O1  tau(  17) = (   4.5517014   1.4983445  16.0008815  )
        18           O1  tau(  18) = (   2.0271237   1.5070609  16.0478782  )
        19           Ti1 tau(  19) = (   3.2345769   3.0092735  16.2435900  )
        20           Ti1 tau(  20) = (   6.4941389   1.4975806  15.8145731  )
        21           O1  tau(  21) = (   3.2904802   0.0005063   4.7018136  )
        22           O1  tau(  22) = (   6.5579512   0.0396517  17.1742205  )
        23           O1  tau(  23) = (   1.3043587   1.4918075   6.0039043  )
        24           O1  tau(  24) = (   5.2767064   1.4903225   6.0039473  )
        25           Ti1 tau(  25) = (   0.0000382   5.9609847   6.0000000  )
        26           Ti1 tau(  26) = (   3.2902200   4.4714249   6.0002472  )
        27           O1  tau(  27) = (   0.0002396   2.9813036   7.9858123  )
        28           O1  tau(  28) = (   3.2902150   2.9813002   7.3038282  )
        29           O1  tau(  29) = (   4.5938453   4.4726049   9.2879030  )
        30           O1  tau(  30) = (   1.9864658   4.4711199   9.2879459  )
        31           Ti1 tau(  31) = (   3.2891106   5.8743827   9.1763621  )
        32           Ti1 tau(  32) = (   0.0006254   4.4649316   9.2693709  )
        33           O1  tau(  33) = (   3.2800217   2.9666125  11.2981572  )
        34           O1  tau(  34) = (   0.0092240   2.9805883  10.6323155  )
        35           O1  tau(  35) = (   1.2755083   4.4823741  12.6262202  )
        36           O1  tau(  36) = (   5.2848398   4.4807727  12.6177486  )
        37           Ti1 tau(  37) = (   6.5672004   5.8338186  12.5551636  )
        38           Ti1 tau(  38) = (   3.2732152   4.2974050  12.6602233  )
        39           O1  tau(  39) = (   6.5693882   2.9786051  14.6782399  )
        40           O1  tau(  40) = (   3.2805734   3.0393479  13.9038923  )
        41           O1  tau(  41) = (   4.5335661   4.5240572  16.0872286  )
        42           O1  tau(  42) = (   2.0073973   4.5295938  16.0607137  )
        43           Ti1 tau(  43) = (   3.2598295   0.0330142  15.6732764  )
        44           Ti1 tau(  44) = (   6.5464637   4.6748829  16.0422594  )
        45           O1  tau(  45) = (   3.2900926   2.9813045   4.7018136  )
        46           O1  tau(  46) = (   1.3039711   4.4726057   6.0039043  )
        47           O1  tau(  47) = (   5.2763189   4.4711207   6.0039473  )
        48           N1  tau(  48) = (   0.1026456   2.6876119  18.6539570  )
        49           N1  tau(  49) = (   0.0165868   2.9082207  17.4746156  )
        50           C1  tau(  50) = (   0.2746321   3.7930379  19.6319179  )
        51           H1  tau(  51) = (   0.1055085   4.7742840  19.1878107  )
        52           H1  tau(  52) = (   6.1760284   3.5871646  20.4591619  )
        53           H1  tau(  53) = (   1.2982147   3.7051261  19.9977701  )
        54           O1  tau(  54) = (   3.2987527   2.9937385  18.0942264  )
        55           H1  tau(  55) = (   3.7476408   3.7324850  18.5320624  )

     number of k points=    10  Fermi-Dirac smearing, width (Ry)=  0.0073
                       cart. coord. in units 2pi/alat
        k(    1) = (   0.0000000   0.0000000   0.0000000), wk =   0.1250000
        k(    2) = (   0.0000000   0.0419351   0.0000000), wk =   0.2500000
        k(    3) = (   0.0000000  -0.0838702   0.0000000), wk =   0.1250000
        k(    4) = (   0.0379955   0.0000049   0.0000000), wk =   0.2500000
        k(    5) = (   0.0379955   0.0419400   0.0000000), wk =   0.2500000
        k(    6) = (   0.0379955  -0.0838652   0.0000000), wk =   0.2500000
        k(    7) = (   0.0379955  -0.0419301   0.0000000), wk =   0.2500000
        k(    8) = (  -0.0759910  -0.0000099   0.0000000), wk =   0.1250000
        k(    9) = (  -0.0759910   0.0419252   0.0000000), wk =   0.2500000
        k(   10) = (  -0.0759910  -0.0838800   0.0000000), wk =   0.1250000

     Initial potential from superposition of free atoms

     starting charge  385.99915, renormalised to  402.00000

     negative rho (up, down):  1.467E-02 0.000E+00

     %%%%%%%%%%%%%%%%%%%%%%%%%%%%%%%%%%%%%%%%%%%%%%%%%%%%%%%%%%%%%%%%%%%%%%%%
     %                                                                      %
     % You are using vdW-DF, which was implemented by the Thonhauser group. %
     % Please cite the following two papers that made this development      %
     % possible and the two reviews that describe the various versions:     %
     %                                                                      %
     %   T. Thonhauser et al., PRL 115, 136402 (2015).                      %
     %   T. Thonhauser et al., PRB 76, 125112 (2007).                       %
     %   K. Berland et al., Rep. Prog. Phys. 78, 066501 (2015).             %
     %   D.C. Langreth et al., J. Phys.: Condens. Matter 21, 084203 (2009). %
     %                                                                      %
     %                                                                      %
     % If you are calculating the stress with vdW-DF, please also cite:     %
     %                                                                      %
     %   R. Sabatini et al., J. Phys.: Condens. Matter 24, 424209 (2012).   %
     %                                                                      %
     %%%%%%%%%%%%%%%%%%%%%%%%%%%%%%%%%%%%%%%%%%%%%%%%%%%%%%%%%%%%%%%%%%%%%%%%

     Adding external electric field

     Computed dipole along edir(3) :
        Dipole              -11.9798 Ry au,        -30.4497 Debye
        Dipole field         -0.0226 Ry au,

        Potential amp.        2.0957 Ry
        Total length         46.3494 bohr

     Starting wfcs are  304 atomic wfcs
  @ DRIVER MODE: Message from server: STATUS
  @ DRIVER MODE: Message from server: POSDATA
  @ DRIVER MODE: Reading and sharing cell
  @ DRIVER MODE: Reading and sharing positions
  @ DRIVER MODE: Received positions

     Self-consistent Calculation

     iteration #  1     ecut=    29.40 Ry     beta= 0.05
     Davidson diagonalization with overlap
     c_bands:  4 eigenvalues not converged
     c_bands:  3 eigenvalues not converged
     c_bands:  5 eigenvalues not converged
     c_bands:  5 eigenvalues not converged
     c_bands:  3 eigenvalues not converged
     c_bands:  4 eigenvalues not converged
     c_bands:  2 eigenvalues not converged
     c_bands:  1 eigenvalues not converged
     ethr =  1.00E-05,  avg # of iterations = 25.3

[...]

     total energy              =   -2401.02173039 Ry
     estimated scf accuracy    <    6440.98090981 Ry

     iteration #  2     ecut=    29.40 Ry     beta= 0.05
     Davidson diagonalization with overlap
     ethr =  1.00E-02,  avg # of iterations = 22.6

[...]

     iteration # 42     ecut=    29.40 Ry     beta= 0.05
     Davidson diagonalization with overlap
     c_bands:  1 eigenvalues not converged
     ethr =  1.62E-07,  avg # of iterations = 10.3

[...]

     total energy              =   -2972.74455104 Ry
     estimated scf accuracy    <       0.00000017 Ry

     iteration # 64     ecut=    29.40 Ry     beta= 0.05
     Davidson diagonalization with overlap
     ethr =  3.01E-11,  avg # of iterations =  4.5

     negative rho (up, down):  1.548E-02 0.000E+00

     Adding external electric field

     Computed dipole along edir(3) :
        Dipole                0.6102 Ry au,          1.5510 Debye
        Dipole field          0.0012 Ry au,

        Potential amp.       -0.1067 Ry
        Total length         46.3494 bohr

     End of self-consistent calculation

          k = 0.0000 0.0000 0.0000 ( 18029 PWs)   bands (ev):

   -56.2374 -56.2036 -55.8229 -55.7893 -55.5906 -55.5310 -55.4818 -55.4062
   -55.3813 -55.3264 -55.2360 -55.1651 -55.0841 -55.0103 -54.9910 -54.9764
   -32.6878 -32.5299 -32.5030 -32.3959 -32.3120 -32.3033 -32.3021 -32.0707
   -32.0419 -32.0228 -31.9706 -31.9641 -31.9302 -31.8987 -31.8692 -31.8169
   -31.8073 -31.7930 -31.7541 -31.7343 -31.7289 -31.7072 -31.6940 -31.6930
   -31.6917 -31.6506 -31.6043 -31.5742 -31.5559 -31.5364 -31.5353 -31.4976
   -31.4880 -31.4277 -31.4191 -31.4071 -31.3693 -31.3434 -31.3397 -31.3198
   -31.3154 -31.2920 -31.2402 -31.2277 -31.2257 -31.2129 -31.1411 -31.0292
   -18.8715 -16.5319 -16.3541 -16.1971 -15.9869 -15.8180 -15.7266 -15.7180
   -15.6693 -15.5483 -15.5224 -15.4265 -15.3354 -15.2629 -15.2614 -15.2367
   -15.1402 -15.0844 -15.0594 -15.0183 -14.9982 -14.9920 -14.9783 -14.8796
   -14.8623 -14.8580 -14.7148 -14.6948 -14.6081 -14.3600 -14.2639 -13.5081
   -13.3958 -11.5207  -6.9380  -4.4162  -4.1688  -4.0410  -4.0152  -3.8337
    -3.7478  -3.5302  -3.4319  -3.3563  -3.2320  -3.1472  -2.9568  -2.9454
    -2.8912  -2.8219  -2.7477  -2.6888  -2.6364  -2.6258  -2.5534  -2.5150
    -2.4730  -2.4650  -2.4037  -2.3881  -2.3015  -2.2908  -2.2177  -2.1817
    -2.1507  -2.1220  -2.1015  -2.0411  -2.0333  -2.0046  -1.9728  -1.9196
    -1.8588  -1.8118  -1.7253  -1.6739  -1.6572  -1.5637  -1.5429  -1.5350
    -1.5177  -1.3212  -1.2474  -1.2268  -1.2142  -1.0665  -1.0245  -0.9995
    -0.9193  -0.8960  -0.8483  -0.8101  -0.7611  -0.7040  -0.6725  -0.6672
    -0.6426  -0.5918  -0.4046  -0.3706  -0.3223  -0.2917  -0.2543  -0.1979
    -0.1674  -0.1368  -0.0542  -0.0486  -0.0393  -0.0021   0.0473   0.1285
     0.1878   0.2084   0.3015   0.3069   0.3492   0.3837   0.4403   0.4675
     0.5515   0.5951   0.6110   0.6659   0.6854   0.8741   0.9112   0.9478
     0.9847   1.0142   1.0596   1.1730   1.2430   1.5434   1.5622   1.6017
     2.7541   2.9889   3.1177   3.2733   3.4211   3.5153   3.8241   3.8542
     3.8896   3.9476   3.9760

[...]

          k = 0.0380-0.0419 0.0000 ( 17876 PWs)   bands (ev):

[...]

          k =-0.0760-0.0000 0.0000 ( 17886 PWs)   bands (ev):

[...]

          k =-0.0760-0.0839 0.0000 ( 17948 PWs)   bands (ev):

   -56.2210 -56.2199 -55.8072 -55.8048 -55.5853 -55.5363 -55.4790 -55.4089
   -55.3753 -55.3322 -55.2342 -55.1635 -55.0858 -54.9936 -54.9929 -54.9925
   -32.5161 -32.5148 -32.5042 -32.5035 -32.3484 -32.3472 -32.1267 -32.1229
   -32.0016 -31.9995 -31.9961 -31.9944 -31.8908 -31.8522 -31.8173 -31.8087
   -31.8035 -31.7639 -31.7522 -31.7486 -31.7223 -31.7065 -31.7001 -31.6677
   -31.6629 -31.6269 -31.6211 -31.6030 -31.5947 -31.5649 -31.5586 -31.5451
   -31.4884 -31.4339 -31.4319 -31.4227 -31.3669 -31.3445 -31.3329 -31.3324
   -31.2972 -31.2961 -31.2466 -31.2294 -31.2222 -31.2212 -31.1839 -31.1832
   -18.8678 -16.3414 -15.9417 -15.9294 -15.8060 -15.7994 -15.6273 -15.6107
   -15.5911 -15.5331 -15.5128 -15.4642 -15.3244 -15.3148 -15.2552 -15.2226
   -15.1977 -15.1803 -15.1522 -15.1517 -15.1325 -15.0597 -15.0319 -15.0042
   -14.9550 -14.9511 -14.7857 -14.7194 -14.7053 -14.4920 -14.4609 -13.4989
   -13.4987 -11.5187  -6.9518  -4.3645  -4.0375  -3.9978  -3.9369  -3.1103
    -3.0555  -2.9453  -2.9184  -2.8448  -2.8228  -2.7146  -2.6912  -2.6497
    -2.6363  -2.6328  -2.5778  -2.5561  -2.5331  -2.4893  -2.4771  -2.4643
    -2.4396  -2.3927  -2.3825  -2.3632  -2.3478  -2.3318  -2.2380  -2.2334
    -2.2146  -2.1686  -2.1652  -2.1537  -2.0763  -2.0070  -1.9634  -1.9565
    -1.9247  -1.8687  -1.7922  -1.6847  -1.6617  -1.6067  -1.5790  -1.5036
    -1.4734  -1.4282  -1.3346  -1.3264  -1.2988  -1.2808  -1.2204  -1.2062
    -1.0632  -1.0294  -1.0243  -1.0185  -1.0142  -0.9180  -0.8570  -0.7972
    -0.7466  -0.6625  -0.6484  -0.6274  -0.6085  -0.5995  -0.5804  -0.5567
    -0.4948  -0.4533  -0.4026  -0.3854  -0.2818  -0.2028  -0.1681  -0.1021
    -0.0240   0.0644   0.1431   0.1572   0.1946   0.2490   0.3382   0.3792
     0.4215   0.4902   0.5325   0.6050   0.6669   0.7521   0.7757   0.8643
     0.9761   0.9924   1.0425   1.1306   1.4045   1.4112   1.4179   1.4187
     2.7599   3.5367   3.5405   3.5702   3.5785   3.7781   3.7901   3.9156
     3.9775   4.0324   4.0336

     the Fermi energy is     2.9257 ev

!    total energy              =   -2972.74459297 Ry
     estimated scf accuracy    <       0.00000006 Ry
     smearing contrib. (-TS)   =      -0.01285137 Ry
     internal energy E=F+TS    =   -2972.73174161 Ry

     The total energy is F=E-TS. E is the sum of the following terms:
     one-electron contribution =  -23700.66594018 Ry
     hartree contribution      =   11943.62337187 Ry
     xc contribution           =    -493.12528678 Ry
     ewald contribution        =    9277.43541080 Ry
     electric field correction =       0.00070268 Ry

     convergence has been achieved in  64 iterations

     Forces acting on atoms (cartesian axes, Ry/au):

     atom    1 type  1   force =     0.00008467   -0.00038363    0.10700455
     atom    2 type  1   force =    -0.00003834   -0.00169899   -0.16540032
     atom    3 type  2   force =     0.00003589   -0.00025941   -0.03864372
     atom    4 type  2   force =     0.00004448    0.00075877    0.03120139
     atom    5 type  2   force =    -0.00356864    0.00294632   -0.00838936
     atom    6 type  2   force =     0.00470416    0.00361525   -0.01015775
     atom    7 type  1   force =    -0.00074021    0.00048886    0.02117609
     atom    8 type  1   force =     0.00100952    0.01539216    0.06091048
     atom    9 type  2   force =     0.00011314   -0.00013101    0.00013733
     atom   10 type  2   force =    -0.00289596    0.00226153   -0.04707563
     atom   11 type  2   force =    -0.00004747   -0.00020052   -0.00001186
     atom   12 type  2   force =     0.00001742   -0.00003240    0.00021979
     atom   13 type  1   force =     0.00028524   -0.00014503    0.00003425
     atom   14 type  1   force =     0.00038893   -0.00014332    0.00020142
     atom   15 type  2   force =     0.00017225    0.00012904   -0.00022575
     atom   16 type  2   force =     0.00014690   -0.00015602    0.00009325
     atom   17 type  2   force =     0.00012500    0.00016059    0.00022064
     atom   18 type  2   force =     0.00003420    0.00029871    0.00017053
     atom   19 type  1   force =    -0.00002406   -0.00011213   -0.00019075
     atom   20 type  1   force =    -0.00034479    0.00013074   -0.00013522
     atom   21 type  2   force =     0.00010223   -0.00000120    0.10028053
     atom   22 type  2   force =     0.00000753    0.00004612   -0.00016407
     atom   23 type  2   force =    -0.07669643   -0.00004846   -0.03006245
     atom   24 type  2   force =     0.07668188    0.00038485   -0.03009043
     atom   25 type  1   force =     0.00005539   -0.00042913    0.10696363
     atom   26 type  1   force =    -0.00011248    0.00063372   -0.16569790
     atom   27 type  2   force =     0.00012198   -0.00027480   -0.03746097
     atom   28 type  2   force =     0.00004442   -0.00044153    0.03537741
     atom   29 type  2   force =    -0.00570492   -0.00043748   -0.00597720
     atom   30 type  2   force =     0.00686848    0.00006153   -0.00766276
     atom   31 type  1   force =    -0.00058051   -0.00239097    0.03454891
     atom   32 type  1   force =     0.00111105   -0.01878342    0.06143062
     atom   33 type  2   force =     0.00022379   -0.00012517    0.00010650
     atom   34 type  2   force =    -0.00253991    0.00012464   -0.05379463
     atom   35 type  2   force =     0.00021955   -0.00024646   -0.00009896
     atom   36 type  2   force =     0.00017268   -0.00002718    0.00029127
     atom   37 type  1   force =     0.00035859   -0.00019121   -0.00021020
     atom   38 type  1   force =     0.00047801   -0.00023350    0.00025704
     atom   39 type  2   force =     0.00011997   -0.00046308    0.00030367
     atom   40 type  2   force =    -0.00019260   -0.00006051   -0.00008450
     atom   41 type  2   force =     0.00019589   -0.00044112    0.00019865
     atom   42 type  2   force =     0.00035391   -0.00035087    0.00006153
     atom   43 type  1   force =    -0.00025346    0.00002075   -0.00028733
     atom   44 type  1   force =     0.00015074   -0.00029785    0.00012573
     atom   45 type  2   force =     0.00009593    0.00010753    0.10048101
     atom   46 type  2   force =    -0.07667385   -0.00005985   -0.03007255
     atom   47 type  2   force =     0.07666425    0.00035919   -0.03010177
     atom   48 type  3   force =     0.00271702   -0.00014216    0.00269544
     atom   49 type  3   force =    -0.00070096    0.00043869   -0.00300314
     atom   50 type  4   force =    -0.00270924    0.00114972   -0.00008055
     atom   51 type  5   force =     0.00048827   -0.00093658    0.00078701
     atom   52 type  5   force =     0.00032349    0.00072243   -0.00023590
     atom   53 type  5   force =    -0.00040854   -0.00090175   -0.00016961
     atom   54 type  2   force =     0.00037699    0.00125311    0.00067817
     atom   55 type  5   force =    -0.00086146   -0.00093750   -0.00047154

     Total force =     0.381346     Total SCF correction =     0.000804
  @ DRIVER MODE: Message from server: STATUS
  @ DRIVER MODE: Message from server: GETFORCE
  @ DRIVER MODE: Returning v,forces,stress,ensemble

     Writing output data file ./calc.save/
  @ DRIVER MODE: Message from server: EXIT
  @ DRIVE MODE: Exiting

     General routines

     Parallel routines

   This run was terminated on:  21: 6:42   9Sep2021

   JOB DONE.