     Program PWSCF v.6.7GPU starts on 30Sep2021 at  1:22:40

     R & G space division:  proc/nbgrp/npool/nimage =       8
     Reading input from /storage/home/hcoda1/3/ntian30/research/carbon/CxH_vib/pristine/ads_slab/CH2N2_c/out_0026/pw.inp
Warning: card &CELL ignored
Warning: card   CELL_DYNAMICS='IPI', ignored
Warning: card / ignored

     Current dimensions of program PWSCF are:
     Max number of different atomic species (ntypx) = 10
     Max number of k-points (npk) =  40000
     Max angular momentum in pseudopotentials (lmaxx) =  3
     Presently no symmetry can be used with electric field

     Message from routine cell_base_init:
     DEPRECATED: use true lattice parameter, not A to a.u. conversion factor

     IMPORTANT: XC functional enforced from input :
     Exchange-correlation= BEEF-VDW
                           (   1   4  43  14   2   0   0)
     Any further DFT definition will be discarded
     Please, verify this is what you really want

  @ DRIVER MODE: Connecting to
 qe_1139763_3025227.sched-torque.pace.gatech.edu30sfbi_l_scratch
  using UNIX socket
  @ DRIVER MODE: Message from server: STATUS
  @ DRIVER MODE: Message from server: INIT
  @ DRIVER MODE: Receiving replica           0          -1
  @ DRIVER MODE: Receiving encoded integer          25
  @ DRIVER MODE:  SCF:  T  FORCE:  T  STRESS:  F  VC:  F  ENSEMBLE:  F
  @ DRIVER MODE:  SCF:  T  FORCE:  T  STRESS:  F  VC:  F  ENSEMBLE:  F

     Using Slab Decomposition

     bravais-lattice index     =            0
     lattice parameter (alat)  =       1.8897  a.u.
     unit-cell volume          =    6658.9804 (a.u.)^3
     number of atoms/cell      =           53
     number of atomic types    =            5
     number of electrons       =       400.00
     number of Kohn-Sham states=          210
     kinetic-energy cutoff     =      29.3995  Ry
     charge density cutoff     =     293.9946  Ry
     scf convergence threshold =      7.3E-08
     mixing beta               =       0.0500
     number of iterations used =            8  plain     mixing
     Exchange-correlation= BEEF-VDW
                           (   1   4  43  14   2   0   0)

     celldm(1)=   1.889726  celldm(2)=   0.000000  celldm(3)=   0.000000
     celldm(4)=   0.000000  celldm(5)=   0.000000  celldm(6)=   0.000000

     crystal axes: (cart. coord. in units of alat)
               a(1) = (   6.579727   0.000000   0.000000 )
               a(2) = (  -0.000775   5.961596   0.000000 )
               a(3) = (   0.000000   0.000000  25.155947 )

     reciprocal axes: (cart. coord. in units 2 pi/alat)
               b(1) = (  0.151982  0.000020  0.000000 )
               b(2) = (  0.000000  0.167740  0.000000 )
               b(3) = (  0.000000  0.000000  0.039752 )

     PseudoPot. # 1 for Ti read from file:
     /storage/coda1/p-amedford6/0/shared/rich_project_chbe-medford/medford-share/data/pseudos_module/espresso/nninc/pbe/van/Ti.UPF
     MD5 check sum: 8e4df49b7f0d34bbd5052bf3f5ea0213
     Pseudo is Ultrasoft, Zval = 12.0
     Generated by new atomic code, or converted to UPF format
     Using radial grid of  851 points,  6 beta functions with:
                l(1) =   0
                l(2) =   0
                l(3) =   1
                l(4) =   1
                l(5) =   2
                l(6) =   2
     Q(r) pseudized with  8 coefficients,  rinner =    1.000   1.000   1.000
                                                       1.000   1.000

     PseudoPot. # 2 for O  read from file:
     /storage/coda1/p-amedford6/0/shared/rich_project_chbe-medford/medford-share/data/pseudos_module/espresso/nninc/pbe/van/O.UPF
     MD5 check sum: 78c19812648e8988a0fe644b0f25305e
     Pseudo is Ultrasoft, Zval =  6.0
     Generated by new atomic code, or converted to UPF format
     Using radial grid of  737 points,  4 beta functions with:
                l(1) =   0
                l(2) =   0
                l(3) =   1
                l(4) =   1
     Q(r) pseudized with  8 coefficients,  rinner =    0.800   0.800   0.800

     PseudoPot. # 3 for N  read from file:
     /storage/coda1/p-amedford6/0/shared/rich_project_chbe-medford/medford-share/data/pseudos_module/espresso/nninc/pbe/van/N.UPF
     MD5 check sum: 90d10febe142ad51ac9d5be1deb811c4
     Pseudo is Ultrasoft, Zval =  5.0
     Generated by new atomic code, or converted to UPF format
     Using radial grid of  729 points,  4 beta functions with:
                l(1) =   0
                l(2) =   0
                l(3) =   1
                l(4) =   1
     Q(r) pseudized with  8 coefficients,  rinner =    0.800   0.800   0.800

     PseudoPot. # 4 for C  read from file:
     /storage/coda1/p-amedford6/0/shared/rich_project_chbe-medford/medford-share/data/pseudos_module/espresso/nninc/pbe/van/C.UPF
     MD5 check sum: 1a69bf6b8db32088f5b2163dbdb77a27
     Pseudo is Ultrasoft, Zval =  4.0
     Generated by new atomic code, or converted to UPF format
     Using radial grid of  721 points,  4 beta functions with:
                l(1) =   0
                l(2) =   0
                l(3) =   1
                l(4) =   1
     Q(r) pseudized with  8 coefficients,  rinner =    0.800   0.800   0.800

     PseudoPot. # 5 for H  read from file:
     /storage/coda1/p-amedford6/0/shared/rich_project_chbe-medford/medford-share/data/pseudos_module/espresso/nninc/pbe/van/H.UPF
     MD5 check sum: b5ee9d7bfd3a09ee7748110bda690ff7
     Pseudo is Ultrasoft, Zval =  1.0
     Generated by new atomic code, or converted to UPF format
     Using radial grid of  615 points,  1 beta functions with:
                l(1) =   0
     Q(r) pseudized with  8 coefficients,  rinner =    0.800

     atomic species   valence    mass     pseudopotential
        Ti1           12.00    47.86700     Ti( 1.00)
        O1             6.00    15.99900     O ( 1.00)
        N1             5.00    14.00700     N ( 1.00)
        C1             4.00    12.01100     C ( 1.00)
        H1             1.00     1.00800     H ( 1.00)

     No symmetry found

   Cartesian axes

     site n.     atom                  positions (alat units)
         1           Ti1 tau(   1) = (   0.0004258   2.9801865   6.0000000  )
         2           Ti1 tau(   2) = (   3.2906075   1.4906267   6.0002472  )
         3           O1  tau(   3) = (   0.0006271   0.0005054   7.9858123  )
         4           O1  tau(   4) = (   3.2906025   0.0005020   7.3038282  )
         5           O1  tau(   5) = (   4.5942328   1.4918067   9.2879030  )
         6           O1  tau(   6) = (   1.9868534   1.4903216   9.2879459  )
         7           Ti1 tau(   7) = (   3.2785950   2.8620264   9.1674676  )
         8           Ti1 tau(   8) = (   6.5781813   1.4341531   9.3833155  )
         9           O1  tau(   9) = (   3.3145900   5.9487502  11.3480437  )
        10           O1  tau(  10) = (   0.0063384   5.9489964  10.5610107  )
        11           O1  tau(  11) = (   1.3034973   1.4807819  12.6446922  )
        12           O1  tau(  12) = (   5.3015769   1.4818569  12.6358846  )
        13           Ti1 tau(  13) = (   0.1076100   2.9713955  12.8282313  )
        14           Ti1 tau(  14) = (   3.4293281   1.4717859  12.4936833  )
        15           O1  tau(  15) = (   0.0296261   0.0013950  14.6649934  )
        16           O1  tau(  16) = (   3.3139734   5.9559375  13.9452938  )
        17           O1  tau(  17) = (   4.5568938   1.4842850  16.0642655  )
        18           O1  tau(  18) = (   2.0675170   1.4827017  16.0617013  )
        19           Ti1 tau(  19) = (   3.3081901   2.9629817  15.7008690  )
        20           Ti1 tau(  20) = (   0.0097687   1.4520379  16.1724920  )
        21           O1  tau(  21) = (   3.2904802   0.0005063   4.7018136  )
        22           O1  tau(  22) = (   0.0191552   5.9343797  17.2479478  )
        23           O1  tau(  23) = (   1.3043587   1.4918075   6.0039043  )
        24           O1  tau(  24) = (   5.2767064   1.4903225   6.0039473  )
        25           Ti1 tau(  25) = (   0.0000382   5.9609847   6.0000000  )
        26           Ti1 tau(  26) = (   3.2902200   4.4714249   6.0002472  )
        27           O1  tau(  27) = (   0.0002396   2.9813036   7.9858123  )
        28           O1  tau(  28) = (   3.2902150   2.9813002   7.3038282  )
        29           O1  tau(  29) = (   4.5938453   4.4726049   9.2879030  )
        30           O1  tau(  30) = (   1.9864658   4.4711199   9.2879459  )
        31           Ti1 tau(  31) = (   3.2981115   5.8424800   9.1654069  )
        32           Ti1 tau(  32) = (   0.0061885   4.4171606   9.3817948  )
        33           O1  tau(  33) = (   3.3160899   2.9715062  11.3475872  )
        34           O1  tau(  34) = (   0.0081518   2.9687805  10.5628331  )
        35           O1  tau(  35) = (   1.3040072   4.4662140  12.6497434  )
        36           O1  tau(  36) = (   5.3008443   4.4652654  12.6404979  )
        37           Ti1 tau(  37) = (   0.1012718   5.9536009  12.8334903  )
        38           Ti1 tau(  38) = (   3.4286588   4.4602296  12.4928226  )
        39           O1  tau(  39) = (   0.0319021   2.9714116  14.6601935  )
        40           O1  tau(  40) = (   3.3101560   2.9646938  13.9065487  )
        41           O1  tau(  41) = (   4.5621106   4.4348364  16.0307704  )
        42           O1  tau(  42) = (   2.0631145   4.4362735  16.0340239  )
        43           Ti1 tau(  43) = (   3.3022073   5.9430436  15.7660435  )
        44           Ti1 tau(  44) = (   0.0096536   4.4281594  16.1671579  )
        45           O1  tau(  45) = (   3.2900926   2.9813045   4.7018136  )
        46           O1  tau(  46) = (   0.0201356   2.9582321  17.2481609  )
        47           O1  tau(  47) = (   1.3039711   4.4726057   6.0039043  )
        48           O1  tau(  48) = (   5.2763189   4.4711207   6.0039473  )
        49           N1  tau(  49) = (   3.1912726   0.1001446  19.4138715  )
        50           N1  tau(  50) = (   3.2720412   5.7295159  18.3236336  )
        51           C1  tau(  51) = (   3.0989320   0.4433392  20.6510207  )
        52           H1  tau(  52) = (   2.1138422   0.5496673  21.0731464  )
        53           H1  tau(  53) = (   4.0216933   0.5939059  21.2009644  )

     number of k points=    10  Fermi-Dirac smearing, width (Ry)=  0.0073
                       cart. coord. in units 2pi/alat
        k(    1) = (   0.0000000   0.0000000   0.0000000), wk =   0.1250000
        k(    2) = (   0.0000000   0.0419351   0.0000000), wk =   0.2500000
        k(    3) = (   0.0000000  -0.0838702   0.0000000), wk =   0.1250000
        k(    4) = (   0.0379955   0.0000049   0.0000000), wk =   0.2500000
        k(    5) = (   0.0379955   0.0419400   0.0000000), wk =   0.2500000
        k(    6) = (   0.0379955  -0.0838652   0.0000000), wk =   0.2500000
        k(    7) = (   0.0379955  -0.0419301   0.0000000), wk =   0.2500000
        k(    8) = (  -0.0759910  -0.0000099   0.0000000), wk =   0.1250000
        k(    9) = (  -0.0759910   0.0419252   0.0000000), wk =   0.2500000
        k(   10) = (  -0.0759910  -0.0838800   0.0000000), wk =   0.1250000

     Initial potential from superposition of free atoms

     starting charge  383.99917, renormalised to  400.00000

     negative rho (up, down):  1.242E-02 0.000E+00

     %%%%%%%%%%%%%%%%%%%%%%%%%%%%%%%%%%%%%%%%%%%%%%%%%%%%%%%%%%%%%%%%%%%%%%%%
     %                                                                      %
     % You are using vdW-DF, which was implemented by the Thonhauser group. %
     % Please cite the following two papers that made this development      %
     % possible and the two reviews that describe the various versions:     %
     %                                                                      %
     %   T. Thonhauser et al., PRL 115, 136402 (2015).                      %
     %   T. Thonhauser et al., PRB 76, 125112 (2007).                       %
     %   K. Berland et al., Rep. Prog. Phys. 78, 066501 (2015).             %
     %   D.C. Langreth et al., J. Phys.: Condens. Matter 21, 084203 (2009). %
     %                                                                      %
     %                                                                      %
     % If you are calculating the stress with vdW-DF, please also cite:     %
     %                                                                      %
     %   R. Sabatini et al., J. Phys.: Condens. Matter 24, 424209 (2012).   %
     %                                                                      %
     %%%%%%%%%%%%%%%%%%%%%%%%%%%%%%%%%%%%%%%%%%%%%%%%%%%%%%%%%%%%%%%%%%%%%%%%

     Adding external electric field

     Computed dipole along edir(3) :
        Dipole              -11.0071 Ry au,        -27.9773 Debye
        Dipole field         -0.0208 Ry au,

        Potential amp.        1.9255 Ry
        Total length         46.3494 bohr

     Starting wfcs are  302 atomic wfcs
  @ DRIVER MODE: Message from server: STATUS
  @ DRIVER MODE: Message from server: POSDATA
  @ DRIVER MODE: Reading and sharing cell
  @ DRIVER MODE: Reading and sharing positions
  @ DRIVER MODE: Received positions

     Self-consistent Calculation

     iteration #  1     ecut=    29.40 Ry     beta= 0.05
     Davidson diagonalization with overlap
     c_bands:  1 eigenvalues not converged
     c_bands:  1 eigenvalues not converged
     c_bands:  1 eigenvalues not converged
     c_bands:  2 eigenvalues not converged
     c_bands:  2 eigenvalues not converged
     c_bands:  2 eigenvalues not converged
     c_bands:  2 eigenvalues not converged
     c_bands:  4 eigenvalues not converged
     c_bands:  2 eigenvalues not converged
     ethr =  1.00E-05,  avg # of iterations = 20.0

[...]

     total energy              =   -2516.89844216 Ry
     estimated scf accuracy    <    5070.53136838 Ry

     iteration #  2     ecut=    29.40 Ry     beta= 0.05
     Davidson diagonalization with overlap
     ethr =  1.00E-02,  avg # of iterations = 22.0

[...]

     iteration # 47     ecut=    29.40 Ry     beta= 0.05
     Davidson diagonalization with overlap
     c_bands:  1 eigenvalues not converged
     c_bands:  1 eigenvalues not converged
     ethr =  4.23E-07,  avg # of iterations = 10.7

[...]

     total energy              =   -2970.32639553 Ry
     estimated scf accuracy    <       0.00000011 Ry

     iteration # 66     ecut=    29.40 Ry     beta= 0.05
     Davidson diagonalization with overlap
     ethr =  2.75E-11,  avg # of iterations =  5.0

     negative rho (up, down):  1.352E-02 0.000E+00

     Adding external electric field

     Computed dipole along edir(3) :
        Dipole                0.9000 Ry au,          2.2876 Debye
        Dipole field          0.0017 Ry au,

        Potential amp.       -0.1574 Ry
        Total length         46.3494 bohr

     End of self-consistent calculation

          k = 0.0000 0.0000 0.0000 ( 18029 PWs)   bands (ev):

   -55.9901 -55.9565 -55.6710 -55.6351 -55.6004 -55.4821 -55.3929 -55.3687
   -55.3581 -55.3347 -55.2827 -55.2476 -55.2409 -55.2037 -54.7741 -54.7401
   -32.4176 -32.2369 -32.2096 -32.2088 -32.1820 -32.0908 -32.0445 -32.0304
   -31.9742 -31.8954 -31.8881 -31.8780 -31.8646 -31.8484 -31.8379 -31.8295
   -31.8186 -31.7957 -31.7861 -31.7536 -31.6713 -31.6432 -31.6345 -31.6279
   -31.6226 -31.6151 -31.5859 -31.5771 -31.5616 -31.5275 -31.5270 -31.5054
   -31.4976 -31.4856 -31.4641 -31.4635 -31.4617 -31.4462 -31.4393 -31.4168
   -31.3845 -31.3117 -31.1738 -31.1004 -31.0766 -30.9923 -30.9073 -30.7953
   -20.8383 -16.3299 -16.1514 -15.9255 -15.7821 -15.7052 -15.5683 -15.3571
   -15.3437 -15.2695 -15.2364 -15.2179 -15.1525 -15.1450 -15.1172 -15.1085
   -15.0829 -15.0563 -15.0221 -15.0061 -14.9933 -14.9519 -14.9015 -14.8641
   -14.7846 -14.7271 -14.6316 -14.6074 -14.5789 -14.5050 -14.4719 -14.2037
   -13.2675 -13.1538  -6.7698  -5.8130  -4.7352  -4.4332  -3.7395  -3.6688
    -3.5290  -3.5263  -3.3981  -3.1403  -3.0432  -2.8171  -2.8126  -2.7591
    -2.7183  -2.7024  -2.6641  -2.6033  -2.5001  -2.4833  -2.4538  -2.4287
    -2.4083  -2.4035  -2.3914  -2.3316  -2.3108  -2.2241  -2.2190  -2.2137
    -2.1751  -2.0424  -1.9963  -1.9502  -1.9428  -1.9122  -1.8314  -1.8185
    -1.8026  -1.7592  -1.6672  -1.6330  -1.5036  -1.4031  -1.3984  -1.3566
    -1.2981  -1.2488  -1.0526  -1.0127  -1.0005  -0.9785  -0.9701  -0.9552
    -0.8824  -0.8213  -0.6941  -0.5893  -0.5684  -0.5337  -0.5144  -0.5089
    -0.4795  -0.4147  -0.4049  -0.3828  -0.3414  -0.2085  -0.0654  -0.0353
    -0.0057   0.0180   0.0364   0.1086   0.1175   0.1633   0.1947   0.2413
     0.2487   0.2895   0.3092   0.3329   0.4166   0.4470   0.5000   0.5308
     0.5539   0.5748   0.6147   0.7820   0.8524   0.9668   0.9868   1.0614
     1.1984   1.2195   1.2540   1.4660   1.5117   1.6209   1.8420   1.9178
     3.2801   3.4652   3.6704   3.7535   3.7823   3.8724   3.9470   4.0008
     4.0538   4.1550

[...]

          k = 0.0380-0.0419 0.0000 ( 17876 PWs)   bands (ev):

[...]

          k =-0.0760-0.0000 0.0000 ( 17886 PWs)   bands (ev):

[...]

          k =-0.0760-0.0839 0.0000 ( 17948 PWs)   bands (ev):

   -55.9742 -55.9722 -55.6543 -55.6515 -55.5978 -55.4846 -55.3779 -55.3730
   -55.3522 -55.3509 -55.2660 -55.2644 -55.2244 -55.2201 -54.7570 -54.7570
   -32.2359 -32.2343 -32.2237 -32.2212 -32.1356 -32.1338 -32.0189 -32.0083
   -31.9306 -31.9194 -31.8898 -31.8650 -31.8560 -31.8525 -31.8225 -31.7958
   -31.7834 -31.6994 -31.6952 -31.6844 -31.6824 -31.6817 -31.6136 -31.6123
   -31.6051 -31.6016 -31.6007 -31.5970 -31.5891 -31.5882 -31.5615 -31.5602
   -31.5513 -31.5458 -31.4805 -31.4795 -31.4744 -31.4726 -31.4599 -31.4559
   -31.4437 -31.4402 -31.0895 -31.0895 -30.9881 -30.9880 -30.9499 -30.9499
   -20.8381 -15.7945 -15.7246 -15.5472 -15.5197 -15.4583 -15.4567 -15.4350
   -15.4221 -15.3680 -15.3667 -15.2345 -15.2249 -15.2186 -15.2125 -15.1510
   -15.1461 -15.1424 -15.1383 -15.0883 -15.0832 -14.9509 -14.9477 -14.8541
   -14.8485 -14.8090 -14.8013 -14.7472 -14.7368 -14.6509 -14.6423 -14.2033
   -13.2563 -13.2560  -6.7666  -5.8149  -4.7422  -4.4317  -3.0934  -2.9753
    -2.7802  -2.7686  -2.7409  -2.6147  -2.6098  -2.5892  -2.5842  -2.5259
    -2.4864  -2.4699  -2.4653  -2.4341  -2.4298  -2.3733  -2.3683  -2.3532
    -2.3439  -2.3384  -2.3336  -2.3266  -2.3190  -2.2391  -2.2321  -2.2173
    -2.2146  -2.1459  -2.1396  -2.1101  -2.0998  -1.8797  -1.8787  -1.8238
    -1.8132  -1.6975  -1.6931  -1.6748  -1.6725  -1.6139  -1.5880  -1.3684
    -1.3608  -1.3074  -1.2884  -1.2370  -1.2334  -1.1097  -1.0847  -0.9764
    -0.9366  -0.9304  -0.9232  -0.7927  -0.7813  -0.7729  -0.7567  -0.7480
    -0.7401  -0.6456  -0.5872  -0.5428  -0.5335  -0.5018  -0.4924  -0.4706
    -0.4234  -0.2829  -0.2794  -0.2741  -0.2647  -0.1290  -0.1269  -0.0657
    -0.0607   0.1782   0.1910   0.3050   0.3077   0.5640   0.5704   0.5967
     0.6117   0.7390   0.7518   0.7605   0.7946   0.9043   0.9086   0.9145
     0.9242   1.0159   1.0202   1.6087   1.6408   1.6417   1.6966   1.6972
     3.7948   3.8045   3.8259   3.8274   3.8534   3.8704   3.8996   3.9080
     4.1578   4.1785

     the Fermi energy is     2.6530 ev

!    total energy              =   -2970.32643158 Ry
     estimated scf accuracy    <       0.00000007 Ry
     smearing contrib. (-TS)   =      -0.00009982 Ry
     internal energy E=F+TS    =   -2970.32633176 Ry

     The total energy is F=E-TS. E is the sum of the following terms:
     one-electron contribution =  -23420.52465280 Ry
     hartree contribution      =   11802.06424518 Ry
     xc contribution           =    -491.45633750 Ry
     ewald contribution        =    9139.58888474 Ry
     electric field correction =       0.00152862 Ry

     convergence has been achieved in  66 iterations

     Forces acting on atoms (cartesian axes, Ry/au):

     atom    1 type  1   force =     0.00002432   -0.00005488    0.14945596
     atom    2 type  1   force =    -0.00005652   -0.00024368   -0.16927212
     atom    3 type  2   force =     0.00008064    0.00240948   -0.05964660
     atom    4 type  2   force =     0.00006232   -0.00154025    0.04011229
     atom    5 type  2   force =    -0.02178234   -0.00035939    0.00378783
     atom    6 type  2   force =     0.02138417    0.00006092    0.00420354
     atom    7 type  1   force =     0.00134419    0.00035856    0.00018836
     atom    8 type  1   force =    -0.00053026    0.00124250   -0.00035629
     atom    9 type  2   force =    -0.00066877    0.00012725   -0.00017285
     atom   10 type  2   force =    -0.00008224   -0.00038989    0.00059568
     atom   11 type  2   force =    -0.00082340    0.00025266   -0.00018077
     atom   12 type  2   force =    -0.00075043   -0.00004597   -0.00023064
     atom   13 type  1   force =     0.00049981    0.00009808   -0.00065548
     atom   14 type  1   force =    -0.00025890    0.00000401    0.00039003
     atom   15 type  2   force =    -0.00023475   -0.00038402    0.00032566
     atom   16 type  2   force =    -0.00006952   -0.00004169   -0.00046755
     atom   17 type  2   force =     0.00062985   -0.00032167   -0.00023125
     atom   18 type  2   force =     0.00026163   -0.00020203    0.00014860
     atom   19 type  1   force =    -0.00069178    0.00052809   -0.00014969
     atom   20 type  1   force =     0.00092461    0.00024864   -0.00046992
     atom   21 type  2   force =     0.00000013   -0.00005019    0.10226286
     atom   22 type  2   force =     0.00022507   -0.00038920    0.00029767
     atom   23 type  2   force =    -0.07494633    0.00009847   -0.03478320
     atom   24 type  2   force =     0.07481715    0.00051242   -0.03482063
     atom   25 type  1   force =     0.00006977   -0.00002605    0.14885083
     atom   26 type  1   force =    -0.00001046   -0.00104937   -0.16928191
     atom   27 type  2   force =     0.00012559    0.00253903   -0.05990109
     atom   28 type  2   force =    -0.00032961   -0.00147421    0.04028562
     atom   29 type  2   force =    -0.02032453    0.00063626    0.00352983
     atom   30 type  2   force =     0.02285092   -0.00006454    0.00404127
     atom   31 type  1   force =     0.00101477    0.00068334   -0.00009543
     atom   32 type  1   force =    -0.00081832   -0.00144432   -0.00018733
     atom   33 type  2   force =    -0.00055132   -0.00039878   -0.00029432
     atom   34 type  2   force =    -0.00014366   -0.00005661   -0.00013064
     atom   35 type  2   force =    -0.00112876   -0.00079259   -0.00018559
     atom   36 type  2   force =    -0.00056638   -0.00045106   -0.00022405
     atom   37 type  1   force =     0.00071756   -0.00078464    0.00011286
     atom   38 type  1   force =    -0.00035937   -0.00016047    0.00061603
     atom   39 type  2   force =    -0.00040198   -0.00040826    0.00029989
     atom   40 type  2   force =    -0.00022351   -0.00041304    0.00001098
     atom   41 type  2   force =     0.00051917   -0.00036529    0.00019411
     atom   42 type  2   force =     0.00014495   -0.00041016   -0.00018716
     atom   43 type  1   force =    -0.00066680   -0.00100364    0.00030570
     atom   44 type  1   force =     0.00093956    0.00002257   -0.00031412
     atom   45 type  2   force =     0.00000662   -0.00007266    0.10222984
     atom   46 type  2   force =     0.00013482   -0.00008926   -0.00035703
     atom   47 type  2   force =    -0.07493917    0.00029396   -0.03475192
     atom   48 type  2   force =     0.07482145    0.00076544   -0.03485081
     atom   49 type  3   force =    -0.00066491    0.00080655    0.00018405
     atom   50 type  3   force =     0.00036583   -0.00036112    0.00082031
     atom   51 type  4   force =     0.00909830    0.00177636    0.00520386
     atom   52 type  5   force =     0.00157571    0.00062111   -0.00070871
     atom   53 type  5   force =    -0.01061489   -0.00023677   -0.00554659

     Total force =     0.403232     Total SCF correction =     0.000522
  @ DRIVER MODE: Message from server: STATUS
  @ DRIVER MODE: Message from server: GETFORCE
  @ DRIVER MODE: Returning v,forces,stress,ensemble

     Writing output data file ./calc.save/
  @ DRIVER MODE: Message from server: EXIT
  @ DRIVE MODE: Exiting

     General routines

     Parallel routines

   This run was terminated on:   1:45: 2  30Sep2021

   JOB DONE.