     Program PWSCF v.6.7GPU starts on  8Sep2021 at 22:10:20

     R & G space division:  proc/nbgrp/npool/nimage =      10
     Reading input from /storage/home/hcoda1/3/ntian30/research/carbon/CxH_vib/CH_calc/ads_slab/CHN2_c/out_0001/pw.inp
Warning: card &CELL ignored
Warning: card   CELL_DYNAMICS='IPI', ignored
Warning: card / ignored

     Current dimensions of program PWSCF are:
     Max number of different atomic species (ntypx) = 10
     Max number of k-points (npk) =  40000
     Max angular momentum in pseudopotentials (lmaxx) =  3
     Presently no symmetry can be used with electric field

     Message from routine cell_base_init:
     DEPRECATED: use true lattice parameter, not A to a.u. conversion factor

     IMPORTANT: XC functional enforced from input :
     Exchange-correlation= BEEF-VDW
                           (   1   4  43  14   2   0   0)
     Any further DFT definition will be discarded
     Please, verify this is what you really want

  @ DRIVER MODE: Connecting to
 qe_1139763_2767377.sched-torque.pace.gatech.educ1pesr93_scratch
  using UNIX socket
  @ DRIVER MODE: Message from server: STATUS
  @ DRIVER MODE: Message from server: INIT
  @ DRIVER MODE: Receiving replica           0          -1
  @ DRIVER MODE: Receiving encoded integer          25
  @ DRIVER MODE:  SCF:  T  FORCE:  T  STRESS:  F  VC:  F  ENSEMBLE:  F
  @ DRIVER MODE:  SCF:  T  FORCE:  T  STRESS:  F  VC:  F  ENSEMBLE:  F

     Using Slab Decomposition

     bravais-lattice index     =            0
     lattice parameter (alat)  =       1.8897  a.u.
     unit-cell volume          =    6658.9804 (a.u.)^3
     number of atoms/cell      =           51
     number of atomic types    =            5
     number of electrons       =       393.00
     number of Kohn-Sham states=          206
     kinetic-energy cutoff     =      29.3995  Ry
     charge density cutoff     =     293.9946  Ry
     scf convergence threshold =      7.3E-08
     mixing beta               =       0.0500
     number of iterations used =            8  plain     mixing
     Exchange-correlation= BEEF-VDW
                           (   1   4  43  14   2   0   0)

     celldm(1)=   1.889726  celldm(2)=   0.000000  celldm(3)=   0.000000
     celldm(4)=   0.000000  celldm(5)=   0.000000  celldm(6)=   0.000000

     crystal axes: (cart. coord. in units of alat)
               a(1) = (   6.579727   0.000000   0.000000 )
               a(2) = (  -0.000775   5.961596   0.000000 )
               a(3) = (   0.000000   0.000000  25.155947 )

     reciprocal axes: (cart. coord. in units 2 pi/alat)
               b(1) = (  0.151982  0.000020  0.000000 )
               b(2) = (  0.000000  0.167740  0.000000 )
               b(3) = (  0.000000  0.000000  0.039752 )

     PseudoPot. # 1 for Ti read from file:
     /storage/coda1/p-amedford6/0/shared/rich_project_chbe-medford/medford-share/data/pseudos_module/espresso/nninc/pbe/van/Ti.UPF
     MD5 check sum: 8e4df49b7f0d34bbd5052bf3f5ea0213
     Pseudo is Ultrasoft, Zval = 12.0
     Generated by new atomic code, or converted to UPF format
     Using radial grid of  851 points,  6 beta functions with:
                l(1) =   0
                l(2) =   0
                l(3) =   1
                l(4) =   1
                l(5) =   2
                l(6) =   2
     Q(r) pseudized with  8 coefficients,  rinner =    1.000   1.000   1.000
                                                       1.000   1.000

     PseudoPot. # 2 for O  read from file:
     /storage/coda1/p-amedford6/0/shared/rich_project_chbe-medford/medford-share/data/pseudos_module/espresso/nninc/pbe/van/O.UPF
     MD5 check sum: 78c19812648e8988a0fe644b0f25305e
     Pseudo is Ultrasoft, Zval =  6.0
     Generated by new atomic code, or converted to UPF format
     Using radial grid of  737 points,  4 beta functions with:
                l(1) =   0
                l(2) =   0
                l(3) =   1
                l(4) =   1
     Q(r) pseudized with  8 coefficients,  rinner =    0.800   0.800   0.800

     PseudoPot. # 3 for C  read from file:
     /storage/coda1/p-amedford6/0/shared/rich_project_chbe-medford/medford-share/data/pseudos_module/espresso/nninc/pbe/van/C.UPF
     MD5 check sum: 1a69bf6b8db32088f5b2163dbdb77a27
     Pseudo is Ultrasoft, Zval =  4.0
     Generated by new atomic code, or converted to UPF format
     Using radial grid of  721 points,  4 beta functions with:
                l(1) =   0
                l(2) =   0
                l(3) =   1
                l(4) =   1
     Q(r) pseudized with  8 coefficients,  rinner =    0.800   0.800   0.800

     PseudoPot. # 4 for H  read from file:
     /storage/coda1/p-amedford6/0/shared/rich_project_chbe-medford/medford-share/data/pseudos_module/espresso/nninc/pbe/van/H.UPF
     MD5 check sum: b5ee9d7bfd3a09ee7748110bda690ff7
     Pseudo is Ultrasoft, Zval =  1.0
     Generated by new atomic code, or converted to UPF format
     Using radial grid of  615 points,  1 beta functions with:
                l(1) =   0
     Q(r) pseudized with  8 coefficients,  rinner =    0.800

     PseudoPot. # 5 for N  read from file:
     /storage/coda1/p-amedford6/0/shared/rich_project_chbe-medford/medford-share/data/pseudos_module/espresso/nninc/pbe/van/N.UPF
     MD5 check sum: 90d10febe142ad51ac9d5be1deb811c4
     Pseudo is Ultrasoft, Zval =  5.0
     Generated by new atomic code, or converted to UPF format
     Using radial grid of  729 points,  4 beta functions with:
                l(1) =   0
                l(2) =   0
                l(3) =   1
                l(4) =   1
     Q(r) pseudized with  8 coefficients,  rinner =    0.800   0.800   0.800

     atomic species   valence    mass     pseudopotential
        Ti1           12.00    47.86700     Ti( 1.00)
        O1             6.00    15.99900     O ( 1.00)
        C1             4.00    12.01100     C ( 1.00)
        H1             1.00     1.00800     H ( 1.00)
        N1             5.00    14.00700     N ( 1.00)

     No symmetry found

   Cartesian axes

     site n.     atom                  positions (alat units)
         1           Ti1 tau(   1) = (   0.0004258   2.9801865   6.0000000  )
         2           Ti1 tau(   2) = (   3.2906075   1.4906267   6.0002472  )
         3           O1  tau(   3) = (   0.0006271   0.0005054   7.9858123  )
         4           O1  tau(   4) = (   3.2906025   0.0005020   7.3038282  )
         5           O1  tau(   5) = (   4.5942328   1.4918067   9.2879030  )
         6           O1  tau(   6) = (   1.9868534   1.4903216   9.2879459  )
         7           Ti1 tau(   7) = (   3.2907910   2.8959150   9.1758416  )
         8           Ti1 tau(   8) = (   0.0015273   1.4827037   9.2680791  )
         9           O1  tau(   9) = (   3.2947523   5.9577806  11.3289702  )
        10           O1  tau(  10) = (   0.0116148   5.9584955  10.6183126  )
        11           O1  tau(  11) = (   1.2923655   1.4808044  12.6140338  )
        12           O1  tau(  12) = (   5.2760440   1.4916827  12.6110895  )
        13           Ti1 tau(  13) = (   0.0641422   2.9468446  12.6204329  )
        14           Ti1 tau(  14) = (   3.3828727   1.4858934  12.4752560  )
        15           O1  tau(  15) = (   0.0059231   0.0169234  14.6319368  )
        16           O1  tau(  16) = (   3.2943198   0.0056150  13.9184638  )
        17           O1  tau(  17) = (   4.5468153   1.5236546  16.0329375  )
        18           O1  tau(  18) = (   2.0515374   1.5217879  16.0554076  )
        19           Ti1 tau(  19) = (   3.2830080   3.0033146  15.6914404  )
        20           Ti1 tau(  20) = (   0.0154850   1.5188701  15.8391361  )
        21           O1  tau(  21) = (   3.2904802   0.0005063   4.7018136  )
        22           O1  tau(  22) = (   6.5736218   0.0255948  17.1842280  )
        23           O1  tau(  23) = (   1.3043587   1.4918075   6.0039043  )
        24           O1  tau(  24) = (   5.2767064   1.4903225   6.0039473  )
        25           Ti1 tau(  25) = (   0.0000382   5.9609847   6.0000000  )
        26           Ti1 tau(  26) = (   3.2902200   4.4714249   6.0002472  )
        27           O1  tau(  27) = (   0.0002396   2.9813036   7.9858123  )
        28           O1  tau(  28) = (   3.2902150   2.9813002   7.3038282  )
        29           O1  tau(  29) = (   4.5938453   4.4726049   9.2879030  )
        30           O1  tau(  30) = (   1.9864658   4.4711199   9.2879459  )
        31           Ti1 tau(  31) = (   3.2891106   5.8743827   9.1763621  )
        32           Ti1 tau(  32) = (   0.0006254   4.4649316   9.2693709  )
        33           O1  tau(  33) = (   3.2953046   2.9833475  11.3259646  )
        34           O1  tau(  34) = (   0.0092240   2.9805883  10.6323155  )
        35           O1  tau(  35) = (   1.2912205   4.4696366  12.6263023  )
        36           O1  tau(  36) = (   5.2799819   4.4751186  12.6219323  )
        37           Ti1 tau(  37) = (   0.0684868   5.9252938  12.5505524  )
        38           Ti1 tau(  38) = (   3.3848087   4.4651122  12.4793038  )
        39           O1  tau(  39) = (   0.0176302   2.9443755  14.6544446  )
        40           O1  tau(  40) = (   3.2854840   2.9900965  13.8959901  )
        41           O1  tau(  41) = (   4.5427396   4.4796010  16.0582459  )
        42           O1  tau(  42) = (   2.0519076   4.4830995  16.0738147  )
        43           Ti1 tau(  43) = (   3.3192208   0.0178015  15.7165103  )
        44           Ti1 tau(  44) = (   0.0190484   4.6579992  16.0750729  )
        45           O1  tau(  45) = (   3.2900926   2.9813045   4.7018136  )
        46           O1  tau(  46) = (   1.3039711   4.4726057   6.0039043  )
        47           O1  tau(  47) = (   5.2763189   4.4711207   6.0039473  )
        48           C1  tau(  48) = (   0.0185071   2.9528277  17.6086602  )
        49           H1  tau(  49) = (   0.9556717   2.9086103  18.1759260  )
        50           N1  tau(  50) = (   5.5646879   2.9115633  18.3869838  )
        51           N1  tau(  51) = (   4.5815072   2.8727048  18.9619008  )

     number of k points=    10  Fermi-Dirac smearing, width (Ry)=  0.0073
                       cart. coord. in units 2pi/alat
        k(    1) = (   0.0000000   0.0000000   0.0000000), wk =   0.1250000
        k(    2) = (   0.0000000   0.0419351   0.0000000), wk =   0.2500000
        k(    3) = (   0.0000000  -0.0838702   0.0000000), wk =   0.1250000
        k(    4) = (   0.0379955   0.0000049   0.0000000), wk =   0.2500000
        k(    5) = (   0.0379955   0.0419400   0.0000000), wk =   0.2500000
        k(    6) = (   0.0379955  -0.0838652   0.0000000), wk =   0.2500000
        k(    7) = (   0.0379955  -0.0419301   0.0000000), wk =   0.2500000
        k(    8) = (  -0.0759910  -0.0000099   0.0000000), wk =   0.1250000
        k(    9) = (  -0.0759910   0.0419252   0.0000000), wk =   0.2500000
        k(   10) = (  -0.0759910  -0.0838800   0.0000000), wk =   0.1250000

     Initial potential from superposition of free atoms

     starting charge  376.99918, renormalised to  393.00000

     negative rho (up, down):  1.908E-02 0.000E+00

     %%%%%%%%%%%%%%%%%%%%%%%%%%%%%%%%%%%%%%%%%%%%%%%%%%%%%%%%%%%%%%%%%%%%%%%%
     %                                                                      %
     % You are using vdW-DF, which was implemented by the Thonhauser group. %
     % Please cite the following two papers that made this development      %
     % possible and the two reviews that describe the various versions:     %
     %                                                                      %
     %   T. Thonhauser et al., PRL 115, 136402 (2015).                      %
     %   T. Thonhauser et al., PRB 76, 125112 (2007).                       %
     %   K. Berland et al., Rep. Prog. Phys. 78, 066501 (2015).             %
     %   D.C. Langreth et al., J. Phys.: Condens. Matter 21, 084203 (2009). %
     %                                                                      %
     %                                                                      %
     % If you are calculating the stress with vdW-DF, please also cite:     %
     %                                                                      %
     %   R. Sabatini et al., J. Phys.: Condens. Matter 24, 424209 (2012).   %
     %                                                                      %
     %%%%%%%%%%%%%%%%%%%%%%%%%%%%%%%%%%%%%%%%%%%%%%%%%%%%%%%%%%%%%%%%%%%%%%%%

     Adding external electric field

     Computed dipole along edir(3) :
        Dipole               -7.1729 Ry au,        -18.2316 Debye
        Dipole field         -0.0135 Ry au,

        Potential amp.        1.2548 Ry
        Total length         46.3494 bohr

     Starting wfcs are  297 atomic wfcs
  @ DRIVER MODE: Message from server: STATUS
  @ DRIVER MODE: Message from server: POSDATA
  @ DRIVER MODE: Reading and sharing cell
  @ DRIVER MODE: Reading and sharing positions
  @ DRIVER MODE: Received positions

     Self-consistent Calculation

     iteration #  1     ecut=    29.40 Ry     beta= 0.05
     Davidson diagonalization with overlap
     c_bands:  1 eigenvalues not converged
     c_bands:  1 eigenvalues not converged
     c_bands:  1 eigenvalues not converged
     c_bands:  1 eigenvalues not converged
     c_bands:  2 eigenvalues not converged
     c_bands:  1 eigenvalues not converged
     c_bands:  2 eigenvalues not converged
     ethr =  1.00E-05,  avg # of iterations = 19.0

[...]

     total energy              =   -2708.67280832 Ry
     estimated scf accuracy    <    2526.30337475 Ry

[...]

     iteration #  4     ecut=    29.40 Ry     beta= 0.05
     Davidson diagonalization with overlap
     ethr =  1.00E-02,  avg # of iterations =  4.1

[...]

     iteration # 57     ecut=    29.40 Ry     beta= 0.05
     Davidson diagonalization with overlap
     c_bands:  2 eigenvalues not converged
     ethr =  2.57E-09,  avg # of iterations = 16.0

[...]

     total energy              =   -2936.64826848 Ry
     estimated scf accuracy    <       0.00000010 Ry

     iteration # 66     ecut=    29.40 Ry     beta= 0.05
     Davidson diagonalization with overlap
     ethr =  2.52E-11,  avg # of iterations =  9.7

     negative rho (up, down):  1.866E-02 0.000E+00

     Adding external electric field

     Computed dipole along edir(3) :
        Dipole                0.2939 Ry au,          0.7470 Debye
        Dipole field          0.0006 Ry au,

        Potential amp.       -0.0514 Ry
        Total length         46.3494 bohr

     End of self-consistent calculation

          k = 0.0000 0.0000 0.0000 ( 18029 PWs)   bands (ev):

   -56.1944 -56.1855 -56.1603 -56.1489 -56.0968 -56.0386 -56.0271 -56.0029
   -56.0015 -55.9687 -55.9656 -55.9319 -55.7170 -55.4453 -55.1704 -55.1364
   -32.7407 -32.6768 -32.5396 -32.5387 -32.5052 -32.5018 -32.4872 -32.4566
   -32.4369 -32.4253 -32.4087 -32.3884 -32.3663 -32.3466 -32.3388 -32.3250
   -32.3226 -32.2987 -32.2835 -32.2515 -32.2490 -32.2466 -32.2104 -32.1963
   -32.1959 -32.1937 -32.1910 -32.1813 -32.1679 -32.1529 -32.1481 -32.1418
   -32.1386 -32.1337 -32.1189 -32.1092 -32.0781 -31.9754 -31.9033 -31.7152
   -31.7062 -31.6595 -31.5774 -31.4894 -31.4669 -31.3942 -31.3077 -31.1966
   -20.6466 -16.9457 -16.6709 -16.4508 -16.3488 -16.3232 -16.2094 -16.0356
   -15.9162 -15.8724 -15.7694 -15.7534 -15.7300 -15.6979 -15.6889 -15.6835
   -15.6477 -15.6365 -15.6200 -15.6070 -15.5524 -15.5313 -15.5137 -15.4185
   -15.3731 -15.3308 -15.3210 -15.2550 -15.2488 -14.7456 -13.7029 -13.6728
   -13.5564  -5.8381  -4.8084  -4.5901  -4.3173  -4.1542  -4.1002  -4.0529
    -3.9985  -3.8130  -3.7510  -3.4360  -3.3912  -3.3758  -3.3648  -3.3527
    -3.3157  -3.1082  -3.0618  -3.0246  -3.0037  -2.9796  -2.9721  -2.9649
    -2.9565  -2.9136  -2.8565  -2.7782  -2.7414  -2.6485  -2.6085  -2.5864
    -2.5059  -2.4911  -2.4681  -2.4368  -2.4314  -2.4269  -2.3938  -2.3781
    -2.2461  -2.1879  -2.0594  -1.9986  -1.9708  -1.7998  -1.7674  -1.6632
    -1.6530  -1.6212  -1.5975  -1.5849  -1.4966  -1.3759  -1.3528  -1.3322
    -1.2908  -1.2146  -1.1761  -1.0833  -1.0493  -0.9781  -0.9587  -0.9567
    -0.9452  -0.8981  -0.7465  -0.6812  -0.6473  -0.6011  -0.5794  -0.5263
    -0.4925  -0.4693  -0.3565  -0.3245  -0.3203  -0.2640  -0.2558  -0.2195
    -0.2140  -0.2002  -0.1850  -0.1634  -0.0028   0.0826   0.1455   0.1602
     0.2969   0.3467   0.4084   0.4649   0.5641   0.7785   0.8517   0.9399
     1.0441   1.4227   1.4682   1.6339   2.9411   3.0265   3.0738   3.0904
     3.1843   3.1918   3.3951   3.4171   3.4240   3.4913

[...]

          k = 0.0380-0.0419 0.0000 ( 17876 PWs)   bands (ev):

[...]

          k =-0.0760-0.0000 0.0000 ( 17886 PWs)   bands (ev):

[...]

          k =-0.0760-0.0839 0.0000 ( 17948 PWs)   bands (ev):

   -56.1777 -56.1769 -56.1704 -56.1638 -56.0922 -56.0316 -56.0269 -56.0134
   -55.9867 -55.9843 -55.9495 -55.9481 -55.7160 -55.4462 -55.1534 -55.1533
   -32.5455 -32.5421 -32.4923 -32.4918 -32.4730 -32.4722 -32.4705 -32.4472
   -32.3941 -32.3905 -32.3880 -32.3857 -32.3548 -32.3210 -32.3182 -32.3132
   -32.3049 -32.2983 -32.2972 -32.2963 -32.2920 -32.2890 -32.2867 -32.2461
   -32.2330 -32.2317 -32.2175 -32.2057 -32.1856 -32.1848 -32.1811 -32.1800
   -32.1644 -32.1637 -32.1592 -32.1569 -32.0723 -31.9778 -31.8984 -31.7758
   -31.7113 -31.6803 -31.4797 -31.4796 -31.3902 -31.3901 -31.3510 -31.3510
   -20.6461 -16.3842 -16.3559 -16.1449 -16.1157 -16.1092 -16.0997 -15.9912
   -15.9048 -15.8897 -15.8877 -15.8223 -15.7989 -15.7829 -15.7387 -15.7252
   -15.7206 -15.7138 -15.7067 -15.6551 -15.6502 -15.6308 -15.6236 -15.5485
   -15.5094 -15.5058 -15.4910 -15.3677 -15.2342 -14.9215 -13.7106 -13.6583
   -13.6581  -5.8383  -4.7438  -4.5800  -3.6774  -3.6428  -3.4390  -3.3878
    -3.3620  -3.3490  -3.2839  -3.1194  -3.0985  -3.0767  -3.0652  -3.0269
    -3.0251  -3.0104  -3.0009  -2.9832  -2.9449  -2.9140  -2.8906  -2.8627
    -2.8600  -2.8503  -2.8221  -2.8079  -2.7821  -2.7668  -2.7463  -2.7319
    -2.7126  -2.6992  -2.5783  -2.4281  -2.3966  -2.3312  -2.3224  -2.2977
    -2.2644  -2.2576  -2.2429  -2.1938  -2.0643  -1.9338  -1.8962  -1.8784
    -1.8226  -1.7990  -1.7698  -1.6550  -1.6180  -1.5791  -1.5450  -1.4831
    -1.4520  -1.4139  -1.3648  -1.3390  -1.2721  -1.2500  -1.1903  -1.1556
    -1.1509  -1.1191  -1.0371  -0.9628  -0.9616  -0.9404  -0.9159  -0.8863
    -0.8329  -0.8074  -0.7028  -0.6775  -0.5770  -0.5051  -0.4714  -0.2274
    -0.1549  -0.1303  -0.1158  -0.0617   0.0124   0.0919   0.1163   0.1269
     0.1821   0.2577   0.2581   0.3476   0.3564   0.3901   0.5147   1.2156
     1.2165   1.2879   1.2881   1.6039   3.2256   3.2307   3.2785   3.3008
     3.4431   3.4509   3.4738   3.4746   3.5861   3.6121

     the Fermi energy is     2.9396 ev

!    total energy              =   -2936.64829822 Ry
     estimated scf accuracy    <       0.00000004 Ry
     smearing contrib. (-TS)   =      -0.02176065 Ry
     internal energy E=F+TS    =   -2936.62653758 Ry

     The total energy is F=E-TS. E is the sum of the following terms:
     one-electron contribution =  -24545.30527627 Ry
     hartree contribution      =   12355.65484044 Ry
     xc contribution           =    -483.53539398 Ry
     ewald contribution        =    9736.55912925 Ry
     electric field correction =       0.00016299 Ry

     convergence has been achieved in  66 iterations

     Forces acting on atoms (cartesian axes, Ry/au):

     atom    1 type  1   force =     0.00022845   -0.00016133    0.09655774
     atom    2 type  1   force =    -0.00008600   -0.00055144   -0.17536231
     atom    3 type  2   force =    -0.00002224   -0.00007184   -0.02487889
     atom    4 type  2   force =     0.00006899   -0.00140974    0.05270387
     atom    5 type  2   force =    -0.01181675   -0.00063880    0.00343432
     atom    6 type  2   force =     0.01354333    0.00002841    0.00245877
     atom    7 type  1   force =    -0.00105196    0.00055389   -0.01189055
     atom    8 type  1   force =     0.00049251    0.00952817    0.02772156
     atom    9 type  2   force =     0.00003623    0.00091744   -0.00045327
     atom   10 type  2   force =    -0.00161792    0.00102035   -0.01732449
     atom   11 type  2   force =     0.00043389    0.00013474    0.00025591
     atom   12 type  2   force =    -0.00047124   -0.00016943    0.00011832
     atom   13 type  1   force =     0.00089262    0.00137502   -0.00040521
     atom   14 type  1   force =    -0.00069849    0.00000439   -0.00005577
     atom   15 type  2   force =    -0.00014049   -0.00020143    0.00029926
     atom   16 type  2   force =     0.00026699    0.00026426    0.00102284
     atom   17 type  2   force =    -0.00007218   -0.00046727    0.00010951
     atom   18 type  2   force =    -0.00039014   -0.00010084    0.00057561
     atom   19 type  1   force =     0.00003636   -0.00088488    0.00094218
     atom   20 type  1   force =    -0.00007269   -0.00022708    0.00087063
     atom   21 type  2   force =     0.00008210   -0.00005031    0.10318434
     atom   22 type  2   force =     0.00017506   -0.00033518   -0.00068497
     atom   23 type  2   force =    -0.07152870   -0.00011641   -0.02773159
     atom   24 type  2   force =     0.07148192    0.00028840   -0.02774534
     atom   25 type  1   force =     0.00000278   -0.00018850    0.09611539
     atom   26 type  1   force =    -0.00018277   -0.00028704   -0.17548757
     atom   27 type  2   force =     0.00005821   -0.00023533   -0.02384210
     atom   28 type  2   force =     0.00011049   -0.00115964    0.05258949
     atom   29 type  2   force =    -0.01194524    0.00044944    0.00310416
     atom   30 type  2   force =     0.01358689    0.00085356    0.00215451
     atom   31 type  1   force =    -0.00088769    0.00310115   -0.01276338
     atom   32 type  1   force =     0.00046720   -0.01168857    0.02818816
     atom   33 type  2   force =     0.00030231   -0.00090337   -0.00022649
     atom   34 type  2   force =    -0.00076919    0.00070731   -0.02378702
     atom   35 type  2   force =    -0.00067676   -0.00003110    0.00007072
     atom   36 type  2   force =     0.00037329   -0.00021731    0.00000540
     atom   37 type  1   force =     0.00090408   -0.00125443   -0.00047821
     atom   38 type  1   force =    -0.00090265    0.00019436    0.00030511
     atom   39 type  2   force =    -0.00001394    0.00047549    0.00022532
     atom   40 type  2   force =     0.00011690   -0.00030926    0.00027238
     atom   41 type  2   force =    -0.00010864    0.00062077    0.00014041
     atom   42 type  2   force =    -0.00027505    0.00034611    0.00041293
     atom   43 type  1   force =    -0.00012951    0.00108483    0.00008661
     atom   44 type  1   force =    -0.00020993   -0.00026510    0.00043618
     atom   45 type  2   force =     0.00007187   -0.00007896    0.10316756
     atom   46 type  2   force =    -0.07154150   -0.00010364   -0.02774708
     atom   47 type  2   force =     0.07151674    0.00033292   -0.02777003
     atom   48 type  3   force =     0.02130051    0.00073798   -0.00196676
     atom   49 type  4   force =    -0.00795765    0.00007372   -0.00438420
     atom   50 type  5   force =    -0.01083038   -0.00113586    0.00641551
     atom   51 type  5   force =    -0.00215001    0.00015138    0.00104052

     Total force =     0.368862     Total SCF correction =     0.000422
  @ DRIVER MODE: Message from server: STATUS
  @ DRIVER MODE: Message from server: GETFORCE
  @ DRIVER MODE: Returning v,forces,stress,ensemble

     Writing output data file ./calc.save/
  @ DRIVER MODE: Message from server: EXIT
  @ DRIVE MODE: Exiting

     General routines

     Parallel routines

   This run was terminated on:  22:28:29   8Sep2021

   JOB DONE.