     Program PWSCF v.6.7GPU starts on 16Jul2021 at  6:51:41

     R & G space division:  proc/nbgrp/npool/nimage =      16
     Reading input from /storage/home/hcoda1/3/ntian30/research/carbon/15Jul_vib/ads_slab/CH3NH_a/out_0029/pw.inp
Warning: card &CELL ignored
Warning: card   CELL_DYNAMICS='IPI', ignored
Warning: card / ignored

     Current dimensions of program PWSCF are:
     Max number of different atomic species (ntypx) = 10
     Max number of k-points (npk) =  40000
     Max angular momentum in pseudopotentials (lmaxx) =  3
     Presently no symmetry can be used with electric field

     Message from routine cell_base_init:
     DEPRECATED: use true lattice parameter, not A to a.u. conversion factor

     IMPORTANT: XC functional enforced from input :
     Exchange-correlation= BEEF-VDW
                           (   1   4  43  14   2   0   0)
     Any further DFT definition will be discarded
     Please, verify this is what you really want

  @ DRIVER MODE: Connecting to
 qe_1139763_2351648.sched-torque.pace.gatech.edu9yuw5wnk_scratch
  using UNIX socket
  @ DRIVER MODE: Message from server: STATUS
  @ DRIVER MODE: Message from server: INIT
  @ DRIVER MODE: Receiving replica           0          -1
  @ DRIVER MODE: Receiving encoded integer          25
  @ DRIVER MODE:  SCF:  T  FORCE:  T  STRESS:  F  VC:  F  ENSEMBLE:  F
  @ DRIVER MODE:  SCF:  T  FORCE:  T  STRESS:  F  VC:  F  ENSEMBLE:  F

     Using Slab Decomposition

     bravais-lattice index     =            0
     lattice parameter (alat)  =       1.8897  a.u.
     unit-cell volume          =    6658.9804 (a.u.)^3
     number of atoms/cell      =           53
     number of atomic types    =            5
     number of electrons       =       391.00
     number of Kohn-Sham states=          205
     kinetic-energy cutoff     =      29.3995  Ry
     charge density cutoff     =     293.9946  Ry
     scf convergence threshold =      7.3E-08
     mixing beta               =       0.0500
     number of iterations used =            8  plain     mixing
     Exchange-correlation= BEEF-VDW
                           (   1   4  43  14   2   0   0)

     celldm(1)=   1.889726  celldm(2)=   0.000000  celldm(3)=   0.000000
     celldm(4)=   0.000000  celldm(5)=   0.000000  celldm(6)=   0.000000

     crystal axes: (cart. coord. in units of alat)
               a(1) = (   6.579727   0.000000   0.000000 )
               a(2) = (  -0.000775   5.961596   0.000000 )
               a(3) = (   0.000000   0.000000  25.155947 )

     reciprocal axes: (cart. coord. in units 2 pi/alat)
               b(1) = (  0.151982  0.000020  0.000000 )
               b(2) = (  0.000000  0.167740  0.000000 )
               b(3) = (  0.000000  0.000000  0.039752 )

     PseudoPot. # 1 for Ti read from file:
     /storage/coda1/p-amedford6/0/shared/rich_project_chbe-medford/medford-share/data/pseudos_module/espresso/nninc/pbe/van/Ti.UPF
     MD5 check sum: 8e4df49b7f0d34bbd5052bf3f5ea0213
     Pseudo is Ultrasoft, Zval = 12.0
     Generated by new atomic code, or converted to UPF format
     Using radial grid of  851 points,  6 beta functions with:
                l(1) =   0
                l(2) =   0
                l(3) =   1
                l(4) =   1
                l(5) =   2
                l(6) =   2
     Q(r) pseudized with  8 coefficients,  rinner =    1.000   1.000   1.000
                                                       1.000   1.000

     PseudoPot. # 2 for O  read from file:
     /storage/coda1/p-amedford6/0/shared/rich_project_chbe-medford/medford-share/data/pseudos_module/espresso/nninc/pbe/van/O.UPF
     MD5 check sum: 78c19812648e8988a0fe644b0f25305e
     Pseudo is Ultrasoft, Zval =  6.0
     Generated by new atomic code, or converted to UPF format
     Using radial grid of  737 points,  4 beta functions with:
                l(1) =   0
                l(2) =   0
                l(3) =   1
                l(4) =   1
     Q(r) pseudized with  8 coefficients,  rinner =    0.800   0.800   0.800

     PseudoPot. # 3 for H  read from file:
     /storage/coda1/p-amedford6/0/shared/rich_project_chbe-medford/medford-share/data/pseudos_module/espresso/nninc/pbe/van/H.UPF
     MD5 check sum: b5ee9d7bfd3a09ee7748110bda690ff7
     Pseudo is Ultrasoft, Zval =  1.0
     Generated by new atomic code, or converted to UPF format
     Using radial grid of  615 points,  1 beta functions with:
                l(1) =   0
     Q(r) pseudized with  8 coefficients,  rinner =    0.800

     PseudoPot. # 4 for N  read from file:
     /storage/coda1/p-amedford6/0/shared/rich_project_chbe-medford/medford-share/data/pseudos_module/espresso/nninc/pbe/van/N.UPF
     MD5 check sum: 90d10febe142ad51ac9d5be1deb811c4
     Pseudo is Ultrasoft, Zval =  5.0
     Generated by new atomic code, or converted to UPF format
     Using radial grid of  729 points,  4 beta functions with:
                l(1) =   0
                l(2) =   0
                l(3) =   1
                l(4) =   1
     Q(r) pseudized with  8 coefficients,  rinner =    0.800   0.800   0.800

     PseudoPot. # 5 for C  read from file:
     /storage/coda1/p-amedford6/0/shared/rich_project_chbe-medford/medford-share/data/pseudos_module/espresso/nninc/pbe/van/C.UPF
     MD5 check sum: 1a69bf6b8db32088f5b2163dbdb77a27
     Pseudo is Ultrasoft, Zval =  4.0
     Generated by new atomic code, or converted to UPF format
     Using radial grid of  721 points,  4 beta functions with:
                l(1) =   0
                l(2) =   0
                l(3) =   1
                l(4) =   1
     Q(r) pseudized with  8 coefficients,  rinner =    0.800   0.800   0.800

     atomic species   valence    mass     pseudopotential
        Ti1           12.00    47.86700     Ti( 1.00)
        O1             6.00    15.99900     O ( 1.00)
        H1             1.00     1.00800     H ( 1.00)
        N1             5.00    14.00700     N ( 1.00)
        C1             4.00    12.01100     C ( 1.00)

     Starting magnetic structure
     atomic species   magnetization
        Ti1          0.000
        O1           0.000
        H1           0.000
        N1           0.000
        C1           0.025

     No symmetry found

   Cartesian axes

     site n.     atom                  positions (alat units)
         1           Ti1 tau(   1) = (   0.0004258   2.9801865   6.0000000  )
         2           Ti1 tau(   2) = (   3.2906075   1.4906267   6.0002472  )
         3           O1  tau(   3) = (   0.0006271   0.0005054   7.9858123  )
         4           O1  tau(   4) = (   3.2906025   0.0005020   7.3038282  )
         5           O1  tau(   5) = (   4.5942328   1.4918067   9.2879030  )
         6           O1  tau(   6) = (   1.9868534   1.4903216   9.2879459  )
         7           Ti1 tau(   7) = (   3.2907910   2.8959150   9.1758416  )
         8           Ti1 tau(   8) = (   0.0015273   1.4827037   9.2680791  )
         9           O1  tau(   9) = (   3.2884659   0.0075485  11.3235732  )
        10           O1  tau(  10) = (   0.0116148   5.9584955  10.6183126  )
        11           O1  tau(  11) = (   1.3171120   1.5008813  12.6157184  )
        12           O1  tau(  12) = (   5.2946386   1.4924346  12.6071097  )
        13           Ti1 tau(  13) = (   6.5241923   2.9548932  12.6217359  )
        14           Ti1 tau(  14) = (   3.2094326   1.4975571  12.4685497  )
        15           O1  tau(  15) = (   6.5712017   0.0435206  14.6415704  )
        16           O1  tau(  16) = (   3.3105969   0.0188825  13.9167609  )
        17           O1  tau(  17) = (   4.5276945   1.5520673  16.0775932  )
        18           O1  tau(  18) = (   2.0451199   1.5488911  16.0433559  )
        19           Ti1 tau(  19) = (   3.3056363   3.0248959  15.6834923  )
        20           Ti1 tau(  20) = (   0.0598299   1.5678558  15.8702049  )
        21           O1  tau(  21) = (   3.2904802   0.0005063   4.7018136  )
        22           O1  tau(  22) = (   0.0261329   0.0581799  17.1997403  )
        23           O1  tau(  23) = (   1.3043587   1.4918075   6.0039043  )
        24           O1  tau(  24) = (   5.2767064   1.4903225   6.0039473  )
        25           Ti1 tau(  25) = (   0.0000382   5.9609847   6.0000000  )
        26           Ti1 tau(  26) = (   3.2902200   4.4714249   6.0002472  )
        27           O1  tau(  27) = (   0.0002396   2.9813036   7.9858123  )
        28           O1  tau(  28) = (   3.2902150   2.9813002   7.3038282  )
        29           O1  tau(  29) = (   4.5938453   4.4726049   9.2879030  )
        30           O1  tau(  30) = (   1.9864658   4.4711199   9.2879459  )
        31           Ti1 tau(  31) = (   3.2891106   5.8743827   9.1763621  )
        32           Ti1 tau(  32) = (   0.0006254   4.4649316   9.2693709  )
        33           O1  tau(  33) = (   3.2900467   2.9919642  11.3219399  )
        34           O1  tau(  34) = (   0.0092240   2.9805883  10.6323155  )
        35           O1  tau(  35) = (   1.3109590   4.4888342  12.6262493  )
        36           O1  tau(  36) = (   5.2962169   4.4808628  12.6191006  )
        37           Ti1 tau(  37) = (   6.5213093   5.9327278  12.5667326  )
        38           Ti1 tau(  38) = (   3.2063601   4.4772876  12.4706241  )
        39           O1  tau(  39) = (   6.5765807   2.9606619  14.6437028  )
        40           O1  tau(  40) = (   3.3047873   3.0036736  13.8926904  )
        41           O1  tau(  41) = (   4.5386289   4.5058657  16.0833063  )
        42           O1  tau(  42) = (   2.0584685   4.5123608  16.0729366  )
        43           Ti1 tau(  43) = (   3.3398093   0.0384087  15.7085799  )
        44           Ti1 tau(  44) = (   0.0478225   4.6849499  16.0879628  )
        45           O1  tau(  45) = (   3.2900926   2.9813045   4.7018136  )
        46           O1  tau(  46) = (   1.3039711   4.4726057   6.0039043  )
        47           O1  tau(  47) = (   5.2763189   4.4711207   6.0039473  )
        48           H1  tau(  48) = (   5.6109407   2.9912845  17.7881963  )
        49           N1  tau(  49) = (   6.5652763   3.0051276  17.4431066  )
        50           C1  tau(  50) = (   0.8863280   2.9891452  18.6126320  )
        51           H1  tau(  51) = (   1.3596840   3.9617220  18.7724638  )
        52           H1  tau(  52) = (   0.3315535   2.7344040  19.5071108  )
        53           H1  tau(  53) = (   1.6705027   2.2407838  18.4910999  )

     number of k points=    10  Fermi-Dirac smearing, width (Ry)=  0.0073
                       cart. coord. in units 2pi/alat
        k(    1) = (   0.0000000   0.0000000   0.0000000), wk =   0.0625000
        k(    2) = (   0.0000000   0.0419351   0.0000000), wk =   0.1250000
        k(    3) = (   0.0000000  -0.0838702   0.0000000), wk =   0.0625000
        k(    4) = (   0.0379955   0.0000049   0.0000000), wk =   0.1250000
        k(    5) = (   0.0379955   0.0419400   0.0000000), wk =   0.1250000
        k(    6) = (   0.0379955  -0.0838652   0.0000000), wk =   0.1250000
        k(    7) = (   0.0379955  -0.0419301   0.0000000), wk =   0.1250000
        k(    8) = (  -0.0759910  -0.0000099   0.0000000), wk =   0.0625000
[...]

     Initial potential from superposition of free atoms

     starting charge  374.99916, renormalised to  391.00000

     negative rho (up, down):  8.896E-03 8.903E-03

     %%%%%%%%%%%%%%%%%%%%%%%%%%%%%%%%%%%%%%%%%%%%%%%%%%%%%%%%%%%%%%%%%%%%%%%%
     %                                                                      %
     % You are using vdW-DF, which was implemented by the Thonhauser group. %
     % Please cite the following two papers that made this development      %
     % possible and the two reviews that describe the various versions:     %
     %                                                                      %
     %   T. Thonhauser et al., PRL 115, 136402 (2015).                      %
     %   T. Thonhauser et al., PRB 76, 125112 (2007).                       %
     %   K. Berland et al., Rep. Prog. Phys. 78, 066501 (2015).             %
     %   D.C. Langreth et al., J. Phys.: Condens. Matter 21, 084203 (2009). %
     %                                                                      %
     %                                                                      %
     % If you are calculating the stress with vdW-DF, please also cite:     %
     %                                                                      %
     %   R. Sabatini et al., J. Phys.: Condens. Matter 24, 424209 (2012).   %
     %                                                                      %
     %%%%%%%%%%%%%%%%%%%%%%%%%%%%%%%%%%%%%%%%%%%%%%%%%%%%%%%%%%%%%%%%%%%%%%%%

     Adding external electric field

     Computed dipole along edir(3) :
        Dipole               -5.8076 Ry au,        -14.7614 Debye
        Dipole field         -0.0110 Ry au,

        Potential amp.        1.0159 Ry
        Total length         46.3494 bohr

[...]

     Starting wfcs are  296 atomic wfcs
  @ DRIVER MODE: Message from server: STATUS
  @ DRIVER MODE: Message from server: POSDATA
  @ DRIVER MODE: Reading and sharing cell
  @ DRIVER MODE: Reading and sharing positions
  @ DRIVER MODE: Received positions

     Self-consistent Calculation

     iteration #  1     ecut=    29.40 Ry     beta= 0.05
     Davidson diagonalization with overlap
     c_bands:  3 eigenvalues not converged
     c_bands:  1 eigenvalues not converged
     c_bands:  1 eigenvalues not converged
     c_bands:  2 eigenvalues not converged
     c_bands:  4 eigenvalues not converged
     c_bands:  2 eigenvalues not converged
     c_bands:  1 eigenvalues not converged
     c_bands:  1 eigenvalues not converged
     c_bands:  2 eigenvalues not converged
     c_bands:  3 eigenvalues not converged
     c_bands:  1 eigenvalues not converged
     c_bands:  1 eigenvalues not converged
     c_bands:  3 eigenvalues not converged
     c_bands:  4 eigenvalues not converged
     c_bands:  2 eigenvalues not converged
     c_bands:  1 eigenvalues not converged
     c_bands:  1 eigenvalues not converged
     c_bands:  2 eigenvalues not converged
     ethr =  1.00E-05,  avg # of iterations = 19.5

[...]

     total energy              =   -2770.99802852 Ry
     estimated scf accuracy    <    1637.64750400 Ry

     total magnetization       =     0.01 Bohr mag/cell
     absolute magnetization    =     0.02 Bohr mag/cell

[...]

     iteration #  3     ecut=    29.40 Ry     beta= 0.05
     Davidson diagonalization with overlap
     ethr =  1.00E-02,  avg # of iterations = 15.2

[...]

     iteration # 66     ecut=    29.40 Ry     beta= 0.05
     Davidson diagonalization with overlap
     c_bands:  2 eigenvalues not converged
     c_bands:  1 eigenvalues not converged
     ethr =  5.17E-11,  avg # of iterations = 12.6

[...]

     total energy              =   -2920.42039292 Ry
     estimated scf accuracy    <       0.00000012 Ry

[...]

     iteration # 68     ecut=    29.40 Ry     beta= 0.05
     Davidson diagonalization with overlap
     ethr =  3.10E-11,  avg # of iterations =  2.6

     negative rho (up, down):  9.161E-03 9.160E-03

[...]

     Adding external electric field

     Computed dipole along edir(3) :
        Dipole                0.6968 Ry au,          1.7710 Debye
        Dipole field          0.0013 Ry au,

        Potential amp.       -0.1219 Ry
        Total length         46.3494 bohr

     Magnetic moment per site  (integrated on atomic sphere of radius R)
     atom   1 (R=0.717)  charge=  7.8575  magn= -0.0046
     atom   2 (R=0.717)  charge=  7.8411  magn= -0.0000
     atom   3 (R=0.717)  charge=  4.8648  magn=  0.0004
     atom   4 (R=0.717)  charge=  4.9003  magn=  0.0000
     atom   5 (R=0.717)  charge=  4.8705  magn=  0.0000
     atom   6 (R=0.717)  charge=  4.8712  magn=  0.0000
     atom   7 (R=0.717)  charge=  7.8399  magn= -0.0001
     atom   8 (R=0.717)  charge=  7.8316  magn= -0.0012
     atom   9 (R=0.717)  charge=  4.8873  magn= -0.0000
     atom  10 (R=0.717)  charge=  4.8598  magn=  0.0001
     atom  11 (R=0.717)  charge=  4.8722  magn=  0.0000
     atom  12 (R=0.717)  charge=  4.8711  magn=  0.0000
     atom  13 (R=0.717)  charge=  7.8297  magn= -0.0002
     atom  14 (R=0.717)  charge=  7.8426  magn= -0.0000
     atom  15 (R=0.717)  charge=  4.8599  magn=  0.0000
     atom  16 (R=0.717)  charge=  4.8822  magn= -0.0000
     atom  17 (R=0.717)  charge=  4.8579  magn= -0.0000
     atom  18 (R=0.717)  charge=  4.8644  magn=  0.0000
     atom  19 (R=0.717)  charge=  7.8685  magn=  0.0000
     atom  20 (R=0.717)  charge=  7.8397  magn= -0.0001
     atom  21 (R=0.717)  charge=  4.7571  magn= -0.0001
     atom  22 (R=0.717)  charge=  4.8381  magn= -0.0001
     atom  23 (R=0.717)  charge=  4.8628  magn=  0.0005
     atom  24 (R=0.717)  charge=  4.8628  magn=  0.0005
     atom  25 (R=0.717)  charge=  7.8575  magn= -0.0046
     atom  26 (R=0.717)  charge=  7.8411  magn= -0.0000
     atom  27 (R=0.717)  charge=  4.8641  magn=  0.0004
     atom  28 (R=0.717)  charge=  4.9005  magn=  0.0000
     atom  29 (R=0.717)  charge=  4.8713  magn=  0.0000
     atom  30 (R=0.717)  charge=  4.8719  magn=  0.0000
     atom  31 (R=0.717)  charge=  7.8401  magn= -0.0001
     atom  32 (R=0.717)  charge=  7.8317  magn= -0.0012
     atom  33 (R=0.717)  charge=  4.8864  magn= -0.0000
     atom  34 (R=0.717)  charge=  4.8464  magn=  0.0001
     atom  35 (R=0.717)  charge=  4.8726  magn=  0.0000
     atom  36 (R=0.717)  charge=  4.8718  magn=  0.0000
     atom  37 (R=0.717)  charge=  7.8315  magn= -0.0002
     atom  38 (R=0.717)  charge=  7.8429  magn=  0.0000
     atom  39 (R=0.717)  charge=  4.8524  magn=  0.0000
     atom  40 (R=0.717)  charge=  4.8881  magn= -0.0000
     atom  41 (R=0.717)  charge=  4.8602  magn= -0.0000
     atom  42 (R=0.717)  charge=  4.8621  magn= -0.0000
     atom  43 (R=0.717)  charge=  7.8659  magn=  0.0000
     atom  44 (R=0.717)  charge=  7.8696  magn=  0.0000
     atom  45 (R=0.717)  charge=  4.7571  magn= -0.0001
     atom  46 (R=0.717)  charge=  4.8628  magn=  0.0006
     atom  47 (R=0.717)  charge=  4.8628  magn=  0.0006
     atom  48 (R=0.419)  charge=  0.4541  magn=  0.0000
     atom  49 (R=0.419)  charge=  1.3227  magn= -0.0000
     atom  50 (R=0.447)  charge=  0.8339  magn=  0.0000
     atom  51 (R=0.419)  charge=  0.4419  magn= -0.0000
     atom  52 (R=0.419)  charge=  0.4484  magn= -0.0000
     atom  53 (R=0.419)  charge=  0.4432  magn= -0.0000

     End of self-consistent calculation

 ------ SPIN UP ------------

          k = 0.0000 0.0000 0.0000 ( 18029 PWs)   bands (ev):

   -55.9763 -55.9723 -55.9422 -55.9362 -55.8846 -55.8237 -55.8184 -55.7847
   -55.7837 -55.7507 -55.7449 -55.7112 -55.5539 -55.2743 -54.9534 -54.9194
   -32.5321 -32.4601 -32.3335 -32.3196 -32.2995 -32.2826 -32.2686 -32.2359
   -32.2197 -32.2180 -32.1951 -32.1882 -32.1554 -32.1274 -32.1238 -32.1173
   -32.1151 -32.0820 -32.0631 -32.0323 -32.0295 -32.0249 -32.0102 -31.9880
   -31.9783 -31.9764 -31.9710 -31.9612 -31.9481 -31.9419 -31.9390 -31.9337
   -31.9213 -31.9149 -31.8980 -31.8914 -31.8574 -31.8186 -31.7228 -31.5484
   -31.5419 -31.4707 -31.3601 -31.2723 -31.2499 -31.1768 -31.0903 -30.9793
   -16.7415 -16.4581 -16.2790 -16.1358 -16.1026 -16.0176 -15.8171 -15.6920
   -15.6790 -15.5758 -15.5380 -15.5152 -15.5075 -15.4806 -15.4772 -15.4184
   -15.4152 -15.4030 -15.3906 -15.3343 -15.3103 -15.2707 -15.1767 -15.1526
   -15.1370 -15.1106 -15.0293 -15.0223 -14.5827 -14.1054 -13.4552 -13.3389
    -8.9467  -4.3843  -4.1122  -3.9352  -3.8964  -3.8828  -3.8344  -3.5826
    -3.5668  -3.3139  -3.1920  -3.1776  -3.1663  -3.1513  -3.1364  -3.1172
    -2.8796  -2.8093  -2.7954  -2.7737  -2.7661  -2.7630  -2.7512  -2.7465
    -2.7043  -2.6452  -2.5311  -2.5143  -2.4077  -2.3603  -2.3393  -2.2896
    -2.2469  -2.2399  -2.2284  -2.2106  -2.1973  -2.1767  -2.1587  -2.0242
    -1.9611  -1.8328  -1.7852  -1.7794  -1.5811  -1.5366  -1.4469  -1.4236
    -1.4071  -1.3994  -1.3672  -1.2872  -1.1962  -1.1386  -1.1256  -1.0724
    -0.9957  -0.9842  -0.8740  -0.8692  -0.8072  -0.7495  -0.7403  -0.7307
    -0.6858  -0.6142  -0.5398  -0.4652  -0.4156  -0.3943  -0.3671  -0.2882
    -0.2581  -0.1617  -0.1432  -0.0968  -0.0931  -0.0441  -0.0024   0.0076
     0.0142   0.0289   0.0466   0.1952   0.3023   0.3590   0.3923   0.4032
     0.5587   0.5944   0.6829   0.7702   0.9961   1.0692   1.1626   1.2619
     1.3248   1.6401   1.6856   3.1650   3.2467   3.2960   3.3033   3.4047
     3.4076   3.6152   3.6253   3.6359   3.7036

[...]

          k =-0.0760-0.0000 0.0000 ( 17886 PWs)   bands (ev):

[...]

 ------ SPIN DOWN ----------

[...]

          k = 0.0380-0.0419 0.0000 ( 17876 PWs)   bands (ev):

[...]

          k =-0.0760-0.0839 0.0000 ( 17948 PWs)   bands (ev):

   -55.9682 -55.9675 -55.9549 -55.9530 -55.8790 -55.8289 -55.8037 -55.7993
   -55.7705 -55.7687 -55.7289 -55.7276 -55.5532 -55.2750 -54.9362 -54.9361
   -32.3363 -32.3335 -32.2793 -32.2788 -32.2649 -32.2641 -32.2634 -32.2444
   -32.1822 -32.1812 -32.1745 -32.1707 -32.1477 -32.1195 -32.1007 -32.0966
   -32.0883 -32.0876 -32.0872 -32.0828 -32.0817 -32.0688 -32.0664 -32.0349
   -32.0240 -32.0181 -31.9940 -31.9847 -31.9668 -31.9663 -31.9617 -31.9605
   -31.9437 -31.9430 -31.9416 -31.9397 -31.8869 -31.8215 -31.7181 -31.6115
   -31.5440 -31.4962 -31.2625 -31.2625 -31.1726 -31.1725 -31.1335 -31.1335
   -16.1935 -16.1601 -15.9246 -15.9146 -15.9061 -15.8895 -15.7451 -15.6932
   -15.6848 -15.6779 -15.6537 -15.6303 -15.5790 -15.5486 -15.5145 -15.5077
   -15.5010 -15.4960 -15.4395 -15.4331 -15.4106 -15.4032 -15.2898 -15.2856
   -15.2843 -15.2082 -15.1437 -15.0104 -14.7530 -14.1265 -13.4415 -13.4413
    -8.9503  -4.3955  -3.4880  -3.4498  -3.2781  -3.1966  -3.1647  -3.1513
    -3.1301  -3.0512  -2.8909  -2.8763  -2.8579  -2.8452  -2.8047  -2.7996
    -2.7879  -2.7741  -2.7670  -2.7492  -2.7154  -2.6749  -2.6467  -2.6396
    -2.6303  -2.6055  -2.5933  -2.5673  -2.5615  -2.5287  -2.5205  -2.5016
    -2.4778  -2.2171  -2.1975  -2.1802  -2.1109  -2.1040  -2.0695  -2.0612
    -2.0420  -2.0285  -1.9768  -1.8761  -1.7124  -1.6794  -1.6688  -1.6512
    -1.5859  -1.5648  -1.4156  -1.3874  -1.3701  -1.3308  -1.2819  -1.2518
    -1.2147  -1.1756  -1.1378  -1.0773  -1.0695  -0.9903  -0.9399  -0.9393
    -0.9126  -0.8427  -0.7639  -0.7466  -0.7349  -0.6933  -0.6799  -0.5984
    -0.5757  -0.4774  -0.4645  -0.3954  -0.3626  -0.2967  -0.0937   0.0046
     0.0634   0.0872   0.1402   0.2375   0.2918   0.3058   0.3393   0.3444
     0.4040   0.4443   0.5591   0.5667   0.6351   0.7387   1.2728   1.4331
     1.4337   1.5044   1.5045   3.4243   3.4300   3.4795   3.5103   3.6595
     3.6639   3.6876   3.6887   3.8113   3.8295

     the Fermi energy is     3.1557 ev

!    total energy              =   -2920.42041128 Ry
     estimated scf accuracy    <       0.00000007 Ry
     smearing contrib. (-TS)   =      -0.02203129 Ry
     internal energy E=F+TS    =   -2920.39837998 Ry

     The total energy is F=E-TS. E is the sum of the following terms:
     one-electron contribution =  -24728.22862997 Ry
     hartree contribution      =   12448.79736717 Ry
     xc contribution           =    -480.88218458 Ry
     ewald contribution        =    9839.91415125 Ry
     electric field correction =       0.00091613 Ry

     total magnetization       =    -0.02 Bohr mag/cell
     absolute magnetization    =     0.03 Bohr mag/cell

     convergence has been achieved in  68 iterations

     Forces acting on atoms (cartesian axes, Ry/au):

     atom    1 type  1   force =     0.00009844   -0.00018852    0.09687954
     atom    2 type  1   force =     0.00004780   -0.00050497   -0.17506032
     atom    3 type  2   force =     0.00012916    0.00000927   -0.02535037
     atom    4 type  2   force =    -0.00003273   -0.00128548    0.05236282
     atom    5 type  2   force =    -0.01222013   -0.00000901    0.00299261
     atom    6 type  2   force =     0.01364875    0.00058537    0.00232815
     atom    7 type  1   force =     0.00058895    0.00033628   -0.01304606
     atom    8 type  1   force =     0.00047710    0.00729202    0.03067199
     atom    9 type  2   force =     0.00055939    0.00003732   -0.00020490
     atom   10 type  2   force =    -0.00267751    0.00210914   -0.01738363
     atom   11 type  2   force =    -0.00013873    0.00006913   -0.00002237
     atom   12 type  2   force =     0.00046906    0.00033696    0.00018293
     atom   13 type  1   force =    -0.00011563   -0.00056705   -0.00016048
     atom   14 type  1   force =    -0.00043162    0.00005117    0.00080996
     atom   15 type  2   force =    -0.00000458   -0.00077872    0.00079537
     atom   16 type  2   force =     0.00025980    0.00063127   -0.00046894
     atom   17 type  2   force =     0.00065000    0.00008583    0.00064485
     atom   18 type  2   force =    -0.00010344   -0.00008245    0.00004296
     atom   19 type  1   force =     0.00000505    0.00047902   -0.00026571
     atom   20 type  1   force =    -0.00026813   -0.00042830    0.00007910
     atom   21 type  2   force =     0.00005523   -0.00002560    0.10311783
     atom   22 type  2   force =     0.00014065   -0.00083904    0.00107705
     atom   23 type  2   force =    -0.07165821   -0.00015313   -0.02781971
     atom   24 type  2   force =     0.07156167    0.00034413   -0.02787669
     atom   25 type  1   force =     0.00008866   -0.00014419    0.09659187
     atom   26 type  1   force =     0.00009531   -0.00023568   -0.17518974
     atom   27 type  2   force =     0.00011777   -0.00011601   -0.02441448
     atom   28 type  2   force =     0.00004401   -0.00104106    0.05227972
     atom   29 type  2   force =    -0.01241816    0.00063952    0.00278378
     atom   30 type  2   force =     0.01372097    0.00098305    0.00213133
     atom   31 type  1   force =     0.00045439    0.00314237   -0.01359443
     atom   32 type  1   force =     0.00033388   -0.00951767    0.03106688
     atom   33 type  2   force =    -0.00007004    0.00031270   -0.00059936
     atom   34 type  2   force =    -0.00206463    0.00181652   -0.02538602
     atom   35 type  2   force =    -0.00017834   -0.00028827    0.00037728
     atom   36 type  2   force =     0.00026190   -0.00077665    0.00040239
     atom   37 type  1   force =     0.00002686    0.00023389    0.00100692
     atom   38 type  1   force =    -0.00021906    0.00041165    0.00077542
     atom   39 type  2   force =    -0.00005491   -0.00017845   -0.00064068
     atom   40 type  2   force =     0.00042503    0.00007694    0.00058900
     atom   41 type  2   force =     0.00028451   -0.00024308   -0.00002686
     atom   42 type  2   force =    -0.00050454   -0.00040838   -0.00032946
     atom   43 type  1   force =    -0.00076520   -0.00017661    0.00041819
     atom   44 type  1   force =    -0.00037215   -0.00078539    0.00047832
     atom   45 type  2   force =     0.00003901   -0.00004932    0.10313513
     atom   46 type  2   force =    -0.07165243   -0.00006805   -0.02781704
     atom   47 type  2   force =     0.07157364    0.00034756   -0.02788095
     atom   48 type  3   force =    -0.00001043   -0.00044598   -0.00001161
     atom   49 type  4   force =    -0.00005925    0.00010534   -0.00151813
     atom   50 type  5   force =     0.00468900    0.00129839   -0.00752546
     atom   51 type  3   force =    -0.00090807    0.00024914    0.00042074
     atom   52 type  3   force =    -0.00422483   -0.00266723    0.00862689
     atom   53 type  3   force =     0.00030680    0.00002031   -0.00047563

     Total force =     0.368702     Total SCF correction =     0.000516
  @ DRIVER MODE: Message from server: STATUS
  @ DRIVER MODE: Message from server: GETFORCE
  @ DRIVER MODE: Returning v,forces,stress,ensemble

     Writing output data file ./calc.save/
  @ DRIVER MODE: Message from server: EXIT
  @ DRIVE MODE: Exiting

     General routines

     Parallel routines

   This run was terminated on:   7:19:31  16Jul2021

   JOB DONE.