     Program PWSCF v.6.7GPU starts on 10Sep2021 at 12:23:31

     R & G space division:  proc/nbgrp/npool/nimage =      10
     Reading input from /storage/home/hcoda1/3/ntian30/research/carbon/CxH_vib/CH3_calc/ads_slab/CH3N2H2O_g/out_0046/pw.inp
Warning: card &CELL ignored
Warning: card   CELL_DYNAMICS='IPI', ignored
Warning: card / ignored

     Current dimensions of program PWSCF are:
     Max number of different atomic species (ntypx) = 10
     Max number of k-points (npk) =  40000
     Max angular momentum in pseudopotentials (lmaxx) =  3
     Presently no symmetry can be used with electric field

     Message from routine cell_base_init:
     DEPRECATED: use true lattice parameter, not A to a.u. conversion factor

     IMPORTANT: XC functional enforced from input :
     Exchange-correlation= BEEF-VDW
                           (   1   4  43  14   2   0   0)
     Any further DFT definition will be discarded
     Please, verify this is what you really want

  @ DRIVER MODE: Connecting to
 qe_1139763_2779714.sched-torque.pace.gatech.edutog52zx7_scratch
  using UNIX socket
  @ DRIVER MODE: Message from server: STATUS
  @ DRIVER MODE: Message from server: INIT
  @ DRIVER MODE: Receiving replica           0          -1
  @ DRIVER MODE: Receiving encoded integer          25
  @ DRIVER MODE:  SCF:  T  FORCE:  T  STRESS:  F  VC:  F  ENSEMBLE:  F
  @ DRIVER MODE:  SCF:  T  FORCE:  T  STRESS:  F  VC:  F  ENSEMBLE:  F

     Using Slab Decomposition

     bravais-lattice index     =            0
     lattice parameter (alat)  =       1.8897  a.u.
     unit-cell volume          =    6658.9804 (a.u.)^3
     number of atoms/cell      =           56
     number of atomic types    =            5
     number of electrons       =       403.00
     number of Kohn-Sham states=          211
     kinetic-energy cutoff     =      29.3995  Ry
     charge density cutoff     =     293.9946  Ry
     scf convergence threshold =      7.3E-08
     mixing beta               =       0.0500
     number of iterations used =            8  plain     mixing
     Exchange-correlation= BEEF-VDW
                           (   1   4  43  14   2   0   0)

     celldm(1)=   1.889726  celldm(2)=   0.000000  celldm(3)=   0.000000
     celldm(4)=   0.000000  celldm(5)=   0.000000  celldm(6)=   0.000000

     crystal axes: (cart. coord. in units of alat)
               a(1) = (   6.579727   0.000000   0.000000 )
               a(2) = (  -0.000775   5.961596   0.000000 )
               a(3) = (   0.000000   0.000000  25.155947 )

     reciprocal axes: (cart. coord. in units 2 pi/alat)
               b(1) = (  0.151982  0.000020  0.000000 )
               b(2) = (  0.000000  0.167740  0.000000 )
               b(3) = (  0.000000  0.000000  0.039752 )

     PseudoPot. # 1 for Ti read from file:
     /storage/coda1/p-amedford6/0/shared/rich_project_chbe-medford/medford-share/data/pseudos_module/espresso/nninc/pbe/van/Ti.UPF
     MD5 check sum: 8e4df49b7f0d34bbd5052bf3f5ea0213
     Pseudo is Ultrasoft, Zval = 12.0
     Generated by new atomic code, or converted to UPF format
     Using radial grid of  851 points,  6 beta functions with:
                l(1) =   0
                l(2) =   0
                l(3) =   1
                l(4) =   1
                l(5) =   2
                l(6) =   2
     Q(r) pseudized with  8 coefficients,  rinner =    1.000   1.000   1.000
                                                       1.000   1.000

     PseudoPot. # 2 for O  read from file:
     /storage/coda1/p-amedford6/0/shared/rich_project_chbe-medford/medford-share/data/pseudos_module/espresso/nninc/pbe/van/O.UPF
     MD5 check sum: 78c19812648e8988a0fe644b0f25305e
     Pseudo is Ultrasoft, Zval =  6.0
     Generated by new atomic code, or converted to UPF format
     Using radial grid of  737 points,  4 beta functions with:
                l(1) =   0
                l(2) =   0
                l(3) =   1
                l(4) =   1
     Q(r) pseudized with  8 coefficients,  rinner =    0.800   0.800   0.800

     PseudoPot. # 3 for N  read from file:
     /storage/coda1/p-amedford6/0/shared/rich_project_chbe-medford/medford-share/data/pseudos_module/espresso/nninc/pbe/van/N.UPF
     MD5 check sum: 90d10febe142ad51ac9d5be1deb811c4
     Pseudo is Ultrasoft, Zval =  5.0
     Generated by new atomic code, or converted to UPF format
     Using radial grid of  729 points,  4 beta functions with:
                l(1) =   0
                l(2) =   0
                l(3) =   1
                l(4) =   1
     Q(r) pseudized with  8 coefficients,  rinner =    0.800   0.800   0.800

     PseudoPot. # 4 for C  read from file:
     /storage/coda1/p-amedford6/0/shared/rich_project_chbe-medford/medford-share/data/pseudos_module/espresso/nninc/pbe/van/C.UPF
     MD5 check sum: 1a69bf6b8db32088f5b2163dbdb77a27
     Pseudo is Ultrasoft, Zval =  4.0
     Generated by new atomic code, or converted to UPF format
     Using radial grid of  721 points,  4 beta functions with:
                l(1) =   0
                l(2) =   0
                l(3) =   1
                l(4) =   1
     Q(r) pseudized with  8 coefficients,  rinner =    0.800   0.800   0.800

     PseudoPot. # 5 for H  read from file:
     /storage/coda1/p-amedford6/0/shared/rich_project_chbe-medford/medford-share/data/pseudos_module/espresso/nninc/pbe/van/H.UPF
     MD5 check sum: b5ee9d7bfd3a09ee7748110bda690ff7
     Pseudo is Ultrasoft, Zval =  1.0
     Generated by new atomic code, or converted to UPF format
     Using radial grid of  615 points,  1 beta functions with:
                l(1) =   0
     Q(r) pseudized with  8 coefficients,  rinner =    0.800

     atomic species   valence    mass     pseudopotential
        Ti1           12.00    47.86700     Ti( 1.00)
        O1             6.00    15.99900     O ( 1.00)
        N1             5.00    14.00700     N ( 1.00)
        C1             4.00    12.01100     C ( 1.00)
        H1             1.00     1.00800     H ( 1.00)

     No symmetry found

   Cartesian axes

     site n.     atom                  positions (alat units)
         1           Ti1 tau(   1) = (   0.0004258   2.9801865   6.0000000  )
         2           Ti1 tau(   2) = (   3.2906075   1.4906267   6.0002472  )
         3           O1  tau(   3) = (   0.0006271   0.0005054   7.9858123  )
         4           O1  tau(   4) = (   3.2906025   0.0005020   7.3038282  )
         5           O1  tau(   5) = (   4.5942328   1.4918067   9.2879030  )
         6           O1  tau(   6) = (   1.9868534   1.4903216   9.2879459  )
         7           Ti1 tau(   7) = (   3.2907910   2.8959150   9.1758416  )
         8           Ti1 tau(   8) = (   0.0015273   1.4827037   9.2680791  )
         9           O1  tau(   9) = (   3.3002115   5.9463602  11.3460011  )
        10           O1  tau(  10) = (   0.0116148   5.9584955  10.6183126  )
        11           O1  tau(  11) = (   1.3192008   1.4768417  12.6238339  )
        12           O1  tau(  12) = (   5.3062067   1.4698383  12.6193417  )
        13           Ti1 tau(  13) = (   6.5330844   2.9444840  12.6148558  )
        14           Ti1 tau(  14) = (   3.2222230   1.4676475  12.5013840  )
        15           O1  tau(  15) = (   0.0064324   5.9471174  14.6352917  )
        16           O1  tau(  16) = (   3.3028336   5.9445487  13.9678148  )
        17           O1  tau(  17) = (   4.5628415   1.5226527  16.0793330  )
        18           O1  tau(  18) = (   2.0474444   1.5206590  16.0184434  )
        19           Ti1 tau(  19) = (   3.3141275   2.9607752  15.6908890  )
        20           Ti1 tau(  20) = (   6.5660065   1.5097775  15.7997320  )
        21           O1  tau(  21) = (   3.2904802   0.0005063   4.7018136  )
        22           O1  tau(  22) = (   0.0269361   0.0086655  17.1987262  )
        23           O1  tau(  23) = (   1.3043587   1.4918075   6.0039043  )
        24           O1  tau(  24) = (   5.2767064   1.4903225   6.0039473  )
        25           Ti1 tau(  25) = (   0.0000382   5.9609847   6.0000000  )
        26           Ti1 tau(  26) = (   3.2902200   4.4714249   6.0002472  )
        27           O1  tau(  27) = (   0.0002396   2.9813036   7.9858123  )
        28           O1  tau(  28) = (   3.2902150   2.9813002   7.3038282  )
        29           O1  tau(  29) = (   4.5938453   4.4726049   9.2879030  )
        30           O1  tau(  30) = (   1.9864658   4.4711199   9.2879459  )
        31           Ti1 tau(  31) = (   3.2891106   5.8743827   9.1763621  )
        32           Ti1 tau(  32) = (   0.0006254   4.4649316   9.2693709  )
        33           O1  tau(  33) = (   3.2944391   2.9688829  11.3444728  )
        34           O1  tau(  34) = (   0.0092240   2.9805883  10.6323155  )
        35           O1  tau(  35) = (   1.3142520   4.4635248  12.6275686  )
        36           O1  tau(  36) = (   5.3078217   4.4601700  12.6226734  )
        37           Ti1 tau(  37) = (   6.5374036   5.9186568  12.5467527  )
        38           Ti1 tau(  38) = (   3.2213306   4.4595164  12.5065882  )
        39           O1  tau(  39) = (   6.5756885   2.9534048  14.6511233  )
        40           O1  tau(  40) = (   3.3206316   2.9687378  13.8980937  )
        41           O1  tau(  41) = (   4.5543359   4.4428353  16.0905846  )
        42           O1  tau(  42) = (   2.0427057   4.4323087  16.0570365  )
        43           Ti1 tau(  43) = (   3.2570595   5.9269474  15.8069103  )
        44           Ti1 tau(  44) = (   6.5609319   4.6488967  16.0725391  )
        45           O1  tau(  45) = (   3.2900926   2.9813045   4.7018136  )
        46           O1  tau(  46) = (   1.3039711   4.4726057   6.0039043  )
        47           O1  tau(  47) = (   5.2763189   4.4711207   6.0039473  )
        48           N1  tau(  48) = (   0.2492319   2.6641403  18.6309932  )
        49           N1  tau(  49) = (   0.0782707   2.8835230  17.4382120  )
        50           C1  tau(  50) = (   0.2622466   3.8234900  19.5663878  )
        51           H1  tau(  51) = (   6.1755609   4.6233469  19.2444151  )
        52           H1  tau(  52) = (   6.5754044   3.4477461  20.5519103  )
        53           H1  tau(  53) = (   1.2857956   4.2073973  19.6006198  )
        54           O1  tau(  54) = (   3.1761146   0.0362278  18.2233714  )
        55           H1  tau(  55) = (   3.9097821   0.6176051  18.5038283  )
        56           H1  tau(  56) = (   2.3516031   0.5117379  18.4309238  )

     number of k points=    10  Fermi-Dirac smearing, width (Ry)=  0.0073
                       cart. coord. in units 2pi/alat
        k(    1) = (   0.0000000   0.0000000   0.0000000), wk =   0.1250000
        k(    2) = (   0.0000000   0.0419351   0.0000000), wk =   0.2500000
        k(    3) = (   0.0000000  -0.0838702   0.0000000), wk =   0.1250000
        k(    4) = (   0.0379955   0.0000049   0.0000000), wk =   0.2500000
        k(    5) = (   0.0379955   0.0419400   0.0000000), wk =   0.2500000
        k(    6) = (   0.0379955  -0.0838652   0.0000000), wk =   0.2500000
        k(    7) = (   0.0379955  -0.0419301   0.0000000), wk =   0.2500000
        k(    8) = (  -0.0759910  -0.0000099   0.0000000), wk =   0.1250000
        k(    9) = (  -0.0759910   0.0419252   0.0000000), wk =   0.2500000
        k(   10) = (  -0.0759910  -0.0838800   0.0000000), wk =   0.1250000

     Initial potential from superposition of free atoms

     starting charge  386.99914, renormalised to  403.00000

     negative rho (up, down):  1.449E-02 0.000E+00

     %%%%%%%%%%%%%%%%%%%%%%%%%%%%%%%%%%%%%%%%%%%%%%%%%%%%%%%%%%%%%%%%%%%%%%%%
     %                                                                      %
     % You are using vdW-DF, which was implemented by the Thonhauser group. %
     % Please cite the following two papers that made this development      %
     % possible and the two reviews that describe the various versions:     %
     %                                                                      %
     %   T. Thonhauser et al., PRL 115, 136402 (2015).                      %
     %   T. Thonhauser et al., PRB 76, 125112 (2007).                       %
     %   K. Berland et al., Rep. Prog. Phys. 78, 066501 (2015).             %
     %   D.C. Langreth et al., J. Phys.: Condens. Matter 21, 084203 (2009). %
     %                                                                      %
     %                                                                      %
     % If you are calculating the stress with vdW-DF, please also cite:     %
     %                                                                      %
     %   R. Sabatini et al., J. Phys.: Condens. Matter 24, 424209 (2012).   %
     %                                                                      %
     %%%%%%%%%%%%%%%%%%%%%%%%%%%%%%%%%%%%%%%%%%%%%%%%%%%%%%%%%%%%%%%%%%%%%%%%

     Adding external electric field

     Computed dipole along edir(3) :
        Dipole              -13.2089 Ry au,        -33.5737 Debye
        Dipole field         -0.0249 Ry au,

        Potential amp.        2.3107 Ry
        Total length         46.3494 bohr

     Starting wfcs are  305 atomic wfcs
  @ DRIVER MODE: Message from server: STATUS
  @ DRIVER MODE: Message from server: POSDATA
  @ DRIVER MODE: Reading and sharing cell
  @ DRIVER MODE: Reading and sharing positions
  @ DRIVER MODE: Received positions

     Self-consistent Calculation

     iteration #  1     ecut=    29.40 Ry     beta= 0.05
     Davidson diagonalization with overlap
     c_bands:  4 eigenvalues not converged
     c_bands:  2 eigenvalues not converged
     c_bands:  2 eigenvalues not converged
     c_bands:  5 eigenvalues not converged
     c_bands:  1 eigenvalues not converged
     c_bands:  1 eigenvalues not converged
     c_bands:  4 eigenvalues not converged
     c_bands:  1 eigenvalues not converged
     c_bands:  1 eigenvalues not converged
     ethr =  1.00E-05,  avg # of iterations = 28.0

[...]

     total energy              =   -2367.56873263 Ry
     estimated scf accuracy    <    6916.24204176 Ry

     iteration #  2     ecut=    29.40 Ry     beta= 0.05
     Davidson diagonalization with overlap
     ethr =  1.00E-02,  avg # of iterations = 23.7

[...]

     iteration # 58     ecut=    29.40 Ry     beta= 0.05
     Davidson diagonalization with overlap
     ethr =  1.96E-11,  avg # of iterations = 15.9

[...]

     total energy              =   -2974.00262702 Ry
     estimated scf accuracy    <       0.00000018 Ry

     iteration # 59     ecut=    29.40 Ry     beta= 0.05
     Davidson diagonalization with overlap
     c_bands:  1 eigenvalues not converged
     ethr =  1.96E-11,  avg # of iterations = 18.0

     negative rho (up, down):  1.476E-02 0.000E+00

     Adding external electric field

     Computed dipole along edir(3) :
        Dipole                0.8904 Ry au,          2.2631 Debye
        Dipole field          0.0017 Ry au,

        Potential amp.       -0.1558 Ry
        Total length         46.3494 bohr

     End of self-consistent calculation

          k = 0.0000 0.0000 0.0000 ( 18029 PWs)   bands (ev):

   -55.6196 -55.5856 -55.5785 -55.5609 -55.5418 -55.4482 -55.4299 -55.4090
   -55.3960 -55.3951 -55.3664 -55.3614 -55.0039 -54.8636 -54.5985 -54.5645
   -32.1206 -32.1019 -31.9626 -31.9456 -31.9286 -31.9126 -31.8847 -31.8789
   -31.8627 -31.8092 -31.8031 -31.7845 -31.7719 -31.7567 -31.7403 -31.7318
   -31.7238 -31.7114 -31.7060 -31.6768 -31.6683 -31.6511 -31.6223 -31.6182
   -31.6023 -31.5996 -31.5993 -31.5940 -31.5700 -31.5651 -31.5622 -31.5572
   -31.5478 -31.5429 -31.5365 -31.5097 -31.5068 -31.2739 -31.1996 -31.1239
   -31.1068 -31.0726 -31.0057 -30.9171 -30.8947 -30.8224 -30.7359 -30.6249
   -18.8369 -18.3063 -16.3119 -16.0833 -15.8536 -15.7659 -15.7174 -15.5179
   -15.4159 -15.3435 -15.2210 -15.1578 -15.1461 -15.1318 -15.1131 -15.1110
   -15.0587 -15.0518 -15.0476 -15.0397 -15.0066 -14.9662 -14.9512 -14.9406
   -14.8467 -14.7735 -14.7560 -14.7324 -14.6867 -14.6705 -14.1967 -13.1010
   -12.9846 -11.2546  -6.8719  -6.5900  -4.2002  -3.8411  -3.7975  -3.6846
    -3.5570  -3.5236  -3.4424  -3.3682  -3.2325  -3.2037  -3.0391  -2.8473
    -2.7867  -2.7606  -2.7078  -2.6415  -2.5273  -2.4682  -2.4234  -2.4166
    -2.3991  -2.3915  -2.3679  -2.3553  -2.2535  -2.2324  -2.1537  -2.1495
    -2.0982  -1.9812  -1.9667  -1.9316  -1.9189  -1.8955  -1.8738  -1.8534
    -1.8429  -1.8189  -1.7682  -1.6992  -1.6319  -1.5955  -1.5082  -1.4399
    -1.3980  -1.3516  -1.2298  -1.1363  -1.1016  -1.0610  -1.0534  -1.0402
    -1.0115  -0.9940  -0.8812  -0.7671  -0.7501  -0.6848  -0.6249  -0.5437
    -0.5164  -0.4373  -0.3832  -0.3650  -0.3614  -0.3157  -0.2860  -0.2259
    -0.0931  -0.0416  -0.0077   0.0015   0.0604   0.1039   0.1326   0.2201
     0.2264   0.2715   0.3096   0.3422   0.3554   0.3705   0.3889   0.4184
     0.4331   0.6247   0.6609   0.7001   0.7377   0.7805   0.9188   0.9434
     1.0413   1.1506   1.3498   1.4235   1.5285   1.6156   1.9951   2.0409
     2.7446   3.5154   3.6026   3.6475   3.6762   3.7601   3.7744   3.9703
     3.9861   4.0248   4.1573

[...]

          k = 0.0380-0.0419 0.0000 ( 17876 PWs)   bands (ev):

[...]

          k =-0.0760-0.0000 0.0000 ( 17886 PWs)   bands (ev):

[...]

          k =-0.0760-0.0839 0.0000 ( 17948 PWs)   bands (ev):

   -55.6031 -55.6020 -55.5642 -55.5594 -55.5558 -55.4380 -55.4194 -55.4135
   -55.4117 -55.3800 -55.3768 -55.3679 -55.0019 -54.8654 -54.5816 -54.5813
   -31.9342 -31.9181 -31.9176 -31.9168 -31.8985 -31.8974 -31.8480 -31.8419
   -31.8212 -31.7959 -31.7837 -31.7745 -31.7702 -31.7323 -31.7276 -31.7260
   -31.7226 -31.7215 -31.7196 -31.7169 -31.7144 -31.7087 -31.6721 -31.6551
   -31.6363 -31.6321 -31.6248 -31.6129 -31.6125 -31.6095 -31.6040 -31.5947
   -31.5913 -31.5801 -31.5794 -31.5708 -31.4208 -31.2758 -31.2155 -31.1629
   -31.1251 -31.0991 -30.9075 -30.9072 -30.8186 -30.8183 -30.7792 -30.7791
   -18.8358 -18.3027 -15.7705 -15.6599 -15.5693 -15.5351 -15.4776 -15.4085
   -15.4007 -15.3140 -15.2978 -15.2948 -15.2292 -15.2084 -15.1712 -15.1642
   -15.1414 -15.1258 -15.1193 -15.0697 -15.0578 -15.0549 -15.0480 -15.0432
   -14.9671 -14.9366 -14.9327 -14.9237 -14.7960 -14.6716 -14.3681 -13.0864
   -13.0863 -11.2523  -6.8973  -6.5689  -4.1261  -3.8732  -3.7599  -3.2218
    -3.0529  -2.8408  -2.8203  -2.7247  -2.7125  -2.6781  -2.5471  -2.5064
    -2.4655  -2.4491  -2.4301  -2.4287  -2.4116  -2.4059  -2.3849  -2.3590
    -2.3351  -2.3146  -2.2856  -2.2823  -2.2694  -2.2562  -2.2331  -2.2208
    -2.2044  -2.1736  -2.1480  -2.1319  -2.0649  -1.9931  -1.8327  -1.7944
    -1.7552  -1.7490  -1.7323  -1.7015  -1.6854  -1.6676  -1.6208  -1.5851
    -1.5000  -1.3578  -1.3385  -1.3148  -1.2928  -1.2831  -1.2109  -1.1024
    -1.0831  -1.0124  -1.0040  -0.8975  -0.8888  -0.8043  -0.7962  -0.7857
    -0.7111  -0.6837  -0.6688  -0.5801  -0.5779  -0.5539  -0.5043  -0.4772
    -0.4128  -0.3706  -0.3397  -0.3366  -0.2906  -0.2684  -0.2243  -0.1579
    -0.1046  -0.0683   0.0280   0.1323   0.2333   0.3483   0.4632   0.4773
     0.5592   0.5928   0.6775   0.6934   0.7018   0.7738   0.7788   0.8781
     0.9223   0.9369   0.9774   1.1000   1.7868   1.7882   1.8604   1.8607
     2.7691   3.7329   3.8526   3.8948   3.9125   3.9869   4.0296   4.0492
     4.0516   4.0854   4.1940

     the Fermi energy is     3.5142 ev

!    total energy              =   -2974.00269145 Ry
     estimated scf accuracy    <       0.00000007 Ry
     smearing contrib. (-TS)   =      -0.02182177 Ry
     internal energy E=F+TS    =   -2973.98086968 Ry

     The total energy is F=E-TS. E is the sum of the following terms:
     one-electron contribution =  -23847.91645782 Ry
     hartree contribution      =   12018.37318992 Ry
     xc contribution           =    -494.02371900 Ry
     ewald contribution        =    9349.58462111 Ry
     electric field correction =       0.00149610 Ry

     convergence has been achieved in  59 iterations

     Forces acting on atoms (cartesian axes, Ry/au):

     atom    1 type  1   force =     0.00004281   -0.00023290    0.09649299
     atom    2 type  1   force =     0.00005887   -0.00044447   -0.17543236
     atom    3 type  2   force =     0.00011728   -0.00009449   -0.02474032
     atom    4 type  2   force =     0.00004386   -0.00157966    0.05349945
     atom    5 type  2   force =    -0.01199052   -0.00100966    0.00308271
     atom    6 type  2   force =     0.01373847   -0.00064925    0.00292185
     atom    7 type  1   force =     0.00074372    0.00069379   -0.00681849
     atom    8 type  1   force =     0.00021799    0.00949206    0.02714695
     atom    9 type  2   force =    -0.00014754   -0.00006161   -0.00005504
     atom   10 type  2   force =    -0.00204692    0.00048462   -0.01820797
     atom   11 type  2   force =    -0.00057687    0.00032292    0.00011087
     atom   12 type  2   force =     0.00069116    0.00012387    0.00030216
     atom   13 type  1   force =    -0.00015355   -0.00009138   -0.00014869
     atom   14 type  1   force =    -0.00042016   -0.00016139    0.00025066
     atom   15 type  2   force =     0.00003174   -0.00058546    0.00067907
     atom   16 type  2   force =    -0.00026019   -0.00006728   -0.00038550
     atom   17 type  2   force =    -0.00024744    0.00020773   -0.00025359
     atom   18 type  2   force =     0.00002342    0.00022453   -0.00029568
     atom   19 type  1   force =    -0.00031740    0.00021841   -0.00009120
     atom   20 type  1   force =    -0.00043427   -0.00004959    0.00036608
     atom   21 type  2   force =     0.00008730    0.00001467    0.10324557
     atom   22 type  2   force =     0.00015406    0.00039209   -0.00005257
     atom   23 type  2   force =    -0.07143558   -0.00009084   -0.02774396
     atom   24 type  2   force =     0.07139498    0.00036345   -0.02781315
     atom   25 type  1   force =     0.00017715   -0.00034458    0.09616923
     atom   26 type  1   force =     0.00000472   -0.00037337   -0.17576831
     atom   27 type  2   force =     0.00021223   -0.00020822   -0.02373676
     atom   28 type  2   force =     0.00002470   -0.00128163    0.05295966
     atom   29 type  2   force =    -0.01222902    0.00024003    0.00291211
     atom   30 type  2   force =     0.01389606    0.00082219    0.00272812
     atom   31 type  1   force =     0.00041262    0.00344356   -0.00985036
     atom   32 type  1   force =     0.00036228   -0.01131484    0.02755280
     atom   33 type  2   force =     0.00010124    0.00014418   -0.00000179
     atom   34 type  2   force =    -0.00188206   -0.00045064   -0.02416129
     atom   35 type  2   force =     0.00040846    0.00003704   -0.00027998
     atom   36 type  2   force =    -0.00028898   -0.00006011    0.00006643
     atom   37 type  1   force =    -0.00030804   -0.00013194    0.00007822
     atom   38 type  1   force =    -0.00080502    0.00014190   -0.00049246
     atom   39 type  2   force =     0.00009565   -0.00031709   -0.00023677
     atom   40 type  2   force =     0.00019977    0.00033951    0.00045922
     atom   41 type  2   force =     0.00020056    0.00007960   -0.00033340
     atom   42 type  2   force =    -0.00039356   -0.00007561   -0.00028982
     atom   43 type  1   force =     0.00034156    0.00076624    0.00037384
     atom   44 type  1   force =    -0.00013163    0.00115449   -0.00062139
     atom   45 type  2   force =     0.00008627   -0.00002637    0.10323770
     atom   46 type  2   force =    -0.07144007   -0.00002342   -0.02775499
     atom   47 type  2   force =     0.07140092    0.00039939   -0.02781108
     atom   48 type  3   force =    -0.00041984    0.00007287   -0.00150131
     atom   49 type  3   force =    -0.00008834   -0.00041476    0.00130401
     atom   50 type  4   force =     0.00012673    0.00056413    0.00035806
     atom   51 type  5   force =     0.00110817   -0.00072608   -0.00030239
     atom   52 type  5   force =    -0.00010380    0.00012653   -0.00016561
     atom   53 type  5   force =    -0.00002998   -0.00067174    0.00014829
     atom   54 type  2   force =     0.00851389    0.00790421    0.00285550
     atom   55 type  5   force =    -0.00765209   -0.00716095   -0.00343053
     atom   56 type  5   force =    -0.00121577   -0.00007467   -0.00052481

     Total force =     0.368337     Total SCF correction =     0.000968
  @ DRIVER MODE: Message from server: STATUS
  @ DRIVER MODE: Message from server: GETFORCE
  @ DRIVER MODE: Returning v,forces,stress,ensemble

     Writing output data file ./calc.save/
  @ DRIVER MODE: Message from server: EXIT
  @ DRIVE MODE: Exiting

     General routines

     Parallel routines

   This run was terminated on:  12:41:17  10Sep2021

   JOB DONE.