     Program PWSCF v.6.7GPU starts on 16Sep2021 at  3:11:50

     R & G space division:  proc/nbgrp/npool/nimage =      10
     Reading input from /storage/home/hcoda1/3/ntian30/research/carbon/CxH_vib/H2O_calc/ads_slab/CH3NNHHHH2O_a/out_0033/pw.inp
Warning: card &CELL ignored
Warning: card   CELL_DYNAMICS='IPI', ignored
Warning: card / ignored

     Current dimensions of program PWSCF are:
     Max number of different atomic species (ntypx) = 10
     Max number of k-points (npk) =  40000
     Max angular momentum in pseudopotentials (lmaxx) =  3
     Presently no symmetry can be used with electric field

     Message from routine cell_base_init:
     DEPRECATED: use true lattice parameter, not A to a.u. conversion factor

     IMPORTANT: XC functional enforced from input :
     Exchange-correlation= BEEF-VDW
                           (   1   4  43  14   2   0   0)
     Any further DFT definition will be discarded
     Please, verify this is what you really want

  @ DRIVER MODE: Connecting to
 qe_1139763_2852622.sched-torque.pace.gatech.eduhw0yhyvm_scratch
  using UNIX socket
  @ DRIVER MODE: Message from server: STATUS
  @ DRIVER MODE: Message from server: INIT
  @ DRIVER MODE: Receiving replica           0          -1
  @ DRIVER MODE: Receiving encoded integer          25
  @ DRIVER MODE:  SCF:  T  FORCE:  T  STRESS:  F  VC:  F  ENSEMBLE:  F
  @ DRIVER MODE:  SCF:  T  FORCE:  T  STRESS:  F  VC:  F  ENSEMBLE:  F

     Using Slab Decomposition

     bravais-lattice index     =            0
     lattice parameter (alat)  =       1.8897  a.u.
     unit-cell volume          =    6658.9804 (a.u.)^3
     number of atoms/cell      =           59
     number of atomic types    =            5
     number of electrons       =       406.00
     number of Kohn-Sham states=          213
     kinetic-energy cutoff     =      29.3995  Ry
     charge density cutoff     =     293.9946  Ry
     scf convergence threshold =      7.3E-08
     mixing beta               =       0.0500
     number of iterations used =            8  plain     mixing
     Exchange-correlation= BEEF-VDW
                           (   1   4  43  14   2   0   0)

     celldm(1)=   1.889726  celldm(2)=   0.000000  celldm(3)=   0.000000
     celldm(4)=   0.000000  celldm(5)=   0.000000  celldm(6)=   0.000000

     crystal axes: (cart. coord. in units of alat)
               a(1) = (   6.579727   0.000000   0.000000 )
               a(2) = (  -0.000775   5.961596   0.000000 )
               a(3) = (   0.000000   0.000000  25.155947 )

     reciprocal axes: (cart. coord. in units 2 pi/alat)
               b(1) = (  0.151982  0.000020  0.000000 )
               b(2) = (  0.000000  0.167740  0.000000 )
               b(3) = (  0.000000  0.000000  0.039752 )

     PseudoPot. # 1 for Ti read from file:
     /storage/coda1/p-amedford6/0/shared/rich_project_chbe-medford/medford-share/data/pseudos_module/espresso/nninc/pbe/van/Ti.UPF
     MD5 check sum: 8e4df49b7f0d34bbd5052bf3f5ea0213
     Pseudo is Ultrasoft, Zval = 12.0
     Generated by new atomic code, or converted to UPF format
     Using radial grid of  851 points,  6 beta functions with:
                l(1) =   0
                l(2) =   0
                l(3) =   1
                l(4) =   1
                l(5) =   2
                l(6) =   2
     Q(r) pseudized with  8 coefficients,  rinner =    1.000   1.000   1.000
                                                       1.000   1.000

     PseudoPot. # 2 for O  read from file:
     /storage/coda1/p-amedford6/0/shared/rich_project_chbe-medford/medford-share/data/pseudos_module/espresso/nninc/pbe/van/O.UPF
     MD5 check sum: 78c19812648e8988a0fe644b0f25305e
     Pseudo is Ultrasoft, Zval =  6.0
     Generated by new atomic code, or converted to UPF format
     Using radial grid of  737 points,  4 beta functions with:
                l(1) =   0
                l(2) =   0
                l(3) =   1
                l(4) =   1
     Q(r) pseudized with  8 coefficients,  rinner =    0.800   0.800   0.800

     PseudoPot. # 3 for N  read from file:
     /storage/coda1/p-amedford6/0/shared/rich_project_chbe-medford/medford-share/data/pseudos_module/espresso/nninc/pbe/van/N.UPF
     MD5 check sum: 90d10febe142ad51ac9d5be1deb811c4
     Pseudo is Ultrasoft, Zval =  5.0
     Generated by new atomic code, or converted to UPF format
     Using radial grid of  729 points,  4 beta functions with:
                l(1) =   0
                l(2) =   0
                l(3) =   1
                l(4) =   1
     Q(r) pseudized with  8 coefficients,  rinner =    0.800   0.800   0.800

     PseudoPot. # 4 for C  read from file:
     /storage/coda1/p-amedford6/0/shared/rich_project_chbe-medford/medford-share/data/pseudos_module/espresso/nninc/pbe/van/C.UPF
     MD5 check sum: 1a69bf6b8db32088f5b2163dbdb77a27
     Pseudo is Ultrasoft, Zval =  4.0
     Generated by new atomic code, or converted to UPF format
     Using radial grid of  721 points,  4 beta functions with:
                l(1) =   0
                l(2) =   0
                l(3) =   1
                l(4) =   1
     Q(r) pseudized with  8 coefficients,  rinner =    0.800   0.800   0.800

     PseudoPot. # 5 for H  read from file:
     /storage/coda1/p-amedford6/0/shared/rich_project_chbe-medford/medford-share/data/pseudos_module/espresso/nninc/pbe/van/H.UPF
     MD5 check sum: b5ee9d7bfd3a09ee7748110bda690ff7
     Pseudo is Ultrasoft, Zval =  1.0
     Generated by new atomic code, or converted to UPF format
     Using radial grid of  615 points,  1 beta functions with:
                l(1) =   0
     Q(r) pseudized with  8 coefficients,  rinner =    0.800

     atomic species   valence    mass     pseudopotential
        Ti1           12.00    47.86700     Ti( 1.00)
        O1             6.00    15.99900     O ( 1.00)
        N1             5.00    14.00700     N ( 1.00)
        C1             4.00    12.01100     C ( 1.00)
        H1             1.00     1.00800     H ( 1.00)

     No symmetry found

   Cartesian axes

     site n.     atom                  positions (alat units)
         1           Ti1 tau(   1) = (   0.0004258   2.9801865   6.0000000  )
         2           Ti1 tau(   2) = (   3.2906075   1.4906267   6.0002472  )
         3           O1  tau(   3) = (   0.0006271   0.0005054   7.9858123  )
         4           O1  tau(   4) = (   3.2906025   0.0005020   7.3038282  )
         5           O1  tau(   5) = (   4.5942328   1.4918067   9.2879030  )
         6           O1  tau(   6) = (   1.9868534   1.4903216   9.2879459  )
         7           Ti1 tau(   7) = (   3.2907910   2.8959150   9.1758416  )
         8           Ti1 tau(   8) = (   0.0015273   1.4827037   9.2680791  )
         9           O1  tau(   9) = (   3.2800960   5.9426830  11.3808346  )
        10           O1  tau(  10) = (   0.0116148   5.9584955  10.6183126  )
        11           O1  tau(  11) = (   1.2797812   1.4911726  12.6624455  )
        12           O1  tau(  12) = (   5.2824698   1.4871998  12.6412817  )
        13           Ti1 tau(  13) = (   0.0041451   2.9720195  12.5119452  )
        14           Ti1 tau(  14) = (   3.3095611   1.4699318  12.5307708  )
        15           O1  tau(  15) = (   6.5436702   0.0697967  14.6864816  )
        16           O1  tau(  16) = (   3.2812162   5.9597207  14.0300411  )
        17           O1  tau(  17) = (   4.5129646   1.5046642  16.2361130  )
        18           O1  tau(  18) = (   1.9708392   1.5012857  16.1671103  )
        19           Ti1 tau(  19) = (   3.2655272   2.9480959  15.7331506  )
        20           Ti1 tau(  20) = (   6.5674642   1.4497656  15.9937491  )
        21           O1  tau(  21) = (   3.2904802   0.0005063   4.7018136  )
        22           O1  tau(  22) = (   6.5217933   5.8323795  17.2454964  )
        23           O1  tau(  23) = (   1.3043587   1.4918075   6.0039043  )
        24           O1  tau(  24) = (   5.2767064   1.4903225   6.0039473  )
        25           Ti1 tau(  25) = (   0.0000382   5.9609847   6.0000000  )
        26           Ti1 tau(  26) = (   3.2902200   4.4714249   6.0002472  )
        27           O1  tau(  27) = (   0.0002396   2.9813036   7.9858123  )
        28           O1  tau(  28) = (   3.2902150   2.9813002   7.3038282  )
        29           O1  tau(  29) = (   4.5938453   4.4726049   9.2879030  )
        30           O1  tau(  30) = (   1.9864658   4.4711199   9.2879459  )
        31           Ti1 tau(  31) = (   3.2891106   5.8743827   9.1763621  )
        32           Ti1 tau(  32) = (   0.0006254   4.4649316   9.2693709  )
        33           O1  tau(  33) = (   3.2830490   2.9749636  11.3746576  )
        34           O1  tau(  34) = (   0.0092240   2.9805883  10.6323155  )
        35           O1  tau(  35) = (   1.2760807   4.4612897  12.6946019  )
        36           O1  tau(  36) = (   5.2846406   4.4647657  12.6742532  )
        37           Ti1 tau(  37) = (   0.0173662   5.9591775  12.4970172  )
        38           Ti1 tau(  38) = (   3.3070294   4.4569304  12.5379467  )
        39           O1  tau(  39) = (   6.5190077   2.9374781  14.9220565  )
        40           O1  tau(  40) = (   3.2909943   2.9519766  13.9498127  )
        41           O1  tau(  41) = (   4.5146313   4.4149292  16.1460290  )
        42           O1  tau(  42) = (   1.9668235   4.4047650  16.1116202  )
        43           Ti1 tau(  43) = (   3.2426406   5.9218513  15.8539982  )
        44           Ti1 tau(  44) = (   6.5337747   4.6515477  15.8702276  )
        45           O1  tau(  45) = (   3.2900926   2.9813045   4.7018136  )
        46           O1  tau(  46) = (   1.3039711   4.4726057   6.0039043  )
        47           O1  tau(  47) = (   5.2763189   4.4711207   6.0039473  )
        48           N1  tau(  48) = (   1.0802268   3.0592680  18.8437747  )
        49           N1  tau(  49) = (   6.4825355   2.6367244  18.1156036  )
        50           C1  tau(  50) = (   0.7269815   3.7261681  20.0984356  )
        51           H1  tau(  51) = (   0.0344531   4.5672025  19.9493712  )
        52           H1  tau(  52) = (   0.2718923   3.0081313  20.7822053  )
        53           H1  tau(  53) = (   1.6424345   4.0987450  20.5485440  )
        54           H1  tau(  54) = (   5.7152520   3.3097272  18.2274121  )
        55           H1  tau(  55) = (   6.1788988   1.7551022  18.5268573  )
        56           H1  tau(  56) = (   1.5478348   3.7306874  18.2371031  )
        57           O1  tau(  57) = (   3.1661568   0.0027346  18.3937517  )
        58           H1  tau(  58) = (   4.0701885   0.3469208  18.4697374  )
        59           H1  tau(  59) = (   2.5798038   0.7742236  18.5044111  )

     number of k points=    10  Fermi-Dirac smearing, width (Ry)=  0.0073
                       cart. coord. in units 2pi/alat
        k(    1) = (   0.0000000   0.0000000   0.0000000), wk =   0.1250000
        k(    2) = (   0.0000000   0.0419351   0.0000000), wk =   0.2500000
        k(    3) = (   0.0000000  -0.0838702   0.0000000), wk =   0.1250000
        k(    4) = (   0.0379955   0.0000049   0.0000000), wk =   0.2500000
        k(    5) = (   0.0379955   0.0419400   0.0000000), wk =   0.2500000
        k(    6) = (   0.0379955  -0.0838652   0.0000000), wk =   0.2500000
        k(    7) = (   0.0379955  -0.0419301   0.0000000), wk =   0.2500000
        k(    8) = (  -0.0759910  -0.0000099   0.0000000), wk =   0.1250000
        k(    9) = (  -0.0759910   0.0419252   0.0000000), wk =   0.2500000
        k(   10) = (  -0.0759910  -0.0838800   0.0000000), wk =   0.1250000

     Initial potential from superposition of free atoms

     starting charge  389.99912, renormalised to  406.00000

     negative rho (up, down):  1.306E-02 0.000E+00

     %%%%%%%%%%%%%%%%%%%%%%%%%%%%%%%%%%%%%%%%%%%%%%%%%%%%%%%%%%%%%%%%%%%%%%%%
     %                                                                      %
     % You are using vdW-DF, which was implemented by the Thonhauser group. %
     % Please cite the following two papers that made this development      %
     % possible and the two reviews that describe the various versions:     %
     %                                                                      %
     %   T. Thonhauser et al., PRL 115, 136402 (2015).                      %
     %   T. Thonhauser et al., PRB 76, 125112 (2007).                       %
     %   K. Berland et al., Rep. Prog. Phys. 78, 066501 (2015).             %
     %   D.C. Langreth et al., J. Phys.: Condens. Matter 21, 084203 (2009). %
     %                                                                      %
     %                                                                      %
     % If you are calculating the stress with vdW-DF, please also cite:     %
     %                                                                      %
     %   R. Sabatini et al., J. Phys.: Condens. Matter 24, 424209 (2012).   %
     %                                                                      %
     %%%%%%%%%%%%%%%%%%%%%%%%%%%%%%%%%%%%%%%%%%%%%%%%%%%%%%%%%%%%%%%%%%%%%%%%

     Adding external electric field

     Computed dipole along edir(3) :
        Dipole              -16.1158 Ry au,        -40.9623 Debye
        Dipole field         -0.0304 Ry au,

        Potential amp.        2.8192 Ry
        Total length         46.3494 bohr

     Starting wfcs are  308 atomic wfcs
  @ DRIVER MODE: Message from server: STATUS
  @ DRIVER MODE: Message from server: POSDATA
  @ DRIVER MODE: Reading and sharing cell
  @ DRIVER MODE: Reading and sharing positions
  @ DRIVER MODE: Received positions

     Self-consistent Calculation

     iteration #  1     ecut=    29.40 Ry     beta= 0.05
     Davidson diagonalization with overlap
     c_bands:  2 eigenvalues not converged
     c_bands:  3 eigenvalues not converged
     c_bands:  2 eigenvalues not converged
     c_bands:  3 eigenvalues not converged
     c_bands:  4 eigenvalues not converged
     c_bands:  2 eigenvalues not converged
     c_bands:  1 eigenvalues not converged
     c_bands:  5 eigenvalues not converged
     c_bands:  1 eigenvalues not converged
     ethr =  1.00E-05,  avg # of iterations = 23.1

[...]

     total energy              =   -2140.63713265 Ry
     estimated scf accuracy    <    9598.82687884 Ry

     iteration #  2     ecut=    29.40 Ry     beta= 0.05
     Davidson diagonalization with overlap
     ethr =  1.00E-02,  avg # of iterations = 33.4

[...]

     iteration # 66     ecut=    29.40 Ry     beta= 0.05
     Davidson diagonalization with overlap
     c_bands:  1 eigenvalues not converged
     c_bands:  2 eigenvalues not converged
     ethr =  3.41E-11,  avg # of iterations = 16.0

[...]

     total energy              =   -2977.70005814 Ry
     estimated scf accuracy    <       0.00000021 Ry

     iteration # 67     ecut=    29.40 Ry     beta= 0.05
     Davidson diagonalization with overlap
     ethr =  3.41E-11,  avg # of iterations = 12.1

     negative rho (up, down):  1.408E-02 0.000E+00

     Adding external electric field

     Computed dipole along edir(3) :
        Dipole                1.3382 Ry au,          3.4014 Debye
        Dipole field          0.0025 Ry au,

        Potential amp.       -0.2341 Ry
        Total length         46.3494 bohr

     End of self-consistent calculation

          k = 0.0000 0.0000 0.0000 ( 18029 PWs)   bands (ev):

   -55.1187 -55.0821 -55.0747 -55.0406 -55.0348 -55.0296 -54.9980 -54.9622
   -54.9437 -54.9089 -54.9050 -54.8879 -54.8714 -54.8373 -54.1043 -54.0702
   -31.6805 -31.5944 -31.5671 -31.4871 -31.4328 -31.4299 -31.4163 -31.4105
   -31.3637 -31.3407 -31.3303 -31.3195 -31.3126 -31.3098 -31.2915 -31.2833
   -31.2631 -31.2604 -31.2580 -31.2399 -31.2273 -31.2178 -31.2004 -31.1958
   -31.1885 -31.1767 -31.1738 -31.1446 -31.1319 -31.1288 -31.1240 -31.1035
   -31.1008 -31.0932 -31.0898 -31.0658 -31.0571 -31.0402 -31.0330 -31.0309
   -31.0161 -31.0147 -30.5137 -30.4194 -30.3974 -30.3301 -30.2433 -30.1324
   -18.8054 -17.8181 -15.9498 -15.6944 -15.5578 -15.4567 -15.3220 -15.2159
   -15.1345 -15.0204 -14.9706 -14.8552 -14.8230 -14.8185 -14.7789 -14.7476
   -14.6988 -14.6601 -14.6579 -14.6356 -14.6161 -14.6084 -14.5656 -14.5587
   -14.5190 -14.5171 -14.4973 -14.3612 -14.2796 -14.2095 -14.0275 -13.2037
   -12.6068 -12.4893  -9.7831  -6.5372  -6.4014  -5.4517  -4.9163  -3.5491
    -3.2836  -3.1386  -3.0868  -3.0505  -3.0149  -2.9601  -2.8807  -2.8021
    -2.6504  -2.5813  -2.5558  -2.4035  -2.3295  -2.3199  -2.2633  -2.1635
    -2.1387  -2.0920  -2.0497  -1.9852  -1.9477  -1.9242  -1.9025  -1.8673
    -1.8636  -1.8096  -1.7559  -1.6864  -1.5967  -1.5654  -1.5195  -1.4759
    -1.4538  -1.4511  -1.4108  -1.4043  -1.3939  -1.3494  -1.3433  -1.3132
    -1.2671  -1.1577  -1.0076  -0.9453  -0.8555  -0.7611  -0.7361  -0.7103
    -0.6901  -0.6280  -0.6055  -0.5763  -0.5006  -0.4523  -0.3731  -0.3269
    -0.3042  -0.2245  -0.1199  -0.1028  -0.0955  -0.0075   0.0848   0.0976
     0.1124   0.1220   0.2198   0.2853   0.3190   0.3607   0.4249   0.4340
     0.4919   0.5209   0.5722   0.6388   0.6717   0.7508   0.7903   0.8111
     0.8168   0.8393   0.8588   0.8703   0.9517   0.9608   0.9863   1.0750
     1.1795   1.3337   1.4799   1.4908   1.8240   1.8251   1.9186   2.1022
     2.4948   2.5430   3.9755   4.0511   4.1096   4.1209   4.1264   4.2113
     4.4604   4.4782   4.4895   4.4911   4.5261

[...]

          k = 0.0380-0.0419 0.0000 ( 17876 PWs)   bands (ev):

[...]

          k =-0.0760-0.0000 0.0000 ( 17886 PWs)   bands (ev):

[...]

          k =-0.0760-0.0839 0.0000 ( 17948 PWs)   bands (ev):

   -55.1043 -55.0963 -55.0578 -55.0573 -55.0321 -55.0285 -54.9852 -54.9749
   -54.9293 -54.9229 -54.8898 -54.8888 -54.8878 -54.8390 -54.0872 -54.0872
   -31.5097 -31.4902 -31.4804 -31.3824 -31.3819 -31.3766 -31.3699 -31.3491
   -31.3487 -31.3283 -31.3231 -31.3176 -31.3079 -31.2890 -31.2754 -31.2611
   -31.2566 -31.2555 -31.2519 -31.2455 -31.2434 -31.2397 -31.2277 -31.2266
   -31.1974 -31.1966 -31.1795 -31.1775 -31.1771 -31.1683 -31.1682 -31.1625
   -31.1540 -31.1417 -31.1360 -31.1204 -31.1189 -31.1026 -31.0689 -31.0684
   -31.0668 -31.0434 -30.4100 -30.4100 -30.3263 -30.3261 -30.2867 -30.2867
   -18.8039 -17.8147 -15.5298 -15.3912 -15.2521 -15.1485 -15.1336 -15.0800
   -15.0308 -14.9891 -14.9475 -14.9032 -14.8931 -14.8751 -14.8467 -14.8196
   -14.7953 -14.7362 -14.7198 -14.7042 -14.6820 -14.6351 -14.6273 -14.6245
   -14.6174 -14.5711 -14.5686 -14.5436 -14.4749 -14.4728 -14.2866 -13.2056
   -12.5909 -12.5907  -9.7800  -6.5886  -6.3241  -5.4490  -4.9271  -3.5228
    -2.9554  -2.8171  -2.6533  -2.6173  -2.4717  -2.3714  -2.3262  -2.2980
    -2.2442  -2.1986  -2.1385  -2.1235  -2.1051  -2.0464  -2.0210  -2.0022
    -1.9708  -1.9518  -1.9381  -1.9196  -1.9023  -1.8741  -1.8479  -1.8391
    -1.8345  -1.8060  -1.7898  -1.7503  -1.7436  -1.7358  -1.6926  -1.6805
    -1.6543  -1.5976  -1.4904  -1.4801  -1.3277  -1.3253  -1.2911  -1.2457
    -1.2257  -1.2156  -1.1550  -1.1471  -1.1349  -0.8991  -0.8718  -0.8618
    -0.8346  -0.7765  -0.7590  -0.6963  -0.6869  -0.6028  -0.5882  -0.4863
    -0.4705  -0.4143  -0.3306  -0.3226  -0.3105  -0.1992  -0.1497  -0.1121
    -0.0856  -0.0753  -0.0579  -0.0201  -0.0199   0.0699   0.1133   0.1436
     0.1589   0.1887   0.3533   0.4019   0.4108   0.5499   0.5637   0.7116
     0.7752   0.7895   0.8759   0.8973   0.9849   0.9951   1.0347   1.1743
     1.1859   1.2089   1.2561   1.2845   1.3365   1.3416   2.2749   2.2762
     2.3629   2.3631   4.1079   4.2332   4.2395   4.3002   4.4095   4.4427
     4.4889   4.5225   4.5599   4.5629   4.6317

     the Fermi energy is     4.0376 ev

!    total energy              =   -2977.70012244 Ry
     estimated scf accuracy    <       0.00000005 Ry
     smearing contrib. (-TS)   =      -0.03675194 Ry
     internal energy E=F+TS    =   -2977.66337050 Ry

     The total energy is F=E-TS. E is the sum of the following terms:
     one-electron contribution =  -23082.92119153 Ry
     hartree contribution      =   11640.61199413 Ry
     xc contribution           =    -496.62453218 Ry
     ewald contribution        =    8961.26697953 Ry
     electric field correction =       0.00337955 Ry

     convergence has been achieved in  67 iterations

     Forces acting on atoms (cartesian axes, Ry/au):

     atom    1 type  1   force =     0.00018133   -0.00018630    0.09314512
     atom    2 type  1   force =    -0.00010208   -0.00033077   -0.17819533
     atom    3 type  2   force =     0.00002181   -0.00017872   -0.02037324
     atom    4 type  2   force =    -0.00002762   -0.00200686    0.05899415
     atom    5 type  2   force =    -0.01059896   -0.00142428    0.00859917
     atom    6 type  2   force =     0.01186322   -0.00070786    0.00713173
     atom    7 type  1   force =    -0.00089598    0.00314879   -0.01229665
     atom    8 type  1   force =     0.00054124    0.00112680   -0.00449887
     atom    9 type  2   force =    -0.00007239   -0.00036929    0.00014666
     atom   10 type  2   force =    -0.00129241   -0.00051045   -0.00194458
     atom   11 type  2   force =    -0.00021846   -0.00021410   -0.00006270
     atom   12 type  2   force =     0.00060511   -0.00007095   -0.00024930
     atom   13 type  1   force =    -0.00103354   -0.00062638    0.00022191
     atom   14 type  1   force =     0.00011557   -0.00004204    0.00017559
     atom   15 type  2   force =    -0.00027389   -0.00052403   -0.00005721
     atom   16 type  2   force =    -0.00000843   -0.00007921    0.00066276
     atom   17 type  2   force =    -0.00029261    0.00025794    0.00055016
     atom   18 type  2   force =     0.00019864    0.00005794    0.00030911
     atom   19 type  1   force =     0.00024294    0.00003162    0.00054182
     atom   20 type  1   force =    -0.00019069   -0.00019384    0.00028291
     atom   21 type  2   force =     0.00007408   -0.00001933    0.10397645
     atom   22 type  2   force =     0.00005517   -0.00022770   -0.00107502
     atom   23 type  2   force =    -0.07038440   -0.00010201   -0.02688548
     atom   24 type  2   force =     0.07026153    0.00034652   -0.02692630
     atom   25 type  1   force =     0.00000633   -0.00022208    0.09277463
     atom   26 type  1   force =    -0.00020120   -0.00037248   -0.17831054
     atom   27 type  2   force =     0.00010661   -0.00028765   -0.01935073
     atom   28 type  2   force =     0.00003762   -0.00162376    0.05806789
     atom   29 type  2   force =    -0.01068406   -0.00080168    0.00799939
     atom   30 type  2   force =     0.01180267   -0.00047299    0.00652522
     atom   31 type  1   force =    -0.00073256    0.00504764   -0.01492824
     atom   32 type  1   force =     0.00040185   -0.00138951   -0.00477642
     atom   33 type  2   force =    -0.00010858    0.00021597    0.00029638
     atom   34 type  2   force =    -0.00128770    0.00140781   -0.00089896
     atom   35 type  2   force =     0.00019499    0.00013211    0.00001859
     atom   36 type  2   force =     0.00011588   -0.00001781   -0.00011901
     atom   37 type  1   force =    -0.00104827    0.00055642    0.00003803
     atom   38 type  1   force =     0.00015228   -0.00014208   -0.00003752
     atom   39 type  2   force =    -0.00003101   -0.00013925    0.00010124
     atom   40 type  2   force =    -0.00020643    0.00021081    0.00025197
     atom   41 type  2   force =     0.00000219   -0.00017054    0.00040002
     atom   42 type  2   force =    -0.00015188   -0.00005910    0.00007246
     atom   43 type  1   force =     0.00010958    0.00030869    0.00039109
     atom   44 type  1   force =    -0.00010870    0.00021230   -0.00038729
     atom   45 type  2   force =     0.00003737   -0.00004974    0.10396714
     atom   46 type  2   force =    -0.07037817   -0.00006373   -0.02691793
     atom   47 type  2   force =     0.07028554    0.00036373   -0.02695128
     atom   48 type  3   force =    -0.00043474   -0.00012520   -0.00056098
     atom   49 type  3   force =    -0.00084164   -0.00034276    0.00008213
     atom   50 type  4   force =    -0.00205700   -0.00246763   -0.00183262
     atom   51 type  5   force =     0.00091011    0.00006992    0.00047899
     atom   52 type  5   force =    -0.00031461   -0.00087115    0.00015422
     atom   53 type  5   force =     0.00369422    0.00314251    0.00147606
     atom   54 type  5   force =     0.00080791   -0.00025226   -0.00029003
     atom   55 type  5   force =     0.00042934    0.00085461    0.00000952
     atom   56 type  5   force =     0.00006983    0.00034527    0.00020755
     atom   57 type  2   force =    -0.00034437    0.00061213   -0.00060384
     atom   58 type  5   force =     0.00075844   -0.00042353    0.00012714
     atom   59 type  5   force =     0.00023899   -0.00034047    0.00035286

     Total force =     0.366124     Total SCF correction =     0.000572
  @ DRIVER MODE: Message from server: STATUS
  @ DRIVER MODE: Message from server: GETFORCE
  @ DRIVER MODE: Returning v,forces,stress,ensemble

     Writing output data file ./calc.save/
  @ DRIVER MODE: Message from server: EXIT
  @ DRIVE MODE: Exiting

     General routines

     Parallel routines

   This run was terminated on:   3:31:54  16Sep2021

   JOB DONE.