     Program PWSCF v.6.7GPU starts on 15Sep2021 at 17:33:58

     R & G space division:  proc/nbgrp/npool/nimage =      10
     Reading input from /storage/home/hcoda1/3/ntian30/research/carbon/CxH_vib/H2O_calc/ads_slab/CHNNHHH2O_a/out_0006/pw.inp
Warning: card &CELL ignored
Warning: card   CELL_DYNAMICS='IPI', ignored
Warning: card / ignored

     Current dimensions of program PWSCF are:
     Max number of different atomic species (ntypx) = 10
     Max number of k-points (npk) =  40000
     Max angular momentum in pseudopotentials (lmaxx) =  3
     Presently no symmetry can be used with electric field

     Message from routine cell_base_init:
     DEPRECATED: use true lattice parameter, not A to a.u. conversion factor

     IMPORTANT: XC functional enforced from input :
     Exchange-correlation= BEEF-VDW
                           (   1   4  43  14   2   0   0)
     Any further DFT definition will be discarded
     Please, verify this is what you really want

  @ DRIVER MODE: Connecting to
 qe_1139763_2852630.sched-torque.pace.gatech.eduror3d562_scratch
  using UNIX socket
  @ DRIVER MODE: Message from server: STATUS
  @ DRIVER MODE: Message from server: INIT
  @ DRIVER MODE: Receiving replica           0          -1
  @ DRIVER MODE: Receiving encoded integer          25
  @ DRIVER MODE:  SCF:  T  FORCE:  T  STRESS:  F  VC:  F  ENSEMBLE:  F
  @ DRIVER MODE:  SCF:  T  FORCE:  T  STRESS:  F  VC:  F  ENSEMBLE:  F

     Using Slab Decomposition

     bravais-lattice index     =            0
     lattice parameter (alat)  =       1.8897  a.u.
     unit-cell volume          =    6658.9804 (a.u.)^3
     number of atoms/cell      =           56
     number of atomic types    =            5
     number of electrons       =       403.00
     number of Kohn-Sham states=          211
     kinetic-energy cutoff     =      29.3995  Ry
     charge density cutoff     =     293.9946  Ry
     scf convergence threshold =      7.3E-08
     mixing beta               =       0.0500
     number of iterations used =            8  plain     mixing
     Exchange-correlation= BEEF-VDW
                           (   1   4  43  14   2   0   0)

     celldm(1)=   1.889726  celldm(2)=   0.000000  celldm(3)=   0.000000
     celldm(4)=   0.000000  celldm(5)=   0.000000  celldm(6)=   0.000000

     crystal axes: (cart. coord. in units of alat)
               a(1) = (   6.579727   0.000000   0.000000 )
               a(2) = (  -0.000775   5.961596   0.000000 )
               a(3) = (   0.000000   0.000000  25.155947 )

     reciprocal axes: (cart. coord. in units 2 pi/alat)
               b(1) = (  0.151982  0.000020  0.000000 )
               b(2) = (  0.000000  0.167740  0.000000 )
               b(3) = (  0.000000  0.000000  0.039752 )

     PseudoPot. # 1 for Ti read from file:
     /storage/coda1/p-amedford6/0/shared/rich_project_chbe-medford/medford-share/data/pseudos_module/espresso/nninc/pbe/van/Ti.UPF
     MD5 check sum: 8e4df49b7f0d34bbd5052bf3f5ea0213
     Pseudo is Ultrasoft, Zval = 12.0
     Generated by new atomic code, or converted to UPF format
     Using radial grid of  851 points,  6 beta functions with:
                l(1) =   0
                l(2) =   0
                l(3) =   1
                l(4) =   1
                l(5) =   2
                l(6) =   2
     Q(r) pseudized with  8 coefficients,  rinner =    1.000   1.000   1.000
                                                       1.000   1.000

     PseudoPot. # 2 for O  read from file:
     /storage/coda1/p-amedford6/0/shared/rich_project_chbe-medford/medford-share/data/pseudos_module/espresso/nninc/pbe/van/O.UPF
     MD5 check sum: 78c19812648e8988a0fe644b0f25305e
     Pseudo is Ultrasoft, Zval =  6.0
     Generated by new atomic code, or converted to UPF format
     Using radial grid of  737 points,  4 beta functions with:
                l(1) =   0
                l(2) =   0
                l(3) =   1
                l(4) =   1
     Q(r) pseudized with  8 coefficients,  rinner =    0.800   0.800   0.800

     PseudoPot. # 3 for N  read from file:
     /storage/coda1/p-amedford6/0/shared/rich_project_chbe-medford/medford-share/data/pseudos_module/espresso/nninc/pbe/van/N.UPF
     MD5 check sum: 90d10febe142ad51ac9d5be1deb811c4
     Pseudo is Ultrasoft, Zval =  5.0
     Generated by new atomic code, or converted to UPF format
     Using radial grid of  729 points,  4 beta functions with:
                l(1) =   0
                l(2) =   0
                l(3) =   1
                l(4) =   1
     Q(r) pseudized with  8 coefficients,  rinner =    0.800   0.800   0.800

     PseudoPot. # 4 for C  read from file:
     /storage/coda1/p-amedford6/0/shared/rich_project_chbe-medford/medford-share/data/pseudos_module/espresso/nninc/pbe/van/C.UPF
     MD5 check sum: 1a69bf6b8db32088f5b2163dbdb77a27
     Pseudo is Ultrasoft, Zval =  4.0
     Generated by new atomic code, or converted to UPF format
     Using radial grid of  721 points,  4 beta functions with:
                l(1) =   0
                l(2) =   0
                l(3) =   1
                l(4) =   1
     Q(r) pseudized with  8 coefficients,  rinner =    0.800   0.800   0.800

     PseudoPot. # 5 for H  read from file:
     /storage/coda1/p-amedford6/0/shared/rich_project_chbe-medford/medford-share/data/pseudos_module/espresso/nninc/pbe/van/H.UPF
     MD5 check sum: b5ee9d7bfd3a09ee7748110bda690ff7
     Pseudo is Ultrasoft, Zval =  1.0
     Generated by new atomic code, or converted to UPF format
     Using radial grid of  615 points,  1 beta functions with:
                l(1) =   0
     Q(r) pseudized with  8 coefficients,  rinner =    0.800

     atomic species   valence    mass     pseudopotential
        Ti1           12.00    47.86700     Ti( 1.00)
        O1             6.00    15.99900     O ( 1.00)
        N1             5.00    14.00700     N ( 1.00)
        C1             4.00    12.01100     C ( 1.00)
        H1             1.00     1.00800     H ( 1.00)

     No symmetry found

   Cartesian axes

     site n.     atom                  positions (alat units)
         1           Ti1 tau(   1) = (   0.0004258   2.9801865   6.0000000  )
         2           Ti1 tau(   2) = (   3.2906075   1.4906267   6.0002472  )
         3           O1  tau(   3) = (   0.0006271   0.0005054   7.9858123  )
         4           O1  tau(   4) = (   3.2906025   0.0005020   7.3038282  )
         5           O1  tau(   5) = (   4.5942328   1.4918067   9.2879030  )
         6           O1  tau(   6) = (   1.9868534   1.4903216   9.2879459  )
         7           Ti1 tau(   7) = (   3.2907910   2.8959150   9.1758416  )
         8           Ti1 tau(   8) = (   0.0015273   1.4827037   9.2680791  )
         9           O1  tau(   9) = (   3.3295752   5.9394884  11.3365386  )
        10           O1  tau(  10) = (   0.0116148   5.9584955  10.6183126  )
        11           O1  tau(  11) = (   1.3416459   1.4853116  12.6004455  )
        12           O1  tau(  12) = (   5.3426426   1.4786053  12.6369034  )
        13           Ti1 tau(  13) = (   0.0116414   2.9353973  12.6160321  )
        14           Ti1 tau(  14) = (   3.2634613   1.4579052  12.5012998  )
        15           O1  tau(  15) = (   0.1064876   0.0498873  14.6156690  )
        16           O1  tau(  16) = (   3.3207907   0.0021492  13.9347054  )
        17           O1  tau(  17) = (   4.6463059   1.4619937  15.9920056  )
        18           O1  tau(  18) = (   2.1466462   1.4989335  16.1123926  )
        19           Ti1 tau(  19) = (   3.4306617   2.9592634  15.6863987  )
        20           Ti1 tau(  20) = (   0.1411245   1.4409179  16.1562347  )
        21           O1  tau(  21) = (   3.2904802   0.0005063   4.7018136  )
        22           O1  tau(  22) = (   0.1093408   5.8617090  17.1288626  )
        23           O1  tau(  23) = (   1.3043587   1.4918075   6.0039043  )
        24           O1  tau(  24) = (   5.2767064   1.4903225   6.0039473  )
        25           Ti1 tau(  25) = (   0.0000382   5.9609847   6.0000000  )
        26           Ti1 tau(  26) = (   3.2902200   4.4714249   6.0002472  )
        27           O1  tau(  27) = (   0.0002396   2.9813036   7.9858123  )
        28           O1  tau(  28) = (   3.2902150   2.9813002   7.3038282  )
        29           O1  tau(  29) = (   4.5938453   4.4726049   9.2879030  )
        30           O1  tau(  30) = (   1.9864658   4.4711199   9.2879459  )
        31           Ti1 tau(  31) = (   3.2891106   5.8743827   9.1763621  )
        32           Ti1 tau(  32) = (   0.0006254   4.4649316   9.2693709  )
        33           O1  tau(  33) = (   3.3252478   2.9725824  11.3426849  )
        34           O1  tau(  34) = (   0.0092240   2.9805883  10.6323155  )
        35           O1  tau(  35) = (   1.3395427   4.4601989  12.6346899  )
        36           O1  tau(  36) = (   5.3460148   4.4586474  12.6692756  )
        37           Ti1 tau(  37) = (   6.5637397   5.9322234  12.5160321  )
        38           Ti1 tau(  38) = (   3.2635149   4.4558096  12.5102435  )
        39           O1  tau(  39) = (   0.1109093   2.9345503  14.7784033  )
        40           O1  tau(  40) = (   3.3425673   2.9461413  13.8942005  )
        41           O1  tau(  41) = (   4.6672108   4.4449251  15.9191901  )
        42           O1  tau(  42) = (   2.1284166   4.4082335  15.9970045  )
        43           Ti1 tau(  43) = (   3.3925976   5.9399099  15.7906296  )
        44           Ti1 tau(  44) = (   0.1175887   4.6074924  15.7225956  )
        45           O1  tau(  45) = (   3.2900926   2.9813045   4.7018136  )
        46           O1  tau(  46) = (   1.3039711   4.4726057   6.0039043  )
        47           O1  tau(  47) = (   5.2763189   4.4711207   6.0039473  )
        48           N1  tau(  48) = (   6.3322197   2.6896666  17.8957888  )
        49           C1  tau(  49) = (   0.7408832   3.1023054  18.6049742  )
        50           H1  tau(  50) = (   1.6825283   2.9574642  18.0630083  )
        51           N1  tau(  51) = (   5.0062801   2.8267163  18.4728511  )
        52           H1  tau(  52) = (   5.1803530   3.0494745  19.4549233  )
        53           H1  tau(  53) = (   4.5789568   1.9025856  18.4370215  )
        54           O1  tau(  54) = (   3.4803961   5.7297960  18.1507158  )
        55           H1  tau(  55) = (   4.0125945   4.9267423  18.3304466  )
        56           H1  tau(  56) = (   2.5980622   5.5532332  18.5227279  )

     number of k points=    10  Fermi-Dirac smearing, width (Ry)=  0.0073
                       cart. coord. in units 2pi/alat
        k(    1) = (   0.0000000   0.0000000   0.0000000), wk =   0.1250000
        k(    2) = (   0.0000000   0.0419351   0.0000000), wk =   0.2500000
        k(    3) = (   0.0000000  -0.0838702   0.0000000), wk =   0.1250000
        k(    4) = (   0.0379955   0.0000049   0.0000000), wk =   0.2500000
        k(    5) = (   0.0379955   0.0419400   0.0000000), wk =   0.2500000
        k(    6) = (   0.0379955  -0.0838652   0.0000000), wk =   0.2500000
        k(    7) = (   0.0379955  -0.0419301   0.0000000), wk =   0.2500000
        k(    8) = (  -0.0759910  -0.0000099   0.0000000), wk =   0.1250000
        k(    9) = (  -0.0759910   0.0419252   0.0000000), wk =   0.2500000
        k(   10) = (  -0.0759910  -0.0838800   0.0000000), wk =   0.1250000

     Initial potential from superposition of free atoms

     starting charge  386.99914, renormalised to  403.00000

     negative rho (up, down):  1.683E-02 0.000E+00

     %%%%%%%%%%%%%%%%%%%%%%%%%%%%%%%%%%%%%%%%%%%%%%%%%%%%%%%%%%%%%%%%%%%%%%%%
     %                                                                      %
     % You are using vdW-DF, which was implemented by the Thonhauser group. %
     % Please cite the following two papers that made this development      %
     % possible and the two reviews that describe the various versions:     %
     %                                                                      %
     %   T. Thonhauser et al., PRL 115, 136402 (2015).                      %
     %   T. Thonhauser et al., PRB 76, 125112 (2007).                       %
     %   K. Berland et al., Rep. Prog. Phys. 78, 066501 (2015).             %
     %   D.C. Langreth et al., J. Phys.: Condens. Matter 21, 084203 (2009). %
     %                                                                      %
     %                                                                      %
     % If you are calculating the stress with vdW-DF, please also cite:     %
     %                                                                      %
     %   R. Sabatini et al., J. Phys.: Condens. Matter 24, 424209 (2012).   %
     %                                                                      %
     %%%%%%%%%%%%%%%%%%%%%%%%%%%%%%%%%%%%%%%%%%%%%%%%%%%%%%%%%%%%%%%%%%%%%%%%

     Adding external electric field

     Computed dipole along edir(3) :
        Dipole              -12.6697 Ry au,        -32.2031 Debye
        Dipole field         -0.0239 Ry au,

        Potential amp.        2.2164 Ry
        Total length         46.3494 bohr

     Starting wfcs are  305 atomic wfcs
  @ DRIVER MODE: Message from server: STATUS
  @ DRIVER MODE: Message from server: POSDATA
  @ DRIVER MODE: Reading and sharing cell
  @ DRIVER MODE: Reading and sharing positions
  @ DRIVER MODE: Received positions

     Self-consistent Calculation

     iteration #  1     ecut=    29.40 Ry     beta= 0.05
     Davidson diagonalization with overlap
     c_bands:  3 eigenvalues not converged
     c_bands:  2 eigenvalues not converged
     c_bands:  5 eigenvalues not converged
     c_bands:  1 eigenvalues not converged
     c_bands:  1 eigenvalues not converged
     c_bands:  4 eigenvalues not converged
     c_bands:  1 eigenvalues not converged
     c_bands:  2 eigenvalues not converged
     ethr =  1.00E-05,  avg # of iterations = 27.9

[...]

     total energy              =   -2340.86536143 Ry
     estimated scf accuracy    <    7176.71593620 Ry

     iteration #  2     ecut=    29.40 Ry     beta= 0.05
     Davidson diagonalization with overlap
     ethr =  1.00E-02,  avg # of iterations = 23.4

[...]

     iteration # 61     ecut=    29.40 Ry     beta= 0.05
     Davidson diagonalization with overlap
     c_bands:  1 eigenvalues not converged
     ethr =  6.62E-11,  avg # of iterations = 14.9

[...]

     total energy              =   -2973.87556887 Ry
     estimated scf accuracy    <       0.00000013 Ry

     iteration # 67     ecut=    29.40 Ry     beta= 0.05
     Davidson diagonalization with overlap
     ethr =  2.80E-11,  avg # of iterations =  7.6

     negative rho (up, down):  1.572E-02 0.000E+00

     Adding external electric field

     Computed dipole along edir(3) :
        Dipole                0.4461 Ry au,          1.1339 Debye
        Dipole field          0.0008 Ry au,

        Potential amp.       -0.0780 Ry
        Total length         46.3494 bohr

     End of self-consistent calculation

          k = 0.0000 0.0000 0.0000 ( 18029 PWs)   bands (ev):

   -55.9036 -55.8695 -55.8674 -55.8299 -55.7898 -55.7876 -55.7317 -55.7204
   -55.6952 -55.6865 -55.6860 -55.6527 -55.4645 -55.3791 -54.8862 -54.8522
   -32.4084 -32.3878 -32.2752 -32.2319 -32.2204 -32.1955 -32.1769 -32.1581
   -32.1480 -32.1058 -32.0588 -32.0559 -32.0418 -32.0331 -32.0230 -32.0203
   -32.0096 -32.0051 -32.0030 -31.9907 -31.9852 -31.9696 -31.9608 -31.9281
   -31.9184 -31.9148 -31.9127 -31.9076 -31.8844 -31.8842 -31.8776 -31.8633
   -31.8534 -31.8403 -31.8343 -31.8261 -31.7989 -31.7591 -31.6940 -31.6315
   -31.5927 -31.5207 -31.2934 -31.2048 -31.1824 -31.1102 -31.0237 -30.9125
   -18.8530 -17.2384 -16.6188 -16.3822 -16.1477 -16.0668 -16.0414 -15.8116
   -15.7165 -15.6607 -15.5664 -15.5029 -15.4739 -15.4434 -15.4203 -15.4021
   -15.3582 -15.3470 -15.3270 -15.3261 -15.3000 -15.2912 -15.2525 -15.2471
   -15.2018 -15.0767 -15.0424 -15.0370 -15.0097 -14.9690 -14.5313 -13.3878
   -13.2713 -12.8701  -7.1335  -6.5698  -5.5248  -3.9992  -3.8692  -3.8640
    -3.8124  -3.7479  -3.6146  -3.5705  -3.3739  -3.2527  -3.1749  -3.0913
    -3.0746  -3.0364  -3.0109  -2.9082  -2.8211  -2.7886  -2.7179  -2.7026
    -2.6782  -2.6692  -2.6400  -2.6174  -2.5320  -2.5150  -2.4759  -2.4400
    -2.3267  -2.3063  -2.2480  -2.2190  -2.2120  -2.1938  -2.1699  -2.1597
    -2.1447  -2.1335  -2.0750  -2.0491  -1.9659  -1.9054  -1.8399  -1.7001
    -1.5614  -1.5182  -1.5132  -1.4076  -1.3793  -1.3442  -1.3267  -1.3007
    -1.2901  -1.1621  -1.0845  -1.0228  -1.0142  -0.9430  -0.8504  -0.7918
    -0.7347  -0.6751  -0.6692  -0.6496  -0.6448  -0.6093  -0.5384  -0.4002
    -0.3631  -0.3222  -0.2897  -0.2021  -0.1932  -0.1468  -0.1162  -0.0953
    -0.0618   0.0173   0.0291   0.0601   0.0802   0.1023   0.1253   0.1829
     0.3105   0.3336   0.3529   0.4095   0.4432   0.6051   0.7469   0.7870
     0.8905   1.0655   1.1368   1.1426   1.2255   1.3283   1.7078   1.7537
     2.7786   3.2124   3.3160   3.3500   3.3572   3.4582   3.4817   3.6739
     3.7181   3.7542   3.7857

[...]

          k = 0.0380-0.0419 0.0000 ( 17876 PWs)   bands (ev):

[...]

          k =-0.0760-0.0000 0.0000 ( 17886 PWs)   bands (ev):

[...]

          k =-0.0760-0.0839 0.0000 ( 17948 PWs)   bands (ev):

   -55.8870 -55.8860 -55.8541 -55.8429 -55.7865 -55.7817 -55.7375 -55.7051
   -55.7010 -55.6983 -55.6699 -55.6693 -55.4617 -55.3818 -54.8693 -54.8691
   -32.2249 -32.2033 -32.2030 -32.2027 -32.1813 -32.1807 -32.1238 -32.1162
   -32.0955 -32.0881 -32.0862 -32.0339 -32.0319 -32.0251 -32.0199 -32.0193
   -32.0138 -32.0099 -32.0078 -32.0064 -32.0051 -32.0040 -31.9921 -31.9878
   -31.9711 -31.9494 -31.9478 -31.9077 -31.9057 -31.9003 -31.8987 -31.8954
   -31.8907 -31.8857 -31.8851 -31.8796 -31.8765 -31.7753 -31.6922 -31.6383
   -31.5966 -31.5868 -31.1952 -31.1951 -31.1062 -31.1060 -31.0671 -31.0670
   -18.8506 -17.2307 -16.0458 -15.9599 -15.9224 -15.8321 -15.7878 -15.7531
   -15.6940 -15.6211 -15.5824 -15.5772 -15.5521 -15.4948 -15.4800 -15.4503
   -15.4332 -15.4215 -15.4180 -15.3639 -15.3578 -15.3491 -15.3447 -15.3325
   -15.3285 -15.3037 -15.2278 -15.2249 -15.1027 -14.8967 -14.8719 -13.3732
   -13.3730 -12.8859  -7.0925  -6.5603  -5.4639  -3.7011  -3.4034  -3.3256
    -3.2223  -3.1140  -3.0110  -3.0033  -2.9666  -2.9207  -2.8523  -2.8272
    -2.7730  -2.7521  -2.7374  -2.7202  -2.7162  -2.7050  -2.6731  -2.6493
    -2.5938  -2.5888  -2.5808  -2.5731  -2.5614  -2.5541  -2.5316  -2.5246
    -2.4997  -2.4721  -2.4339  -2.4033  -2.3215  -2.2483  -2.1704  -2.1226
    -2.0896  -2.0547  -2.0482  -2.0078  -1.9864  -1.9734  -1.9567  -1.8932
    -1.7937  -1.6779  -1.6183  -1.5921  -1.5452  -1.5100  -1.4854  -1.3793
    -1.3285  -1.3132  -1.2134  -1.1914  -1.1676  -1.1131  -1.0476  -1.0347
    -0.9896  -0.9461  -0.9036  -0.8626  -0.8571  -0.8083  -0.7635  -0.7371
    -0.6533  -0.6436  -0.5998  -0.5890  -0.5773  -0.5394  -0.4950  -0.4125
    -0.3153  -0.2713  -0.2205  -0.0680   0.0056   0.1431   0.1967   0.2608
     0.2780   0.3755   0.4066   0.4089   0.4881   0.5312   0.5898   0.6213
     0.6271   0.6394   0.8041   1.0886   1.5003   1.5013   1.5734   1.5738
     2.7364   3.5450   3.6024   3.6155   3.6422   3.7285   3.7521   3.7626
     3.7643   3.8831   3.8987

     the Fermi energy is     3.2251 ev

!    total energy              =   -2973.87559365 Ry
     estimated scf accuracy    <       0.00000002 Ry
     smearing contrib. (-TS)   =      -0.02190400 Ry
     internal energy E=F+TS    =   -2973.85368965 Ry

     The total energy is F=E-TS. E is the sum of the following terms:
     one-electron contribution =  -24182.74528900 Ry
     hartree contribution      =   12182.93968838 Ry
     xc contribution           =    -494.00784700 Ry
     ewald contribution        =    9519.95938237 Ry
     electric field correction =       0.00037559 Ry

     convergence has been achieved in  67 iterations

     Forces acting on atoms (cartesian axes, Ry/au):

     atom    1 type  1   force =     0.00015949   -0.00030040    0.09559254
     atom    2 type  1   force =     0.00004539   -0.00045896   -0.17581567
     atom    3 type  2   force =     0.00023225    0.00001911   -0.02351258
     atom    4 type  2   force =     0.00008473   -0.00152675    0.05313348
     atom    5 type  2   force =    -0.01025559   -0.00137111    0.00262900
     atom    6 type  2   force =     0.01292436   -0.00101730    0.00441134
     atom    7 type  1   force =     0.00138976    0.00129122   -0.00563433
     atom    8 type  1   force =    -0.00060327    0.01374230    0.01966432
     atom    9 type  2   force =     0.00023918   -0.00056084    0.00104752
     atom   10 type  2   force =    -0.00154036   -0.00072751   -0.01576068
     atom   11 type  2   force =    -0.00106918    0.00026432   -0.00017740
     atom   12 type  2   force =     0.00039792    0.00000200    0.00017841
     atom   13 type  1   force =     0.00056063    0.00085459    0.00008897
     atom   14 type  1   force =    -0.00020491   -0.00007220    0.00037438
     atom   15 type  2   force =    -0.00039855   -0.00004163   -0.00012442
     atom   16 type  2   force =     0.00000840   -0.00086820   -0.00029513
     atom   17 type  2   force =    -0.00048433   -0.00006833   -0.00004860
     atom   18 type  2   force =     0.00029429   -0.00020638   -0.00036813
     atom   19 type  1   force =     0.00066177   -0.00075200   -0.00140252
     atom   20 type  1   force =    -0.00078763   -0.00043000    0.00033543
     atom   21 type  2   force =     0.00007218    0.00001650    0.10319591
     atom   22 type  2   force =    -0.00007697    0.00121861    0.00052879
     atom   23 type  2   force =    -0.07149704   -0.00007888   -0.02758097
     atom   24 type  2   force =     0.07146312    0.00038376   -0.02763505
     atom   25 type  1   force =     0.00009904   -0.00026634    0.09541491
     atom   26 type  1   force =     0.00004756   -0.00022799   -0.17587219
     atom   27 type  2   force =     0.00024611   -0.00036620   -0.02226856
     atom   28 type  2   force =     0.00008105   -0.00121926    0.05318383
     atom   29 type  2   force =    -0.01029913    0.00029740    0.00174102
     atom   30 type  2   force =     0.01288681    0.00085615    0.00360098
     atom   31 type  1   force =     0.00161639    0.00306352   -0.01050721
     atom   32 type  1   force =    -0.00067279   -0.01564620    0.01963736
     atom   33 type  2   force =     0.00053558    0.00064627    0.00019912
     atom   34 type  2   force =    -0.00085539    0.00099536   -0.01342715
     atom   35 type  2   force =     0.00108340    0.00004870   -0.00040112
     atom   36 type  2   force =    -0.00120945    0.00012004   -0.00017077
     atom   37 type  1   force =    -0.00029738   -0.00044066   -0.00009224
     atom   38 type  1   force =    -0.00088818    0.00038409   -0.00045590
     atom   39 type  2   force =    -0.00048900   -0.00052670    0.00065310
     atom   40 type  2   force =     0.00010081    0.00097878    0.00027075
     atom   41 type  2   force =    -0.00097260    0.00035849    0.00072209
     atom   42 type  2   force =     0.00094181   -0.00033912    0.00063575
     atom   43 type  1   force =    -0.00026387    0.00105661   -0.00062576
     atom   44 type  1   force =    -0.00042629    0.00101938   -0.00202664
     atom   45 type  2   force =     0.00007217    0.00001142    0.10320533
     atom   46 type  2   force =    -0.07149233   -0.00004295   -0.02758037
     atom   47 type  2   force =     0.07145908    0.00038430   -0.02761826
     atom   48 type  3   force =    -0.00382697   -0.00496457   -0.01248012
     atom   49 type  4   force =     0.00609641    0.00339962    0.00604572
     atom   50 type  5   force =    -0.00165729   -0.00066071    0.00065638
     atom   51 type  3   force =     0.00053324    0.00111762    0.00233970
     atom   52 type  5   force =    -0.00201841    0.00014986    0.00180245
     atom   53 type  5   force =    -0.00065488   -0.00111630    0.00129907
     atom   54 type  2   force =    -0.00090982   -0.00040356    0.00118785
     atom   55 type  5   force =    -0.00083251    0.00162073   -0.00076405
     atom   56 type  5   force =     0.00035119    0.00040032   -0.00112971

     Total force =     0.366470     Total SCF correction =     0.000418
  @ DRIVER MODE: Message from server: STATUS
  @ DRIVER MODE: Message from server: GETFORCE
  @ DRIVER MODE: Returning v,forces,stress,ensemble

     Writing output data file ./calc.save/
  @ DRIVER MODE: Message from server: EXIT
  @ DRIVE MODE: Exiting

     General routines

     Parallel routines

   This run was terminated on:  17:52:22  15Sep2021

   JOB DONE.