     Program PWSCF v.6.7GPU starts on 23Sep2021 at  0:58:51

     R & G space division:  proc/nbgrp/npool/nimage =      10
     Reading input from /storage/home/hcoda1/3/ntian30/research/carbon/CxH_vib/H2O_calc/ads_slab/CHNHNHHO_b/out_0027/pw.inp
Warning: card &CELL ignored
Warning: card   CELL_DYNAMICS='IPI', ignored
Warning: card / ignored

     Current dimensions of program PWSCF are:
     Max number of different atomic species (ntypx) = 10
     Max number of k-points (npk) =  40000
     Max angular momentum in pseudopotentials (lmaxx) =  3
     Presently no symmetry can be used with electric field

     Message from routine cell_base_init:
     DEPRECATED: use true lattice parameter, not A to a.u. conversion factor

     IMPORTANT: XC functional enforced from input :
     Exchange-correlation= BEEF-VDW
                           (   1   4  43  14   2   0   0)
     Any further DFT definition will be discarded
     Please, verify this is what you really want

  @ DRIVER MODE: Connecting to
 qe_1139763_2937316.sched-torque.pace.gatech.eduvvnaneto_scratch
  using UNIX socket
  @ DRIVER MODE: Message from server: STATUS
  @ DRIVER MODE: Message from server: INIT
  @ DRIVER MODE: Receiving replica           0          -1
  @ DRIVER MODE: Receiving encoded integer          25
  @ DRIVER MODE:  SCF:  T  FORCE:  T  STRESS:  F  VC:  F  ENSEMBLE:  F
  @ DRIVER MODE:  SCF:  T  FORCE:  T  STRESS:  F  VC:  F  ENSEMBLE:  F

     Using Slab Decomposition

     bravais-lattice index     =            0
     lattice parameter (alat)  =       1.8897  a.u.
     unit-cell volume          =    6658.9804 (a.u.)^3
     number of atoms/cell      =           55
     number of atomic types    =            5
     number of electrons       =       402.00
     number of Kohn-Sham states=          211
     kinetic-energy cutoff     =      29.3995  Ry
     charge density cutoff     =     293.9946  Ry
     scf convergence threshold =      7.3E-08
     mixing beta               =       0.0500
     number of iterations used =            8  plain     mixing
     Exchange-correlation= BEEF-VDW
                           (   1   4  43  14   2   0   0)

     celldm(1)=   1.889726  celldm(2)=   0.000000  celldm(3)=   0.000000
     celldm(4)=   0.000000  celldm(5)=   0.000000  celldm(6)=   0.000000

     crystal axes: (cart. coord. in units of alat)
               a(1) = (   6.579727   0.000000   0.000000 )
               a(2) = (  -0.000775   5.961596   0.000000 )
               a(3) = (   0.000000   0.000000  25.155947 )

     reciprocal axes: (cart. coord. in units 2 pi/alat)
               b(1) = (  0.151982  0.000020  0.000000 )
               b(2) = (  0.000000  0.167740  0.000000 )
               b(3) = (  0.000000  0.000000  0.039752 )

     PseudoPot. # 1 for Ti read from file:
     /storage/coda1/p-amedford6/0/shared/rich_project_chbe-medford/medford-share/data/pseudos_module/espresso/nninc/pbe/van/Ti.UPF
     MD5 check sum: 8e4df49b7f0d34bbd5052bf3f5ea0213
     Pseudo is Ultrasoft, Zval = 12.0
     Generated by new atomic code, or converted to UPF format
     Using radial grid of  851 points,  6 beta functions with:
                l(1) =   0
                l(2) =   0
                l(3) =   1
                l(4) =   1
                l(5) =   2
                l(6) =   2
     Q(r) pseudized with  8 coefficients,  rinner =    1.000   1.000   1.000
                                                       1.000   1.000

     PseudoPot. # 2 for O  read from file:
     /storage/coda1/p-amedford6/0/shared/rich_project_chbe-medford/medford-share/data/pseudos_module/espresso/nninc/pbe/van/O.UPF
     MD5 check sum: 78c19812648e8988a0fe644b0f25305e
     Pseudo is Ultrasoft, Zval =  6.0
     Generated by new atomic code, or converted to UPF format
     Using radial grid of  737 points,  4 beta functions with:
                l(1) =   0
                l(2) =   0
                l(3) =   1
                l(4) =   1
     Q(r) pseudized with  8 coefficients,  rinner =    0.800   0.800   0.800

     PseudoPot. # 3 for N  read from file:
     /storage/coda1/p-amedford6/0/shared/rich_project_chbe-medford/medford-share/data/pseudos_module/espresso/nninc/pbe/van/N.UPF
     MD5 check sum: 90d10febe142ad51ac9d5be1deb811c4
     Pseudo is Ultrasoft, Zval =  5.0
     Generated by new atomic code, or converted to UPF format
     Using radial grid of  729 points,  4 beta functions with:
                l(1) =   0
                l(2) =   0
                l(3) =   1
                l(4) =   1
     Q(r) pseudized with  8 coefficients,  rinner =    0.800   0.800   0.800

     PseudoPot. # 4 for C  read from file:
     /storage/coda1/p-amedford6/0/shared/rich_project_chbe-medford/medford-share/data/pseudos_module/espresso/nninc/pbe/van/C.UPF
     MD5 check sum: 1a69bf6b8db32088f5b2163dbdb77a27
     Pseudo is Ultrasoft, Zval =  4.0
     Generated by new atomic code, or converted to UPF format
     Using radial grid of  721 points,  4 beta functions with:
                l(1) =   0
                l(2) =   0
                l(3) =   1
                l(4) =   1
     Q(r) pseudized with  8 coefficients,  rinner =    0.800   0.800   0.800

     PseudoPot. # 5 for H  read from file:
     /storage/coda1/p-amedford6/0/shared/rich_project_chbe-medford/medford-share/data/pseudos_module/espresso/nninc/pbe/van/H.UPF
     MD5 check sum: b5ee9d7bfd3a09ee7748110bda690ff7
     Pseudo is Ultrasoft, Zval =  1.0
     Generated by new atomic code, or converted to UPF format
     Using radial grid of  615 points,  1 beta functions with:
                l(1) =   0
     Q(r) pseudized with  8 coefficients,  rinner =    0.800

     atomic species   valence    mass     pseudopotential
        Ti1           12.00    47.86700     Ti( 1.00)
        O1             6.00    15.99900     O ( 1.00)
        N1             5.00    14.00700     N ( 1.00)
        C1             4.00    12.01100     C ( 1.00)
        H1             1.00     1.00800     H ( 1.00)

     No symmetry found

   Cartesian axes

     site n.     atom                  positions (alat units)
         1           Ti1 tau(   1) = (   0.0004258   2.9801865   6.0000000  )
         2           Ti1 tau(   2) = (   3.2906075   1.4906267   6.0002472  )
         3           O1  tau(   3) = (   0.0006271   0.0005054   7.9858123  )
         4           O1  tau(   4) = (   3.2906025   0.0005020   7.3038282  )
         5           O1  tau(   5) = (   4.5942328   1.4918067   9.2879030  )
         6           O1  tau(   6) = (   1.9868534   1.4903216   9.2879459  )
         7           Ti1 tau(   7) = (   3.2907910   2.8959150   9.1758416  )
         8           Ti1 tau(   8) = (   0.0015273   1.4827037   9.2680791  )
         9           O1  tau(   9) = (   3.2644249   0.0086278  11.2869930  )
        10           O1  tau(  10) = (   0.0116148   5.9584955  10.6183126  )
        11           O1  tau(  11) = (   1.2700591   1.4733127  12.6309263  )
        12           O1  tau(  12) = (   5.2751843   1.4954020  12.5848179  )
        13           Ti1 tau(  13) = (   6.5455424   3.1153876  12.7101385  )
        14           Ti1 tau(  14) = (   3.2833704   1.6184148  12.4736748  )
        15           O1  tau(  15) = (   6.4599305   0.0050319  14.6091115  )
        16           O1  tau(  16) = (   3.3300269   5.9263713  13.9180617  )
        17           O1  tau(  17) = (   4.5165145   1.5716339  16.0125648  )
        18           O1  tau(  18) = (   1.9127028   1.4417528  15.8564018  )
        19           Ti1 tau(  19) = (   3.2288969   3.0847727  15.7886749  )
        20           Ti1 tau(  20) = (   6.4478006   1.4606891  15.8161894  )
        21           O1  tau(  21) = (   3.2904802   0.0005063   4.7018136  )
        22           O1  tau(  22) = (   6.4882405   0.0114324  17.1415363  )
        23           O1  tau(  23) = (   1.3043587   1.4918075   6.0039043  )
        24           O1  tau(  24) = (   5.2767064   1.4903225   6.0039473  )
        25           Ti1 tau(  25) = (   0.0000382   5.9609847   6.0000000  )
        26           Ti1 tau(  26) = (   3.2902200   4.4714249   6.0002472  )
        27           O1  tau(  27) = (   0.0002396   2.9813036   7.9858123  )
        28           O1  tau(  28) = (   3.2902150   2.9813002   7.3038282  )
        29           O1  tau(  29) = (   4.5938453   4.4726049   9.2879030  )
        30           O1  tau(  30) = (   1.9864658   4.4711199   9.2879459  )
        31           Ti1 tau(  31) = (   3.2891106   5.8743827   9.1763621  )
        32           Ti1 tau(  32) = (   0.0006254   4.4649316   9.2693709  )
        33           O1  tau(  33) = (   3.2692249   2.9538419  11.2423542  )
        34           O1  tau(  34) = (   0.0092240   2.9805883  10.6323155  )
        35           O1  tau(  35) = (   1.2565178   4.4877289  12.6449601  )
        36           O1  tau(  36) = (   5.2732762   4.4628510  12.5929129  )
        37           Ti1 tau(  37) = (   6.5734634   0.1294159  12.5697125  )
        38           Ti1 tau(  38) = (   3.2704022   4.6437612  12.6513646  )
        39           O1  tau(  39) = (   6.5063912   2.9643141  14.6466205  )
        40           O1  tau(  40) = (   3.2471416   2.9787476  13.8564769  )
        41           O1  tau(  41) = (   4.5405411   4.3625105  16.0593999  )
        42           O1  tau(  42) = (   1.9254132   4.5167653  15.8604027  )
        43           Ti1 tau(  43) = (   3.1528194   0.1083906  16.0566338  )
        44           Ti1 tau(  44) = (   6.5270785   4.6226534  15.9816197  )
        45           O1  tau(  45) = (   3.2900926   2.9813045   4.7018136  )
        46           O1  tau(  46) = (   1.3039711   4.4726057   6.0039043  )
        47           O1  tau(  47) = (   5.2763189   4.4711207   6.0039473  )
        48           N1  tau(  48) = (   1.2829970   2.9130689  18.3045482  )
        49           N1  tau(  49) = (   0.1654257   2.9641015  17.4510142  )
        50           C1  tau(  50) = (   2.5260228   2.9473648  17.9488278  )
        51           H1  tau(  51) = (   3.1619500   2.8785295  18.8336233  )
        52           H1  tau(  52) = (   1.0209804   2.8119014  19.2831343  )
        53           H1  tau(  53) = (   5.9303595   2.9248499  18.0583253  )
        54           O1  tau(  54) = (   3.2854906   0.0173217  17.9285145  )
        55           H1  tau(  55) = (   4.1908827   5.7946650  18.2246816  )

     number of k points=    10  Fermi-Dirac smearing, width (Ry)=  0.0073
                       cart. coord. in units 2pi/alat
        k(    1) = (   0.0000000   0.0000000   0.0000000), wk =   0.1250000
        k(    2) = (   0.0000000   0.0419351   0.0000000), wk =   0.2500000
        k(    3) = (   0.0000000  -0.0838702   0.0000000), wk =   0.1250000
        k(    4) = (   0.0379955   0.0000049   0.0000000), wk =   0.2500000
        k(    5) = (   0.0379955   0.0419400   0.0000000), wk =   0.2500000
        k(    6) = (   0.0379955  -0.0838652   0.0000000), wk =   0.2500000
        k(    7) = (   0.0379955  -0.0419301   0.0000000), wk =   0.2500000
        k(    8) = (  -0.0759910  -0.0000099   0.0000000), wk =   0.1250000
        k(    9) = (  -0.0759910   0.0419252   0.0000000), wk =   0.2500000
        k(   10) = (  -0.0759910  -0.0838800   0.0000000), wk =   0.1250000

     Initial potential from superposition of free atoms

     starting charge  385.99915, renormalised to  402.00000

     negative rho (up, down):  1.797E-02 0.000E+00

     %%%%%%%%%%%%%%%%%%%%%%%%%%%%%%%%%%%%%%%%%%%%%%%%%%%%%%%%%%%%%%%%%%%%%%%%
     %                                                                      %
     % You are using vdW-DF, which was implemented by the Thonhauser group. %
     % Please cite the following two papers that made this development      %
     % possible and the two reviews that describe the various versions:     %
     %                                                                      %
     %   T. Thonhauser et al., PRL 115, 136402 (2015).                      %
     %   T. Thonhauser et al., PRB 76, 125112 (2007).                       %
     %   K. Berland et al., Rep. Prog. Phys. 78, 066501 (2015).             %
     %   D.C. Langreth et al., J. Phys.: Condens. Matter 21, 084203 (2009). %
     %                                                                      %
     %                                                                      %
     % If you are calculating the stress with vdW-DF, please also cite:     %
     %                                                                      %
     %   R. Sabatini et al., J. Phys.: Condens. Matter 24, 424209 (2012).   %
     %                                                                      %
     %%%%%%%%%%%%%%%%%%%%%%%%%%%%%%%%%%%%%%%%%%%%%%%%%%%%%%%%%%%%%%%%%%%%%%%%

     Adding external electric field

     Computed dipole along edir(3) :
        Dipole              -10.6951 Ry au,        -27.1842 Debye
        Dipole field         -0.0202 Ry au,

        Potential amp.        1.8709 Ry
        Total length         46.3494 bohr

     Starting wfcs are  304 atomic wfcs
  @ DRIVER MODE: Message from server: STATUS
  @ DRIVER MODE: Message from server: POSDATA
  @ DRIVER MODE: Reading and sharing cell
  @ DRIVER MODE: Reading and sharing positions
  @ DRIVER MODE: Received positions

     Self-consistent Calculation

     iteration #  1     ecut=    29.40 Ry     beta= 0.05
     Davidson diagonalization with overlap
     c_bands:  2 eigenvalues not converged
     c_bands:  4 eigenvalues not converged
     c_bands:  4 eigenvalues not converged
     c_bands:  3 eigenvalues not converged
     c_bands:  3 eigenvalues not converged
     c_bands:  3 eigenvalues not converged
     c_bands:  2 eigenvalues not converged
     c_bands:  4 eigenvalues not converged
     c_bands:  4 eigenvalues not converged
     ethr =  1.00E-05,  avg # of iterations = 21.7

[...]

     total energy              =   -2415.24293113 Ry
     estimated scf accuracy    <    6217.15157288 Ry

     iteration #  2     ecut=    29.40 Ry     beta= 0.05
     Davidson diagonalization with overlap
     ethr =  1.00E-02,  avg # of iterations = 25.6

[...]

     iteration # 34     ecut=    29.40 Ry     beta= 0.05
     Davidson diagonalization with overlap
     c_bands:  1 eigenvalues not converged
     ethr =  4.68E-07,  avg # of iterations =  9.2

[...]

     total energy              =   -2972.68743937 Ry
     estimated scf accuracy    <       0.00000010 Ry

     iteration # 61     ecut=    29.40 Ry     beta= 0.05
     Davidson diagonalization with overlap
     ethr =  2.58E-11,  avg # of iterations =  5.1

     negative rho (up, down):  1.822E-02 0.000E+00

     Adding external electric field

     Computed dipole along edir(3) :
        Dipole                0.6939 Ry au,          1.7637 Debye
        Dipole field          0.0013 Ry au,

        Potential amp.       -0.1214 Ry
        Total length         46.3494 bohr

     End of self-consistent calculation

          k = 0.0000 0.0000 0.0000 ( 18029 PWs)   bands (ev):

   -56.6073 -56.5738 -55.7188 -55.6850 -55.4153 -55.3714 -55.1438 -55.1099
   -54.9717 -54.9633 -54.9327 -54.8934 -54.8135 -54.7849 -54.7821 -54.7099
   -33.0256 -32.8796 -32.8516 -32.7855 -32.6953 -32.6527 -32.2074 -31.9413
   -31.9034 -31.9019 -31.8656 -31.8542 -31.8291 -31.6443 -31.6349 -31.6074
   -31.5725 -31.5280 -31.5151 -31.4921 -31.4676 -31.4673 -31.4489 -31.3791
   -31.3464 -31.2879 -31.2756 -31.2671 -31.2327 -31.2287 -31.1778 -31.1647
   -31.1555 -31.1134 -31.1083 -31.0950 -31.0689 -31.0623 -31.0609 -31.0237
   -31.0087 -31.0054 -30.9978 -30.9862 -30.9432 -30.9214 -30.9172 -30.9027
   -18.0624 -16.7076 -16.1538 -15.9200 -15.7973 -15.7792 -15.7702 -15.7538
   -15.5612 -15.5108 -15.4077 -15.3296 -15.3064 -15.0734 -15.0480 -14.9761
   -14.8441 -14.8091 -14.7253 -14.6996 -14.6897 -14.6093 -14.5947 -14.5093
   -14.4593 -14.4419 -14.3540 -14.2460 -14.1922 -14.0809 -14.0366 -13.6414
   -13.5349 -12.9611  -8.2564  -6.7725  -4.2815  -3.8371  -3.6191  -3.4611
    -3.3003  -3.2671  -3.1183  -3.0877  -3.0425  -3.0120  -2.9537  -2.9376
    -2.8649  -2.8449  -2.7435  -2.7078  -2.6591  -2.6402  -2.4096  -2.3514
    -2.3152  -2.3133  -2.2093  -2.1338  -2.1112  -2.1066  -2.0374  -1.9672
    -1.9090  -1.8634  -1.8458  -1.8246  -1.8008  -1.7010  -1.6158  -1.6035
    -1.5974  -1.5539  -1.4422  -1.4147  -1.3929  -1.3315  -1.2670  -1.2034
    -1.1743  -1.1517  -1.0527  -1.0415  -0.9392  -0.9114  -0.8759  -0.8208
    -0.7419  -0.7153  -0.5957  -0.5851  -0.4778  -0.4708  -0.4436  -0.4377
    -0.3380  -0.2579  -0.2039  -0.1517  -0.1275  -0.1064  -0.0478  -0.0411
    -0.0043   0.0317   0.1075   0.2000   0.2625   0.2980   0.3412   0.4960
     0.5374   0.5676   0.5815   0.6701   0.7139   0.7357   0.7690   0.8469
     0.8743   0.8772   0.9762   1.0143   1.0540   1.0781   1.1373   1.1741
     1.2026   1.3799   1.4119   1.4331   1.4540   1.5297   1.7626   1.8009
     1.9336   2.6874   2.8608   3.1303   3.2867   3.6529   3.6730   3.6915
     3.6926   3.9709   4.1410

[...]

          k = 0.0380-0.0419 0.0000 ( 17876 PWs)   bands (ev):

[...]

          k =-0.0760-0.0000 0.0000 ( 17886 PWs)   bands (ev):

[...]

          k =-0.0760-0.0839 0.0000 ( 17948 PWs)   bands (ev):

   -56.5907 -56.5902 -55.7035 -55.7001 -55.4072 -55.3793 -55.1268 -55.1268
   -54.9699 -54.9589 -54.9310 -54.8977 -54.8108 -54.7856 -54.7845 -54.7125
   -32.8656 -32.8652 -32.8433 -32.8423 -32.7390 -32.7390 -32.0301 -32.0259
   -31.9009 -31.8930 -31.8774 -31.8764 -31.7201 -31.6987 -31.6321 -31.6242
   -31.6059 -31.6008 -31.4807 -31.4807 -31.3855 -31.3460 -31.3456 -31.3074
   -31.3069 -31.2914 -31.2707 -31.2460 -31.2227 -31.2082 -31.1953 -31.1891
   -31.1726 -31.1469 -31.1444 -31.1330 -31.1189 -31.1002 -31.0788 -31.0622
   -31.0500 -31.0404 -31.0258 -31.0149 -31.0093 -30.9616 -30.9223 -30.9101
   -18.0574 -16.0723 -16.0693 -16.0176 -16.0169 -15.7697 -15.7623 -15.7024
   -15.4591 -15.4538 -15.2662 -15.1536 -15.1314 -15.0733 -15.0693 -14.9369
   -14.9170 -14.8988 -14.8109 -14.7607 -14.7275 -14.7057 -14.6416 -14.5724
   -14.4615 -14.4436 -14.4299 -14.3941 -14.3385 -14.2446 -14.2065 -13.6398
   -13.6389 -12.9818  -8.2482  -6.6916  -3.9891  -3.2950  -3.1359  -3.1349
    -3.1342  -3.1129  -2.9096  -2.8938  -2.8853  -2.7148  -2.6213  -2.6157
    -2.6118  -2.4747  -2.4426  -2.4298  -2.4175  -2.3997  -2.3282  -2.3138
    -2.3098  -2.2747  -2.2520  -2.0977  -2.0895  -2.0404  -1.9721  -1.9629
    -1.9404  -1.9066  -1.8419  -1.8042  -1.7993  -1.7820  -1.7644  -1.7441
    -1.6990  -1.6476  -1.4477  -1.4005  -1.3839  -1.3642  -1.3192  -1.3103
    -1.2912  -1.2331  -1.1955  -1.1862  -1.1611  -1.1336  -1.0608  -1.0409
    -0.9955  -0.8632  -0.8150  -0.7871  -0.7513  -0.6583  -0.6186  -0.5900
    -0.5570  -0.4700  -0.4130  -0.3801  -0.3023  -0.2646  -0.2191  -0.1936
    -0.1702  -0.1248  -0.1046   0.0021   0.0581   0.0897   0.1126   0.1980
     0.3275   0.3436   0.3974   0.4460   0.5385   0.5774   0.6551   0.6975
     0.7800   0.8582   0.9286   1.0791   1.1149   1.1706   1.2369   1.2540
     1.2557   1.2846   1.2956   1.3392   1.3608   1.4450   1.5201   1.6792
     1.7001   3.2823   3.2837   3.3414   3.3449   3.6502   3.6564   3.7591
     3.7662   4.0773   4.1274

     the Fermi energy is     2.3646 ev

!    total energy              =   -2972.68748245 Ry
     estimated scf accuracy    <       0.00000005 Ry
     smearing contrib. (-TS)   =      -0.00152228 Ry
     internal energy E=F+TS    =   -2972.68596017 Ry

     The total energy is F=E-TS. E is the sum of the following terms:
     one-electron contribution =  -24519.57320968 Ry
     hartree contribution      =   12356.08197780 Ry
     xc contribution           =    -493.19129023 Ry
     ewald contribution        =    9683.99565327 Ry
     electric field correction =       0.00090866 Ry

     convergence has been achieved in  61 iterations

     Forces acting on atoms (cartesian axes, Ry/au):

     atom    1 type  1   force =     0.00015498   -0.00060961    0.12521042
     atom    2 type  1   force =     0.00002728    0.00002852   -0.15411986
     atom    3 type  2   force =    -0.00003060   -0.00028170   -0.06549773
     atom    4 type  2   force =    -0.00011452    0.00074228    0.01449096
     atom    5 type  2   force =     0.00023562   -0.00325597   -0.01522308
     atom    6 type  2   force =     0.00027693   -0.00241963   -0.01818507
     atom    7 type  1   force =    -0.00129893   -0.00081665    0.06317163
     atom    8 type  1   force =     0.00165053    0.01846541    0.09182684
     atom    9 type  2   force =     0.00018193   -0.00020045   -0.00009385
     atom   10 type  2   force =    -0.00307720    0.00126147   -0.06786541
     atom   11 type  2   force =    -0.00036084   -0.00020718   -0.00022160
     atom   12 type  2   force =    -0.00028294    0.00043084    0.00014993
     atom   13 type  1   force =     0.00102299    0.00024138   -0.00002796
     atom   14 type  1   force =    -0.00051469    0.00061326   -0.00056409
     atom   15 type  2   force =    -0.00003637    0.00063757    0.00015528
     atom   16 type  2   force =     0.00007807    0.00019335   -0.00020137
     atom   17 type  2   force =    -0.00030701    0.00020872   -0.00013302
     atom   18 type  2   force =     0.00086156   -0.00058418    0.00008289
     atom   19 type  1   force =    -0.00036182   -0.00022784   -0.00020004
     atom   20 type  1   force =     0.00062156   -0.00037605   -0.00024090
     atom   21 type  2   force =     0.00008033    0.00004856    0.09748087
     atom   22 type  2   force =    -0.00021817    0.00026188    0.00044844
     atom   23 type  2   force =    -0.08326561    0.00001082   -0.03310903
     atom   24 type  2   force =     0.08317799    0.00045491   -0.03313022
     atom   25 type  1   force =     0.00015028   -0.00036768    0.12543103
     atom   26 type  1   force =    -0.00001937   -0.00122655   -0.15379710
     atom   27 type  2   force =    -0.00002250   -0.00014715   -0.06358481
     atom   28 type  2   force =     0.00000240    0.00071120    0.01024643
     atom   29 type  2   force =    -0.00227780    0.00250837   -0.01351571
     atom   30 type  2   force =     0.00266484    0.00282491   -0.01639725
     atom   31 type  1   force =    -0.00126529   -0.00142522    0.06109926
     atom   32 type  1   force =     0.00158092   -0.01943010    0.09387963
     atom   33 type  2   force =     0.00026097    0.00000472   -0.00021222
     atom   34 type  2   force =    -0.00076066    0.00124397   -0.07928902
     atom   35 type  2   force =     0.00028623   -0.00003119    0.00008529
     atom   36 type  2   force =    -0.00052887    0.00015967    0.00040142
     atom   37 type  1   force =     0.00094595    0.00012191    0.00036618
     atom   38 type  1   force =    -0.00055834   -0.00028450   -0.00004249
     atom   39 type  2   force =     0.00033942    0.00013040   -0.00002751
     atom   40 type  2   force =    -0.00015037    0.00011782    0.00042984
     atom   41 type  2   force =    -0.00023790   -0.00006044   -0.00042652
     atom   42 type  2   force =     0.00051451   -0.00021126    0.00021475
     atom   43 type  1   force =    -0.00100333   -0.00043990   -0.00052026
     atom   44 type  1   force =     0.00033452    0.00082436   -0.00019072
     atom   45 type  2   force =     0.00007373    0.00006149    0.09733637
     atom   46 type  2   force =    -0.08320701   -0.00003684   -0.03309495
     atom   47 type  2   force =     0.08315438    0.00037917   -0.03310034
     atom   48 type  3   force =     0.00001137   -0.00126983    0.00148215
     atom   49 type  3   force =     0.00050183   -0.00006691    0.00044777
     atom   50 type  4   force =     0.00036571    0.00023117    0.00011450
     atom   51 type  5   force =    -0.00021787   -0.00055695   -0.00037535
     atom   52 type  5   force =     0.00051151    0.00058080   -0.00192571
     atom   53 type  5   force =    -0.00029140   -0.00022593    0.00029761
     atom   54 type  2   force =     0.00007770    0.00049177    0.00057970
     atom   55 type  5   force =     0.00026336    0.00076898   -0.00011599

     Total force =     0.419766     Total SCF correction =     0.000461
  @ DRIVER MODE: Message from server: STATUS
  @ DRIVER MODE: Message from server: GETFORCE
  @ DRIVER MODE: Returning v,forces,stress,ensemble

     Writing output data file ./calc.save/
  @ DRIVER MODE: Message from server: EXIT
  @ DRIVE MODE: Exiting

     General routines

     Parallel routines

   This run was terminated on:   1:16:52  23Sep2021

   JOB DONE.