     Program PWSCF v.6.7GPU starts on  8Sep2021 at 22:55:12

     R & G space division:  proc/nbgrp/npool/nimage =      10
     Reading input from /storage/home/hcoda1/3/ntian30/research/carbon/CxH_vib/CH_calc/ads_slab/CHOH_a/out_0003/pw.inp
Warning: card &CELL ignored
Warning: card   CELL_DYNAMICS='IPI', ignored
Warning: card / ignored

     Current dimensions of program PWSCF are:
     Max number of different atomic species (ntypx) = 10
     Max number of k-points (npk) =  40000
     Max angular momentum in pseudopotentials (lmaxx) =  3
     Presently no symmetry can be used with electric field

     Message from routine cell_base_init:
     DEPRECATED: use true lattice parameter, not A to a.u. conversion factor

     IMPORTANT: XC functional enforced from input :
     Exchange-correlation= BEEF-VDW
                           (   1   4  43  14   2   0   0)
     Any further DFT definition will be discarded
     Please, verify this is what you really want

  @ DRIVER MODE: Connecting to
 qe_1139763_2767384.sched-torque.pace.gatech.eduv5zmytr0_scratch
  using UNIX socket
  @ DRIVER MODE: Message from server: STATUS
  @ DRIVER MODE: Message from server: INIT
  @ DRIVER MODE: Receiving replica           0          -1
  @ DRIVER MODE: Receiving encoded integer          25
  @ DRIVER MODE:  SCF:  T  FORCE:  T  STRESS:  F  VC:  F  ENSEMBLE:  F
  @ DRIVER MODE:  SCF:  T  FORCE:  T  STRESS:  F  VC:  F  ENSEMBLE:  F

     Using Slab Decomposition

     bravais-lattice index     =            0
     lattice parameter (alat)  =       1.8897  a.u.
     unit-cell volume          =    6658.9804 (a.u.)^3
     number of atoms/cell      =           51
     number of atomic types    =            4
     number of electrons       =       390.00
     number of Kohn-Sham states=          205
     kinetic-energy cutoff     =      29.3995  Ry
     charge density cutoff     =     293.9946  Ry
     scf convergence threshold =      7.3E-08
     mixing beta               =       0.0500
     number of iterations used =            8  plain     mixing
     Exchange-correlation= BEEF-VDW
                           (   1   4  43  14   2   0   0)

     celldm(1)=   1.889726  celldm(2)=   0.000000  celldm(3)=   0.000000
     celldm(4)=   0.000000  celldm(5)=   0.000000  celldm(6)=   0.000000

     crystal axes: (cart. coord. in units of alat)
               a(1) = (   6.579727   0.000000   0.000000 )
               a(2) = (  -0.000775   5.961596   0.000000 )
               a(3) = (   0.000000   0.000000  25.155947 )

     reciprocal axes: (cart. coord. in units 2 pi/alat)
               b(1) = (  0.151982  0.000020  0.000000 )
               b(2) = (  0.000000  0.167740  0.000000 )
               b(3) = (  0.000000  0.000000  0.039752 )

     PseudoPot. # 1 for Ti read from file:
     /storage/coda1/p-amedford6/0/shared/rich_project_chbe-medford/medford-share/data/pseudos_module/espresso/nninc/pbe/van/Ti.UPF
     MD5 check sum: 8e4df49b7f0d34bbd5052bf3f5ea0213
     Pseudo is Ultrasoft, Zval = 12.0
     Generated by new atomic code, or converted to UPF format
     Using radial grid of  851 points,  6 beta functions with:
                l(1) =   0
                l(2) =   0
                l(3) =   1
                l(4) =   1
                l(5) =   2
                l(6) =   2
     Q(r) pseudized with  8 coefficients,  rinner =    1.000   1.000   1.000
                                                       1.000   1.000

     PseudoPot. # 2 for O  read from file:
     /storage/coda1/p-amedford6/0/shared/rich_project_chbe-medford/medford-share/data/pseudos_module/espresso/nninc/pbe/van/O.UPF
     MD5 check sum: 78c19812648e8988a0fe644b0f25305e
     Pseudo is Ultrasoft, Zval =  6.0
     Generated by new atomic code, or converted to UPF format
     Using radial grid of  737 points,  4 beta functions with:
                l(1) =   0
                l(2) =   0
                l(3) =   1
                l(4) =   1
     Q(r) pseudized with  8 coefficients,  rinner =    0.800   0.800   0.800

     PseudoPot. # 3 for C  read from file:
     /storage/coda1/p-amedford6/0/shared/rich_project_chbe-medford/medford-share/data/pseudos_module/espresso/nninc/pbe/van/C.UPF
     MD5 check sum: 1a69bf6b8db32088f5b2163dbdb77a27
     Pseudo is Ultrasoft, Zval =  4.0
     Generated by new atomic code, or converted to UPF format
     Using radial grid of  721 points,  4 beta functions with:
                l(1) =   0
                l(2) =   0
                l(3) =   1
                l(4) =   1
     Q(r) pseudized with  8 coefficients,  rinner =    0.800   0.800   0.800

     PseudoPot. # 4 for H  read from file:
     /storage/coda1/p-amedford6/0/shared/rich_project_chbe-medford/medford-share/data/pseudos_module/espresso/nninc/pbe/van/H.UPF
     MD5 check sum: b5ee9d7bfd3a09ee7748110bda690ff7
     Pseudo is Ultrasoft, Zval =  1.0
     Generated by new atomic code, or converted to UPF format
     Using radial grid of  615 points,  1 beta functions with:
                l(1) =   0
     Q(r) pseudized with  8 coefficients,  rinner =    0.800

     atomic species   valence    mass     pseudopotential
        Ti1           12.00    47.86700     Ti( 1.00)
        O1             6.00    15.99900     O ( 1.00)
        C1             4.00    12.01100     C ( 1.00)
        H1             1.00     1.00800     H ( 1.00)

     No symmetry found

   Cartesian axes

     site n.     atom                  positions (alat units)
         1           Ti1 tau(   1) = (   0.0004258   2.9801865   6.0000000  )
         2           Ti1 tau(   2) = (   3.2906075   1.4906267   6.0002472  )
         3           O1  tau(   3) = (   0.0006271   0.0005054   7.9858123  )
         4           O1  tau(   4) = (   3.2906025   0.0005020   7.3038282  )
         5           O1  tau(   5) = (   4.5942328   1.4918067   9.2879030  )
         6           O1  tau(   6) = (   1.9868534   1.4903216   9.2879459  )
         7           Ti1 tau(   7) = (   3.3189338   3.0017716   9.1565052  )
         8           Ti1 tau(   8) = (   0.0346667   1.4969860   9.2640968  )
         9           O1  tau(   9) = (   3.3073125   0.0088267  11.3792119  )
        10           O1  tau(  10) = (   0.0062670   0.0029933  10.6068016  )
        11           O1  tau(  11) = (   1.3062705   1.5014067  12.6543524  )
        12           O1  tau(  12) = (   5.3087205   1.4988994  12.6673500  )
        13           Ti1 tau(  13) = (   0.0213988   2.9921491  12.5260324  )
        14           Ti1 tau(  14) = (   3.3097092   1.5009918  12.5223738  )
        15           O1  tau(  15) = (   0.0424616   0.0075488  14.6717754  )
        16           O1  tau(  16) = (   3.3005110   0.0073529  14.0105724  )
        17           O1  tau(  17) = (   4.5952227   1.5195780  16.1612446  )
        18           O1  tau(  18) = (   2.0693493   1.5297702  16.1935428  )
        19           Ti1 tau(  19) = (   3.3356741   2.9939547  15.7500326  )
        20           Ti1 tau(  20) = (   0.0335386   1.3679084  15.9371528  )
        21           O1  tau(  21) = (   3.2904802   0.0005063   4.7018136  )
        22           O1  tau(  22) = (   0.0353059   0.0153350  17.1923242  )
        23           O1  tau(  23) = (   1.3043587   1.4918075   6.0039043  )
        24           O1  tau(  24) = (   5.2767064   1.4903225   6.0039473  )
        25           Ti1 tau(  25) = (   0.0000382   5.9609847   6.0000000  )
        26           Ti1 tau(  26) = (   3.2902200   4.4714249   6.0002472  )
        27           O1  tau(  27) = (   0.0002396   2.9813036   7.9858123  )
        28           O1  tau(  28) = (   3.2902150   2.9813002   7.3038282  )
        29           O1  tau(  29) = (   4.5938453   4.4726049   9.2879030  )
        30           O1  tau(  30) = (   1.9864658   4.4711199   9.2879459  )
        31           Ti1 tau(  31) = (   3.3154861   0.0215470   9.1550440  )
        32           Ti1 tau(  32) = (   0.0344056   4.4691587   9.2644328  )
        33           O1  tau(  33) = (   3.3078462   2.9871797  11.3713074  )
        34           O1  tau(  34) = (   0.0058747   2.9832696  10.6292865  )
        35           O1  tau(  35) = (   1.3058732   4.4754499  12.6504552  )
        36           O1  tau(  36) = (   5.3084772   4.4777640  12.6640448  )
        37           Ti1 tau(  37) = (   0.0171148   0.0128214  12.4806662  )
        38           Ti1 tau(  38) = (   3.3088916   4.4784539  12.5193958  )
        39           O1  tau(  39) = (   0.0434956   2.9958159  14.9132474  )
        40           O1  tau(  40) = (   3.3089563   2.9921379  13.9620076  )
        41           O1  tau(  41) = (   4.5951427   4.4669482  16.1652122  )
        42           O1  tau(  42) = (   2.0688924   4.4538916  16.2081353  )
        43           Ti1 tau(  43) = (   3.3160161   0.0142155  15.8078792  )
        44           Ti1 tau(  44) = (   0.0219142   4.6036306  15.9252304  )
        45           O1  tau(  45) = (   3.2900926   2.9813045   4.7018136  )
        46           O1  tau(  46) = (   1.3039711   4.4726057   6.0039043  )
        47           O1  tau(  47) = (   5.2763189   4.4711207   6.0039473  )
        48           C1  tau(  48) = (   6.0523360   2.9366228  19.1488008  )
        49           O1  tau(  49) = (   0.1918362   3.0047394  18.0201065  )
        50           H1  tau(  50) = (   5.0152694   2.8496317  18.7632286  )
        51           H1  tau(  51) = (   1.1393832   3.0938607  18.2382470  )

     number of k points=    10  Fermi-Dirac smearing, width (Ry)=  0.0073
                       cart. coord. in units 2pi/alat
        k(    1) = (   0.0000000   0.0000000   0.0000000), wk =   0.1250000
        k(    2) = (   0.0000000   0.0419351   0.0000000), wk =   0.2500000
        k(    3) = (   0.0000000  -0.0838702   0.0000000), wk =   0.1250000
        k(    4) = (   0.0379955   0.0000049   0.0000000), wk =   0.2500000
        k(    5) = (   0.0379955   0.0419400   0.0000000), wk =   0.2500000
        k(    6) = (   0.0379955  -0.0838652   0.0000000), wk =   0.2500000
        k(    7) = (   0.0379955  -0.0419301   0.0000000), wk =   0.2500000
        k(    8) = (  -0.0759910  -0.0000099   0.0000000), wk =   0.1250000
        k(    9) = (  -0.0759910   0.0419252   0.0000000), wk =   0.2500000
        k(   10) = (  -0.0759910  -0.0838800   0.0000000), wk =   0.1250000

     Initial potential from superposition of free atoms

     starting charge  373.99919, renormalised to  390.00000

     negative rho (up, down):  1.784E-02 0.000E+00

     %%%%%%%%%%%%%%%%%%%%%%%%%%%%%%%%%%%%%%%%%%%%%%%%%%%%%%%%%%%%%%%%%%%%%%%%
     %                                                                      %
     % You are using vdW-DF, which was implemented by the Thonhauser group. %
     % Please cite the following two papers that made this development      %
     % possible and the two reviews that describe the various versions:     %
     %                                                                      %
     %   T. Thonhauser et al., PRL 115, 136402 (2015).                      %
     %   T. Thonhauser et al., PRB 76, 125112 (2007).                       %
     %   K. Berland et al., Rep. Prog. Phys. 78, 066501 (2015).             %
     %   D.C. Langreth et al., J. Phys.: Condens. Matter 21, 084203 (2009). %
     %                                                                      %
     %                                                                      %
     % If you are calculating the stress with vdW-DF, please also cite:     %
     %                                                                      %
     %   R. Sabatini et al., J. Phys.: Condens. Matter 24, 424209 (2012).   %
     %                                                                      %
     %%%%%%%%%%%%%%%%%%%%%%%%%%%%%%%%%%%%%%%%%%%%%%%%%%%%%%%%%%%%%%%%%%%%%%%%

     Adding external electric field

     Computed dipole along edir(3) :
        Dipole               -6.1554 Ry au,        -15.6454 Debye
        Dipole field         -0.0116 Ry au,

        Potential amp.        1.0768 Ry
        Total length         46.3494 bohr

     Starting wfcs are  294 atomic wfcs
  @ DRIVER MODE: Message from server: STATUS
  @ DRIVER MODE: Message from server: POSDATA
  @ DRIVER MODE: Reading and sharing cell
  @ DRIVER MODE: Reading and sharing positions
  @ DRIVER MODE: Received positions

     Self-consistent Calculation

     iteration #  1     ecut=    29.40 Ry     beta= 0.05
     Davidson diagonalization with overlap
     c_bands:  1 eigenvalues not converged
     c_bands:  1 eigenvalues not converged
     c_bands:  1 eigenvalues not converged
     ethr =  1.00E-05,  avg # of iterations = 16.7

[...]

     total energy              =   -2756.81105568 Ry
     estimated scf accuracy    <    1910.51392670 Ry

     iteration #  2     ecut=    29.40 Ry     beta= 0.05
     Davidson diagonalization with overlap
     ethr =  1.00E-02,  avg # of iterations = 19.1

[...]

     iteration # 77     ecut=    29.40 Ry     beta= 0.05
     Davidson diagonalization with overlap
     c_bands:  1 eigenvalues not converged
     ethr =  2.09E-08,  avg # of iterations = 15.4

[...]

     total energy              =   -2929.94106035 Ry
     estimated scf accuracy    <       0.00000011 Ry

     iteration # 92     ecut=    29.40 Ry     beta= 0.05
     Davidson diagonalization with overlap
     ethr =  2.72E-11,  avg # of iterations = 10.8

     negative rho (up, down):  1.676E-02 0.000E+00

     Adding external electric field

     Computed dipole along edir(3) :
        Dipole                0.3840 Ry au,          0.9760 Debye
        Dipole field          0.0007 Ry au,

        Potential amp.       -0.0672 Ry
        Total length         46.3494 bohr

     End of self-consistent calculation

          k = 0.0000 0.0000 0.0000 ( 18029 PWs)   bands (ev):

   -56.0184 -55.9823 -55.9810 -55.9467 -55.9098 -55.8991 -55.8647 -55.8582
   -55.8552 -55.8208 -55.8072 -55.8062 -55.8001 -55.7663 -55.0781 -55.0440
   -32.5875 -32.5157 -32.4785 -32.3842 -32.3344 -32.3309 -32.3204 -32.3111
   -32.2703 -32.2642 -32.2270 -32.2250 -32.2166 -32.1930 -32.1871 -32.1716
   -32.1545 -32.1536 -32.1456 -32.1358 -32.1318 -32.1253 -32.1118 -32.1079
   -32.0993 -32.0835 -32.0763 -32.0375 -32.0325 -32.0247 -32.0212 -32.0085
   -32.0041 -31.9994 -31.9951 -31.9857 -31.9720 -31.9546 -31.9372 -31.9344
   -31.9128 -31.8840 -31.4905 -31.3874 -31.3659 -31.3068 -31.2204 -31.1093
   -21.6021 -16.8506 -16.5994 -16.4625 -16.3580 -16.2397 -16.1227 -16.0605
   -15.9623 -15.8568 -15.7429 -15.6952 -15.6715 -15.6697 -15.6500 -15.6407
   -15.6331 -15.5742 -15.5467 -15.5246 -15.5104 -15.5084 -15.4629 -15.4426
   -15.4095 -15.3748 -15.2500 -15.1796 -15.1217 -14.7884 -13.5789 -13.4594
   -10.7297  -5.9887  -5.0494  -4.3288  -4.1786  -4.0287  -3.9531  -3.9433
    -3.8969  -3.7795  -3.6041  -3.4489  -3.4415  -3.3145  -3.2712  -3.2251
    -3.1824  -3.0536  -2.9993  -2.9867  -2.9123  -2.9080  -2.8936  -2.8831
    -2.7961  -2.7849  -2.7675  -2.7552  -2.6478  -2.6064  -2.4866  -2.4541
    -2.4070  -2.3670  -2.3587  -2.3448  -2.3397  -2.2955  -2.2836  -2.2599
    -2.2054  -2.1487  -2.0533  -1.9229  -1.9140  -1.7963  -1.7632  -1.5972
    -1.5820  -1.5452  -1.5193  -1.4689  -1.4250  -1.4188  -1.3748  -1.2701
    -1.1911  -1.1392  -1.0624  -1.0270  -0.9592  -0.9189  -0.8437  -0.8117
    -0.8077  -0.7782  -0.6805  -0.6112  -0.5513  -0.5107  -0.4930  -0.4692
    -0.3850  -0.3588  -0.2626  -0.2500  -0.2099  -0.2010  -0.0893  -0.0810
    -0.0738  -0.0568  -0.0488   0.0390   0.1132   0.1269   0.1548   0.3097
     0.5267   0.5383   0.5784   0.8343   0.9223   0.9478   1.1070   1.2849
     1.5338   1.5882   3.0780   3.1457   3.1837   3.2055   3.2286   3.2864
     3.5682   3.5833   3.5900   3.6065   3.6332

[...]

          k = 0.0380-0.0419 0.0000 ( 17876 PWs)   bands (ev):

[...]

          k =-0.0760-0.0000 0.0000 ( 17886 PWs)   bands (ev):

[...]

          k =-0.0760-0.0839 0.0000 ( 17948 PWs)   bands (ev):

   -56.0014 -55.9991 -55.9650 -55.9626 -55.9067 -55.8898 -55.8675 -55.8580
   -55.8397 -55.8359 -55.8138 -55.8090 -55.7838 -55.7827 -55.0610 -55.0610
   -32.4406 -32.3921 -32.3892 -32.3074 -32.2946 -32.2922 -32.2737 -32.2580
   -32.2532 -32.2286 -32.2195 -32.2168 -32.2091 -32.1674 -32.1568 -32.1560
   -32.1543 -32.1501 -32.1455 -32.1430 -32.1380 -32.1306 -32.1111 -32.0998
   -32.0996 -32.0980 -32.0935 -32.0900 -32.0858 -32.0837 -32.0821 -32.0587
   -32.0381 -32.0378 -32.0364 -32.0197 -32.0109 -32.0098 -32.0002 -31.9779
   -31.9692 -31.9683 -31.3785 -31.3784 -31.3032 -31.3030 -31.2636 -31.2636
   -21.6013 -16.4707 -16.2553 -16.1928 -16.0383 -16.0336 -16.0032 -15.9754
   -15.8460 -15.8234 -15.8097 -15.7896 -15.7653 -15.7481 -15.7409 -15.7256
   -15.6201 -15.6130 -15.6023 -15.5962 -15.5369 -15.5334 -15.5234 -15.5103
   -15.4776 -15.4749 -15.4477 -15.4443 -15.2972 -15.1595 -13.5606 -13.5601
   -10.7329  -5.9914  -5.0265  -4.2783  -3.5319  -3.5303  -3.4517  -3.2576
    -3.2197  -3.1857  -3.1737  -3.0982  -3.0228  -3.0151  -3.0082  -2.9260
    -2.9195  -2.9166  -2.9144  -2.8524  -2.8457  -2.8086  -2.8040  -2.7540
    -2.7236  -2.7186  -2.7096  -2.6861  -2.6832  -2.6677  -2.6494  -2.6293
    -2.6169  -2.5340  -2.4888  -2.3888  -2.3573  -2.3261  -2.2498  -2.2408
    -2.1570  -2.1275  -2.1071  -2.0691  -2.0242  -2.0075  -1.8482  -1.8151
    -1.8104  -1.7477  -1.6779  -1.6534  -1.6223  -1.5668  -1.5035  -1.4946
    -1.4055  -1.3497  -1.3464  -1.2218  -1.2114  -1.1594  -1.0531  -1.0211
    -1.0126  -1.0088  -1.0001  -0.9371  -0.9262  -0.8615  -0.8116  -0.7638
    -0.7461  -0.7336  -0.5382  -0.4967  -0.4423  -0.3418  -0.3016  -0.1102
    -0.0959  -0.0813   0.0019   0.0395   0.0550   0.1280   0.2479   0.2524
     0.3044   0.3604   0.4029   0.4101   0.4271   1.2935   1.2987   1.2996
     1.4037   1.4056   3.2376   3.2954   3.3229   3.4006   3.4757   3.4994
     3.5868   3.6050   3.6330   3.6379   3.7146

     the Fermi energy is     3.1373 ev

!    total energy              =   -2929.94106325 Ry
     estimated scf accuracy    <       0.00000007 Ry
     smearing contrib. (-TS)   =      -0.03724626 Ry
     internal energy E=F+TS    =   -2929.90381700 Ry

     The total energy is F=E-TS. E is the sum of the following terms:
     one-electron contribution =  -24334.63064216 Ry
     hartree contribution      =   12249.92004577 Ry
     xc contribution           =    -481.17986138 Ry
     ewald contribution        =    9635.98636255 Ry
     electric field correction =       0.00027823 Ry

     convergence has been achieved in  92 iterations

     Forces acting on atoms (cartesian axes, Ry/au):

     atom    1 type  1   force =    -0.00040952   -0.00001499    0.09181743
     atom    2 type  1   force =    -0.00029455    0.00032494   -0.18373659
     atom    3 type  2   force =     0.00041033    0.00008636   -0.02347979
     atom    4 type  2   force =     0.00072285    0.00037442    0.05121251
     atom    5 type  2   force =    -0.01349698    0.00018982    0.00469046
     atom    6 type  2   force =     0.01514025   -0.00002530    0.00541678
     atom    7 type  1   force =    -0.00053926    0.00015865   -0.00021503
     atom    8 type  1   force =     0.00026136    0.00023327    0.00006378
     atom    9 type  2   force =     0.00004244   -0.00004056   -0.00016406
     atom   10 type  2   force =    -0.00021303    0.00005599    0.00039405
     atom   11 type  2   force =     0.00003608   -0.00014764   -0.00013877
     atom   12 type  2   force =     0.00011543   -0.00001515   -0.00008399
     atom   13 type  1   force =    -0.00023076    0.00084027   -0.00046047
     atom   14 type  1   force =     0.00016119    0.00000502    0.00014907
     atom   15 type  2   force =     0.00000902    0.00038286    0.00036137
     atom   16 type  2   force =    -0.00000533    0.00008922    0.00057102
     atom   17 type  2   force =    -0.00026006   -0.00026311    0.00014656
     atom   18 type  2   force =    -0.00031581   -0.00036638    0.00031775
     atom   19 type  1   force =    -0.00010000    0.00011723    0.00019836
     atom   20 type  1   force =    -0.00035788    0.00024923    0.00007945
     atom   21 type  2   force =    -0.00007988    0.00001054    0.10505955
     atom   22 type  2   force =    -0.00007184   -0.00032500   -0.00006711
     atom   23 type  2   force =    -0.06786783   -0.00014724   -0.02654208
     atom   24 type  2   force =     0.06758846    0.00029700   -0.02662436
     atom   25 type  1   force =    -0.00034859   -0.00000346    0.09416908
     atom   26 type  1   force =    -0.00028757   -0.00042335   -0.18375156
     atom   27 type  2   force =     0.00035895    0.00013123   -0.02228069
     atom   28 type  2   force =     0.00077670    0.00030291    0.05092589
     atom   29 type  2   force =    -0.01348818    0.00044168    0.00481557
     atom   30 type  2   force =     0.01515413    0.00023163    0.00552098
     atom   31 type  1   force =    -0.00060664   -0.00030682   -0.00029822
     atom   32 type  1   force =     0.00027426   -0.00011887    0.00004325
     atom   33 type  2   force =     0.00000656    0.00002742   -0.00005797
     atom   34 type  2   force =    -0.00007384   -0.00006573    0.00012605
     atom   35 type  2   force =     0.00008027    0.00008167    0.00010537
     atom   36 type  2   force =     0.00006793   -0.00005543    0.00013941
     atom   37 type  1   force =    -0.00024395   -0.00076666   -0.00021809
     atom   38 type  1   force =     0.00020865    0.00007399    0.00069082
     atom   39 type  2   force =    -0.00006338   -0.00065075    0.00046949
     atom   40 type  2   force =    -0.00037513   -0.00017688   -0.00014835
     atom   41 type  2   force =    -0.00016290    0.00011186   -0.00012557
     atom   42 type  2   force =    -0.00035787    0.00002438    0.00018324
     atom   43 type  1   force =     0.00012461   -0.00019315   -0.00040269
     atom   44 type  1   force =    -0.00046083   -0.00026479    0.00018021
     atom   45 type  2   force =    -0.00004641    0.00002253    0.10504500
     atom   46 type  2   force =    -0.06787970   -0.00050861   -0.02656218
     atom   47 type  2   force =     0.06759768   -0.00006169   -0.02664191
     atom   48 type  3   force =     0.00146456    0.00073850    0.00024143
     atom   49 type  2   force =    -0.00176774    0.00042645   -0.00060797
     atom   50 type  4   force =    -0.00099560   -0.00058123   -0.00118220
     atom   51 type  4   force =     0.00079933   -0.00050629    0.00065575

     Total force =     0.367813     Total SCF correction =     0.000411
  @ DRIVER MODE: Message from server: STATUS
  @ DRIVER MODE: Message from server: GETFORCE
  @ DRIVER MODE: Returning v,forces,stress,ensemble

     Writing output data file ./calc.save/
  @ DRIVER MODE: Message from server: EXIT
  @ DRIVE MODE: Exiting

     General routines

     Parallel routines

   This run was terminated on:  23:19:36   8Sep2021

   JOB DONE.