     Program PWSCF v.6.7GPU starts on 16Sep2021 at 10:50:35

     R & G space division:  proc/nbgrp/npool/nimage =      10
     Reading input from /storage/home/hcoda1/3/ntian30/research/carbon/CxH_vib/H2O_calc/ads_slab/CH2NNHHH2O_a/out_0057/pw.inp
Warning: card &CELL ignored
Warning: card   CELL_DYNAMICS='IPI', ignored
Warning: card / ignored

     Current dimensions of program PWSCF are:
     Max number of different atomic species (ntypx) = 10
     Max number of k-points (npk) =  40000
     Max angular momentum in pseudopotentials (lmaxx) =  3
     Presently no symmetry can be used with electric field

     Message from routine cell_base_init:
     DEPRECATED: use true lattice parameter, not A to a.u. conversion factor

     IMPORTANT: XC functional enforced from input :
     Exchange-correlation= BEEF-VDW
                           (   1   4  43  14   2   0   0)
     Any further DFT definition will be discarded
     Please, verify this is what you really want

  @ DRIVER MODE: Connecting to
 qe_1139763_2852611.sched-torque.pace.gatech.edu4fl894kt_scratch
  using UNIX socket
  @ DRIVER MODE: Message from server: STATUS
  @ DRIVER MODE: Message from server: INIT
  @ DRIVER MODE: Receiving replica           0          -1
  @ DRIVER MODE: Receiving encoded integer          25
  @ DRIVER MODE:  SCF:  T  FORCE:  T  STRESS:  F  VC:  F  ENSEMBLE:  F
  @ DRIVER MODE:  SCF:  T  FORCE:  T  STRESS:  F  VC:  F  ENSEMBLE:  F

     Using Slab Decomposition

     bravais-lattice index     =            0
     lattice parameter (alat)  =       1.8897  a.u.
     unit-cell volume          =    6658.9804 (a.u.)^3
     number of atoms/cell      =           57
     number of atomic types    =            5
     number of electrons       =       404.00
     number of Kohn-Sham states=          212
     kinetic-energy cutoff     =      29.3995  Ry
     charge density cutoff     =     293.9946  Ry
     scf convergence threshold =      7.3E-08
     mixing beta               =       0.0500
     number of iterations used =            8  plain     mixing
     Exchange-correlation= BEEF-VDW
                           (   1   4  43  14   2   0   0)

     celldm(1)=   1.889726  celldm(2)=   0.000000  celldm(3)=   0.000000
     celldm(4)=   0.000000  celldm(5)=   0.000000  celldm(6)=   0.000000

     crystal axes: (cart. coord. in units of alat)
               a(1) = (   6.579727   0.000000   0.000000 )
               a(2) = (  -0.000775   5.961596   0.000000 )
               a(3) = (   0.000000   0.000000  25.155947 )

     reciprocal axes: (cart. coord. in units 2 pi/alat)
               b(1) = (  0.151982  0.000020  0.000000 )
               b(2) = (  0.000000  0.167740  0.000000 )
               b(3) = (  0.000000  0.000000  0.039752 )

     PseudoPot. # 1 for Ti read from file:
     /storage/coda1/p-amedford6/0/shared/rich_project_chbe-medford/medford-share/data/pseudos_module/espresso/nninc/pbe/van/Ti.UPF
     MD5 check sum: 8e4df49b7f0d34bbd5052bf3f5ea0213
     Pseudo is Ultrasoft, Zval = 12.0
     Generated by new atomic code, or converted to UPF format
     Using radial grid of  851 points,  6 beta functions with:
                l(1) =   0
                l(2) =   0
                l(3) =   1
                l(4) =   1
                l(5) =   2
                l(6) =   2
     Q(r) pseudized with  8 coefficients,  rinner =    1.000   1.000   1.000
                                                       1.000   1.000

     PseudoPot. # 2 for O  read from file:
     /storage/coda1/p-amedford6/0/shared/rich_project_chbe-medford/medford-share/data/pseudos_module/espresso/nninc/pbe/van/O.UPF
     MD5 check sum: 78c19812648e8988a0fe644b0f25305e
     Pseudo is Ultrasoft, Zval =  6.0
     Generated by new atomic code, or converted to UPF format
     Using radial grid of  737 points,  4 beta functions with:
                l(1) =   0
                l(2) =   0
                l(3) =   1
                l(4) =   1
     Q(r) pseudized with  8 coefficients,  rinner =    0.800   0.800   0.800

     PseudoPot. # 3 for N  read from file:
     /storage/coda1/p-amedford6/0/shared/rich_project_chbe-medford/medford-share/data/pseudos_module/espresso/nninc/pbe/van/N.UPF
     MD5 check sum: 90d10febe142ad51ac9d5be1deb811c4
     Pseudo is Ultrasoft, Zval =  5.0
     Generated by new atomic code, or converted to UPF format
     Using radial grid of  729 points,  4 beta functions with:
                l(1) =   0
                l(2) =   0
                l(3) =   1
                l(4) =   1
     Q(r) pseudized with  8 coefficients,  rinner =    0.800   0.800   0.800

     PseudoPot. # 4 for C  read from file:
     /storage/coda1/p-amedford6/0/shared/rich_project_chbe-medford/medford-share/data/pseudos_module/espresso/nninc/pbe/van/C.UPF
     MD5 check sum: 1a69bf6b8db32088f5b2163dbdb77a27
     Pseudo is Ultrasoft, Zval =  4.0
     Generated by new atomic code, or converted to UPF format
     Using radial grid of  721 points,  4 beta functions with:
                l(1) =   0
                l(2) =   0
                l(3) =   1
                l(4) =   1
     Q(r) pseudized with  8 coefficients,  rinner =    0.800   0.800   0.800

     PseudoPot. # 5 for H  read from file:
     /storage/coda1/p-amedford6/0/shared/rich_project_chbe-medford/medford-share/data/pseudos_module/espresso/nninc/pbe/van/H.UPF
     MD5 check sum: b5ee9d7bfd3a09ee7748110bda690ff7
     Pseudo is Ultrasoft, Zval =  1.0
     Generated by new atomic code, or converted to UPF format
     Using radial grid of  615 points,  1 beta functions with:
                l(1) =   0
     Q(r) pseudized with  8 coefficients,  rinner =    0.800

     atomic species   valence    mass     pseudopotential
        Ti1           12.00    47.86700     Ti( 1.00)
        O1             6.00    15.99900     O ( 1.00)
        N1             5.00    14.00700     N ( 1.00)
        C1             4.00    12.01100     C ( 1.00)
        H1             1.00     1.00800     H ( 1.00)

     No symmetry found

   Cartesian axes

     site n.     atom                  positions (alat units)
         1           Ti1 tau(   1) = (   0.0004258   2.9801865   6.0000000  )
         2           Ti1 tau(   2) = (   3.2906075   1.4906267   6.0002472  )
         3           O1  tau(   3) = (   0.0006271   0.0005054   7.9858123  )
         4           O1  tau(   4) = (   3.2906025   0.0005020   7.3038282  )
         5           O1  tau(   5) = (   4.5942328   1.4918067   9.2879030  )
         6           O1  tau(   6) = (   1.9868534   1.4903216   9.2879459  )
         7           Ti1 tau(   7) = (   3.2907910   2.8959150   9.1758416  )
         8           Ti1 tau(   8) = (   0.0015273   1.4827037   9.2680791  )
         9           O1  tau(   9) = (   3.3121314   5.9338840  11.3691909  )
        10           O1  tau(  10) = (   0.0116148   5.9584955  10.6183126  )
        11           O1  tau(  11) = (   1.3134021   1.4784130  12.6451072  )
        12           O1  tau(  12) = (   5.3172625   1.4801399  12.6491864  )
        13           Ti1 tau(  13) = (   0.0380378   2.9573341  12.5222382  )
        14           Ti1 tau(  14) = (   3.3404755   1.4532591  12.5245293  )
        15           O1  tau(  15) = (   0.0239237   0.0366503  14.6894071  )
        16           O1  tau(  16) = (   3.3255740   5.9570089  14.0129324  )
        17           O1  tau(  17) = (   4.5846449   1.4795273  16.1858442  )
        18           O1  tau(  18) = (   2.0539891   1.4908220  16.1938258  )
        19           Ti1 tau(  19) = (   3.3028508   2.9322526  15.7076921  )
        20           Ti1 tau(  20) = (   0.0088316   1.3655950  16.0522487  )
        21           O1  tau(  21) = (   3.2904802   0.0005063   4.7018136  )
        22           O1  tau(  22) = (   0.0586005   5.8320325  17.2288864  )
        23           O1  tau(  23) = (   1.3043587   1.4918075   6.0039043  )
        24           O1  tau(  24) = (   5.2767064   1.4903225   6.0039473  )
        25           Ti1 tau(  25) = (   0.0000382   5.9609847   6.0000000  )
        26           Ti1 tau(  26) = (   3.2902200   4.4714249   6.0002472  )
        27           O1  tau(  27) = (   0.0002396   2.9813036   7.9858123  )
        28           O1  tau(  28) = (   3.2902150   2.9813002   7.3038282  )
        29           O1  tau(  29) = (   4.5938453   4.4726049   9.2879030  )
        30           O1  tau(  30) = (   1.9864658   4.4711199   9.2879459  )
        31           Ti1 tau(  31) = (   3.2891106   5.8743827   9.1763621  )
        32           Ti1 tau(  32) = (   0.0006254   4.4649316   9.2693709  )
        33           O1  tau(  33) = (   3.3142679   2.9660735  11.3641874  )
        34           O1  tau(  34) = (   0.0092240   2.9805883  10.6323155  )
        35           O1  tau(  35) = (   1.3108675   4.4558178  12.6782323  )
        36           O1  tau(  36) = (   5.3175068   4.4537340  12.6790822  )
        37           Ti1 tau(  37) = (   0.0418451   5.9490355  12.4996082  )
        38           Ti1 tau(  38) = (   3.3402151   4.4429940  12.5219265  )
        39           O1  tau(  39) = (   0.0332256   2.9148708  14.9327709  )
        40           O1  tau(  40) = (   3.3156017   2.9437717  13.9283311  )
        41           O1  tau(  41) = (   4.5915719   4.3868214  16.1197993  )
        42           O1  tau(  42) = (   2.0539401   4.4017640  16.0846163  )
        43           Ti1 tau(  43) = (   3.3369130   5.9116756  15.8392261  )
        44           Ti1 tau(  44) = (   0.0533093   4.5818758  15.8415549  )
        45           O1  tau(  45) = (   3.2900926   2.9813045   4.7018136  )
        46           O1  tau(  46) = (   1.3039711   4.4726057   6.0039043  )
        47           O1  tau(  47) = (   5.2763189   4.4711207   6.0039473  )
        48           N1  tau(  48) = (   6.5287229   2.7802708  18.1865785  )
        49           C1  tau(  49) = (   0.9724842   2.7744648  18.9576868  )
        50           H1  tau(  50) = (   0.9153086   3.0669255  20.0057840  )
        51           H1  tau(  51) = (   1.9225290   2.4867234  18.5393133  )
        52           N1  tau(  52) = (   5.2958906   3.1014149  18.7352402  )
        53           H1  tau(  53) = (   5.3913054   3.6367428  19.5974321  )
        54           H1  tau(  54) = (   4.7863746   3.6605970  18.0522289  )
        55           O1  tau(  55) = (   3.2511457   5.8152340  18.3397965  )
        56           H1  tau(  56) = (   3.7467739   0.6636339  18.5518981  )
        57           H1  tau(  57) = (   2.3053106   0.0574530  18.4201010  )

     number of k points=    10  Fermi-Dirac smearing, width (Ry)=  0.0073
                       cart. coord. in units 2pi/alat
        k(    1) = (   0.0000000   0.0000000   0.0000000), wk =   0.1250000
        k(    2) = (   0.0000000   0.0419351   0.0000000), wk =   0.2500000
        k(    3) = (   0.0000000  -0.0838702   0.0000000), wk =   0.1250000
        k(    4) = (   0.0379955   0.0000049   0.0000000), wk =   0.2500000
        k(    5) = (   0.0379955   0.0419400   0.0000000), wk =   0.2500000
        k(    6) = (   0.0379955  -0.0838652   0.0000000), wk =   0.2500000
        k(    7) = (   0.0379955  -0.0419301   0.0000000), wk =   0.2500000
        k(    8) = (  -0.0759910  -0.0000099   0.0000000), wk =   0.1250000
        k(    9) = (  -0.0759910   0.0419252   0.0000000), wk =   0.2500000
        k(   10) = (  -0.0759910  -0.0838800   0.0000000), wk =   0.1250000

     Initial potential from superposition of free atoms

     starting charge  387.99913, renormalised to  404.00000

     negative rho (up, down):  1.527E-02 0.000E+00

     %%%%%%%%%%%%%%%%%%%%%%%%%%%%%%%%%%%%%%%%%%%%%%%%%%%%%%%%%%%%%%%%%%%%%%%%
     %                                                                      %
     % You are using vdW-DF, which was implemented by the Thonhauser group. %
     % Please cite the following two papers that made this development      %
     % possible and the two reviews that describe the various versions:     %
     %                                                                      %
     %   T. Thonhauser et al., PRL 115, 136402 (2015).                      %
     %   T. Thonhauser et al., PRB 76, 125112 (2007).                       %
     %   K. Berland et al., Rep. Prog. Phys. 78, 066501 (2015).             %
     %   D.C. Langreth et al., J. Phys.: Condens. Matter 21, 084203 (2009). %
     %                                                                      %
     %                                                                      %
     % If you are calculating the stress with vdW-DF, please also cite:     %
     %                                                                      %
     %   R. Sabatini et al., J. Phys.: Condens. Matter 24, 424209 (2012).   %
     %                                                                      %
     %%%%%%%%%%%%%%%%%%%%%%%%%%%%%%%%%%%%%%%%%%%%%%%%%%%%%%%%%%%%%%%%%%%%%%%%

     Adding external electric field

     Computed dipole along edir(3) :
        Dipole              -14.3244 Ry au,        -36.4090 Debye
        Dipole field         -0.0270 Ry au,

        Potential amp.        2.5058 Ry
        Total length         46.3494 bohr

     Starting wfcs are  306 atomic wfcs
  @ DRIVER MODE: Message from server: STATUS
  @ DRIVER MODE: Message from server: POSDATA
  @ DRIVER MODE: Reading and sharing cell
  @ DRIVER MODE: Reading and sharing positions
  @ DRIVER MODE: Received positions

     Self-consistent Calculation

     iteration #  1     ecut=    29.40 Ry     beta= 0.05
     Davidson diagonalization with overlap
     c_bands:  4 eigenvalues not converged
     c_bands:  3 eigenvalues not converged
     c_bands:  5 eigenvalues not converged
     c_bands:  1 eigenvalues not converged
     c_bands:  2 eigenvalues not converged
     c_bands:  1 eigenvalues not converged
     c_bands:  2 eigenvalues not converged
     c_bands:  3 eigenvalues not converged
     c_bands:  5 eigenvalues not converged
     ethr =  1.00E-05,  avg # of iterations = 24.6

[...]

     total energy              =   -2233.93248049 Ry
     estimated scf accuracy    <    8445.30040740 Ry

     iteration #  2     ecut=    29.40 Ry     beta= 0.05
     Davidson diagonalization with overlap
     ethr =  1.00E-02,  avg # of iterations = 25.0

[...]

     iteration # 61     ecut=    29.40 Ry     beta= 0.05
     Davidson diagonalization with overlap
     c_bands:  1 eigenvalues not converged
     ethr =  2.50E-11,  avg # of iterations = 14.8

[...]

     total energy              =   -2975.20592915 Ry
     estimated scf accuracy    <       0.00000008 Ry

     iteration # 62     ecut=    29.40 Ry     beta= 0.05
     Davidson diagonalization with overlap
     ethr =  2.06E-11,  avg # of iterations =  9.2

     negative rho (up, down):  1.520E-02 0.000E+00

     Adding external electric field

     Computed dipole along edir(3) :
        Dipole                1.4017 Ry au,          3.5629 Debye
        Dipole field          0.0026 Ry au,

        Potential amp.       -0.2452 Ry
        Total length         46.3494 bohr

     End of self-consistent calculation

          k = 0.0000 0.0000 0.0000 ( 18029 PWs)   bands (ev):

   -55.1883 -55.1524 -55.1487 -55.1145 -55.1008 -55.0691 -55.0352 -55.0311
   -55.0073 -54.9779 -54.9723 -54.9690 -54.9443 -54.8740 -54.1718 -54.1378
   -31.7536 -31.6403 -31.5990 -31.5577 -31.5070 -31.4967 -31.4897 -31.4825
   -31.4377 -31.4034 -31.3998 -31.3932 -31.3912 -31.3649 -31.3422 -31.3332
   -31.3324 -31.3260 -31.3066 -31.3005 -31.2813 -31.2767 -31.2617 -31.2481
   -31.2372 -31.2348 -31.2142 -31.2078 -31.2056 -31.1993 -31.1933 -31.1756
   -31.1710 -31.1605 -31.1555 -31.1426 -31.1215 -31.1175 -31.1060 -31.0894
   -31.0883 -31.0037 -30.5808 -30.4874 -30.4653 -30.3973 -30.3106 -30.1995
   -18.9204 -18.5442 -16.0142 -15.7490 -15.6131 -15.5030 -15.3872 -15.2576
   -15.2098 -15.0787 -15.0191 -14.9057 -14.8777 -14.8356 -14.8165 -14.8112
   -14.7532 -14.7257 -14.7188 -14.6936 -14.6833 -14.6620 -14.6226 -14.6163
   -14.5803 -14.5693 -14.5655 -14.4207 -14.3430 -14.2786 -13.9678 -13.6684
   -12.6742 -12.5569  -8.7998  -6.7419  -6.4622  -6.0613  -4.1421  -3.3571
    -3.2017  -3.1870  -3.1240  -3.0852  -3.0698  -2.9957  -2.9392  -2.7337
    -2.6012  -2.5740  -2.4550  -2.3890  -2.3843  -2.3311  -2.1886  -2.1839
    -2.1286  -2.0892  -2.0390  -2.0184  -1.9954  -1.9718  -1.9378  -1.9185
    -1.8917  -1.7569  -1.7370  -1.6629  -1.6007  -1.5902  -1.5322  -1.5082
    -1.4893  -1.4839  -1.4752  -1.4628  -1.4241  -1.4105  -1.3671  -1.3098
    -1.2072  -1.1191  -1.0267  -0.9478  -0.8849  -0.8229  -0.7613  -0.7522
    -0.6752  -0.6628  -0.5715  -0.5484  -0.5179  -0.4050  -0.3433  -0.3384
    -0.2750  -0.1732  -0.1445  -0.1285  -0.0573   0.0211   0.0401   0.0478
     0.0559   0.1795   0.2326   0.2649   0.2983   0.3690   0.3906   0.4403
     0.4868   0.4934   0.5726   0.6324   0.6866   0.7360   0.7533   0.7779
     0.7957   0.8053   0.8223   0.9034   0.9261   0.9591   1.0123   1.1679
     1.3270   1.4268   1.4429   1.7608   1.7741   1.8512   2.0356   2.4264
     2.4743   3.9076   3.9844   4.0434   4.0497   4.0589   4.1448   4.3893
     4.4049   4.4177   4.4298   4.4736

[...]

          k = 0.0380-0.0419 0.0000 ( 17876 PWs)   bands (ev):

[...]

          k =-0.0760-0.0000 0.0000 ( 17886 PWs)   bands (ev):

[...]

          k =-0.0760-0.0839 0.0000 ( 17948 PWs)   bands (ev):

   -55.1713 -55.1693 -55.1316 -55.1315 -55.0985 -55.0582 -55.0420 -55.0332
   -54.9929 -54.9862 -54.9711 -54.9617 -54.9607 -54.8759 -54.1547 -54.1547
   -31.5630 -31.5528 -31.5239 -31.4554 -31.4553 -31.4491 -31.4402 -31.4231
   -31.4230 -31.4019 -31.3912 -31.3885 -31.3760 -31.3501 -31.3259 -31.3203
   -31.3201 -31.3199 -31.3174 -31.3081 -31.3025 -31.2840 -31.2709 -31.2679
   -31.2541 -31.2510 -31.2509 -31.2505 -31.2406 -31.2363 -31.2263 -31.2248
   -31.2169 -31.2061 -31.2001 -31.1903 -31.1887 -31.1523 -31.1416 -31.1411
   -31.0976 -31.0900 -30.4780 -30.4780 -30.3934 -30.3932 -30.3540 -30.3540
   -18.9181 -18.5434 -15.5313 -15.4847 -15.3293 -15.1949 -15.1917 -15.1515
   -15.0960 -15.0243 -15.0035 -14.9602 -14.9496 -14.9307 -14.8938 -14.8866
   -14.8603 -14.7897 -14.7802 -14.7718 -14.7380 -14.6989 -14.6882 -14.6868
   -14.6700 -14.6401 -14.6369 -14.5395 -14.5373 -14.4452 -14.3075 -13.6836
   -12.6584 -12.6583  -8.7640  -6.7415  -6.4119  -6.0893  -4.1849  -3.2051
    -2.9195  -2.7487  -2.6434  -2.5403  -2.4143  -2.4086  -2.3232  -2.3149
    -2.2339  -2.1997  -2.1874  -2.1717  -2.0806  -2.0671  -2.0570  -2.0349
    -2.0185  -2.0006  -1.9688  -1.9628  -1.9391  -1.9124  -1.9020  -1.9003
    -1.8814  -1.8481  -1.8169  -1.7978  -1.7773  -1.7467  -1.7354  -1.6675
    -1.6273  -1.5397  -1.5048  -1.3899  -1.3880  -1.3661  -1.3109  -1.2909
    -1.2697  -1.2208  -1.2116  -1.1657  -1.0233  -0.9368  -0.9259  -0.8880
    -0.8390  -0.7902  -0.7432  -0.7278  -0.6618  -0.6408  -0.5478  -0.5324
    -0.4302  -0.3892  -0.3772  -0.3614  -0.2790  -0.2147  -0.1678  -0.1477
    -0.1433  -0.0926  -0.0785  -0.0651   0.0065   0.0538   0.0776   0.0921
     0.1336   0.3020   0.3623   0.3758   0.4951   0.5443   0.6484   0.7085
     0.7842   0.8043   0.8404   0.9308   0.9373   1.0139   1.1088   1.1228
     1.1586   1.2033   1.2521   1.2751   1.2800   2.2085   2.2099   2.2942
     2.2944   4.0515   4.1277   4.1857   4.2336   4.2420   4.3631   4.4248
     4.4676   4.4896   4.4918   4.5663

     the Fermi energy is     3.9657 ev

!    total energy              =   -2975.20597570 Ry
     estimated scf accuracy    <       0.00000002 Ry
     smearing contrib. (-TS)   =      -0.03732274 Ry
     internal energy E=F+TS    =   -2975.16865297 Ry

     The total energy is F=E-TS. E is the sum of the following terms:
     one-electron contribution =  -23538.20845771 Ry
     hartree contribution      =   11867.12539094 Ry
     xc contribution           =    -494.97398756 Ry
     ewald contribution        =    9190.88469336 Ry
     electric field correction =       0.00370800 Ry

     convergence has been achieved in  62 iterations

     Forces acting on atoms (cartesian axes, Ry/au):

     atom    1 type  1   force =     0.00005758   -0.00020248    0.09359701
     atom    2 type  1   force =    -0.00020071   -0.00020529   -0.17801910
     atom    3 type  2   force =     0.00010908   -0.00021350   -0.02066345
     atom    4 type  2   force =     0.00004764   -0.00198007    0.05805886
     atom    5 type  2   force =    -0.01002766   -0.00166832    0.00692916
     atom    6 type  2   force =     0.01217381   -0.00103960    0.00744432
     atom    7 type  1   force =     0.00022671    0.00248407   -0.01211283
     atom    8 type  1   force =    -0.00049272    0.00204297   -0.00195964
     atom    9 type  2   force =     0.00006724    0.00006468   -0.00004028
     atom   10 type  2   force =    -0.00044419   -0.00136422   -0.00317773
     atom   11 type  2   force =     0.00015520   -0.00007650   -0.00007788
     atom   12 type  2   force =    -0.00066631   -0.00011687    0.00008357
     atom   13 type  1   force =     0.00050836    0.00098703    0.00025346
     atom   14 type  1   force =    -0.00140143    0.00027556    0.00017282
     atom   15 type  2   force =    -0.00018812    0.00093440    0.00023220
     atom   16 type  2   force =    -0.00001233   -0.00044121    0.00013991
     atom   17 type  2   force =     0.00070371    0.00002069   -0.00023026
     atom   18 type  2   force =     0.00055661    0.00016357   -0.00043472
     atom   19 type  1   force =    -0.00118675    0.00086112    0.00050668
     atom   20 type  1   force =     0.00066752   -0.00003403   -0.00084809
     atom   21 type  2   force =     0.00001485   -0.00002394    0.10387081
     atom   22 type  2   force =     0.00011099    0.00083363   -0.00005914
     atom   23 type  2   force =    -0.07052187   -0.00011697   -0.02696125
     atom   24 type  2   force =     0.07045899    0.00031047   -0.02702426
     atom   25 type  1   force =     0.00001855   -0.00017916    0.09305732
     atom   26 type  1   force =    -0.00009318   -0.00049190   -0.17793645
     atom   27 type  2   force =     0.00017193   -0.00035698   -0.01955318
     atom   28 type  2   force =     0.00010952   -0.00160351    0.05713607
     atom   29 type  2   force =    -0.01007074   -0.00086113    0.00630837
     atom   30 type  2   force =     0.01213357   -0.00061537    0.00686627
     atom   31 type  1   force =     0.00031613    0.00504351   -0.01528446
     atom   32 type  1   force =    -0.00039203   -0.00269487   -0.00238961
     atom   33 type  2   force =    -0.00003137   -0.00025980   -0.00004111
     atom   34 type  2   force =     0.00046170    0.00032517   -0.00054903
     atom   35 type  2   force =    -0.00012110   -0.00037524   -0.00007563
     atom   36 type  2   force =    -0.00044327   -0.00036675    0.00024062
     atom   37 type  1   force =     0.00026679   -0.00103653    0.00051107
     atom   38 type  1   force =    -0.00122284    0.00025185    0.00129229
     atom   39 type  2   force =    -0.00012420   -0.00046443    0.00026598
     atom   40 type  2   force =     0.00003061   -0.00041516    0.00044346
     atom   41 type  2   force =    -0.00016139   -0.00003605    0.00006735
     atom   42 type  2   force =     0.00128115   -0.00023725    0.00011913
     atom   43 type  1   force =    -0.00121220   -0.00061185   -0.00005764
     atom   44 type  1   force =     0.00090083    0.00059954   -0.00005201
     atom   45 type  2   force =     0.00004012   -0.00001997    0.10380835
     atom   46 type  2   force =    -0.07055804   -0.00007930   -0.02697367
     atom   47 type  2   force =     0.07046660    0.00038768   -0.02700278
     atom   48 type  3   force =    -0.00060319    0.00009055    0.00091403
     atom   49 type  4   force =     0.00064160    0.00055168   -0.00028951
     atom   50 type  5   force =    -0.00046594    0.00005401   -0.00054472
     atom   51 type  5   force =    -0.00040405   -0.00016151   -0.00001934
     atom   52 type  3   force =    -0.00028106    0.00056394   -0.00001559
     atom   53 type  5   force =     0.00019651    0.00051472   -0.00031588
     atom   54 type  5   force =    -0.00058746    0.00075848    0.00018761
     atom   55 type  2   force =     0.00411515   -0.00164924   -0.00094136
     atom   56 type  5   force =    -0.00186366   -0.00016528    0.00094967
     atom   57 type  5   force =    -0.00323121    0.00204497    0.00019423

     Total force =     0.365773     Total SCF correction =     0.000307
  @ DRIVER MODE: Message from server: STATUS
  @ DRIVER MODE: Message from server: GETFORCE
  @ DRIVER MODE: Returning v,forces,stress,ensemble

     Writing output data file ./calc.save/
  @ DRIVER MODE: Message from server: EXIT
  @ DRIVE MODE: Exiting

     General routines

     Parallel routines

   This run was terminated on:  11: 8:37  16Sep2021

   JOB DONE.