     Program PWSCF v.6.7GPU starts on  3Aug2021 at  1:23:33

     R & G space division:  proc/nbgrp/npool/nimage =      16
     Reading input from /storage/home/hcoda1/3/ntian30/research/carbon/02Aug_vib_paired/ads_slab/CH3NNH3_a/out_0048/pw.inp
Warning: card &CELL ignored
Warning: card   CELL_DYNAMICS='IPI', ignored
Warning: card / ignored

     Current dimensions of program PWSCF are:
     Max number of different atomic species (ntypx) = 10
     Max number of k-points (npk) =  40000
     Max angular momentum in pseudopotentials (lmaxx) =  3
     Presently no symmetry can be used with electric field

     Message from routine cell_base_init:
     DEPRECATED: use true lattice parameter, not A to a.u. conversion factor

     IMPORTANT: XC functional enforced from input :
     Exchange-correlation= BEEF-VDW
                           (   1   4  43  14   2   0   0)
     Any further DFT definition will be discarded
     Please, verify this is what you really want

  @ DRIVER MODE: Connecting to
 qe_1139763_2482544.sched-torque.pace.gatech.edu3i4y9ex4_scratch
  using UNIX socket
  @ DRIVER MODE: Message from server: STATUS
  @ DRIVER MODE: Message from server: INIT
  @ DRIVER MODE: Receiving replica           0          -1
  @ DRIVER MODE: Receiving encoded integer          25
  @ DRIVER MODE:  SCF:  T  FORCE:  T  STRESS:  F  VC:  F  ENSEMBLE:  F
  @ DRIVER MODE:  SCF:  T  FORCE:  T  STRESS:  F  VC:  F  ENSEMBLE:  F

     Using Slab Decomposition

     bravais-lattice index     =            0
     lattice parameter (alat)  =       1.8897  a.u.
     unit-cell volume          =    6658.9804 (a.u.)^3
     number of atoms/cell      =           56
     number of atomic types    =            5
     number of electrons       =       398.00
     number of Kohn-Sham states=          209
     kinetic-energy cutoff     =      29.3995  Ry
     charge density cutoff     =     293.9946  Ry
     scf convergence threshold =      7.3E-08
     mixing beta               =       0.0500
     number of iterations used =            8  plain     mixing
     Exchange-correlation= BEEF-VDW
                           (   1   4  43  14   2   0   0)

     celldm(1)=   1.889726  celldm(2)=   0.000000  celldm(3)=   0.000000
     celldm(4)=   0.000000  celldm(5)=   0.000000  celldm(6)=   0.000000

     crystal axes: (cart. coord. in units of alat)
               a(1) = (   6.579727   0.000000   0.000000 )
               a(2) = (  -0.000775   5.961596   0.000000 )
               a(3) = (   0.000000   0.000000  25.155947 )

     reciprocal axes: (cart. coord. in units 2 pi/alat)
               b(1) = (  0.151982  0.000020  0.000000 )
               b(2) = (  0.000000  0.167740  0.000000 )
               b(3) = (  0.000000  0.000000  0.039752 )

     PseudoPot. # 1 for Ti read from file:
     /storage/coda1/p-amedford6/0/shared/rich_project_chbe-medford/medford-share/data/pseudos_module/espresso/nninc/pbe/van/Ti.UPF
     MD5 check sum: 8e4df49b7f0d34bbd5052bf3f5ea0213
     Pseudo is Ultrasoft, Zval = 12.0
     Generated by new atomic code, or converted to UPF format
     Using radial grid of  851 points,  6 beta functions with:
                l(1) =   0
                l(2) =   0
                l(3) =   1
                l(4) =   1
                l(5) =   2
                l(6) =   2
     Q(r) pseudized with  8 coefficients,  rinner =    1.000   1.000   1.000
                                                       1.000   1.000

     PseudoPot. # 2 for O  read from file:
     /storage/coda1/p-amedford6/0/shared/rich_project_chbe-medford/medford-share/data/pseudos_module/espresso/nninc/pbe/van/O.UPF
     MD5 check sum: 78c19812648e8988a0fe644b0f25305e
     Pseudo is Ultrasoft, Zval =  6.0
     Generated by new atomic code, or converted to UPF format
     Using radial grid of  737 points,  4 beta functions with:
                l(1) =   0
                l(2) =   0
                l(3) =   1
                l(4) =   1
     Q(r) pseudized with  8 coefficients,  rinner =    0.800   0.800   0.800

     PseudoPot. # 3 for N  read from file:
     /storage/coda1/p-amedford6/0/shared/rich_project_chbe-medford/medford-share/data/pseudos_module/espresso/nninc/pbe/van/N.UPF
     MD5 check sum: 90d10febe142ad51ac9d5be1deb811c4
     Pseudo is Ultrasoft, Zval =  5.0
     Generated by new atomic code, or converted to UPF format
     Using radial grid of  729 points,  4 beta functions with:
                l(1) =   0
                l(2) =   0
                l(3) =   1
                l(4) =   1
     Q(r) pseudized with  8 coefficients,  rinner =    0.800   0.800   0.800

     PseudoPot. # 4 for C  read from file:
     /storage/coda1/p-amedford6/0/shared/rich_project_chbe-medford/medford-share/data/pseudos_module/espresso/nninc/pbe/van/C.UPF
     MD5 check sum: 1a69bf6b8db32088f5b2163dbdb77a27
     Pseudo is Ultrasoft, Zval =  4.0
     Generated by new atomic code, or converted to UPF format
     Using radial grid of  721 points,  4 beta functions with:
                l(1) =   0
                l(2) =   0
                l(3) =   1
                l(4) =   1
     Q(r) pseudized with  8 coefficients,  rinner =    0.800   0.800   0.800

     PseudoPot. # 5 for H  read from file:
     /storage/coda1/p-amedford6/0/shared/rich_project_chbe-medford/medford-share/data/pseudos_module/espresso/nninc/pbe/van/H.UPF
     MD5 check sum: b5ee9d7bfd3a09ee7748110bda690ff7
     Pseudo is Ultrasoft, Zval =  1.0
     Generated by new atomic code, or converted to UPF format
     Using radial grid of  615 points,  1 beta functions with:
                l(1) =   0
     Q(r) pseudized with  8 coefficients,  rinner =    0.800

     atomic species   valence    mass     pseudopotential
        Ti1           12.00    47.86700     Ti( 1.00)
        O1             6.00    15.99900     O ( 1.00)
        N1             5.00    14.00700     N ( 1.00)
        C1             4.00    12.01100     C ( 1.00)
        H1             1.00     1.00800     H ( 1.00)

     No symmetry found

   Cartesian axes

     site n.     atom                  positions (alat units)
         1           Ti1 tau(   1) = (   0.0004258   2.9801865   6.0000000  )
         2           Ti1 tau(   2) = (   3.2906075   1.4906267   6.0002472  )
         3           O1  tau(   3) = (   0.0006271   0.0005054   7.9858123  )
         4           O1  tau(   4) = (   3.2906025   0.0005020   7.3038282  )
         5           O1  tau(   5) = (   4.5942328   1.4918067   9.2879030  )
         6           O1  tau(   6) = (   1.9868534   1.4903216   9.2879459  )
         7           Ti1 tau(   7) = (   3.2907910   2.8959150   9.1758416  )
         8           Ti1 tau(   8) = (   0.0015273   1.4827037   9.2680791  )
         9           O1  tau(   9) = (   3.2727297   5.9424138  11.2974721  )
        10           O1  tau(  10) = (   0.0116148   5.9584955  10.6183126  )
        11           O1  tau(  11) = (   1.3027692   1.4721713  12.6242268  )
        12           O1  tau(  12) = (   5.2784376   1.4723552  12.6258992  )
        13           Ti1 tau(  13) = (   6.4570204   2.9507206  12.7630554  )
        14           Ti1 tau(  14) = (   3.1467966   1.4649636  12.4688949  )
        15           O1  tau(  15) = (   6.5600513   5.9133837  14.5918744  )
        16           O1  tau(  16) = (   3.2766225   5.9390981  13.8789110  )
        17           O1  tau(  17) = (   4.4915826   1.4834571  16.0540230  )
        18           O1  tau(  18) = (   2.0416982   1.4849982  16.0411193  )
        19           Ti1 tau(  19) = (   3.2679172   2.9642910  15.6858091  )
        20           Ti1 tau(  20) = (   6.5495220   1.5641796  16.1095294  )
        21           O1  tau(  21) = (   3.2904802   0.0005063   4.7018136  )
        22           O1  tau(  22) = (   6.5606002   0.0080969  17.2010096  )
        23           O1  tau(  23) = (   1.3043587   1.4918075   6.0039043  )
        24           O1  tau(  24) = (   5.2767064   1.4903225   6.0039473  )
        25           Ti1 tau(  25) = (   0.0000382   5.9609847   6.0000000  )
        26           Ti1 tau(  26) = (   3.2902200   4.4714249   6.0002472  )
        27           O1  tau(  27) = (   0.0002396   2.9813036   7.9858123  )
        28           O1  tau(  28) = (   3.2902150   2.9813002   7.3038282  )
        29           O1  tau(  29) = (   4.5938453   4.4726049   9.2879030  )
        30           O1  tau(  30) = (   1.9864658   4.4711199   9.2879459  )
        31           Ti1 tau(  31) = (   3.2891106   5.8743827   9.1763621  )
        32           Ti1 tau(  32) = (   0.0006254   4.4649316   9.2693709  )
        33           O1  tau(  33) = (   3.2718307   2.9587034  11.2961003  )
        34           O1  tau(  34) = (   0.0092240   2.9805883  10.6323155  )
        35           O1  tau(  35) = (   1.3028232   4.4416136  12.6207192  )
        36           O1  tau(  36) = (   5.2777600   4.4366566  12.6238879  )
        37           Ti1 tau(  37) = (   6.4830488   5.9304874  12.7660964  )
        38           Ti1 tau(  38) = (   3.1463657   4.4448748  12.4639736  )
        39           O1  tau(  39) = (   6.5417323   2.9404903  14.6589984  )
        40           O1  tau(  40) = (   3.2789452   2.9619718  13.8791424  )
        41           O1  tau(  41) = (   4.4971312   4.4676043  16.0556370  )
        42           O1  tau(  42) = (   2.0400509   4.4648231  16.0515753  )
        43           Ti1 tau(  43) = (   3.2598176   5.9476019  15.6881950  )
        44           Ti1 tau(  44) = (   6.5485469   4.5424454  16.1156095  )
        45           O1  tau(  45) = (   3.2900926   2.9813045   4.7018136  )
        46           O1  tau(  46) = (   1.3039711   4.4726057   6.0039043  )
        47           O1  tau(  47) = (   5.2763189   4.4711207   6.0039473  )
        48           N1  tau(  48) = (   0.0016189   2.9795595  17.3279962  )
        49           C1  tau(  49) = (   0.1681806   3.0735589  18.7581663  )
        50           H1  tau(  50) = (   6.0068595   3.7517258  19.1994632  )
        51           H1  tau(  51) = (   0.0766375   2.0971904  19.2409400  )
        52           H1  tau(  52) = (   1.1565538   3.4901639  19.0026035  )
        53           N1  tau(  53) = (   4.7601180   1.8141088  21.6614004  )
        54           H1  tau(  54) = (   4.4666586   2.7830198  21.5980365  )
        55           H1  tau(  55) = (   4.1231612   1.2775871  21.0909158  )
        56           H1  tau(  56) = (   4.6015807   1.5257772  22.6208530  )

     number of k points=    10  Fermi-Dirac smearing, width (Ry)=  0.0073
                       cart. coord. in units 2pi/alat
        k(    1) = (   0.0000000   0.0000000   0.0000000), wk =   0.1250000
        k(    2) = (   0.0000000   0.0419351   0.0000000), wk =   0.2500000
        k(    3) = (   0.0000000  -0.0838702   0.0000000), wk =   0.1250000
        k(    4) = (   0.0379955   0.0000049   0.0000000), wk =   0.2500000
        k(    5) = (   0.0379955   0.0419400   0.0000000), wk =   0.2500000
        k(    6) = (   0.0379955  -0.0838652   0.0000000), wk =   0.2500000
        k(    7) = (   0.0379955  -0.0419301   0.0000000), wk =   0.2500000
        k(    8) = (  -0.0759910  -0.0000099   0.0000000), wk =   0.1250000
        k(    9) = (  -0.0759910   0.0419252   0.0000000), wk =   0.2500000
        k(   10) = (  -0.0759910  -0.0838800   0.0000000), wk =   0.1250000

     Initial potential from superposition of free atoms

     starting charge  381.99914, renormalised to  398.00000

     negative rho (up, down):  9.477E-03 0.000E+00

     %%%%%%%%%%%%%%%%%%%%%%%%%%%%%%%%%%%%%%%%%%%%%%%%%%%%%%%%%%%%%%%%%%%%%%%%
     %                                                                      %
     % You are using vdW-DF, which was implemented by the Thonhauser group. %
     % Please cite the following two papers that made this development      %
     % possible and the two reviews that describe the various versions:     %
     %                                                                      %
     %   T. Thonhauser et al., PRL 115, 136402 (2015).                      %
     %   T. Thonhauser et al., PRB 76, 125112 (2007).                       %
     %   K. Berland et al., Rep. Prog. Phys. 78, 066501 (2015).             %
     %   D.C. Langreth et al., J. Phys.: Condens. Matter 21, 084203 (2009). %
     %                                                                      %
     %                                                                      %
     % If you are calculating the stress with vdW-DF, please also cite:     %
     %                                                                      %
     %   R. Sabatini et al., J. Phys.: Condens. Matter 24, 424209 (2012).   %
     %                                                                      %
     %%%%%%%%%%%%%%%%%%%%%%%%%%%%%%%%%%%%%%%%%%%%%%%%%%%%%%%%%%%%%%%%%%%%%%%%

     Adding external electric field

     Computed dipole along edir(3) :
        Dipole              -11.3725 Ry au,        -28.9060 Debye
        Dipole field         -0.0215 Ry au,

        Potential amp.        1.9894 Ry
        Total length         46.3494 bohr

     Starting wfcs are  302 atomic wfcs
  @ DRIVER MODE: Message from server: STATUS
  @ DRIVER MODE: Message from server: POSDATA
  @ DRIVER MODE: Reading and sharing cell
  @ DRIVER MODE: Reading and sharing positions
  @ DRIVER MODE: Received positions

     Self-consistent Calculation

     iteration #  1     ecut=    29.40 Ry     beta= 0.05
     Davidson diagonalization with overlap
     c_bands:  1 eigenvalues not converged
     c_bands:  1 eigenvalues not converged
     c_bands:  2 eigenvalues not converged
     c_bands:  1 eigenvalues not converged
     c_bands:  1 eigenvalues not converged
     c_bands:  1 eigenvalues not converged
     c_bands:  1 eigenvalues not converged
     c_bands:  2 eigenvalues not converged
     c_bands:  2 eigenvalues not converged
     ethr =  1.00E-05,  avg # of iterations = 19.6

[...]

     total energy              =   -2520.78640723 Ry
     estimated scf accuracy    <    4705.95680772 Ry

     iteration #  2     ecut=    29.40 Ry     beta= 0.05
     Davidson diagonalization with overlap
     ethr =  1.00E-02,  avg # of iterations = 21.7

[...]

     iteration # 52     ecut=    29.40 Ry     beta= 0.05
     Davidson diagonalization with overlap
     c_bands:  1 eigenvalues not converged
     ethr =  3.71E-08,  avg # of iterations =  8.2

[...]

     total energy              =   -2942.90671696 Ry
     estimated scf accuracy    <       0.00000017 Ry

     iteration # 69     ecut=    29.40 Ry     beta= 0.05
     Davidson diagonalization with overlap
     ethr =  4.22E-11,  avg # of iterations =  5.1

     negative rho (up, down):  1.097E-02 0.000E+00

     Adding external electric field

     Computed dipole along edir(3) :
        Dipole                0.4550 Ry au,          1.1564 Debye
        Dipole field          0.0009 Ry au,

        Potential amp.       -0.0796 Ry
        Total length         46.3494 bohr

     End of self-consistent calculation

          k = 0.0000 0.0000 0.0000 ( 18029 PWs)   bands (ev):

   -56.6126 -56.5790 -55.7319 -55.7234 -55.6965 -55.6911 -55.5862 -55.5505
   -55.3695 -55.3342 -55.2772 -55.2710 -55.2432 -55.1688 -54.7319 -54.6187
   -33.0405 -32.8872 -32.8590 -32.7888 -32.6977 -32.6665 -32.2066 -32.1958
   -32.1292 -32.0184 -31.9734 -31.9452 -31.9312 -31.9064 -31.8738 -31.8712
   -31.8671 -31.8605 -31.8374 -31.8341 -31.8226 -31.7944 -31.7692 -31.7555
   -31.7424 -31.7224 -31.7145 -31.6913 -31.6695 -31.6157 -31.6009 -31.5915
   -31.5131 -31.5082 -31.4882 -31.4464 -31.4362 -31.4047 -31.3976 -31.3733
   -31.3520 -31.2938 -31.2334 -30.9730 -30.9604 -30.8782 -30.8386 -30.7478
   -16.7767 -16.3424 -16.1126 -15.9752 -15.9076 -15.8534 -15.8080 -15.6868
   -15.6140 -15.6076 -15.5672 -15.5366 -15.4662 -15.3255 -15.2273 -15.1737
   -15.1293 -15.0083 -14.9485 -14.9155 -14.9108 -14.8765 -14.8568 -14.6608
   -14.6365 -14.5340 -14.5240 -14.3985 -14.1759 -13.7758 -13.7495 -13.6657
   -12.7961  -7.4924  -4.3425  -3.8376  -3.8039  -3.7908  -3.6001  -3.5131
    -3.4055  -3.3927  -3.3116  -3.1935  -3.1475  -3.0998  -2.9838  -2.9838
    -2.8343  -2.7943  -2.7884  -2.7845  -2.7394  -2.6760  -2.6603  -2.6214
    -2.6160  -2.6066  -2.4558  -2.3558  -2.2884  -2.2671  -2.2566  -2.2209
    -2.1427  -2.1226  -2.1080  -2.1043  -2.0037  -1.8552  -1.8534  -1.8223
    -1.7788  -1.7772  -1.7393  -1.7245  -1.5891  -1.5154  -1.4125  -1.3952
    -1.3568  -1.2927  -1.2863  -1.1882  -1.1138  -1.0513  -1.0257  -0.9167
    -0.8742  -0.8516  -0.7620  -0.7000  -0.6604  -0.6427  -0.6259  -0.5222
    -0.5022  -0.4912  -0.4063  -0.3946  -0.3374  -0.2559  -0.2363  -0.2301
    -0.1420  -0.1368  -0.0446  -0.0028   0.0391   0.0841   0.1799   0.1982
     0.3011   0.3366   0.3580   0.4777   0.4908   0.5536   0.6209   0.6884
     0.7197   0.7442   0.7735   0.7952   0.8685   0.9833   0.9883   1.0900
     1.1293   1.2973   1.3362   1.3703   1.6239   1.6498   2.3208   2.6620
     2.8221   3.1205   3.3113   3.4224   3.6375   3.6526   3.6578   3.8353
     3.8814

[...]

          k = 0.0380-0.0419 0.0000 ( 17876 PWs)   bands (ev):

[...]

          k =-0.0760-0.0000 0.0000 ( 17886 PWs)   bands (ev):

[...]

          k =-0.0760-0.0839 0.0000 ( 17948 PWs)   bands (ev):

   -56.5959 -56.5956 -55.7159 -55.7107 -55.7084 -55.7077 -55.5710 -55.5655
   -55.3546 -55.3489 -55.2679 -55.2602 -55.2601 -55.1717 -54.7291 -54.6214
   -32.8730 -32.8728 -32.8574 -32.8572 -32.7418 -32.7416 -32.0362 -32.0337
   -32.0201 -32.0140 -31.9639 -31.9628 -31.9205 -31.9192 -31.9178 -31.9167
   -31.9058 -31.9032 -31.9018 -31.8994 -31.8231 -31.8186 -31.7722 -31.7669
   -31.7060 -31.6987 -31.6376 -31.6309 -31.6046 -31.6044 -31.5974 -31.5536
   -31.5515 -31.5235 -31.4885 -31.4858 -31.4857 -31.4466 -31.4466 -31.4417
   -31.4146 -31.3754 -31.1122 -30.9929 -30.9600 -30.9283 -30.8411 -30.8064
   -16.1250 -16.1229 -16.0908 -16.0906 -15.8208 -15.8171 -15.7728 -15.7711
   -15.5984 -15.5925 -15.3860 -15.3758 -15.3698 -15.3657 -15.2416 -15.2328
   -15.1692 -15.1584 -15.0692 -15.0658 -15.0028 -14.9966 -14.9587 -14.9390
   -14.6225 -14.6150 -14.4874 -14.4787 -14.3259 -13.7692 -13.7692 -13.7487
   -12.8127  -7.4825  -3.8162  -3.7931  -3.2246  -3.2240  -3.1585  -3.1572
    -3.0362  -3.0315  -2.9550  -2.9545  -2.8551  -2.8509  -2.7550  -2.7113
    -2.7091  -2.7065  -2.6936  -2.6509  -2.5555  -2.5552  -2.5405  -2.5253
    -2.4698  -2.4677  -2.4532  -2.3806  -2.3670  -2.3311  -2.2918  -2.1853
    -2.1717  -2.1551  -2.1293  -2.0692  -2.0546  -2.0433  -1.9957  -1.9712
    -1.8934  -1.8268  -1.7855  -1.6658  -1.6623  -1.6523  -1.6402  -1.4853
    -1.4494  -1.4181  -1.4086  -1.4025  -1.3580  -1.2601  -1.2521  -1.1176
    -1.1150  -1.0452  -0.9634  -0.9402  -0.9180  -0.7837  -0.7433  -0.7025
    -0.6975  -0.6724  -0.6467  -0.6271  -0.5995  -0.4479  -0.4287  -0.3944
    -0.3636  -0.3555  -0.3143  -0.2461  -0.1664  -0.0855  -0.0844  -0.0179
     0.0343   0.0961   0.1840   0.1965   0.2004   0.4833   0.5634   0.6507
     0.7298   0.7937   0.8594   0.8841   0.9446   0.9837   1.1236   1.1265
     1.1454   1.1458   1.2057   1.2140   1.3531   1.6457   2.2075   3.2351
     3.2354   3.3026   3.3030   3.6267   3.6322   3.7413   3.7502   3.8603
     3.8657

     the Fermi energy is     2.5001 ev

!    total energy              =   -2942.90673547 Ry
     estimated scf accuracy    <       0.00000007 Ry
     smearing contrib. (-TS)   =      -0.00477566 Ry
     internal energy E=F+TS    =   -2942.90195981 Ry

     The total energy is F=E-TS. E is the sum of the following terms:
     one-electron contribution =  -23225.31828014 Ry
     hartree contribution      =   11702.95448502 Ry
     xc contribution           =    -487.47335977 Ry
     ewald contribution        =    9066.93480443 Ry
     electric field correction =       0.00039064 Ry

     convergence has been achieved in  69 iterations

     Forces acting on atoms (cartesian axes, Ry/au):

     atom    1 type  1   force =     0.00000786   -0.00044075    0.12429550
     atom    2 type  1   force =    -0.00005924   -0.00055099   -0.16064156
     atom    3 type  2   force =     0.00016542   -0.00030096   -0.06836252
     atom    4 type  2   force =    -0.00005299   -0.00038727    0.02753075
     atom    5 type  2   force =    -0.01676715    0.00112555   -0.00832957
     atom    6 type  2   force =     0.01781860    0.00162462   -0.01022222
     atom    7 type  1   force =     0.00039805   -0.00407923    0.02182237
     atom    8 type  1   force =     0.00020154   -0.00219525    0.11168411
     atom    9 type  2   force =     0.00010226    0.00018686   -0.00030380
     atom   10 type  2   force =    -0.00319651    0.00010897   -0.07305788
     atom   11 type  2   force =    -0.00034428    0.00032847   -0.00007328
     atom   12 type  2   force =     0.00014357    0.00044815   -0.00003406
     atom   13 type  1   force =     0.00013770   -0.00024657   -0.00000566
     atom   14 type  1   force =    -0.00016076    0.00003756   -0.00030453
     atom   15 type  2   force =    -0.00004421   -0.00024223    0.00018483
     atom   16 type  2   force =     0.00032691    0.00076783   -0.00000287
     atom   17 type  2   force =     0.00019768    0.00031562   -0.00028744
     atom   18 type  2   force =    -0.00020605    0.00021814    0.00011600
     atom   19 type  1   force =     0.00050626   -0.00009564   -0.00021649
     atom   20 type  1   force =     0.00025910   -0.00038191   -0.00050292
     atom   21 type  2   force =     0.00010091    0.00008111    0.09969150
     atom   22 type  2   force =     0.00008227    0.00094830    0.00047327
     atom   23 type  2   force =    -0.07917966    0.00008688   -0.03244554
     atom   24 type  2   force =     0.07908847    0.00051417   -0.03244062
     atom   25 type  1   force =     0.00002841   -0.00042005    0.12381231
     atom   26 type  1   force =    -0.00003697   -0.00042110   -0.16076448
     atom   27 type  2   force =     0.00028728   -0.00046779   -0.06735456
     atom   28 type  2   force =    -0.00005500   -0.00020252    0.02726474
     atom   29 type  2   force =    -0.01729791    0.00073903   -0.00825598
     atom   30 type  2   force =     0.01826502    0.00113670   -0.01009247
     atom   31 type  1   force =     0.00033533   -0.00099506    0.02129042
     atom   32 type  1   force =     0.00021697   -0.00027194    0.11223990
     atom   33 type  2   force =     0.00011948    0.00051395   -0.00007350
     atom   34 type  2   force =    -0.00294359   -0.00065404   -0.07291313
     atom   35 type  2   force =    -0.00024881    0.00027695   -0.00009770
     atom   36 type  2   force =     0.00010179    0.00014190   -0.00003660
     atom   37 type  1   force =     0.00014018   -0.00015440    0.00024400
     atom   38 type  1   force =     0.00006951    0.00005386    0.00032411
     atom   39 type  2   force =     0.00021474    0.00037789   -0.00016440
     atom   40 type  2   force =     0.00009875    0.00034595    0.00014131
     atom   41 type  2   force =    -0.00015609    0.00032743    0.00016576
     atom   42 type  2   force =    -0.00003426    0.00059475   -0.00001580
     atom   43 type  1   force =     0.00060703    0.00052943    0.00048222
     atom   44 type  1   force =     0.00014566    0.00032786   -0.00041963
     atom   45 type  2   force =     0.00010515    0.00005138    0.09971017
     atom   46 type  2   force =    -0.07918927    0.00012743   -0.03244714
     atom   47 type  2   force =     0.07909112    0.00056090   -0.03243557
     atom   48 type  3   force =     0.00043044    0.00030263   -0.00025061
     atom   49 type  4   force =     0.00073285   -0.00037554    0.00178414
     atom   50 type  5   force =     0.00055832   -0.00036458   -0.00037007
     atom   51 type  5   force =    -0.00022760    0.00035244   -0.00011935
     atom   52 type  5   force =    -0.00071501   -0.00059181    0.00023491
     atom   53 type  3   force =     0.00581079    0.00348324    0.00647062
     atom   54 type  5   force =    -0.00019549    0.00070117   -0.00097864
     atom   55 type  5   force =    -0.00557185   -0.00412263   -0.00656533
     atom   56 type  5   force =    -0.00021270    0.00022512    0.00062294

     Total force =     0.425154     Total SCF correction =     0.000586
  @ DRIVER MODE: Message from server: STATUS
  @ DRIVER MODE: Message from server: GETFORCE
  @ DRIVER MODE: Returning v,forces,stress,ensemble

     Writing output data file ./calc.save/
  @ DRIVER MODE: Message from server: EXIT
  @ DRIVE MODE: Exiting

     General routines

     Parallel routines

   This run was terminated on:   1:40:11   3Aug2021

   JOB DONE.