     Program PWSCF v.6.7GPU starts on 23Sep2021 at 15:56:42

     R & G space division:  proc/nbgrp/npool/nimage =       8
     Reading input from /storage/home/hcoda1/3/ntian30/research/carbon/CxH_vib/H2O_calc/ads_slab/CH3NHNH2HO_a/out_0012/pw.inp
Warning: card &CELL ignored
Warning: card   CELL_DYNAMICS='IPI', ignored
Warning: card / ignored

     Current dimensions of program PWSCF are:
     Max number of different atomic species (ntypx) = 10
     Max number of k-points (npk) =  40000
     Max angular momentum in pseudopotentials (lmaxx) =  3
     Presently no symmetry can be used with electric field

     Message from routine cell_base_init:
     DEPRECATED: use true lattice parameter, not A to a.u. conversion factor

     IMPORTANT: XC functional enforced from input :
     Exchange-correlation= BEEF-VDW
                           (   1   4  43  14   2   0   0)
     Any further DFT definition will be discarded
     Please, verify this is what you really want

  @ DRIVER MODE: Connecting to
 qe_1139763_2947307.sched-torque.pace.gatech.eduqfcte8qu_scratch
  using UNIX socket
  @ DRIVER MODE: Message from server: STATUS
  @ DRIVER MODE: Message from server: INIT
  @ DRIVER MODE: Receiving replica           0          -1
  @ DRIVER MODE: Receiving encoded integer          25
  @ DRIVER MODE:  SCF:  T  FORCE:  T  STRESS:  F  VC:  F  ENSEMBLE:  F
  @ DRIVER MODE:  SCF:  T  FORCE:  T  STRESS:  F  VC:  F  ENSEMBLE:  F

     Using Slab Decomposition

     bravais-lattice index     =            0
     lattice parameter (alat)  =       1.8897  a.u.
     unit-cell volume          =    6658.9804 (a.u.)^3
     number of atoms/cell      =           58
     number of atomic types    =            5
     number of electrons       =       405.00
     number of Kohn-Sham states=          212
     kinetic-energy cutoff     =      29.3995  Ry
     charge density cutoff     =     293.9946  Ry
     scf convergence threshold =      7.3E-08
     mixing beta               =       0.0500
     number of iterations used =            8  plain     mixing
     Exchange-correlation= BEEF-VDW
                           (   1   4  43  14   2   0   0)

     celldm(1)=   1.889726  celldm(2)=   0.000000  celldm(3)=   0.000000
     celldm(4)=   0.000000  celldm(5)=   0.000000  celldm(6)=   0.000000

     crystal axes: (cart. coord. in units of alat)
               a(1) = (   6.579727   0.000000   0.000000 )
               a(2) = (  -0.000775   5.961596   0.000000 )
               a(3) = (   0.000000   0.000000  25.155947 )

     reciprocal axes: (cart. coord. in units 2 pi/alat)
               b(1) = (  0.151982  0.000020  0.000000 )
               b(2) = (  0.000000  0.167740  0.000000 )
               b(3) = (  0.000000  0.000000  0.039752 )

     PseudoPot. # 1 for Ti read from file:
     /storage/coda1/p-amedford6/0/shared/rich_project_chbe-medford/medford-share/data/pseudos_module/espresso/nninc/pbe/van/Ti.UPF
     MD5 check sum: 8e4df49b7f0d34bbd5052bf3f5ea0213
     Pseudo is Ultrasoft, Zval = 12.0
     Generated by new atomic code, or converted to UPF format
     Using radial grid of  851 points,  6 beta functions with:
                l(1) =   0
                l(2) =   0
                l(3) =   1
                l(4) =   1
                l(5) =   2
                l(6) =   2
     Q(r) pseudized with  8 coefficients,  rinner =    1.000   1.000   1.000
                                                       1.000   1.000

     PseudoPot. # 2 for O  read from file:
     /storage/coda1/p-amedford6/0/shared/rich_project_chbe-medford/medford-share/data/pseudos_module/espresso/nninc/pbe/van/O.UPF
     MD5 check sum: 78c19812648e8988a0fe644b0f25305e
     Pseudo is Ultrasoft, Zval =  6.0
     Generated by new atomic code, or converted to UPF format
     Using radial grid of  737 points,  4 beta functions with:
                l(1) =   0
                l(2) =   0
                l(3) =   1
                l(4) =   1
     Q(r) pseudized with  8 coefficients,  rinner =    0.800   0.800   0.800

     PseudoPot. # 3 for N  read from file:
     /storage/coda1/p-amedford6/0/shared/rich_project_chbe-medford/medford-share/data/pseudos_module/espresso/nninc/pbe/van/N.UPF
     MD5 check sum: 90d10febe142ad51ac9d5be1deb811c4
     Pseudo is Ultrasoft, Zval =  5.0
     Generated by new atomic code, or converted to UPF format
     Using radial grid of  729 points,  4 beta functions with:
                l(1) =   0
                l(2) =   0
                l(3) =   1
                l(4) =   1
     Q(r) pseudized with  8 coefficients,  rinner =    0.800   0.800   0.800

     PseudoPot. # 4 for C  read from file:
     /storage/coda1/p-amedford6/0/shared/rich_project_chbe-medford/medford-share/data/pseudos_module/espresso/nninc/pbe/van/C.UPF
     MD5 check sum: 1a69bf6b8db32088f5b2163dbdb77a27
     Pseudo is Ultrasoft, Zval =  4.0
     Generated by new atomic code, or converted to UPF format
     Using radial grid of  721 points,  4 beta functions with:
                l(1) =   0
                l(2) =   0
                l(3) =   1
                l(4) =   1
     Q(r) pseudized with  8 coefficients,  rinner =    0.800   0.800   0.800

     PseudoPot. # 5 for H  read from file:
     /storage/coda1/p-amedford6/0/shared/rich_project_chbe-medford/medford-share/data/pseudos_module/espresso/nninc/pbe/van/H.UPF
     MD5 check sum: b5ee9d7bfd3a09ee7748110bda690ff7
     Pseudo is Ultrasoft, Zval =  1.0
     Generated by new atomic code, or converted to UPF format
     Using radial grid of  615 points,  1 beta functions with:
                l(1) =   0
     Q(r) pseudized with  8 coefficients,  rinner =    0.800

     atomic species   valence    mass     pseudopotential
        Ti1           12.00    47.86700     Ti( 1.00)
        O1             6.00    15.99900     O ( 1.00)
        N1             5.00    14.00700     N ( 1.00)
        C1             4.00    12.01100     C ( 1.00)
        H1             1.00     1.00800     H ( 1.00)

     No symmetry found

   Cartesian axes

     site n.     atom                  positions (alat units)
         1           Ti1 tau(   1) = (   0.0004258   2.9801865   6.0000000  )
         2           Ti1 tau(   2) = (   3.2906075   1.4906267   6.0002472  )
         3           O1  tau(   3) = (   0.0006271   0.0005054   7.9858123  )
         4           O1  tau(   4) = (   3.2906025   0.0005020   7.3038282  )
         5           O1  tau(   5) = (   4.5942328   1.4918067   9.2879030  )
         6           O1  tau(   6) = (   1.9868534   1.4903216   9.2879459  )
         7           Ti1 tau(   7) = (   3.2907910   2.8959150   9.1758416  )
         8           Ti1 tau(   8) = (   0.0015273   1.4827037   9.2680791  )
         9           O1  tau(   9) = (   3.3003128   0.0493987  11.3625472  )
        10           O1  tau(  10) = (   0.0116148   5.9584955  10.6183126  )
        11           O1  tau(  11) = (   1.2863924   1.5188706  12.6959087  )
        12           O1  tau(  12) = (   5.3173592   1.5183023  12.6957539  )
        13           Ti1 tau(  13) = (   0.0130489   2.9571150  12.5182267  )
        14           Ti1 tau(  14) = (   3.3124343   1.5987737  12.4587140  )
        15           O1  tau(  15) = (   0.0455642   5.8537743  14.6515032  )
        16           O1  tau(  16) = (   3.3135256   5.8999501  14.0036581  )
        17           O1  tau(  17) = (   4.5824137   1.5787328  16.0473457  )
        18           O1  tau(  18) = (   2.0456054   1.5356268  16.0652349  )
        19           Ti1 tau(  19) = (   3.2855744   2.9948502  15.7047272  )
        20           Ti1 tau(  20) = (   0.0729980   1.3194477  15.7501807  )
        21           O1  tau(  21) = (   3.2904802   0.0005063   4.7018136  )
        22           O1  tau(  22) = (   6.5643345   0.1786488  17.1561759  )
        23           O1  tau(  23) = (   1.3043587   1.4918075   6.0039043  )
        24           O1  tau(  24) = (   5.2767064   1.4903225   6.0039473  )
        25           Ti1 tau(  25) = (   0.0000382   5.9609847   6.0000000  )
        26           Ti1 tau(  26) = (   3.2902200   4.4714249   6.0002472  )
        27           O1  tau(  27) = (   0.0002396   2.9813036   7.9858123  )
        28           O1  tau(  28) = (   3.2902150   2.9813002   7.3038282  )
        29           O1  tau(  29) = (   4.5938453   4.4726049   9.2879030  )
        30           O1  tau(  30) = (   1.9864658   4.4711199   9.2879459  )
        31           Ti1 tau(  31) = (   3.2891106   5.8743827   9.1763621  )
        32           Ti1 tau(  32) = (   0.0006254   4.4649316   9.2693709  )
        33           O1  tau(  33) = (   3.3044115   2.9646987  11.3227374  )
        34           O1  tau(  34) = (   0.0092240   2.9805883  10.6323155  )
        35           O1  tau(  35) = (   1.2889249   4.4812606  12.6373974  )
        36           O1  tau(  36) = (   5.3198440   4.4849614  12.6453916  )
        37           Ti1 tau(  37) = (   0.0274371   5.9167426  12.5032498  )
        38           Ti1 tau(  38) = (   3.3124303   4.6827448  12.7121475  )
        39           O1  tau(  39) = (   0.0064664   3.0605765  14.9143048  )
        40           O1  tau(  40) = (   3.2921723   3.0190953  13.9337278  )
        41           O1  tau(  41) = (   4.5343043   4.4484976  16.2223827  )
        42           O1  tau(  42) = (   2.0055671   4.4324605  16.2273083  )
        43           Ti1 tau(  43) = (   3.3963104   0.0511244  16.3072024  )
        44           Ti1 tau(  44) = (   0.1011521   4.5293608  16.0606835  )
        45           O1  tau(  45) = (   3.2900926   2.9813045   4.7018136  )
        46           O1  tau(  46) = (   1.3039711   4.4726057   6.0039043  )
        47           O1  tau(  47) = (   5.2763189   4.4711207   6.0039473  )
        48           N1  tau(  48) = (   0.7799224   3.1460235  19.0808133  )
        49           N1  tau(  49) = (   6.3029119   3.3142126  18.1046246  )
        50           C1  tau(  50) = (   0.9829876   4.3811599  19.8296872  )
        51           H1  tau(  51) = (   0.0599524   4.7630682  20.2995108  )
        52           H1  tau(  52) = (   1.7087173   4.1728717  20.6153690  )
        53           H1  tau(  53) = (   1.3778604   5.1510331  19.1745456  )
        54           H1  tau(  54) = (   0.4845774   2.4057476  19.7140978  )
        55           H1  tau(  55) = (   5.5451363   3.8924421  18.4761980  )
        56           H1  tau(  56) = (   5.8791802   2.3931312  17.9634808  )
        57           O1  tau(  57) = (   3.3895457   0.1916509  18.1699706  )
        58           H1  tau(  58) = (   3.8128180   5.4341384  18.6581559  )

     number of k points=    10  Fermi-Dirac smearing, width (Ry)=  0.0073
                       cart. coord. in units 2pi/alat
        k(    1) = (   0.0000000   0.0000000   0.0000000), wk =   0.1250000
        k(    2) = (   0.0000000   0.0419351   0.0000000), wk =   0.2500000
        k(    3) = (   0.0000000  -0.0838702   0.0000000), wk =   0.1250000
        k(    4) = (   0.0379955   0.0000049   0.0000000), wk =   0.2500000
        k(    5) = (   0.0379955   0.0419400   0.0000000), wk =   0.2500000
        k(    6) = (   0.0379955  -0.0838652   0.0000000), wk =   0.2500000
        k(    7) = (   0.0379955  -0.0419301   0.0000000), wk =   0.2500000
        k(    8) = (  -0.0759910  -0.0000099   0.0000000), wk =   0.1250000
        k(    9) = (  -0.0759910   0.0419252   0.0000000), wk =   0.2500000
        k(   10) = (  -0.0759910  -0.0838800   0.0000000), wk =   0.1250000

     Initial potential from superposition of free atoms

     starting charge  388.99913, renormalised to  405.00000

     negative rho (up, down):  1.368E-02 0.000E+00

     %%%%%%%%%%%%%%%%%%%%%%%%%%%%%%%%%%%%%%%%%%%%%%%%%%%%%%%%%%%%%%%%%%%%%%%%
     %                                                                      %
     % You are using vdW-DF, which was implemented by the Thonhauser group. %
     % Please cite the following two papers that made this development      %
     % possible and the two reviews that describe the various versions:     %
     %                                                                      %
     %   T. Thonhauser et al., PRL 115, 136402 (2015).                      %
     %   T. Thonhauser et al., PRB 76, 125112 (2007).                       %
     %   K. Berland et al., Rep. Prog. Phys. 78, 066501 (2015).             %
     %   D.C. Langreth et al., J. Phys.: Condens. Matter 21, 084203 (2009). %
     %                                                                      %
     %                                                                      %
     % If you are calculating the stress with vdW-DF, please also cite:     %
     %                                                                      %
     %   R. Sabatini et al., J. Phys.: Condens. Matter 24, 424209 (2012).   %
     %                                                                      %
     %%%%%%%%%%%%%%%%%%%%%%%%%%%%%%%%%%%%%%%%%%%%%%%%%%%%%%%%%%%%%%%%%%%%%%%%

     Adding external electric field

     Computed dipole along edir(3) :
        Dipole              -14.8163 Ry au,        -37.6592 Debye
        Dipole field         -0.0280 Ry au,

        Potential amp.        2.5919 Ry
        Total length         46.3494 bohr

     Starting wfcs are  307 atomic wfcs
  @ DRIVER MODE: Message from server: STATUS
  @ DRIVER MODE: Message from server: POSDATA
  @ DRIVER MODE: Reading and sharing cell
  @ DRIVER MODE: Reading and sharing positions
  @ DRIVER MODE: Received positions

     Self-consistent Calculation

     iteration #  1     ecut=    29.40 Ry     beta= 0.05
     Davidson diagonalization with overlap
     c_bands:  4 eigenvalues not converged
     c_bands:  4 eigenvalues not converged
     c_bands:  5 eigenvalues not converged
     c_bands:  2 eigenvalues not converged
     c_bands:  3 eigenvalues not converged
     c_bands:  4 eigenvalues not converged
     c_bands:  2 eigenvalues not converged
     ethr =  1.00E-05,  avg # of iterations = 22.9

[...]

     total energy              =   -2202.94159287 Ry
     estimated scf accuracy    <    8804.43305760 Ry

     iteration #  2     ecut=    29.40 Ry     beta= 0.05
     Davidson diagonalization with overlap
     ethr =  1.00E-02,  avg # of iterations = 30.8

[...]

     iteration # 37     ecut=    29.40 Ry     beta= 0.05
     Davidson diagonalization with overlap
     c_bands:  1 eigenvalues not converged
     c_bands:  1 eigenvalues not converged
     ethr =  1.04E-06,  avg # of iterations = 15.4

[...]

     total energy              =   -2976.46391093 Ry
     estimated scf accuracy    <       0.00000009 Ry

     iteration # 64     ecut=    29.40 Ry     beta= 0.05
     Davidson diagonalization with overlap
     ethr =  2.14E-11,  avg # of iterations =  5.0

     negative rho (up, down):  1.441E-02 0.000E+00

     Adding external electric field

     Computed dipole along edir(3) :
        Dipole                1.2219 Ry au,          3.1057 Debye
        Dipole field          0.0023 Ry au,

        Potential amp.       -0.2137 Ry
        Total length         46.3494 bohr

     End of self-consistent calculation

          k = 0.0000 0.0000 0.0000 ( 18029 PWs)   bands (ev):

   -55.4467 -55.3588 -55.3247 -55.2207 -55.2171 -55.1894 -55.1876 -55.1796
   -55.1554 -55.1325 -55.0893 -54.9875 -54.9391 -54.8960 -54.3338 -54.2998
   -31.8440 -31.7932 -31.7244 -31.7063 -31.6922 -31.6773 -31.6564 -31.6497
   -31.6185 -31.6050 -31.5991 -31.5113 -31.4965 -31.4892 -31.4693 -31.4659
   -31.4619 -31.4530 -31.4525 -31.4225 -31.4162 -31.3948 -31.3875 -31.3776
   -31.3731 -31.3568 -31.3557 -31.3239 -31.3235 -31.3169 -31.3162 -31.3105
   -31.3020 -31.2841 -31.2603 -31.2418 -31.1765 -31.1548 -31.1433 -31.1349
   -31.1142 -31.1051 -30.7398 -30.6534 -30.6310 -30.5573 -30.4709 -30.3592
   -17.7901 -16.3677 -16.0131 -15.8493 -15.6344 -15.5420 -15.5148 -15.3160
   -15.2209 -15.1626 -14.9614 -14.9341 -14.8966 -14.8836 -14.8748 -14.8537
   -14.8502 -14.7986 -14.7831 -14.7732 -14.7697 -14.7394 -14.7123 -14.6731
   -14.6133 -14.5997 -14.4972 -14.4417 -14.4018 -14.1606 -14.1404 -13.1617
   -12.8322 -12.7159  -9.4513  -6.4617  -5.7716  -4.2789  -3.9346  -3.3709
    -3.2696  -3.2580  -3.2011  -3.1339  -2.9686  -2.8862  -2.7825  -2.7441
    -2.6117  -2.5991  -2.4943  -2.4456  -2.3726  -2.3264  -2.2848  -2.2507
    -2.2218  -2.1654  -2.1442  -2.1181  -2.1071  -2.0344  -2.0160  -1.9258
    -1.8935  -1.8795  -1.7623  -1.7277  -1.6926  -1.6791  -1.6707  -1.6587
    -1.6179  -1.6105  -1.5997  -1.5536  -1.4563  -1.4490  -1.4318  -1.3410
    -1.2404  -0.9931  -0.9624  -0.9118  -0.9003  -0.8222  -0.7836  -0.7520
    -0.7191  -0.6489  -0.6376  -0.6122  -0.5503  -0.4754  -0.4212  -0.3735
    -0.3395  -0.2275  -0.1774  -0.1335  -0.1007  -0.0641  -0.0010   0.0385
     0.0629   0.1056   0.1934   0.2566   0.2841   0.3015   0.3513   0.3931
     0.4310   0.4708   0.5433   0.5657   0.5759   0.6151   0.6236   0.6447
     0.7398   0.7584   0.8180   0.8455   0.9331   0.9643   1.0084   1.1784
     1.2475   1.3059   1.3858   1.4879   1.6382   1.6927   1.7176   1.8867
     2.2600   2.3054   3.7250   3.8724   3.8887   3.9664   3.9834   4.0475
     4.2139   4.2732   4.4110   4.4214

[...]

          k = 0.0380-0.0419 0.0000 ( 17876 PWs)   bands (ev):

[...]

          k =-0.0760-0.0000 0.0000 ( 17886 PWs)   bands (ev):

[...]

          k =-0.0760-0.0839 0.0000 ( 17948 PWs)   bands (ev):

   -55.4458 -55.3418 -55.3416 -55.2194 -55.2054 -55.1912 -55.1883 -55.1736
   -55.1708 -55.1244 -55.0975 -54.9844 -54.9401 -54.8990 -54.3168 -54.3167
   -31.7318 -31.6713 -31.6593 -31.6592 -31.6580 -31.6443 -31.6353 -31.6350
   -31.5780 -31.5328 -31.5114 -31.5006 -31.4952 -31.4904 -31.4674 -31.4616
   -31.4611 -31.4582 -31.4516 -31.4392 -31.4325 -31.4300 -31.4179 -31.3920
   -31.3876 -31.3855 -31.3779 -31.3701 -31.3517 -31.3463 -31.3430 -31.3426
   -31.3398 -31.3196 -31.3180 -31.2535 -31.2366 -31.2088 -31.1807 -31.1571
   -31.1512 -31.1100 -30.6437 -30.6437 -30.5529 -30.5525 -30.5143 -30.5141
   -17.7862 -16.3576 -15.5944 -15.4487 -15.3403 -15.3299 -15.2060 -15.1388
   -15.1291 -15.0954 -15.0726 -15.0506 -15.0322 -15.0171 -14.9622 -14.9225
   -14.8912 -14.8638 -14.8592 -14.8163 -14.8065 -14.7952 -14.7772 -14.7657
   -14.7105 -14.6743 -14.6646 -14.6067 -14.4671 -14.4462 -14.2907 -13.1630
   -12.8178 -12.8176  -9.4700  -6.4468  -5.7774  -4.2651  -3.9234  -2.9547
    -2.8024  -2.6601  -2.6035  -2.5647  -2.4512  -2.4266  -2.3691  -2.3186
    -2.2939  -2.2729  -2.2207  -2.2108  -2.1639  -2.1485  -2.1237  -2.1086
    -2.0932  -2.0868  -2.0582  -2.0429  -2.0327  -2.0153  -1.9928  -1.9816
    -1.9634  -1.9346  -1.9145  -1.9053  -1.8708  -1.8296  -1.7674  -1.6561
    -1.5815  -1.5685  -1.5289  -1.5041  -1.4879  -1.4469  -1.4344  -1.3933
    -1.3758  -1.3097  -1.1518  -1.1270  -1.1117  -0.9697  -0.9625  -0.9337
    -0.8595  -0.8178  -0.7960  -0.7383  -0.7066  -0.6663  -0.5913  -0.5479
    -0.4932  -0.4272  -0.3277  -0.3199  -0.3039  -0.2837  -0.2676  -0.2597
    -0.2265  -0.1894  -0.1163  -0.0697  -0.0612  -0.0551  -0.0040   0.0754
     0.1267   0.2411   0.3872   0.3918   0.4588   0.4596   0.6593   0.6684
     0.7449   0.7805   0.8147   0.8416   0.9356   0.9536   0.9912   1.0741
     1.1377   1.1672   1.1881   1.1927   1.2460   1.4731   2.0550   2.0629
     2.1257   2.1258   3.9662   4.1992   4.2393   4.2526   4.2709   4.2973
     4.3110   4.3253   4.3921   4.4153

     the Fermi energy is     3.7623 ev

!    total energy              =   -2976.46395223 Ry
     estimated scf accuracy    <       0.00000007 Ry
     smearing contrib. (-TS)   =      -0.01955664 Ry
     internal energy E=F+TS    =   -2976.44439559 Ry

     The total energy is F=E-TS. E is the sum of the following terms:
     one-electron contribution =  -23034.94219388 Ry
     hartree contribution      =   11615.17386988 Ry
     xc contribution           =    -495.73179753 Ry
     ewald contribution        =    8939.05290855 Ry
     electric field correction =       0.00281740 Ry

     convergence has been achieved in  64 iterations

     Forces acting on atoms (cartesian axes, Ry/au):

     atom    1 type  1   force =     0.00015389   -0.00021991    0.09417242
     atom    2 type  1   force =    -0.00010364    0.00018621   -0.17536721
     atom    3 type  2   force =     0.00005406   -0.00049508   -0.02103346
     atom    4 type  2   force =    -0.00002461   -0.00093756    0.05425187
     atom    5 type  2   force =    -0.00488662   -0.00215882    0.00106893
     atom    6 type  2   force =     0.00670819   -0.00138415    0.00108528
     atom    7 type  1   force =     0.00005824    0.00331445    0.00865776
     atom    8 type  1   force =    -0.00009694    0.00119212    0.00270852
     atom    9 type  2   force =    -0.00022093   -0.00030614   -0.00058482
     atom   10 type  2   force =    -0.00112051    0.00429068   -0.01024671
     atom   11 type  2   force =    -0.00008510   -0.00055604   -0.00010686
     atom   12 type  2   force =     0.00062718   -0.00031969   -0.00026525
     atom   13 type  1   force =    -0.00144246    0.00019984   -0.00060337
     atom   14 type  1   force =     0.00070072    0.00017263   -0.00046079
     atom   15 type  2   force =     0.00015287   -0.00014496    0.00010618
     atom   16 type  2   force =    -0.00009224   -0.00069368   -0.00030466
     atom   17 type  2   force =    -0.00035588    0.00074110    0.00010531
     atom   18 type  2   force =    -0.00077325    0.00032463   -0.00022678
     atom   19 type  1   force =     0.00041754   -0.00093719    0.00064135
     atom   20 type  1   force =    -0.00068148   -0.00012812    0.00061113
     atom   21 type  2   force =     0.00003548   -0.00001057    0.10323187
     atom   22 type  2   force =    -0.00012769    0.00010654    0.00036327
     atom   23 type  2   force =    -0.07200677   -0.00020140   -0.02727378
     atom   24 type  2   force =     0.07188458    0.00025403   -0.02734647
     atom   25 type  1   force =     0.00007898   -0.00016585    0.09390588
     atom   26 type  1   force =    -0.00012084   -0.00136832   -0.17549352
     atom   27 type  2   force =     0.00011056   -0.00005367   -0.01984710
     atom   28 type  2   force =     0.00006354   -0.00105244    0.04980144
     atom   29 type  2   force =    -0.00746668    0.00209606    0.00339060
     atom   30 type  2   force =     0.00906931    0.00223713    0.00330785
     atom   31 type  1   force =     0.00019319    0.00152095    0.00005408
     atom   32 type  1   force =    -0.00009179   -0.00226503    0.00302555
     atom   33 type  2   force =    -0.00017809   -0.00031790   -0.00002403
     atom   34 type  2   force =    -0.00117190   -0.00218440   -0.00964171
     atom   35 type  2   force =     0.00063043    0.00005180   -0.00022268
     atom   36 type  2   force =     0.00037988    0.00011485   -0.00034998
     atom   37 type  1   force =    -0.00097429    0.00025475    0.00032041
     atom   38 type  1   force =     0.00096434   -0.00024579    0.00018807
     atom   39 type  2   force =    -0.00018466   -0.00051474    0.00023160
     atom   40 type  2   force =    -0.00020007   -0.00019629   -0.00017212
     atom   41 type  2   force =     0.00044961   -0.00043038    0.00007451
     atom   42 type  2   force =    -0.00069784    0.00002434   -0.00009987
     atom   43 type  1   force =     0.00019989    0.00097031    0.00059800
     atom   44 type  1   force =    -0.00054342    0.00079286    0.00063147
     atom   45 type  2   force =     0.00002508    0.00003421    0.10305254
     atom   46 type  2   force =    -0.07195900   -0.00007852   -0.02722792
     atom   47 type  2   force =     0.07184721    0.00035250   -0.02730975
     atom   48 type  3   force =     0.00077787   -0.00151018    0.00355779
     atom   49 type  3   force =    -0.00102112   -0.00436109   -0.01255520
     atom   50 type  4   force =     0.00105769   -0.00011145    0.00102224
     atom   51 type  5   force =    -0.00104921   -0.00033844    0.00040240
     atom   52 type  5   force =     0.00058291    0.00007952    0.00037750
     atom   53 type  5   force =    -0.00026715    0.00061917   -0.00052762
     atom   54 type  5   force =     0.00182805   -0.00028238    0.00105049
     atom   55 type  5   force =    -0.00279400    0.00226941    0.00385807
     atom   56 type  5   force =     0.00177451    0.00200186    0.00117462
     atom   57 type  2   force =     0.00071144   -0.00117009    0.00000227
     atom   58 type  5   force =    -0.00079906    0.00093833    0.00026038

     Total force =     0.362342     Total SCF correction =     0.000681
  @ DRIVER MODE: Message from server: STATUS
  @ DRIVER MODE: Message from server: GETFORCE
  @ DRIVER MODE: Returning v,forces,stress,ensemble

     Writing output data file ./calc.save/
  @ DRIVER MODE: Message from server: EXIT
  @ DRIVE MODE: Exiting

     General routines

     Parallel routines

   This run was terminated on:  16:21:54  23Sep2021

   JOB DONE.