     Program PWSCF v.6.7GPU starts on  9Sep2021 at  1:52:53

     R & G space division:  proc/nbgrp/npool/nimage =      10
     Reading input from /storage/home/hcoda1/3/ntian30/research/carbon/CxH_vib/CH_calc/ads_slab/CHN2H_a/out_0012/pw.inp
Warning: card &CELL ignored
Warning: card   CELL_DYNAMICS='IPI', ignored
Warning: card / ignored

     Current dimensions of program PWSCF are:
     Max number of different atomic species (ntypx) = 10
     Max number of k-points (npk) =  40000
     Max angular momentum in pseudopotentials (lmaxx) =  3
     Presently no symmetry can be used with electric field

     Message from routine cell_base_init:
     DEPRECATED: use true lattice parameter, not A to a.u. conversion factor

     IMPORTANT: XC functional enforced from input :
     Exchange-correlation= BEEF-VDW
                           (   1   4  43  14   2   0   0)
     Any further DFT definition will be discarded
     Please, verify this is what you really want

  @ DRIVER MODE: Connecting to
 qe_1139763_2767376.sched-torque.pace.gatech.eduvp32efeg_scratch
  using UNIX socket
  @ DRIVER MODE: Message from server: STATUS
  @ DRIVER MODE: Message from server: INIT
  @ DRIVER MODE: Receiving replica           0          -1
  @ DRIVER MODE: Receiving encoded integer          25
  @ DRIVER MODE:  SCF:  T  FORCE:  T  STRESS:  F  VC:  F  ENSEMBLE:  F
  @ DRIVER MODE:  SCF:  T  FORCE:  T  STRESS:  F  VC:  F  ENSEMBLE:  F

     Using Slab Decomposition

     bravais-lattice index     =            0
     lattice parameter (alat)  =       1.8897  a.u.
     unit-cell volume          =    6658.9804 (a.u.)^3
     number of atoms/cell      =           52
     number of atomic types    =            5
     number of electrons       =       394.00
     number of Kohn-Sham states=          207
     kinetic-energy cutoff     =      29.3995  Ry
     charge density cutoff     =     293.9946  Ry
     scf convergence threshold =      7.3E-08
     mixing beta               =       0.0500
     number of iterations used =            8  plain     mixing
     Exchange-correlation= BEEF-VDW
                           (   1   4  43  14   2   0   0)

     celldm(1)=   1.889726  celldm(2)=   0.000000  celldm(3)=   0.000000
     celldm(4)=   0.000000  celldm(5)=   0.000000  celldm(6)=   0.000000

     crystal axes: (cart. coord. in units of alat)
               a(1) = (   6.579727   0.000000   0.000000 )
               a(2) = (  -0.000775   5.961596   0.000000 )
               a(3) = (   0.000000   0.000000  25.155947 )

     reciprocal axes: (cart. coord. in units 2 pi/alat)
               b(1) = (  0.151982  0.000020  0.000000 )
               b(2) = (  0.000000  0.167740  0.000000 )
               b(3) = (  0.000000  0.000000  0.039752 )

     PseudoPot. # 1 for Ti read from file:
     /storage/coda1/p-amedford6/0/shared/rich_project_chbe-medford/medford-share/data/pseudos_module/espresso/nninc/pbe/van/Ti.UPF
     MD5 check sum: 8e4df49b7f0d34bbd5052bf3f5ea0213
     Pseudo is Ultrasoft, Zval = 12.0
     Generated by new atomic code, or converted to UPF format
     Using radial grid of  851 points,  6 beta functions with:
                l(1) =   0
                l(2) =   0
                l(3) =   1
                l(4) =   1
                l(5) =   2
                l(6) =   2
     Q(r) pseudized with  8 coefficients,  rinner =    1.000   1.000   1.000
                                                       1.000   1.000

     PseudoPot. # 2 for O  read from file:
     /storage/coda1/p-amedford6/0/shared/rich_project_chbe-medford/medford-share/data/pseudos_module/espresso/nninc/pbe/van/O.UPF
     MD5 check sum: 78c19812648e8988a0fe644b0f25305e
     Pseudo is Ultrasoft, Zval =  6.0
     Generated by new atomic code, or converted to UPF format
     Using radial grid of  737 points,  4 beta functions with:
                l(1) =   0
                l(2) =   0
                l(3) =   1
                l(4) =   1
     Q(r) pseudized with  8 coefficients,  rinner =    0.800   0.800   0.800

     PseudoPot. # 3 for N  read from file:
     /storage/coda1/p-amedford6/0/shared/rich_project_chbe-medford/medford-share/data/pseudos_module/espresso/nninc/pbe/van/N.UPF
     MD5 check sum: 90d10febe142ad51ac9d5be1deb811c4
     Pseudo is Ultrasoft, Zval =  5.0
     Generated by new atomic code, or converted to UPF format
     Using radial grid of  729 points,  4 beta functions with:
                l(1) =   0
                l(2) =   0
                l(3) =   1
                l(4) =   1
     Q(r) pseudized with  8 coefficients,  rinner =    0.800   0.800   0.800

     PseudoPot. # 4 for C  read from file:
     /storage/coda1/p-amedford6/0/shared/rich_project_chbe-medford/medford-share/data/pseudos_module/espresso/nninc/pbe/van/C.UPF
     MD5 check sum: 1a69bf6b8db32088f5b2163dbdb77a27
     Pseudo is Ultrasoft, Zval =  4.0
     Generated by new atomic code, or converted to UPF format
     Using radial grid of  721 points,  4 beta functions with:
                l(1) =   0
                l(2) =   0
                l(3) =   1
                l(4) =   1
     Q(r) pseudized with  8 coefficients,  rinner =    0.800   0.800   0.800

     PseudoPot. # 5 for H  read from file:
     /storage/coda1/p-amedford6/0/shared/rich_project_chbe-medford/medford-share/data/pseudos_module/espresso/nninc/pbe/van/H.UPF
     MD5 check sum: b5ee9d7bfd3a09ee7748110bda690ff7
     Pseudo is Ultrasoft, Zval =  1.0
     Generated by new atomic code, or converted to UPF format
     Using radial grid of  615 points,  1 beta functions with:
                l(1) =   0
     Q(r) pseudized with  8 coefficients,  rinner =    0.800

     atomic species   valence    mass     pseudopotential
        Ti1           12.00    47.86700     Ti( 1.00)
        O1             6.00    15.99900     O ( 1.00)
        N1             5.00    14.00700     N ( 1.00)
        C1             4.00    12.01100     C ( 1.00)
        H1             1.00     1.00800     H ( 1.00)

     No symmetry found

   Cartesian axes

     site n.     atom                  positions (alat units)
         1           Ti1 tau(   1) = (   0.0004258   2.9801865   6.0000000  )
         2           Ti1 tau(   2) = (   3.2906075   1.4906267   6.0002472  )
         3           O1  tau(   3) = (   0.0006271   0.0005054   7.9858123  )
         4           O1  tau(   4) = (   3.2906025   0.0005020   7.3038282  )
         5           O1  tau(   5) = (   4.5942328   1.4918067   9.2879030  )
         6           O1  tau(   6) = (   1.9868534   1.4903216   9.2879459  )
         7           Ti1 tau(   7) = (   3.2907910   2.8959150   9.1758416  )
         8           Ti1 tau(   8) = (   0.0015273   1.4827037   9.2680791  )
         9           O1  tau(   9) = (   3.3079035   5.9465650  11.3667630  )
        10           O1  tau(  10) = (   0.0116148   5.9584955  10.6183126  )
        11           O1  tau(  11) = (   1.3159687   1.4802111  12.6598234  )
        12           O1  tau(  12) = (   5.3141237   1.4785834  12.6569702  )
        13           Ti1 tau(  13) = (   0.0356438   2.9569522  12.5500042  )
        14           Ti1 tau(  14) = (   3.3321116   1.4682926  12.5176941  )
        15           O1  tau(  15) = (   0.0287262   5.9365737  14.6848071  )
        16           O1  tau(  16) = (   3.3260766   5.9477468  13.9918032  )
        17           O1  tau(  17) = (   4.5788076   1.5006004  16.1778977  )
        18           O1  tau(  18) = (   2.0653823   1.4932191  16.1519216  )
        19           Ti1 tau(  19) = (   3.3252840   2.9629899  15.7366588  )
        20           Ti1 tau(  20) = (   0.0567170   1.3280226  15.9864722  )
        21           O1  tau(  21) = (   3.2904802   0.0005063   4.7018136  )
        22           O1  tau(  22) = (   0.0395201   5.9563027  17.2132275  )
        23           O1  tau(  23) = (   1.3043587   1.4918075   6.0039043  )
        24           O1  tau(  24) = (   5.2767064   1.4903225   6.0039473  )
        25           Ti1 tau(  25) = (   0.0000382   5.9609847   6.0000000  )
        26           Ti1 tau(  26) = (   3.2902200   4.4714249   6.0002472  )
        27           O1  tau(  27) = (   0.0002396   2.9813036   7.9858123  )
        28           O1  tau(  28) = (   3.2902150   2.9813002   7.3038282  )
        29           O1  tau(  29) = (   4.5938453   4.4726049   9.2879030  )
        30           O1  tau(  30) = (   1.9864658   4.4711199   9.2879459  )
        31           Ti1 tau(  31) = (   3.2891106   5.8743827   9.1763621  )
        32           Ti1 tau(  32) = (   0.0006254   4.4649316   9.2693709  )
        33           O1  tau(  33) = (   3.3109971   2.9638951  11.3609806  )
        34           O1  tau(  34) = (   0.0092240   2.9805883  10.6323155  )
        35           O1  tau(  35) = (   1.3172493   4.4579999  12.6547637  )
        36           O1  tau(  36) = (   5.3123203   4.4599931  12.6537913  )
        37           Ti1 tau(  37) = (   0.0349292   5.9384232  12.5038109  )
        38           Ti1 tau(  38) = (   3.3308216   4.4462378  12.5132791  )
        39           O1  tau(  39) = (   0.0262156   2.9786664  14.8481040  )
        40           O1  tau(  40) = (   3.3240488   2.9673873  13.9486158  )
        41           O1  tau(  41) = (   4.5778164   4.4375445  16.1741249  )
        42           O1  tau(  42) = (   2.0647505   4.4412733  16.1578575  )
        43           Ti1 tau(  43) = (   3.3314326   5.9455663  15.7867969  )
        44           Ti1 tau(  44) = (   0.0345939   4.5236910  15.9072353  )
        45           O1  tau(  45) = (   3.2900926   2.9813045   4.7018136  )
        46           O1  tau(  46) = (   1.3039711   4.4726057   6.0039043  )
        47           O1  tau(  47) = (   5.2763189   4.4711207   6.0039473  )
        48           N1  tau(  48) = (   0.8843530   3.1395628  18.6524426  )
        49           C1  tau(  49) = (   1.8908588   3.1194352  19.2934450  )
        50           H1  tau(  50) = (   2.4245030   3.8971110  19.8100181  )
        51           N1  tau(  51) = (   6.5588057   2.9807634  17.7841789  )
        52           H1  tau(  52) = (   5.6432114   2.8891999  18.2270943  )

     number of k points=    10  Fermi-Dirac smearing, width (Ry)=  0.0073
                       cart. coord. in units 2pi/alat
        k(    1) = (   0.0000000   0.0000000   0.0000000), wk =   0.1250000
        k(    2) = (   0.0000000   0.0419351   0.0000000), wk =   0.2500000
        k(    3) = (   0.0000000  -0.0838702   0.0000000), wk =   0.1250000
        k(    4) = (   0.0379955   0.0000049   0.0000000), wk =   0.2500000
        k(    5) = (   0.0379955   0.0419400   0.0000000), wk =   0.2500000
        k(    6) = (   0.0379955  -0.0838652   0.0000000), wk =   0.2500000
        k(    7) = (   0.0379955  -0.0419301   0.0000000), wk =   0.2500000
        k(    8) = (  -0.0759910  -0.0000099   0.0000000), wk =   0.1250000
        k(    9) = (  -0.0759910   0.0419252   0.0000000), wk =   0.2500000
        k(   10) = (  -0.0759910  -0.0838800   0.0000000), wk =   0.1250000

     Initial potential from superposition of free atoms

     starting charge  377.99917, renormalised to  394.00000

     negative rho (up, down):  1.651E-02 0.000E+00

     %%%%%%%%%%%%%%%%%%%%%%%%%%%%%%%%%%%%%%%%%%%%%%%%%%%%%%%%%%%%%%%%%%%%%%%%
     %                                                                      %
     % You are using vdW-DF, which was implemented by the Thonhauser group. %
     % Please cite the following two papers that made this development      %
     % possible and the two reviews that describe the various versions:     %
     %                                                                      %
     %   T. Thonhauser et al., PRL 115, 136402 (2015).                      %
     %   T. Thonhauser et al., PRB 76, 125112 (2007).                       %
     %   K. Berland et al., Rep. Prog. Phys. 78, 066501 (2015).             %
     %   D.C. Langreth et al., J. Phys.: Condens. Matter 21, 084203 (2009). %
     %                                                                      %
     %                                                                      %
     % If you are calculating the stress with vdW-DF, please also cite:     %
     %                                                                      %
     %   R. Sabatini et al., J. Phys.: Condens. Matter 24, 424209 (2012).   %
     %                                                                      %
     %%%%%%%%%%%%%%%%%%%%%%%%%%%%%%%%%%%%%%%%%%%%%%%%%%%%%%%%%%%%%%%%%%%%%%%%

     Adding external electric field

     Computed dipole along edir(3) :
        Dipole               -8.5027 Ry au,        -21.6117 Debye
        Dipole field         -0.0160 Ry au,

        Potential amp.        1.4874 Ry
        Total length         46.3494 bohr

     Starting wfcs are  298 atomic wfcs
  @ DRIVER MODE: Message from server: STATUS
  @ DRIVER MODE: Message from server: POSDATA
  @ DRIVER MODE: Reading and sharing cell
  @ DRIVER MODE: Reading and sharing positions
  @ DRIVER MODE: Received positions

     Self-consistent Calculation

     iteration #  1     ecut=    29.40 Ry     beta= 0.05
     Davidson diagonalization with overlap
     c_bands:  1 eigenvalues not converged
     c_bands:  1 eigenvalues not converged
     c_bands:  2 eigenvalues not converged
     c_bands:  2 eigenvalues not converged
     c_bands:  2 eigenvalues not converged
     c_bands:  1 eigenvalues not converged
     ethr =  1.00E-05,  avg # of iterations = 19.0

[...]

     total energy              =   -2624.26856432 Ry
     estimated scf accuracy    <    3488.57723643 Ry

[...]

     iteration #  3     ecut=    29.40 Ry     beta= 0.05
     Davidson diagonalization with overlap
     ethr =  1.00E-02,  avg # of iterations = 15.5

[...]

     iteration # 71     ecut=    29.40 Ry     beta= 0.05
     Davidson diagonalization with overlap
     c_bands:  1 eigenvalues not converged
     c_bands:  1 eigenvalues not converged
     ethr =  1.20E-10,  avg # of iterations = 13.5

[...]

     total energy              =   -2937.80844311 Ry
     estimated scf accuracy    <       0.00000011 Ry

     iteration # 74     ecut=    29.40 Ry     beta= 0.05
     Davidson diagonalization with overlap
     ethr =  2.77E-11,  avg # of iterations =  3.6

     negative rho (up, down):  1.628E-02 0.000E+00

     Adding external electric field

     Computed dipole along edir(3) :
        Dipole                1.2878 Ry au,          3.2733 Debye
        Dipole field          0.0024 Ry au,

        Potential amp.       -0.2253 Ry
        Total length         46.3494 bohr

     End of self-consistent calculation

          k = 0.0000 0.0000 0.0000 ( 18029 PWs)   bands (ev):

   -55.4382 -55.4022 -55.4022 -55.3681 -55.3318 -55.3159 -55.2728 -55.2511
   -55.2460 -55.2361 -55.2287 -55.2166 -55.1953 -55.1684 -54.4202 -54.3861
   -32.0072 -31.8928 -31.8318 -31.8016 -31.7576 -31.7499 -31.7403 -31.7315
   -31.6918 -31.6849 -31.6473 -31.6467 -31.6392 -31.6119 -31.5926 -31.5743
   -31.5700 -31.5638 -31.5555 -31.5498 -31.5145 -31.5143 -31.5046 -31.4960
   -31.4815 -31.4592 -31.4534 -31.4516 -31.4460 -31.4426 -31.4396 -31.4253
   -31.4174 -31.4107 -31.4053 -31.4003 -31.3790 -31.3657 -31.3638 -31.3580
   -31.3373 -31.2752 -30.8291 -30.7361 -30.7140 -30.6455 -30.5588 -30.4479
   -20.2194 -16.2527 -15.9803 -15.8361 -15.7131 -15.6286 -15.5017 -15.4616
   -15.3442 -15.3096 -15.2301 -15.1548 -15.0874 -15.0851 -15.0685 -15.0408
   -14.9898 -14.9734 -14.9709 -14.9286 -14.9264 -14.8844 -14.8649 -14.8309
   -14.8131 -14.7941 -14.7764 -14.6543 -14.5848 -14.5261 -14.1649 -12.9230
   -12.8058  -8.8334  -7.1755  -5.4187  -4.7079  -3.5978  -3.4380  -3.3509
    -3.3347  -3.3317  -3.1660  -3.0382  -2.8107  -2.7724  -2.6993  -2.6450
    -2.6270  -2.6051  -2.4273  -2.4029  -2.3433  -2.3160  -2.2786  -2.2485
    -2.2236  -2.2027  -2.1960  -2.1776  -2.1640  -2.0030  -1.9044  -1.8735
    -1.8379  -1.8240  -1.7644  -1.7313  -1.7256  -1.7236  -1.7145  -1.6713
    -1.6519  -1.6038  -1.5020  -1.4685  -1.4412  -1.3191  -1.3035  -1.1560
    -1.0709  -0.9862  -0.9789  -0.9121  -0.9063  -0.8732  -0.8222  -0.7974
    -0.7736  -0.6401  -0.5697  -0.5114  -0.4970  -0.4526  -0.4073  -0.3713
    -0.2779  -0.2138  -0.2061  -0.1941  -0.0292  -0.0150   0.0319   0.0814
     0.1058   0.1546   0.1794   0.2492   0.2833   0.3288   0.3590   0.4557
     0.4948   0.5157   0.5291   0.5490   0.5612   0.6219   0.6885   0.7071
     0.7553   0.8110   0.9234   1.1208   1.1827   1.1959   1.5119   1.5461
     1.6022   1.7875   2.1772   2.2249   3.6618   3.7333   3.7971   3.8122
     3.8210   3.8975   4.0714   4.1451   4.1607   4.1673   4.1786

[...]

          k = 0.0380-0.0419 0.0000 ( 17876 PWs)   bands (ev):

[...]

          k =-0.0760-0.0000 0.0000 ( 17886 PWs)   bands (ev):

[...]

          k =-0.0760-0.0839 0.0000 ( 17948 PWs)   bands (ev):

   -55.4213 -55.4189 -55.3852 -55.3849 -55.3285 -55.3074 -55.2813 -55.2416
   -55.2393 -55.2346 -55.2324 -55.2125 -55.2118 -55.1726 -54.4032 -54.4030
   -31.8122 -31.8093 -31.7503 -31.7308 -31.7080 -31.7078 -31.6958 -31.6773
   -31.6770 -31.6488 -31.6394 -31.6340 -31.6308 -31.5905 -31.5686 -31.5654
   -31.5653 -31.5575 -31.5569 -31.5465 -31.5335 -31.5244 -31.5140 -31.5102
   -31.5060 -31.5047 -31.5043 -31.4989 -31.4756 -31.4678 -31.4670 -31.4652
   -31.4483 -31.4456 -31.4449 -31.4365 -31.4353 -31.4301 -31.3926 -31.3918
   -31.3867 -31.3666 -30.7267 -30.7265 -30.6418 -30.6415 -30.6022 -30.6021
   -20.2181 -15.7084 -15.6880 -15.6291 -15.4229 -15.4191 -15.4082 -15.3941
   -15.3439 -15.2354 -15.2133 -15.2003 -15.1827 -15.1406 -15.1370 -15.1207
   -15.1111 -15.0117 -15.0095 -15.0074 -15.0060 -14.9436 -14.9357 -14.9219
   -14.8874 -14.8842 -14.8551 -14.7852 -14.7823 -14.6498 -14.4854 -12.9074
   -12.9073  -8.8186  -7.1952  -5.4170  -4.6908  -2.9634  -2.8931  -2.8500
    -2.6404  -2.6177  -2.6030  -2.5197  -2.4708  -2.4088  -2.4013  -2.3951
    -2.3356  -2.3003  -2.2869  -2.2686  -2.2606  -2.2434  -2.2216  -2.2107
    -2.1646  -2.1533  -2.1437  -2.1089  -2.0954  -2.0771  -2.0519  -2.0329
    -2.0186  -2.0131  -1.9929  -1.8330  -1.7812  -1.7346  -1.6805  -1.6736
    -1.6301  -1.6225  -1.5285  -1.4939  -1.4650  -1.4374  -1.4288  -1.2369
    -1.2222  -1.1697  -1.1651  -1.1413  -0.9855  -0.9655  -0.9494  -0.9324
    -0.8870  -0.8043  -0.7978  -0.7606  -0.6533  -0.6232  -0.6156  -0.5661
    -0.4458  -0.4228  -0.4007  -0.3949  -0.3892  -0.2960  -0.2789  -0.2698
    -0.2378  -0.2044  -0.1537  -0.1473  -0.0945   0.0879   0.1325   0.1980
     0.2771   0.4451   0.4852   0.5123   0.5535   0.6148   0.6876   0.7034
     0.7685   0.8623   0.8771   0.9071   0.9793   1.0323   1.0402   1.0645
     1.9603   1.9610   2.0448   2.0449   3.8336   3.8434   3.9063   3.9435
     3.9917   4.0780   4.1807   4.1957   4.2409   4.2417   4.3224

     the Fermi energy is     3.7157 ev

!    total energy              =   -2937.80845463 Ry
     estimated scf accuracy    <       0.00000007 Ry
     smearing contrib. (-TS)   =      -0.03815157 Ry
     internal energy E=F+TS    =   -2937.77030306 Ry

     The total energy is F=E-TS. E is the sum of the following terms:
     one-electron contribution =  -24090.36224915 Ry
     hartree contribution      =   12135.21041963 Ry
     xc contribution           =    -484.37918916 Ry
     ewald contribution        =    9501.75758586 Ry
     electric field correction =       0.00312976 Ry

     convergence has been achieved in  74 iterations

     Forces acting on atoms (cartesian axes, Ry/au):

     atom    1 type  1   force =     0.00006233   -0.00011519    0.09406082
     atom    2 type  1   force =    -0.00016759   -0.00022038   -0.17761612
     atom    3 type  2   force =     0.00011105   -0.00020242   -0.02137578
     atom    4 type  2   force =     0.00002511   -0.00184018    0.05753285
     atom    5 type  2   force =    -0.01068965   -0.00139280    0.00632986
     atom    6 type  2   force =     0.01275741   -0.00074654    0.00661224
     atom    7 type  1   force =     0.00011362    0.00197400   -0.01406228
     atom    8 type  1   force =    -0.00046573    0.00584950    0.00394795
     atom    9 type  2   force =     0.00036224    0.00022737   -0.00007021
     atom   10 type  2   force =    -0.00023936    0.00022309   -0.00512622
     atom   11 type  2   force =     0.00004995   -0.00015359   -0.00043869
     atom   12 type  2   force =    -0.00029417    0.00000944    0.00009232
     atom   13 type  1   force =    -0.00025306    0.00001686   -0.00030184
     atom   14 type  1   force =    -0.00008629    0.00014843   -0.00015972
     atom   15 type  2   force =    -0.00049853   -0.00038686   -0.00011358
     atom   16 type  2   force =    -0.00017908    0.00019169    0.00003947
     atom   17 type  2   force =     0.00003077   -0.00015255   -0.00011641
     atom   18 type  2   force =    -0.00041700   -0.00011540   -0.00050662
     atom   19 type  1   force =    -0.00027677    0.00015972   -0.00022987
     atom   20 type  1   force =    -0.00033876   -0.00022918    0.00045535
     atom   21 type  2   force =     0.00001872    0.00002163    0.10379297
     atom   22 type  2   force =    -0.00000496    0.00008365   -0.00007544
     atom   23 type  2   force =    -0.07062742   -0.00007779   -0.02703321
     atom   24 type  2   force =     0.07052224    0.00036688   -0.02708690
     atom   25 type  1   force =     0.00001296   -0.00008823    0.09369459
     atom   26 type  1   force =    -0.00013650   -0.00016971   -0.17768883
     atom   27 type  2   force =     0.00013508   -0.00024424   -0.02038422
     atom   28 type  2   force =     0.00006710   -0.00155281    0.05700044
     atom   29 type  2   force =    -0.01103729   -0.00053669    0.00635266
     atom   30 type  2   force =     0.01295901   -0.00027348    0.00664525
     atom   31 type  1   force =     0.00029770    0.00519452   -0.01484096
     atom   32 type  1   force =    -0.00039588   -0.00659857    0.00412556
     atom   33 type  2   force =     0.00015769    0.00008497   -0.00030182
     atom   34 type  2   force =     0.00035787   -0.00102956   -0.00201552
     atom   35 type  2   force =    -0.00031077    0.00014941   -0.00020571
     atom   36 type  2   force =    -0.00004189    0.00000058    0.00012594
     atom   37 type  1   force =    -0.00007343    0.00024030   -0.00014232
     atom   38 type  1   force =     0.00005868    0.00025594    0.00021417
     atom   39 type  2   force =    -0.00007479    0.00020003    0.00016773
     atom   40 type  2   force =    -0.00029529    0.00009528   -0.00020491
     atom   41 type  2   force =    -0.00016180   -0.00012411    0.00011841
     atom   42 type  2   force =    -0.00021764    0.00014214   -0.00023623
     atom   43 type  1   force =    -0.00020536    0.00011349   -0.00009888
     atom   44 type  1   force =     0.00005192   -0.00020223   -0.00034621
     atom   45 type  2   force =     0.00001262   -0.00000552    0.10378870
     atom   46 type  2   force =    -0.07064310   -0.00004166   -0.02704816
     atom   47 type  2   force =     0.07052226    0.00039922   -0.02708607
     atom   48 type  3   force =     0.01551879    0.00085754    0.01129594
     atom   49 type  4   force =    -0.02006384   -0.00537604   -0.01481182
     atom   50 type  5   force =     0.00265833    0.00508989    0.00295941
     atom   51 type  3   force =     0.00172577   -0.00073598    0.00012914
     atom   52 type  5   force =    -0.00039327    0.00051615    0.00024280

     Total force =     0.367401     Total SCF correction =     0.000857
  @ DRIVER MODE: Message from server: STATUS
  @ DRIVER MODE: Message from server: GETFORCE
  @ DRIVER MODE: Returning v,forces,stress,ensemble

     Writing output data file ./calc.save/
  @ DRIVER MODE: Message from server: EXIT
  @ DRIVE MODE: Exiting

     General routines

     Parallel routines

   This run was terminated on:   2:11:52   9Sep2021

   JOB DONE.