     Program PWSCF v.6.7GPU starts on 19Oct2021 at  6:39:49

     R & G space division:  proc/nbgrp/npool/nimage =       8
     Reading input from /storage/home/hcoda1/3/ntian30/research/carbon/CxH_vib/Thiel_calc/ads_slab/NH2NH3H_perslab/out_0040/pw.inp
Warning: card &CELL ignored
Warning: card   CELL_DYNAMICS='IPI', ignored
Warning: card / ignored

     Current dimensions of program PWSCF are:
     Max number of different atomic species (ntypx) = 10
     Max number of k-points (npk) =  40000
     Max angular momentum in pseudopotentials (lmaxx) =  3
     Presently no symmetry can be used with electric field

     Message from routine cell_base_init:
     DEPRECATED: use true lattice parameter, not A to a.u. conversion factor

     IMPORTANT: XC functional enforced from input :
     Exchange-correlation= BEEF-VDW
                           (   1   4  43  14   2   0   0)
     Any further DFT definition will be discarded
     Please, verify this is what you really want

  @ DRIVER MODE: Connecting to
 qe_1139763_3255138.sched-torque.pace.gatech.eduwzp104_2_scratch
  using UNIX socket
  @ DRIVER MODE: Message from server: STATUS
  @ DRIVER MODE: Message from server: INIT
  @ DRIVER MODE: Receiving replica           0          -1
  @ DRIVER MODE: Receiving encoded integer          25
  @ DRIVER MODE:  SCF:  T  FORCE:  T  STRESS:  F  VC:  F  ENSEMBLE:  F
  @ DRIVER MODE:  SCF:  T  FORCE:  T  STRESS:  F  VC:  F  ENSEMBLE:  F

     Using Slab Decomposition

     bravais-lattice index     =            0
     lattice parameter (alat)  =       1.8897  a.u.
     unit-cell volume          =    9988.4706 (a.u.)^3
     number of atoms/cell      =           61
     number of atomic types    =            4
     number of electrons       =       442.00
     number of Kohn-Sham states=          231
     kinetic-energy cutoff     =      29.3995  Ry
     charge density cutoff     =     293.9946  Ry
     scf convergence threshold =      7.3E-08
     mixing beta               =       0.0500
     number of iterations used =            8  plain     mixing
     Exchange-correlation= BEEF-VDW
                           (   1   4  43  14   2   0   0)

     celldm(1)=   1.889726  celldm(2)=   0.000000  celldm(3)=   0.000000
     celldm(4)=   0.000000  celldm(5)=   0.000000  celldm(6)=   0.000000

     crystal axes: (cart. coord. in units of alat)
               a(1) = (   6.579727   0.000000   0.000000 )
               a(2) = (  -0.001163   8.942395   0.000000 )
               a(3) = (   0.000000   0.000000  25.155947 )

     reciprocal axes: (cart. coord. in units 2 pi/alat)
               b(1) = (  0.151982  0.000020  0.000000 )
               b(2) = (  0.000000  0.111827  0.000000 )
               b(3) = (  0.000000  0.000000  0.039752 )

     PseudoPot. # 1 for O  read from file:
     /storage/coda1/p-amedford6/0/shared/rich_project_chbe-medford/medford-share/data/pseudos_module/espresso/nninc/pbe/van/O.UPF
     MD5 check sum: 78c19812648e8988a0fe644b0f25305e
     Pseudo is Ultrasoft, Zval =  6.0
     Generated by new atomic code, or converted to UPF format
     Using radial grid of  737 points,  4 beta functions with:
                l(1) =   0
                l(2) =   0
                l(3) =   1
                l(4) =   1
     Q(r) pseudized with  8 coefficients,  rinner =    0.800   0.800   0.800

     PseudoPot. # 2 for Ti read from file:
     /storage/coda1/p-amedford6/0/shared/rich_project_chbe-medford/medford-share/data/pseudos_module/espresso/nninc/pbe/van/Ti.UPF
     MD5 check sum: 8e4df49b7f0d34bbd5052bf3f5ea0213
     Pseudo is Ultrasoft, Zval = 12.0
     Generated by new atomic code, or converted to UPF format
     Using radial grid of  851 points,  6 beta functions with:
                l(1) =   0
                l(2) =   0
                l(3) =   1
                l(4) =   1
                l(5) =   2
                l(6) =   2
     Q(r) pseudized with  8 coefficients,  rinner =    1.000   1.000   1.000
                                                       1.000   1.000

     PseudoPot. # 3 for N  read from file:
     /storage/coda1/p-amedford6/0/shared/rich_project_chbe-medford/medford-share/data/pseudos_module/espresso/nninc/pbe/van/N.UPF
     MD5 check sum: 90d10febe142ad51ac9d5be1deb811c4
     Pseudo is Ultrasoft, Zval =  5.0
     Generated by new atomic code, or converted to UPF format
     Using radial grid of  729 points,  4 beta functions with:
                l(1) =   0
                l(2) =   0
                l(3) =   1
                l(4) =   1
     Q(r) pseudized with  8 coefficients,  rinner =    0.800   0.800   0.800

     PseudoPot. # 4 for H  read from file:
     /storage/coda1/p-amedford6/0/shared/rich_project_chbe-medford/medford-share/data/pseudos_module/espresso/nninc/pbe/van/H.UPF
     MD5 check sum: b5ee9d7bfd3a09ee7748110bda690ff7
     Pseudo is Ultrasoft, Zval =  1.0
     Generated by new atomic code, or converted to UPF format
     Using radial grid of  615 points,  1 beta functions with:
                l(1) =   0
     Q(r) pseudized with  8 coefficients,  rinner =    0.800

     atomic species   valence    mass     pseudopotential
        O1             6.00    15.99900     O ( 1.00)
        Ti1           12.00    47.86700     Ti( 1.00)
        N1             5.00    14.00700     N ( 1.00)
        H1             1.00     1.00800     H ( 1.00)

     No symmetry found

   Cartesian axes

     site n.     atom                  positions (alat units)
         1           O1  tau(   1) = (   0.0007354   0.0005023  10.5931620  )
         2           O1  tau(   2) = (   3.2893251   8.9324977  13.8850595  )
         3           O1  tau(   3) = (   0.0000810   0.0519898  17.3357851  )
         4           O1  tau(   4) = (   0.0006271   0.0005054   7.9858123  )
         5           O1  tau(   5) = (   3.2891750   8.9291278  11.1853435  )
         6           O1  tau(   6) = (   0.0004222   0.0485762  14.6167438  )
         7           O1  tau(   7) = (   1.9868534   1.4903216   9.2879459  )
         8           O1  tau(   8) = (   5.2393499   1.5905449  12.5682489  )
         9           O1  tau(   9) = (   1.9991366   1.5492019  16.1124644  )
        10           Ti1 tau(  10) = (   0.0007404   1.4906270   9.2895810  )
        11           Ti1 tau(  11) = (   3.2902999   1.3249318  12.4520864  )
        12           Ti1 tau(  12) = (   0.0005939   1.3452645  15.7597600  )
        13           O1  tau(  13) = (   4.5942328   1.4918067   9.2879030  )
        14           O1  tau(  14) = (   1.3411764   1.5910169  12.5684512  )
        15           O1  tau(  15) = (   4.5798538   1.5480364  16.1129854  )
        16           Ti1 tau(  16) = (   3.2902859   2.9801868   9.2893338  )
        17           Ti1 tau(  17) = (   0.0006295   2.8174385  12.4372122  )
        18           Ti1 tau(  18) = (   3.2897038   2.9127836  15.6935398  )
        19           O1  tau(  19) = (   0.0003479   2.9813005  10.5931620  )
        20           O1  tau(  20) = (   3.2904107   2.9319293  13.8952334  )
        21           O1  tau(  21) = (   0.0002396   2.9813036   7.9858123  )
        22           O1  tau(  22) = (   3.2903884   2.9732875  11.2024877  )
        23           O1  tau(  23) = (   6.5791771   2.9400465  14.7470945  )
        24           O1  tau(  24) = (   1.9864658   4.4711199   9.2879459  )
        25           O1  tau(  25) = (   5.2507180   4.5586503  12.6053682  )
        26           O1  tau(  26) = (   1.9989508   4.4013585  16.0758979  )
        27           Ti1 tau(  27) = (   0.0003529   4.4714252   9.2895810  )
        28           Ti1 tau(  28) = (   3.2908498   4.3294621  12.5515864  )
        29           Ti1 tau(  29) = (   0.0012874   4.5361023  15.7587160  )
        30           O1  tau(  30) = (   4.5938453   4.4726049   9.2879030  )
        31           O1  tau(  31) = (   1.3295807   4.5581274  12.6051842  )
        32           O1  tau(  32) = (   4.5807093   4.4011557  16.0767203  )
        33           Ti1 tau(  33) = (   3.2898983   5.9609850   9.2893338  )
        34           Ti1 tau(  34) = (   0.0011720   5.8030845  12.4395124  )
        35           Ti1 tau(  35) = (   3.2913837   5.8399099  16.1904745  )
        36           O1  tau(  36) = (  -0.0000397   5.9620987  10.5931620  )
        37           O1  tau(  37) = (   3.2897076   5.9457256  13.9643012  )
        38           O1  tau(  38) = (   0.0001823   5.8979554  17.1998916  )
        39           O1  tau(  39) = (  -0.0001480   5.9621018   7.9858123  )
        40           O1  tau(  40) = (   3.2897623   5.9362706  11.2341171  )
        41           O1  tau(  41) = (   0.0004469   5.9800359  14.6665197  )
        42           O1  tau(  42) = (   1.9860782   7.4519181   9.2879459  )
        43           O1  tau(  43) = (   5.2507221   7.5245448  12.5933772  )
        44           O1  tau(  44) = (   1.9799843   7.5745874  16.0532815  )
        45           Ti1 tau(  45) = (  -0.0000347   7.4522234   9.2895810  )
        46           Ti1 tau(  46) = (   3.2894177   7.1911746  12.6495270  )
        47           Ti1 tau(  47) = (   0.0007314   7.2822180  16.1322395  )
        48           O1  tau(  48) = (   4.5934577   7.4534031   9.2879030  )
        49           O1  tau(  49) = (   1.3275845   7.5244469  12.5935105  )
        50           O1  tau(  50) = (   4.5990354   7.5728923  16.0522427  )
        51           Ti1 tau(  51) = (   3.2895107   8.9417832   9.2893338  )
        52           Ti1 tau(  52) = (  -0.0007012   8.7603021  12.4499776  )
        53           Ti1 tau(  53) = (   3.2901857   8.8509785  15.6953962  )
        54           N1  tau(  54) = (   3.2899770   5.9827455  18.1265562  )
        55           H1  tau(  55) = (   3.2886311   5.2071789  18.7771882  )
        56           H1  tau(  56) = (   3.2869209   6.8541504  18.6418389  )
        57           H1  tau(  57) = (   6.5771076   8.8877891  18.2917622  )
        58           N1  tau(  58) = (   6.5788838   3.2021548  17.9140464  )
        59           H1  tau(  59) = (   6.5785461   2.2502248  18.2648563  )
        60           H1  tau(  60) = (   5.7591345   3.6862813  18.2792932  )
        61           H1  tau(  61) = (   0.8178175   3.6764091  18.2810048  )

     number of k points=    10  Fermi-Dirac smearing, width (Ry)=  0.0073
                       cart. coord. in units 2pi/alat
        k(    1) = (   0.0000000   0.0000000   0.0000000), wk =   0.1250000
        k(    2) = (   0.0000000   0.0279567   0.0000000), wk =   0.2500000
        k(    3) = (   0.0000000  -0.0559134   0.0000000), wk =   0.1250000
        k(    4) = (   0.0379955   0.0000049   0.0000000), wk =   0.2500000
        k(    5) = (   0.0379955   0.0279617   0.0000000), wk =   0.2500000
        k(    6) = (   0.0379955  -0.0559085   0.0000000), wk =   0.2500000
        k(    7) = (   0.0379955  -0.0279518   0.0000000), wk =   0.2500000
        k(    8) = (  -0.0759910  -0.0000099   0.0000000), wk =   0.1250000
        k(    9) = (  -0.0759910   0.0279468   0.0000000), wk =   0.2500000
        k(   10) = (  -0.0759910  -0.0559233   0.0000000), wk =   0.1250000

     Initial potential from superposition of free atoms

     starting charge  423.99908, renormalised to  442.00000

     negative rho (up, down):  3.661E-02 0.000E+00

     %%%%%%%%%%%%%%%%%%%%%%%%%%%%%%%%%%%%%%%%%%%%%%%%%%%%%%%%%%%%%%%%%%%%%%%%
     %                                                                      %
     % You are using vdW-DF, which was implemented by the Thonhauser group. %
     % Please cite the following two papers that made this development      %
     % possible and the two reviews that describe the various versions:     %
     %                                                                      %
     %   T. Thonhauser et al., PRL 115, 136402 (2015).                      %
     %   T. Thonhauser et al., PRB 76, 125112 (2007).                       %
     %   K. Berland et al., Rep. Prog. Phys. 78, 066501 (2015).             %
     %   D.C. Langreth et al., J. Phys.: Condens. Matter 21, 084203 (2009). %
     %                                                                      %
     %                                                                      %
     % If you are calculating the stress with vdW-DF, please also cite:     %
     %                                                                      %
     %   R. Sabatini et al., J. Phys.: Condens. Matter 24, 424209 (2012).   %
     %                                                                      %
     %%%%%%%%%%%%%%%%%%%%%%%%%%%%%%%%%%%%%%%%%%%%%%%%%%%%%%%%%%%%%%%%%%%%%%%%

     Adding external electric field

     Computed dipole along edir(3) :
        Dipole               -6.2843 Ry au,        -15.9732 Debye
        Dipole field         -0.0079 Ry au,

        Potential amp.        0.7329 Ry
        Total length         46.3494 bohr

     Starting wfcs are  334 atomic wfcs
  @ DRIVER MODE: Message from server: STATUS
  @ DRIVER MODE: Message from server: POSDATA
  @ DRIVER MODE: Reading and sharing cell
  @ DRIVER MODE: Reading and sharing positions
  @ DRIVER MODE: Received positions

     Self-consistent Calculation

     iteration #  1     ecut=    29.40 Ry     beta= 0.05
     Davidson diagonalization with overlap
     c_bands:  2 eigenvalues not converged
     c_bands:  4 eigenvalues not converged
     c_bands:  3 eigenvalues not converged
     c_bands:  4 eigenvalues not converged
     c_bands:  5 eigenvalues not converged
     c_bands:  4 eigenvalues not converged
     c_bands:  2 eigenvalues not converged
     c_bands:  2 eigenvalues not converged
     ethr =  1.00E-05,  avg # of iterations = 21.4

[...]

     total energy              =   -3276.10193602 Ry
     estimated scf accuracy    <     260.33698284 Ry

     iteration #  2     ecut=    29.40 Ry     beta= 0.05
     Davidson diagonalization with overlap
     ethr =  1.00E-02,  avg # of iterations = 14.7

[...]

     iteration # 63     ecut=    29.40 Ry     beta= 0.05
     Davidson diagonalization with overlap
     c_bands:  1 eigenvalues not converged
     ethr =  5.80E-09,  avg # of iterations = 17.1

[...]

     total energy              =   -3295.82448933 Ry
     estimated scf accuracy    <       0.00000010 Ry

     iteration # 73     ecut=    29.40 Ry     beta= 0.05
     Davidson diagonalization with overlap
     ethr =  2.34E-11,  avg # of iterations = 13.6

     negative rho (up, down):  3.545E-02 0.000E+00

     Adding external electric field

     Computed dipole along edir(3) :
        Dipole                1.9315 Ry au,          4.9094 Debye
        Dipole field          0.0024 Ry au,

        Potential amp.       -0.2253 Ry
        Total length         46.3494 bohr

     End of self-consistent calculation

          k = 0.0000 0.0000 0.0000 ( 26871 PWs)   bands (ev):

   -57.4689 -57.4335 -57.4209 -57.3814 -57.3725 -57.3644 -57.3539 -57.3426
   -57.3220 -57.2837 -57.2768 -57.2404 -57.2189 -57.2024 -57.1828 -56.5423
   -56.5180 -56.5119 -33.9398 -33.8529 -33.8524 -33.8297 -33.8100 -33.7925
   -33.7747 -33.7708 -33.7671 -33.7537 -33.7286 -33.7077 -33.7026 -33.6879
   -33.6861 -33.6816 -33.6609 -33.6521 -33.6304 -33.6251 -33.5935 -33.5789
   -33.5612 -33.5569 -33.5494 -33.5483 -33.5447 -33.5375 -33.5256 -33.5224
   -33.5157 -33.5013 -33.4925 -33.4918 -33.4850 -33.4835 -33.4748 -33.4727
   -33.4648 -33.4539 -33.4422 -33.4253 -33.4095 -33.4032 -33.3884 -32.8610
   -32.8528 -32.8518 -32.8351 -32.8297 -32.7703 -32.7091 -32.7017 -32.5702
   -19.3436 -18.2731 -17.9723 -17.7755 -17.7263 -17.6927 -17.5624 -17.5472
   -17.4960 -17.4425 -17.4056 -17.3616 -17.2880 -17.2476 -17.2459 -17.2218
   -17.1679 -17.1440 -17.1359 -17.1258 -17.1240 -17.0993 -17.0498 -17.0460
   -16.9893 -16.9479 -16.9163 -16.9059 -16.8974 -16.8649 -16.8574 -16.8044
   -16.6055 -15.0262 -15.0083 -14.9493 -14.9459  -7.8758  -7.5903  -7.3906
    -6.4620  -5.5818  -5.4297  -5.3987  -5.2350  -4.9638  -4.9119  -4.8685
    -4.8223  -4.7848  -4.7463  -4.7234  -4.6943  -4.6630  -4.6109  -4.5802
    -4.5640  -4.5303  -4.5106  -4.4795  -4.4496  -4.4441  -4.4148  -4.3260
    -4.3166  -4.2930  -4.2753  -4.2392  -4.2214  -4.2186  -4.1695  -4.1582
    -4.0693  -3.9831  -3.8971  -3.8444  -3.8181  -3.7946  -3.7473  -3.7099
    -3.6809  -3.6363  -3.6164  -3.5475  -3.5198  -3.5092  -3.4333  -3.3984
    -3.3030  -3.2645  -3.2533  -3.2327  -3.1901  -3.1784  -3.0932  -3.0830
    -2.9740  -2.9550  -2.8636  -2.7916  -2.7420  -2.7144  -2.6762  -2.6145
    -2.5948  -2.5490  -2.5216  -2.4610  -2.4470  -2.3214  -2.2534  -2.2498
    -2.2297  -2.1914  -2.1620  -2.1480  -2.1255  -2.1225  -2.0441  -2.0352
    -1.9854  -1.9103  -1.8845  -1.8478  -1.8351  -1.7999  -1.7576  -1.6928
    -1.6874  -1.6517  -1.5642  -1.5030  -1.5019  -1.3556  -1.3495  -1.3162
    -1.2681  -1.2142  -1.1837  -0.7813  -0.6053  -0.4367  -0.3097  -0.2490
    -0.2476   0.0271   0.0321   0.1645   1.6132   1.7644   1.8247   1.9587
     1.9772   2.0362   2.1179   2.1406   2.2072   2.2345   2.2438

[...]

          k = 0.0380-0.0280 0.0000 ( 26873 PWs)   bands (ev):

[...]

          k =-0.0760-0.0000 0.0000 ( 26902 PWs)   bands (ev):

[...]

          k =-0.0760-0.0559 0.0000 ( 26868 PWs)   bands (ev):

   -57.4673 -57.4382 -57.4178 -57.3789 -57.3683 -57.3663 -57.3623 -57.3392
   -57.3215 -57.2834 -57.2772 -57.2366 -57.2256 -57.1994 -57.1828 -56.5370
   -56.5289 -56.5062 -33.9846 -33.9355 -33.8639 -33.8194 -33.8036 -33.7914
   -33.7844 -33.7765 -33.7661 -33.7447 -33.7158 -33.6974 -33.6598 -33.6579
   -33.6379 -33.6248 -33.6100 -33.5966 -33.5954 -33.5908 -33.5864 -33.5770
   -33.5730 -33.5662 -33.5640 -33.5514 -33.5434 -33.5284 -33.5226 -33.5210
   -33.5165 -33.5159 -33.5119 -33.5090 -33.5069 -33.4956 -33.4891 -33.4853
   -33.4824 -33.4752 -33.4477 -33.4418 -33.4362 -33.4244 -33.4002 -32.9484
   -32.8536 -32.8455 -32.8238 -32.7530 -32.7444 -32.6840 -32.6709 -32.6632
   -19.3370 -17.9703 -17.8317 -17.8223 -17.6444 -17.6005 -17.5980 -17.5308
   -17.4852 -17.4352 -17.4335 -17.4037 -17.3551 -17.3307 -17.3010 -17.2755
   -17.2597 -17.2246 -17.1834 -17.1824 -17.1487 -17.1152 -17.0889 -17.0467
   -17.0401 -16.9856 -16.9217 -16.8844 -16.8600 -16.8575 -16.8212 -16.7960
   -16.6387 -15.0267 -15.0062 -15.0018 -14.8860  -7.8837  -7.6088  -7.3799
    -6.4528  -5.2161  -5.1786  -5.1331  -5.0399  -5.0021  -4.9704  -4.8346
    -4.7741  -4.7325  -4.6865  -4.6447  -4.6370  -4.6229  -4.5671  -4.5498
    -4.5342  -4.4881  -4.4471  -4.4269  -4.4041  -4.4026  -4.3991  -4.3958
    -4.2639  -4.2514  -4.1994  -4.1790  -4.1568  -4.1338  -4.1307  -4.0771
    -4.0351  -3.9943  -3.9818  -3.9562  -3.8938  -3.8366  -3.7563  -3.6585
    -3.6475  -3.5907  -3.5805  -3.4877  -3.4825  -3.3885  -3.3261  -3.2818
    -3.2529  -3.2278  -3.1514  -3.1463  -3.1373  -3.0869  -3.0529  -3.0246
    -2.9763  -2.9660  -2.9213  -2.8183  -2.7831  -2.7248  -2.6981  -2.6936
    -2.6369  -2.6332  -2.5958  -2.5941  -2.5875  -2.5426  -2.4878  -2.4535
    -2.4369  -2.4054  -2.3166  -2.2924  -2.2397  -2.2317  -2.1662  -2.1498
    -2.1373  -2.0737  -2.0219  -1.9908  -1.9826  -1.9089  -1.8054  -1.7470
    -1.7251  -1.7036  -1.5979  -1.5493  -1.4939  -1.4509  -1.2686  -1.2563
    -1.1839  -1.1442  -1.0912  -1.0426  -0.8555  -0.4568  -0.4061  -0.1874
    -0.1721  -0.1346   0.0318   0.0375   1.7058   1.7175   1.8149   1.8562
     1.9181   1.9290   1.9733   1.9904   2.0002   2.0464   2.0518

     the Fermi energy is     1.6448 ev

!    total energy              =   -3295.82450026 Ry
     estimated scf accuracy    <       0.00000005 Ry
     smearing contrib. (-TS)   =      -0.03670332 Ry
     internal energy E=F+TS    =   -3295.78779695 Ry

     The total energy is F=E-TS. E is the sum of the following terms:
     one-electron contribution =  -34289.87032633 Ry
     hartree contribution      =   17213.91964821 Ry
     xc contribution           =    -543.76938721 Ry
     ewald contribution        =   14323.92757473 Ry
     electric field correction =       0.00469365 Ry

     convergence has been achieved in  73 iterations

     Forces acting on atoms (cartesian axes, Ry/au):

     atom    1 type  1   force =     0.00001471    0.00240184    0.05212293
     atom    2 type  1   force =    -0.00004727   -0.00060248   -0.00559142
     atom    3 type  1   force =     0.00004269   -0.00284268   -0.00289860
     atom    4 type  1   force =     0.00005373   -0.00036552    0.10764000
     atom    5 type  1   force =    -0.00002162    0.00172812    0.00530257
     atom    6 type  1   force =     0.00001026   -0.00050822    0.00055704
     atom    7 type  1   force =     0.06433884    0.00077103   -0.03000621
     atom    8 type  1   force =     0.00530801   -0.02658727    0.00244796
     atom    9 type  1   force =     0.00841750   -0.01290096   -0.00077210
     atom   10 type  2   force =    -0.00006436   -0.00537235   -0.18730786
     atom   11 type  2   force =     0.00012913    0.02016645   -0.00481467
     atom   12 type  2   force =    -0.00013967    0.01852078   -0.00058895
     atom   13 type  1   force =    -0.06444516    0.00029527   -0.02996515
     atom   14 type  1   force =    -0.00512592   -0.02679514    0.00247813
     atom   15 type  1   force =    -0.00839045   -0.01281902   -0.00080145
     atom   16 type  2   force =     0.00010073   -0.00105516    0.07210716
     atom   17 type  2   force =    -0.00026712    0.03304386    0.00616502
     atom   18 type  2   force =     0.00004035    0.00453305   -0.00751081
     atom   19 type  1   force =     0.00001476    0.00395274    0.05310731
     atom   20 type  1   force =    -0.00003926   -0.00056525   -0.00170739
     atom   21 type  1   force =     0.00005401    0.00130442    0.10848370
     atom   22 type  1   force =    -0.00002556   -0.00121190    0.00630001
     atom   23 type  1   force =     0.00002897   -0.00517698    0.00190450
     atom   24 type  1   force =     0.06585327    0.00138359   -0.02847673
     atom   25 type  1   force =     0.00546680   -0.02925615    0.00264162
     atom   26 type  1   force =     0.00976287   -0.00190664   -0.00024187
     atom   27 type  2   force =    -0.00007254   -0.00075595   -0.19125911
     atom   28 type  2   force =     0.00014776    0.02478860   -0.00470215
     atom   29 type  2   force =    -0.00003796   -0.00433548    0.00926646
     atom   30 type  1   force =    -0.06595960    0.00094526   -0.02845076
     atom   31 type  1   force =    -0.00531755   -0.02937703    0.00268114
     atom   32 type  1   force =    -0.00964642   -0.00190929   -0.00021291
     atom   33 type  2   force =     0.00013527    0.00070341    0.08049503
     atom   34 type  2   force =    -0.00029256    0.03538146    0.00620126
     atom   35 type  2   force =     0.00002309    0.01543470    0.00193076
     atom   36 type  1   force =     0.00006655    0.00027484    0.05321850
     atom   37 type  1   force =    -0.00003241    0.00176936   -0.00889899
     atom   38 type  1   force =    -0.00000797    0.00132994   -0.00007526
     atom   39 type  1   force =     0.00005660   -0.00117153    0.10820207
     atom   40 type  1   force =    -0.00003322   -0.00137997    0.00603666
     atom   41 type  1   force =     0.00001980    0.00393508    0.00142290
     atom   42 type  1   force =     0.06611238   -0.00347939   -0.02907743
     atom   43 type  1   force =     0.00366282   -0.02409495    0.00086190
     atom   44 type  1   force =     0.01420504   -0.01862121    0.00311027
     atom   45 type  2   force =    -0.00009157    0.00311814   -0.18717746
     atom   46 type  2   force =     0.00013838    0.01623786    0.00223905
     atom   47 type  2   force =    -0.00007513    0.01864092   -0.00297686
     atom   48 type  1   force =    -0.06621294   -0.00391655   -0.02903366
     atom   49 type  1   force =    -0.00341394   -0.02428847    0.00087717
     atom   50 type  1   force =    -0.01419669   -0.01856596    0.00311464
     atom   51 type  2   force =     0.00013034   -0.00294217    0.07340775
     atom   52 type  2   force =    -0.00027735    0.03103709    0.00785639
     atom   53 type  2   force =     0.00002337    0.02032439    0.00049466
     atom   54 type  3   force =     0.00003825   -0.00079190   -0.00281096
     atom   55 type  4   force =    -0.00002742   -0.00040032    0.00068393
     atom   56 type  4   force =    -0.00003516    0.00036154   -0.00027034
     atom   57 type  4   force =    -0.00006419   -0.00019174   -0.00002353
     atom   58 type  3   force =    -0.00517857    0.00534815    0.00217115
     atom   59 type  4   force =    -0.00114421    0.00080065    0.00107909
     atom   60 type  4   force =     0.00550393   -0.00469116   -0.00160852
     atom   61 type  4   force =     0.00078354    0.00034625    0.00065243

     Total force =     0.459511     Total SCF correction =     0.000446
  @ DRIVER MODE: Message from server: STATUS
  @ DRIVER MODE: Message from server: GETFORCE
  @ DRIVER MODE: Returning v,forces,stress,ensemble

     Writing output data file ./calc.save/
  @ DRIVER MODE: Message from server: EXIT
  @ DRIVE MODE: Exiting

     General routines

     Parallel routines

   This run was terminated on:   7:15: 8  19Oct2021

   JOB DONE.