     Program PWSCF v.6.7GPU starts on 23Sep2021 at 17:41:20

     R & G space division:  proc/nbgrp/npool/nimage =       8
     Reading input from /storage/home/hcoda1/3/ntian30/research/carbon/CxH_vib/H2O_calc/ads_slab/CH3N2HHO_a/out_0048/pw.inp
Warning: card &CELL ignored
Warning: card   CELL_DYNAMICS='IPI', ignored
Warning: card / ignored

     Current dimensions of program PWSCF are:
     Max number of different atomic species (ntypx) = 10
     Max number of k-points (npk) =  40000
     Max angular momentum in pseudopotentials (lmaxx) =  3
     Presently no symmetry can be used with electric field

     Message from routine cell_base_init:
     DEPRECATED: use true lattice parameter, not A to a.u. conversion factor

     IMPORTANT: XC functional enforced from input :
     Exchange-correlation= BEEF-VDW
                           (   1   4  43  14   2   0   0)
     Any further DFT definition will be discarded
     Please, verify this is what you really want

  @ DRIVER MODE: Connecting to
 qe_1139763_2941009.sched-torque.pace.gatech.eduwu597xok_scratch
  using UNIX socket
  @ DRIVER MODE: Message from server: STATUS
  @ DRIVER MODE: Message from server: INIT
  @ DRIVER MODE: Receiving replica           0          -1
  @ DRIVER MODE: Receiving encoded integer          25
  @ DRIVER MODE:  SCF:  T  FORCE:  T  STRESS:  F  VC:  F  ENSEMBLE:  F
  @ DRIVER MODE:  SCF:  T  FORCE:  T  STRESS:  F  VC:  F  ENSEMBLE:  F

     Using Slab Decomposition

     bravais-lattice index     =            0
     lattice parameter (alat)  =       1.8897  a.u.
     unit-cell volume          =    6658.9804 (a.u.)^3
     number of atoms/cell      =           56
     number of atomic types    =            5
     number of electrons       =       403.00
     number of Kohn-Sham states=          211
     kinetic-energy cutoff     =      29.3995  Ry
     charge density cutoff     =     293.9946  Ry
     scf convergence threshold =      7.3E-08
     mixing beta               =       0.0500
     number of iterations used =            8  plain     mixing
     Exchange-correlation= BEEF-VDW
                           (   1   4  43  14   2   0   0)

     celldm(1)=   1.889726  celldm(2)=   0.000000  celldm(3)=   0.000000
     celldm(4)=   0.000000  celldm(5)=   0.000000  celldm(6)=   0.000000

     crystal axes: (cart. coord. in units of alat)
               a(1) = (   6.579727   0.000000   0.000000 )
               a(2) = (  -0.000775   5.961596   0.000000 )
               a(3) = (   0.000000   0.000000  25.155947 )

     reciprocal axes: (cart. coord. in units 2 pi/alat)
               b(1) = (  0.151982  0.000020  0.000000 )
               b(2) = (  0.000000  0.167740  0.000000 )
               b(3) = (  0.000000  0.000000  0.039752 )

     PseudoPot. # 1 for Ti read from file:
     /storage/coda1/p-amedford6/0/shared/rich_project_chbe-medford/medford-share/data/pseudos_module/espresso/nninc/pbe/van/Ti.UPF
     MD5 check sum: 8e4df49b7f0d34bbd5052bf3f5ea0213
     Pseudo is Ultrasoft, Zval = 12.0
     Generated by new atomic code, or converted to UPF format
     Using radial grid of  851 points,  6 beta functions with:
                l(1) =   0
                l(2) =   0
                l(3) =   1
                l(4) =   1
                l(5) =   2
                l(6) =   2
     Q(r) pseudized with  8 coefficients,  rinner =    1.000   1.000   1.000
                                                       1.000   1.000

     PseudoPot. # 2 for O  read from file:
     /storage/coda1/p-amedford6/0/shared/rich_project_chbe-medford/medford-share/data/pseudos_module/espresso/nninc/pbe/van/O.UPF
     MD5 check sum: 78c19812648e8988a0fe644b0f25305e
     Pseudo is Ultrasoft, Zval =  6.0
     Generated by new atomic code, or converted to UPF format
     Using radial grid of  737 points,  4 beta functions with:
                l(1) =   0
                l(2) =   0
                l(3) =   1
                l(4) =   1
     Q(r) pseudized with  8 coefficients,  rinner =    0.800   0.800   0.800

     PseudoPot. # 3 for N  read from file:
     /storage/coda1/p-amedford6/0/shared/rich_project_chbe-medford/medford-share/data/pseudos_module/espresso/nninc/pbe/van/N.UPF
     MD5 check sum: 90d10febe142ad51ac9d5be1deb811c4
     Pseudo is Ultrasoft, Zval =  5.0
     Generated by new atomic code, or converted to UPF format
     Using radial grid of  729 points,  4 beta functions with:
                l(1) =   0
                l(2) =   0
                l(3) =   1
                l(4) =   1
     Q(r) pseudized with  8 coefficients,  rinner =    0.800   0.800   0.800

     PseudoPot. # 4 for C  read from file:
     /storage/coda1/p-amedford6/0/shared/rich_project_chbe-medford/medford-share/data/pseudos_module/espresso/nninc/pbe/van/C.UPF
     MD5 check sum: 1a69bf6b8db32088f5b2163dbdb77a27
     Pseudo is Ultrasoft, Zval =  4.0
     Generated by new atomic code, or converted to UPF format
     Using radial grid of  721 points,  4 beta functions with:
                l(1) =   0
                l(2) =   0
                l(3) =   1
                l(4) =   1
     Q(r) pseudized with  8 coefficients,  rinner =    0.800   0.800   0.800

     PseudoPot. # 5 for H  read from file:
     /storage/coda1/p-amedford6/0/shared/rich_project_chbe-medford/medford-share/data/pseudos_module/espresso/nninc/pbe/van/H.UPF
     MD5 check sum: b5ee9d7bfd3a09ee7748110bda690ff7
     Pseudo is Ultrasoft, Zval =  1.0
     Generated by new atomic code, or converted to UPF format
     Using radial grid of  615 points,  1 beta functions with:
                l(1) =   0
     Q(r) pseudized with  8 coefficients,  rinner =    0.800

     atomic species   valence    mass     pseudopotential
        Ti1           12.00    47.86700     Ti( 1.00)
        O1             6.00    15.99900     O ( 1.00)
        N1             5.00    14.00700     N ( 1.00)
        C1             4.00    12.01100     C ( 1.00)
        H1             1.00     1.00800     H ( 1.00)

     No symmetry found

   Cartesian axes

     site n.     atom                  positions (alat units)
         1           Ti1 tau(   1) = (   0.0004258   2.9801865   6.0000000  )
         2           Ti1 tau(   2) = (   3.2906075   1.4906267   6.0002472  )
         3           O1  tau(   3) = (   0.0006271   0.0005054   7.9858123  )
         4           O1  tau(   4) = (   3.2906025   0.0005020   7.3038282  )
         5           O1  tau(   5) = (   4.5942328   1.4918067   9.2879030  )
         6           O1  tau(   6) = (   1.9868534   1.4903216   9.2879459  )
         7           Ti1 tau(   7) = (   3.2907910   2.8959150   9.1758416  )
         8           Ti1 tau(   8) = (   0.0015273   1.4827037   9.2680791  )
         9           O1  tau(   9) = (   3.2827749   5.9542966  11.3123607  )
        10           O1  tau(  10) = (   0.0116148   5.9584955  10.6183126  )
        11           O1  tau(  11) = (   1.2790800   1.4852124  12.6463597  )
        12           O1  tau(  12) = (   5.2943908   1.4901875  12.6352807  )
        13           Ti1 tau(  13) = (   6.5507123   3.1127926  12.6266869  )
        14           Ti1 tau(  14) = (   3.2873181   1.3120036  12.6863921  )
        15           O1  tau(  15) = (   6.5656690   0.0172326  14.6855350  )
        16           O1  tau(  16) = (   3.2842416   0.0515509  13.9244022  )
        17           O1  tau(  17) = (   4.5437539   1.5966601  16.0680646  )
        18           O1  tau(  18) = (   2.0303991   1.5956099  16.0781401  )
        19           Ti1 tau(  19) = (   3.2961159   3.0594788  15.6697774  )
        20           Ti1 tau(  20) = (   6.5318457   1.5630605  15.7780207  )
        21           O1  tau(  21) = (   3.2904802   0.0005063   4.7018136  )
        22           O1  tau(  22) = (   6.5726385   0.0820865  17.2550913  )
        23           O1  tau(  23) = (   1.3043587   1.4918075   6.0039043  )
        24           O1  tau(  24) = (   5.2767064   1.4903225   6.0039473  )
        25           Ti1 tau(  25) = (   0.0000382   5.9609847   6.0000000  )
        26           Ti1 tau(  26) = (   3.2902200   4.4714249   6.0002472  )
        27           O1  tau(  27) = (   0.0002396   2.9813036   7.9858123  )
        28           O1  tau(  28) = (   3.2902150   2.9813002   7.3038282  )
        29           O1  tau(  29) = (   4.5938453   4.4726049   9.2879030  )
        30           O1  tau(  30) = (   1.9864658   4.4711199   9.2879459  )
        31           Ti1 tau(  31) = (   3.2891106   5.8743827   9.1763621  )
        32           Ti1 tau(  32) = (   0.0006254   4.4649316   9.2693709  )
        33           O1  tau(  33) = (   3.2807365   3.0201584  11.2787527  )
        34           O1  tau(  34) = (   0.0092240   2.9805883  10.6323155  )
        35           O1  tau(  35) = (   1.2751182   4.4744369  12.6357194  )
        36           O1  tau(  36) = (   5.2842299   4.4734050  12.6250694  )
        37           Ti1 tau(  37) = (   0.0094520   0.1224552  12.5707632  )
        38           Ti1 tau(  38) = (   3.2670701   4.4034752  12.4162930  )
        39           O1  tau(  39) = (   6.5622168   3.0106679  14.6773207  )
        40           O1  tau(  40) = (   3.2891587   3.0115246  13.8909557  )
        41           O1  tau(  41) = (   4.5321968   4.4927823  16.1577793  )
        42           O1  tau(  42) = (   2.0250423   4.4919485  16.1304878  )
        43           Ti1 tau(  43) = (   3.2250977   0.0853664  16.3312049  )
        44           Ti1 tau(  44) = (   6.5532039   4.7053171  16.1332850  )
        45           O1  tau(  45) = (   3.2900926   2.9813045   4.7018136  )
        46           O1  tau(  46) = (   1.3039711   4.4726057   6.0039043  )
        47           O1  tau(  47) = (   5.2763189   4.4711207   6.0039473  )
        48           N1  tau(  48) = (   0.0650423   2.5931692  18.6004617  )
        49           N1  tau(  49) = (   0.0051179   2.9528117  17.3995676  )
        50           C1  tau(  50) = (   0.1360749   3.5155665  19.7334966  )
        51           H1  tau(  51) = (   6.1082608   4.3937080  19.5213757  )
        52           H1  tau(  52) = (   6.3628389   3.0028702  20.6266755  )
        53           H1  tau(  53) = (   1.1699357   3.8405576  19.8861820  )
        54           H1  tau(  54) = (   0.1060244   1.5775976  18.7788705  )
        55           O1  tau(  55) = (   3.2396048   0.1449850  18.2104881  )
        56           H1  tau(  56) = (   3.4111690   5.2654565  18.6466900  )

     number of k points=    10  Fermi-Dirac smearing, width (Ry)=  0.0073
                       cart. coord. in units 2pi/alat
        k(    1) = (   0.0000000   0.0000000   0.0000000), wk =   0.1250000
        k(    2) = (   0.0000000   0.0419351   0.0000000), wk =   0.2500000
        k(    3) = (   0.0000000  -0.0838702   0.0000000), wk =   0.1250000
        k(    4) = (   0.0379955   0.0000049   0.0000000), wk =   0.2500000
        k(    5) = (   0.0379955   0.0419400   0.0000000), wk =   0.2500000
        k(    6) = (   0.0379955  -0.0838652   0.0000000), wk =   0.2500000
        k(    7) = (   0.0379955  -0.0419301   0.0000000), wk =   0.2500000
        k(    8) = (  -0.0759910  -0.0000099   0.0000000), wk =   0.1250000
        k(    9) = (  -0.0759910   0.0419252   0.0000000), wk =   0.2500000
        k(   10) = (  -0.0759910  -0.0838800   0.0000000), wk =   0.1250000

     Initial potential from superposition of free atoms

     starting charge  386.99914, renormalised to  403.00000

     negative rho (up, down):  1.430E-02 0.000E+00

     %%%%%%%%%%%%%%%%%%%%%%%%%%%%%%%%%%%%%%%%%%%%%%%%%%%%%%%%%%%%%%%%%%%%%%%%
     %                                                                      %
     % You are using vdW-DF, which was implemented by the Thonhauser group. %
     % Please cite the following two papers that made this development      %
     % possible and the two reviews that describe the various versions:     %
     %                                                                      %
     %   T. Thonhauser et al., PRL 115, 136402 (2015).                      %
     %   T. Thonhauser et al., PRB 76, 125112 (2007).                       %
     %   K. Berland et al., Rep. Prog. Phys. 78, 066501 (2015).             %
     %   D.C. Langreth et al., J. Phys.: Condens. Matter 21, 084203 (2009). %
     %                                                                      %
     %                                                                      %
     % If you are calculating the stress with vdW-DF, please also cite:     %
     %                                                                      %
     %   R. Sabatini et al., J. Phys.: Condens. Matter 24, 424209 (2012).   %
     %                                                                      %
     %%%%%%%%%%%%%%%%%%%%%%%%%%%%%%%%%%%%%%%%%%%%%%%%%%%%%%%%%%%%%%%%%%%%%%%%

     Adding external electric field

     Computed dipole along edir(3) :
        Dipole              -12.7266 Ry au,        -32.3477 Debye
        Dipole field         -0.0240 Ry au,

        Potential amp.        2.2263 Ry
        Total length         46.3494 bohr

     Starting wfcs are  305 atomic wfcs
  @ DRIVER MODE: Message from server: STATUS
  @ DRIVER MODE: Message from server: POSDATA
  @ DRIVER MODE: Reading and sharing cell
  @ DRIVER MODE: Reading and sharing positions
  @ DRIVER MODE: Received positions

     Self-consistent Calculation

     iteration #  1     ecut=    29.40 Ry     beta= 0.05
     Davidson diagonalization with overlap
     c_bands:  5 eigenvalues not converged
     c_bands:  4 eigenvalues not converged
     c_bands:  3 eigenvalues not converged
     c_bands:  4 eigenvalues not converged
     c_bands:  5 eigenvalues not converged
     c_bands:  4 eigenvalues not converged
     c_bands:  1 eigenvalues not converged
     c_bands:  4 eigenvalues not converged
     ethr =  1.00E-05,  avg # of iterations = 25.4

[...]

     total energy              =   -2361.24899642 Ry
     estimated scf accuracy    <    6936.02572197 Ry

     iteration #  2     ecut=    29.40 Ry     beta= 0.05
     Davidson diagonalization with overlap
     ethr =  1.00E-02,  avg # of iterations = 23.4

[...]

     iteration # 60     ecut=    29.40 Ry     beta= 0.05
     Davidson diagonalization with overlap
     c_bands:  1 eigenvalues not converged
     ethr =  9.25E-11,  avg # of iterations =  5.6

[...]

     total energy              =   -2973.99516902 Ry
     estimated scf accuracy    <       0.00000013 Ry

     iteration # 66     ecut=    29.40 Ry     beta= 0.05
     Davidson diagonalization with overlap
     ethr =  3.14E-11,  avg # of iterations =  6.5

     negative rho (up, down):  1.502E-02 0.000E+00

     Adding external electric field

     Computed dipole along edir(3) :
        Dipole                1.1848 Ry au,          3.0115 Debye
        Dipole field          0.0022 Ry au,

        Potential amp.       -0.2073 Ry
        Total length         46.3494 bohr

     End of self-consistent calculation

          k = 0.0000 0.0000 0.0000 ( 18029 PWs)   bands (ev):

   -55.7067 -55.6728 -55.3931 -55.3591 -55.2940 -55.1768 -55.1218 -55.0452
   -54.9991 -54.9695 -54.8390 -54.7441 -54.7051 -54.6316 -54.5342 -54.5002
   -32.1667 -32.0010 -31.9771 -31.8686 -31.8617 -31.7901 -31.7685 -31.6590
   -31.6222 -31.6113 -31.6004 -31.5466 -31.5454 -31.5251 -31.5085 -31.5037
   -31.4967 -31.4030 -31.3939 -31.3804 -31.3432 -31.3234 -31.3142 -31.3039
   -31.2821 -31.2788 -31.2459 -31.2084 -31.1882 -31.1832 -31.1763 -31.1558
   -31.1060 -31.0389 -30.9991 -30.9607 -30.9600 -30.9336 -30.9300 -30.9159
   -30.9028 -30.8638 -30.8457 -30.8421 -30.8405 -30.7518 -30.6667 -30.5547
   -19.0787 -16.2224 -16.0637 -15.7733 -15.6035 -15.3961 -15.3680 -15.2706
   -15.1674 -15.1532 -15.0468 -14.9824 -14.8978 -14.8289 -14.8106 -14.7599
   -14.7310 -14.7062 -14.6890 -14.6814 -14.6444 -14.6099 -14.5929 -14.5175
   -14.4723 -14.4528 -14.4260 -14.3644 -14.2658 -13.9977 -13.9385 -13.0319
   -12.9185 -12.5755  -9.3429  -6.2094  -4.7745  -4.7179  -3.7363  -3.5423
    -3.4365  -3.3377  -3.1298  -3.0805  -2.9046  -2.7805  -2.7622  -2.5405
    -2.5124  -2.4000  -2.3854  -2.3348  -2.3337  -2.2989  -2.2329  -2.2042
    -2.1326  -2.0728  -2.0452  -2.0114  -1.9572  -1.9031  -1.8995  -1.8856
    -1.8277  -1.7585  -1.7319  -1.7214  -1.6781  -1.6148  -1.6056  -1.5915
    -1.5719  -1.5485  -1.4058  -1.2998  -1.2370  -1.2003  -1.1520  -1.0934
    -1.0399  -1.0276  -0.9244  -0.8466  -0.8056  -0.6870  -0.6531  -0.6184
    -0.5318  -0.5111  -0.4622  -0.4483  -0.4079  -0.3975  -0.2964  -0.2784
    -0.2440  -0.2013  -0.0794  -0.0366  -0.0267   0.0545   0.1138   0.1937
     0.2348   0.2523   0.2754   0.3621   0.3941   0.4109   0.4151   0.4931
     0.5133   0.5547   0.6079   0.6910   0.7031   0.7416   0.7776   0.7900
     0.9226   0.9286   1.0176   1.0423   1.0528   1.1174   1.2118   1.2717
     1.3838   1.3970   1.4893   1.4911   1.5112   1.7100   1.8828   2.0433
     2.0836   3.4945   3.6137   3.6754   3.7132   3.9238   3.9356   4.1921
     4.2712   4.3667   4.4044

[...]

          k = 0.0380-0.0419 0.0000 ( 17876 PWs)   bands (ev):

[...]

          k =-0.0760-0.0000 0.0000 ( 17886 PWs)   bands (ev):

[...]

          k =-0.0760-0.0839 0.0000 ( 17948 PWs)   bands (ev):

   -55.6899 -55.6895 -55.3787 -55.3734 -55.2934 -55.1710 -55.1275 -55.0373
   -55.0067 -54.9699 -54.8369 -54.7418 -54.7070 -54.6338 -54.5177 -54.5166
   -31.9869 -31.9865 -31.9822 -31.9821 -31.8135 -31.8129 -31.6968 -31.6913
   -31.5770 -31.5728 -31.5713 -31.5696 -31.5650 -31.5023 -31.4984 -31.4749
   -31.4420 -31.3930 -31.3912 -31.3699 -31.3573 -31.3535 -31.3428 -31.3415
   -31.2663 -31.2550 -31.2457 -31.2418 -31.2146 -31.2027 -31.1761 -31.1638
   -31.0982 -31.0492 -31.0443 -30.9994 -30.9666 -30.9637 -30.9609 -30.9209
   -30.8802 -30.8537 -30.8530 -30.8451 -30.7482 -30.7469 -30.7098 -30.7089
   -19.0754 -16.2151 -15.4783 -15.4681 -15.3241 -15.3147 -15.2401 -15.1476
   -15.1291 -15.1013 -15.0530 -15.0301 -14.9496 -14.8933 -14.8758 -14.8493
   -14.8319 -14.8167 -14.7575 -14.7549 -14.7385 -14.7277 -14.6602 -14.6218
   -14.5915 -14.5851 -14.4760 -14.3975 -14.3129 -14.1613 -14.0756 -13.0214
   -13.0209 -12.5760  -9.3495  -6.2022  -4.7616  -4.7208  -3.7295  -3.4082
    -2.6572  -2.6138  -2.5244  -2.4449  -2.4358  -2.3911  -2.3904  -2.3089
    -2.2571  -2.1984  -2.1737  -2.1670  -2.1650  -2.1348  -2.1261  -2.0712
    -2.0661  -2.0493  -2.0460  -1.9907  -1.9654  -1.9514  -1.8994  -1.8443
    -1.7944  -1.7580  -1.7358  -1.6965  -1.6739  -1.6711  -1.5867  -1.5732
    -1.5449  -1.5176  -1.4729  -1.4418  -1.3885  -1.3663  -1.3101  -1.1829
    -1.1085  -1.0245  -0.9170  -0.8980  -0.8651  -0.8311  -0.8191  -0.7941
    -0.7641  -0.6487  -0.6380  -0.5854  -0.5536  -0.5275  -0.5122  -0.4810
    -0.4560  -0.3507  -0.3094  -0.2836  -0.2474  -0.2144  -0.1853  -0.1525
    -0.0986  -0.0610  -0.0480  -0.0205   0.0144   0.0274   0.1810   0.2610
     0.3923   0.4229   0.5105   0.5586   0.5920   0.6212   0.6615   0.7676
     0.8148   0.8369   0.8738   0.8945   0.9934   1.0901   1.1112   1.1789
     1.2151   1.3187   1.3494   1.4369   1.4890   1.8729   1.8808   1.9018
     1.9023   3.3719   4.0395   4.0424   4.0538   4.0671   4.2321   4.2348
     4.3347   4.3593   4.4847

     the Fermi energy is     3.4511 ev

!    total energy              =   -2973.99519324 Ry
     estimated scf accuracy    <       0.00000004 Ry
     smearing contrib. (-TS)   =      -0.01689792 Ry
     internal energy E=F+TS    =   -2973.97829532 Ry

     The total energy is F=E-TS. E is the sum of the following terms:
     one-electron contribution =  -23434.50816527 Ry
     hartree contribution      =   11814.62686752 Ry
     xc contribution           =    -493.95445500 Ry
     ewald contribution        =    9139.85480822 Ry
     electric field correction =       0.00264920 Ry

     convergence has been achieved in  66 iterations

     Forces acting on atoms (cartesian axes, Ry/au):

     atom    1 type  1   force =     0.00011957   -0.00023698    0.10267471
     atom    2 type  1   force =    -0.00011600    0.00008990   -0.16811783
     atom    3 type  2   force =    -0.00000824    0.00045868   -0.03236859
     atom    4 type  2   force =     0.00002754   -0.00097614    0.04014254
     atom    5 type  2   force =    -0.00543962   -0.00191374   -0.00431502
     atom    6 type  2   force =     0.00667330   -0.00135898   -0.00591460
     atom    7 type  1   force =    -0.00053831   -0.00530673    0.02995044
     atom    8 type  1   force =     0.00069284    0.00860774    0.04843090
     atom    9 type  2   force =     0.00012452   -0.00129089   -0.00095686
     atom   10 type  2   force =    -0.00253530    0.00301400   -0.03406878
     atom   11 type  2   force =    -0.00031556   -0.00007807   -0.00021418
     atom   12 type  2   force =     0.00041546   -0.00036266   -0.00009727
     atom   13 type  1   force =     0.00022495   -0.00162118    0.00010504
     atom   14 type  1   force =     0.00017367   -0.00070772    0.00049523
     atom   15 type  2   force =     0.00009200    0.00005062   -0.00032113
     atom   16 type  2   force =    -0.00014085    0.00001327    0.00205205
     atom   17 type  2   force =    -0.00131438   -0.00088127    0.00051853
     atom   18 type  2   force =     0.00094057   -0.00149263    0.00069597
     atom   19 type  1   force =     0.00065811   -0.00094656   -0.00065608
     atom   20 type  1   force =    -0.00078677   -0.00048245   -0.00009007
     atom   21 type  2   force =     0.00004646    0.00012400    0.10114208
     atom   22 type  2   force =    -0.00009936    0.00042036   -0.00001605
     atom   23 type  2   force =    -0.07541770   -0.00012354   -0.02929431
     atom   24 type  2   force =     0.07532989    0.00029884   -0.02931190
     atom   25 type  1   force =     0.00013897   -0.00022221    0.10279863
     atom   26 type  1   force =    -0.00004307   -0.00130081   -0.16851553
     atom   27 type  2   force =     0.00011922    0.00017474   -0.03114129
     atom   28 type  2   force =    -0.00001027    0.00071952    0.03586241
     atom   29 type  2   force =    -0.00427002    0.00378646   -0.00624305
     atom   30 type  2   force =     0.00529342    0.00442394   -0.00776825
     atom   31 type  1   force =    -0.00054061    0.00495828    0.01584168
     atom   32 type  1   force =     0.00077322   -0.01041674    0.04910865
     atom   33 type  2   force =     0.00002619   -0.00090179   -0.00127941
     atom   34 type  2   force =    -0.00240633    0.00222418   -0.04423403
     atom   35 type  2   force =     0.00059559    0.00020283   -0.00012592
     atom   36 type  2   force =    -0.00022319    0.00023488   -0.00005605
     atom   37 type  1   force =     0.00026518    0.00035262   -0.00053061
     atom   38 type  1   force =     0.00042217    0.00135893    0.00091684
     atom   39 type  2   force =     0.00036989    0.00045201    0.00008843
     atom   40 type  2   force =     0.00005593    0.00013647    0.00059072
     atom   41 type  2   force =    -0.00118959    0.00004448    0.00018873
     atom   42 type  2   force =     0.00071129    0.00059677    0.00041331
     atom   43 type  1   force =     0.00026059    0.00049893    0.00393158
     atom   44 type  1   force =    -0.00066820    0.00003668   -0.00064995
     atom   45 type  2   force =     0.00007122   -0.00002100    0.10094504
     atom   46 type  2   force =    -0.07547396   -0.00004828   -0.02931023
     atom   47 type  2   force =     0.07538549    0.00038480   -0.02930559
     atom   48 type  3   force =    -0.00062578    0.00010385    0.00042407
     atom   49 type  3   force =     0.00036034   -0.00084433   -0.00091302
     atom   50 type  4   force =     0.00120468    0.00132799    0.00064281
     atom   51 type  5   force =     0.00012901   -0.00077940   -0.00135347
     atom   52 type  5   force =    -0.00020178   -0.00055937   -0.00052267
     atom   53 type  5   force =    -0.00014958   -0.00058355   -0.00104933
     atom   54 type  5   force =    -0.00005099   -0.00065215   -0.00135725
     atom   55 type  2   force =    -0.00205301    0.00832066   -0.01167769
     atom   56 type  5   force =     0.00291720   -0.00930727    0.00381564

     Total force =     0.373180     Total SCF correction =     0.000618
  @ DRIVER MODE: Message from server: STATUS
  @ DRIVER MODE: Message from server: GETFORCE
  @ DRIVER MODE: Returning v,forces,stress,ensemble

     Writing output data file ./calc.save/
  @ DRIVER MODE: Message from server: EXIT
  @ DRIVE MODE: Exiting

     General routines

     Parallel routines

   This run was terminated on:  18: 3:45  23Sep2021

   JOB DONE.