     Program PWSCF v.6.7GPU starts on 25Aug2021 at 10: 8:30

     R & G space division:  proc/nbgrp/npool/nimage =       6
     Reading input from /storage/home/hcoda1/3/ntian30/research/carbon/CH3_vib_end_on/ads_slab/CH3N2H_a/out_0035/pw.inp
Warning: card &CELL ignored
Warning: card   CELL_DYNAMICS='IPI', ignored
Warning: card / ignored

     Current dimensions of program PWSCF are:
     Max number of different atomic species (ntypx) = 10
     Max number of k-points (npk) =  40000
     Max angular momentum in pseudopotentials (lmaxx) =  3
     Presently no symmetry can be used with electric field

     Message from routine cell_base_init:
     DEPRECATED: use true lattice parameter, not A to a.u. conversion factor

     IMPORTANT: XC functional enforced from input :
     Exchange-correlation= BEEF-VDW
                           (   1   4  43  14   2   0   0)
     Any further DFT definition will be discarded
     Please, verify this is what you really want

  @ DRIVER MODE: Connecting to
 qe_1139763_2643869.sched-torque.pace.gatech.edumir1_dj2_scratch
  using UNIX socket
  @ DRIVER MODE: Message from server: STATUS
  @ DRIVER MODE: Message from server: INIT
  @ DRIVER MODE: Receiving replica           0          -1
  @ DRIVER MODE: Receiving encoded integer          25
  @ DRIVER MODE:  SCF:  T  FORCE:  T  STRESS:  F  VC:  F  ENSEMBLE:  F
  @ DRIVER MODE:  SCF:  T  FORCE:  T  STRESS:  F  VC:  F  ENSEMBLE:  F

     Using Slab Decomposition

     bravais-lattice index     =            0
     lattice parameter (alat)  =       1.8897  a.u.
     unit-cell volume          =    6658.9804 (a.u.)^3
     number of atoms/cell      =           54
     number of atomic types    =            5
     number of electrons       =       396.00
     number of Kohn-Sham states=          208
     kinetic-energy cutoff     =      29.3995  Ry
     charge density cutoff     =     293.9946  Ry
     scf convergence threshold =      7.3E-08
     mixing beta               =       0.0500
     number of iterations used =            8  plain     mixing
     Exchange-correlation= BEEF-VDW
                           (   1   4  43  14   2   0   0)

     celldm(1)=   1.889726  celldm(2)=   0.000000  celldm(3)=   0.000000
     celldm(4)=   0.000000  celldm(5)=   0.000000  celldm(6)=   0.000000

     crystal axes: (cart. coord. in units of alat)
               a(1) = (   6.579727   0.000000   0.000000 )
               a(2) = (  -0.000775   5.961596   0.000000 )
               a(3) = (   0.000000   0.000000  25.155947 )

     reciprocal axes: (cart. coord. in units 2 pi/alat)
               b(1) = (  0.151982  0.000020  0.000000 )
               b(2) = (  0.000000  0.167740  0.000000 )
               b(3) = (  0.000000  0.000000  0.039752 )

     PseudoPot. # 1 for Ti read from file:
     /storage/coda1/p-amedford6/0/shared/rich_project_chbe-medford/medford-share/data/pseudos_module/espresso/nninc/pbe/van/Ti.UPF
     MD5 check sum: 8e4df49b7f0d34bbd5052bf3f5ea0213
     Pseudo is Ultrasoft, Zval = 12.0
     Generated by new atomic code, or converted to UPF format
     Using radial grid of  851 points,  6 beta functions with:
                l(1) =   0
                l(2) =   0
                l(3) =   1
                l(4) =   1
                l(5) =   2
                l(6) =   2
     Q(r) pseudized with  8 coefficients,  rinner =    1.000   1.000   1.000
                                                       1.000   1.000

     PseudoPot. # 2 for O  read from file:
     /storage/coda1/p-amedford6/0/shared/rich_project_chbe-medford/medford-share/data/pseudos_module/espresso/nninc/pbe/van/O.UPF
     MD5 check sum: 78c19812648e8988a0fe644b0f25305e
     Pseudo is Ultrasoft, Zval =  6.0
     Generated by new atomic code, or converted to UPF format
     Using radial grid of  737 points,  4 beta functions with:
                l(1) =   0
                l(2) =   0
                l(3) =   1
                l(4) =   1
     Q(r) pseudized with  8 coefficients,  rinner =    0.800   0.800   0.800

     PseudoPot. # 3 for N  read from file:
     /storage/coda1/p-amedford6/0/shared/rich_project_chbe-medford/medford-share/data/pseudos_module/espresso/nninc/pbe/van/N.UPF
     MD5 check sum: 90d10febe142ad51ac9d5be1deb811c4
     Pseudo is Ultrasoft, Zval =  5.0
     Generated by new atomic code, or converted to UPF format
     Using radial grid of  729 points,  4 beta functions with:
                l(1) =   0
                l(2) =   0
                l(3) =   1
                l(4) =   1
     Q(r) pseudized with  8 coefficients,  rinner =    0.800   0.800   0.800

     PseudoPot. # 4 for C  read from file:
     /storage/coda1/p-amedford6/0/shared/rich_project_chbe-medford/medford-share/data/pseudos_module/espresso/nninc/pbe/van/C.UPF
     MD5 check sum: 1a69bf6b8db32088f5b2163dbdb77a27
     Pseudo is Ultrasoft, Zval =  4.0
     Generated by new atomic code, or converted to UPF format
     Using radial grid of  721 points,  4 beta functions with:
                l(1) =   0
                l(2) =   0
                l(3) =   1
                l(4) =   1
     Q(r) pseudized with  8 coefficients,  rinner =    0.800   0.800   0.800

     PseudoPot. # 5 for H  read from file:
     /storage/coda1/p-amedford6/0/shared/rich_project_chbe-medford/medford-share/data/pseudos_module/espresso/nninc/pbe/van/H.UPF
     MD5 check sum: b5ee9d7bfd3a09ee7748110bda690ff7
     Pseudo is Ultrasoft, Zval =  1.0
     Generated by new atomic code, or converted to UPF format
     Using radial grid of  615 points,  1 beta functions with:
                l(1) =   0
     Q(r) pseudized with  8 coefficients,  rinner =    0.800

     atomic species   valence    mass     pseudopotential
        Ti1           12.00    47.86700     Ti( 1.00)
        O1             6.00    15.99900     O ( 1.00)
        N1             5.00    14.00700     N ( 1.00)
        C1             4.00    12.01100     C ( 1.00)
        H1             1.00     1.00800     H ( 1.00)

     No symmetry found

   Cartesian axes

     site n.     atom                  positions (alat units)
         1           Ti1 tau(   1) = (   0.0004258   2.9801865   6.0000000  )
         2           Ti1 tau(   2) = (   3.2906075   1.4906267   6.0002472  )
         3           O1  tau(   3) = (   0.0006271   0.0005054   7.9858123  )
         4           O1  tau(   4) = (   3.2906025   0.0005020   7.3038282  )
         5           O1  tau(   5) = (   4.5942328   1.4918067   9.2879030  )
         6           O1  tau(   6) = (   1.9868534   1.4903216   9.2879459  )
         7           Ti1 tau(   7) = (   3.2907910   2.8959150   9.1758416  )
         8           Ti1 tau(   8) = (   0.0015273   1.4827037   9.2680791  )
         9           O1  tau(   9) = (   3.2896288   0.0042867  11.3205077  )
        10           O1  tau(  10) = (   0.0116148   5.9584955  10.6183126  )
        11           O1  tau(  11) = (   1.2848067   1.4985890  12.6232755  )
        12           O1  tau(  12) = (   5.2688617   1.4893877  12.6055203  )
        13           Ti1 tau(  13) = (   0.0799559   3.0171279  12.6206390  )
        14           Ti1 tau(  14) = (   3.4009582   1.4891986  12.4726338  )
        15           O1  tau(  15) = (   6.5707323   0.0080309  14.6263129  )
        16           O1  tau(  16) = (   3.2902489   0.0120312  13.8979102  )
        17           O1  tau(  17) = (   4.5126121   1.5346005  16.0500440  )
        18           O1  tau(  18) = (   2.0453867   1.5362785  16.0447169  )
        19           Ti1 tau(  19) = (   3.2767562   3.0203775  15.6892921  )
        20           Ti1 tau(  20) = (   6.5596632   1.5778499  15.8310978  )
        21           O1  tau(  21) = (   3.2904802   0.0005063   4.7018136  )
        22           O1  tau(  22) = (   6.5709656   0.0671247  17.2345223  )
        23           O1  tau(  23) = (   1.3043587   1.4918075   6.0039043  )
        24           O1  tau(  24) = (   5.2767064   1.4903225   6.0039473  )
        25           Ti1 tau(  25) = (   0.0000382   5.9609847   6.0000000  )
        26           Ti1 tau(  26) = (   3.2902200   4.4714249   6.0002472  )
        27           O1  tau(  27) = (   0.0002396   2.9813036   7.9858123  )
        28           O1  tau(  28) = (   3.2902150   2.9813002   7.3038282  )
        29           O1  tau(  29) = (   4.5938453   4.4726049   9.2879030  )
        30           O1  tau(  30) = (   1.9864658   4.4711199   9.2879459  )
        31           Ti1 tau(  31) = (   3.2891106   5.8743827   9.1763621  )
        32           Ti1 tau(  32) = (   0.0006254   4.4649316   9.2693709  )
        33           O1  tau(  33) = (   3.2919429   2.9835650  11.3172650  )
        34           O1  tau(  34) = (   0.0092240   2.9805883  10.6323155  )
        35           O1  tau(  35) = (   1.2842535   4.4799506  12.6241420  )
        36           O1  tau(  36) = (   5.2755836   4.4732255  12.6042992  )
        37           Ti1 tau(  37) = (   0.0783641   0.0295629  12.6394962  )
        38           Ti1 tau(  38) = (   3.4022659   4.4693352  12.4708195  )
        39           O1  tau(  39) = (   6.5693815   2.9799975  14.6326336  )
        40           O1  tau(  40) = (   3.2899495   3.0014797  13.8849495  )
        41           O1  tau(  41) = (   4.5062741   4.5069571  16.0893315  )
        42           O1  tau(  42) = (   2.0480812   4.5060041  16.0753496  )
        43           Ti1 tau(  43) = (   3.2742444   0.0367023  15.7020416  )
        44           Ti1 tau(  44) = (   6.5658628   4.6518251  16.1481936  )
        45           O1  tau(  45) = (   3.2900926   2.9813045   4.7018136  )
        46           O1  tau(  46) = (   1.3039711   4.4726057   6.0039043  )
        47           O1  tau(  47) = (   5.2763189   4.4711207   6.0039473  )
        48           N1  tau(  48) = (   6.5201982   2.6597193  18.5868863  )
        49           N1  tau(  49) = (   6.5663212   2.9659568  17.3251533  )
        50           C1  tau(  50) = (   0.1092964   3.6297355  19.6533281  )
        51           H1  tau(  51) = (   6.1365678   4.5355971  19.4091500  )
        52           H1  tau(  52) = (   6.3142024   3.1981282  20.5813133  )
        53           H1  tau(  53) = (   1.1661384   3.8973747  19.7739464  )
        54           H1  tau(  54) = (   6.5756389   1.6632157  18.8047554  )

     number of k points=    10  Fermi-Dirac smearing, width (Ry)=  0.0073
                       cart. coord. in units 2pi/alat
        k(    1) = (   0.0000000   0.0000000   0.0000000), wk =   0.1250000
        k(    2) = (   0.0000000   0.0419351   0.0000000), wk =   0.2500000
        k(    3) = (   0.0000000  -0.0838702   0.0000000), wk =   0.1250000
        k(    4) = (   0.0379955   0.0000049   0.0000000), wk =   0.2500000
        k(    5) = (   0.0379955   0.0419400   0.0000000), wk =   0.2500000
        k(    6) = (   0.0379955  -0.0838652   0.0000000), wk =   0.2500000
        k(    7) = (   0.0379955  -0.0419301   0.0000000), wk =   0.2500000
        k(    8) = (  -0.0759910  -0.0000099   0.0000000), wk =   0.1250000
        k(    9) = (  -0.0759910   0.0419252   0.0000000), wk =   0.2500000
        k(   10) = (  -0.0759910  -0.0838800   0.0000000), wk =   0.1250000

     Initial potential from superposition of free atoms

     starting charge  379.99915, renormalised to  396.00000

     negative rho (up, down):  1.475E-02 0.000E+00

     %%%%%%%%%%%%%%%%%%%%%%%%%%%%%%%%%%%%%%%%%%%%%%%%%%%%%%%%%%%%%%%%%%%%%%%%
     %                                                                      %
     % You are using vdW-DF, which was implemented by the Thonhauser group. %
     % Please cite the following two papers that made this development      %
     % possible and the two reviews that describe the various versions:     %
     %                                                                      %
     %   T. Thonhauser et al., PRL 115, 136402 (2015).                      %
     %   T. Thonhauser et al., PRB 76, 125112 (2007).                       %
     %   K. Berland et al., Rep. Prog. Phys. 78, 066501 (2015).             %
     %   D.C. Langreth et al., J. Phys.: Condens. Matter 21, 084203 (2009). %
     %                                                                      %
     %                                                                      %
     % If you are calculating the stress with vdW-DF, please also cite:     %
     %                                                                      %
     %   R. Sabatini et al., J. Phys.: Condens. Matter 24, 424209 (2012).   %
     %                                                                      %
     %%%%%%%%%%%%%%%%%%%%%%%%%%%%%%%%%%%%%%%%%%%%%%%%%%%%%%%%%%%%%%%%%%%%%%%%

     Adding external electric field

     Computed dipole along edir(3) :
        Dipole               -9.2696 Ry au,        -23.5610 Debye
        Dipole field         -0.0175 Ry au,

        Potential amp.        1.6216 Ry
        Total length         46.3494 bohr

     Starting wfcs are  300 atomic wfcs
  @ DRIVER MODE: Message from server: STATUS
  @ DRIVER MODE: Message from server: POSDATA
  @ DRIVER MODE: Reading and sharing cell
  @ DRIVER MODE: Reading and sharing positions
  @ DRIVER MODE: Received positions

     Self-consistent Calculation

     iteration #  1     ecut=    29.40 Ry     beta= 0.05
     Davidson diagonalization with overlap
     c_bands:  1 eigenvalues not converged
     c_bands:  1 eigenvalues not converged
     c_bands:  1 eigenvalues not converged
     ethr =  1.00E-05,  avg # of iterations = 17.9

[...]

     total energy              =   -2585.34304485 Ry
     estimated scf accuracy    <    3946.49029989 Ry

     iteration #  2     ecut=    29.40 Ry     beta= 0.05
     Davidson diagonalization with overlap
     ethr =  1.00E-02,  avg # of iterations = 22.4

[...]

     iteration # 61     ecut=    29.40 Ry     beta= 0.05
     Davidson diagonalization with overlap
     c_bands:  1 eigenvalues not converged
     ethr =  3.09E-08,  avg # of iterations = 13.9

[...]

     total energy              =   -2940.39770472 Ry
     estimated scf accuracy    <       0.00000012 Ry

     iteration # 76     ecut=    29.40 Ry     beta= 0.05
     Davidson diagonalization with overlap
     ethr =  2.95E-11,  avg # of iterations =  7.3

     negative rho (up, down):  1.568E-02 0.000E+00

     Adding external electric field

     Computed dipole along edir(3) :
        Dipole                1.1309 Ry au,          2.8745 Debye
        Dipole field          0.0021 Ry au,

        Potential amp.       -0.1978 Ry
        Total length         46.3494 bohr

     End of self-consistent calculation

          k = 0.0000 0.0000 0.0000 ( 18029 PWs)   bands (ev):

   -55.6420 -55.6080 -55.5497 -55.5120 -55.4061 -55.3839 -55.3723 -55.3484
   -55.3415 -55.3346 -55.3146 -55.2649 -54.7245 -54.5839 -54.5559 -54.5499
   -32.1165 -32.0932 -31.9363 -31.9232 -31.8933 -31.8626 -31.8443 -31.8379
   -31.7952 -31.7788 -31.7776 -31.7388 -31.7296 -31.7117 -31.7007 -31.6911
   -31.6802 -31.6717 -31.6386 -31.6270 -31.6045 -31.5843 -31.5769 -31.5632
   -31.5498 -31.5437 -31.5369 -31.5351 -31.5293 -31.5122 -31.5031 -31.5015
   -31.4977 -31.4607 -31.4466 -31.3791 -31.2222 -30.9896 -30.9475 -30.9330
   -30.9050 -30.8934 -30.8823 -30.8065 -30.7643 -30.7357 -30.7202 -30.6091
   -18.0012 -16.2762 -16.0484 -15.7710 -15.6704 -15.6467 -15.5259 -15.3934
   -15.2929 -15.1979 -15.1576 -15.1033 -15.0988 -15.0694 -15.0391 -15.0031
   -14.9755 -14.9360 -14.9183 -14.8985 -14.8733 -14.8644 -14.7537 -14.7402
   -14.7157 -14.6242 -14.6139 -14.5412 -14.5151 -14.0853 -13.0859 -12.9701
   -12.0219  -8.9310  -5.7195  -4.4568  -4.1649  -3.6591  -3.5332  -3.5030
    -3.4016  -3.2271  -3.1370  -3.0769  -2.9539  -2.7632  -2.7284  -2.7185
    -2.6984  -2.6407  -2.4425  -2.4169  -2.3856  -2.3458  -2.3358  -2.3337
    -2.3194  -2.2577  -2.1915  -2.1268  -2.0285  -2.0239  -1.9672  -1.9539
    -1.9366  -1.9020  -1.8584  -1.8191  -1.7975  -1.7557  -1.7368  -1.7303
    -1.6891  -1.6067  -1.5041  -1.3468  -1.3301  -1.2996  -1.2513  -1.1959
    -1.0313  -1.0160  -0.9785  -0.9723  -0.9405  -0.8650  -0.7985  -0.7127
    -0.6771  -0.5999  -0.5840  -0.5552  -0.4810  -0.3953  -0.3726  -0.3577
    -0.3500  -0.3344  -0.2766  -0.1616  -0.0666  -0.0370   0.0845   0.0891
     0.1243   0.1686   0.1850   0.2669   0.3032   0.3169   0.3684   0.3688
     0.3804   0.4242   0.4472   0.5096   0.5654   0.6498   0.7230   0.7885
     0.8252   0.9417   1.0127   1.0781   1.1098   1.2391   1.3669   1.3764
     1.4380   1.6333   1.6360   2.0064   2.0507   3.5294   3.5504   3.6432
     3.6866   3.7844   3.8235   3.9679   4.0225   4.0604   4.1740   4.2050

[...]

          k = 0.0380-0.0419 0.0000 ( 17876 PWs)   bands (ev):

[...]

          k =-0.0760-0.0000 0.0000 ( 17886 PWs)   bands (ev):

[...]

          k =-0.0760-0.0839 0.0000 ( 17948 PWs)   bands (ev):

   -55.6251 -55.6248 -55.5365 -55.5250 -55.3892 -55.3888 -55.3748 -55.3505
   -55.3329 -55.3302 -55.3299 -55.2694 -54.7229 -54.5669 -54.5668 -54.5573
   -31.9320 -31.9320 -31.9215 -31.9214 -31.9010 -31.8918 -31.7943 -31.7846
   -31.7608 -31.7481 -31.7459 -31.7456 -31.7011 -31.6982 -31.6858 -31.6824
   -31.6736 -31.6699 -31.6694 -31.6443 -31.6000 -31.5981 -31.5849 -31.5819
   -31.5774 -31.5759 -31.5743 -31.5638 -31.5613 -31.5559 -31.5478 -31.5449
   -31.5382 -31.5277 -31.5017 -31.4672 -31.1315 -30.9677 -30.9339 -30.9210
   -30.8951 -30.8950 -30.8026 -30.8025 -30.7834 -30.7655 -30.7634 -30.7634
   -17.9954 -15.6992 -15.6879 -15.5087 -15.5035 -15.4431 -15.4369 -15.2841
   -15.2831 -15.2648 -15.2565 -15.1333 -15.1295 -15.0980 -15.0944 -15.0521
   -15.0435 -15.0252 -15.0168 -15.0152 -15.0086 -14.9821 -14.9313 -14.8971
   -14.8916 -14.7145 -14.7136 -14.5933 -14.5605 -14.2206 -13.0722 -13.0721
   -12.0228  -8.9409  -5.7114  -4.3955  -4.1675  -2.9890  -2.9771  -2.9707
    -2.7036  -2.6985  -2.6740  -2.6635  -2.4585  -2.4457  -2.4245  -2.4189
    -2.3916  -2.3857  -2.3709  -2.3638  -2.2809  -2.2702  -2.2589  -2.2349
    -2.2323  -2.2268  -2.2104  -2.2029  -2.1931  -2.1594  -2.1242  -2.0947
    -2.0602  -2.0377  -1.9184  -1.8081  -1.7302  -1.7234  -1.6928  -1.6869
    -1.6810  -1.6746  -1.6416  -1.5372  -1.4821  -1.4266  -1.2894  -1.2636
    -1.2467  -1.2005  -1.1121  -1.0316  -0.9683  -0.9511  -0.9037  -0.8605
    -0.8356  -0.7513  -0.7273  -0.7196  -0.6520  -0.6194  -0.5748  -0.5690
    -0.5545  -0.4888  -0.4407  -0.3911  -0.3677  -0.3370  -0.2918  -0.2711
    -0.2082  -0.1565  -0.1088  -0.1033  -0.0551  -0.0468   0.0180   0.1678
     0.2173   0.4710   0.4855   0.5161   0.6405   0.7120   0.7174   0.7451
     0.7770   0.8284   0.8402   0.9740   0.9857   0.9882   1.1536   1.1779
     1.2650   1.8064   1.8067   1.8698   1.8702   3.4318   3.9217   3.9390
     3.9643   3.9794   4.0507   4.0517   4.0599   4.0673   4.2504   4.2671

     the Fermi energy is     3.5065 ev

!    total energy              =   -2940.39771737 Ry
     estimated scf accuracy    <       0.00000007 Ry
     smearing contrib. (-TS)   =      -0.02302666 Ry
     internal energy E=F+TS    =   -2940.37469071 Ry

     The total energy is F=E-TS. E is the sum of the following terms:
     one-electron contribution =  -24109.74699383 Ry
     hartree contribution      =   12146.10691581 Ry
     xc contribution           =    -486.04648960 Ry
     ewald contribution        =    9509.30946328 Ry
     electric field correction =       0.00241362 Ry

     convergence has been achieved in  76 iterations

     Forces acting on atoms (cartesian axes, Ry/au):

     atom    1 type  1   force =     0.00015935   -0.00012722    0.09934122
     atom    2 type  1   force =    -0.00012716   -0.00047457   -0.17361125
     atom    3 type  2   force =    -0.00005177    0.00000069   -0.02879154
     atom    4 type  2   force =     0.00007426   -0.00125156    0.04997373
     atom    5 type  2   force =    -0.01305223    0.00057879    0.00121178
     atom    6 type  2   force =     0.01459995    0.00138644   -0.00011236
     atom    7 type  1   force =    -0.00144307   -0.00060239   -0.00835983
     atom    8 type  1   force =     0.00088051   -0.00412791    0.04511919
     atom    9 type  2   force =    -0.00003115   -0.00065956   -0.00022980
     atom   10 type  2   force =    -0.00129010    0.00227626   -0.02839907
     atom   11 type  2   force =     0.00019875    0.00061403   -0.00003193
     atom   12 type  2   force =     0.00025392    0.00040867    0.00011658
     atom   13 type  1   force =     0.00038480    0.00021661   -0.00060655
     atom   14 type  1   force =     0.00002564    0.00047492    0.00029691
     atom   15 type  2   force =     0.00034211   -0.00009558   -0.00003566
     atom   16 type  2   force =    -0.00041028   -0.00023539   -0.00016800
     atom   17 type  2   force =    -0.00100373    0.00014912   -0.00052196
     atom   18 type  2   force =     0.00089251    0.00020006    0.00023825
     atom   19 type  1   force =     0.00022846   -0.00007149   -0.00000436
     atom   20 type  1   force =    -0.00046937   -0.00084192    0.00018713
     atom   21 type  2   force =     0.00009073   -0.00007109    0.10278432
     atom   22 type  2   force =     0.00010909    0.00004693    0.00011524
     atom   23 type  2   force =    -0.07214736   -0.00015283   -0.02832730
     atom   24 type  2   force =     0.07214366    0.00030677   -0.02832489
     atom   25 type  1   force =     0.00012588   -0.00020045    0.09864145
     atom   26 type  1   force =    -0.00011121   -0.00046360   -0.17382207
     atom   27 type  2   force =     0.00001075   -0.00002840   -0.02807604
     atom   28 type  2   force =     0.00011470   -0.00100171    0.04942678
     atom   29 type  2   force =    -0.01337424    0.00005575    0.00127548
     atom   30 type  2   force =     0.01482995    0.00042076   -0.00006834
     atom   31 type  1   force =    -0.00139432    0.00250595   -0.00864772
     atom   32 type  1   force =     0.00106364    0.00237787    0.04544265
     atom   33 type  2   force =    -0.00012992    0.00104433    0.00058880
     atom   34 type  2   force =    -0.00071565    0.00120075   -0.03114171
     atom   35 type  2   force =     0.00069350   -0.00051114   -0.00017549
     atom   36 type  2   force =    -0.00163319   -0.00011222    0.00007057
     atom   37 type  1   force =    -0.00017259   -0.00153331    0.00018324
     atom   38 type  1   force =     0.00077351   -0.00004604    0.00049472
     atom   39 type  2   force =     0.00033011    0.00017622   -0.00054032
     atom   40 type  2   force =    -0.00040388    0.00033345   -0.00002802
     atom   41 type  2   force =     0.00043006   -0.00059385    0.00003110
     atom   42 type  2   force =    -0.00042361   -0.00072279    0.00053445
     atom   43 type  1   force =     0.00036983   -0.00031895   -0.00059799
     atom   44 type  1   force =    -0.00037156   -0.00065056   -0.00024704
     atom   45 type  2   force =     0.00011003   -0.00006862    0.10280968
     atom   46 type  2   force =    -0.07217046   -0.00010188   -0.02832389
     atom   47 type  2   force =     0.07215367    0.00033880   -0.02830076
     atom   48 type  3   force =    -0.00094894   -0.00101140   -0.00147740
     atom   49 type  3   force =    -0.00004214   -0.00049219    0.00004296
     atom   50 type  4   force =     0.00045540    0.00025457   -0.00091282
     atom   51 type  5   force =    -0.00052702   -0.00051992    0.00012146
     atom   52 type  5   force =     0.00131226    0.00034543   -0.00026085
     atom   53 type  5   force =    -0.00011525    0.00093482    0.00104805
     atom   54 type  5   force =    -0.00059685    0.00044054    0.00004921

     Total force =     0.372241     Total SCF correction =     0.000708
  @ DRIVER MODE: Message from server: STATUS
  @ DRIVER MODE: Message from server: GETFORCE
  @ DRIVER MODE: Returning v,forces,stress,ensemble

     Writing output data file ./calc.save/
  @ DRIVER MODE: Message from server: EXIT
  @ DRIVE MODE: Exiting

     General routines

     Parallel routines

   This run was terminated on:  10:39:59  25Aug2021

   JOB DONE.