     Program PWSCF v.6.7GPU starts on 12Oct2021 at 15:15:47

     R & G space division:  proc/nbgrp/npool/nimage =       8
     Reading input from /storage/home/hcoda1/3/ntian30/research/carbon/ACS_vib/ads_slab/NH2/out_0017/pw.inp
Warning: card &CELL ignored
Warning: card   CELL_DYNAMICS='IPI', ignored
Warning: card / ignored

     Current dimensions of program PWSCF are:
     Max number of different atomic species (ntypx) = 10
     Max number of k-points (npk) =  40000
     Max angular momentum in pseudopotentials (lmaxx) =  3
     Presently no symmetry can be used with electric field

     Message from routine cell_base_init:
     DEPRECATED: use true lattice parameter, not A to a.u. conversion factor

     IMPORTANT: XC functional enforced from input :
     Exchange-correlation= BEEF-VDW
                           (   1   4  43  14   2   0   0)
     Any further DFT definition will be discarded
     Please, verify this is what you really want

  @ DRIVER MODE: Connecting to
 qe_1139763_3181316.sched-torque.pace.gatech.edu8_7a03k5_scratch
  using UNIX socket
  @ DRIVER MODE: Message from server: STATUS
  @ DRIVER MODE: Message from server: INIT
  @ DRIVER MODE: Receiving replica           0          -1
  @ DRIVER MODE: Receiving encoded integer          25
  @ DRIVER MODE:  SCF:  T  FORCE:  T  STRESS:  F  VC:  F  ENSEMBLE:  F
  @ DRIVER MODE:  SCF:  T  FORCE:  T  STRESS:  F  VC:  F  ENSEMBLE:  F

     Using Slab Decomposition

     bravais-lattice index     =            0
     lattice parameter (alat)  =       1.8897  a.u.
     unit-cell volume          =    6658.9804 (a.u.)^3
     number of atoms/cell      =           50
     number of atomic types    =            4
     number of electrons       =       385.00
     number of Kohn-Sham states=          202
     kinetic-energy cutoff     =      29.3995  Ry
     charge density cutoff     =     293.9946  Ry
     scf convergence threshold =      7.3E-08
     mixing beta               =       0.0500
     number of iterations used =            8  plain     mixing
     Exchange-correlation= BEEF-VDW
                           (   1   4  43  14   2   0   0)

     celldm(1)=   1.889726  celldm(2)=   0.000000  celldm(3)=   0.000000
     celldm(4)=   0.000000  celldm(5)=   0.000000  celldm(6)=   0.000000

     crystal axes: (cart. coord. in units of alat)
               a(1) = (   6.579727   0.000000   0.000000 )
               a(2) = (  -0.000775   5.961596   0.000000 )
               a(3) = (   0.000000   0.000000  25.155947 )

     reciprocal axes: (cart. coord. in units 2 pi/alat)
               b(1) = (  0.151982  0.000020  0.000000 )
               b(2) = (  0.000000  0.167740  0.000000 )
               b(3) = (  0.000000  0.000000  0.039752 )

     PseudoPot. # 1 for Ti read from file:
     /storage/coda1/p-amedford6/0/shared/rich_project_chbe-medford/medford-share/data/pseudos_module/espresso/nninc/pbe/van/Ti.UPF
     MD5 check sum: 8e4df49b7f0d34bbd5052bf3f5ea0213
     Pseudo is Ultrasoft, Zval = 12.0
     Generated by new atomic code, or converted to UPF format
     Using radial grid of  851 points,  6 beta functions with:
                l(1) =   0
                l(2) =   0
                l(3) =   1
                l(4) =   1
                l(5) =   2
                l(6) =   2
     Q(r) pseudized with  8 coefficients,  rinner =    1.000   1.000   1.000
                                                       1.000   1.000

     PseudoPot. # 2 for O  read from file:
     /storage/coda1/p-amedford6/0/shared/rich_project_chbe-medford/medford-share/data/pseudos_module/espresso/nninc/pbe/van/O.UPF
     MD5 check sum: 78c19812648e8988a0fe644b0f25305e
     Pseudo is Ultrasoft, Zval =  6.0
     Generated by new atomic code, or converted to UPF format
     Using radial grid of  737 points,  4 beta functions with:
                l(1) =   0
                l(2) =   0
                l(3) =   1
                l(4) =   1
     Q(r) pseudized with  8 coefficients,  rinner =    0.800   0.800   0.800

     PseudoPot. # 3 for H  read from file:
     /storage/coda1/p-amedford6/0/shared/rich_project_chbe-medford/medford-share/data/pseudos_module/espresso/nninc/pbe/van/H.UPF
     MD5 check sum: b5ee9d7bfd3a09ee7748110bda690ff7
     Pseudo is Ultrasoft, Zval =  1.0
     Generated by new atomic code, or converted to UPF format
     Using radial grid of  615 points,  1 beta functions with:
                l(1) =   0
     Q(r) pseudized with  8 coefficients,  rinner =    0.800

     PseudoPot. # 4 for N  read from file:
     /storage/coda1/p-amedford6/0/shared/rich_project_chbe-medford/medford-share/data/pseudos_module/espresso/nninc/pbe/van/N.UPF
     MD5 check sum: 90d10febe142ad51ac9d5be1deb811c4
     Pseudo is Ultrasoft, Zval =  5.0
     Generated by new atomic code, or converted to UPF format
     Using radial grid of  729 points,  4 beta functions with:
                l(1) =   0
                l(2) =   0
                l(3) =   1
                l(4) =   1
     Q(r) pseudized with  8 coefficients,  rinner =    0.800   0.800   0.800

     atomic species   valence    mass     pseudopotential
        Ti1           12.00    47.86700     Ti( 1.00)
        O1             6.00    15.99900     O ( 1.00)
        H1             1.00     1.00800     H ( 1.00)
        N1             5.00    14.00700     N ( 1.00)

     No symmetry found

   Cartesian axes

     site n.     atom                  positions (alat units)
         1           Ti1 tau(   1) = (   0.0004258   2.9801865   6.0000000  )
         2           Ti1 tau(   2) = (   3.2906075   1.4906267   6.0002472  )
         3           O1  tau(   3) = (   0.0006271   0.0005054   7.9858123  )
         4           O1  tau(   4) = (   3.2906025   0.0005020   7.3038282  )
         5           O1  tau(   5) = (   4.5942328   1.4918067   9.2879030  )
         6           O1  tau(   6) = (   1.9868534   1.4903216   9.2879459  )
         7           Ti1 tau(   7) = (   3.2907910   2.8959150   9.1758416  )
         8           Ti1 tau(   8) = (   0.0015273   1.4827037   9.2680791  )
         9           O1  tau(   9) = (   3.3258991   5.9546141  11.3332578  )
        10           O1  tau(  10) = (   0.0116148   5.9584955  10.6183126  )
        11           O1  tau(  11) = (   1.3488932   1.4798543  12.6053297  )
        12           O1  tau(  12) = (   5.3234149   1.4779677  12.6259018  )
        13           Ti1 tau(  13) = (   0.0250334   2.9927558  12.6206450  )
        14           Ti1 tau(  14) = (   3.3016322   1.4795038  12.4820857  )
        15           O1  tau(  15) = (   0.0664024   0.0157593  14.6586037  )
        16           O1  tau(  16) = (   3.3323282   0.0041071  13.9289915  )
        17           O1  tau(  17) = (   4.5995015   1.5314437  16.0640773  )
        18           O1  tau(  18) = (   2.1161456   1.5293183  16.0749432  )
        19           Ti1 tau(  19) = (   3.3498380   3.0088313  15.6963580  )
        20           Ti1 tau(  20) = (   0.0530739   1.5396549  15.8437714  )
        21           O1  tau(  21) = (   3.2904802   0.0005063   4.7018136  )
        22           O1  tau(  22) = (   0.0625368   0.0441461  17.2188842  )
        23           O1  tau(  23) = (   1.3043587   1.4918075   6.0039043  )
        24           O1  tau(  24) = (   5.2767064   1.4903225   6.0039473  )
        25           Ti1 tau(  25) = (   0.0000382   5.9609847   6.0000000  )
        26           Ti1 tau(  26) = (   3.2902200   4.4714249   6.0002472  )
        27           O1  tau(  27) = (   0.0002396   2.9813036   7.9858123  )
        28           O1  tau(  28) = (   3.2902150   2.9813002   7.3038282  )
        29           O1  tau(  29) = (   4.5938453   4.4726049   9.2879030  )
        30           O1  tau(  30) = (   1.9864658   4.4711199   9.2879459  )
        31           Ti1 tau(  31) = (   3.2891106   5.8743827   9.1763621  )
        32           Ti1 tau(  32) = (   0.0006254   4.4649316   9.2693709  )
        33           O1  tau(  33) = (   3.3263537   2.9785333  11.3304563  )
        34           O1  tau(  34) = (   0.0092240   2.9805883  10.6323155  )
        35           O1  tau(  35) = (   1.3430786   4.4678698  12.6172051  )
        36           O1  tau(  36) = (   5.3277099   4.4710525  12.6377626  )
        37           Ti1 tau(  37) = (   0.0170098   0.0068522  12.5677129  )
        38           Ti1 tau(  38) = (   3.3012998   4.4598595  12.4837504  )
        39           O1  tau(  39) = (   0.0613649   2.9331972  14.6385027  )
        40           O1  tau(  40) = (   3.3336062   2.9900835  13.9042222  )
        41           O1  tau(  41) = (   4.5971590   4.4874278  16.0927711  )
        42           O1  tau(  42) = (   2.1143488   4.4887574  16.1000639  )
        43           Ti1 tau(  43) = (   3.3470598   0.0240971  15.7232225  )
        44           Ti1 tau(  44) = (   0.0592690   4.6672874  16.1350517  )
        45           O1  tau(  45) = (   3.2900926   2.9813045   4.7018136  )
        46           O1  tau(  46) = (   1.3039711   4.4726057   6.0039043  )
        47           O1  tau(  47) = (   5.2763189   4.4711207   6.0039473  )
        48           H1  tau(  48) = (   5.8602933   2.9036204  18.0417654  )
        49           H1  tau(  49) = (   0.9096825   2.8932289  17.9980414  )
        50           N1  tau(  50) = (   0.0797844   2.9726167  17.4094980  )

     number of k points=    10  Fermi-Dirac smearing, width (Ry)=  0.0073
                       cart. coord. in units 2pi/alat
        k(    1) = (   0.0000000   0.0000000   0.0000000), wk =   0.1250000
        k(    2) = (   0.0000000   0.0419351   0.0000000), wk =   0.2500000
        k(    3) = (   0.0000000  -0.0838702   0.0000000), wk =   0.1250000
        k(    4) = (   0.0379955   0.0000049   0.0000000), wk =   0.2500000
        k(    5) = (   0.0379955   0.0419400   0.0000000), wk =   0.2500000
        k(    6) = (   0.0379955  -0.0838652   0.0000000), wk =   0.2500000
        k(    7) = (   0.0379955  -0.0419301   0.0000000), wk =   0.2500000
        k(    8) = (  -0.0759910  -0.0000099   0.0000000), wk =   0.1250000
        k(    9) = (  -0.0759910   0.0419252   0.0000000), wk =   0.2500000
        k(   10) = (  -0.0759910  -0.0838800   0.0000000), wk =   0.1250000

     Initial potential from superposition of free atoms

     starting charge  368.99922, renormalised to  385.00000

     negative rho (up, down):  2.142E-02 0.000E+00

     %%%%%%%%%%%%%%%%%%%%%%%%%%%%%%%%%%%%%%%%%%%%%%%%%%%%%%%%%%%%%%%%%%%%%%%%
     %                                                                      %
     % You are using vdW-DF, which was implemented by the Thonhauser group. %
     % Please cite the following two papers that made this development      %
     % possible and the two reviews that describe the various versions:     %
     %                                                                      %
     %   T. Thonhauser et al., PRL 115, 136402 (2015).                      %
     %   T. Thonhauser et al., PRB 76, 125112 (2007).                       %
     %   K. Berland et al., Rep. Prog. Phys. 78, 066501 (2015).             %
     %   D.C. Langreth et al., J. Phys.: Condens. Matter 21, 084203 (2009). %
     %                                                                      %
     %                                                                      %
     % If you are calculating the stress with vdW-DF, please also cite:     %
     %                                                                      %
     %   R. Sabatini et al., J. Phys.: Condens. Matter 24, 424209 (2012).   %
     %                                                                      %
     %%%%%%%%%%%%%%%%%%%%%%%%%%%%%%%%%%%%%%%%%%%%%%%%%%%%%%%%%%%%%%%%%%%%%%%%

     Adding external electric field

     Computed dipole along edir(3) :
        Dipole               -1.9879 Ry au,         -5.0527 Debye
        Dipole field         -0.0038 Ry au,

        Potential amp.        0.3478 Ry
        Total length         46.3494 bohr

     Starting wfcs are  290 atomic wfcs
  @ DRIVER MODE: Message from server: STATUS
  @ DRIVER MODE: Message from server: POSDATA
  @ DRIVER MODE: Reading and sharing cell
  @ DRIVER MODE: Reading and sharing positions
  @ DRIVER MODE: Received positions

     Self-consistent Calculation

     iteration #  1     ecut=    29.40 Ry     beta= 0.05
     Davidson diagonalization with overlap
     c_bands:  2 eigenvalues not converged
     c_bands:  1 eigenvalues not converged
     c_bands:  4 eigenvalues not converged
     c_bands:  1 eigenvalues not converged
     c_bands:  3 eigenvalues not converged
     ethr =  1.00E-05,  avg # of iterations = 18.3

[...]

     total energy              =   -2907.97487858 Ry
     estimated scf accuracy    <      12.38391398 Ry

     iteration #  2     ecut=    29.40 Ry     beta= 0.05
     Davidson diagonalization with overlap
     ethr =  3.22E-03,  avg # of iterations =  1.0

[...]

     iteration # 58     ecut=    29.40 Ry     beta= 0.05
     Davidson diagonalization with overlap
     c_bands:  1 eigenvalues not converged
     ethr =  3.41E-11,  avg # of iterations = 14.5

[...]

     total energy              =   -2906.48787971 Ry
     estimated scf accuracy    <       0.00000008 Ry

     iteration # 61     ecut=    29.40 Ry     beta= 0.05
     Davidson diagonalization with overlap
     ethr =  2.05E-11,  avg # of iterations =  1.4

     negative rho (up, down):  2.071E-02 0.000E+00

     Adding external electric field

     Computed dipole along edir(3) :
        Dipole                0.6565 Ry au,          1.6686 Debye
        Dipole field          0.0012 Ry au,

        Potential amp.       -0.1148 Ry
        Total length         46.3494 bohr

     End of self-consistent calculation

          k = 0.0000 0.0000 0.0000 ( 18029 PWs)   bands (ev):

   -56.1909 -56.1837 -56.1569 -56.1477 -56.0867 -56.0140 -56.0049 -55.9959
   -55.9699 -55.9622 -55.9571 -55.9235 -55.7326 -55.4341 -55.1649 -55.1309
   -32.7446 -32.6725 -32.5278 -32.5026 -32.4954 -32.4909 -32.4843 -32.4475
   -32.4326 -32.4215 -32.3826 -32.3796 -32.3644 -32.3430 -32.3289 -32.3156
   -32.3128 -32.2944 -32.2745 -32.2480 -32.2299 -32.2081 -32.2004 -32.1879
   -32.1821 -32.1739 -32.1625 -32.1599 -32.1542 -32.1362 -32.1329 -32.1266
   -32.1246 -32.1123 -32.1100 -32.1024 -32.0693 -31.9869 -31.9168 -31.7254
   -31.7000 -31.6371 -31.5720 -31.4839 -31.4615 -31.3887 -31.3022 -31.1912
   -16.9185 -16.6599 -16.4449 -16.3383 -16.2658 -16.2091 -16.0171 -15.9002
   -15.8610 -15.7629 -15.7257 -15.6909 -15.6882 -15.6628 -15.6421 -15.6195
   -15.6093 -15.5896 -15.5534 -15.5446 -15.5079 -15.4532 -15.3493 -15.3347
   -15.3247 -15.2795 -15.2289 -15.2156 -14.7507 -13.6676 -13.5512 -13.4871
    -4.6656  -4.2953  -4.1051  -4.0901  -4.0574  -4.0185  -3.7894  -3.7473
    -3.3941  -3.3569  -3.3481  -3.3185  -3.2936  -3.2722  -3.0781  -3.0085
    -3.0000  -2.9605  -2.9586  -2.9437  -2.9424  -2.9121  -2.9076  -2.7904
    -2.7208  -2.6052  -2.5815  -2.5012  -2.4881  -2.4693  -2.4390  -2.4180
    -2.4092  -2.4011  -2.3722  -2.3610  -2.2190  -2.1874  -2.0378  -1.9876
    -1.9743  -1.8503  -1.7934  -1.6604  -1.6441  -1.6108  -1.5864  -1.5764
    -1.4834  -1.4678  -1.3784  -1.3264  -1.2612  -1.2533  -1.1886  -1.1712
    -1.0631  -1.0539  -1.0446  -0.9470  -0.9290  -0.9190  -0.8672  -0.7830
    -0.6255  -0.5880  -0.5849  -0.5618  -0.4895  -0.4452  -0.3673  -0.3466
    -0.3372  -0.2812  -0.2515  -0.2123  -0.1796  -0.1623  -0.1554  -0.1060
     0.0755   0.1126   0.1664   0.2015   0.2086   0.3590   0.4007   0.4781
     0.5820   0.7831   0.7922   0.8568   0.9751   1.0497   1.4280   1.4735
     2.9518   3.0286   3.0333   3.0852   3.1943   3.2094   3.4017   3.4241
     3.4468   3.4521

[...]

          k = 0.0380-0.0419 0.0000 ( 17876 PWs)   bands (ev):

[...]

          k =-0.0760-0.0000 0.0000 ( 17886 PWs)   bands (ev):

[...]

          k =-0.0760-0.0839 0.0000 ( 17948 PWs)   bands (ev):

   -56.1742 -56.1734 -56.1665 -56.1648 -56.0823 -56.0182 -55.9910 -55.9838
   -55.9796 -55.9779 -55.9407 -55.9401 -55.7317 -55.4349 -55.1478 -55.1478
   -32.5487 -32.5458 -32.4881 -32.4875 -32.4701 -32.4692 -32.4677 -32.4438
   -32.3884 -32.3805 -32.3605 -32.3546 -32.3460 -32.3084 -32.2968 -32.2936
   -32.2928 -32.2915 -32.2830 -32.2809 -32.2800 -32.2777 -32.2733 -32.2224
   -32.1999 -32.1966 -32.1962 -32.1824 -32.1766 -32.1762 -32.1728 -32.1724
   -32.1554 -32.1546 -32.1470 -32.1391 -32.0718 -31.9897 -31.9136 -31.7840
   -31.7015 -31.6599 -31.4742 -31.4741 -31.3849 -31.3847 -31.3455 -31.3455
   -16.3738 -16.3409 -16.1193 -16.1104 -16.0974 -16.0950 -15.9140 -15.8841
   -15.8810 -15.8480 -15.8313 -15.7972 -15.7588 -15.7269 -15.6936 -15.6831
   -15.6733 -15.6601 -15.6369 -15.6228 -15.6170 -15.6091 -15.5008 -15.4966
   -15.4661 -15.4030 -15.3289 -15.1898 -14.9111 -13.6531 -13.6530 -13.5067
    -4.6903  -3.6700  -3.6330  -3.3506  -3.3418  -3.3340  -3.2836  -3.1299
    -3.0736  -3.0461  -3.0374  -2.9965  -2.9925  -2.9804  -2.9669  -2.9373
    -2.9226  -2.9138  -2.8907  -2.8501  -2.8418  -2.8372  -2.8070  -2.8020
    -2.7960  -2.7545  -2.7231  -2.7113  -2.6946  -2.6719  -2.6371  -2.3961
    -2.3834  -2.3335  -2.3185  -2.3128  -2.2697  -2.2479  -2.2417  -2.2337
    -2.1424  -2.0365  -1.9091  -1.8769  -1.8670  -1.7843  -1.7363  -1.6256
    -1.5870  -1.5567  -1.5536  -1.4907  -1.4377  -1.3968  -1.3787  -1.3092
    -1.2737  -1.2597  -1.1598  -1.1418  -1.1392  -1.1337  -1.0270  -0.9469
    -0.9444  -0.9361  -0.9017  -0.8917  -0.7968  -0.7944  -0.7502  -0.6782
    -0.6684  -0.6478  -0.5035  -0.3725  -0.1783  -0.1432  -0.1081  -0.0397
     0.0387   0.0952   0.1254   0.1340   0.1453   0.2064   0.2431   0.3543
     0.3576   0.4650   0.5642   0.7853   1.2210   1.2217   1.2932   1.2933
     3.2339   3.2422   3.2730   3.3005   3.4534   3.4580   3.4795   3.4804
     3.6238   3.6381

     the Fermi energy is     2.9459 ev

!    total energy              =   -2906.48791345 Ry
     estimated scf accuracy    <       0.00000006 Ry
     smearing contrib. (-TS)   =      -0.02176370 Ry
     internal energy E=F+TS    =   -2906.46614975 Ry

     The total energy is F=E-TS. E is the sum of the following terms:
     one-electron contribution =  -25128.32703950 Ry
     hartree contribution      =   12644.43066736 Ry
     xc contribution           =    -475.65235239 Ry
     ewald contribution        =   10053.08176150 Ry
     electric field correction =       0.00081327 Ry

     convergence has been achieved in  61 iterations

     Forces acting on atoms (cartesian axes, Ry/au):

     atom    1 type  1   force =     0.00015717   -0.00026289    0.09706749
     atom    2 type  1   force =    -0.00009651   -0.00052361   -0.17531462
     atom    3 type  2   force =     0.00014956   -0.00009504   -0.02539150
     atom    4 type  2   force =     0.00004964   -0.00152371    0.05271406
     atom    5 type  2   force =    -0.01198873   -0.00048218    0.00189885
     atom    6 type  2   force =     0.01459268   -0.00001597    0.00351080
     atom    7 type  1   force =     0.00108757    0.00037236   -0.01156473
     atom    8 type  1   force =    -0.00052862    0.00756258    0.03129945
     atom    9 type  2   force =     0.00006480    0.00013401   -0.00038059
     atom   10 type  2   force =    -0.00053824    0.00072861   -0.01783970
     atom   11 type  2   force =     0.00027254   -0.00020404   -0.00001869
     atom   12 type  2   force =    -0.00023638   -0.00007633   -0.00001334
     atom   13 type  1   force =    -0.00030275    0.00077281    0.00103688
     atom   14 type  1   force =    -0.00069901    0.00037690   -0.00172676
     atom   15 type  2   force =    -0.00020164   -0.00072519   -0.00053866
     atom   16 type  2   force =     0.00025074   -0.00000066    0.00103328
     atom   17 type  2   force =    -0.00031671   -0.00022130    0.00015952
     atom   18 type  2   force =    -0.00024550   -0.00009762    0.00001022
     atom   19 type  1   force =    -0.00026912    0.00025482    0.00081475
     atom   20 type  1   force =    -0.00019402    0.00052946   -0.00225030
     atom   21 type  2   force =     0.00003547   -0.00009144    0.10318383
     atom   22 type  2   force =    -0.00024010    0.00093703    0.00183338
     atom   23 type  2   force =    -0.07155767   -0.00018701   -0.02785039
     atom   24 type  2   force =     0.07148003    0.00028345   -0.02790661
     atom   25 type  1   force =     0.00003671   -0.00024966    0.09657143
     atom   26 type  1   force =    -0.00008948   -0.00037167   -0.17546788
     atom   27 type  2   force =     0.00018704   -0.00020605   -0.02448956
     atom   28 type  2   force =     0.00009322   -0.00126286    0.05250639
     atom   29 type  2   force =    -0.01214820    0.00020459    0.00165048
     atom   30 type  2   force =     0.01464008    0.00048554    0.00329721
     atom   31 type  1   force =     0.00097220    0.00319393   -0.01212360
     atom   32 type  1   force =    -0.00070586   -0.00921213    0.03174992
     atom   33 type  2   force =     0.00010597    0.00003028    0.00011376
     atom   34 type  2   force =    -0.00009544    0.00026369   -0.02693405
     atom   35 type  2   force =     0.00048885    0.00015503    0.00018420
     atom   36 type  2   force =    -0.00042215    0.00018613    0.00023752
     atom   37 type  1   force =    -0.00053625    0.00021880    0.00039440
     atom   38 type  1   force =    -0.00074277   -0.00007142   -0.00170558
     atom   39 type  2   force =    -0.00005499   -0.00016496   -0.00038322
     atom   40 type  2   force =     0.00013712   -0.00012593    0.00056709
     atom   41 type  2   force =    -0.00067082    0.00019851   -0.00011634
     atom   42 type  2   force =    -0.00000177    0.00018130   -0.00017259
     atom   43 type  1   force =    -0.00016117   -0.00002825    0.00069203
     atom   44 type  1   force =    -0.00025171   -0.00039826   -0.00241935
     atom   45 type  2   force =     0.00001531   -0.00009391    0.10316970
     atom   46 type  2   force =    -0.07155594   -0.00011896   -0.02784122
     atom   47 type  2   force =     0.07150611    0.00028952   -0.02791377
     atom   48 type  3   force =     0.00563475    0.00053802   -0.00764175
     atom   49 type  3   force =    -0.00597585    0.00110933   -0.00588163
     atom   50 type  4   force =    -0.00113017   -0.00219567    0.01818981

     Total force =     0.369685     Total SCF correction =     0.000463
  @ DRIVER MODE: Message from server: STATUS
  @ DRIVER MODE: Message from server: GETFORCE
  @ DRIVER MODE: Returning v,forces,stress,ensemble

     Writing output data file ./calc.save/
  @ DRIVER MODE: Message from server: EXIT
  @ DRIVE MODE: Exiting

     General routines

     Parallel routines

   This run was terminated on:  15:36:12  12Oct2021

   JOB DONE.