     Program PWSCF v.6.8 starts on 30Aug2021 at 14:39:28

     R & G space division:  proc/nbgrp/npool/nimage =      24

     Reading input from /storage/home/hcoda1/3/ntian30/research/carbon/methanol/ads_slab/CH3OHN2_s/methanol.log/pw.inp
Warning: card &CELL ignored
Warning: card   CELL_DYNAMICS='IPI', ignored
Warning: card / ignored

     Current dimensions of program PWSCF are:
     Max number of different atomic species (ntypx) = 10
     Max number of k-points (npk) =  40000
     Max angular momentum in pseudopotentials (lmaxx) =  4
     Presently no symmetry can be used with electric field

     Message from routine cell_base_init:
     DEPRECATED: use true lattice parameter, not A to a.u. conversion factor

     IMPORTANT: XC functional enforced from input :
     Exchange-correlation= BEEF-VDW
                           (   1   4  43  14   2   0   0)
     Any further DFT definition will be discarded
     Please, verify this is what you really want

  @ DRIVER MODE: Connecting to
 qe_1139763_2685223.sched-torque.pace.gatech.eduxk7c9ll__scratch
  using UNIX socket
  @ DRIVER MODE: Message from server: STATUS
  @ DRIVER MODE: Message from server: INIT
  @ DRIVER MODE: Receiving replica           0          -1
  @ DRIVER MODE: Receiving encoded integer          25
  @ DRIVER MODE:  SCF:  T  FORCE:  T  STRESS:  F  VC:  F  ENSEMBLE:  F
  @ DRIVER MODE:  SCF:  T  FORCE:  T  STRESS:  F  VC:  F  ENSEMBLE:  F

     Using Slab Decomposition

     bravais-lattice index     =            0
     lattice parameter (alat)  =       1.8897  a.u.
     unit-cell volume          =    6658.9804 (a.u.)^3
     number of atoms/cell      =           55
     number of atomic types    =            5
     number of electrons       =       402.00
     number of Kohn-Sham states=          211
     kinetic-energy cutoff     =      29.3995  Ry
     charge density cutoff     =     293.9946  Ry
     scf convergence threshold =      7.3E-08
     mixing beta               =       0.0500
     number of iterations used =            8  plain     mixing
     Exchange-correlation= BEEF-VDW
                           (   1   4  43  14   2   0   0)

     celldm(1)=   1.889726  celldm(2)=   0.000000  celldm(3)=   0.000000
     celldm(4)=   0.000000  celldm(5)=   0.000000  celldm(6)=   0.000000

     crystal axes: (cart. coord. in units of alat)
               a(1) = (   6.579727   0.000000   0.000000 )
               a(2) = (  -0.000775   5.961596   0.000000 )
               a(3) = (   0.000000   0.000000  25.155947 )

     reciprocal axes: (cart. coord. in units 2 pi/alat)
               b(1) = (  0.151982  0.000020  0.000000 )
               b(2) = (  0.000000  0.167740  0.000000 )
               b(3) = (  0.000000  0.000000  0.039752 )

     PseudoPot. # 1 for Ti read from file:
     /storage/coda1/p-amedford6/0/shared/rich_project_chbe-medford/medford-share/data/pseudos_module/espresso/nninc/pbe/van/Ti.UPF
     MD5 check sum: 8e4df49b7f0d34bbd5052bf3f5ea0213
     Pseudo is Ultrasoft, Zval = 12.0
     Generated by new atomic code, or converted to UPF format
     Using radial grid of  851 points,  6 beta functions with:
                l(1) =   0
                l(2) =   0
                l(3) =   1
                l(4) =   1
                l(5) =   2
                l(6) =   2
     Q(r) pseudized with  8 coefficients,  rinner =    1.000   1.000   1.000
                                                       1.000   1.000

     PseudoPot. # 2 for O  read from file:
     /storage/coda1/p-amedford6/0/shared/rich_project_chbe-medford/medford-share/data/pseudos_module/espresso/nninc/pbe/van/O.UPF
     MD5 check sum: 78c19812648e8988a0fe644b0f25305e
     Pseudo is Ultrasoft, Zval =  6.0
     Generated by new atomic code, or converted to UPF format
     Using radial grid of  737 points,  4 beta functions with:
                l(1) =   0
                l(2) =   0
                l(3) =   1
                l(4) =   1
     Q(r) pseudized with  8 coefficients,  rinner =    0.800   0.800   0.800

     PseudoPot. # 3 for C  read from file:
     /storage/coda1/p-amedford6/0/shared/rich_project_chbe-medford/medford-share/data/pseudos_module/espresso/nninc/pbe/van/C.UPF
     MD5 check sum: 1a69bf6b8db32088f5b2163dbdb77a27
     Pseudo is Ultrasoft, Zval =  4.0
     Generated by new atomic code, or converted to UPF format
     Using radial grid of  721 points,  4 beta functions with:
                l(1) =   0
                l(2) =   0
                l(3) =   1
                l(4) =   1
     Q(r) pseudized with  8 coefficients,  rinner =    0.800   0.800   0.800

     PseudoPot. # 4 for H  read from file:
     /storage/coda1/p-amedford6/0/shared/rich_project_chbe-medford/medford-share/data/pseudos_module/espresso/nninc/pbe/van/H.UPF
     MD5 check sum: b5ee9d7bfd3a09ee7748110bda690ff7
     Pseudo is Ultrasoft, Zval =  1.0
     Generated by new atomic code, or converted to UPF format
     Using radial grid of  615 points,  1 beta functions with:
                l(1) =   0
     Q(r) pseudized with  8 coefficients,  rinner =    0.800

     PseudoPot. # 5 for N  read from file:
     /storage/coda1/p-amedford6/0/shared/rich_project_chbe-medford/medford-share/data/pseudos_module/espresso/nninc/pbe/van/N.UPF
     MD5 check sum: 90d10febe142ad51ac9d5be1deb811c4
     Pseudo is Ultrasoft, Zval =  5.0
     Generated by new atomic code, or converted to UPF format
     Using radial grid of  729 points,  4 beta functions with:
                l(1) =   0
                l(2) =   0
                l(3) =   1
                l(4) =   1
     Q(r) pseudized with  8 coefficients,  rinner =    0.800   0.800   0.800

     atomic species   valence    mass     pseudopotential
        Ti1           12.00    47.86700     Ti( 1.00)
        O1             6.00    15.99900     O ( 1.00)
        C1             4.00    12.01100     C ( 1.00)
        H1             1.00     1.00800     H ( 1.00)
        N1             5.00    14.00700     N ( 1.00)

     No symmetry found

   Cartesian axes

     site n.     atom                  positions (alat units)
         1           Ti1 tau(   1) = (   0.0004258   2.9801865   6.0000000  )
         2           Ti1 tau(   2) = (   3.2906075   1.4906267   6.0002472  )
         3           O1  tau(   3) = (   0.0006271   0.0005054   7.9858123  )
         4           O1  tau(   4) = (   3.2906025   0.0005020   7.3038282  )
         5           O1  tau(   5) = (   4.5942328   1.4918067   9.2879030  )
         6           O1  tau(   6) = (   1.9868534   1.4903216   9.2879459  )
         7           Ti1 tau(   7) = (   3.3021192   3.0013726   9.1559606  )
         8           Ti1 tau(   8) = (   0.0193113   1.4897290   9.2589557  )
         9           O1  tau(   9) = (   3.2722964   0.0091792  11.3883460  )
        10           O1  tau(  10) = (   6.5758979   0.0018863  10.6213819  )
        11           O1  tau(  11) = (   1.2686513   1.5214143  12.6543571  )
        12           O1  tau(  12) = (   5.2747919   1.5203212  12.6462517  )
        13           Ti1 tau(  13) = (   6.5523151   2.9997954  12.4875151  )
        14           Ti1 tau(  14) = (   3.2568535   1.5191218  12.5298849  )
        15           O1  tau(  15) = (   6.5502494   0.1428195  14.7146693  )
        16           O1  tau(  16) = (   3.2696560   0.0432880  14.0033951  )
        17           O1  tau(  17) = (   4.5205468   1.5018975  16.2537626  )
        18           O1  tau(  18) = (   2.0094599   1.5006194  16.2381262  )
        19           Ti1 tau(  19) = (   3.2645096   2.9931572  15.7781393  )
        20           Ti1 tau(  20) = (   6.5536469   1.4235375  16.1373887  )
        21           O1  tau(  21) = (   3.2904802   0.0005063   4.7018136  )
        22           O1  tau(  22) = (   6.5593633   5.7877869  17.2527805  )
        23           O1  tau(  23) = (   1.3043587   1.4918075   6.0039043  )
        24           O1  tau(  24) = (   5.2767064   1.4903225   6.0039473  )
        25           Ti1 tau(  25) = (   0.0000382   5.9609847   6.0000000  )
        26           Ti1 tau(  26) = (   3.2902200   4.4714249   6.0002472  )
        27           O1  tau(  27) = (   0.0002396   2.9813036   7.9858123  )
        28           O1  tau(  28) = (   3.2902150   2.9813002   7.3038282  )
        29           O1  tau(  29) = (   4.5938453   4.4726049   9.2879030  )
        30           O1  tau(  30) = (   1.9864658   4.4711199   9.2879459  )
        31           Ti1 tau(  31) = (   3.3070864   0.0186050   9.1555137  )
        32           Ti1 tau(  32) = (   0.0189529   4.4785929   9.2579079  )
        33           O1  tau(  33) = (   3.2721460   3.0134182  11.3841444  )
        34           O1  tau(  34) = (   6.5743747   2.9972075  10.6293231  )
        35           O1  tau(  35) = (   1.2644736   4.4871391  12.7149656  )
        36           O1  tau(  36) = (   5.2793800   4.4878911  12.7080014  )
        37           Ti1 tau(  37) = (   6.5510435   0.0349511  12.4990712  )
        38           Ti1 tau(  38) = (   3.2571354   4.4984972  12.5427853  )
        39           O1  tau(  39) = (   6.5520331   2.9333915  15.0371926  )
        40           O1  tau(  40) = (   3.2721801   2.9735564  13.9862719  )
        41           O1  tau(  41) = (   4.5203875   4.4744495  16.1258944  )
        42           O1  tau(  42) = (   2.0073924   4.4721670  16.1212407  )
        43           Ti1 tau(  43) = (   3.2631111   0.0168914  15.8037529  )
        44           Ti1 tau(  44) = (   6.5463548   4.6605216  15.8078345  )
        45           O1  tau(  45) = (   3.2900926   2.9813045   4.7018136  )
        46           O1  tau(  46) = (   1.3039711   4.4726057   6.0039043  )
        47           O1  tau(  47) = (   5.2763189   4.4711207   6.0039473  )
        48           C1  tau(  48) = (   6.5242992   2.1809267  19.4465401  )
        49           O1  tau(  49) = (   0.0148260   2.7438948  18.1184794  )
        50           H1  tau(  50) = (   6.5092154   1.1023238  19.3286493  )
        51           H1  tau(  51) = (   0.0606026   3.7146365  18.1979091  )
        52           H1  tau(  52) = (   0.8216107   2.4782675  20.0256770  )
        53           H1  tau(  53) = (   5.6140840   2.5129912  19.9496412  )
        54           N1  tau(  54) = (   2.0073924   4.4721670  18.6212407  )
        55           N1  tau(  55) = (   2.0073924   4.4721670  17.4912607  )

     number of k points=    10  Fermi-Dirac smearing, width (Ry)=  0.0073
                       cart. coord. in units 2pi/alat
        k(    1) = (   0.0000000   0.0000000   0.0000000), wk =   0.1250000
        k(    2) = (   0.0000000   0.0419351   0.0000000), wk =   0.2500000
        k(    3) = (   0.0000000  -0.0838702   0.0000000), wk =   0.1250000
        k(    4) = (   0.0379955   0.0000049   0.0000000), wk =   0.2500000
        k(    5) = (   0.0379955   0.0419400   0.0000000), wk =   0.2500000
        k(    6) = (   0.0379955  -0.0838652   0.0000000), wk =   0.2500000
        k(    7) = (   0.0379955  -0.0419301   0.0000000), wk =   0.2500000
        k(    8) = (  -0.0759910  -0.0000099   0.0000000), wk =   0.1250000
        k(    9) = (  -0.0759910   0.0419252   0.0000000), wk =   0.2500000
[...]
        46           O1  tau(  46) = (   1.3039711   4.4726057   6.0039043  )
        47           O1  tau(  47) = (   5.2763189   4.4711207   6.0039473  )
        48           C1  tau(  48) = (   6.4371747   2.1072141  19.3941611  )
        49           O1  tau(  49) = (   6.4648112   2.6943036  18.0771706  )
        50           H1  tau(  50) = (   6.4126206   1.0322228  19.2553912  )
        51           H1  tau(  51) = (   6.3143459   3.6541528  18.1415937  )
        52           H1  tau(  52) = (   0.7514730   2.3926748  19.9439962  )
        53           H1  tau(  53) = (   5.5474020   2.4303781  19.9285692  )
        54           N1  tau(  54) = (   2.3575713   4.7361116  19.7021438  )
        55           N1  tau(  55) = (   3.0315145   4.1295037  19.0700460  )

     number of k points=    10  Fermi-Dirac smearing, width (Ry)=  0.0073
                       cart. coord. in units 2pi/alat
        k(    1) = (   0.0000000   0.0000000   0.0000000), wk =   0.1250000
        k(    2) = (   0.0000000   0.0419351   0.0000000), wk =   0.2500000
        k(    3) = (   0.0000000  -0.0838702   0.0000000), wk =   0.1250000
        k(    4) = (   0.0379955   0.0000049   0.0000000), wk =   0.2500000
        k(    5) = (   0.0379955   0.0419400   0.0000000), wk =   0.2500000
        k(    6) = (   0.0379955  -0.0838652   0.0000000), wk =   0.2500000
        k(    7) = (   0.0379955  -0.0419301   0.0000000), wk =   0.2500000
        k(    8) = (  -0.0759910  -0.0000099   0.0000000), wk =   0.1250000
        k(    9) = (  -0.0759910   0.0419252   0.0000000), wk =   0.2500000
        k(   10) = (  -0.0759910  -0.0838800   0.0000000), wk =   0.1250000

     Initial potential from superposition of free atoms

     starting charge  385.99915, renormalised to  402.00000

[...]

     %%%%%%%%%%%%%%%%%%%%%%%%%%%%%%%%%%%%%%%%%%%%%%%%%%%%%%%%%%%%%%%%%%%%%%%%
     %                                                                      %
     % You are using vdW-DF, which was implemented by the Thonhauser group. %
     % Please cite the following two papers that made this development      %
     % possible and the two reviews that describe the various versions:     %
     %                                                                      %
     %   T. Thonhauser et al., PRL 115, 136402 (2015).                      %
     %   T. Thonhauser et al., PRB 76, 125112 (2007).                       %
     %   K. Berland et al., Rep. Prog. Phys. 78, 066501 (2015).             %
     %   D.C. Langreth et al., J. Phys.: Condens. Matter 21, 084203 (2009). %
     %                                                                      %
     %                                                                      %
     % If you are calculating the stress with vdW-DF, please also cite:     %
     %                                                                      %
     %   R. Sabatini et al., J. Phys.: Condens. Matter 24, 424209 (2012).   %
     %                                                                      %
     %%%%%%%%%%%%%%%%%%%%%%%%%%%%%%%%%%%%%%%%%%%%%%%%%%%%%%%%%%%%%%%%%%%%%%%%

[...]

     Starting wfcs are  304 atomic wfcs
  @ DRIVER MODE: Message from server: STATUS
  @ DRIVER MODE: Message from server: POSDATA
  @ DRIVER MODE: Reading and sharing cell
  @ DRIVER MODE: Reading and sharing positions
  @ DRIVER MODE: Received positions

[...]

     Self-consistent Calculation

[...]

     iteration # 17     ecut=    29.40 Ry     beta= 0.05
     Davidson diagonalization with overlap
     ethr =  1.25E-10,  avg # of iterations = 13.6

[...]

     total energy              =   -2972.81623326 Ry
     estimated scf accuracy    <       0.00000064 Ry

     iteration # 20     ecut=    29.40 Ry     beta= 0.05
     Davidson diagonalization with overlap
     c_bands:  2 eigenvalues not converged
     c_bands:  2 eigenvalues not converged
     c_bands:  2 eigenvalues not converged
     c_bands:  1 eigenvalues not converged
     c_bands:  1 eigenvalues not converged
     c_bands:  1 eigenvalues not converged
     ethr =  2.56E-11,  avg # of iterations = 19.4

[...]

     End of self-consistent calculation

[...]

          k = 0.0380-0.0419 0.0000 ( 17876 PWs)   bands (ev):

[...]

          k =-0.0760-0.0839 0.0000 ( 17948 PWs)   bands (ev):

   -55.2881 -55.2861 -55.2738 -55.2322 -55.2315 -55.1648 -55.1568 -55.1460
   -55.1264 -55.1222 -55.1206 -55.0598 -55.0521 -54.9512 -54.3393 -54.3390
   -31.7384 -31.6712 -31.6612 -31.5649 -31.5642 -31.5612 -31.5568 -31.5251
   -31.5226 -31.5126 -31.5072 -31.4977 -31.4936 -31.4915 -31.4747 -31.4439
   -31.4386 -31.4376 -31.4367 -31.4275 -31.4227 -31.4133 -31.3937 -31.3820
   -31.3793 -31.3790 -31.3677 -31.3654 -31.3613 -31.3596 -31.3505 -31.3502
   -31.3372 -31.3198 -31.3178 -31.3107 -31.2936 -31.2854 -31.2424 -31.2366
   -31.2276 -31.1645 -30.6562 -30.6560 -30.5816 -30.5815 -30.5419 -30.5417
   -21.6547 -19.3676 -15.6439 -15.4989 -15.4751 -15.3531 -15.3242 -15.2617
   -15.2517 -15.1383 -15.0929 -15.0776 -15.0739 -15.0373 -15.0199 -14.9948
   -14.9577 -14.9234 -14.9033 -14.8964 -14.8672 -14.8192 -14.8132 -14.8129
   -14.8038 -14.7728 -14.7661 -14.7317 -14.7291 -14.6393 -14.4999 -12.8386
   -12.8382 -10.5305  -6.8760  -6.3079  -4.8500  -4.7899  -4.3718  -4.2675
    -3.5471  -2.7732  -2.7654  -2.7397  -2.5704  -2.4887  -2.4736  -2.4455
    -2.3788  -2.3494  -2.3130  -2.2908  -2.2733  -2.2143  -2.2121  -2.2010
    -2.1915  -2.1694  -2.1055  -2.1018  -2.0537  -2.0336  -2.0103  -2.0042
    -1.9973  -1.9677  -1.9627  -1.9601  -1.9146  -1.9046  -1.8941  -1.8736
    -1.7704  -1.6809  -1.6554  -1.5659  -1.5328  -1.5308  -1.4577  -1.4144
    -1.3718  -1.3576  -1.3092  -1.2041  -1.0976  -1.0956  -1.0817  -1.0506
    -0.9443  -0.9322  -0.8524  -0.8427  -0.7987  -0.7337  -0.7294  -0.5913
    -0.5855  -0.5250  -0.4937  -0.4904  -0.4035  -0.3413  -0.3078  -0.2847
    -0.2838  -0.2461  -0.2418  -0.1252  -0.0943  -0.0456  -0.0362  -0.0331
     0.0252   0.1932   0.2245   0.2419   0.3764   0.3814   0.5381   0.5949
     0.6345   0.7400   0.7690   0.7852   0.8139   0.9489   0.9703   0.9930
     1.0588   1.0820   1.1178   1.1230   2.0193   2.0201   2.1261   2.1277
     3.9713   4.0551   4.0815   4.0913   4.1999   4.2445   4.3081   4.3372
     4.3575   4.3608   4.4419

     the Fermi energy is     3.8644 ev

!    total energy              =   -2972.81622989 Ry
     estimated scf accuracy    <       0.00000005 Ry
     smearing contrib. (-TS)   =      -0.03701381 Ry
     internal energy E=F+TS    =   -2972.77921608 Ry

     The total energy is F=E-TS. E is the sum of the following terms:
     one-electron contribution =  -22882.80480703 Ry
     hartree contribution      =   11536.93570915 Ry
     xc contribution           =    -493.17740756 Ry
     ewald contribution        =    8866.26439547 Ry
     electric field correction =       0.00289391 Ry

     convergence has been achieved in  20 iterations

     Forces acting on atoms (cartesian axes, Ry/au):

     atom    1 type  1   force =    -0.00008887   -0.00001515    0.09158461
     atom    2 type  1   force =    -0.00009283    0.00030916   -0.18413778
     atom    3 type  2   force =     0.00051060    0.00032511   -0.02223706
     atom    4 type  2   force =     0.00059286   -0.00005046    0.05238667
     atom    5 type  2   force =    -0.01345554   -0.00080907    0.00685127
     atom    6 type  2   force =     0.01263753   -0.00037150    0.00652307
     atom    7 type  1   force =     0.00023926   -0.00004876   -0.00037846
     atom    8 type  1   force =    -0.00009178   -0.00044231   -0.00006313
     atom    9 type  2   force =     0.00008978   -0.00052810    0.00025561
     atom   10 type  2   force =     0.00004746   -0.00005082    0.00059599
     atom   11 type  2   force =    -0.00031367   -0.00002401    0.00015974
     atom   12 type  2   force =     0.00033024   -0.00012546   -0.00034177
     atom   13 type  1   force =    -0.00038500   -0.00087459    0.00008697
     atom   14 type  1   force =    -0.00031021    0.00013291    0.00048258
     atom   15 type  2   force =     0.00016607    0.00025755   -0.00042513
     atom   16 type  2   force =    -0.00010623   -0.00004069    0.00013673
     atom   17 type  2   force =    -0.00002742    0.00006543    0.00032707
     atom   18 type  2   force =    -0.00048897    0.00025537   -0.00004129
     atom   19 type  1   force =     0.00033357    0.00064050    0.00013559
     atom   20 type  1   force =     0.00002197    0.00005843   -0.00041281
     atom   21 type  2   force =     0.00009430    0.00010211    0.10523225
     atom   22 type  2   force =     0.00000236    0.00017544   -0.00036685
     atom   23 type  2   force =    -0.06764765   -0.00035670   -0.02614406
     atom   24 type  2   force =     0.06759746    0.00005338   -0.02623190
     atom   25 type  1   force =    -0.00022434    0.00012165    0.08930914
     atom   26 type  1   force =    -0.00011420   -0.00024652   -0.18410531
     atom   27 type  2   force =     0.00047739   -0.00137901   -0.02146470
     atom   28 type  2   force =     0.00053910    0.00005846    0.05226125
     atom   29 type  2   force =    -0.01408941   -0.00079118    0.00543838
     atom   30 type  2   force =     0.01333413   -0.00054046    0.00504480
     atom   31 type  1   force =     0.00018305   -0.00010434   -0.00025676
     atom   32 type  1   force =    -0.00014261    0.00053303   -0.00002158
     atom   33 type  2   force =    -0.00020519    0.00055420    0.00010728
     atom   34 type  2   force =     0.00018635    0.00004127    0.00010082
     atom   35 type  2   force =     0.00061555    0.00006634    0.00004925
     atom   36 type  2   force =    -0.00042849    0.00011883    0.00007479
     atom   37 type  1   force =    -0.00025037    0.00058713   -0.00054814
     atom   38 type  1   force =    -0.00039522    0.00004786   -0.00003518
     atom   39 type  2   force =    -0.00040696    0.00043273   -0.00050452
     atom   40 type  2   force =     0.00026457    0.00019220   -0.00092451
     atom   41 type  2   force =     0.00028120    0.00039585    0.00004190
     atom   42 type  2   force =    -0.00006048    0.00025445   -0.00054157
     atom   43 type  1   force =     0.00050554   -0.00026433   -0.00042294
     atom   44 type  1   force =    -0.00012714    0.00028682   -0.00020539
     atom   45 type  2   force =     0.00010355    0.00008479    0.10515903
     atom   46 type  2   force =    -0.06764995   -0.00006134   -0.02611484
     atom   47 type  2   force =     0.06762993    0.00037604   -0.02618442
     atom   48 type  3   force =     0.00000015   -0.00030364    0.00035639
     atom   49 type  2   force =    -0.00031788    0.00079086    0.00038169
     atom   50 type  4   force =     0.00013482    0.00096187    0.00031474
     atom   51 type  4   force =     0.00078445   -0.00114018   -0.00028308
     atom   52 type  4   force =    -0.00098463   -0.00002679   -0.00024601
     atom   53 type  4   force =     0.00061822   -0.00056241   -0.00083411
     atom   54 type  5   force =    -0.00032946    0.00134454   -0.00108445
     atom   55 type  5   force =     0.00041303   -0.00046645    0.00116013

     Total force =     0.366949     Total SCF correction =     0.000795
  @ DRIVER MODE: Message from server: STATUS
  @ DRIVER MODE: Message from server: GETFORCE
  @ DRIVER MODE: Returning v,forces,stress,ensemble

     Writing config to output data dir ./calc.save/
  @ DRIVER MODE: Message from server: STATUS
  @ DRIVER MODE: Message from server: INIT
  @ DRIVER MODE: Receiving replica           0           0
  @ DRIVER MODE: Receiving encoded integer           2
  @ DRIVER MODE:  SCF:  T  FORCE:  T  STRESS:  F  VC:  F  ENSEMBLE:  F
  @ DRIVER MODE:  SCF:  F  FORCE:  F  STRESS:  F  VC:  F  ENSEMBLE:  T
  @ DRIVER MODE: Message from server: STATUS
  @ DRIVER MODE: Message from server: POSDATA
  @ DRIVER MODE: Reading and sharing positions
  @ DRIVER MODE: Received positions
     NEW-OLD atomic charge density approx. for the potential

[...]

     Adding external electric field

     Computed dipole along edir(3) :
        Dipole                1.2383 Ry au,          3.1476 Debye
        Dipole field          0.0023 Ry au,

        Potential amp.       -0.2166 Ry
        Total length         46.3494 bohr

  @ DRIVER MODE: BEEF-vdw

[...]

     negative rho (up, down):  1.475E-02 0.000E+00

     negative rho (up, down):  1.475E-02 0.000E+00
 BEEFens 2000 ensemble energies
             -0.354090851948692E+02
             -0.204004115874611E+01
             -0.730605242401398E+01
              0.245600698652771E+02
             -0.121734501711031E+02
             -0.941031653115732E+01
             -0.246148955823996E+02
             -0.514208876500728E+02
             -0.219450457134421E+02
             -0.230684092808513E+02
             -0.213717607039002E+02
              0.431962041124915E+01
              0.202885190380466E+01
             -0.109405165049048E+01
              0.177989687790314E+01
              0.270502270536234E+02
             -0.104638017717589E+02
             -0.736348824603715E+01
              0.119453533279776E+02
             -0.632387423968679E+02
              0.316685819257743E+02
             -0.135424414658650E+02
             -0.247781615911354E+01
             -0.572699558118536E+01
             -0.941777455742397E+00
             -0.222006059993856E+01
              0.490684214992893E+02
             -0.152767632682758E+02
             -0.414626852193391E+01
             -0.309916039333797E+02
              0.400717903907445E+02
             -0.443704360421496E+01
             -0.218161235445075E+02
              0.114630179811300E+02
             -0.209251536251378E+01
              0.132766761065865E+02
             -0.550801123102275E+00
              0.277675659913285E+01
              0.192980538508306E+02
             -0.558409598359142E+02
              0.311217910956466E+02
              0.828418502077672E+01
             -0.639318103317225E+01
             -0.178533709367609E+02
              0.703988544968763E+01
             -0.111617495080787E+02
              0.254345473612412E+02
              0.203021693975060E+02
             -0.130756631263826E+02
             -0.167046627746323E+02
             -0.176063148704986E+02
             -0.212422936360971E+02
              0.107807192314900E+02
             -0.276952467225167E+02
              0.849420022571996E+01
              0.353381921423870E+02
              0.407244738495320E+02
              0.189835667892233E+02
              0.853684529954347E+01
              0.177251304779473E+02
[...]
             -0.416484154464157E+02
              0.284066648424613E+01
             -0.142716614755598E+01
             -0.580844959470221E+01
              0.566882698780091E-01
             -0.370858053035167E+02
             -0.716299999566968E+01
              0.506458908849754E+01
              0.755466989317644E+01
              0.277837316802421E+02
             -0.242653569391822E+02
              0.317277696052857E+02
             -0.227021671806876E+02
              0.146006556190778E+02
              0.229842290451156E+02

 BEEF-vdW xc energy contributions
           1 :   -417.722213702612
           2 :    363.598012403638
           3 :   -276.583517216004
           4 :    186.150614251283
           5 :   -115.323038698629
           6 :    72.9511852405678
           7 :   -55.0745540934943
           8 :    51.5714521289785
           9 :   -53.0120728062391
          10 :    54.1759351269758
          11 :   -53.7996799900305
          12 :    52.3529080982095
          13 :   -50.1705318125662
          14 :    46.9692375444450
          15 :   -42.4074872734822
          16 :    36.7272061485779
          17 :   -30.8811872849325
          18 :    26.0978721453363
          19 :   -23.2601292790219
          20 :    22.5138044068141
          21 :   -23.3375964040544
          22 :    24.9294918402643
          23 :   -26.5720010074043
          24 :    27.7422404693335
          25 :   -28.0672180356646
          26 :    27.3230767319187
          27 :   -25.5083846314499
          28 :    22.8859435416531
          29 :   -19.9459297157057
          30 :    17.2899309872852
          31 :   -49.1609527902465
          32 :   -33.3206543818347
  @ DRIVER MODE: Message from server: STATUS
  @ DRIVER MODE: Message from server: GETFORCE
  @ DRIVER MODE: Returning v,forces,stress,ensemble
  @ DRIVE MODE: Returning Ensemble Energies

     Writing config to output data dir ./calc.save/
  @ DRIVER MODE: Message from server: EXIT
  @ DRIVE MODE: Exiting

     General routines

     Parallel routines

   This run was terminated on:   0: 3:40  31Aug2021

   JOB DONE.