     Program PWSCF v.6.8 starts on 30Aug2021 at 14:39:24

     R & G space division:  proc/nbgrp/npool/nimage =      24

     Reading input from /storage/home/hcoda1/3/ntian30/research/carbon/methanol/ads_slab/CH3OHN2_S/methanol.log/pw.inp
Warning: card &CELL ignored
Warning: card   CELL_DYNAMICS='IPI', ignored
Warning: card / ignored

     Current dimensions of program PWSCF are:
     Max number of different atomic species (ntypx) = 10
     Max number of k-points (npk) =  40000
     Max angular momentum in pseudopotentials (lmaxx) =  4
     Presently no symmetry can be used with electric field

     Message from routine cell_base_init:
     DEPRECATED: use true lattice parameter, not A to a.u. conversion factor

     IMPORTANT: XC functional enforced from input :
     Exchange-correlation= BEEF-VDW
                           (   1   4  43  14   2   0   0)
     Any further DFT definition will be discarded
     Please, verify this is what you really want

  @ DRIVER MODE: Connecting to
 qe_1139763_2685203.sched-torque.pace.gatech.eduz_so6796_scratch
  using UNIX socket
  @ DRIVER MODE: Message from server: STATUS
  @ DRIVER MODE: Message from server: INIT
  @ DRIVER MODE: Receiving replica           0          -1
  @ DRIVER MODE: Receiving encoded integer          25
  @ DRIVER MODE:  SCF:  T  FORCE:  T  STRESS:  F  VC:  F  ENSEMBLE:  F
  @ DRIVER MODE:  SCF:  T  FORCE:  T  STRESS:  F  VC:  F  ENSEMBLE:  F

     Using Slab Decomposition

     bravais-lattice index     =            0
     lattice parameter (alat)  =       1.8897  a.u.
     unit-cell volume          =    6658.9804 (a.u.)^3
     number of atoms/cell      =           55
     number of atomic types    =            5
     number of electrons       =       402.00
     number of Kohn-Sham states=          211
     kinetic-energy cutoff     =      29.3995  Ry
     charge density cutoff     =     293.9946  Ry
     scf convergence threshold =      7.3E-08
     mixing beta               =       0.0500
     number of iterations used =            8  plain     mixing
     Exchange-correlation= BEEF-VDW
                           (   1   4  43  14   2   0   0)

     celldm(1)=   1.889726  celldm(2)=   0.000000  celldm(3)=   0.000000
     celldm(4)=   0.000000  celldm(5)=   0.000000  celldm(6)=   0.000000

     crystal axes: (cart. coord. in units of alat)
               a(1) = (   6.579727   0.000000   0.000000 )
               a(2) = (  -0.000775   5.961596   0.000000 )
               a(3) = (   0.000000   0.000000  25.155947 )

     reciprocal axes: (cart. coord. in units 2 pi/alat)
               b(1) = (  0.151982  0.000020  0.000000 )
               b(2) = (  0.000000  0.167740  0.000000 )
               b(3) = (  0.000000  0.000000  0.039752 )

     PseudoPot. # 1 for Ti read from file:
     /storage/coda1/p-amedford6/0/shared/rich_project_chbe-medford/medford-share/data/pseudos_module/espresso/nninc/pbe/van/Ti.UPF
     MD5 check sum: 8e4df49b7f0d34bbd5052bf3f5ea0213
     Pseudo is Ultrasoft, Zval = 12.0
     Generated by new atomic code, or converted to UPF format
     Using radial grid of  851 points,  6 beta functions with:
                l(1) =   0
                l(2) =   0
                l(3) =   1
                l(4) =   1
                l(5) =   2
                l(6) =   2
     Q(r) pseudized with  8 coefficients,  rinner =    1.000   1.000   1.000
                                                       1.000   1.000

     PseudoPot. # 2 for O  read from file:
     /storage/coda1/p-amedford6/0/shared/rich_project_chbe-medford/medford-share/data/pseudos_module/espresso/nninc/pbe/van/O.UPF
     MD5 check sum: 78c19812648e8988a0fe644b0f25305e
     Pseudo is Ultrasoft, Zval =  6.0
     Generated by new atomic code, or converted to UPF format
     Using radial grid of  737 points,  4 beta functions with:
                l(1) =   0
                l(2) =   0
                l(3) =   1
                l(4) =   1
     Q(r) pseudized with  8 coefficients,  rinner =    0.800   0.800   0.800

     PseudoPot. # 3 for C  read from file:
     /storage/coda1/p-amedford6/0/shared/rich_project_chbe-medford/medford-share/data/pseudos_module/espresso/nninc/pbe/van/C.UPF
     MD5 check sum: 1a69bf6b8db32088f5b2163dbdb77a27
     Pseudo is Ultrasoft, Zval =  4.0
     Generated by new atomic code, or converted to UPF format
     Using radial grid of  721 points,  4 beta functions with:
                l(1) =   0
                l(2) =   0
                l(3) =   1
                l(4) =   1
     Q(r) pseudized with  8 coefficients,  rinner =    0.800   0.800   0.800

     PseudoPot. # 4 for H  read from file:
     /storage/coda1/p-amedford6/0/shared/rich_project_chbe-medford/medford-share/data/pseudos_module/espresso/nninc/pbe/van/H.UPF
     MD5 check sum: b5ee9d7bfd3a09ee7748110bda690ff7
     Pseudo is Ultrasoft, Zval =  1.0
     Generated by new atomic code, or converted to UPF format
     Using radial grid of  615 points,  1 beta functions with:
                l(1) =   0
     Q(r) pseudized with  8 coefficients,  rinner =    0.800

     PseudoPot. # 5 for N  read from file:
     /storage/coda1/p-amedford6/0/shared/rich_project_chbe-medford/medford-share/data/pseudos_module/espresso/nninc/pbe/van/N.UPF
     MD5 check sum: 90d10febe142ad51ac9d5be1deb811c4
     Pseudo is Ultrasoft, Zval =  5.0
     Generated by new atomic code, or converted to UPF format
     Using radial grid of  729 points,  4 beta functions with:
                l(1) =   0
                l(2) =   0
                l(3) =   1
                l(4) =   1
     Q(r) pseudized with  8 coefficients,  rinner =    0.800   0.800   0.800

     atomic species   valence    mass     pseudopotential
        Ti1           12.00    47.86700     Ti( 1.00)
        O1             6.00    15.99900     O ( 1.00)
        C1             4.00    12.01100     C ( 1.00)
        H1             1.00     1.00800     H ( 1.00)
        N1             5.00    14.00700     N ( 1.00)

     No symmetry found

   Cartesian axes

     site n.     atom                  positions (alat units)
         1           Ti1 tau(   1) = (   0.0004258   2.9801865   6.0000000  )
         2           Ti1 tau(   2) = (   3.2906075   1.4906267   6.0002472  )
         3           O1  tau(   3) = (   0.0006271   0.0005054   7.9858123  )
         4           O1  tau(   4) = (   3.2906025   0.0005020   7.3038282  )
         5           O1  tau(   5) = (   4.5942328   1.4918067   9.2879030  )
         6           O1  tau(   6) = (   1.9868534   1.4903216   9.2879459  )
         7           Ti1 tau(   7) = (   3.2744623   2.9602655   9.1583134  )
         8           Ti1 tau(   8) = (   6.5542510   1.4922676   9.2570483  )
         9           O1  tau(   9) = (   3.2955284   5.9542973  11.4036420  )
        10           O1  tau(  10) = (   0.0040843   5.9600894  10.6146631  )
        11           O1  tau(  11) = (   1.2923168   1.4866075  12.6848844  )
        12           O1  tau(  12) = (   5.3038965   1.4828099  12.6812989  )
        13           Ti1 tau(  13) = (   0.0117136   2.9668076  12.4887022  )
        14           Ti1 tau(  14) = (   3.3103317   1.4900331  12.5484786  )
        15           O1  tau(  15) = (   0.0164078   5.9216632  14.6920981  )
        16           O1  tau(  16) = (   3.2973989   5.9227913  14.0283617  )
        17           O1  tau(  17) = (   4.5490025   1.4631175  16.1705536  )
        18           O1  tau(  18) = (   2.0221940   1.4775419  16.1816751  )
        19           Ti1 tau(  19) = (   3.3107067   2.9474167  15.8028204  )
        20           Ti1 tau(  20) = (   0.0288186   1.3352231  15.9134295  )
        21           O1  tau(  21) = (   3.2904802   0.0005063   4.7018136  )
        22           O1  tau(  22) = (   6.5554730   0.0200307  17.2351763  )
        23           O1  tau(  23) = (   1.3043587   1.4918075   6.0039043  )
        24           O1  tau(  24) = (   5.2767064   1.4903225   6.0039473  )
        25           Ti1 tau(  25) = (   0.0000382   5.9609847   6.0000000  )
        26           Ti1 tau(  26) = (   3.2902200   4.4714249   6.0002472  )
        27           O1  tau(  27) = (   0.0002396   2.9813036   7.9858123  )
        28           O1  tau(  28) = (   3.2902150   2.9813002   7.3038282  )
        29           O1  tau(  29) = (   4.5938453   4.4726049   9.2879030  )
        30           O1  tau(  30) = (   1.9864658   4.4711199   9.2879459  )
        31           Ti1 tau(  31) = (   3.2682264   5.9422464   9.1569598  )
        32           Ti1 tau(  32) = (   6.5541751   4.4759067   9.2560502  )
        33           O1  tau(  33) = (   3.2986683   2.9663741  11.3977683  )
        34           O1  tau(  34) = (   0.0027399   2.9767344  10.6286243  )
        35           O1  tau(  35) = (   1.2926322   4.4497803  12.6725015  )
        36           O1  tau(  36) = (   5.3040462   4.4546620  12.6695683  )
        37           Ti1 tau(  37) = (   0.0191269   5.9426524  12.4841101  )
        38           Ti1 tau(  38) = (   3.3102059   4.4680493  12.5484152  )
        39           O1  tau(  39) = (   6.5547541   2.9789036  15.0188947  )
        40           O1  tau(  40) = (   3.3032946   2.9599518  14.0075836  )
        41           O1  tau(  41) = (   4.5496375   4.4348250  16.2219016  )
        42           O1  tau(  42) = (   2.0136599   4.4266630  16.2156650  )
        43           Ti1 tau(  43) = (   3.2958723   5.9268682  15.8311464  )
        44           Ti1 tau(  44) = (   0.0197688   4.5989514  15.9884716  )
        45           O1  tau(  45) = (   3.2900926   2.9813045   4.7018136  )
        46           O1  tau(  46) = (   1.3039711   4.4726057   6.0039043  )
        47           O1  tau(  47) = (   5.2763189   4.4711207   6.0039473  )
        48           C1  tau(  48) = (   6.2714212   2.8475035  19.1912783  )
        49           O1  tau(  49) = (   5.0447882   2.1494744  19.3187249  )
        50           H1  tau(  50) = (   6.1333351   3.8426015  19.6073941  )
        51           H1  tau(  51) = (   5.1769490   1.2529602  18.9724433  )
        52           H1  tau(  52) = (   0.5217872   2.3444334  19.6948963  )
        53           H1  tau(  53) = (   6.5688534   2.9768334  18.1312760  )
        54           N1  tau(  54) = (   3.2958723   5.9268682  19.1311464  )
        55           N1  tau(  55) = (   3.2958723   5.9268682  18.0011664  )

     number of k points=    10  Fermi-Dirac smearing, width (Ry)=  0.0073
                       cart. coord. in units 2pi/alat
        k(    1) = (   0.0000000   0.0000000   0.0000000), wk =   0.1250000
        k(    2) = (   0.0000000   0.0419351   0.0000000), wk =   0.2500000
        k(    3) = (   0.0000000  -0.0838702   0.0000000), wk =   0.1250000
        k(    4) = (   0.0379955   0.0000049   0.0000000), wk =   0.2500000
        k(    5) = (   0.0379955   0.0419400   0.0000000), wk =   0.2500000
        k(    6) = (   0.0379955  -0.0838652   0.0000000), wk =   0.2500000
        k(    7) = (   0.0379955  -0.0419301   0.0000000), wk =   0.2500000
        k(    8) = (  -0.0759910  -0.0000099   0.0000000), wk =   0.1250000
        k(    9) = (  -0.0759910   0.0419252   0.0000000), wk =   0.2500000
[...]
        44           Ti1 tau(  44) = (   0.0217689   4.6223760  15.9704777  )
        45           O1  tau(  45) = (   3.2900926   2.9813045   4.7018136  )
        46           O1  tau(  46) = (   1.3039711   4.4726057   6.0039043  )
        47           O1  tau(  47) = (   5.2763189   4.4711207   6.0039473  )
        48           C1  tau(  48) = (   6.4045880   2.9654500  19.2030894  )
        49           O1  tau(  49) = (   5.2331805   2.1727392  19.2964945  )
        50           H1  tau(  50) = (   6.1837148   3.9414687  19.6306612  )
        51           H1  tau(  51) = (   5.4181992   1.3253471  18.8610426  )
        52           H1  tau(  52) = (   0.6813026   2.5180585  19.7173089  )
        53           H1  tau(  53) = (   0.1293756   3.1264407  18.1517484  )
        54           N1  tau(  54) = (   2.7732473   5.5351750  19.9830979  )
        55           N1  tau(  55) = (   3.0511443   5.7296584  18.9333479  )

     number of k points=    10  Fermi-Dirac smearing, width (Ry)=  0.0073
                       cart. coord. in units 2pi/alat
        k(    1) = (   0.0000000   0.0000000   0.0000000), wk =   0.1250000
        k(    2) = (   0.0000000   0.0419351   0.0000000), wk =   0.2500000
        k(    3) = (   0.0000000  -0.0838702   0.0000000), wk =   0.1250000
        k(    4) = (   0.0379955   0.0000049   0.0000000), wk =   0.2500000
        k(    5) = (   0.0379955   0.0419400   0.0000000), wk =   0.2500000
        k(    6) = (   0.0379955  -0.0838652   0.0000000), wk =   0.2500000
        k(    7) = (   0.0379955  -0.0419301   0.0000000), wk =   0.2500000
        k(    8) = (  -0.0759910  -0.0000099   0.0000000), wk =   0.1250000
        k(    9) = (  -0.0759910   0.0419252   0.0000000), wk =   0.2500000
        k(   10) = (  -0.0759910  -0.0838800   0.0000000), wk =   0.1250000

     Initial potential from superposition of free atoms

     starting charge  385.99915, renormalised to  402.00000

[...]

     %%%%%%%%%%%%%%%%%%%%%%%%%%%%%%%%%%%%%%%%%%%%%%%%%%%%%%%%%%%%%%%%%%%%%%%%
     %                                                                      %
     % You are using vdW-DF, which was implemented by the Thonhauser group. %
     % Please cite the following two papers that made this development      %
     % possible and the two reviews that describe the various versions:     %
     %                                                                      %
     %   T. Thonhauser et al., PRL 115, 136402 (2015).                      %
     %   T. Thonhauser et al., PRB 76, 125112 (2007).                       %
     %   K. Berland et al., Rep. Prog. Phys. 78, 066501 (2015).             %
     %   D.C. Langreth et al., J. Phys.: Condens. Matter 21, 084203 (2009). %
     %                                                                      %
     %                                                                      %
     % If you are calculating the stress with vdW-DF, please also cite:     %
     %                                                                      %
     %   R. Sabatini et al., J. Phys.: Condens. Matter 24, 424209 (2012).   %
     %                                                                      %
     %%%%%%%%%%%%%%%%%%%%%%%%%%%%%%%%%%%%%%%%%%%%%%%%%%%%%%%%%%%%%%%%%%%%%%%%

[...]

     Starting wfcs are  304 atomic wfcs
  @ DRIVER MODE: Message from server: STATUS
  @ DRIVER MODE: Message from server: POSDATA
  @ DRIVER MODE: Reading and sharing cell
  @ DRIVER MODE: Reading and sharing positions
  @ DRIVER MODE: Received positions

[...]

     Self-consistent Calculation

[...]

     iteration # 16     ecut=    29.40 Ry     beta= 0.05
     Davidson diagonalization with overlap
     c_bands:  1 eigenvalues not converged
     c_bands:  1 eigenvalues not converged
     c_bands:  1 eigenvalues not converged
     ethr =  9.13E-10,  avg # of iterations = 15.3

[...]

     total energy              =   -2972.78942896 Ry
     estimated scf accuracy    <       0.00000010 Ry

     iteration # 20     ecut=    29.40 Ry     beta= 0.05
     Davidson diagonalization with overlap
     ethr =  2.56E-11,  avg # of iterations = 12.5

[...]

     End of self-consistent calculation

[...]

          k = 0.0380-0.0419 0.0000 ( 17876 PWs)   bands (ev):

[...]

          k =-0.0760-0.0839 0.0000 ( 17948 PWs)   bands (ev):

   -55.7134 -55.7092 -55.6659 -55.6651 -55.6206 -55.5836 -55.5828 -55.5663
   -55.5591 -55.5572 -55.5400 -55.4912 -55.4893 -55.4798 -54.7763 -54.7763
   -32.1745 -32.0961 -32.0922 -31.9992 -31.9987 -31.9984 -31.9799 -31.9579
   -31.9574 -31.9302 -31.9260 -31.9240 -31.9188 -31.8838 -31.8750 -31.8743
   -31.8727 -31.8712 -31.8544 -31.8493 -31.8476 -31.8402 -31.8338 -31.8200
   -31.8154 -31.8146 -31.8062 -31.8057 -31.7841 -31.7835 -31.7769 -31.7750
   -31.7555 -31.7540 -31.7449 -31.7246 -31.7229 -31.7190 -31.6841 -31.6784
   -31.6749 -31.6732 -31.0930 -31.0929 -31.0189 -31.0188 -30.9791 -30.9790
   -21.0463 -18.2949 -16.2702 -15.9139 -15.8666 -15.7882 -15.7727 -15.6788
   -15.6554 -15.5766 -15.5241 -15.5102 -15.5019 -15.4679 -15.4342 -15.4170
   -15.4043 -15.3508 -15.3358 -15.3092 -15.2976 -15.2520 -15.2468 -15.2442
   -15.2441 -15.2094 -15.2065 -15.1690 -15.1653 -15.0830 -14.9168 -13.2758
   -13.2758  -9.7913  -6.3278  -5.3864  -4.1990  -4.1836  -3.6994  -3.3056
    -3.2786  -3.1840  -3.1339  -3.0116  -3.0078  -2.9396  -2.9010  -2.8492
    -2.8421  -2.7685  -2.7250  -2.7235  -2.6443  -2.6343  -2.6287  -2.6204
    -2.5619  -2.5396  -2.5216  -2.4893  -2.4843  -2.4449  -2.4365  -2.4332
    -2.4023  -2.3941  -2.3869  -2.3668  -2.3430  -2.3221  -2.3059  -2.2756
    -2.1287  -2.1147  -2.0194  -1.9708  -1.9653  -1.8850  -1.8817  -1.8435
    -1.8053  -1.7588  -1.7128  -1.5342  -1.5336  -1.5255  -1.4620  -1.4114
    -1.3657  -1.3126  -1.2771  -1.2429  -1.1935  -1.0730  -1.0515  -1.0011
    -0.9350  -0.9224  -0.8763  -0.8209  -0.7784  -0.7330  -0.7244  -0.7210
    -0.6887  -0.6801  -0.6699  -0.5668  -0.5222  -0.4799  -0.4702  -0.4473
    -0.2598  -0.1955  -0.1805  -0.0692  -0.0366   0.1596   0.1722   0.2028
     0.3334   0.3460   0.3479   0.3863   0.5171   0.5265   0.5985   0.6334
     0.6430   0.6819   0.6871   0.8579   1.5810   1.5823   1.6896   1.6900
     3.5276   3.6025   3.6463   3.6784   3.8041   3.8176   3.8720   3.9147
     3.9226   3.9289   3.9992

     the Fermi energy is     3.4305 ev

!    total energy              =   -2972.78942318 Ry
     estimated scf accuracy    <       0.00000006 Ry
     smearing contrib. (-TS)   =      -0.03668614 Ry
     internal energy E=F+TS    =   -2972.75273704 Ry

     The total energy is F=E-TS. E is the sum of the following terms:
     one-electron contribution =  -22730.91370107 Ry
     hartree contribution      =   11456.96979263 Ry
     xc contribution           =    -493.17837173 Ry
     ewald contribution        =    8794.36901304 Ry
     electric field correction =       0.00053008 Ry

     convergence has been achieved in  20 iterations

     Forces acting on atoms (cartesian axes, Ry/au):

     atom    1 type  1   force =     0.00025343   -0.00003296    0.09037077
     atom    2 type  1   force =    -0.00000590    0.00028120   -0.18436220
     atom    3 type  2   force =    -0.00037054   -0.00021437   -0.02315954
     atom    4 type  2   force =    -0.00059427   -0.00015502    0.05290243
     atom    5 type  2   force =    -0.01364304   -0.00016836    0.00582087
     atom    6 type  2   force =     0.01395010    0.00015764    0.00596762
     atom    7 type  1   force =    -0.00035868    0.00053038    0.00042020
     atom    8 type  1   force =     0.00009038   -0.00044824   -0.00032485
     atom    9 type  2   force =     0.00007831    0.00004823   -0.00072676
     atom   10 type  2   force =    -0.00022195   -0.00007806   -0.00054030
     atom   11 type  2   force =    -0.00020646    0.00044746   -0.00013394
     atom   12 type  2   force =     0.00029565    0.00032699   -0.00019982
     atom   13 type  1   force =     0.00018852   -0.00019417    0.00008696
     atom   14 type  1   force =    -0.00015230    0.00055432   -0.00000362
     atom   15 type  2   force =    -0.00019710    0.00050699   -0.00154101
     atom   16 type  2   force =     0.00004820    0.00016483    0.00077062
     atom   17 type  2   force =    -0.00007062   -0.00008559   -0.00012534
     atom   18 type  2   force =     0.00033159   -0.00012208   -0.00019457
     atom   19 type  1   force =     0.00023135   -0.00009690    0.00133740
     atom   20 type  1   force =    -0.00012924    0.00008018   -0.00020496
     atom   21 type  2   force =     0.00002433    0.00005515    0.10525706
     atom   22 type  2   force =     0.00017725   -0.00047971    0.00071965
     atom   23 type  2   force =    -0.06761637   -0.00027946   -0.02609893
     atom   24 type  2   force =     0.06749950    0.00019202   -0.02610033
     atom   25 type  1   force =     0.00038325   -0.00002813    0.08975357
     atom   26 type  1   force =    -0.00001392   -0.00050545   -0.18425619
     atom   27 type  2   force =    -0.00029646    0.00033076   -0.02210071
     atom   28 type  2   force =    -0.00034920   -0.00024803    0.05264864
     atom   29 type  2   force =    -0.01343367    0.00000864    0.00642345
     atom   30 type  2   force =     0.01370681    0.00021989    0.00655298
     atom   31 type  1   force =    -0.00028529   -0.00043605    0.00021330
     atom   32 type  1   force =    -0.00002781    0.00065520   -0.00023913
     atom   33 type  2   force =     0.00008705   -0.00002298    0.00040907
     atom   34 type  2   force =    -0.00013371    0.00003860   -0.00019515
     atom   35 type  2   force =    -0.00028692   -0.00042679    0.00006604
     atom   36 type  2   force =     0.00029459   -0.00037602    0.00001656
     atom   37 type  1   force =     0.00006164    0.00023775   -0.00053787
     atom   38 type  1   force =    -0.00018523   -0.00006138    0.00000024
     atom   39 type  2   force =    -0.00024202    0.00058519   -0.00082773
     atom   40 type  2   force =     0.00021371    0.00005982   -0.00053520
     atom   41 type  2   force =     0.00003534    0.00029463   -0.00024699
     atom   42 type  2   force =     0.00008148    0.00020183   -0.00025355
     atom   43 type  1   force =     0.00030517   -0.00003833   -0.00015799
     atom   44 type  1   force =    -0.00009033   -0.00003345   -0.00020159
     atom   45 type  2   force =     0.00005497    0.00002989    0.10518098
     atom   46 type  2   force =    -0.06758438   -0.00018431   -0.02609079
     atom   47 type  2   force =     0.06748708    0.00022334   -0.02608752
     atom   48 type  3   force =     0.00037245   -0.00029827    0.00024815
     atom   49 type  2   force =    -0.00025101    0.00072306    0.00108160
     atom   50 type  4   force =    -0.00049985   -0.00056275    0.00000513
     atom   51 type  4   force =     0.00010652   -0.00147221   -0.00107797
     atom   52 type  4   force =     0.00071097    0.00033158    0.00027093
     atom   53 type  4   force =     0.00023671    0.00000652    0.00006175
     atom   54 type  5   force =    -0.00032624   -0.00006879   -0.00133336
     atom   55 type  5   force =     0.00026616   -0.00017425    0.00127195

     Total force =     0.367153     Total SCF correction =     0.001184
  @ DRIVER MODE: Message from server: STATUS
  @ DRIVER MODE: Message from server: GETFORCE
  @ DRIVER MODE: Returning v,forces,stress,ensemble

     Writing config to output data dir ./calc.save/
  @ DRIVER MODE: Message from server: STATUS
  @ DRIVER MODE: Message from server: INIT
  @ DRIVER MODE: Receiving replica           0           0
  @ DRIVER MODE: Receiving encoded integer           2
  @ DRIVER MODE:  SCF:  T  FORCE:  T  STRESS:  F  VC:  F  ENSEMBLE:  F
  @ DRIVER MODE:  SCF:  F  FORCE:  F  STRESS:  F  VC:  F  ENSEMBLE:  T
  @ DRIVER MODE: Message from server: STATUS
  @ DRIVER MODE: Message from server: POSDATA
  @ DRIVER MODE: Reading and sharing positions
  @ DRIVER MODE: Received positions
     NEW-OLD atomic charge density approx. for the potential

[...]

     Adding external electric field

     Computed dipole along edir(3) :
        Dipole                0.5300 Ry au,          1.3471 Debye
        Dipole field          0.0010 Ry au,

        Potential amp.       -0.0927 Ry
        Total length         46.3494 bohr

  @ DRIVER MODE: BEEF-vdw

[...]

     negative rho (up, down):  1.448E-02 0.000E+00

     negative rho (up, down):  1.448E-02 0.000E+00
 BEEFens 2000 ensemble energies
             -0.354095223593303E+02
             -0.203664860936107E+01
             -0.731152939901811E+01
              0.245595726274580E+02
             -0.121764398077436E+02
             -0.941685831224896E+01
             -0.246174808917087E+02
             -0.514260359305874E+02
             -0.219589017943321E+02
             -0.230661883027541E+02
             -0.213622066566213E+02
              0.431907630554265E+01
              0.203002791013732E+01
             -0.108715198849484E+01
              0.178072319837094E+01
              0.270459866870526E+02
             -0.104721506196476E+02
             -0.737367199830015E+01
              0.119319607032577E+02
             -0.632441526158991E+02
              0.316599987449633E+02
             -0.135336656477556E+02
             -0.247835776898451E+01
             -0.572774743907836E+01
             -0.941686263159056E+00
             -0.222163280948243E+01
              0.490741357843648E+02
             -0.152552912450177E+02
             -0.415828210545595E+01
             -0.309829506075029E+02
              0.400747095741477E+02
             -0.444703115569919E+01
             -0.218106917119532E+02
              0.114704240189362E+02
             -0.208982939254821E+01
              0.132651888202898E+02
             -0.551461584783510E+00
              0.278963861629811E+01
              0.192887047929220E+02
             -0.558518496337810E+02
              0.311236042597465E+02
              0.828465960927970E+01
             -0.638171160488019E+01
             -0.178620041752915E+02
              0.703399106803849E+01
             -0.111602191658679E+02
              0.254264549466521E+02
              0.203022875599999E+02
             -0.130751482770165E+02
             -0.166920971273468E+02
             -0.175957606744611E+02
             -0.212396297238522E+02
              0.107744496998409E+02
             -0.277056349303338E+02
              0.849496815636871E+01
              0.353454625268299E+02
              0.407158781598982E+02
              0.189903363126330E+02
              0.854484385125785E+01
              0.177238864144542E+02
[...]
             -0.416435321149364E+02
              0.283329606187107E+01
             -0.141806871647058E+01
             -0.580853784166987E+01
              0.577056705342613E-01
             -0.370785944234265E+02
             -0.716622298723038E+01
              0.506784118872924E+01
              0.755083413366961E+01
              0.277791427842100E+02
             -0.242579119938693E+02
              0.317402910686699E+02
             -0.227022127700771E+02
              0.145993048235730E+02
              0.229758201593749E+02

 BEEF-vdW xc energy contributions
           1 :   -417.715652771265
           2 :    363.570239354719
           3 :   -276.566148695064
           4 :    186.196956994243
           5 :   -115.430819255191
           6 :    73.0628295469832
           7 :   -55.1377412242792
           8 :    51.5857715836455
           9 :   -53.0169477443880
          10 :    54.2047416200327
          11 :   -53.8508259249701
          12 :    52.4033676756479
          13 :   -50.2034280895660
          14 :    46.9852203310675
          15 :   -42.4209560729755
          16 :    36.7612371515206
          17 :   -30.9647746211071
          18 :    26.2526100597509
          19 :   -23.4797133781420
          20 :    22.7606329614759
          21 :   -23.5642476054268
          22 :    25.1018763815259
          23 :   -26.6691664131199
          24 :    27.7444105658820
          25 :   -27.9628055022748
          26 :    27.1265684319404
          27 :   -25.2583417627264
          28 :    22.6250226290033
          29 :   -19.7099396775913
          30 :    17.1126544366739
          31 :   -49.1593380571328
          32 :   -33.3169574787406
  @ DRIVER MODE: Message from server: STATUS
  @ DRIVER MODE: Message from server: GETFORCE
  @ DRIVER MODE: Returning v,forces,stress,ensemble
  @ DRIVE MODE: Returning Ensemble Energies

     Writing config to output data dir ./calc.save/
  @ DRIVER MODE: Message from server: EXIT
  @ DRIVE MODE: Exiting

     General routines

     Parallel routines

   This run was terminated on:  20:27: 7  30Aug2021

   JOB DONE.