     Program PWSCF v.6.7GPU starts on 23Sep2021 at 11:26:15

     R & G space division:  proc/nbgrp/npool/nimage =      10
     Reading input from /storage/home/hcoda1/3/ntian30/research/carbon/CxH_vib/H2O_calc/ads_slab/CH3NNH3HO_a/out_0056/pw.inp
Warning: card &CELL ignored
Warning: card   CELL_DYNAMICS='IPI', ignored
Warning: card / ignored

     Current dimensions of program PWSCF are:
     Max number of different atomic species (ntypx) = 10
     Max number of k-points (npk) =  40000
     Max angular momentum in pseudopotentials (lmaxx) =  3
     Presently no symmetry can be used with electric field

     Message from routine cell_base_init:
     DEPRECATED: use true lattice parameter, not A to a.u. conversion factor

     IMPORTANT: XC functional enforced from input :
     Exchange-correlation= BEEF-VDW
                           (   1   4  43  14   2   0   0)
     Any further DFT definition will be discarded
     Please, verify this is what you really want

  @ DRIVER MODE: Connecting to
 qe_1139763_2937318.sched-torque.pace.gatech.edu74zd6cmq_scratch
  using UNIX socket
  @ DRIVER MODE: Message from server: STATUS
  @ DRIVER MODE: Message from server: INIT
  @ DRIVER MODE: Receiving replica           0          -1
  @ DRIVER MODE: Receiving encoded integer          25
  @ DRIVER MODE:  SCF:  T  FORCE:  T  STRESS:  F  VC:  F  ENSEMBLE:  F
  @ DRIVER MODE:  SCF:  T  FORCE:  T  STRESS:  F  VC:  F  ENSEMBLE:  F

     Using Slab Decomposition

     bravais-lattice index     =            0
     lattice parameter (alat)  =       1.8897  a.u.
     unit-cell volume          =    6658.9804 (a.u.)^3
     number of atoms/cell      =           58
     number of atomic types    =            5
     number of electrons       =       405.00
     number of Kohn-Sham states=          212
     kinetic-energy cutoff     =      29.3995  Ry
     charge density cutoff     =     293.9946  Ry
     scf convergence threshold =      7.3E-08
     mixing beta               =       0.0500
     number of iterations used =            8  plain     mixing
     Exchange-correlation= BEEF-VDW
                           (   1   4  43  14   2   0   0)

     celldm(1)=   1.889726  celldm(2)=   0.000000  celldm(3)=   0.000000
     celldm(4)=   0.000000  celldm(5)=   0.000000  celldm(6)=   0.000000

     crystal axes: (cart. coord. in units of alat)
               a(1) = (   6.579727   0.000000   0.000000 )
               a(2) = (  -0.000775   5.961596   0.000000 )
               a(3) = (   0.000000   0.000000  25.155947 )

     reciprocal axes: (cart. coord. in units 2 pi/alat)
               b(1) = (  0.151982  0.000020  0.000000 )
               b(2) = (  0.000000  0.167740  0.000000 )
               b(3) = (  0.000000  0.000000  0.039752 )

     PseudoPot. # 1 for Ti read from file:
     /storage/coda1/p-amedford6/0/shared/rich_project_chbe-medford/medford-share/data/pseudos_module/espresso/nninc/pbe/van/Ti.UPF
     MD5 check sum: 8e4df49b7f0d34bbd5052bf3f5ea0213
     Pseudo is Ultrasoft, Zval = 12.0
     Generated by new atomic code, or converted to UPF format
     Using radial grid of  851 points,  6 beta functions with:
                l(1) =   0
                l(2) =   0
                l(3) =   1
                l(4) =   1
                l(5) =   2
                l(6) =   2
     Q(r) pseudized with  8 coefficients,  rinner =    1.000   1.000   1.000
                                                       1.000   1.000

     PseudoPot. # 2 for O  read from file:
     /storage/coda1/p-amedford6/0/shared/rich_project_chbe-medford/medford-share/data/pseudos_module/espresso/nninc/pbe/van/O.UPF
     MD5 check sum: 78c19812648e8988a0fe644b0f25305e
     Pseudo is Ultrasoft, Zval =  6.0
     Generated by new atomic code, or converted to UPF format
     Using radial grid of  737 points,  4 beta functions with:
                l(1) =   0
                l(2) =   0
                l(3) =   1
                l(4) =   1
     Q(r) pseudized with  8 coefficients,  rinner =    0.800   0.800   0.800

     PseudoPot. # 3 for N  read from file:
     /storage/coda1/p-amedford6/0/shared/rich_project_chbe-medford/medford-share/data/pseudos_module/espresso/nninc/pbe/van/N.UPF
     MD5 check sum: 90d10febe142ad51ac9d5be1deb811c4
     Pseudo is Ultrasoft, Zval =  5.0
     Generated by new atomic code, or converted to UPF format
     Using radial grid of  729 points,  4 beta functions with:
                l(1) =   0
                l(2) =   0
                l(3) =   1
                l(4) =   1
     Q(r) pseudized with  8 coefficients,  rinner =    0.800   0.800   0.800

     PseudoPot. # 4 for C  read from file:
     /storage/coda1/p-amedford6/0/shared/rich_project_chbe-medford/medford-share/data/pseudos_module/espresso/nninc/pbe/van/C.UPF
     MD5 check sum: 1a69bf6b8db32088f5b2163dbdb77a27
     Pseudo is Ultrasoft, Zval =  4.0
     Generated by new atomic code, or converted to UPF format
     Using radial grid of  721 points,  4 beta functions with:
                l(1) =   0
                l(2) =   0
                l(3) =   1
                l(4) =   1
     Q(r) pseudized with  8 coefficients,  rinner =    0.800   0.800   0.800

     PseudoPot. # 5 for H  read from file:
     /storage/coda1/p-amedford6/0/shared/rich_project_chbe-medford/medford-share/data/pseudos_module/espresso/nninc/pbe/van/H.UPF
     MD5 check sum: b5ee9d7bfd3a09ee7748110bda690ff7
     Pseudo is Ultrasoft, Zval =  1.0
     Generated by new atomic code, or converted to UPF format
     Using radial grid of  615 points,  1 beta functions with:
                l(1) =   0
     Q(r) pseudized with  8 coefficients,  rinner =    0.800

     atomic species   valence    mass     pseudopotential
        Ti1           12.00    47.86700     Ti( 1.00)
        O1             6.00    15.99900     O ( 1.00)
        N1             5.00    14.00700     N ( 1.00)
        C1             4.00    12.01100     C ( 1.00)
        H1             1.00     1.00800     H ( 1.00)

     No symmetry found

   Cartesian axes

     site n.     atom                  positions (alat units)
         1           Ti1 tau(   1) = (   0.0004258   2.9801865   6.0000000  )
         2           Ti1 tau(   2) = (   3.2906075   1.4906267   6.0002472  )
         3           O1  tau(   3) = (   0.0006271   0.0005054   7.9858123  )
         4           O1  tau(   4) = (   3.2906025   0.0005020   7.3038282  )
         5           O1  tau(   5) = (   4.5942328   1.4918067   9.2879030  )
         6           O1  tau(   6) = (   1.9868534   1.4903216   9.2879459  )
         7           Ti1 tau(   7) = (   3.2907910   2.8959150   9.1758416  )
         8           Ti1 tau(   8) = (   0.0015273   1.4827037   9.2680791  )
         9           O1  tau(   9) = (   3.2949357   5.9297256  11.2770696  )
        10           O1  tau(  10) = (   0.0116148   5.9584955  10.6183126  )
        11           O1  tau(  11) = (   1.2901270   1.4659759  12.6218969  )
        12           O1  tau(  12) = (   5.3029181   1.4690452  12.6271982  )
        13           Ti1 tau(  13) = (   6.5637346   3.0486055  12.7052252  )
        14           Ti1 tau(  14) = (   3.3207578   1.2909511  12.6638180  )
        15           O1  tau(  15) = (   0.0081040   5.9567798  14.6379979  )
        16           O1  tau(  16) = (   3.2944190   0.0149942  13.8863584  )
        17           O1  tau(  17) = (   4.5334936   1.5584448  16.0391558  )
        18           O1  tau(  18) = (   2.0244848   1.5379376  16.0854781  )
        19           Ti1 tau(  19) = (   3.2579824   3.0118882  15.6538344  )
        20           Ti1 tau(  20) = (   6.4918182   1.5199401  15.8876453  )
        21           O1  tau(  21) = (   3.2904802   0.0005063   4.7018136  )
        22           O1  tau(  22) = (   6.5166677   0.0216046  17.1949088  )
        23           O1  tau(  23) = (   1.3043587   1.4918075   6.0039043  )
        24           O1  tau(  24) = (   5.2767064   1.4903225   6.0039473  )
        25           Ti1 tau(  25) = (   0.0000382   5.9609847   6.0000000  )
        26           Ti1 tau(  26) = (   3.2902200   4.4714249   6.0002472  )
        27           O1  tau(  27) = (   0.0002396   2.9813036   7.9858123  )
        28           O1  tau(  28) = (   3.2902150   2.9813002   7.3038282  )
        29           O1  tau(  29) = (   4.5938453   4.4726049   9.2879030  )
        30           O1  tau(  30) = (   1.9864658   4.4711199   9.2879459  )
        31           Ti1 tau(  31) = (   3.2891106   5.8743827   9.1763621  )
        32           Ti1 tau(  32) = (   0.0006254   4.4649316   9.2693709  )
        33           O1  tau(  33) = (   3.2959121   3.0085915  11.2438341  )
        34           O1  tau(  34) = (   0.0092240   2.9805883  10.6323155  )
        35           O1  tau(  35) = (   1.2849535   4.4488585  12.6204231  )
        36           O1  tau(  36) = (   5.2878833   4.4365118  12.6243745  )
        37           Ti1 tau(  37) = (   0.0500071   0.0677371  12.6535751  )
        38           Ti1 tau(  38) = (   3.3027700   4.3871210  12.4110406  )
        39           O1  tau(  39) = (   6.5685058   2.9535060  14.6525041  )
        40           O1  tau(  40) = (   3.2696111   2.9719761  13.8704823  )
        41           O1  tau(  41) = (   4.5209813   4.4409030  16.0696701  )
        42           O1  tau(  42) = (   2.0131998   4.4599944  16.0916020  )
        43           Ti1 tau(  43) = (   3.2138439   0.0230873  16.3295100  )
        44           Ti1 tau(  44) = (   6.5234412   4.6200706  16.0754176  )
        45           O1  tau(  45) = (   3.2900926   2.9813045   4.7018136  )
        46           O1  tau(  46) = (   1.3039711   4.4726057   6.0039043  )
        47           O1  tau(  47) = (   5.2763189   4.4711207   6.0039473  )
        48           N1  tau(  48) = (   0.0251376   2.9556585  17.3246074  )
        49           N1  tau(  49) = (   6.3772498   2.5461882  22.2688425  )
        50           C1  tau(  50) = (   0.2111848   2.8484408  18.7116211  )
        51           H1  tau(  51) = (   0.3920758   3.8074029  19.2116250  )
        52           H1  tau(  52) = (   5.9044209   2.3708277  19.1722604  )
        53           H1  tau(  53) = (   1.0233575   2.1342068  18.9364007  )
        54           H1  tau(  54) = (   6.0930523   3.2289774  22.9628454  )
        55           H1  tau(  55) = (   0.2277240   1.7755739  22.7685771  )
        56           H1  tau(  56) = (   0.5282093   2.9785696  21.7129995  )
        57           O1  tau(  57) = (   3.3938229   0.0530270  18.1522483  )
        58           H1  tau(  58) = (   4.2718821   5.8932998  18.5223319  )

     number of k points=    10  Fermi-Dirac smearing, width (Ry)=  0.0073
                       cart. coord. in units 2pi/alat
        k(    1) = (   0.0000000   0.0000000   0.0000000), wk =   0.1250000
        k(    2) = (   0.0000000   0.0419351   0.0000000), wk =   0.2500000
        k(    3) = (   0.0000000  -0.0838702   0.0000000), wk =   0.1250000
        k(    4) = (   0.0379955   0.0000049   0.0000000), wk =   0.2500000
        k(    5) = (   0.0379955   0.0419400   0.0000000), wk =   0.2500000
        k(    6) = (   0.0379955  -0.0838652   0.0000000), wk =   0.2500000
        k(    7) = (   0.0379955  -0.0419301   0.0000000), wk =   0.2500000
        k(    8) = (  -0.0759910  -0.0000099   0.0000000), wk =   0.1250000
        k(    9) = (  -0.0759910   0.0419252   0.0000000), wk =   0.2500000
        k(   10) = (  -0.0759910  -0.0838800   0.0000000), wk =   0.1250000

     Initial potential from superposition of free atoms

     starting charge  388.99913, renormalised to  405.00000

     negative rho (up, down):  7.829E-03 0.000E+00

     %%%%%%%%%%%%%%%%%%%%%%%%%%%%%%%%%%%%%%%%%%%%%%%%%%%%%%%%%%%%%%%%%%%%%%%%
     %                                                                      %
     % You are using vdW-DF, which was implemented by the Thonhauser group. %
     % Please cite the following two papers that made this development      %
     % possible and the two reviews that describe the various versions:     %
     %                                                                      %
     %   T. Thonhauser et al., PRL 115, 136402 (2015).                      %
     %   T. Thonhauser et al., PRB 76, 125112 (2007).                       %
     %   K. Berland et al., Rep. Prog. Phys. 78, 066501 (2015).             %
     %   D.C. Langreth et al., J. Phys.: Condens. Matter 21, 084203 (2009). %
     %                                                                      %
     %                                                                      %
     % If you are calculating the stress with vdW-DF, please also cite:     %
     %                                                                      %
     %   R. Sabatini et al., J. Phys.: Condens. Matter 24, 424209 (2012).   %
     %                                                                      %
     %%%%%%%%%%%%%%%%%%%%%%%%%%%%%%%%%%%%%%%%%%%%%%%%%%%%%%%%%%%%%%%%%%%%%%%%

     Adding external electric field

     Computed dipole along edir(3) :
        Dipole              -15.1933 Ry au,        -38.6176 Debye
        Dipole field         -0.0287 Ry au,

        Potential amp.        2.6578 Ry
        Total length         46.3494 bohr

     Starting wfcs are  307 atomic wfcs
  @ DRIVER MODE: Message from server: STATUS
  @ DRIVER MODE: Message from server: POSDATA
  @ DRIVER MODE: Reading and sharing cell
  @ DRIVER MODE: Reading and sharing positions
  @ DRIVER MODE: Received positions

     Self-consistent Calculation

     iteration #  1     ecut=    29.40 Ry     beta= 0.05
     Davidson diagonalization with overlap
     c_bands:  4 eigenvalues not converged
     c_bands:  4 eigenvalues not converged
     c_bands:  1 eigenvalues not converged
     c_bands:  2 eigenvalues not converged
     c_bands:  1 eigenvalues not converged
     c_bands:  2 eigenvalues not converged
     ethr =  1.00E-05,  avg # of iterations = 29.4

[...]

     total energy              =   -2295.16276571 Ry
     estimated scf accuracy    <    7742.59382702 Ry

     iteration #  2     ecut=    29.40 Ry     beta= 0.05
     Davidson diagonalization with overlap
     ethr =  1.00E-02,  avg # of iterations = 22.7

[...]

     iteration # 37     ecut=    29.40 Ry     beta= 0.05
     Davidson diagonalization with overlap
     c_bands:  1 eigenvalues not converged
     ethr =  3.29E-06,  avg # of iterations =  6.8

[...]

     total energy              =   -2976.42335001 Ry
     estimated scf accuracy    <       0.00000008 Ry

     iteration # 73     ecut=    29.40 Ry     beta= 0.05
     Davidson diagonalization with overlap
     ethr =  1.88E-11,  avg # of iterations =  1.0

     negative rho (up, down):  9.593E-03 0.000E+00

     Adding external electric field

     Computed dipole along edir(3) :
        Dipole                0.6335 Ry au,          1.6102 Debye
        Dipole field          0.0012 Ry au,

        Potential amp.       -0.1108 Ry
        Total length         46.3494 bohr

     End of self-consistent calculation

          k = 0.0000 0.0000 0.0000 ( 18029 PWs)   bands (ev):

   -56.5667 -56.5331 -55.6425 -55.6074 -55.4268 -55.3602 -55.2346 -55.1182
   -55.0843 -55.0365 -55.0043 -54.9701 -54.9122 -54.8175 -54.7475 -54.6137
   -32.9854 -32.8371 -32.8090 -32.7461 -32.6559 -32.6125 -32.1243 -31.9016
   -31.8628 -31.8413 -31.7867 -31.7789 -31.7536 -31.6601 -31.6398 -31.5952
   -31.5633 -31.5495 -31.5236 -31.5114 -31.5082 -31.4958 -31.4652 -31.4650
   -31.4407 -31.4220 -31.3567 -31.3221 -31.2999 -31.2930 -31.2418 -31.2340
   -31.2170 -31.1961 -31.1829 -31.1679 -31.1603 -31.1305 -31.1248 -31.0931
   -31.0479 -31.0046 -31.0026 -30.9826 -30.9496 -30.8879 -30.8513 -30.8009
   -16.6700 -16.1382 -16.1098 -15.8832 -15.7606 -15.7559 -15.7123 -15.6447
   -15.4742 -15.4064 -15.3775 -15.3163 -15.1720 -15.0562 -14.9590 -14.7787
   -14.7055 -14.7000 -14.6814 -14.6739 -14.6571 -14.6363 -14.5771 -14.5190
   -14.4764 -14.4111 -14.3676 -14.2219 -14.0204 -13.9965 -13.9510 -13.6154
   -13.5084 -13.5027  -7.7378  -4.2454  -4.0308  -4.0117  -3.7265  -3.5788
    -3.4061  -3.2536  -3.2020  -3.1449  -3.0855  -3.0764  -2.9286  -2.9269
    -2.9151  -2.9081  -2.8301  -2.7711  -2.7064  -2.6196  -2.6041  -2.5097
    -2.4630  -2.3035  -2.2774  -2.1767  -2.1044  -2.0993  -2.0327  -2.0097
    -1.9628  -1.9175  -1.9082  -1.8734  -1.8298  -1.7831  -1.7644  -1.6535
    -1.6461  -1.5809  -1.5739  -1.5521  -1.4385  -1.4180  -1.3486  -1.2028
    -1.1816  -1.1783  -1.1314  -1.1139  -1.0323  -0.9358  -0.8694  -0.8422
    -0.7861  -0.6975  -0.6512  -0.6299  -0.5573  -0.5373  -0.4634  -0.4199
    -0.4065  -0.3863  -0.3431  -0.2298  -0.1426  -0.1099  -0.0559  -0.0309
     0.0024   0.0331   0.0485   0.0978   0.1667   0.2531   0.2735   0.4117
     0.4637   0.5008   0.5761   0.6106   0.6174   0.7060   0.7380   0.7680
     0.8139   0.8886   0.9033   0.9043   0.9634   1.0470   1.1023   1.1569
     1.1660   1.2020   1.2106   1.2613   1.3507   1.3702   1.4397   1.4946
     1.8189   1.8809   2.4838   2.7276   2.8991   3.1760   3.3679   3.6712
     3.7135   3.7314   3.7316   4.0370

[...]

          k = 0.0380-0.0419 0.0000 ( 17876 PWs)   bands (ev):

[...]

          k =-0.0760-0.0000 0.0000 ( 17886 PWs)   bands (ev):

[...]

          k =-0.0760-0.0839 0.0000 ( 17948 PWs)   bands (ev):

   -56.5505 -56.5491 -55.6301 -55.6196 -55.4221 -55.3648 -55.2338 -55.1018
   -55.1006 -55.0317 -55.0050 -54.9747 -54.9106 -54.8160 -54.7491 -54.6150
   -32.8236 -32.8220 -32.8034 -32.8019 -32.7002 -32.6990 -31.9488 -31.9396
   -31.8245 -31.8193 -31.8134 -31.8117 -31.7215 -31.6787 -31.6534 -31.6403
   -31.5906 -31.5889 -31.5052 -31.4778 -31.4669 -31.4542 -31.4533 -31.3711
   -31.3515 -31.3219 -31.3204 -31.3028 -31.2958 -31.2858 -31.2820 -31.2815
   -31.2532 -31.2340 -31.2160 -31.2014 -31.1969 -31.1598 -31.1590 -31.1036
   -31.0927 -31.0509 -31.0085 -30.9957 -30.9593 -30.9543 -30.8533 -30.8363
   -16.1254 -16.0285 -16.0266 -15.9830 -15.9815 -15.7198 -15.7153 -15.4652
   -15.4359 -15.2565 -15.1524 -15.1284 -15.0851 -15.0434 -14.9720 -14.9179
   -14.8887 -14.8564 -14.8306 -14.7680 -14.7383 -14.6340 -14.6014 -14.5536
   -14.5173 -14.4554 -14.4144 -14.3657 -14.1762 -14.1354 -13.9503 -13.6130
   -13.6124 -13.5276  -7.7369  -4.0416  -4.0118  -3.7177  -3.1602  -3.1044
    -3.1001  -3.0677  -3.0605  -2.9740  -2.8538  -2.8507  -2.7552  -2.6489
    -2.6224  -2.5993  -2.5389  -2.5293  -2.4294  -2.3794  -2.3746  -2.3604
    -2.3242  -2.2945  -2.2880  -2.2283  -2.0896  -2.0733  -2.0244  -1.9704
    -1.8956  -1.8871  -1.8781  -1.8411  -1.7996  -1.7742  -1.7633  -1.7361
    -1.7314  -1.7269  -1.6178  -1.5122  -1.4651  -1.3716  -1.3673  -1.3582
    -1.3205  -1.2934  -1.2601  -1.2535  -1.2246  -1.1446  -1.1185  -1.0485
    -0.9340  -0.9170  -0.8753  -0.8269  -0.7231  -0.7048  -0.6142  -0.5788
    -0.5675  -0.5078  -0.4787  -0.4631  -0.4051  -0.3655  -0.2335  -0.1936
    -0.1825  -0.1654  -0.1433  -0.1069  -0.0456   0.0157   0.0474   0.0494
     0.1538   0.2533   0.3418   0.4106   0.4203   0.4432   0.5326   0.6358
     0.6764   0.7008   0.7504   0.8732   0.9902   1.0201   1.1263   1.1529
     1.1621   1.2618   1.2799   1.2850   1.3051   1.3142   1.3489   1.4157
     1.4766   1.7641   2.3164   3.3202   3.3233   3.3814   3.3871   3.6978
     3.7002   3.8113   3.8164   4.1429

     the Fermi energy is     2.3936 ev

!    total energy              =   -2976.42336643 Ry
     estimated scf accuracy    <       0.00000007 Ry
     smearing contrib. (-TS)   =      -0.01084123 Ry
     internal energy E=F+TS    =   -2976.41252520 Ry

     The total energy is F=E-TS. E is the sum of the following terms:
     one-electron contribution =  -22707.60154533 Ry
     hartree contribution      =   11450.14618829 Ry
     xc contribution           =    -495.35075985 Ry
     ewald contribution        =    8776.39283436 Ry
     electric field correction =       0.00075732 Ry

     convergence has been achieved in  73 iterations

     Forces acting on atoms (cartesian axes, Ry/au):

     atom    1 type  1   force =     0.00002257   -0.00051665    0.12629006
     atom    2 type  1   force =    -0.00009360    0.00041148   -0.15469826
     atom    3 type  2   force =     0.00002736    0.00002686   -0.06829602
     atom    4 type  2   force =     0.00005898   -0.00010817    0.01705123
     atom    5 type  2   force =    -0.00487516   -0.00242774   -0.01323212
     atom    6 type  2   force =     0.00655647   -0.00180637   -0.01375023
     atom    7 type  1   force =    -0.00029312   -0.00661602    0.05920461
     atom    8 type  1   force =     0.00038218    0.00686671    0.10029050
     atom    9 type  2   force =    -0.00002447    0.00067899    0.00133098
     atom   10 type  2   force =    -0.00261555   -0.00001404   -0.06338249
     atom   11 type  2   force =     0.00046796   -0.00068146   -0.00028052
     atom   12 type  2   force =    -0.00088118   -0.00112319   -0.00109386
     atom   13 type  1   force =    -0.00031076    0.00070835   -0.00135495
     atom   14 type  1   force =    -0.00032330   -0.00031625   -0.00028789
     atom   15 type  2   force =    -0.00064314   -0.00038762   -0.00064198
     atom   16 type  2   force =     0.00019833    0.00089694   -0.00007869
     atom   17 type  2   force =     0.00081173    0.00022619   -0.00082486
     atom   18 type  2   force =    -0.00013379   -0.00029157    0.00020790
     atom   19 type  1   force =    -0.00000079   -0.00012016   -0.00088486
     atom   20 type  1   force =     0.00053512    0.00077815   -0.00038249
     atom   21 type  2   force =     0.00006165    0.00015647    0.09779705
     atom   22 type  2   force =     0.00058773   -0.00035426    0.00131069
     atom   23 type  2   force =    -0.08275037    0.00005320   -0.03313858
     atom   24 type  2   force =     0.08269197    0.00050140   -0.03321455
     atom   25 type  1   force =     0.00006969   -0.00035175    0.12643276
     atom   26 type  1   force =    -0.00011567   -0.00149361   -0.15487929
     atom   27 type  2   force =     0.00011340   -0.00046904   -0.06667019
     atom   28 type  2   force =     0.00004833    0.00167332    0.01198760
     atom   29 type  2   force =    -0.00342799    0.00422020   -0.01620684
     atom   30 type  2   force =     0.00505481    0.00456358   -0.01660976
     atom   31 type  1   force =    -0.00015838    0.00217518    0.04253497
     atom   32 type  1   force =     0.00043746   -0.00893576    0.10086705
     atom   33 type  2   force =    -0.00048439   -0.00014035   -0.00036997
     atom   34 type  2   force =    -0.00212637   -0.00026381   -0.07624498
     atom   35 type  2   force =    -0.00007771    0.00070306    0.00086435
     atom   36 type  2   force =    -0.00051501    0.00052044    0.00038813
     atom   37 type  1   force =     0.00042800    0.00060123   -0.00015356
     atom   38 type  1   force =    -0.00041565   -0.00072671   -0.00068280
     atom   39 type  2   force =     0.00047362   -0.00030636   -0.00045571
     atom   40 type  2   force =     0.00035628   -0.00062926   -0.00004395
     atom   41 type  2   force =     0.00025704    0.00037125   -0.00026888
     atom   42 type  2   force =    -0.00010967   -0.00004157    0.00034401
     atom   43 type  1   force =     0.00114427    0.00135795    0.00000664
     atom   44 type  1   force =    -0.00038983   -0.00097532    0.00092668
     atom   45 type  2   force =     0.00009231   -0.00001476    0.09764459
     atom   46 type  2   force =    -0.08279729    0.00003953   -0.03319074
     atom   47 type  2   force =     0.08270486    0.00045793   -0.03319822
     atom   48 type  3   force =     0.00002190    0.00039524    0.00041033
     atom   49 type  3   force =     0.00012826   -0.00002933   -0.00099381
     atom   50 type  4   force =     0.00073975    0.00037933    0.00060116
     atom   51 type  5   force =    -0.00001145   -0.00029398   -0.00056527
     atom   52 type  5   force =     0.00009656    0.00090701   -0.00056954
     atom   53 type  5   force =    -0.00018472    0.00032600    0.00040210
     atom   54 type  5   force =    -0.00008219   -0.00006005    0.00003780
     atom   55 type  5   force =     0.00033761    0.00015787    0.00011944
     atom   56 type  5   force =     0.00011553   -0.00005234    0.00020390
     atom   57 type  2   force =    -0.01924290    0.00167320   -0.00754104
     atom   58 type  5   force =     0.01806270   -0.00227959    0.00693239

     Total force =     0.421603     Total SCF correction =     0.000817
  @ DRIVER MODE: Message from server: STATUS
  @ DRIVER MODE: Message from server: GETFORCE
  @ DRIVER MODE: Returning v,forces,stress,ensemble

     Writing output data file ./calc.save/
  @ DRIVER MODE: Message from server: EXIT
  @ DRIVE MODE: Exiting

     General routines

     Parallel routines

   This run was terminated on:  11:45:51  23Sep2021

   JOB DONE.