     Program PWSCF v.6.7GPU starts on 16Sep2021 at  2: 8:41

     R & G space division:  proc/nbgrp/npool/nimage =      10
     Reading input from /storage/home/hcoda1/3/ntian30/research/carbon/CxH_vib/H2O_calc/ads_slab/CH2NNHHH2O_a/out_0031/pw.inp
Warning: card &CELL ignored
Warning: card   CELL_DYNAMICS='IPI', ignored
Warning: card / ignored

     Current dimensions of program PWSCF are:
     Max number of different atomic species (ntypx) = 10
     Max number of k-points (npk) =  40000
     Max angular momentum in pseudopotentials (lmaxx) =  3
     Presently no symmetry can be used with electric field

     Message from routine cell_base_init:
     DEPRECATED: use true lattice parameter, not A to a.u. conversion factor

     IMPORTANT: XC functional enforced from input :
     Exchange-correlation= BEEF-VDW
                           (   1   4  43  14   2   0   0)
     Any further DFT definition will be discarded
     Please, verify this is what you really want

  @ DRIVER MODE: Connecting to
 qe_1139763_2852611.sched-torque.pace.gatech.edu15kh97m9_scratch
  using UNIX socket
  @ DRIVER MODE: Message from server: STATUS
  @ DRIVER MODE: Message from server: INIT
  @ DRIVER MODE: Receiving replica           0          -1
  @ DRIVER MODE: Receiving encoded integer          25
  @ DRIVER MODE:  SCF:  T  FORCE:  T  STRESS:  F  VC:  F  ENSEMBLE:  F
  @ DRIVER MODE:  SCF:  T  FORCE:  T  STRESS:  F  VC:  F  ENSEMBLE:  F

     Using Slab Decomposition

     bravais-lattice index     =            0
     lattice parameter (alat)  =       1.8897  a.u.
     unit-cell volume          =    6658.9804 (a.u.)^3
     number of atoms/cell      =           57
     number of atomic types    =            5
     number of electrons       =       404.00
     number of Kohn-Sham states=          212
     kinetic-energy cutoff     =      29.3995  Ry
     charge density cutoff     =     293.9946  Ry
     scf convergence threshold =      7.3E-08
     mixing beta               =       0.0500
     number of iterations used =            8  plain     mixing
     Exchange-correlation= BEEF-VDW
                           (   1   4  43  14   2   0   0)

     celldm(1)=   1.889726  celldm(2)=   0.000000  celldm(3)=   0.000000
     celldm(4)=   0.000000  celldm(5)=   0.000000  celldm(6)=   0.000000

     crystal axes: (cart. coord. in units of alat)
               a(1) = (   6.579727   0.000000   0.000000 )
               a(2) = (  -0.000775   5.961596   0.000000 )
               a(3) = (   0.000000   0.000000  25.155947 )

     reciprocal axes: (cart. coord. in units 2 pi/alat)
               b(1) = (  0.151982  0.000020  0.000000 )
               b(2) = (  0.000000  0.167740  0.000000 )
               b(3) = (  0.000000  0.000000  0.039752 )

     PseudoPot. # 1 for Ti read from file:
     /storage/coda1/p-amedford6/0/shared/rich_project_chbe-medford/medford-share/data/pseudos_module/espresso/nninc/pbe/van/Ti.UPF
     MD5 check sum: 8e4df49b7f0d34bbd5052bf3f5ea0213
     Pseudo is Ultrasoft, Zval = 12.0
     Generated by new atomic code, or converted to UPF format
     Using radial grid of  851 points,  6 beta functions with:
                l(1) =   0
                l(2) =   0
                l(3) =   1
                l(4) =   1
                l(5) =   2
                l(6) =   2
     Q(r) pseudized with  8 coefficients,  rinner =    1.000   1.000   1.000
                                                       1.000   1.000

     PseudoPot. # 2 for O  read from file:
     /storage/coda1/p-amedford6/0/shared/rich_project_chbe-medford/medford-share/data/pseudos_module/espresso/nninc/pbe/van/O.UPF
     MD5 check sum: 78c19812648e8988a0fe644b0f25305e
     Pseudo is Ultrasoft, Zval =  6.0
     Generated by new atomic code, or converted to UPF format
     Using radial grid of  737 points,  4 beta functions with:
                l(1) =   0
                l(2) =   0
                l(3) =   1
                l(4) =   1
     Q(r) pseudized with  8 coefficients,  rinner =    0.800   0.800   0.800

     PseudoPot. # 3 for N  read from file:
     /storage/coda1/p-amedford6/0/shared/rich_project_chbe-medford/medford-share/data/pseudos_module/espresso/nninc/pbe/van/N.UPF
     MD5 check sum: 90d10febe142ad51ac9d5be1deb811c4
     Pseudo is Ultrasoft, Zval =  5.0
     Generated by new atomic code, or converted to UPF format
     Using radial grid of  729 points,  4 beta functions with:
                l(1) =   0
                l(2) =   0
                l(3) =   1
                l(4) =   1
     Q(r) pseudized with  8 coefficients,  rinner =    0.800   0.800   0.800

     PseudoPot. # 4 for C  read from file:
     /storage/coda1/p-amedford6/0/shared/rich_project_chbe-medford/medford-share/data/pseudos_module/espresso/nninc/pbe/van/C.UPF
     MD5 check sum: 1a69bf6b8db32088f5b2163dbdb77a27
     Pseudo is Ultrasoft, Zval =  4.0
     Generated by new atomic code, or converted to UPF format
     Using radial grid of  721 points,  4 beta functions with:
                l(1) =   0
                l(2) =   0
                l(3) =   1
                l(4) =   1
     Q(r) pseudized with  8 coefficients,  rinner =    0.800   0.800   0.800

     PseudoPot. # 5 for H  read from file:
     /storage/coda1/p-amedford6/0/shared/rich_project_chbe-medford/medford-share/data/pseudos_module/espresso/nninc/pbe/van/H.UPF
     MD5 check sum: b5ee9d7bfd3a09ee7748110bda690ff7
     Pseudo is Ultrasoft, Zval =  1.0
     Generated by new atomic code, or converted to UPF format
     Using radial grid of  615 points,  1 beta functions with:
                l(1) =   0
     Q(r) pseudized with  8 coefficients,  rinner =    0.800

     atomic species   valence    mass     pseudopotential
        Ti1           12.00    47.86700     Ti( 1.00)
        O1             6.00    15.99900     O ( 1.00)
        N1             5.00    14.00700     N ( 1.00)
        C1             4.00    12.01100     C ( 1.00)
        H1             1.00     1.00800     H ( 1.00)

     No symmetry found

   Cartesian axes

     site n.     atom                  positions (alat units)
         1           Ti1 tau(   1) = (   0.0004258   2.9801865   6.0000000  )
         2           Ti1 tau(   2) = (   3.2906075   1.4906267   6.0002472  )
         3           O1  tau(   3) = (   0.0006271   0.0005054   7.9858123  )
         4           O1  tau(   4) = (   3.2906025   0.0005020   7.3038282  )
         5           O1  tau(   5) = (   4.5942328   1.4918067   9.2879030  )
         6           O1  tau(   6) = (   1.9868534   1.4903216   9.2879459  )
         7           Ti1 tau(   7) = (   3.2907910   2.8959150   9.1758416  )
         8           Ti1 tau(   8) = (   0.0015273   1.4827037   9.2680791  )
         9           O1  tau(   9) = (   3.3121314   5.9338840  11.3691909  )
        10           O1  tau(  10) = (   0.0116148   5.9584955  10.6183126  )
        11           O1  tau(  11) = (   1.3134021   1.4784130  12.6451072  )
        12           O1  tau(  12) = (   5.3172625   1.4801399  12.6491864  )
        13           Ti1 tau(  13) = (   0.0380378   2.9573341  12.5222382  )
        14           Ti1 tau(  14) = (   3.3404755   1.4532591  12.5245293  )
        15           O1  tau(  15) = (   0.0239237   0.0366503  14.6894071  )
        16           O1  tau(  16) = (   3.3255740   5.9570089  14.0129324  )
        17           O1  tau(  17) = (   4.5846449   1.4795273  16.1858442  )
        18           O1  tau(  18) = (   2.0539891   1.4908220  16.1938258  )
        19           Ti1 tau(  19) = (   3.3028508   2.9322526  15.7076921  )
        20           Ti1 tau(  20) = (   0.0088316   1.3655950  16.0522487  )
        21           O1  tau(  21) = (   3.2904802   0.0005063   4.7018136  )
        22           O1  tau(  22) = (   0.0586005   5.8320325  17.2288864  )
        23           O1  tau(  23) = (   1.3043587   1.4918075   6.0039043  )
        24           O1  tau(  24) = (   5.2767064   1.4903225   6.0039473  )
        25           Ti1 tau(  25) = (   0.0000382   5.9609847   6.0000000  )
        26           Ti1 tau(  26) = (   3.2902200   4.4714249   6.0002472  )
        27           O1  tau(  27) = (   0.0002396   2.9813036   7.9858123  )
        28           O1  tau(  28) = (   3.2902150   2.9813002   7.3038282  )
        29           O1  tau(  29) = (   4.5938453   4.4726049   9.2879030  )
        30           O1  tau(  30) = (   1.9864658   4.4711199   9.2879459  )
        31           Ti1 tau(  31) = (   3.2891106   5.8743827   9.1763621  )
        32           Ti1 tau(  32) = (   0.0006254   4.4649316   9.2693709  )
        33           O1  tau(  33) = (   3.3142679   2.9660735  11.3641874  )
        34           O1  tau(  34) = (   0.0092240   2.9805883  10.6323155  )
        35           O1  tau(  35) = (   1.3108675   4.4558178  12.6782323  )
        36           O1  tau(  36) = (   5.3175068   4.4537340  12.6790822  )
        37           Ti1 tau(  37) = (   0.0418451   5.9490355  12.4996082  )
        38           Ti1 tau(  38) = (   3.3402151   4.4429940  12.5219265  )
        39           O1  tau(  39) = (   0.0332256   2.9148708  14.9327709  )
        40           O1  tau(  40) = (   3.3156017   2.9437717  13.9283311  )
        41           O1  tau(  41) = (   4.5915719   4.3868214  16.1197993  )
        42           O1  tau(  42) = (   2.0539401   4.4017640  16.0846163  )
        43           Ti1 tau(  43) = (   3.3369130   5.9116756  15.8392261  )
        44           Ti1 tau(  44) = (   0.0533093   4.5818758  15.8415549  )
        45           O1  tau(  45) = (   3.2900926   2.9813045   4.7018136  )
        46           O1  tau(  46) = (   1.3039711   4.4726057   6.0039043  )
        47           O1  tau(  47) = (   5.2763189   4.4711207   6.0039473  )
        48           N1  tau(  48) = (   6.5287229   2.7802708  18.1865785  )
        49           C1  tau(  49) = (   0.9724842   2.7744648  18.9576868  )
        50           H1  tau(  50) = (   0.9153086   3.0669255  20.0057840  )
        51           H1  tau(  51) = (   1.9225290   2.4867234  18.5393133  )
        52           N1  tau(  52) = (   5.2958906   3.1014149  18.7352402  )
        53           H1  tau(  53) = (   5.3813054   3.6367428  19.5974321  )
        54           H1  tau(  54) = (   4.7863746   3.6605970  18.0522289  )
        55           O1  tau(  55) = (   3.2511457   5.8152340  18.3397965  )
        56           H1  tau(  56) = (   3.7467739   0.6636339  18.5518981  )
        57           H1  tau(  57) = (   2.3053106   0.0674530  18.4201010  )

     number of k points=    10  Fermi-Dirac smearing, width (Ry)=  0.0073
                       cart. coord. in units 2pi/alat
        k(    1) = (   0.0000000   0.0000000   0.0000000), wk =   0.1250000
        k(    2) = (   0.0000000   0.0419351   0.0000000), wk =   0.2500000
        k(    3) = (   0.0000000  -0.0838702   0.0000000), wk =   0.1250000
        k(    4) = (   0.0379955   0.0000049   0.0000000), wk =   0.2500000
        k(    5) = (   0.0379955   0.0419400   0.0000000), wk =   0.2500000
        k(    6) = (   0.0379955  -0.0838652   0.0000000), wk =   0.2500000
        k(    7) = (   0.0379955  -0.0419301   0.0000000), wk =   0.2500000
        k(    8) = (  -0.0759910  -0.0000099   0.0000000), wk =   0.1250000
        k(    9) = (  -0.0759910   0.0419252   0.0000000), wk =   0.2500000
        k(   10) = (  -0.0759910  -0.0838800   0.0000000), wk =   0.1250000

     Initial potential from superposition of free atoms

     starting charge  387.99913, renormalised to  404.00000

     negative rho (up, down):  1.527E-02 0.000E+00

     %%%%%%%%%%%%%%%%%%%%%%%%%%%%%%%%%%%%%%%%%%%%%%%%%%%%%%%%%%%%%%%%%%%%%%%%
     %                                                                      %
     % You are using vdW-DF, which was implemented by the Thonhauser group. %
     % Please cite the following two papers that made this development      %
     % possible and the two reviews that describe the various versions:     %
     %                                                                      %
     %   T. Thonhauser et al., PRL 115, 136402 (2015).                      %
     %   T. Thonhauser et al., PRB 76, 125112 (2007).                       %
     %   K. Berland et al., Rep. Prog. Phys. 78, 066501 (2015).             %
     %   D.C. Langreth et al., J. Phys.: Condens. Matter 21, 084203 (2009). %
     %                                                                      %
     %                                                                      %
     % If you are calculating the stress with vdW-DF, please also cite:     %
     %                                                                      %
     %   R. Sabatini et al., J. Phys.: Condens. Matter 24, 424209 (2012).   %
     %                                                                      %
     %%%%%%%%%%%%%%%%%%%%%%%%%%%%%%%%%%%%%%%%%%%%%%%%%%%%%%%%%%%%%%%%%%%%%%%%

     Adding external electric field

     Computed dipole along edir(3) :
        Dipole              -14.3244 Ry au,        -36.4090 Debye
        Dipole field         -0.0270 Ry au,

        Potential amp.        2.5058 Ry
        Total length         46.3494 bohr

     Starting wfcs are  306 atomic wfcs
  @ DRIVER MODE: Message from server: STATUS
  @ DRIVER MODE: Message from server: POSDATA
  @ DRIVER MODE: Reading and sharing cell
  @ DRIVER MODE: Reading and sharing positions
  @ DRIVER MODE: Received positions

     Self-consistent Calculation

     iteration #  1     ecut=    29.40 Ry     beta= 0.05
     Davidson diagonalization with overlap
     c_bands:  4 eigenvalues not converged
     c_bands:  3 eigenvalues not converged
     c_bands:  5 eigenvalues not converged
     c_bands:  1 eigenvalues not converged
     c_bands:  2 eigenvalues not converged
     c_bands:  1 eigenvalues not converged
     c_bands:  2 eigenvalues not converged
     c_bands:  4 eigenvalues not converged
     c_bands:  5 eigenvalues not converged
     ethr =  1.00E-05,  avg # of iterations = 24.6

[...]

     total energy              =   -2233.94082525 Ry
     estimated scf accuracy    <    8445.26478246 Ry

     iteration #  2     ecut=    29.40 Ry     beta= 0.05
     Davidson diagonalization with overlap
     ethr =  1.00E-02,  avg # of iterations = 25.7

[...]

     iteration # 67     ecut=    29.40 Ry     beta= 0.05
     Davidson diagonalization with overlap
     c_bands:  1 eigenvalues not converged
     ethr =  5.99E-11,  avg # of iterations = 12.1

[...]

     total energy              =   -2975.20593838 Ry
     estimated scf accuracy    <       0.00000008 Ry

     iteration # 69     ecut=    29.40 Ry     beta= 0.05
     Davidson diagonalization with overlap
     ethr =  1.84E-11,  avg # of iterations =  2.0

     negative rho (up, down):  1.520E-02 0.000E+00

     Adding external electric field

     Computed dipole along edir(3) :
        Dipole                1.4028 Ry au,          3.5657 Debye
        Dipole field          0.0026 Ry au,

        Potential amp.       -0.2454 Ry
        Total length         46.3494 bohr

     End of self-consistent calculation

          k = 0.0000 0.0000 0.0000 ( 18029 PWs)   bands (ev):

   -55.1878 -55.1519 -55.1479 -55.1138 -55.1001 -55.0686 -55.0345 -55.0305
   -55.0068 -54.9772 -54.9718 -54.9684 -54.9437 -54.8733 -54.1712 -54.1372
   -31.7531 -31.6395 -31.5984 -31.5572 -31.5064 -31.4962 -31.4891 -31.4818
   -31.4369 -31.4028 -31.3993 -31.3925 -31.3906 -31.3643 -31.3416 -31.3327
   -31.3318 -31.3255 -31.3060 -31.2998 -31.2807 -31.2761 -31.2609 -31.2475
   -31.2366 -31.2341 -31.2135 -31.2072 -31.2050 -31.1987 -31.1927 -31.1749
   -31.1704 -31.1599 -31.1550 -31.1420 -31.1209 -31.1169 -31.1054 -31.0887
   -31.0877 -31.0029 -30.5801 -30.4868 -30.4647 -30.3967 -30.3100 -30.1989
   -18.9170 -18.5401 -16.0137 -15.7484 -15.6125 -15.5025 -15.3865 -15.2570
   -15.2093 -15.0781 -15.0185 -14.9051 -14.8770 -14.8351 -14.8159 -14.8107
   -14.7526 -14.7251 -14.7182 -14.6931 -14.6827 -14.6613 -14.6220 -14.6157
   -14.5796 -14.5690 -14.5648 -14.4202 -14.3424 -14.2779 -13.9670 -13.6731
   -12.6735 -12.5562  -8.8095  -6.7051  -6.4505  -6.0709  -4.1434  -3.3567
    -3.2011  -3.1857  -3.1250  -3.0846  -3.0662  -3.0086  -2.9386  -2.7355
    -2.6006  -2.5736  -2.4544  -2.3884  -2.3838  -2.3309  -2.1880  -2.1834
    -2.1279  -2.0885  -2.0383  -2.0184  -1.9948  -1.9711  -1.9374  -1.9180
    -1.8911  -1.7564  -1.7366  -1.6627  -1.6002  -1.5898  -1.5316  -1.5076
    -1.4888  -1.4835  -1.4745  -1.4627  -1.4236  -1.4099  -1.3666  -1.3096
    -1.2067  -1.1216  -1.0268  -0.9475  -0.8844  -0.8222  -0.7607  -0.7517
    -0.6747  -0.6623  -0.5709  -0.5481  -0.5173  -0.4044  -0.3425  -0.3377
    -0.2744  -0.1726  -0.1439  -0.1281  -0.0566   0.0217   0.0407   0.0482
     0.0565   0.1803   0.2332   0.2657   0.2988   0.3695   0.3912   0.4413
     0.4872   0.4941   0.5732   0.6330   0.6873   0.7369   0.7538   0.7785
     0.7965   0.8061   0.8229   0.9040   0.9267   0.9597   1.0129   1.1685
     1.3277   1.4274   1.4434   1.7615   1.7747   1.8519   2.0362   2.4271
     2.4750   3.9083   3.9851   4.0441   4.0503   4.0595   4.1455   4.3899
     4.4056   4.4183   4.4304   4.4742

[...]

          k = 0.0380-0.0419 0.0000 ( 17876 PWs)   bands (ev):

[...]

          k =-0.0760-0.0000 0.0000 ( 17886 PWs)   bands (ev):

[...]

          k =-0.0760-0.0839 0.0000 ( 17948 PWs)   bands (ev):

   -55.1707 -55.1687 -55.1309 -55.1307 -55.0978 -55.0577 -55.0414 -55.0325
   -54.9923 -54.9857 -54.9705 -54.9608 -54.9603 -54.8752 -54.1541 -54.1541
   -31.5625 -31.5523 -31.5233 -31.4547 -31.4545 -31.4485 -31.4395 -31.4223
   -31.4222 -31.4014 -31.3906 -31.3879 -31.3754 -31.3494 -31.3253 -31.3197
   -31.3196 -31.3193 -31.3169 -31.3075 -31.3018 -31.2834 -31.2702 -31.2673
   -31.2536 -31.2504 -31.2502 -31.2498 -31.2400 -31.2357 -31.2257 -31.2242
   -31.2163 -31.2055 -31.1996 -31.1895 -31.1882 -31.1517 -31.1408 -31.1406
   -31.0968 -31.0892 -30.4774 -30.4774 -30.3928 -30.3926 -30.3534 -30.3533
   -18.9146 -18.5394 -15.5308 -15.4841 -15.3287 -15.1943 -15.1911 -15.1509
   -15.0953 -15.0236 -15.0028 -14.9595 -14.9488 -14.9302 -14.8935 -14.8860
   -14.8599 -14.7891 -14.7797 -14.7713 -14.7374 -14.6983 -14.6876 -14.6862
   -14.6694 -14.6395 -14.6363 -14.5388 -14.5366 -14.4447 -14.3067 -13.6884
   -12.6577 -12.6576  -8.7736  -6.7048  -6.4005  -6.0987  -4.1856  -3.2061
    -2.9309  -2.7482  -2.6429  -2.5409  -2.4138  -2.4081  -2.3227  -2.3144
    -2.2334  -2.1991  -2.1868  -2.1712  -2.0801  -2.0666  -2.0562  -2.0344
    -2.0179  -2.0000  -1.9682  -1.9622  -1.9386  -1.9118  -1.9015  -1.8999
    -1.8813  -1.8477  -1.8163  -1.7974  -1.7767  -1.7461  -1.7350  -1.6678
    -1.6271  -1.5392  -1.5042  -1.3893  -1.3875  -1.3668  -1.3107  -1.2903
    -1.2692  -1.2201  -1.2111  -1.1650  -1.0236  -0.9362  -0.9253  -0.8873
    -0.8384  -0.7896  -0.7426  -0.7275  -0.6611  -0.6403  -0.5478  -0.5318
    -0.4305  -0.3887  -0.3767  -0.3608  -0.2783  -0.2143  -0.1673  -0.1471
    -0.1426  -0.0920  -0.0778  -0.0645   0.0071   0.0544   0.0782   0.0927
     0.1342   0.3025   0.3628   0.3764   0.4959   0.5451   0.6496   0.7097
     0.7851   0.8048   0.8410   0.9314   0.9379   1.0145   1.1094   1.1233
     1.1594   1.2039   1.2527   1.2757   1.2806   2.2092   2.2105   2.2949
     2.2951   4.0520   4.1284   4.1863   4.2343   4.2427   4.3637   4.4255
     4.4681   4.4902   4.4926   4.5676

     the Fermi energy is     3.9663 ev

!    total energy              =   -2975.20596460 Ry
     estimated scf accuracy    <       0.00000005 Ry
     smearing contrib. (-TS)   =      -0.03732541 Ry
     internal energy E=F+TS    =   -2975.16863919 Ry

     The total energy is F=E-TS. E is the sum of the following terms:
     one-electron contribution =  -23538.18398406 Ry
     hartree contribution      =   11867.11541095 Ry
     xc contribution           =    -494.97260581 Ry
     ewald contribution        =    9190.86882591 Ry
     electric field correction =       0.00371382 Ry

     convergence has been achieved in  69 iterations

     Forces acting on atoms (cartesian axes, Ry/au):

     atom    1 type  1   force =     0.00006648   -0.00019559    0.09356428
     atom    2 type  1   force =    -0.00020410   -0.00021250   -0.17804968
     atom    3 type  2   force =     0.00010990   -0.00020707   -0.02064859
     atom    4 type  2   force =     0.00004685   -0.00197887    0.05806855
     atom    5 type  2   force =    -0.01002137   -0.00167007    0.00693764
     atom    6 type  2   force =     0.01216735   -0.00103888    0.00744973
     atom    7 type  1   force =     0.00022587    0.00248686   -0.01210935
     atom    8 type  1   force =    -0.00049681    0.00202688   -0.00193295
     atom    9 type  2   force =     0.00006745    0.00006157   -0.00003024
     atom   10 type  2   force =    -0.00044250   -0.00135300   -0.00316607
     atom   11 type  2   force =     0.00015331   -0.00007900   -0.00007931
     atom   12 type  2   force =    -0.00066355   -0.00011840    0.00008038
     atom   13 type  1   force =     0.00051302    0.00098360    0.00024587
     atom   14 type  1   force =    -0.00140296    0.00027082    0.00017116
     atom   15 type  2   force =    -0.00018269    0.00095416    0.00024989
     atom   16 type  2   force =    -0.00001400   -0.00043647    0.00014400
     atom   17 type  2   force =     0.00069897    0.00000434   -0.00028399
     atom   18 type  2   force =     0.00052975    0.00014996   -0.00034268
     atom   19 type  1   force =    -0.00114205    0.00092716    0.00052853
     atom   20 type  1   force =     0.00056352   -0.00011620   -0.00091879
     atom   21 type  2   force =     0.00001544   -0.00002020    0.10387144
     atom   22 type  2   force =     0.00008046    0.00090760   -0.00012366
     atom   23 type  2   force =    -0.07052148   -0.00011801   -0.02696326
     atom   24 type  2   force =     0.07045627    0.00030918   -0.02702551
     atom   25 type  1   force =     0.00002182   -0.00018663    0.09303167
     atom   26 type  1   force =    -0.00009531   -0.00048324   -0.17796954
     atom   27 type  2   force =     0.00017145   -0.00036359   -0.01953132
     atom   28 type  2   force =     0.00010932   -0.00160580    0.05714903
     atom   29 type  2   force =    -0.01007140   -0.00086060    0.00631674
     atom   30 type  2   force =     0.01213265   -0.00061518    0.00687513
     atom   31 type  1   force =     0.00031910    0.00503207   -0.01528281
     atom   32 type  1   force =    -0.00039231   -0.00267263   -0.00236147
     atom   33 type  2   force =    -0.00003073   -0.00025598   -0.00003035
     atom   34 type  2   force =     0.00046234    0.00031395   -0.00055270
     atom   35 type  2   force =    -0.00012026   -0.00037226   -0.00007639
     atom   36 type  2   force =    -0.00044453   -0.00036484    0.00024054
     atom   37 type  1   force =     0.00026927   -0.00104160    0.00050783
     atom   38 type  1   force =    -0.00122394    0.00025381    0.00128702
     atom   39 type  2   force =    -0.00012156   -0.00046987    0.00028364
     atom   40 type  2   force =     0.00003032   -0.00041688    0.00044157
     atom   41 type  2   force =    -0.00017734    0.00001419    0.00005101
     atom   42 type  2   force =     0.00128016   -0.00025569    0.00005482
     atom   43 type  1   force =    -0.00119826   -0.00069146   -0.00008427
     atom   44 type  1   force =     0.00093253    0.00062791   -0.00001098
     atom   45 type  2   force =     0.00004163   -0.00002185    0.10380437
     atom   46 type  2   force =    -0.07055167   -0.00007510   -0.02697326
     atom   47 type  2   force =     0.07045718    0.00039017   -0.02700218
     atom   48 type  3   force =    -0.00103089    0.00102584    0.00232138
     atom   49 type  4   force =     0.00074940    0.00058375    0.00004908
     atom   50 type  5   force =    -0.00044953    0.00003501   -0.00063521
     atom   51 type  5   force =    -0.00040321   -0.00011614   -0.00006447
     atom   52 type  3   force =    -0.00244114    0.00008132   -0.00246589
     atom   53 type  5   force =     0.00269629    0.00069085    0.00108574
     atom   54 type  5   force =    -0.00061823    0.00015234   -0.00031719
     atom   55 type  2   force =    -0.00054205    0.00073095   -0.00006931
     atom   56 type  5   force =    -0.00036578   -0.00035851    0.00079058
     atom   57 type  5   force =     0.00000155   -0.00024217   -0.00050020

     Total force =     0.365770     Total SCF correction =     0.000410
  @ DRIVER MODE: Message from server: STATUS
  @ DRIVER MODE: Message from server: GETFORCE
  @ DRIVER MODE: Returning v,forces,stress,ensemble

     Writing output data file ./calc.save/
  @ DRIVER MODE: Message from server: EXIT
  @ DRIVE MODE: Exiting

     General routines

     Parallel routines

   This run was terminated on:   2:28: 9  16Sep2021

   JOB DONE.