     Program PWSCF v.6.7GPU starts on 14Sep2021 at 17:19:44

     R & G space division:  proc/nbgrp/npool/nimage =      10
     Reading input from /storage/home/hcoda1/3/ntian30/research/carbon/CxH_vib/CH2_calc/ads_slab/CH2ON2_b/out_0011/pw.inp
Warning: card &CELL ignored
Warning: card   CELL_DYNAMICS='IPI', ignored
Warning: card / ignored

     Current dimensions of program PWSCF are:
     Max number of different atomic species (ntypx) = 10
     Max number of k-points (npk) =  40000
     Max angular momentum in pseudopotentials (lmaxx) =  3
     Presently no symmetry can be used with electric field

     Message from routine cell_base_init:
     DEPRECATED: use true lattice parameter, not A to a.u. conversion factor

     IMPORTANT: XC functional enforced from input :
     Exchange-correlation= BEEF-VDW
                           (   1   4  43  14   2   0   0)
     Any further DFT definition will be discarded
     Please, verify this is what you really want

  @ DRIVER MODE: Connecting to
 qe_1139763_2840441.sched-torque.pace.gatech.eduyt9i740r_scratch
  using UNIX socket
  @ DRIVER MODE: Message from server: STATUS
  @ DRIVER MODE: Message from server: INIT
  @ DRIVER MODE: Receiving replica           0          -1
  @ DRIVER MODE: Receiving encoded integer          25
  @ DRIVER MODE:  SCF:  T  FORCE:  T  STRESS:  F  VC:  F  ENSEMBLE:  F
  @ DRIVER MODE:  SCF:  T  FORCE:  T  STRESS:  F  VC:  F  ENSEMBLE:  F

     Using Slab Decomposition

     bravais-lattice index     =            0
     lattice parameter (alat)  =       1.8897  a.u.
     unit-cell volume          =    6658.9804 (a.u.)^3
     number of atoms/cell      =           53
     number of atomic types    =            5
     number of electrons       =       400.00
     number of Kohn-Sham states=          210
     kinetic-energy cutoff     =      29.3995  Ry
     charge density cutoff     =     293.9946  Ry
     scf convergence threshold =      7.3E-08
     mixing beta               =       0.0500
     number of iterations used =            8  plain     mixing
     Exchange-correlation= BEEF-VDW
                           (   1   4  43  14   2   0   0)

     celldm(1)=   1.889726  celldm(2)=   0.000000  celldm(3)=   0.000000
     celldm(4)=   0.000000  celldm(5)=   0.000000  celldm(6)=   0.000000

     crystal axes: (cart. coord. in units of alat)
               a(1) = (   6.579727   0.000000   0.000000 )
               a(2) = (  -0.000775   5.961596   0.000000 )
               a(3) = (   0.000000   0.000000  25.155947 )

     reciprocal axes: (cart. coord. in units 2 pi/alat)
               b(1) = (  0.151982  0.000020  0.000000 )
               b(2) = (  0.000000  0.167740  0.000000 )
               b(3) = (  0.000000  0.000000  0.039752 )

     PseudoPot. # 1 for C  read from file:
     /storage/coda1/p-amedford6/0/shared/rich_project_chbe-medford/medford-share/data/pseudos_module/espresso/nninc/pbe/van/C.UPF
     MD5 check sum: 1a69bf6b8db32088f5b2163dbdb77a27
     Pseudo is Ultrasoft, Zval =  4.0
     Generated by new atomic code, or converted to UPF format
     Using radial grid of  721 points,  4 beta functions with:
                l(1) =   0
                l(2) =   0
                l(3) =   1
                l(4) =   1
     Q(r) pseudized with  8 coefficients,  rinner =    0.800   0.800   0.800

     PseudoPot. # 2 for H  read from file:
     /storage/coda1/p-amedford6/0/shared/rich_project_chbe-medford/medford-share/data/pseudos_module/espresso/nninc/pbe/van/H.UPF
     MD5 check sum: b5ee9d7bfd3a09ee7748110bda690ff7
     Pseudo is Ultrasoft, Zval =  1.0
     Generated by new atomic code, or converted to UPF format
     Using radial grid of  615 points,  1 beta functions with:
                l(1) =   0
     Q(r) pseudized with  8 coefficients,  rinner =    0.800

     PseudoPot. # 3 for O  read from file:
     /storage/coda1/p-amedford6/0/shared/rich_project_chbe-medford/medford-share/data/pseudos_module/espresso/nninc/pbe/van/O.UPF
     MD5 check sum: 78c19812648e8988a0fe644b0f25305e
     Pseudo is Ultrasoft, Zval =  6.0
     Generated by new atomic code, or converted to UPF format
     Using radial grid of  737 points,  4 beta functions with:
                l(1) =   0
                l(2) =   0
                l(3) =   1
                l(4) =   1
     Q(r) pseudized with  8 coefficients,  rinner =    0.800   0.800   0.800

     PseudoPot. # 4 for Ti read from file:
     /storage/coda1/p-amedford6/0/shared/rich_project_chbe-medford/medford-share/data/pseudos_module/espresso/nninc/pbe/van/Ti.UPF
     MD5 check sum: 8e4df49b7f0d34bbd5052bf3f5ea0213
     Pseudo is Ultrasoft, Zval = 12.0
     Generated by new atomic code, or converted to UPF format
     Using radial grid of  851 points,  6 beta functions with:
                l(1) =   0
                l(2) =   0
                l(3) =   1
                l(4) =   1
                l(5) =   2
                l(6) =   2
     Q(r) pseudized with  8 coefficients,  rinner =    1.000   1.000   1.000
                                                       1.000   1.000

     PseudoPot. # 5 for N  read from file:
     /storage/coda1/p-amedford6/0/shared/rich_project_chbe-medford/medford-share/data/pseudos_module/espresso/nninc/pbe/van/N.UPF
     MD5 check sum: 90d10febe142ad51ac9d5be1deb811c4
     Pseudo is Ultrasoft, Zval =  5.0
     Generated by new atomic code, or converted to UPF format
     Using radial grid of  729 points,  4 beta functions with:
                l(1) =   0
                l(2) =   0
                l(3) =   1
                l(4) =   1
     Q(r) pseudized with  8 coefficients,  rinner =    0.800   0.800   0.800

     atomic species   valence    mass     pseudopotential
        C1             4.00    12.01100     C ( 1.00)
        H1             1.00     1.00800     H ( 1.00)
        O1             6.00    15.99900     O ( 1.00)
        Ti1           12.00    47.86700     Ti( 1.00)
        N1             5.00    14.00700     N ( 1.00)

     No symmetry found

   Cartesian axes

     site n.     atom                  positions (alat units)
         1           C1  tau(   1) = (   6.4247902   2.9910588  18.6917704  )
         2           H1  tau(   2) = (   6.3980358   3.9338040  19.2291268  )
         3           H1  tau(   3) = (   6.3671137   2.0386567  19.2103458  )
         4           O1  tau(   4) = (   3.2904802   0.0005063   4.7018136  )
         5           O1  tau(   5) = (   3.2900926   2.9813045   4.7018136  )
         6           O1  tau(   6) = (   1.3043587   1.4918075   6.0039043  )
         7           O1  tau(   7) = (   1.3039711   4.4726057   6.0039043  )
         8           O1  tau(   8) = (   5.2767064   1.4903225   6.0039473  )
         9           O1  tau(   9) = (   5.2763189   4.4711207   6.0039473  )
        10           O1  tau(  10) = (   3.2906025   0.0005020   7.3038282  )
        11           O1  tau(  11) = (   3.2902150   2.9813002   7.3038282  )
        12           O1  tau(  12) = (   0.0006271   0.0005054   7.9858123  )
        13           O1  tau(  13) = (   0.0002396   2.9813036   7.9858123  )
        14           O1  tau(  14) = (   4.5942328   1.4918067   9.2879030  )
        15           O1  tau(  15) = (   4.5938453   4.4726049   9.2879030  )
        16           O1  tau(  16) = (   1.9868534   1.4903216   9.2879459  )
        17           O1  tau(  17) = (   1.9864658   4.4711199   9.2879459  )
        18           O1  tau(  18) = (   0.0058113   2.9878523  10.5832334  )
        19           O1  tau(  19) = (   0.0062988   0.0093020  10.6005518  )
        20           O1  tau(  20) = (   3.2955317   2.9954032  11.3404818  )
        21           O1  tau(  21) = (   3.2944299   0.0136787  11.3445968  )
        22           O1  tau(  22) = (   5.2904553   1.5027675  12.6317203  )
        23           O1  tau(  23) = (   5.2914467   4.4836083  12.6349631  )
        24           O1  tau(  24) = (   1.2933861   1.5040032  12.6362007  )
        25           O1  tau(  25) = (   1.2922507   4.4849626  12.6395598  )
        26           O1  tau(  26) = (   3.2955364   2.9961609  13.9180299  )
        27           O1  tau(  27) = (   3.2969677   0.0155663  13.9438287  )
        28           O1  tau(  28) = (   0.0016464   0.0229801  14.6780835  )
        29           O1  tau(  29) = (   0.0078505   2.9966620  14.7218711  )
        30           O1  tau(  30) = (   4.5417949   4.4807699  16.1031406  )
        31           O1  tau(  31) = (   4.5422182   1.5234006  16.1020929  )
        32           O1  tau(  32) = (   2.0382733   4.4802786  16.1011463  )
        33           O1  tau(  33) = (   2.0385641   1.5240134  16.0993588  )
        34           O1  tau(  34) = (   6.5794991   0.0244991  17.1995468  )
        35           O1  tau(  35) = (   6.5588415   3.0026814  17.4289308  )
        36           Ti1 tau(  36) = (   0.0004258   2.9801865   6.0000000  )
        37           Ti1 tau(  37) = (   0.0000382   5.9609847   6.0000000  )
        38           Ti1 tau(  38) = (   3.2906075   1.4906267   6.0002472  )
        39           Ti1 tau(  39) = (   3.2902200   4.4714249   6.0002472  )
        40           Ti1 tau(  40) = (   3.2947477   0.0499856   9.1537742  )
        41           Ti1 tau(  41) = (   3.3215383   3.0289251   9.1580241  )
        42           Ti1 tau(  42) = (   0.0276872   4.5181110   9.2597866  )
        43           Ti1 tau(  43) = (   0.0223396   1.5961087   9.3523429  )
        44           Ti1 tau(  44) = (   3.3278215   4.4891914  12.4850086  )
        45           Ti1 tau(  45) = (   3.3277968   1.5111787  12.4828596  )
        46           Ti1 tau(  46) = (   0.0250534   0.0277200  12.4935153  )
        47           Ti1 tau(  47) = (   0.0290128   3.0118426  12.7617797  )
        48           Ti1 tau(  48) = (   3.2948489   3.0033751  15.7103116  )
        49           Ti1 tau(  49) = (   3.2995243   0.0226186  15.7253524  )
        50           Ti1 tau(  50) = (   0.0095488   1.4190105  15.9501391  )
        51           Ti1 tau(  51) = (   0.0117608   4.6113996  15.9785021  )
        52           N1  tau(  52) = (   3.7826193   3.0501191  20.3090129  )
        53           N1  tau(  53) = (   2.7364546   2.9530354  19.9655958  )

     number of k points=    10  Fermi-Dirac smearing, width (Ry)=  0.0073
                       cart. coord. in units 2pi/alat
        k(    1) = (   0.0000000   0.0000000   0.0000000), wk =   0.1250000
        k(    2) = (   0.0000000   0.0419351   0.0000000), wk =   0.2500000
        k(    3) = (   0.0000000  -0.0838702   0.0000000), wk =   0.1250000
        k(    4) = (   0.0379955   0.0000049   0.0000000), wk =   0.2500000
        k(    5) = (   0.0379955   0.0419400   0.0000000), wk =   0.2500000
        k(    6) = (   0.0379955  -0.0838652   0.0000000), wk =   0.2500000
        k(    7) = (   0.0379955  -0.0419301   0.0000000), wk =   0.2500000
        k(    8) = (  -0.0759910  -0.0000099   0.0000000), wk =   0.1250000
        k(    9) = (  -0.0759910   0.0419252   0.0000000), wk =   0.2500000
        k(   10) = (  -0.0759910  -0.0838800   0.0000000), wk =   0.1250000

     Initial potential from superposition of free atoms

     starting charge  383.99917, renormalised to  400.00000

     negative rho (up, down):  1.497E-02 0.000E+00

     %%%%%%%%%%%%%%%%%%%%%%%%%%%%%%%%%%%%%%%%%%%%%%%%%%%%%%%%%%%%%%%%%%%%%%%%
     %                                                                      %
     % You are using vdW-DF, which was implemented by the Thonhauser group. %
     % Please cite the following two papers that made this development      %
     % possible and the two reviews that describe the various versions:     %
     %                                                                      %
     %   T. Thonhauser et al., PRL 115, 136402 (2015).                      %
     %   T. Thonhauser et al., PRB 76, 125112 (2007).                       %
     %   K. Berland et al., Rep. Prog. Phys. 78, 066501 (2015).             %
     %   D.C. Langreth et al., J. Phys.: Condens. Matter 21, 084203 (2009). %
     %                                                                      %
     %                                                                      %
     % If you are calculating the stress with vdW-DF, please also cite:     %
     %                                                                      %
     %   R. Sabatini et al., J. Phys.: Condens. Matter 24, 424209 (2012).   %
     %                                                                      %
     %%%%%%%%%%%%%%%%%%%%%%%%%%%%%%%%%%%%%%%%%%%%%%%%%%%%%%%%%%%%%%%%%%%%%%%%

     Adding external electric field

     Computed dipole along edir(3) :
        Dipole              -12.3670 Ry au,        -31.4337 Debye
        Dipole field         -0.0233 Ry au,

        Potential amp.        2.1634 Ry
        Total length         46.3494 bohr

     Starting wfcs are  302 atomic wfcs
  @ DRIVER MODE: Message from server: STATUS
  @ DRIVER MODE: Message from server: POSDATA
  @ DRIVER MODE: Reading and sharing cell
  @ DRIVER MODE: Reading and sharing positions
  @ DRIVER MODE: Received positions

     Self-consistent Calculation

     iteration #  1     ecut=    29.40 Ry     beta= 0.05
     Davidson diagonalization with overlap
     c_bands:  2 eigenvalues not converged
     c_bands:  2 eigenvalues not converged
     c_bands:  2 eigenvalues not converged
     c_bands:  1 eigenvalues not converged
     c_bands:  5 eigenvalues not converged
     c_bands:  1 eigenvalues not converged
     c_bands:  5 eigenvalues not converged
     c_bands:  2 eigenvalues not converged
     c_bands:  4 eigenvalues not converged
     c_bands:  5 eigenvalues not converged
     ethr =  1.00E-05,  avg # of iterations = 22.0

[...]

     total energy              =   -2430.81332698 Ry
     estimated scf accuracy    <    6087.60970992 Ry

     iteration #  2     ecut=    29.40 Ry     beta= 0.05
     Davidson diagonalization with overlap
     ethr =  1.00E-02,  avg # of iterations = 22.1

[...]

     iteration # 63     ecut=    29.40 Ry     beta= 0.05
     Davidson diagonalization with overlap
     c_bands:  1 eigenvalues not converged
     ethr =  5.01E-10,  avg # of iterations = 11.8

[...]

     total energy              =   -2970.35115613 Ry
     estimated scf accuracy    <       0.00000012 Ry

     iteration # 68     ecut=    29.40 Ry     beta= 0.05
     Davidson diagonalization with overlap
     ethr =  3.01E-11,  avg # of iterations = 10.3

     negative rho (up, down):  1.508E-02 0.000E+00

     Adding external electric field

     Computed dipole along edir(3) :
        Dipole                0.9941 Ry au,          2.5266 Debye
        Dipole field          0.0019 Ry au,

        Potential amp.       -0.1739 Ry
        Total length         46.3494 bohr

     End of self-consistent calculation

          k = 0.0000 0.0000 0.0000 ( 18029 PWs)   bands (ev):

   -55.5231 -55.5165 -55.4860 -55.4801 -55.4192 -55.3934 -55.3771 -55.3118
   -55.3074 -55.2972 -55.2950 -55.2617 -55.2422 -55.2183 -54.5485 -54.5144
   -32.0886 -31.9960 -31.8973 -31.8865 -31.8367 -31.8223 -31.8214 -31.8017
   -31.7744 -31.7578 -31.7576 -31.7316 -31.7057 -31.6986 -31.6812 -31.6670
   -31.6494 -31.6482 -31.6304 -31.6178 -31.5985 -31.5950 -31.5856 -31.5807
   -31.5757 -31.5495 -31.5486 -31.5270 -31.5213 -31.5204 -31.4954 -31.4764
   -31.4712 -31.4474 -31.4394 -31.4348 -31.4317 -31.4257 -31.4054 -31.4010
   -31.3942 -31.3879 -30.9586 -30.8609 -30.8387 -30.7752 -30.6891 -30.5779
   -21.4018 -19.7424 -16.3132 -16.0065 -15.8599 -15.7380 -15.6781 -15.5818
   -15.4133 -15.3518 -15.2547 -15.2086 -15.1572 -15.1178 -15.1169 -15.0831
   -15.0752 -15.0564 -15.0543 -14.9881 -14.9758 -14.9385 -14.9259 -14.9255
   -14.8282 -14.7723 -14.7146 -14.6536 -14.5994 -14.5469 -14.5194 -13.0489
   -12.9305  -9.1250  -6.6644  -5.3901  -5.3879  -4.5557  -4.5450  -3.6627
    -3.4803  -3.4295  -3.4273  -3.3701  -3.3637  -3.2625  -3.1471  -3.1247
    -2.8263  -2.7394  -2.7134  -2.6927  -2.6879  -2.5525  -2.4929  -2.3746
    -2.3694  -2.3547  -2.3530  -2.3417  -2.3065  -2.3026  -2.2517  -2.2136
    -2.1331  -2.0765  -1.9725  -1.9549  -1.9310  -1.8640  -1.8333  -1.8118
    -1.8094  -1.7649  -1.7621  -1.7405  -1.7144  -1.6270  -1.5212  -1.4802
    -1.3923  -1.3558  -1.2386  -1.1025  -1.0291  -0.9900  -0.9359  -0.8859
    -0.8805  -0.8586  -0.8392  -0.8242  -0.8085  -0.6930  -0.5893  -0.5763
    -0.4777  -0.4399  -0.3980  -0.3827  -0.2835  -0.2658  -0.2582  -0.1772
    -0.0247  -0.0181  -0.0070   0.1102   0.1391   0.1568   0.2060   0.2256
     0.2698   0.2985   0.3481   0.4039   0.4134   0.4619   0.4667   0.4922
     0.5962   0.6566   0.6592   0.7204   0.7638   0.9535   0.9654   1.1047
     1.1626   1.3795   1.4765   1.5258   1.6454   2.0635   2.1227   3.6365
     3.6714   3.6924   3.7422   3.7737   3.8081   3.8722   4.0777   4.0975
     4.0989   4.1218

[...]

          k = 0.0380-0.0419 0.0000 ( 17876 PWs)   bands (ev):

[...]

          k =-0.0760-0.0000 0.0000 ( 17886 PWs)   bands (ev):

[...]

          k =-0.0760-0.0839 0.0000 ( 17948 PWs)   bands (ev):

   -55.5118 -55.4994 -55.4971 -55.4970 -55.4114 -55.3895 -55.3849 -55.3153
   -55.3033 -55.2912 -55.2788 -55.2784 -55.2483 -55.2217 -54.5319 -54.5310
   -31.8911 -31.8883 -31.8199 -31.8063 -31.8063 -31.8040 -31.7917 -31.7814
   -31.7716 -31.7453 -31.7293 -31.7185 -31.7007 -31.6569 -31.6529 -31.6469
   -31.6421 -31.6357 -31.6305 -31.6262 -31.6149 -31.6067 -31.6057 -31.6029
   -31.5974 -31.5888 -31.5796 -31.5729 -31.5451 -31.5359 -31.5314 -31.5167
   -31.5056 -31.4963 -31.4913 -31.4844 -31.4808 -31.4776 -31.4594 -31.4400
   -31.4279 -31.4158 -30.8519 -30.8508 -30.7718 -30.7711 -30.7326 -30.7318
   -21.4016 -19.7352 -15.7407 -15.7280 -15.6098 -15.4782 -15.4763 -15.4234
   -15.3820 -15.3220 -15.2633 -15.2607 -15.2177 -15.2019 -15.1900 -15.1493
   -15.1194 -15.0803 -15.0675 -15.0599 -15.0468 -14.9924 -14.9857 -14.9458
   -14.9247 -14.9196 -14.8762 -14.8687 -14.7939 -14.7498 -14.7315 -13.0331
   -13.0304  -9.1375  -6.6481  -5.3662  -5.3199  -4.5603  -4.5548  -3.5704
    -3.1686  -3.0304  -3.0161  -2.8336  -2.7002  -2.6927  -2.6319  -2.5455
    -2.5119  -2.4658  -2.4093  -2.4017  -2.3753  -2.3716  -2.3601  -2.3558
    -2.3498  -2.3106  -2.2808  -2.2425  -2.1828  -2.1808  -2.1677  -2.1611
    -2.1186  -2.1041  -2.0967  -2.0894  -2.0824  -2.0140  -1.9329  -1.8747
    -1.7850  -1.7363  -1.7200  -1.6849  -1.6491  -1.6141  -1.5924  -1.5743
    -1.4719  -1.4353  -1.2919  -1.2675  -1.2500  -1.2420  -1.2135  -1.1969
    -1.0608  -0.9864  -0.9754  -0.9516  -0.8921  -0.8649  -0.8186  -0.8046
    -0.7042  -0.6723  -0.6273  -0.5777  -0.4989  -0.4884  -0.4371  -0.4212
    -0.3434  -0.3240  -0.2945  -0.2920  -0.2251  -0.1795  -0.1052  -0.0987
    -0.0728   0.0347   0.0870   0.1028   0.2861   0.4582   0.4733   0.4853
     0.5963   0.6083   0.6401   0.7303   0.7368   0.8206   0.8757   0.9731
     0.9925   1.0021   1.0808   1.8355   1.8365   1.9261   1.9376   3.6375
     3.8492   3.8835   3.9051   3.9556   4.1139   4.1186   4.1316   4.1445
     4.2558   4.2750

     the Fermi energy is     3.6256 ev

!    total energy              =   -2970.35117658 Ry
     estimated scf accuracy    <       0.00000006 Ry
     smearing contrib. (-TS)   =      -0.03422570 Ry
     internal energy E=F+TS    =   -2970.31695088 Ry

     The total energy is F=E-TS. E is the sum of the following terms:
     one-electron contribution =  -23490.55876370 Ry
     hartree contribution      =   11837.89726049 Ry
     xc contribution           =    -491.51283817 Ry
     ewald contribution        =    9173.85552572 Ry
     electric field correction =       0.00186477 Ry

     convergence has been achieved in  68 iterations

     Forces acting on atoms (cartesian axes, Ry/au):

     atom    1 type  1   force =    -0.00020901    0.00008717   -0.00037277
     atom    2 type  2   force =    -0.00047112    0.00079842    0.00026265
     atom    3 type  2   force =     0.00015151   -0.00058104   -0.00030047
     atom    4 type  3   force =    -0.00007328    0.00001863    0.10420061
     atom    5 type  3   force =    -0.00005914   -0.00001364    0.10426134
     atom    6 type  3   force =    -0.06900797    0.00075699   -0.02906383
     atom    7 type  3   force =    -0.06856044   -0.00135793   -0.02907026
     atom    8 type  3   force =     0.06867523    0.00128602   -0.02913657
     atom    9 type  3   force =     0.06832682   -0.00098037   -0.02914320
     atom   10 type  3   force =     0.00016890    0.00039146    0.04601706
     atom   11 type  3   force =     0.00058462    0.00071836    0.04718526
     atom   12 type  3   force =     0.00031230   -0.00528624   -0.03189217
     atom   13 type  3   force =     0.00036100    0.00311655   -0.02588042
     atom   14 type  3   force =    -0.01816112   -0.00007354    0.00391230
     atom   15 type  3   force =    -0.01657948    0.00120900    0.00344955
     atom   16 type  3   force =     0.01842952   -0.00125379    0.00387984
     atom   17 type  3   force =     0.01758789    0.00142056    0.00331679
     atom   18 type  3   force =     0.00002140    0.00032261    0.00048730
     atom   19 type  3   force =     0.00003421   -0.00012325    0.00018801
     atom   20 type  3   force =    -0.00003615    0.00026983    0.00052850
     atom   21 type  3   force =    -0.00008415   -0.00029570   -0.00013020
     atom   22 type  3   force =     0.00009796    0.00015587    0.00042041
     atom   23 type  3   force =     0.00003299   -0.00011143    0.00040487
     atom   24 type  3   force =    -0.00006900    0.00023154    0.00028191
     atom   25 type  3   force =     0.00002559   -0.00015239    0.00025874
     atom   26 type  3   force =    -0.00017809    0.00012892   -0.00010612
     atom   27 type  3   force =    -0.00015507   -0.00009174   -0.00585321
     atom   28 type  3   force =     0.00007832   -0.00001402   -0.00040506
     atom   29 type  3   force =     0.00001355    0.00020166   -0.00072470
     atom   30 type  3   force =    -0.00045222   -0.00029524   -0.00083913
     atom   31 type  3   force =    -0.00067336    0.00037114   -0.00079949
     atom   32 type  3   force =     0.00063447   -0.00040605   -0.00053688
     atom   33 type  3   force =     0.00083776    0.00047085   -0.00052446
     atom   34 type  3   force =    -0.00014453    0.00001025    0.00064486
     atom   35 type  3   force =    -0.00038960   -0.00057211    0.00011345
     atom   36 type  4   force =    -0.00025350   -0.00176083    0.10178665
     atom   37 type  4   force =    -0.00008329    0.00135857    0.11447376
     atom   38 type  4   force =    -0.00032022    0.00054104   -0.18033270
     atom   39 type  4   force =    -0.00022306   -0.00040898   -0.18063598
     atom   40 type  4   force =     0.00024625    0.00081715   -0.00123989
     atom   41 type  4   force =     0.00019677   -0.00078942   -0.00096270
     atom   42 type  4   force =    -0.00022881    0.00089390   -0.00021239
     atom   43 type  4   force =    -0.00017442   -0.00021565    0.00000408
     atom   44 type  4   force =    -0.00001026   -0.00160621   -0.00093566
     atom   45 type  4   force =     0.00003240    0.00158462   -0.00084892
     atom   46 type  4   force =    -0.00018105    0.00047400   -0.00019087
     atom   47 type  4   force =    -0.00032350   -0.00044691    0.00062012
     atom   48 type  4   force =    -0.00054359   -0.00006868    0.00193382
     atom   49 type  4   force =    -0.00043761    0.00008327    0.01031534
     atom   50 type  4   force =     0.00022565    0.00020636    0.00007028
     atom   51 type  4   force =     0.00021920   -0.00047602   -0.00014943
     atom   52 type  5   force =     0.00098754    0.00041329    0.00129298
     atom   53 type  5   force =    -0.00019882   -0.00095685   -0.00002300

     Total force =     0.374354     Total SCF correction =     0.000825
  @ DRIVER MODE: Message from server: STATUS
  @ DRIVER MODE: Message from server: GETFORCE
  @ DRIVER MODE: Returning v,forces,stress,ensemble

     Writing output data file ./calc.save/
  @ DRIVER MODE: Message from server: EXIT
  @ DRIVE MODE: Exiting

     General routines

     Parallel routines

   This run was terminated on:  17:38:59  14Sep2021

   JOB DONE.