     Program PWSCF v.6.7GPU starts on 22Sep2021 at 18:45:15

     R & G space division:  proc/nbgrp/npool/nimage =      10
     Reading input from /storage/home/hcoda1/3/ntian30/research/carbon/CxH_vib/H2O_calc/ads_slab/CHON2HO_d/out_0007/pw.inp
Warning: card &CELL ignored
Warning: card   CELL_DYNAMICS='IPI', ignored
Warning: card / ignored

     Current dimensions of program PWSCF are:
     Max number of different atomic species (ntypx) = 10
     Max number of k-points (npk) =  40000
     Max angular momentum in pseudopotentials (lmaxx) =  3
     Presently no symmetry can be used with electric field

     Message from routine cell_base_init:
     DEPRECATED: use true lattice parameter, not A to a.u. conversion factor

     IMPORTANT: XC functional enforced from input :
     Exchange-correlation= BEEF-VDW
                           (   1   4  43  14   2   0   0)
     Any further DFT definition will be discarded
     Please, verify this is what you really want

  @ DRIVER MODE: Connecting to
 qe_1139763_2937317.sched-torque.pace.gatech.edu58u1nr99_scratch
  using UNIX socket
  @ DRIVER MODE: Message from server: STATUS
  @ DRIVER MODE: Message from server: INIT
  @ DRIVER MODE: Receiving replica           0          -1
  @ DRIVER MODE: Receiving encoded integer          25
  @ DRIVER MODE:  SCF:  T  FORCE:  T  STRESS:  F  VC:  F  ENSEMBLE:  F
  @ DRIVER MODE:  SCF:  T  FORCE:  T  STRESS:  F  VC:  F  ENSEMBLE:  F

     Using Slab Decomposition

     bravais-lattice index     =            0
     lattice parameter (alat)  =       1.8897  a.u.
     unit-cell volume          =    6658.9804 (a.u.)^3
     number of atoms/cell      =           54
     number of atomic types    =            5
     number of electrons       =       406.00
     number of Kohn-Sham states=          213
     kinetic-energy cutoff     =      29.3995  Ry
     charge density cutoff     =     293.9946  Ry
     scf convergence threshold =      7.3E-08
     mixing beta               =       0.0500
     number of iterations used =            8  plain     mixing
     Exchange-correlation= BEEF-VDW
                           (   1   4  43  14   2   0   0)

     celldm(1)=   1.889726  celldm(2)=   0.000000  celldm(3)=   0.000000
     celldm(4)=   0.000000  celldm(5)=   0.000000  celldm(6)=   0.000000

     crystal axes: (cart. coord. in units of alat)
               a(1) = (   6.579727   0.000000   0.000000 )
               a(2) = (  -0.000775   5.961596   0.000000 )
               a(3) = (   0.000000   0.000000  25.155947 )

     reciprocal axes: (cart. coord. in units 2 pi/alat)
               b(1) = (  0.151982  0.000020  0.000000 )
               b(2) = (  0.000000  0.167740  0.000000 )
               b(3) = (  0.000000  0.000000  0.039752 )

     PseudoPot. # 1 for O  read from file:
     /storage/coda1/p-amedford6/0/shared/rich_project_chbe-medford/medford-share/data/pseudos_module/espresso/nninc/pbe/van/O.UPF
     MD5 check sum: 78c19812648e8988a0fe644b0f25305e
     Pseudo is Ultrasoft, Zval =  6.0
     Generated by new atomic code, or converted to UPF format
     Using radial grid of  737 points,  4 beta functions with:
                l(1) =   0
                l(2) =   0
                l(3) =   1
                l(4) =   1
     Q(r) pseudized with  8 coefficients,  rinner =    0.800   0.800   0.800

     PseudoPot. # 2 for Ti read from file:
     /storage/coda1/p-amedford6/0/shared/rich_project_chbe-medford/medford-share/data/pseudos_module/espresso/nninc/pbe/van/Ti.UPF
     MD5 check sum: 8e4df49b7f0d34bbd5052bf3f5ea0213
     Pseudo is Ultrasoft, Zval = 12.0
     Generated by new atomic code, or converted to UPF format
     Using radial grid of  851 points,  6 beta functions with:
                l(1) =   0
                l(2) =   0
                l(3) =   1
                l(4) =   1
                l(5) =   2
                l(6) =   2
     Q(r) pseudized with  8 coefficients,  rinner =    1.000   1.000   1.000
                                                       1.000   1.000

     PseudoPot. # 3 for C  read from file:
     /storage/coda1/p-amedford6/0/shared/rich_project_chbe-medford/medford-share/data/pseudos_module/espresso/nninc/pbe/van/C.UPF
     MD5 check sum: 1a69bf6b8db32088f5b2163dbdb77a27
     Pseudo is Ultrasoft, Zval =  4.0
     Generated by new atomic code, or converted to UPF format
     Using radial grid of  721 points,  4 beta functions with:
                l(1) =   0
                l(2) =   0
                l(3) =   1
                l(4) =   1
     Q(r) pseudized with  8 coefficients,  rinner =    0.800   0.800   0.800

     PseudoPot. # 4 for H  read from file:
     /storage/coda1/p-amedford6/0/shared/rich_project_chbe-medford/medford-share/data/pseudos_module/espresso/nninc/pbe/van/H.UPF
     MD5 check sum: b5ee9d7bfd3a09ee7748110bda690ff7
     Pseudo is Ultrasoft, Zval =  1.0
     Generated by new atomic code, or converted to UPF format
     Using radial grid of  615 points,  1 beta functions with:
                l(1) =   0
     Q(r) pseudized with  8 coefficients,  rinner =    0.800

     PseudoPot. # 5 for N  read from file:
     /storage/coda1/p-amedford6/0/shared/rich_project_chbe-medford/medford-share/data/pseudos_module/espresso/nninc/pbe/van/N.UPF
     MD5 check sum: 90d10febe142ad51ac9d5be1deb811c4
     Pseudo is Ultrasoft, Zval =  5.0
     Generated by new atomic code, or converted to UPF format
     Using radial grid of  729 points,  4 beta functions with:
                l(1) =   0
                l(2) =   0
                l(3) =   1
                l(4) =   1
     Q(r) pseudized with  8 coefficients,  rinner =    0.800   0.800   0.800

     atomic species   valence    mass     pseudopotential
        O1             6.00    15.99900     O ( 1.00)
        Ti1           12.00    47.86700     Ti( 1.00)
        C1             4.00    12.01100     C ( 1.00)
        H1             1.00     1.00800     H ( 1.00)
        N1             5.00    14.00700     N ( 1.00)

     No symmetry found

   Cartesian axes

     site n.     atom                  positions (alat units)
         1           O1  tau(   1) = (   3.2904802   0.0005063   4.7018136  )
         2           O1  tau(   2) = (   3.2900926   2.9813045   4.7018136  )
         3           Ti1 tau(   3) = (   0.0004258   2.9801865   6.0000000  )
         4           Ti1 tau(   4) = (   0.0000382   5.9609847   6.0000000  )
         5           Ti1 tau(   5) = (   3.2906075   1.4906267   6.0002472  )
         6           Ti1 tau(   6) = (   3.2902200   4.4714249   6.0002472  )
         7           O1  tau(   7) = (   1.3043587   1.4918075   6.0039043  )
         8           O1  tau(   8) = (   1.3039711   4.4726057   6.0039043  )
         9           O1  tau(   9) = (   5.2767064   1.4903225   6.0039473  )
        10           O1  tau(  10) = (   5.2763189   4.4711207   6.0039473  )
        11           O1  tau(  11) = (   3.2906025   0.0005020   7.3038282  )
        12           O1  tau(  12) = (   3.2902150   2.9813002   7.3038282  )
        13           O1  tau(  13) = (   0.0006271   0.0005054   7.9858123  )
        14           O1  tau(  14) = (   0.0002396   2.9813036   7.9858123  )
        15           Ti1 tau(  15) = (   3.2350752   0.0608747   9.1773017  )
        16           Ti1 tau(  16) = (   3.2297482   3.0449837   9.2258248  )
        17           Ti1 tau(  17) = (   6.5035314   4.4790947   9.3419400  )
        18           O1  tau(  18) = (   4.5942328   1.4918067   9.2879030  )
        19           O1  tau(  19) = (   4.5938453   4.4726049   9.2879030  )
        20           O1  tau(  20) = (   1.9868534   1.4903216   9.2879459  )
        21           O1  tau(  21) = (   1.9864658   4.4711199   9.2879459  )
        22           Ti1 tau(  22) = (   6.5047199   1.5482117   9.3251357  )
        23           O1  tau(  23) = (   6.5709586   2.9893791  10.5365161  )
        24           O1  tau(  24) = (   6.5791863   0.0068326  10.5847705  )
        25           O1  tau(  25) = (   3.2737170   2.9471243  11.2864913  )
        26           O1  tau(  26) = (   3.2757665   0.0160177  11.3056520  )
        27           Ti1 tau(  27) = (   3.3024496   1.5456137  12.4328335  )
        28           Ti1 tau(  28) = (   0.0381823   0.0558990  12.5328616  )
        29           Ti1 tau(  29) = (   3.2867454   4.6490159  12.6676011  )
        30           O1  tau(  30) = (   1.2579511   1.4933188  12.6274103  )
        31           O1  tau(  31) = (   5.2930440   1.4968169  12.6131059  )
        32           O1  tau(  32) = (   1.2503383   4.4760527  12.6363980  )
        33           O1  tau(  33) = (   5.2887019   4.4660859  12.6249461  )
        34           Ti1 tau(  34) = (   6.5320965   3.0346479  12.8073368  )
        35           O1  tau(  35) = (   3.2762579   2.9735537  13.8874883  )
        36           O1  tau(  36) = (   3.2793791   5.9387796  13.8789893  )
        37           O1  tau(  37) = (   6.5412754   2.9812497  14.6926498  )
        38           O1  tau(  38) = (   6.5531526   0.0082392  14.6823945  )
        39           Ti1 tau(  39) = (   3.2668636   2.9663550  15.6683660  )
        40           Ti1 tau(  40) = (   3.2982107   5.9440960  16.3508785  )
        41           Ti1 tau(  41) = (   0.0141158   4.5598071  15.9269461  )
        42           O1  tau(  42) = (   4.5124726   4.4172202  16.0573870  )
        43           O1  tau(  43) = (   1.9821766   4.4208814  16.0404589  )
        44           O1  tau(  44) = (   4.4954461   1.5000296  16.1066544  )
        45           O1  tau(  45) = (   1.9782815   1.5221889  16.0619205  )
        46           Ti1 tau(  46) = (   0.0269324   1.3869748  16.0447141  )
        47           O1  tau(  47) = (   6.5379229   5.9414530  17.1901000  )
        48           O1  tau(  48) = (   6.5175113   2.9840192  17.3772383  )
        49           C1  tau(  49) = (   5.9642390   3.1768082  18.5865123  )
        50           H1  tau(  50) = (   5.8341806   4.1706531  18.9840957  )
        51           N1  tau(  51) = (   5.5886240   2.1683037  19.3003467  )
        52           N1  tau(  52) = (   5.2398892   1.2394158  19.8970451  )
        53           O1  tau(  53) = (   3.2183551   5.8834210  18.1446619  )
        54           H1  tau(  54) = (   3.7026433   0.4006729  18.8445816  )

     number of k points=    10  Fermi-Dirac smearing, width (Ry)=  0.0073
                       cart. coord. in units 2pi/alat
        k(    1) = (   0.0000000   0.0000000   0.0000000), wk =   0.1250000
        k(    2) = (   0.0000000   0.0419351   0.0000000), wk =   0.2500000
        k(    3) = (   0.0000000  -0.0838702   0.0000000), wk =   0.1250000
        k(    4) = (   0.0379955   0.0000049   0.0000000), wk =   0.2500000
        k(    5) = (   0.0379955   0.0419400   0.0000000), wk =   0.2500000
        k(    6) = (   0.0379955  -0.0838652   0.0000000), wk =   0.2500000
        k(    7) = (   0.0379955  -0.0419301   0.0000000), wk =   0.2500000
        k(    8) = (  -0.0759910  -0.0000099   0.0000000), wk =   0.1250000
        k(    9) = (  -0.0759910   0.0419252   0.0000000), wk =   0.2500000
        k(   10) = (  -0.0759910  -0.0838800   0.0000000), wk =   0.1250000

     Initial potential from superposition of free atoms

     starting charge  389.99917, renormalised to  406.00000

     negative rho (up, down):  1.659E-02 0.000E+00

     %%%%%%%%%%%%%%%%%%%%%%%%%%%%%%%%%%%%%%%%%%%%%%%%%%%%%%%%%%%%%%%%%%%%%%%%
     %                                                                      %
     % You are using vdW-DF, which was implemented by the Thonhauser group. %
     % Please cite the following two papers that made this development      %
     % possible and the two reviews that describe the various versions:     %
     %                                                                      %
     %   T. Thonhauser et al., PRL 115, 136402 (2015).                      %
     %   T. Thonhauser et al., PRB 76, 125112 (2007).                       %
     %   K. Berland et al., Rep. Prog. Phys. 78, 066501 (2015).             %
     %   D.C. Langreth et al., J. Phys.: Condens. Matter 21, 084203 (2009). %
     %                                                                      %
     %                                                                      %
     % If you are calculating the stress with vdW-DF, please also cite:     %
     %                                                                      %
     %   R. Sabatini et al., J. Phys.: Condens. Matter 24, 424209 (2012).   %
     %                                                                      %
     %%%%%%%%%%%%%%%%%%%%%%%%%%%%%%%%%%%%%%%%%%%%%%%%%%%%%%%%%%%%%%%%%%%%%%%%

     Adding external electric field

     Computed dipole along edir(3) :
        Dipole              -13.7787 Ry au,        -35.0219 Debye
        Dipole field         -0.0260 Ry au,

        Potential amp.        2.4104 Ry
        Total length         46.3494 bohr

     Starting wfcs are  306 atomic wfcs
  @ DRIVER MODE: Message from server: STATUS
  @ DRIVER MODE: Message from server: POSDATA
  @ DRIVER MODE: Reading and sharing cell
  @ DRIVER MODE: Reading and sharing positions
  @ DRIVER MODE: Received positions

     Self-consistent Calculation

     iteration #  1     ecut=    29.40 Ry     beta= 0.05
     Davidson diagonalization with overlap
     c_bands:  1 eigenvalues not converged
     c_bands:  1 eigenvalues not converged
     c_bands:  5 eigenvalues not converged
     c_bands:  5 eigenvalues not converged
     ethr =  1.00E-05,  avg # of iterations = 30.7

[...]

     total energy              =   -2308.81907715 Ry
     estimated scf accuracy    <    7885.93485562 Ry

     iteration #  2     ecut=    29.40 Ry     beta= 0.05
     Davidson diagonalization with overlap
     ethr =  1.00E-02,  avg # of iterations = 26.4

[...]

     iteration # 54     ecut=    29.40 Ry     beta= 0.05
     Davidson diagonalization with overlap
     c_bands:  1 eigenvalues not converged
     ethr =  1.16E-07,  avg # of iterations =  7.1

[...]

     total energy              =   -3002.64634543 Ry
     estimated scf accuracy    <       0.00000016 Ry

     iteration # 72     ecut=    29.40 Ry     beta= 0.05
     Davidson diagonalization with overlap
     ethr =  4.01E-11,  avg # of iterations =  5.7

     negative rho (up, down):  1.647E-02 0.000E+00

     Adding external electric field

     Computed dipole along edir(3) :
        Dipole                0.4124 Ry au,          1.0481 Debye
        Dipole field          0.0008 Ry au,

        Potential amp.       -0.0721 Ry
        Total length         46.3494 bohr

     End of self-consistent calculation

          k = 0.0000 0.0000 0.0000 ( 18029 PWs)   bands (ev):

   -56.2558 -56.1990 -55.7645 -55.7082 -55.7081 -55.6871 -55.6605 -55.6500
   -55.6192 -55.6142 -55.5734 -55.5521 -55.4897 -55.3182 -54.9055 -54.8716
   -32.6706 -32.5317 -32.4662 -32.4260 -32.3275 -32.2953 -32.2430 -32.2189
   -32.2008 -32.1009 -32.0640 -32.0054 -32.0015 -31.9941 -31.9808 -31.9600
   -31.9521 -31.9508 -31.9294 -31.9187 -31.8679 -31.8658 -31.8621 -31.8552
   -31.8532 -31.8363 -31.8343 -31.8148 -31.8141 -31.8103 -31.8044 -31.7717
   -31.7714 -31.7691 -31.7416 -31.7313 -31.7240 -31.7210 -31.6913 -31.5781
   -31.5369 -31.5283 -31.3021 -31.2435 -31.2193 -31.1186 -31.0333 -30.9221
   -20.5485 -18.6360 -16.5026 -16.4666 -16.3093 -16.1033 -15.9417 -15.8708
   -15.6796 -15.5945 -15.5301 -15.5025 -15.4731 -15.3881 -15.3558 -15.3018
   -15.2585 -15.2436 -15.2159 -15.2022 -15.1885 -15.1875 -15.1874 -15.1550
   -15.1136 -15.0167 -14.9481 -14.9094 -14.8907 -14.8808 -14.8414 -14.5322
   -13.5649 -13.4074 -13.2978  -6.9372  -5.8824  -4.9261  -4.3615  -3.9634
    -3.7864  -3.6935  -3.6299  -3.5654  -3.5301  -3.3394  -3.2974  -3.1503
    -3.0278  -2.9458  -2.8729  -2.8543  -2.8329  -2.7929  -2.7331  -2.7004
    -2.6693  -2.6359  -2.5812  -2.5421  -2.5116  -2.4807  -2.4687  -2.4327
    -2.4128  -2.4108  -2.2660  -2.2201  -2.1785  -2.1709  -2.1459  -2.1248
    -2.1013  -2.0699  -2.0578  -2.0019  -1.9281  -1.8429  -1.8281  -1.7395
    -1.7093  -1.5367  -1.4774  -1.4013  -1.3696  -1.2019  -1.1759  -1.1697
    -1.1466  -1.1257  -1.0007  -0.9704  -0.9327  -0.9236  -0.8882  -0.8676
    -0.8399  -0.7368  -0.6702  -0.6308  -0.6162  -0.5514  -0.4535  -0.3788
    -0.3542  -0.3210  -0.2881  -0.1855  -0.1542  -0.1121  -0.1049  -0.0430
    -0.0078   0.0138   0.0699   0.0980   0.1515   0.1681   0.1852   0.2255
     0.2352   0.2808   0.3503   0.4132   0.5097   0.5309   0.5562   0.5922
     0.6739   0.7470   0.8264   1.0100   1.1125   1.1530   1.3188   1.3629
     1.6631   1.7108   2.5218   3.0352   3.1875   3.4519   3.5035   3.5403
     3.5844   3.6372   3.7686   3.8804   3.9373

[...]

          k = 0.0380-0.0419 0.0000 ( 17876 PWs)   bands (ev):

[...]

          k =-0.0760-0.0000 0.0000 ( 17886 PWs)   bands (ev):

[...]

          k =-0.0760-0.0839 0.0000 ( 17948 PWs)   bands (ev):

   -56.2502 -56.2044 -55.7619 -55.7067 -55.7005 -55.6826 -55.6680 -55.6524
   -55.6237 -55.6052 -55.5825 -55.5531 -55.4880 -55.3198 -54.8887 -54.8882
   -32.5281 -32.5062 -32.4687 -32.4672 -32.3942 -32.3561 -32.1467 -32.0666
   -32.0590 -32.0209 -32.0101 -31.9785 -31.9773 -31.9740 -31.9507 -31.9476
   -31.9348 -31.9327 -31.9291 -31.9217 -31.9067 -31.9038 -31.8784 -31.8777
   -31.8726 -31.8687 -31.8661 -31.8576 -31.8444 -31.8353 -31.8216 -31.8200
   -31.8182 -31.8081 -31.7967 -31.7755 -31.7564 -31.7244 -31.6950 -31.6524
   -31.5769 -31.5310 -31.2324 -31.2322 -31.1176 -31.1154 -31.0754 -31.0743
   -20.5470 -18.6240 -16.4804 -15.8317 -15.8206 -15.7919 -15.7517 -15.7050
   -15.6900 -15.6207 -15.6127 -15.5833 -15.5042 -15.4410 -15.3849 -15.3613
   -15.3585 -15.3358 -15.3074 -15.2687 -15.2458 -15.2383 -15.2266 -15.1727
   -15.1516 -15.1457 -15.1235 -15.1018 -15.0732 -15.0353 -14.8972 -14.6901
   -13.5722 -13.4023 -13.4004  -6.9095  -5.8971  -4.9248  -4.3500  -3.6065
    -3.2816  -3.0902  -3.0599  -2.9813  -2.9243  -2.8267  -2.8051  -2.7836
    -2.7736  -2.7577  -2.7343  -2.7032  -2.6530  -2.6269  -2.5921  -2.5823
    -2.5736  -2.5543  -2.5451  -2.5145  -2.4983  -2.4809  -2.4624  -2.4445
    -2.4278  -2.4153  -2.3436  -2.3113  -2.2747  -2.1117  -2.1016  -2.0989
    -2.0714  -2.0517  -2.0416  -1.9816  -1.9207  -1.9117  -1.8596  -1.8452
    -1.7542  -1.6996  -1.5310  -1.4983  -1.4735  -1.3940  -1.3382  -1.3026
    -1.2808  -1.2479  -1.2146  -1.2026  -1.1629  -1.1102  -1.0340  -1.0091
    -0.9628  -0.9528  -0.9439  -0.8597  -0.7886  -0.7713  -0.7279  -0.7084
    -0.6852  -0.6456  -0.5924  -0.5591  -0.5456  -0.5311  -0.4349  -0.3843
    -0.3302  -0.2250  -0.1911  -0.1320  -0.0192   0.0625   0.0751   0.1723
     0.2142   0.3127   0.3531   0.4049   0.4431   0.4696   0.5005   0.6170
     0.6356   0.6814   0.7599   0.7760   0.8054   0.8541   1.5015   1.5087
     1.5194   1.5208   2.4415   3.5576   3.5855   3.6040   3.6431   3.8434
     3.8743   3.8905   3.9216   3.9370   3.9912

     the Fermi energy is     2.8356 ev

!    total energy              =   -3002.64636235 Ry
     estimated scf accuracy    <       0.00000005 Ry
     smearing contrib. (-TS)   =      -0.00419793 Ry
     internal energy E=F+TS    =   -3002.64216442 Ry

     The total energy is F=E-TS. E is the sum of the following terms:
     one-electron contribution =  -23370.29047095 Ry
     hartree contribution      =   11779.00454079 Ry
     xc contribution           =    -498.79022118 Ry
     ewald contribution        =    9087.43366602 Ry
     electric field correction =       0.00032089 Ry

     convergence has been achieved in  72 iterations

     Forces acting on atoms (cartesian axes, Ry/au):

     atom    1 type  1   force =     0.00016564    0.00010366    0.09958726
     atom    2 type  1   force =     0.00014747    0.00020702    0.09909837
     atom    3 type  2   force =     0.00018838    0.00034128    0.12398700
     atom    4 type  2   force =     0.00043952    0.00004510    0.13856811
     atom    5 type  2   force =    -0.00009581    0.00965690   -0.15992494
     atom    6 type  2   force =     0.00008945   -0.00873753   -0.15971043
     atom    7 type  1   force =    -0.07912671    0.00146474   -0.03324287
     atom    8 type  1   force =    -0.07915731   -0.00182048   -0.03328250
     atom    9 type  1   force =     0.07908372    0.00179461   -0.03332072
     atom   10 type  1   force =     0.07911365   -0.00147406   -0.03329749
     atom   11 type  1   force =    -0.00114163    0.00062813    0.04286232
     atom   12 type  1   force =    -0.00114834    0.00003433    0.04551458
     atom   13 type  1   force =    -0.00039406   -0.00173581   -0.05074882
     atom   14 type  1   force =    -0.00085719    0.00123905   -0.04795712
     atom   15 type  2   force =    -0.00034318   -0.00004516    0.00020632
     atom   16 type  2   force =    -0.00033616    0.00005340   -0.00006816
     atom   17 type  2   force =     0.00022473   -0.00038112   -0.00005706
     atom   18 type  1   force =    -0.01154121   -0.00689826   -0.00026591
     atom   19 type  1   force =    -0.01367075    0.00098379    0.00208969
     atom   20 type  1   force =     0.01284127   -0.00248554   -0.00228551
     atom   21 type  1   force =     0.01409838    0.00576754    0.00034221
     atom   22 type  2   force =     0.00030625    0.00004273    0.00035642
     atom   23 type  1   force =    -0.00010077   -0.00009155   -0.00016215
     atom   24 type  1   force =    -0.00025973   -0.00000387    0.00022668
     atom   25 type  1   force =     0.00023219    0.00034569   -0.00028015
     atom   26 type  1   force =     0.00034987    0.00012742   -0.00043915
     atom   27 type  2   force =    -0.00030653   -0.00043757    0.00047065
     atom   28 type  2   force =     0.00052258   -0.00030839    0.00016316
     atom   29 type  2   force =    -0.00014726    0.00022780    0.00031287
     atom   30 type  1   force =    -0.00031682   -0.00036599   -0.00028975
     atom   31 type  1   force =     0.00047863   -0.00005622    0.00008064
     atom   32 type  1   force =    -0.00029327    0.00041540   -0.00003670
     atom   33 type  1   force =     0.00022742    0.00035916    0.00006231
     atom   34 type  2   force =     0.00041336    0.00018225   -0.00007396
     atom   35 type  1   force =     0.00005865   -0.00011996   -0.00058048
     atom   36 type  1   force =     0.00007998   -0.00004321    0.00020380
     atom   37 type  1   force =     0.00001911   -0.00021856    0.00027884
     atom   38 type  1   force =     0.00001349    0.00047947   -0.00027661
     atom   39 type  2   force =     0.00005455    0.00038919    0.00054833
     atom   40 type  2   force =    -0.00009857   -0.00024099   -0.00028945
     atom   41 type  2   force =    -0.00028819    0.00010858    0.00036348
     atom   42 type  1   force =     0.00020309    0.00022813   -0.00019549
     atom   43 type  1   force =    -0.00040815    0.00012466   -0.00018773
     atom   44 type  1   force =     0.00038764   -0.00005475    0.00041111
     atom   45 type  1   force =    -0.00070669    0.00002422    0.00033721
     atom   46 type  2   force =    -0.00008538    0.00052791    0.00029783
     atom   47 type  1   force =    -0.00000988    0.00022968    0.00004470
     atom   48 type  1   force =    -0.00176631    0.00061668    0.00300351
     atom   49 type  3   force =     0.00541080    0.00188733   -0.00810285
     atom   50 type  4   force =    -0.00098114    0.00153188    0.00149061
     atom   51 type  5   force =    -0.00240661   -0.00375946    0.00327184
     atom   52 type  5   force =     0.00044479   -0.00076347    0.00018055
     atom   53 type  1   force =     0.00044583    0.00040407    0.00057835
     atom   54 type  4   force =    -0.00005278   -0.00052988    0.00013723

     Total force =     0.380498     Total SCF correction =     0.000568
  @ DRIVER MODE: Message from server: STATUS
  @ DRIVER MODE: Message from server: GETFORCE
  @ DRIVER MODE: Returning v,forces,stress,ensemble

     Writing output data file ./calc.save/
  @ DRIVER MODE: Message from server: EXIT
  @ DRIVE MODE: Exiting

     General routines

     Parallel routines

   This run was terminated on:  19: 5:42  22Sep2021

   JOB DONE.