     Program PWSCF v.6.7GPU starts on  8Sep2021 at 22:30:30

     R & G space division:  proc/nbgrp/npool/nimage =      10
     Reading input from /storage/home/hcoda1/3/ntian30/research/carbon/CxH_vib/CH3_calc/ads_slab/CH3NHNH_a/out_0002/pw.inp
Warning: card &CELL ignored
Warning: card   CELL_DYNAMICS='IPI', ignored
Warning: card / ignored

     Current dimensions of program PWSCF are:
     Max number of different atomic species (ntypx) = 10
     Max number of k-points (npk) =  40000
     Max angular momentum in pseudopotentials (lmaxx) =  3
     Presently no symmetry can be used with electric field

     Message from routine cell_base_init:
     DEPRECATED: use true lattice parameter, not A to a.u. conversion factor

     IMPORTANT: XC functional enforced from input :
     Exchange-correlation= BEEF-VDW
                           (   1   4  43  14   2   0   0)
     Any further DFT definition will be discarded
     Please, verify this is what you really want

  @ DRIVER MODE: Connecting to
 qe_1139763_2767401.sched-torque.pace.gatech.eduic6ks7g2_scratch
  using UNIX socket
  @ DRIVER MODE: Message from server: STATUS
  @ DRIVER MODE: Message from server: INIT
  @ DRIVER MODE: Receiving replica           0          -1
  @ DRIVER MODE: Receiving encoded integer          25
  @ DRIVER MODE:  SCF:  T  FORCE:  T  STRESS:  F  VC:  F  ENSEMBLE:  F
  @ DRIVER MODE:  SCF:  T  FORCE:  T  STRESS:  F  VC:  F  ENSEMBLE:  F

     Using Slab Decomposition

     bravais-lattice index     =            0
     lattice parameter (alat)  =       1.8897  a.u.
     unit-cell volume          =    6658.9804 (a.u.)^3
     number of atoms/cell      =           55
     number of atomic types    =            5
     number of electrons       =       397.00
     number of Kohn-Sham states=          208
     kinetic-energy cutoff     =      29.3995  Ry
     charge density cutoff     =     293.9946  Ry
     scf convergence threshold =      7.3E-08
     mixing beta               =       0.0500
     number of iterations used =            8  plain     mixing
     Exchange-correlation= BEEF-VDW
                           (   1   4  43  14   2   0   0)

     celldm(1)=   1.889726  celldm(2)=   0.000000  celldm(3)=   0.000000
     celldm(4)=   0.000000  celldm(5)=   0.000000  celldm(6)=   0.000000

     crystal axes: (cart. coord. in units of alat)
               a(1) = (   6.579727   0.000000   0.000000 )
               a(2) = (  -0.000775   5.961596   0.000000 )
               a(3) = (   0.000000   0.000000  25.155947 )

     reciprocal axes: (cart. coord. in units 2 pi/alat)
               b(1) = (  0.151982  0.000020  0.000000 )
               b(2) = (  0.000000  0.167740  0.000000 )
               b(3) = (  0.000000  0.000000  0.039752 )

     PseudoPot. # 1 for Ti read from file:
     /storage/coda1/p-amedford6/0/shared/rich_project_chbe-medford/medford-share/data/pseudos_module/espresso/nninc/pbe/van/Ti.UPF
     MD5 check sum: 8e4df49b7f0d34bbd5052bf3f5ea0213
     Pseudo is Ultrasoft, Zval = 12.0
     Generated by new atomic code, or converted to UPF format
     Using radial grid of  851 points,  6 beta functions with:
                l(1) =   0
                l(2) =   0
                l(3) =   1
                l(4) =   1
                l(5) =   2
                l(6) =   2
     Q(r) pseudized with  8 coefficients,  rinner =    1.000   1.000   1.000
                                                       1.000   1.000

     PseudoPot. # 2 for O  read from file:
     /storage/coda1/p-amedford6/0/shared/rich_project_chbe-medford/medford-share/data/pseudos_module/espresso/nninc/pbe/van/O.UPF
     MD5 check sum: 78c19812648e8988a0fe644b0f25305e
     Pseudo is Ultrasoft, Zval =  6.0
     Generated by new atomic code, or converted to UPF format
     Using radial grid of  737 points,  4 beta functions with:
                l(1) =   0
                l(2) =   0
                l(3) =   1
                l(4) =   1
     Q(r) pseudized with  8 coefficients,  rinner =    0.800   0.800   0.800

     PseudoPot. # 3 for N  read from file:
     /storage/coda1/p-amedford6/0/shared/rich_project_chbe-medford/medford-share/data/pseudos_module/espresso/nninc/pbe/van/N.UPF
     MD5 check sum: 90d10febe142ad51ac9d5be1deb811c4
     Pseudo is Ultrasoft, Zval =  5.0
     Generated by new atomic code, or converted to UPF format
     Using radial grid of  729 points,  4 beta functions with:
                l(1) =   0
                l(2) =   0
                l(3) =   1
                l(4) =   1
     Q(r) pseudized with  8 coefficients,  rinner =    0.800   0.800   0.800

     PseudoPot. # 4 for C  read from file:
     /storage/coda1/p-amedford6/0/shared/rich_project_chbe-medford/medford-share/data/pseudos_module/espresso/nninc/pbe/van/C.UPF
     MD5 check sum: 1a69bf6b8db32088f5b2163dbdb77a27
     Pseudo is Ultrasoft, Zval =  4.0
     Generated by new atomic code, or converted to UPF format
     Using radial grid of  721 points,  4 beta functions with:
                l(1) =   0
                l(2) =   0
                l(3) =   1
                l(4) =   1
     Q(r) pseudized with  8 coefficients,  rinner =    0.800   0.800   0.800

     PseudoPot. # 5 for H  read from file:
     /storage/coda1/p-amedford6/0/shared/rich_project_chbe-medford/medford-share/data/pseudos_module/espresso/nninc/pbe/van/H.UPF
     MD5 check sum: b5ee9d7bfd3a09ee7748110bda690ff7
     Pseudo is Ultrasoft, Zval =  1.0
     Generated by new atomic code, or converted to UPF format
     Using radial grid of  615 points,  1 beta functions with:
                l(1) =   0
     Q(r) pseudized with  8 coefficients,  rinner =    0.800

     atomic species   valence    mass     pseudopotential
        Ti1           12.00    47.86700     Ti( 1.00)
        O1             6.00    15.99900     O ( 1.00)
        N1             5.00    14.00700     N ( 1.00)
        C1             4.00    12.01100     C ( 1.00)
        H1             1.00     1.00800     H ( 1.00)

     No symmetry found

   Cartesian axes

     site n.     atom                  positions (alat units)
         1           Ti1 tau(   1) = (   0.0004258   2.9801865   6.0000000  )
         2           Ti1 tau(   2) = (   3.2906075   1.4906267   6.0002472  )
         3           O1  tau(   3) = (   0.0006271   0.0005054   7.9858123  )
         4           O1  tau(   4) = (   3.2906025   0.0005020   7.3038282  )
         5           O1  tau(   5) = (   4.5942328   1.4918067   9.2879030  )
         6           O1  tau(   6) = (   1.9868534   1.4903216   9.2879459  )
         7           Ti1 tau(   7) = (   3.2907910   2.8959150   9.1758416  )
         8           Ti1 tau(   8) = (   0.0015273   1.4827037   9.2680791  )
         9           O1  tau(   9) = (   3.2830128   5.9597860  11.3344455  )
        10           O1  tau(  10) = (   0.0116148   5.9584955  10.6183126  )
        11           O1  tau(  11) = (   1.2885291   1.4855062  12.6376555  )
        12           O1  tau(  12) = (   5.2724004   1.4911608  12.5936499  )
        13           Ti1 tau(  13) = (   0.0410009   3.0319447  12.6084003  )
        14           Ti1 tau(  14) = (   3.3739341   1.4916561  12.4823474  )
        15           O1  tau(  15) = (   6.4862162   0.0153916  14.6455093  )
        16           O1  tau(  16) = (   3.3439542   5.9611638  13.9051029  )
        17           O1  tau(  17) = (   4.4933269   1.5483200  16.1231154  )
        18           O1  tau(  18) = (   1.9964937   1.4536654  15.9127221  )
        19           Ti1 tau(  19) = (   3.1412959   3.0017366  15.7441667  )
        20           Ti1 tau(  20) = (   6.4823597   1.5369342  15.8006069  )
        21           O1  tau(  21) = (   3.2904802   0.0005063   4.7018136  )
        22           O1  tau(  22) = (   6.5709111   0.0522475  17.2082838  )
        23           O1  tau(  23) = (   1.3043587   1.4918075   6.0039043  )
        24           O1  tau(  24) = (   5.2767064   1.4903225   6.0039473  )
        25           Ti1 tau(  25) = (   0.0000382   5.9609847   6.0000000  )
        26           Ti1 tau(  26) = (   3.2902200   4.4714249   6.0002472  )
        27           O1  tau(  27) = (   0.0002396   2.9813036   7.9858123  )
        28           O1  tau(  28) = (   3.2902150   2.9813002   7.3038282  )
        29           O1  tau(  29) = (   4.5938453   4.4726049   9.2879030  )
        30           O1  tau(  30) = (   1.9864658   4.4711199   9.2879459  )
        31           Ti1 tau(  31) = (   3.2891106   5.8743827   9.1763621  )
        32           Ti1 tau(  32) = (   0.0006254   4.4649316   9.2693709  )
        33           O1  tau(  33) = (   3.2833609   2.9822938  11.3349093  )
        34           O1  tau(  34) = (   0.0092240   2.9805883  10.6323155  )
        35           O1  tau(  35) = (   1.2838611   4.4860338  12.6468719  )
        36           O1  tau(  36) = (   5.2760156   4.4607002  12.6015494  )
        37           Ti1 tau(  37) = (   0.0673138   0.0440259  12.5461749  )
        38           Ti1 tau(  38) = (   3.3712377   4.4654930  12.4933830  )
        39           O1  tau(  39) = (   6.5217465   2.9589972  14.6412948  )
        40           O1  tau(  40) = (   3.2809526   2.9956502  13.9333893  )
        41           O1  tau(  41) = (   4.4911989   4.4583117  16.1637052  )
        42           O1  tau(  42) = (   1.9937212   4.5427850  15.9740970  )
        43           Ti1 tau(  43) = (   3.2955853   0.0167752  15.6963065  )
        44           Ti1 tau(  44) = (   6.5082246   4.6715011  16.1069148  )
        45           O1  tau(  45) = (   3.2900926   2.9813045   4.7018136  )
        46           O1  tau(  46) = (   1.3039711   4.4726057   6.0039043  )
        47           O1  tau(  47) = (   5.2763189   4.4711207   6.0039473  )
        48           N1  tau(  48) = (   1.4045086   2.8365607  18.1849301  )
        49           N1  tau(  49) = (   0.1777896   2.9650562  17.4211889  )
        50           C1  tau(  50) = (   1.4118813   3.7128676  19.3556819  )
        51           H1  tau(  51) = (   0.5171711   3.5996102  19.9880000  )
        52           H1  tau(  52) = (   2.2935099   3.4681107  19.9517681  )
        53           H1  tau(  53) = (   1.4703795   4.7520035  19.0319817  )
        54           H1  tau(  54) = (   1.4579882   1.8621926  18.4823179  )
        55           H1  tau(  55) = (   5.9558665   2.8747675  18.0551794  )

     number of k points=    10  Fermi-Dirac smearing, width (Ry)=  0.0073
                       cart. coord. in units 2pi/alat
        k(    1) = (   0.0000000   0.0000000   0.0000000), wk =   0.1250000
        k(    2) = (   0.0000000   0.0419351   0.0000000), wk =   0.2500000
        k(    3) = (   0.0000000  -0.0838702   0.0000000), wk =   0.1250000
        k(    4) = (   0.0379955   0.0000049   0.0000000), wk =   0.2500000
        k(    5) = (   0.0379955   0.0419400   0.0000000), wk =   0.2500000
        k(    6) = (   0.0379955  -0.0838652   0.0000000), wk =   0.2500000
        k(    7) = (   0.0379955  -0.0419301   0.0000000), wk =   0.2500000
        k(    8) = (  -0.0759910  -0.0000099   0.0000000), wk =   0.1250000
        k(    9) = (  -0.0759910   0.0419252   0.0000000), wk =   0.2500000
        k(   10) = (  -0.0759910  -0.0838800   0.0000000), wk =   0.1250000

     Initial potential from superposition of free atoms

     starting charge  380.99914, renormalised to  397.00000

     negative rho (up, down):  1.540E-02 0.000E+00

     %%%%%%%%%%%%%%%%%%%%%%%%%%%%%%%%%%%%%%%%%%%%%%%%%%%%%%%%%%%%%%%%%%%%%%%%
     %                                                                      %
     % You are using vdW-DF, which was implemented by the Thonhauser group. %
     % Please cite the following two papers that made this development      %
     % possible and the two reviews that describe the various versions:     %
     %                                                                      %
     %   T. Thonhauser et al., PRL 115, 136402 (2015).                      %
     %   T. Thonhauser et al., PRB 76, 125112 (2007).                       %
     %   K. Berland et al., Rep. Prog. Phys. 78, 066501 (2015).             %
     %   D.C. Langreth et al., J. Phys.: Condens. Matter 21, 084203 (2009). %
     %                                                                      %
     %                                                                      %
     % If you are calculating the stress with vdW-DF, please also cite:     %
     %                                                                      %
     %   R. Sabatini et al., J. Phys.: Condens. Matter 24, 424209 (2012).   %
     %                                                                      %
     %%%%%%%%%%%%%%%%%%%%%%%%%%%%%%%%%%%%%%%%%%%%%%%%%%%%%%%%%%%%%%%%%%%%%%%%

     Adding external electric field

     Computed dipole along edir(3) :
        Dipole               -9.6180 Ry au,        -24.4465 Debye
        Dipole field         -0.0182 Ry au,

        Potential amp.        1.6825 Ry
        Total length         46.3494 bohr

     Starting wfcs are  301 atomic wfcs
  @ DRIVER MODE: Message from server: STATUS
  @ DRIVER MODE: Message from server: POSDATA
  @ DRIVER MODE: Reading and sharing cell
  @ DRIVER MODE: Reading and sharing positions
  @ DRIVER MODE: Received positions

     Self-consistent Calculation

     iteration #  1     ecut=    29.40 Ry     beta= 0.05
     Davidson diagonalization with overlap
     c_bands:  1 eigenvalues not converged
     c_bands:  1 eigenvalues not converged
     c_bands:  1 eigenvalues not converged
     c_bands:  1 eigenvalues not converged
     c_bands:  1 eigenvalues not converged
     c_bands:  1 eigenvalues not converged
     c_bands:  2 eigenvalues not converged
     ethr =  1.00E-05,  avg # of iterations = 18.8

[...]

     total energy              =   -2533.68648201 Ry
     estimated scf accuracy    <    4538.34608090 Ry

     iteration #  2     ecut=    29.40 Ry     beta= 0.05
     Davidson diagonalization with overlap
     ethr =  1.00E-02,  avg # of iterations = 24.1

[...]

     iteration # 68     ecut=    29.40 Ry     beta= 0.05
     Davidson diagonalization with overlap
     c_bands:  1 eigenvalues not converged
     ethr =  2.07E-10,  avg # of iterations = 14.6

[...]

     total energy              =   -2941.66147995 Ry
     estimated scf accuracy    <       0.00000013 Ry

     iteration # 73     ecut=    29.40 Ry     beta= 0.05
     Davidson diagonalization with overlap
     ethr =  3.20E-11,  avg # of iterations =  9.5

     negative rho (up, down):  1.608E-02 0.000E+00

     Adding external electric field

     Computed dipole along edir(3) :
        Dipole                0.9452 Ry au,          2.4025 Debye
        Dipole field          0.0018 Ry au,

        Potential amp.       -0.1654 Ry
        Total length         46.3494 bohr

     End of self-consistent calculation

          k = 0.0000 0.0000 0.0000 ( 18029 PWs)   bands (ev):

   -55.6850 -55.6684 -55.6509 -55.6318 -55.5911 -55.5368 -55.5301 -55.4998
   -55.4940 -55.4658 -55.4644 -55.4303 -55.2568 -55.0338 -54.6656 -54.6316
   -32.2194 -32.1680 -32.0414 -32.0316 -31.9981 -31.9834 -31.9779 -31.9548
   -31.9292 -31.8975 -31.8951 -31.8889 -31.8459 -31.8373 -31.8238 -31.8221
   -31.8055 -31.7898 -31.7819 -31.7464 -31.7422 -31.7357 -31.7199 -31.7164
   -31.6940 -31.6891 -31.6866 -31.6787 -31.6649 -31.6624 -31.6546 -31.6456
   -31.6403 -31.6302 -31.6175 -31.6074 -31.5766 -31.5071 -31.4630 -31.2997
   -31.2906 -31.2362 -31.0729 -30.9843 -30.9619 -30.8896 -30.8031 -30.6920
   -16.7236 -16.4151 -16.1608 -15.9300 -15.8404 -15.8104 -15.6579 -15.5264
   -15.4170 -15.3353 -15.2502 -15.2313 -15.2237 -15.2127 -15.1873 -15.1812
   -15.1346 -15.1296 -15.1100 -15.0971 -15.0473 -15.0306 -15.0274 -14.9323
   -14.8683 -14.8329 -14.8182 -14.7837 -14.7467 -14.3321 -13.1683 -13.0518
   -11.8069  -8.9918  -5.4069  -4.3503  -3.8390  -3.7875  -3.6435  -3.5927
    -3.5327  -3.4936  -3.3162  -3.2135  -2.9409  -2.8839  -2.8543  -2.8453
    -2.7884  -2.7572  -2.6003  -2.5741  -2.5032  -2.4937  -2.4788  -2.4500
    -2.4408  -2.4328  -2.3962  -2.3746  -2.3459  -2.2419  -2.1008  -2.0912
    -2.0698  -2.0368  -1.9990  -1.9506  -1.9346  -1.9136  -1.8955  -1.8827
    -1.8705  -1.7350  -1.7004  -1.5837  -1.4947  -1.4467  -1.3647  -1.2974
    -1.2594  -1.1565  -1.1171  -1.1011  -1.0889  -1.0794  -0.9800  -0.8742
    -0.8563  -0.8179  -0.7624  -0.7082  -0.6379  -0.5927  -0.5421  -0.4894
    -0.4646  -0.4499  -0.4470  -0.4120  -0.3224  -0.1791  -0.1273  -0.0929
    -0.0705   0.0061   0.0410   0.0973   0.1213   0.1453   0.1809   0.2338
     0.2774   0.2841   0.2975   0.3120   0.3167   0.4910   0.5410   0.5822
     0.6154   0.6617   0.8227   0.8449   0.9665   1.0384   1.1971   1.2818
     1.3564   1.4342   1.5481   1.5895   1.9277   1.9735   3.4455   3.5330
     3.5775   3.5913   3.6865   3.7288   3.8985   3.9287   3.9430   4.0034

[...]

          k = 0.0380-0.0419 0.0000 ( 17876 PWs)   bands (ev):

[...]

          k =-0.0760-0.0000 0.0000 ( 17886 PWs)   bands (ev):

[...]

          k =-0.0760-0.0839 0.0000 ( 17948 PWs)   bands (ev):

   -55.6683 -55.6674 -55.6537 -55.6462 -55.5851 -55.5426 -55.5175 -55.5066
   -55.4833 -55.4819 -55.4503 -55.4446 -55.2556 -55.0349 -54.6485 -54.6485
   -32.0285 -32.0188 -31.9836 -31.9828 -31.9638 -31.9628 -31.9430 -31.9365
   -31.8838 -31.8832 -31.8729 -31.8677 -31.8507 -31.8327 -31.8083 -31.8034
   -31.7991 -31.7955 -31.7890 -31.7888 -31.7874 -31.7870 -31.7838 -31.7435
   -31.7355 -31.7240 -31.7157 -31.7045 -31.6839 -31.6831 -31.6811 -31.6745
   -31.6647 -31.6607 -31.6567 -31.6543 -31.6130 -31.5096 -31.4597 -31.3620
   -31.2927 -31.2622 -30.9746 -30.9745 -30.8857 -30.8856 -30.8464 -30.8464
   -16.6950 -15.8632 -15.8021 -15.6443 -15.6090 -15.5895 -15.5544 -15.4936
   -15.4104 -15.3832 -15.3786 -15.3313 -15.3056 -15.2727 -15.2350 -15.2206
   -15.2133 -15.1946 -15.1822 -15.1487 -15.1392 -15.1274 -15.1203 -15.0447
   -15.0073 -15.0029 -14.9972 -14.8936 -14.7669 -14.4999 -13.1537 -13.1534
   -11.8135  -9.0061  -5.4210  -4.3375  -3.7638  -3.1560  -3.0689  -2.8942
    -2.8387  -2.8100  -2.7939  -2.6278  -2.6167  -2.6021  -2.5551  -2.5344
    -2.5256  -2.5161  -2.5072  -2.4862  -2.4734  -2.4368  -2.4282  -2.3937
    -2.3791  -2.3618  -2.3449  -2.3272  -2.3079  -2.2933  -2.2751  -2.2363
    -2.2153  -2.2053  -2.1848  -2.1412  -1.9311  -1.8808  -1.8336  -1.8253
    -1.8209  -1.8001  -1.7455  -1.7407  -1.7065  -1.6540  -1.5772  -1.4326
    -1.3874  -1.3710  -1.2778  -1.2562  -1.2031  -1.1313  -1.0853  -1.0684
    -1.0329  -0.9692  -0.9337  -0.8959  -0.8291  -0.8050  -0.7991  -0.7048
    -0.6839  -0.6482  -0.6415  -0.5627  -0.5107  -0.4495  -0.4342  -0.4179
    -0.3868  -0.3528  -0.3348  -0.2644  -0.1747  -0.1738  -0.1515  -0.0415
     0.0503   0.2775   0.3401   0.3772   0.4219   0.5158   0.5839   0.6089
     0.6247   0.6463   0.6657   0.7140   0.8408   0.8507   0.8851   0.9978
     1.0953   1.6029   1.7198   1.7206   1.7932   1.7935   3.7470   3.7653
     3.7858   3.8322   3.9514   3.9584   3.9807   3.9829   4.1055   4.1184

     the Fermi energy is     3.4471 ev

!    total energy              =   -2941.66149256 Ry
     estimated scf accuracy    <       0.00000006 Ry
     smearing contrib. (-TS)   =      -0.02151602 Ry
     internal energy E=F+TS    =   -2941.63997653 Ry

     The total energy is F=E-TS. E is the sum of the following terms:
     one-electron contribution =  -24275.85615081 Ry
     hartree contribution      =   12228.39851232 Ry
     xc contribution           =    -486.86670770 Ry
     ewald contribution        =    9592.68268357 Ry
     electric field correction =       0.00168610 Ry

     convergence has been achieved in  73 iterations

     Forces acting on atoms (cartesian axes, Ry/au):

     atom    1 type  1   force =     0.00017355   -0.00011433    0.09634292
     atom    2 type  1   force =    -0.00022462   -0.00063342   -0.17552768
     atom    3 type  2   force =    -0.00004088   -0.00003293   -0.02417588
     atom    4 type  2   force =     0.00004974   -0.00143705    0.05294180
     atom    5 type  2   force =    -0.01183668   -0.00049113    0.00395627
     atom    6 type  2   force =     0.01314309    0.00023074    0.00229239
     atom    7 type  1   force =    -0.00139087    0.00079447   -0.01151051
     atom    8 type  1   force =     0.00053481    0.00922156    0.02521101
     atom    9 type  2   force =    -0.00010999    0.00017268    0.00036817
     atom   10 type  2   force =    -0.00086651    0.00148474   -0.01580774
     atom   11 type  2   force =    -0.00018442   -0.00049670    0.00038524
     atom   12 type  2   force =    -0.00013681   -0.00026027    0.00001598
     atom   13 type  1   force =     0.00054911   -0.00092091    0.00008208
     atom   14 type  1   force =    -0.00008785   -0.00040078    0.00026073
     atom   15 type  2   force =     0.00015609   -0.00002034   -0.00030572
     atom   16 type  2   force =     0.00007155    0.00024785    0.00003895
     atom   17 type  2   force =    -0.00046635    0.00034908    0.00051909
     atom   18 type  2   force =     0.00015136    0.00000642    0.00015118
     atom   19 type  1   force =    -0.00002146   -0.00056738    0.00048424
     atom   20 type  1   force =     0.00028687    0.00053728    0.00074853
     atom   21 type  2   force =     0.00007560   -0.00007777    0.10317396
     atom   22 type  2   force =    -0.00044473   -0.00034719    0.00025869
     atom   23 type  2   force =    -0.07144883   -0.00017928   -0.02768381
     atom   24 type  2   force =     0.07137083    0.00025260   -0.02768458
     atom   25 type  1   force =     0.00002688   -0.00027194    0.09581116
     atom   26 type  1   force =    -0.00014819   -0.00023464   -0.17570129
     atom   27 type  2   force =     0.00009154   -0.00012813   -0.02327814
     atom   28 type  2   force =     0.00008133   -0.00129682    0.05336198
     atom   29 type  2   force =    -0.01196735   -0.00005682    0.00374989
     atom   30 type  2   force =     0.01321142    0.00042233    0.00212712
     atom   31 type  1   force =    -0.00140521    0.00344734   -0.01083243
     atom   32 type  1   force =     0.00063666   -0.01008678    0.02562288
     atom   33 type  2   force =    -0.00039209    0.00005210    0.00002870
     atom   34 type  2   force =     0.00075111    0.00090090   -0.02307944
     atom   35 type  2   force =    -0.00010048    0.00029069   -0.00003325
     atom   36 type  2   force =    -0.00022896    0.00059627   -0.00030147
     atom   37 type  1   force =    -0.00082344   -0.00102099   -0.00012933
     atom   38 type  1   force =    -0.00002502   -0.00009520   -0.00002279
     atom   39 type  2   force =    -0.00033875    0.00002888    0.00055646
     atom   40 type  2   force =     0.00050141    0.00024756    0.00024486
     atom   41 type  2   force =     0.00009684    0.00050937    0.00029310
     atom   42 type  2   force =     0.00011904    0.00040781   -0.00031281
     atom   43 type  1   force =     0.00014364    0.00009903   -0.00021226
     atom   44 type  1   force =    -0.00008177   -0.00071466    0.00015522
     atom   45 type  2   force =     0.00006931   -0.00008786    0.10322927
     atom   46 type  2   force =    -0.07144956   -0.00017264   -0.02768833
     atom   47 type  2   force =     0.07137447    0.00030793   -0.02770176
     atom   48 type  3   force =    -0.01083881    0.00140086   -0.00312971
     atom   49 type  3   force =     0.00537713   -0.00048018    0.00055026
     atom   50 type  4   force =     0.00312333   -0.00014001    0.00169903
     atom   51 type  5   force =     0.00114700   -0.00027837   -0.00141034
     atom   52 type  5   force =    -0.00025797    0.00139978    0.00018062
     atom   53 type  5   force =    -0.00023932   -0.00177599    0.00051340
     atom   54 type  5   force =     0.00096818   -0.00013473    0.00034257
     atom   55 type  5   force =     0.00127499   -0.00045304    0.00083152

     Total force =     0.367541     Total SCF correction =     0.000883
  @ DRIVER MODE: Message from server: STATUS
  @ DRIVER MODE: Message from server: GETFORCE
  @ DRIVER MODE: Returning v,forces,stress,ensemble

     Writing output data file ./calc.save/
  @ DRIVER MODE: Message from server: EXIT
  @ DRIVE MODE: Exiting

     General routines

     Parallel routines

   This run was terminated on:  22:49:43   8Sep2021

   JOB DONE.