     Program PWSCF v.6.7GPU starts on  9Sep2021 at  8: 0:52

     R & G space division:  proc/nbgrp/npool/nimage =      10
     Reading input from /storage/home/hcoda1/3/ntian30/research/carbon/CxH_vib/CH3_calc/ads_slab/CH3N2_c/out_0032/pw.inp
Warning: card &CELL ignored
Warning: card   CELL_DYNAMICS='IPI', ignored
Warning: card / ignored

     Current dimensions of program PWSCF are:
     Max number of different atomic species (ntypx) = 10
     Max number of k-points (npk) =  40000
     Max angular momentum in pseudopotentials (lmaxx) =  3
     Presently no symmetry can be used with electric field

     Message from routine cell_base_init:
     DEPRECATED: use true lattice parameter, not A to a.u. conversion factor

     IMPORTANT: XC functional enforced from input :
     Exchange-correlation= BEEF-VDW
                           (   1   4  43  14   2   0   0)
     Any further DFT definition will be discarded
     Please, verify this is what you really want

  @ DRIVER MODE: Connecting to
 qe_1139763_2767397.sched-torque.pace.gatech.eduwpcvd3bu_scratch
  using UNIX socket
  @ DRIVER MODE: Message from server: STATUS
  @ DRIVER MODE: Message from server: INIT
  @ DRIVER MODE: Receiving replica           0          -1
  @ DRIVER MODE: Receiving encoded integer          25
  @ DRIVER MODE:  SCF:  T  FORCE:  T  STRESS:  F  VC:  F  ENSEMBLE:  F
  @ DRIVER MODE:  SCF:  T  FORCE:  T  STRESS:  F  VC:  F  ENSEMBLE:  F

     Using Slab Decomposition

     bravais-lattice index     =            0
     lattice parameter (alat)  =       1.8897  a.u.
     unit-cell volume          =    6658.9804 (a.u.)^3
     number of atoms/cell      =           53
     number of atomic types    =            5
     number of electrons       =       395.00
     number of Kohn-Sham states=          207
     kinetic-energy cutoff     =      29.3995  Ry
     charge density cutoff     =     293.9946  Ry
     scf convergence threshold =      7.3E-08
     mixing beta               =       0.0500
     number of iterations used =            8  plain     mixing
     Exchange-correlation= BEEF-VDW
                           (   1   4  43  14   2   0   0)

     celldm(1)=   1.889726  celldm(2)=   0.000000  celldm(3)=   0.000000
     celldm(4)=   0.000000  celldm(5)=   0.000000  celldm(6)=   0.000000

     crystal axes: (cart. coord. in units of alat)
               a(1) = (   6.579727   0.000000   0.000000 )
               a(2) = (  -0.000775   5.961596   0.000000 )
               a(3) = (   0.000000   0.000000  25.155947 )

     reciprocal axes: (cart. coord. in units 2 pi/alat)
               b(1) = (  0.151982  0.000020  0.000000 )
               b(2) = (  0.000000  0.167740  0.000000 )
               b(3) = (  0.000000  0.000000  0.039752 )

     PseudoPot. # 1 for Ti read from file:
     /storage/coda1/p-amedford6/0/shared/rich_project_chbe-medford/medford-share/data/pseudos_module/espresso/nninc/pbe/van/Ti.UPF
     MD5 check sum: 8e4df49b7f0d34bbd5052bf3f5ea0213
     Pseudo is Ultrasoft, Zval = 12.0
     Generated by new atomic code, or converted to UPF format
     Using radial grid of  851 points,  6 beta functions with:
                l(1) =   0
                l(2) =   0
                l(3) =   1
                l(4) =   1
                l(5) =   2
                l(6) =   2
     Q(r) pseudized with  8 coefficients,  rinner =    1.000   1.000   1.000
                                                       1.000   1.000

     PseudoPot. # 2 for O  read from file:
     /storage/coda1/p-amedford6/0/shared/rich_project_chbe-medford/medford-share/data/pseudos_module/espresso/nninc/pbe/van/O.UPF
     MD5 check sum: 78c19812648e8988a0fe644b0f25305e
     Pseudo is Ultrasoft, Zval =  6.0
     Generated by new atomic code, or converted to UPF format
     Using radial grid of  737 points,  4 beta functions with:
                l(1) =   0
                l(2) =   0
                l(3) =   1
                l(4) =   1
     Q(r) pseudized with  8 coefficients,  rinner =    0.800   0.800   0.800

     PseudoPot. # 3 for N  read from file:
     /storage/coda1/p-amedford6/0/shared/rich_project_chbe-medford/medford-share/data/pseudos_module/espresso/nninc/pbe/van/N.UPF
     MD5 check sum: 90d10febe142ad51ac9d5be1deb811c4
     Pseudo is Ultrasoft, Zval =  5.0
     Generated by new atomic code, or converted to UPF format
     Using radial grid of  729 points,  4 beta functions with:
                l(1) =   0
                l(2) =   0
                l(3) =   1
                l(4) =   1
     Q(r) pseudized with  8 coefficients,  rinner =    0.800   0.800   0.800

     PseudoPot. # 4 for C  read from file:
     /storage/coda1/p-amedford6/0/shared/rich_project_chbe-medford/medford-share/data/pseudos_module/espresso/nninc/pbe/van/C.UPF
     MD5 check sum: 1a69bf6b8db32088f5b2163dbdb77a27
     Pseudo is Ultrasoft, Zval =  4.0
     Generated by new atomic code, or converted to UPF format
     Using radial grid of  721 points,  4 beta functions with:
                l(1) =   0
                l(2) =   0
                l(3) =   1
                l(4) =   1
     Q(r) pseudized with  8 coefficients,  rinner =    0.800   0.800   0.800

     PseudoPot. # 5 for H  read from file:
     /storage/coda1/p-amedford6/0/shared/rich_project_chbe-medford/medford-share/data/pseudos_module/espresso/nninc/pbe/van/H.UPF
     MD5 check sum: b5ee9d7bfd3a09ee7748110bda690ff7
     Pseudo is Ultrasoft, Zval =  1.0
     Generated by new atomic code, or converted to UPF format
     Using radial grid of  615 points,  1 beta functions with:
                l(1) =   0
     Q(r) pseudized with  8 coefficients,  rinner =    0.800

     atomic species   valence    mass     pseudopotential
        Ti1           12.00    47.86700     Ti( 1.00)
        O1             6.00    15.99900     O ( 1.00)
        N1             5.00    14.00700     N ( 1.00)
        C1             4.00    12.01100     C ( 1.00)
        H1             1.00     1.00800     H ( 1.00)

     No symmetry found

   Cartesian axes

     site n.     atom                  positions (alat units)
         1           Ti1 tau(   1) = (   0.0004258   2.9801865   6.0000000  )
         2           Ti1 tau(   2) = (   3.2906075   1.4906267   6.0002472  )
         3           O1  tau(   3) = (   0.0006271   0.0005054   7.9858123  )
         4           O1  tau(   4) = (   3.2906025   0.0005020   7.3038282  )
         5           O1  tau(   5) = (   4.5942328   1.4918067   9.2879030  )
         6           O1  tau(   6) = (   1.9868534   1.4903216   9.2879459  )
         7           Ti1 tau(   7) = (   3.2907910   2.8959150   9.1758416  )
         8           Ti1 tau(   8) = (   0.0015273   1.4827037   9.2680791  )
         9           O1  tau(   9) = (   3.2868105   5.9447858  11.3346005  )
        10           O1  tau(  10) = (   0.0116148   5.9584955  10.6183126  )
        11           O1  tau(  11) = (   1.2897616   1.4699164  12.6258314  )
        12           O1  tau(  12) = (   5.2713851   1.4716199  12.6109895  )
        13           Ti1 tau(  13) = (   0.0629619   2.9460495  12.6207869  )
        14           Ti1 tau(  14) = (   3.3778125   1.4702366  12.4807322  )
        15           O1  tau(  15) = (   6.5741670   5.9392046  14.6271830  )
        16           O1  tau(  16) = (   3.2925211   5.9405975  13.9303826  )
        17           O1  tau(  17) = (   4.5331425   1.4971777  16.0590535  )
        18           O1  tau(  18) = (   2.0416154   1.4974824  16.0477615  )
        19           Ti1 tau(  19) = (   3.2901388   2.9722967  15.7036181  )
        20           Ti1 tau(  20) = (   6.5714728   1.5019933  15.8140906  )
        21           O1  tau(  21) = (   3.2904802   0.0005063   4.7018136  )
        22           O1  tau(  22) = (   6.5775371   0.0159386  17.1814867  )
        23           O1  tau(  23) = (   1.3043587   1.4918075   6.0039043  )
        24           O1  tau(  24) = (   5.2767064   1.4903225   6.0039473  )
        25           Ti1 tau(  25) = (   0.0000382   5.9609847   6.0000000  )
        26           Ti1 tau(  26) = (   3.2902200   4.4714249   6.0002472  )
        27           O1  tau(  27) = (   0.0002396   2.9813036   7.9858123  )
        28           O1  tau(  28) = (   3.2902150   2.9813002   7.3038282  )
        29           O1  tau(  29) = (   4.5938453   4.4726049   9.2879030  )
        30           O1  tau(  30) = (   1.9864658   4.4711199   9.2879459  )
        31           Ti1 tau(  31) = (   3.2891106   5.8743827   9.1763621  )
        32           Ti1 tau(  32) = (   0.0006254   4.4649316   9.2693709  )
        33           O1  tau(  33) = (   3.2909631   2.9655588  11.3316111  )
        34           O1  tau(  34) = (   0.0092240   2.9805883  10.6323155  )
        35           O1  tau(  35) = (   1.2884032   4.4536117  12.6269208  )
        36           O1  tau(  36) = (   5.2752684   4.4605011  12.6109535  )
        37           Ti1 tau(  37) = (   0.0626277   5.9200555  12.5524633  )
        38           Ti1 tau(  38) = (   3.3797810   4.4486816  12.4846537  )
        39           O1  tau(  39) = (   6.5720240   2.9440667  14.6479771  )
        40           O1  tau(  40) = (   3.2941106   2.9728877  13.9057494  )
        41           O1  tau(  41) = (   4.5311790   4.4530262  16.1020043  )
        42           O1  tau(  42) = (   2.0427069   4.4534008  16.0946336  )
        43           Ti1 tau(  43) = (   3.2818950   5.9508925  15.7274921  )
        44           Ti1 tau(  44) = (   6.5750914   4.6476268  16.0792144  )
        45           O1  tau(  45) = (   3.2900926   2.9813045   4.7018136  )
        46           O1  tau(  46) = (   1.3039711   4.4726057   6.0039043  )
        47           O1  tau(  47) = (   5.2763189   4.4711207   6.0039473  )
        48           N1  tau(  48) = (   0.0795740   2.6614725  18.6386781  )
        49           N1  tau(  49) = (   0.0132033   2.8794178  17.4383708  )
        50           C1  tau(  50) = (   0.1510961   3.8031638  19.5808395  )
        51           H1  tau(  51) = (   6.4701351   4.7592986  19.1328852  )
        52           H1  tau(  52) = (   6.0910372   3.5604803  20.4266230  )
        53           H1  tau(  53) = (   1.1912797   3.8285794  19.9476819  )

     number of k points=    10  Fermi-Dirac smearing, width (Ry)=  0.0073
                       cart. coord. in units 2pi/alat
        k(    1) = (   0.0000000   0.0000000   0.0000000), wk =   0.1250000
        k(    2) = (   0.0000000   0.0419351   0.0000000), wk =   0.2500000
        k(    3) = (   0.0000000  -0.0838702   0.0000000), wk =   0.1250000
        k(    4) = (   0.0379955   0.0000049   0.0000000), wk =   0.2500000
        k(    5) = (   0.0379955   0.0419400   0.0000000), wk =   0.2500000
        k(    6) = (   0.0379955  -0.0838652   0.0000000), wk =   0.2500000
        k(    7) = (   0.0379955  -0.0419301   0.0000000), wk =   0.2500000
        k(    8) = (  -0.0759910  -0.0000099   0.0000000), wk =   0.1250000
        k(    9) = (  -0.0759910   0.0419252   0.0000000), wk =   0.2500000
        k(   10) = (  -0.0759910  -0.0838800   0.0000000), wk =   0.1250000

     Initial potential from superposition of free atoms

     starting charge  378.99916, renormalised to  395.00000

     negative rho (up, down):  1.506E-02 0.000E+00

     %%%%%%%%%%%%%%%%%%%%%%%%%%%%%%%%%%%%%%%%%%%%%%%%%%%%%%%%%%%%%%%%%%%%%%%%
     %                                                                      %
     % You are using vdW-DF, which was implemented by the Thonhauser group. %
     % Please cite the following two papers that made this development      %
     % possible and the two reviews that describe the various versions:     %
     %                                                                      %
     %   T. Thonhauser et al., PRL 115, 136402 (2015).                      %
     %   T. Thonhauser et al., PRB 76, 125112 (2007).                       %
     %   K. Berland et al., Rep. Prog. Phys. 78, 066501 (2015).             %
     %   D.C. Langreth et al., J. Phys.: Condens. Matter 21, 084203 (2009). %
     %                                                                      %
     %                                                                      %
     % If you are calculating the stress with vdW-DF, please also cite:     %
     %                                                                      %
     %   R. Sabatini et al., J. Phys.: Condens. Matter 24, 424209 (2012).   %
     %                                                                      %
     %%%%%%%%%%%%%%%%%%%%%%%%%%%%%%%%%%%%%%%%%%%%%%%%%%%%%%%%%%%%%%%%%%%%%%%%

     Adding external electric field

     Computed dipole along edir(3) :
        Dipole               -8.8495 Ry au,        -22.4931 Debye
        Dipole field         -0.0167 Ry au,

        Potential amp.        1.5481 Ry
        Total length         46.3494 bohr

     Starting wfcs are  299 atomic wfcs
  @ DRIVER MODE: Message from server: STATUS
  @ DRIVER MODE: Message from server: POSDATA
  @ DRIVER MODE: Reading and sharing cell
  @ DRIVER MODE: Reading and sharing positions
  @ DRIVER MODE: Received positions

     Self-consistent Calculation

     iteration #  1     ecut=    29.40 Ry     beta= 0.05
     Davidson diagonalization with overlap
     c_bands:  1 eigenvalues not converged
     c_bands:  2 eigenvalues not converged
     c_bands:  1 eigenvalues not converged
     c_bands:  3 eigenvalues not converged
     c_bands:  3 eigenvalues not converged
     c_bands:  1 eigenvalues not converged
     ethr =  1.00E-05,  avg # of iterations = 18.9

[...]

     total energy              =   -2605.40015395 Ry
     estimated scf accuracy    <    3702.14894093 Ry

     iteration #  2     ecut=    29.40 Ry     beta= 0.05
     Davidson diagonalization with overlap
     ethr =  1.00E-02,  avg # of iterations = 22.7

[...]

     iteration # 57     ecut=    29.40 Ry     beta= 0.05
     Davidson diagonalization with overlap
     c_bands:  1 eigenvalues not converged
     ethr =  1.23E-08,  avg # of iterations = 16.2

[...]

     total energy              =   -2939.15466865 Ry
     estimated scf accuracy    <       0.00000009 Ry

     iteration # 72     ecut=    29.40 Ry     beta= 0.05
     Davidson diagonalization with overlap
     ethr =  2.05E-11,  avg # of iterations =  1.2

     negative rho (up, down):  1.564E-02 0.000E+00

     Adding external electric field

     Computed dipole along edir(3) :
        Dipole                0.7060 Ry au,          1.7944 Debye
        Dipole field          0.0013 Ry au,

        Potential amp.       -0.1235 Ry
        Total length         46.3494 bohr

     End of self-consistent calculation

          k = 0.0000 0.0000 0.0000 ( 18029 PWs)   bands (ev):

   -55.8951 -55.8807 -55.8611 -55.8447 -55.7958 -55.7304 -55.7043 -55.7037
   -55.6938 -55.6697 -55.6689 -55.6353 -55.2864 -55.0954 -54.8729 -54.8389
   -32.4349 -32.3773 -32.2304 -32.2279 -32.2024 -32.1994 -32.1882 -32.1595
   -32.1377 -32.1246 -32.1028 -32.0669 -32.0613 -32.0475 -32.0339 -32.0204
   -32.0179 -31.9992 -31.9851 -31.9524 -31.9443 -31.9400 -31.8990 -31.8940
   -31.8916 -31.8883 -31.8801 -31.8752 -31.8710 -31.8443 -31.8436 -31.8345
   -31.8334 -31.8218 -31.8102 -31.7811 -31.7781 -31.5666 -31.4597 -31.3576
   -31.3556 -31.3112 -31.2800 -31.1917 -31.1692 -31.0967 -31.0102 -30.8992
   -18.4508 -16.6332 -16.3682 -16.1395 -16.0456 -16.0135 -15.8955 -15.7330
   -15.6153 -15.5607 -15.4632 -15.4437 -15.4305 -15.3987 -15.3806 -15.3751
   -15.3412 -15.3370 -15.3184 -15.3033 -15.2551 -15.2312 -15.2096 -15.1102
   -15.0641 -15.0300 -15.0150 -14.9518 -14.9467 -14.4422 -13.3752 -13.2588
   -11.3497  -6.9205  -4.3465  -4.0030  -3.8777  -3.8625  -3.8475  -3.8006
    -3.7441  -3.6248  -3.4991  -3.4371  -3.1262  -3.0783  -3.0624  -3.0453
    -3.0076  -2.8000  -2.7488  -2.7085  -2.6837  -2.6768  -2.6657  -2.6581
    -2.6465  -2.6080  -2.5058  -2.4364  -2.4280  -2.3437  -2.2938  -2.2704
    -2.2071  -2.1873  -2.1655  -2.1422  -2.1310  -2.1103  -2.0900  -2.0791
    -1.9734  -1.8831  -1.7506  -1.6946  -1.6723  -1.6571  -1.6393  -1.5029
    -1.3696  -1.3380  -1.3291  -1.3202  -1.2866  -1.2746  -1.1921  -1.0632
    -1.0523  -1.0123  -0.9601  -0.9021  -0.8772  -0.7752  -0.7385  -0.6614
    -0.6563  -0.6395  -0.5867  -0.5342  -0.3765  -0.3346  -0.3087  -0.2865
    -0.2621  -0.1913  -0.1697  -0.0533  -0.0359  -0.0184   0.0419   0.0651
     0.0780   0.0879   0.1056   0.1238   0.1412   0.3083   0.3809   0.4331
     0.4566   0.5144   0.6395   0.7084   0.7635   0.8638   1.0750   1.1492
     1.2419   1.3414   1.7206   1.7663   2.6480   3.2441   3.3249   3.3739
     3.3884   3.4855   3.5192   3.6960   3.6969   3.7254   3.7955

[...]

          k = 0.0380-0.0419 0.0000 ( 17876 PWs)   bands (ev):

[...]

          k =-0.0760-0.0000 0.0000 ( 17886 PWs)   bands (ev):

[...]

          k =-0.0760-0.0839 0.0000 ( 17948 PWs)   bands (ev):

   -55.8786 -55.8775 -55.8628 -55.8624 -55.7924 -55.7183 -55.7076 -55.7059
   -55.6877 -55.6852 -55.6527 -55.6516 -55.2850 -55.0967 -54.8558 -54.8558
   -32.2394 -32.2376 -32.1929 -32.1922 -32.1740 -32.1730 -32.1698 -32.1345
   -32.0889 -32.0859 -32.0798 -32.0794 -32.0426 -32.0131 -32.0054 -32.0047
   -31.9983 -31.9982 -31.9976 -31.9971 -31.9933 -31.9916 -31.9892 -31.9381
   -31.9244 -31.9122 -31.9111 -31.8998 -31.8867 -31.8862 -31.8837 -31.8829
   -31.8673 -31.8666 -31.8573 -31.8546 -31.6949 -31.5683 -31.4680 -31.4148
   -31.3574 -31.3367 -31.1820 -31.1819 -31.0928 -31.0927 -31.0535 -31.0535
   -18.4466 -16.0690 -16.0430 -15.8428 -15.8097 -15.8058 -15.7913 -15.6825
   -15.5977 -15.5904 -15.5877 -15.5214 -15.4914 -15.4755 -15.4347 -15.4223
   -15.4148 -15.4033 -15.3931 -15.3558 -15.3485 -15.3311 -15.3237 -15.2398
   -15.2118 -15.2077 -15.1820 -15.0641 -14.9328 -14.6185 -13.3607 -13.3605
   -11.3474  -6.9322  -4.2561  -3.8891  -3.8335  -3.3584  -3.3296  -3.0891
    -3.0505  -3.0368  -2.9834  -2.8218  -2.7916  -2.7659  -2.7543  -2.7226
    -2.7173  -2.7053  -2.7001  -2.6801  -2.6389  -2.6168  -2.5991  -2.5821
    -2.5626  -2.5487  -2.5326  -2.5160  -2.5066  -2.4672  -2.4437  -2.4322
    -2.4135  -2.4018  -2.2453  -2.1224  -2.0880  -2.0333  -2.0231  -2.0017
    -1.9616  -1.9577  -1.9460  -1.8817  -1.8080  -1.6514  -1.6131  -1.5944
    -1.5745  -1.5547  -1.5006  -1.4601  -1.3733  -1.2986  -1.2752  -1.2706
    -1.2021  -1.1151  -1.1071  -1.0602  -1.0170  -1.0076  -0.9532  -0.8884
    -0.8576  -0.8533  -0.8007  -0.7318  -0.7139  -0.6636  -0.6567  -0.6122
    -0.5573  -0.5486  -0.5282  -0.4872  -0.4053  -0.3816  -0.2432  -0.1634
    -0.0410   0.0735   0.1677   0.1821   0.2619   0.3140   0.3977   0.4154
     0.4259   0.4349   0.4781   0.5612   0.6370   0.6517   0.6975   0.8184
     1.5130   1.5137   1.5859   1.5862   2.7050   3.4911   3.5358   3.5779
     3.6101   3.7166   3.7491   3.7726   3.7738   3.8019   3.9152

     the Fermi energy is     3.2393 ev

!    total energy              =   -2939.15469003 Ry
     estimated scf accuracy    <       0.00000006 Ry
     smearing contrib. (-TS)   =      -0.02245060 Ry
     internal energy E=F+TS    =   -2939.13223943 Ry

     The total energy is F=E-TS. E is the sum of the following terms:
     one-electron contribution =  -24176.08856454 Ry
     hartree contribution      =   12175.28680274 Ry
     xc contribution           =    -485.17796859 Ry
     ewald contribution        =    9546.84655042 Ry
     electric field correction =       0.00094054 Ry

     convergence has been achieved in  72 iterations

     Forces acting on atoms (cartesian axes, Ry/au):

     atom    1 type  1   force =     0.00012077   -0.00025217    0.09664404
     atom    2 type  1   force =    -0.00012846   -0.00049894   -0.17524541
     atom    3 type  2   force =     0.00000182   -0.00010162   -0.02498995
     atom    4 type  2   force =     0.00005216   -0.00149641    0.05299920
     atom    5 type  2   force =    -0.01216066   -0.00108364    0.00361235
     atom    6 type  2   force =     0.01371153   -0.00027624    0.00228771
     atom    7 type  1   force =    -0.00117444    0.00037411   -0.01149404
     atom    8 type  1   force =     0.00056055    0.00942400    0.02851699
     atom    9 type  2   force =     0.00019967    0.00053274   -0.00012131
     atom   10 type  2   force =    -0.00114629    0.00028286   -0.01822209
     atom   11 type  2   force =    -0.00012564    0.00000316   -0.00013598
     atom   12 type  2   force =     0.00013443    0.00021898    0.00018313
     atom   13 type  1   force =     0.00009352   -0.00029420    0.00014681
     atom   14 type  1   force =     0.00021109    0.00016928    0.00019310
     atom   15 type  2   force =     0.00022298   -0.00006627   -0.00011232
     atom   16 type  2   force =    -0.00033035    0.00033640    0.00036997
     atom   17 type  2   force =    -0.00016593    0.00041239   -0.00014751
     atom   18 type  2   force =     0.00013742    0.00015807    0.00023193
     atom   19 type  1   force =    -0.00008251    0.00015225    0.00007238
     atom   20 type  1   force =    -0.00058751   -0.00021517    0.00023606
     atom   21 type  2   force =     0.00008596    0.00001576    0.10326126
     atom   22 type  2   force =    -0.00019962    0.00025618    0.00081086
     atom   23 type  2   force =    -0.07147575   -0.00007190   -0.02772143
     atom   24 type  2   force =     0.07144096    0.00034683   -0.02773203
     atom   25 type  1   force =     0.00006989   -0.00021513    0.09637786
     atom   26 type  1   force =    -0.00022737   -0.00026454   -0.17565097
     atom   27 type  2   force =     0.00007081   -0.00025103   -0.02399028
     atom   28 type  2   force =     0.00009527   -0.00126513    0.05287135
     atom   29 type  2   force =    -0.01240264    0.00003783    0.00352690
     atom   30 type  2   force =     0.01386965    0.00032902    0.00217277
     atom   31 type  1   force =    -0.00113369    0.00333087   -0.01190973
     atom   32 type  1   force =     0.00065297   -0.01118447    0.02911353
     atom   33 type  2   force =     0.00011036   -0.00020327   -0.00037630
     atom   34 type  2   force =    -0.00089398   -0.00093363   -0.02481179
     atom   35 type  2   force =    -0.00039839    0.00027098    0.00002226
     atom   36 type  2   force =     0.00072627    0.00029137    0.00034259
     atom   37 type  1   force =    -0.00000282   -0.00023204    0.00003942
     atom   38 type  1   force =    -0.00002307    0.00010393   -0.00001501
     atom   39 type  2   force =     0.00032573    0.00034321   -0.00045014
     atom   40 type  2   force =    -0.00030359    0.00010499    0.00015486
     atom   41 type  2   force =    -0.00044394    0.00052826    0.00013328
     atom   42 type  2   force =     0.00004182    0.00045618    0.00042614
     atom   43 type  1   force =    -0.00005366    0.00038691    0.00042135
     atom   44 type  1   force =    -0.00040862    0.00019998    0.00074138
     atom   45 type  2   force =     0.00008230   -0.00002877    0.10326452
     atom   46 type  2   force =    -0.07149962   -0.00003380   -0.02773532
     atom   47 type  2   force =     0.07146862    0.00038873   -0.02776062
     atom   48 type  3   force =     0.00028392   -0.00090719   -0.00015605
     atom   49 type  3   force =     0.00062205    0.00027726   -0.00042171
     atom   50 type  4   force =     0.01160744    0.00053956    0.00237422
     atom   51 type  5   force =     0.00036746    0.00076033   -0.00042612
     atom   52 type  5   force =    -0.00053492   -0.00084876    0.00125171
     atom   53 type  5   force =    -0.01146395   -0.00030811   -0.00317380

     Total force =     0.368735     Total SCF correction =     0.000645
  @ DRIVER MODE: Message from server: STATUS
  @ DRIVER MODE: Message from server: GETFORCE
  @ DRIVER MODE: Returning v,forces,stress,ensemble

     Writing output data file ./calc.save/
  @ DRIVER MODE: Message from server: EXIT
  @ DRIVE MODE: Exiting

     General routines

     Parallel routines

   This run was terminated on:   8:20: 7   9Sep2021

   JOB DONE.