     Program PWSCF v.6.7GPU starts on 23Sep2021 at 16: 0: 7

     R & G space division:  proc/nbgrp/npool/nimage =       8
     Reading input from /storage/home/hcoda1/3/ntian30/research/carbon/CxH_vib/H2O_calc/ads_slab/CH3NHHO_a/out_0014/pw.inp
Warning: card &CELL ignored
Warning: card   CELL_DYNAMICS='IPI', ignored
Warning: card / ignored

     Current dimensions of program PWSCF are:
     Max number of different atomic species (ntypx) = 10
     Max number of k-points (npk) =  40000
     Max angular momentum in pseudopotentials (lmaxx) =  3
     Presently no symmetry can be used with electric field

     Message from routine cell_base_init:
     DEPRECATED: use true lattice parameter, not A to a.u. conversion factor

     IMPORTANT: XC functional enforced from input :
     Exchange-correlation= BEEF-VDW
                           (   1   4  43  14   2   0   0)
     Any further DFT definition will be discarded
     Please, verify this is what you really want

  @ DRIVER MODE: Connecting to
 qe_1139763_2947309.sched-torque.pace.gatech.edufb7slbrd_scratch
  using UNIX socket
  @ DRIVER MODE: Message from server: STATUS
  @ DRIVER MODE: Message from server: INIT
  @ DRIVER MODE: Receiving replica           0          -1
  @ DRIVER MODE: Receiving encoded integer          25
  @ DRIVER MODE:  SCF:  T  FORCE:  T  STRESS:  F  VC:  F  ENSEMBLE:  F
  @ DRIVER MODE:  SCF:  T  FORCE:  T  STRESS:  F  VC:  F  ENSEMBLE:  F

     Using Slab Decomposition

     bravais-lattice index     =            0
     lattice parameter (alat)  =       1.8897  a.u.
     unit-cell volume          =    6658.9804 (a.u.)^3
     number of atoms/cell      =           55
     number of atomic types    =            5
     number of electrons       =       398.00
     number of Kohn-Sham states=          209
     kinetic-energy cutoff     =      29.3995  Ry
     charge density cutoff     =     293.9946  Ry
     scf convergence threshold =      7.3E-08
     mixing beta               =       0.0500
     number of iterations used =            8  plain     mixing
     Exchange-correlation= BEEF-VDW
                           (   1   4  43  14   2   0   0)

     celldm(1)=   1.889726  celldm(2)=   0.000000  celldm(3)=   0.000000
     celldm(4)=   0.000000  celldm(5)=   0.000000  celldm(6)=   0.000000

     crystal axes: (cart. coord. in units of alat)
               a(1) = (   6.579727   0.000000   0.000000 )
               a(2) = (  -0.000775   5.961596   0.000000 )
               a(3) = (   0.000000   0.000000  25.155947 )

     reciprocal axes: (cart. coord. in units 2 pi/alat)
               b(1) = (  0.151982  0.000020  0.000000 )
               b(2) = (  0.000000  0.167740  0.000000 )
               b(3) = (  0.000000  0.000000  0.039752 )

     PseudoPot. # 1 for Ti read from file:
     /storage/coda1/p-amedford6/0/shared/rich_project_chbe-medford/medford-share/data/pseudos_module/espresso/nninc/pbe/van/Ti.UPF
     MD5 check sum: 8e4df49b7f0d34bbd5052bf3f5ea0213
     Pseudo is Ultrasoft, Zval = 12.0
     Generated by new atomic code, or converted to UPF format
     Using radial grid of  851 points,  6 beta functions with:
                l(1) =   0
                l(2) =   0
                l(3) =   1
                l(4) =   1
                l(5) =   2
                l(6) =   2
     Q(r) pseudized with  8 coefficients,  rinner =    1.000   1.000   1.000
                                                       1.000   1.000

     PseudoPot. # 2 for O  read from file:
     /storage/coda1/p-amedford6/0/shared/rich_project_chbe-medford/medford-share/data/pseudos_module/espresso/nninc/pbe/van/O.UPF
     MD5 check sum: 78c19812648e8988a0fe644b0f25305e
     Pseudo is Ultrasoft, Zval =  6.0
     Generated by new atomic code, or converted to UPF format
     Using radial grid of  737 points,  4 beta functions with:
                l(1) =   0
                l(2) =   0
                l(3) =   1
                l(4) =   1
     Q(r) pseudized with  8 coefficients,  rinner =    0.800   0.800   0.800

     PseudoPot. # 3 for H  read from file:
     /storage/coda1/p-amedford6/0/shared/rich_project_chbe-medford/medford-share/data/pseudos_module/espresso/nninc/pbe/van/H.UPF
     MD5 check sum: b5ee9d7bfd3a09ee7748110bda690ff7
     Pseudo is Ultrasoft, Zval =  1.0
     Generated by new atomic code, or converted to UPF format
     Using radial grid of  615 points,  1 beta functions with:
                l(1) =   0
     Q(r) pseudized with  8 coefficients,  rinner =    0.800

     PseudoPot. # 4 for N  read from file:
     /storage/coda1/p-amedford6/0/shared/rich_project_chbe-medford/medford-share/data/pseudos_module/espresso/nninc/pbe/van/N.UPF
     MD5 check sum: 90d10febe142ad51ac9d5be1deb811c4
     Pseudo is Ultrasoft, Zval =  5.0
     Generated by new atomic code, or converted to UPF format
     Using radial grid of  729 points,  4 beta functions with:
                l(1) =   0
                l(2) =   0
                l(3) =   1
                l(4) =   1
     Q(r) pseudized with  8 coefficients,  rinner =    0.800   0.800   0.800

     PseudoPot. # 5 for C  read from file:
     /storage/coda1/p-amedford6/0/shared/rich_project_chbe-medford/medford-share/data/pseudos_module/espresso/nninc/pbe/van/C.UPF
     MD5 check sum: 1a69bf6b8db32088f5b2163dbdb77a27
     Pseudo is Ultrasoft, Zval =  4.0
     Generated by new atomic code, or converted to UPF format
     Using radial grid of  721 points,  4 beta functions with:
                l(1) =   0
                l(2) =   0
                l(3) =   1
                l(4) =   1
     Q(r) pseudized with  8 coefficients,  rinner =    0.800   0.800   0.800

     atomic species   valence    mass     pseudopotential
        Ti1           12.00    47.86700     Ti( 1.00)
        O1             6.00    15.99900     O ( 1.00)
        H1             1.00     1.00800     H ( 1.00)
        N1             5.00    14.00700     N ( 1.00)
        C1             4.00    12.01100     C ( 1.00)

     No symmetry found

   Cartesian axes

     site n.     atom                  positions (alat units)
         1           Ti1 tau(   1) = (   0.0004258   2.9801865   6.0000000  )
         2           Ti1 tau(   2) = (   3.2906075   1.4906267   6.0002472  )
         3           O1  tau(   3) = (   0.0006271   0.0005054   7.9858123  )
         4           O1  tau(   4) = (   3.2906025   0.0005020   7.3038282  )
         5           O1  tau(   5) = (   4.5942328   1.4918067   9.2879030  )
         6           O1  tau(   6) = (   1.9868534   1.4903216   9.2879459  )
         7           Ti1 tau(   7) = (   3.2907910   2.8959150   9.1758416  )
         8           Ti1 tau(   8) = (   0.0015273   1.4827037   9.2680791  )
         9           O1  tau(   9) = (   3.2831040   5.9360571  11.2641146  )
        10           O1  tau(  10) = (   0.0116148   5.9584955  10.6183126  )
        11           O1  tau(  11) = (   1.2851963   1.4867209  12.6255510  )
        12           O1  tau(  12) = (   5.2924406   1.4772461  12.6192171  )
        13           Ti1 tau(  13) = (   0.0036382   2.8404764  12.7021481  )
        14           Ti1 tau(  14) = (   3.2814461   1.2926050  12.6442039  )
        15           O1  tau(  15) = (   6.5789252   5.9354829  14.6389027  )
        16           O1  tau(  16) = (   3.2852549   0.0163589  13.8648689  )
        17           O1  tau(  17) = (   4.5445832   1.5164849  16.0197972  )
        18           O1  tau(  18) = (   2.0258823   1.4930055  16.0750729  )
        19           Ti1 tau(  19) = (   3.3156224   2.9699746  15.6194889  )
        20           Ti1 tau(  20) = (   0.0515760   1.3234122  16.0730098  )
        21           O1  tau(  21) = (   3.2904802   0.0005063   4.7018136  )
        22           O1  tau(  22) = (   6.5454194   5.9222349  17.1870725  )
        23           O1  tau(  23) = (   1.3043587   1.4918075   6.0039043  )
        24           O1  tau(  24) = (   5.2767064   1.4903225   6.0039473  )
        25           Ti1 tau(  25) = (   0.0000382   5.9609847   6.0000000  )
        26           Ti1 tau(  26) = (   3.2902200   4.4714249   6.0002472  )
        27           O1  tau(  27) = (   0.0002396   2.9813036   7.9858123  )
        28           O1  tau(  28) = (   3.2902150   2.9813002   7.3038282  )
        29           O1  tau(  29) = (   4.5938453   4.4726049   9.2879030  )
        30           O1  tau(  30) = (   1.9864658   4.4711199   9.2879459  )
        31           Ti1 tau(  31) = (   3.2891106   5.8743827   9.1763621  )
        32           Ti1 tau(  32) = (   0.0006254   4.4649316   9.2693709  )
        33           O1  tau(  33) = (   3.2861177   3.0127509  11.2320142  )
        34           O1  tau(  34) = (   0.0092240   2.9805883  10.6323155  )
        35           O1  tau(  35) = (   1.2872320   4.4646868  12.6147789  )
        36           O1  tau(  36) = (   5.2799320   4.4658550  12.6114028  )
        37           Ti1 tau(  37) = (   6.5510365   5.8261734  12.6423015  )
        38           Ti1 tau(  38) = (   3.2652589   4.3917841  12.4002916  )
        39           O1  tau(  39) = (   0.0003569   2.9920414  14.6539809  )
        40           O1  tau(  40) = (   3.2835110   2.9651371  13.8409569  )
        41           O1  tau(  41) = (   4.5245492   4.4030193  16.0142317  )
        42           O1  tau(  42) = (   2.0132503   4.4096711  16.0494848  )
        43           Ti1 tau(  43) = (   3.3389516   5.9588577  16.2858146  )
        44           Ti1 tau(  44) = (   0.0865397   4.4271626  15.8895714  )
        45           O1  tau(  45) = (   3.2900926   2.9813045   4.7018136  )
        46           O1  tau(  46) = (   1.3039711   4.4726057   6.0039043  )
        47           O1  tau(  47) = (   5.2763189   4.4711207   6.0039473  )
        48           H1  tau(  48) = (   5.5649379   3.0085428  17.7754687  )
        49           N1  tau(  49) = (   6.5266086   2.9804045  17.4451690  )
        50           C1  tau(  50) = (   0.8352436   3.0135910  18.6253707  )
        51           H1  tau(  51) = (   0.7415300   3.9712607  19.1474969  )
        52           H1  tau(  52) = (   0.5789590   2.2014881  19.3161603  )
        53           H1  tau(  53) = (   1.8636945   2.8847911  18.3311598  )
        54           O1  tau(  54) = (   3.4430348   5.9447220  18.1074838  )
        55           H1  tau(  55) = (   4.3135669   5.8364121  18.5244127  )

     number of k points=    10  Fermi-Dirac smearing, width (Ry)=  0.0073
                       cart. coord. in units 2pi/alat
        k(    1) = (   0.0000000   0.0000000   0.0000000), wk =   0.1250000
        k(    2) = (   0.0000000   0.0419351   0.0000000), wk =   0.2500000
        k(    3) = (   0.0000000  -0.0838702   0.0000000), wk =   0.1250000
        k(    4) = (   0.0379955   0.0000049   0.0000000), wk =   0.2500000
        k(    5) = (   0.0379955   0.0419400   0.0000000), wk =   0.2500000
        k(    6) = (   0.0379955  -0.0838652   0.0000000), wk =   0.2500000
        k(    7) = (   0.0379955  -0.0419301   0.0000000), wk =   0.2500000
        k(    8) = (  -0.0759910  -0.0000099   0.0000000), wk =   0.1250000
        k(    9) = (  -0.0759910   0.0419252   0.0000000), wk =   0.2500000
        k(   10) = (  -0.0759910  -0.0838800   0.0000000), wk =   0.1250000

     Initial potential from superposition of free atoms

     starting charge  381.99915, renormalised to  398.00000

     negative rho (up, down):  1.687E-02 0.000E+00

     %%%%%%%%%%%%%%%%%%%%%%%%%%%%%%%%%%%%%%%%%%%%%%%%%%%%%%%%%%%%%%%%%%%%%%%%
     %                                                                      %
     % You are using vdW-DF, which was implemented by the Thonhauser group. %
     % Please cite the following two papers that made this development      %
     % possible and the two reviews that describe the various versions:     %
     %                                                                      %
     %   T. Thonhauser et al., PRL 115, 136402 (2015).                      %
     %   T. Thonhauser et al., PRB 76, 125112 (2007).                       %
     %   K. Berland et al., Rep. Prog. Phys. 78, 066501 (2015).             %
     %   D.C. Langreth et al., J. Phys.: Condens. Matter 21, 084203 (2009). %
     %                                                                      %
     %                                                                      %
     % If you are calculating the stress with vdW-DF, please also cite:     %
     %                                                                      %
     %   R. Sabatini et al., J. Phys.: Condens. Matter 24, 424209 (2012).   %
     %                                                                      %
     %%%%%%%%%%%%%%%%%%%%%%%%%%%%%%%%%%%%%%%%%%%%%%%%%%%%%%%%%%%%%%%%%%%%%%%%

     Adding external electric field

     Computed dipole along edir(3) :
        Dipole               -8.7629 Ry au,        -22.2732 Debye
        Dipole field         -0.0165 Ry au,

        Potential amp.        1.5329 Ry
        Total length         46.3494 bohr

     Starting wfcs are  301 atomic wfcs
  @ DRIVER MODE: Message from server: STATUS
  @ DRIVER MODE: Message from server: POSDATA
  @ DRIVER MODE: Reading and sharing cell
  @ DRIVER MODE: Reading and sharing positions
  @ DRIVER MODE: Received positions

     Self-consistent Calculation

     iteration #  1     ecut=    29.40 Ry     beta= 0.05
     Davidson diagonalization with overlap
     c_bands:  1 eigenvalues not converged
     c_bands:  1 eigenvalues not converged
     c_bands:  1 eigenvalues not converged
     c_bands:  2 eigenvalues not converged
     ethr =  1.00E-05,  avg # of iterations = 18.0

[...]

     total energy              =   -2565.88816397 Ry
     estimated scf accuracy    <    4287.95835243 Ry

     iteration #  2     ecut=    29.40 Ry     beta= 0.05
     Davidson diagonalization with overlap
     ethr =  1.00E-02,  avg # of iterations = 22.5

[...]

     iteration # 37     ecut=    29.40 Ry     beta= 0.05
     Davidson diagonalization with overlap
     c_bands:  1 eigenvalues not converged
     ethr =  3.75E-06,  avg # of iterations = 11.0

[...]

     total energy              =   -2954.01271180 Ry
     estimated scf accuracy    <       0.00000010 Ry

     iteration # 71     ecut=    29.40 Ry     beta= 0.05
     Davidson diagonalization with overlap
     ethr =  2.51E-11,  avg # of iterations =  4.0

     negative rho (up, down):  1.730E-02 0.000E+00

     Adding external electric field

     Computed dipole along edir(3) :
        Dipole                0.2188 Ry au,          0.5561 Debye
        Dipole field          0.0004 Ry au,

        Potential amp.       -0.0383 Ry
        Total length         46.3494 bohr

     End of self-consistent calculation

          k = 0.0000 0.0000 0.0000 ( 18029 PWs)   bands (ev):

   -56.9270 -56.8935 -56.0262 -55.9913 -55.7911 -55.7231 -55.6378 -55.4785
   -55.4446 -55.4049 -55.3938 -55.3268 -55.3216 -55.2755 -55.1307 -55.0527
   -33.3462 -33.1989 -33.1708 -33.1055 -33.0153 -32.9732 -32.5090 -32.2668
   -32.2469 -32.2209 -32.1685 -32.1636 -32.1380 -32.0268 -32.0068 -31.9598
   -31.9445 -31.9277 -31.9128 -31.8883 -31.8860 -31.8666 -31.8576 -31.8269
   -31.8257 -31.8012 -31.7574 -31.7147 -31.6828 -31.6751 -31.6173 -31.6055
   -31.6023 -31.5872 -31.5745 -31.5449 -31.5243 -31.5186 -31.5055 -31.4985
   -31.4906 -31.4388 -31.3965 -31.3730 -31.3343 -31.3086 -31.3018 -31.2349
   -17.0334 -16.4880 -16.4468 -16.2449 -16.1423 -16.1223 -16.0850 -16.0359
   -15.8359 -15.7869 -15.7485 -15.6825 -15.5853 -15.4287 -15.3317 -15.1581
   -15.1090 -15.0789 -15.0597 -15.0538 -15.0487 -15.0356 -14.9799 -14.9241
   -14.8837 -14.8006 -14.7478 -14.6358 -14.4099 -14.3794 -13.9759 -13.8689
   -13.7713  -8.5152  -4.6071  -4.1049  -3.9653  -3.9323  -3.7775  -3.6245
    -3.4996  -3.4468  -3.4215  -3.3127  -3.2959  -3.2862  -3.1967  -3.0675
    -2.9960  -2.9854  -2.9151  -2.8960  -2.8707  -2.8523  -2.6942  -2.6612
    -2.5682  -2.5177  -2.4942  -2.4136  -2.4045  -2.3470  -2.2930  -2.2832
    -2.2616  -2.2017  -2.1981  -2.1258  -2.1148  -2.0249  -1.9987  -1.9667
    -1.9428  -1.8739  -1.7972  -1.7621  -1.6067  -1.5718  -1.5398  -1.5030
    -1.4856  -1.4048  -1.3346  -1.2524  -1.2181  -1.1509  -1.1030  -1.0625
    -1.0505  -0.9355  -0.9102  -0.8529  -0.7895  -0.7726  -0.7660  -0.7213
    -0.6058  -0.5280  -0.5213  -0.4991  -0.4330  -0.4129  -0.3753  -0.3518
    -0.2750  -0.2590  -0.1512  -0.0765  -0.0462  -0.0207   0.0789   0.1577
     0.1805   0.2223   0.2620   0.3083   0.3365   0.3810   0.4492   0.4969
     0.5199   0.5430   0.5717   0.6681   0.7184   0.7552   0.8111   0.8267
     0.8906   0.9620   0.9886   1.0780   1.1222   1.4880   1.6397   2.3663
     2.5368   2.8129   2.9863   3.3020   3.3520   3.3678   3.3693   3.6556
     3.7791

[...]

          k = 0.0380-0.0419 0.0000 ( 17876 PWs)   bands (ev):

[...]

          k =-0.0760-0.0000 0.0000 ( 17886 PWs)   bands (ev):

[...]

          k =-0.0760-0.0839 0.0000 ( 17948 PWs)   bands (ev):

   -56.9109 -56.9094 -56.0134 -56.0039 -55.7865 -55.7276 -55.6371 -55.4621
   -55.4609 -55.4008 -55.3944 -55.3304 -55.3203 -55.2742 -55.1321 -55.0538
   -33.1853 -33.1839 -33.1641 -33.1627 -33.0596 -33.0585 -32.3331 -32.3249
   -32.2084 -32.1987 -32.1977 -32.1919 -32.0900 -32.0443 -32.0200 -32.0056
   -31.9546 -31.9537 -31.9095 -31.8772 -31.8659 -31.8147 -31.8138 -31.7727
   -31.7327 -31.7008 -31.6821 -31.6805 -31.6775 -31.6724 -31.6433 -31.6423
   -31.6309 -31.6272 -31.6072 -31.5951 -31.5727 -31.5639 -31.5324 -31.5221
   -31.5138 -31.4817 -31.4343 -31.3980 -31.3712 -31.3388 -31.3105 -31.2627
   -16.4337 -16.3941 -16.3921 -16.3450 -16.3433 -16.0886 -16.0840 -15.8382
   -15.8062 -15.6855 -15.5319 -15.5025 -15.4653 -15.4156 -15.3695 -15.2996
   -15.2811 -15.2414 -15.2080 -15.1520 -15.1263 -15.0476 -15.0135 -14.9545
   -14.9185 -14.8294 -14.7825 -14.7767 -14.5559 -14.5402 -13.9735 -13.9729
   -13.7877  -8.5203  -4.0725  -3.9809  -3.4671  -3.4620  -3.4412  -3.4319
    -3.2174  -3.2118  -3.0443  -3.0011  -2.9816  -2.9405  -2.9245  -2.8218
    -2.8179  -2.7944  -2.7484  -2.7430  -2.7353  -2.7168  -2.6694  -2.6612
    -2.6205  -2.4841  -2.4693  -2.4497  -2.3903  -2.3265  -2.2960  -2.2448
    -2.2168  -2.2041  -2.1780  -2.1691  -2.1651  -2.1345  -2.1071  -1.9514
    -1.9119  -1.8080  -1.7752  -1.7493  -1.7285  -1.6735  -1.6700  -1.6405
    -1.6174  -1.5854  -1.5248  -1.4914  -1.4499  -1.3358  -1.3037  -1.2684
    -1.2481  -1.1878  -1.0914  -1.0048  -0.9927  -0.9463  -0.9282  -0.8808
    -0.8670  -0.8378  -0.7603  -0.7023  -0.5948  -0.5638  -0.5519  -0.5295
    -0.4990  -0.4565  -0.4094  -0.3408  -0.3254  -0.2062  -0.1379  -0.0938
    -0.0279   0.0402   0.0802   0.1191   0.1722   0.2675   0.2879   0.3612
     0.3760   0.4966   0.6052   0.6231   0.7760   0.8082   0.8777   0.9181
     0.9229   0.9333   0.9510   0.9623   1.0151   1.0913   1.5892   2.9577
     2.9608   3.0179   3.0238   3.3337   3.3347   3.4446   3.4464   3.7618
     3.7717

     the Fermi energy is     2.0668 ev

!    total energy              =   -2954.01273048 Ry
     estimated scf accuracy    <       0.00000005 Ry
     smearing contrib. (-TS)   =      -0.00173748 Ry
     internal energy E=F+TS    =   -2954.01099300 Ry

     The total energy is F=E-TS. E is the sum of the following terms:
     one-electron contribution =  -24213.98261710 Ry
     hartree contribution      =   12197.09556690 Ry
     xc contribution           =    -488.74906369 Ry
     ewald contribution        =    9551.62503056 Ry
     electric field correction =       0.00009033 Ry

     convergence has been achieved in  71 iterations

     Forces acting on atoms (cartesian axes, Ry/au):

     atom    1 type  1   force =     0.00017708   -0.00052387    0.12567505
     atom    2 type  1   force =     0.00000592    0.00026518   -0.15443501
     atom    3 type  2   force =     0.00002195   -0.00022298   -0.06670931
     atom    4 type  2   force =    -0.00002050    0.00008388    0.01673046
     atom    5 type  2   force =    -0.00391317   -0.00229251   -0.01290472
     atom    6 type  2   force =     0.00530894   -0.00149672   -0.01431369
     atom    7 type  1   force =    -0.00049564   -0.00698895    0.05721795
     atom    8 type  1   force =     0.00071582    0.00723411    0.09829879
     atom    9 type  2   force =     0.00002810    0.00009167   -0.00006254
     atom   10 type  2   force =    -0.00290149    0.00059132   -0.06192501
     atom   11 type  2   force =    -0.00000447   -0.00006141   -0.00000630
     atom   12 type  2   force =    -0.00008158    0.00015738    0.00016362
     atom   13 type  1   force =     0.00010038    0.00016098   -0.00008017
     atom   14 type  1   force =     0.00001123   -0.00007154    0.00006789
     atom   15 type  2   force =    -0.00005706    0.00007519   -0.00010905
     atom   16 type  2   force =     0.00006002    0.00016759   -0.00016390
     atom   17 type  2   force =    -0.00005375    0.00011296    0.00023437
     atom   18 type  2   force =     0.00010674    0.00028511    0.00002762
     atom   19 type  1   force =    -0.00007064   -0.00000329   -0.00012349
     atom   20 type  1   force =     0.00017688    0.00043393    0.00029563
     atom   21 type  2   force =     0.00007189    0.00021762    0.09781913
     atom   22 type  2   force =     0.00036952   -0.00003382    0.00006997
     atom   23 type  2   force =    -0.08272595    0.00009058   -0.03301703
     atom   24 type  2   force =     0.08268415    0.00050744   -0.03306478
     atom   25 type  1   force =     0.00010423   -0.00059277    0.12552333
     atom   26 type  1   force =     0.00000936   -0.00169907   -0.15484517
     atom   27 type  2   force =     0.00008785   -0.00076934   -0.06514528
     atom   28 type  2   force =     0.00004980    0.00188425    0.01158294
     atom   29 type  2   force =    -0.00251602    0.00468405   -0.01584889
     atom   30 type  2   force =     0.00368536    0.00502006   -0.01727736
     atom   31 type  1   force =    -0.00029261    0.00180667    0.04009538
     atom   32 type  1   force =     0.00091099   -0.01041847    0.09796901
     atom   33 type  2   force =    -0.00004432   -0.00003431    0.00013046
     atom   34 type  2   force =    -0.00230005    0.00078189   -0.07401883
     atom   35 type  2   force =     0.00011831    0.00002532    0.00002696
     atom   36 type  2   force =    -0.00009993   -0.00007884   -0.00002777
     atom   37 type  1   force =     0.00034988    0.00006379    0.00012518
     atom   38 type  1   force =     0.00012153   -0.00005022   -0.00032213
     atom   39 type  2   force =     0.00017787   -0.00011525   -0.00020152
     atom   40 type  2   force =     0.00001775    0.00003865   -0.00006500
     atom   41 type  2   force =    -0.00004088    0.00015788    0.00016423
     atom   42 type  2   force =     0.00012541    0.00001801    0.00015837
     atom   43 type  1   force =     0.00021732   -0.00017093   -0.00027907
     atom   44 type  1   force =     0.00024574   -0.00010350    0.00038564
     atom   45 type  2   force =     0.00004566    0.00004373    0.09759619
     atom   46 type  2   force =    -0.08278707    0.00004957   -0.03303288
     atom   47 type  2   force =     0.08271453    0.00048354   -0.03304903
     atom   48 type  3   force =     0.00065179    0.00007995    0.00138538
     atom   49 type  4   force =     0.00444602    0.00014779    0.00114943
     atom   50 type  5   force =    -0.02049866   -0.00037270    0.00284263
     atom   51 type  3   force =     0.00178866   -0.00084005   -0.00035097
     atom   52 type  3   force =     0.00222923    0.00229470   -0.00146316
     atom   53 type  3   force =     0.01097647   -0.00092764   -0.00300071
     atom   54 type  2   force =     0.00036139   -0.00062321    0.00103518
     atom   55 type  3   force =    -0.00036994    0.00043662   -0.00092801

     Total force =     0.417920     Total SCF correction =     0.000702
  @ DRIVER MODE: Message from server: STATUS
  @ DRIVER MODE: Message from server: GETFORCE
  @ DRIVER MODE: Returning v,forces,stress,ensemble

     Writing output data file ./calc.save/
  @ DRIVER MODE: Message from server: EXIT
  @ DRIVE MODE: Exiting

     General routines

     Parallel routines

   This run was terminated on:  16:22: 4  23Sep2021

   JOB DONE.