     Program PWSCF v.6.7GPU starts on 26Sep2021 at 19:46:37

     R & G space division:  proc/nbgrp/npool/nimage =       8
     Reading input from /storage/home/hcoda1/3/ntian30/research/carbon/CxH_vib/H2O_calc/ads_slab/CH2OHN2HO_a/out_0050/pw.inp
Warning: card &CELL ignored
Warning: card   CELL_DYNAMICS='IPI', ignored
Warning: card / ignored

     Current dimensions of program PWSCF are:
     Max number of different atomic species (ntypx) = 10
     Max number of k-points (npk) =  40000
     Max angular momentum in pseudopotentials (lmaxx) =  3
     Presently no symmetry can be used with electric field

     Message from routine cell_base_init:
     DEPRECATED: use true lattice parameter, not A to a.u. conversion factor

     IMPORTANT: XC functional enforced from input :
     Exchange-correlation= BEEF-VDW
                           (   1   4  43  14   2   0   0)
     Any further DFT definition will be discarded
     Please, verify this is what you really want

  @ DRIVER MODE: Connecting to
 qe_1139763_2971670.sched-torque.pace.gatech.edu2usrpcn4_scratch
  using UNIX socket
  @ DRIVER MODE: Message from server: STATUS
  @ DRIVER MODE: Message from server: INIT
  @ DRIVER MODE: Receiving replica           0          -1
  @ DRIVER MODE: Receiving encoded integer          25
  @ DRIVER MODE:  SCF:  T  FORCE:  T  STRESS:  F  VC:  F  ENSEMBLE:  F
  @ DRIVER MODE:  SCF:  T  FORCE:  T  STRESS:  F  VC:  F  ENSEMBLE:  F

     Using Slab Decomposition

     bravais-lattice index     =            0
     lattice parameter (alat)  =       1.8897  a.u.
     unit-cell volume          =    6658.9804 (a.u.)^3
     number of atoms/cell      =           56
     number of atomic types    =            5
     number of electrons       =       408.00
     number of Kohn-Sham states=          214
     kinetic-energy cutoff     =      29.3995  Ry
     charge density cutoff     =     293.9946  Ry
     scf convergence threshold =      7.3E-08
     mixing beta               =       0.0500
     number of iterations used =            8  plain     mixing
     Exchange-correlation= BEEF-VDW
                           (   1   4  43  14   2   0   0)

     celldm(1)=   1.889726  celldm(2)=   0.000000  celldm(3)=   0.000000
     celldm(4)=   0.000000  celldm(5)=   0.000000  celldm(6)=   0.000000

     crystal axes: (cart. coord. in units of alat)
               a(1) = (   6.579727   0.000000   0.000000 )
               a(2) = (  -0.000775   5.961596   0.000000 )
               a(3) = (   0.000000   0.000000  25.155947 )

     reciprocal axes: (cart. coord. in units 2 pi/alat)
               b(1) = (  0.151982  0.000020  0.000000 )
               b(2) = (  0.000000  0.167740  0.000000 )
               b(3) = (  0.000000  0.000000  0.039752 )

     PseudoPot. # 1 for C  read from file:
     /storage/coda1/p-amedford6/0/shared/rich_project_chbe-medford/medford-share/data/pseudos_module/espresso/nninc/pbe/van/C.UPF
     MD5 check sum: 1a69bf6b8db32088f5b2163dbdb77a27
     Pseudo is Ultrasoft, Zval =  4.0
     Generated by new atomic code, or converted to UPF format
     Using radial grid of  721 points,  4 beta functions with:
                l(1) =   0
                l(2) =   0
                l(3) =   1
                l(4) =   1
     Q(r) pseudized with  8 coefficients,  rinner =    0.800   0.800   0.800

     PseudoPot. # 2 for H  read from file:
     /storage/coda1/p-amedford6/0/shared/rich_project_chbe-medford/medford-share/data/pseudos_module/espresso/nninc/pbe/van/H.UPF
     MD5 check sum: b5ee9d7bfd3a09ee7748110bda690ff7
     Pseudo is Ultrasoft, Zval =  1.0
     Generated by new atomic code, or converted to UPF format
     Using radial grid of  615 points,  1 beta functions with:
                l(1) =   0
     Q(r) pseudized with  8 coefficients,  rinner =    0.800

     PseudoPot. # 3 for O  read from file:
     /storage/coda1/p-amedford6/0/shared/rich_project_chbe-medford/medford-share/data/pseudos_module/espresso/nninc/pbe/van/O.UPF
     MD5 check sum: 78c19812648e8988a0fe644b0f25305e
     Pseudo is Ultrasoft, Zval =  6.0
     Generated by new atomic code, or converted to UPF format
     Using radial grid of  737 points,  4 beta functions with:
                l(1) =   0
                l(2) =   0
                l(3) =   1
                l(4) =   1
     Q(r) pseudized with  8 coefficients,  rinner =    0.800   0.800   0.800

     PseudoPot. # 4 for Ti read from file:
     /storage/coda1/p-amedford6/0/shared/rich_project_chbe-medford/medford-share/data/pseudos_module/espresso/nninc/pbe/van/Ti.UPF
     MD5 check sum: 8e4df49b7f0d34bbd5052bf3f5ea0213
     Pseudo is Ultrasoft, Zval = 12.0
     Generated by new atomic code, or converted to UPF format
     Using radial grid of  851 points,  6 beta functions with:
                l(1) =   0
                l(2) =   0
                l(3) =   1
                l(4) =   1
                l(5) =   2
                l(6) =   2
     Q(r) pseudized with  8 coefficients,  rinner =    1.000   1.000   1.000
                                                       1.000   1.000

     PseudoPot. # 5 for N  read from file:
     /storage/coda1/p-amedford6/0/shared/rich_project_chbe-medford/medford-share/data/pseudos_module/espresso/nninc/pbe/van/N.UPF
     MD5 check sum: 90d10febe142ad51ac9d5be1deb811c4
     Pseudo is Ultrasoft, Zval =  5.0
     Generated by new atomic code, or converted to UPF format
     Using radial grid of  729 points,  4 beta functions with:
                l(1) =   0
                l(2) =   0
                l(3) =   1
                l(4) =   1
     Q(r) pseudized with  8 coefficients,  rinner =    0.800   0.800   0.800

     atomic species   valence    mass     pseudopotential
        C1             4.00    12.01100     C ( 1.00)
        H1             1.00     1.00800     H ( 1.00)
        O1             6.00    15.99900     O ( 1.00)
        Ti1           12.00    47.86700     Ti( 1.00)
        N1             5.00    14.00700     N ( 1.00)

     No symmetry found

   Cartesian axes

     site n.     atom                  positions (alat units)
         1           C1  tau(   1) = (   4.4694424   3.1333252  19.5683752  )
         2           H1  tau(   2) = (   3.5225350   3.1610456  19.0510688  )
         3           H1  tau(   3) = (   5.8501665   2.9975095  17.9951248  )
         4           H1  tau(   4) = (   4.8161173   2.2403860  20.0673745  )
         5           O1  tau(   5) = (   0.0006271   0.0005054   7.9858123  )
         6           O1  tau(   6) = (   3.2906025   0.0005020   7.3038282  )
         7           O1  tau(   7) = (   4.5942328   1.4918067   9.2879030  )
         8           O1  tau(   8) = (   1.9868534   1.4903216   9.2879459  )
         9           O1  tau(   9) = (   3.2658522   0.0207364  11.3165592  )
        10           O1  tau(  10) = (   0.0022773   0.0111808  10.5833539  )
        11           O1  tau(  11) = (   1.2584498   1.5025451  12.6333345  )
        12           O1  tau(  12) = (   5.2827793   1.4879884  12.6049259  )
        13           O1  tau(  13) = (   6.5229081   0.0016576  14.6697044  )
        14           O1  tau(  14) = (   3.2671471   5.9223268  13.9212949  )
        15           O1  tau(  15) = (   4.5038562   1.5078053  16.0770842  )
        16           O1  tau(  16) = (   1.9713840   1.5400684  15.9915579  )
        17           O1  tau(  17) = (   3.2904802   0.0005063   4.7018136  )
        18           O1  tau(  18) = (   0.0083768   5.9574009  17.1899481  )
        19           O1  tau(  19) = (   1.3043587   1.4918075   6.0039043  )
        20           O1  tau(  20) = (   5.2767064   1.4903225   6.0039473  )
        21           O1  tau(  21) = (   0.0002396   2.9813036   7.9858123  )
        22           O1  tau(  22) = (   3.2902150   2.9813002   7.3038282  )
        23           O1  tau(  23) = (   4.5938453   4.4726049   9.2879030  )
        24           O1  tau(  24) = (   1.9864658   4.4711199   9.2879459  )
        25           O1  tau(  25) = (   3.2699439   2.9592623  11.2883102  )
        26           O1  tau(  26) = (   0.0014687   2.9942081  10.5424492  )
        27           O1  tau(  27) = (   1.2624719   4.4656417  12.6394791  )
        28           O1  tau(  28) = (   5.2897987   4.4902883  12.6063686  )
        29           O1  tau(  29) = (   6.5205774   2.9949485  14.6561412  )
        30           O1  tau(  30) = (   3.3050662   2.9767913  13.8748461  )
        31           O1  tau(  31) = (   4.4950179   4.4323158  16.0974573  )
        32           O1  tau(  32) = (   1.9671975   4.4064719  15.9829847  )
        33           O1  tau(  33) = (   3.2900926   2.9813045   4.7018136  )
        34           O1  tau(  34) = (   1.3039711   4.4726057   6.0039043  )
        35           O1  tau(  35) = (   5.2763189   4.4711207   6.0039473  )
        36           O1  tau(  36) = (   6.5424668   2.9800173  17.2949776  )
        37           Ti1 tau(  37) = (   0.0004258   2.9801865   6.0000000  )
        38           Ti1 tau(  38) = (   3.2906075   1.4906267   6.0002472  )
        39           Ti1 tau(  39) = (   3.3167600   3.1006338   9.2159236  )
        40           Ti1 tau(  40) = (   0.0391818   1.5627686   9.3440282  )
        41           Ti1 tau(  41) = (   6.5783755   3.0458713  12.7937554  )
        42           Ti1 tau(  42) = (   3.2318486   1.5634082  12.4209175  )
        43           Ti1 tau(  43) = (   3.2670811   2.9501284  15.6494465  )
        44           Ti1 tau(  44) = (   0.0280251   1.4030395  16.0254105  )
        45           Ti1 tau(  45) = (   0.0000382   5.9609847   6.0000000  )
        46           Ti1 tau(  46) = (   3.2902200   4.4714249   6.0002472  )
        47           Ti1 tau(  47) = (   3.3194908   0.1157174   9.1781592  )
        48           Ti1 tau(  48) = (   0.0398790   4.5135925   9.3581580  )
        49           Ti1 tau(  49) = (   6.5007586   0.0629955  12.6074658  )
        50           Ti1 tau(  50) = (   3.2510718   4.6571100  12.6672192  )
        51           Ti1 tau(  51) = (   3.3282601   5.9350673  16.2366838  )
        52           Ti1 tau(  52) = (   0.0495319   4.5308688  15.9870001  )
        53           N1  tau(  53) = (   5.2748021   5.2735043  20.4272172  )
        54           N1  tau(  54) = (   4.8779203   4.2732533  20.0576380  )
        55           O1  tau(  55) = (   3.0402417   5.9484128  18.0530970  )
        56           H1  tau(  56) = (   2.1334608   0.1014992  18.3542784  )

     number of k points=    10  Fermi-Dirac smearing, width (Ry)=  0.0073
                       cart. coord. in units 2pi/alat
        k(    1) = (   0.0000000   0.0000000   0.0000000), wk =   0.1250000
        k(    2) = (   0.0000000   0.0419351   0.0000000), wk =   0.2500000
        k(    3) = (   0.0000000  -0.0838702   0.0000000), wk =   0.1250000
        k(    4) = (   0.0379955   0.0000049   0.0000000), wk =   0.2500000
        k(    5) = (   0.0379955   0.0419400   0.0000000), wk =   0.2500000
        k(    6) = (   0.0379955  -0.0838652   0.0000000), wk =   0.2500000
        k(    7) = (   0.0379955  -0.0419301   0.0000000), wk =   0.2500000
        k(    8) = (  -0.0759910  -0.0000099   0.0000000), wk =   0.1250000
        k(    9) = (  -0.0759910   0.0419252   0.0000000), wk =   0.2500000
        k(   10) = (  -0.0759910  -0.0838800   0.0000000), wk =   0.1250000

     Initial potential from superposition of free atoms

     starting charge  391.99915, renormalised to  408.00000

     negative rho (up, down):  1.415E-02 0.000E+00

     %%%%%%%%%%%%%%%%%%%%%%%%%%%%%%%%%%%%%%%%%%%%%%%%%%%%%%%%%%%%%%%%%%%%%%%%
     %                                                                      %
     % You are using vdW-DF, which was implemented by the Thonhauser group. %
     % Please cite the following two papers that made this development      %
     % possible and the two reviews that describe the various versions:     %
     %                                                                      %
     %   T. Thonhauser et al., PRL 115, 136402 (2015).                      %
     %   T. Thonhauser et al., PRB 76, 125112 (2007).                       %
     %   K. Berland et al., Rep. Prog. Phys. 78, 066501 (2015).             %
     %   D.C. Langreth et al., J. Phys.: Condens. Matter 21, 084203 (2009). %
     %                                                                      %
     %                                                                      %
     % If you are calculating the stress with vdW-DF, please also cite:     %
     %                                                                      %
     %   R. Sabatini et al., J. Phys.: Condens. Matter 24, 424209 (2012).   %
     %                                                                      %
     %%%%%%%%%%%%%%%%%%%%%%%%%%%%%%%%%%%%%%%%%%%%%%%%%%%%%%%%%%%%%%%%%%%%%%%%

     Adding external electric field

     Computed dipole along edir(3) :
        Dipole              -15.5929 Ry au,        -39.6331 Debye
        Dipole field         -0.0294 Ry au,

        Potential amp.        2.7277 Ry
        Total length         46.3494 bohr

     Starting wfcs are  308 atomic wfcs
  @ DRIVER MODE: Message from server: STATUS
  @ DRIVER MODE: Message from server: POSDATA
  @ DRIVER MODE: Reading and sharing cell
  @ DRIVER MODE: Reading and sharing positions
  @ DRIVER MODE: Received positions

     Self-consistent Calculation

     iteration #  1     ecut=    29.40 Ry     beta= 0.05
     Davidson diagonalization with overlap
     c_bands:  1 eigenvalues not converged
     c_bands:  1 eigenvalues not converged
     c_bands:  1 eigenvalues not converged
     c_bands:  4 eigenvalues not converged
     c_bands:  2 eigenvalues not converged
     ethr =  1.00E-05,  avg # of iterations = 30.9

[...]

     total energy              =   -2234.24383808 Ry
     estimated scf accuracy    <    8817.43123433 Ry

     iteration #  2     ecut=    29.40 Ry     beta= 0.05
     Davidson diagonalization with overlap
     ethr =  1.00E-02,  avg # of iterations = 31.0

[...]

     iteration # 44     ecut=    29.40 Ry     beta= 0.05
     Davidson diagonalization with overlap
     c_bands:  4 eigenvalues not converged
     c_bands:  1 eigenvalues not converged
     ethr =  1.30E-07,  avg # of iterations = 12.4

[...]

     total energy              =   -3005.15880622 Ry
     estimated scf accuracy    <       0.00000017 Ry

     iteration # 77     ecut=    29.40 Ry     beta= 0.05
     Davidson diagonalization with overlap
     ethr =  3.90E-11,  avg # of iterations =  5.0

     negative rho (up, down):  1.447E-02 0.000E+00

     Adding external electric field

     Computed dipole along edir(3) :
        Dipole                0.4967 Ry au,          1.2625 Debye
        Dipole field          0.0009 Ry au,

        Potential amp.       -0.0869 Ry
        Total length         46.3494 bohr

     End of self-consistent calculation

          k = 0.0000 0.0000 0.0000 ( 18029 PWs)   bands (ev):

   -56.1956 -56.1492 -55.6541 -55.6461 -55.6267 -55.5817 -55.5683 -55.5296
   -55.5175 -55.4887 -55.4457 -55.4032 -55.3986 -55.2754 -54.8197 -54.7858
   -32.6098 -32.4589 -32.4102 -32.3759 -32.2815 -32.2362 -32.1445 -32.0868
   -32.0769 -32.0237 -31.9566 -31.9434 -31.9417 -31.8857 -31.8851 -31.8785
   -31.8642 -31.8439 -31.8289 -31.8113 -31.8017 -31.7922 -31.7555 -31.7335
   -31.7300 -31.7117 -31.7066 -31.7023 -31.7017 -31.6945 -31.6882 -31.6808
   -31.6684 -31.6514 -31.6482 -31.6069 -31.5980 -31.5904 -31.5651 -31.5292
   -31.4889 -31.4771 -31.2145 -31.1590 -31.1347 -31.0315 -30.9466 -30.8356
   -20.6071 -16.8428 -16.4690 -16.3605 -16.2176 -15.9872 -15.8500 -15.7638
   -15.5330 -15.5166 -15.4019 -15.3949 -15.3515 -15.2397 -15.2252 -15.1878
   -15.1827 -15.1690 -15.1561 -15.1213 -15.1166 -15.1094 -15.0420 -15.0141
   -14.9866 -14.9429 -14.8880 -14.8467 -14.7777 -14.7705 -14.7280 -14.5243
   -13.7521 -13.3205 -13.2115  -6.3495  -5.3674  -4.8351  -4.2689  -4.0408
    -3.8838  -3.6679  -3.5729  -3.5641  -3.3962  -3.3717  -3.2757  -3.0559
    -2.9229  -2.8406  -2.8100  -2.7500  -2.7270  -2.6567  -2.6223  -2.6135
    -2.5733  -2.5239  -2.4716  -2.4569  -2.4438  -2.3988  -2.3873  -2.3549
    -2.3395  -2.3357  -2.2949  -2.1493  -2.1358  -2.0782  -2.0693  -2.0226
    -2.0156  -1.9881  -1.9770  -1.9317  -1.8944  -1.7549  -1.7374  -1.7233
    -1.6556  -1.4374  -1.4029  -1.3058  -1.2463  -1.2116  -1.1157  -1.1142
    -1.0824  -1.0523  -1.0034  -0.9231  -0.8897  -0.8335  -0.7877  -0.7817
    -0.7318  -0.6646  -0.6143  -0.5556  -0.5202  -0.4803  -0.4027  -0.3508
    -0.2846  -0.2657  -0.2160  -0.1768  -0.0856  -0.0518  -0.0230   0.0294
     0.0544   0.1189   0.1226   0.1632   0.1815   0.2608   0.2899   0.3076
     0.3573   0.3831   0.3978   0.4605   0.5235   0.5677   0.6120   0.7141
     0.7565   0.7840   0.8542   0.9304   1.0992   1.1986   1.2275   1.4231
     1.4553   1.7523   1.8003   1.8572   3.1026   3.2673   3.5551   3.6438
     3.6822   3.7128   3.8100   3.8406   3.9988   4.0398

[...]

          k = 0.0380-0.0419 0.0000 ( 17876 PWs)   bands (ev):

[...]

          k =-0.0760-0.0000 0.0000 ( 17886 PWs)   bands (ev):

[...]

          k =-0.0760-0.0839 0.0000 ( 17948 PWs)   bands (ev):

   -56.1884 -56.1563 -55.6524 -55.6441 -55.6213 -55.5749 -55.5738 -55.5361
   -55.5189 -55.4904 -55.4372 -55.4116 -55.3963 -55.2776 -54.8029 -54.8025
   -32.4542 -32.4403 -32.4145 -32.4129 -32.3408 -32.3136 -32.0338 -31.9533
   -31.9529 -31.9265 -31.9205 -31.8872 -31.8847 -31.8745 -31.8644 -31.8524
   -31.8438 -31.8301 -31.8167 -31.8088 -31.8031 -31.7997 -31.7909 -31.7889
   -31.7831 -31.7814 -31.7697 -31.7534 -31.7242 -31.7202 -31.7107 -31.7012
   -31.7008 -31.6763 -31.6597 -31.6494 -31.6447 -31.6255 -31.5953 -31.5895
   -31.5290 -31.4807 -31.1478 -31.1476 -31.0300 -31.0283 -30.9888 -30.9879
   -20.6064 -16.7659 -16.4516 -15.7998 -15.6698 -15.6620 -15.6612 -15.6259
   -15.5847 -15.5325 -15.5051 -15.4505 -15.3824 -15.3554 -15.3394 -15.3135
   -15.2692 -15.2375 -15.2233 -15.1499 -15.1125 -15.1006 -15.0856 -15.0747
   -15.0309 -15.0285 -15.0093 -14.9999 -14.9941 -14.9386 -14.8411 -14.6650
   -13.7594 -13.3156 -13.3146  -6.2815  -5.4105  -4.7840  -4.2399  -4.0147
    -3.4898  -3.0275  -2.9254  -2.8474  -2.8396  -2.7518  -2.7108  -2.6800
    -2.6603  -2.6416  -2.6150  -2.5655  -2.5420  -2.5063  -2.4968  -2.4954
    -2.4764  -2.4698  -2.4482  -2.4241  -2.4112  -2.3960  -2.3842  -2.3603
    -2.3482  -2.3385  -2.3200  -2.2899  -2.2474  -2.2274  -2.0494  -2.0189
    -2.0116  -2.0110  -1.9428  -1.9390  -1.8808  -1.8075  -1.7917  -1.7706
    -1.7520  -1.6390  -1.5014  -1.4533  -1.3965  -1.3757  -1.3074  -1.2552
    -1.1587  -1.1407  -1.1295  -1.1115  -1.0678  -1.0639  -0.9783  -0.9242
    -0.8807  -0.8764  -0.8559  -0.8121  -0.6930  -0.6837  -0.6459  -0.6226
    -0.6083  -0.5064  -0.4744  -0.4541  -0.4393  -0.4277  -0.3234  -0.2739
    -0.2278  -0.1800  -0.1179  -0.0608   0.0623   0.0871   0.1813   0.2119
     0.2519   0.3865   0.4125   0.4605   0.4963   0.5499   0.5883   0.6028
     0.7295   0.7853   0.8031   0.8698   0.8904   0.9291   0.9527   1.5911
     1.5971   1.6044   1.6069   1.7951   3.6449   3.6713   3.6775   3.7119
     3.8957   3.9248   4.0035   4.0276   4.0420   4.0524

     the Fermi energy is     2.5629 ev

!    total energy              =   -3005.15881890 Ry
     estimated scf accuracy    <       0.00000007 Ry
     smearing contrib. (-TS)   =      -0.00024117 Ry
     internal energy E=F+TS    =   -3005.15857773 Ry

     The total energy is F=E-TS. E is the sum of the following terms:
     one-electron contribution =  -22952.28726748 Ry
     hartree contribution      =   11572.05474080 Ry
     xc contribution           =    -500.31433688 Ry
     ewald contribution        =    8875.38782022 Ry
     electric field correction =       0.00046560 Ry

     convergence has been achieved in  77 iterations

     Forces acting on atoms (cartesian axes, Ry/au):

     atom    1 type  1   force =     0.00060469   -0.00029718    0.00017050
     atom    2 type  2   force =    -0.00021156    0.00021317   -0.00007677
     atom    3 type  2   force =    -0.00000518    0.00000693   -0.00027002
     atom    4 type  2   force =    -0.00038940   -0.00011722    0.00011227
     atom    5 type  3   force =     0.00027607   -0.00316561   -0.05387747
     atom    6 type  3   force =     0.00044657    0.00119993    0.04055217
     atom    7 type  3   force =    -0.00980039   -0.00221746    0.00042382
     atom    8 type  3   force =     0.00887896   -0.00511966   -0.00067775
     atom    9 type  3   force =     0.00010227    0.00003437    0.00001894
     atom   10 type  3   force =    -0.00010187    0.00004543   -0.00000821
     atom   11 type  3   force =     0.00014047   -0.00000134   -0.00010761
     atom   12 type  3   force =     0.00002202    0.00014134    0.00001188
     atom   13 type  3   force =     0.00000879    0.00002541   -0.00009053
     atom   14 type  3   force =     0.00007563   -0.00009021    0.00040968
     atom   15 type  3   force =    -0.00013420    0.00003356    0.00010249
     atom   16 type  3   force =     0.00012625   -0.00015228    0.00003595
     atom   17 type  3   force =    -0.00006850    0.00016526    0.09945571
     atom   18 type  3   force =     0.00000569   -0.00005525   -0.00019050
     atom   19 type  3   force =    -0.08022613    0.00059127   -0.03416167
     atom   20 type  3   force =     0.07999867    0.00110642   -0.03418802
     atom   21 type  3   force =     0.00051694    0.00001954   -0.05295695
     atom   22 type  3   force =     0.00038395    0.00049107    0.04230697
     atom   23 type  3   force =    -0.01093208    0.00575782    0.00233806
     atom   24 type  3   force =     0.01005804    0.00213118    0.00119290
     atom   25 type  3   force =     0.00007921   -0.00000288    0.00010100
     atom   26 type  3   force =     0.00000841    0.00006488   -0.00000688
     atom   27 type  3   force =     0.00008202    0.00007872   -0.00001116
     atom   28 type  3   force =     0.00005499   -0.00002558    0.00006935
     atom   29 type  3   force =     0.00013430   -0.00013636    0.00004878
     atom   30 type  3   force =    -0.00001701   -0.00006049    0.00005855
     atom   31 type  3   force =    -0.00000548   -0.00000447   -0.00005785
     atom   32 type  3   force =     0.00009385   -0.00015253    0.00015855
     atom   33 type  3   force =    -0.00007897    0.00025469    0.09902497
     atom   34 type  3   force =    -0.08022474   -0.00145032   -0.03416153
     atom   35 type  3   force =     0.08000657   -0.00092679   -0.03421294
     atom   36 type  3   force =     0.00002576   -0.00013814   -0.00001503
     atom   37 type  4   force =     0.00020142    0.00016728    0.13340080
     atom   38 type  4   force =     0.00002150    0.00799448   -0.15913579
     atom   39 type  4   force =    -0.00006285   -0.00005884   -0.00004060
     atom   40 type  4   force =    -0.00007826    0.00016048    0.00003480
     atom   41 type  4   force =    -0.00029093   -0.00002628   -0.00002376
     atom   42 type  4   force =    -0.00007756    0.00013398   -0.00007351
     atom   43 type  4   force =     0.00009432   -0.00003624    0.00000201
     atom   44 type  4   force =     0.00016917   -0.00017551    0.00010760
     atom   45 type  4   force =    -0.00024210   -0.00008794    0.14215256
     atom   46 type  4   force =    -0.00018671   -0.00646889   -0.15859860
     atom   47 type  4   force =     0.00011653   -0.00007829   -0.00000425
     atom   48 type  4   force =    -0.00015571    0.00015935    0.00012550
     atom   49 type  4   force =    -0.00012753   -0.00000143    0.00013332
     atom   50 type  4   force =    -0.00010182   -0.00008583   -0.00005163
     atom   51 type  4   force =     0.00037574    0.00003515    0.00003090
     atom   52 type  4   force =     0.00008896    0.00007340    0.00030768
     atom   53 type  5   force =     0.00019829   -0.00007808   -0.00043735
     atom   54 type  5   force =     0.00000548    0.00015029    0.00054643
     atom   55 type  3   force =     0.01707959   -0.00183493   -0.00633508
     atom   56 type  2   force =    -0.01696214    0.00181059    0.00633732

     Total force =     0.385915     Total SCF correction =     0.000627
  @ DRIVER MODE: Message from server: STATUS
  @ DRIVER MODE: Message from server: GETFORCE
  @ DRIVER MODE: Returning v,forces,stress,ensemble

     Writing output data file ./calc.save/
  @ DRIVER MODE: Message from server: EXIT
  @ DRIVE MODE: Exiting

     General routines

     Parallel routines

   This run was terminated on:  20:36:24  26Sep2021

   JOB DONE.