     Program PWSCF v.6.7GPU starts on 25Aug2021 at  3:43: 9

     R & G space division:  proc/nbgrp/npool/nimage =       6
     Reading input from /storage/home/hcoda1/3/ntian30/research/carbon/CH3_vib_end_on/ads_slab/CH3N2H2_f/out_0021/pw.inp
Warning: card &CELL ignored
Warning: card   CELL_DYNAMICS='IPI', ignored
Warning: card / ignored

     Current dimensions of program PWSCF are:
     Max number of different atomic species (ntypx) = 10
     Max number of k-points (npk) =  40000
     Max angular momentum in pseudopotentials (lmaxx) =  3
     Presently no symmetry can be used with electric field

     Message from routine cell_base_init:
     DEPRECATED: use true lattice parameter, not A to a.u. conversion factor

     IMPORTANT: XC functional enforced from input :
     Exchange-correlation= BEEF-VDW
                           (   1   4  43  14   2   0   0)
     Any further DFT definition will be discarded
     Please, verify this is what you really want

  @ DRIVER MODE: Connecting to
 qe_1139763_2643870.sched-torque.pace.gatech.edu6l30_yml_scratch
  using UNIX socket
  @ DRIVER MODE: Message from server: STATUS
  @ DRIVER MODE: Message from server: INIT
  @ DRIVER MODE: Receiving replica           0          -1
  @ DRIVER MODE: Receiving encoded integer          25
  @ DRIVER MODE:  SCF:  T  FORCE:  T  STRESS:  F  VC:  F  ENSEMBLE:  F
  @ DRIVER MODE:  SCF:  T  FORCE:  T  STRESS:  F  VC:  F  ENSEMBLE:  F

     Using Slab Decomposition

     bravais-lattice index     =            0
     lattice parameter (alat)  =       1.8897  a.u.
     unit-cell volume          =    6658.9804 (a.u.)^3
     number of atoms/cell      =           55
     number of atomic types    =            5
     number of electrons       =       397.00
     number of Kohn-Sham states=          208
     kinetic-energy cutoff     =      29.3995  Ry
     charge density cutoff     =     293.9946  Ry
     scf convergence threshold =      7.3E-08
     mixing beta               =       0.0500
     number of iterations used =            8  plain     mixing
     Exchange-correlation= BEEF-VDW
                           (   1   4  43  14   2   0   0)

     celldm(1)=   1.889726  celldm(2)=   0.000000  celldm(3)=   0.000000
     celldm(4)=   0.000000  celldm(5)=   0.000000  celldm(6)=   0.000000

     crystal axes: (cart. coord. in units of alat)
               a(1) = (   6.579727   0.000000   0.000000 )
               a(2) = (  -0.000775   5.961596   0.000000 )
               a(3) = (   0.000000   0.000000  25.155947 )

     reciprocal axes: (cart. coord. in units 2 pi/alat)
               b(1) = (  0.151982  0.000020  0.000000 )
               b(2) = (  0.000000  0.167740  0.000000 )
               b(3) = (  0.000000  0.000000  0.039752 )

     PseudoPot. # 1 for Ti read from file:
     /storage/coda1/p-amedford6/0/shared/rich_project_chbe-medford/medford-share/data/pseudos_module/espresso/nninc/pbe/van/Ti.UPF
     MD5 check sum: 8e4df49b7f0d34bbd5052bf3f5ea0213
     Pseudo is Ultrasoft, Zval = 12.0
     Generated by new atomic code, or converted to UPF format
     Using radial grid of  851 points,  6 beta functions with:
                l(1) =   0
                l(2) =   0
                l(3) =   1
                l(4) =   1
                l(5) =   2
                l(6) =   2
     Q(r) pseudized with  8 coefficients,  rinner =    1.000   1.000   1.000
                                                       1.000   1.000

     PseudoPot. # 2 for O  read from file:
     /storage/coda1/p-amedford6/0/shared/rich_project_chbe-medford/medford-share/data/pseudos_module/espresso/nninc/pbe/van/O.UPF
     MD5 check sum: 78c19812648e8988a0fe644b0f25305e
     Pseudo is Ultrasoft, Zval =  6.0
     Generated by new atomic code, or converted to UPF format
     Using radial grid of  737 points,  4 beta functions with:
                l(1) =   0
                l(2) =   0
                l(3) =   1
                l(4) =   1
     Q(r) pseudized with  8 coefficients,  rinner =    0.800   0.800   0.800

     PseudoPot. # 3 for N  read from file:
     /storage/coda1/p-amedford6/0/shared/rich_project_chbe-medford/medford-share/data/pseudos_module/espresso/nninc/pbe/van/N.UPF
     MD5 check sum: 90d10febe142ad51ac9d5be1deb811c4
     Pseudo is Ultrasoft, Zval =  5.0
     Generated by new atomic code, or converted to UPF format
     Using radial grid of  729 points,  4 beta functions with:
                l(1) =   0
                l(2) =   0
                l(3) =   1
                l(4) =   1
     Q(r) pseudized with  8 coefficients,  rinner =    0.800   0.800   0.800

     PseudoPot. # 4 for C  read from file:
     /storage/coda1/p-amedford6/0/shared/rich_project_chbe-medford/medford-share/data/pseudos_module/espresso/nninc/pbe/van/C.UPF
     MD5 check sum: 1a69bf6b8db32088f5b2163dbdb77a27
     Pseudo is Ultrasoft, Zval =  4.0
     Generated by new atomic code, or converted to UPF format
     Using radial grid of  721 points,  4 beta functions with:
                l(1) =   0
                l(2) =   0
                l(3) =   1
                l(4) =   1
     Q(r) pseudized with  8 coefficients,  rinner =    0.800   0.800   0.800

     PseudoPot. # 5 for H  read from file:
     /storage/coda1/p-amedford6/0/shared/rich_project_chbe-medford/medford-share/data/pseudos_module/espresso/nninc/pbe/van/H.UPF
     MD5 check sum: b5ee9d7bfd3a09ee7748110bda690ff7
     Pseudo is Ultrasoft, Zval =  1.0
     Generated by new atomic code, or converted to UPF format
     Using radial grid of  615 points,  1 beta functions with:
                l(1) =   0
     Q(r) pseudized with  8 coefficients,  rinner =    0.800

     atomic species   valence    mass     pseudopotential
        Ti1           12.00    47.86700     Ti( 1.00)
        O1             6.00    15.99900     O ( 1.00)
        N1             5.00    14.00700     N ( 1.00)
        C1             4.00    12.01100     C ( 1.00)
        H1             1.00     1.00800     H ( 1.00)

     No symmetry found

   Cartesian axes

     site n.     atom                  positions (alat units)
         1           Ti1 tau(   1) = (   0.0004258   2.9801865   6.0000000  )
         2           Ti1 tau(   2) = (   3.2906075   1.4906267   6.0002472  )
         3           O1  tau(   3) = (   0.0006271   0.0005054   7.9858123  )
         4           O1  tau(   4) = (   3.2906025   0.0005020   7.3038282  )
         5           O1  tau(   5) = (   4.5942328   1.4918067   9.2879030  )
         6           O1  tau(   6) = (   1.9868534   1.4903216   9.2879459  )
         7           Ti1 tau(   7) = (   3.2907910   2.8959150   9.1758416  )
         8           Ti1 tau(   8) = (   0.0015273   1.4827037   9.2680791  )
         9           O1  tau(   9) = (   3.2830128   5.9597860  11.3344455  )
        10           O1  tau(  10) = (   0.0116148   5.9584955  10.6183126  )
        11           O1  tau(  11) = (   1.2885291   1.4855062  12.6376555  )
        12           O1  tau(  12) = (   5.2724004   1.4911608  12.5936499  )
        13           Ti1 tau(  13) = (   0.0410009   3.0319447  12.6084003  )
        14           Ti1 tau(  14) = (   3.3739341   1.4916561  12.4823474  )
        15           O1  tau(  15) = (   6.4862162   0.0153916  14.6455093  )
        16           O1  tau(  16) = (   3.3439542   5.9611638  13.9051029  )
        17           O1  tau(  17) = (   4.4933269   1.5483200  16.1231154  )
        18           O1  tau(  18) = (   1.9964937   1.4536654  15.9127221  )
        19           Ti1 tau(  19) = (   3.1412959   3.0017366  15.7441667  )
        20           Ti1 tau(  20) = (   6.4823597   1.5369342  15.8006069  )
        21           O1  tau(  21) = (   3.2904802   0.0005063   4.7018136  )
        22           O1  tau(  22) = (   6.5709111   0.0522475  17.2082838  )
        23           O1  tau(  23) = (   1.3043587   1.4918075   6.0039043  )
        24           O1  tau(  24) = (   5.2767064   1.4903225   6.0039473  )
        25           Ti1 tau(  25) = (   0.0000382   5.9609847   6.0000000  )
        26           Ti1 tau(  26) = (   3.2902200   4.4714249   6.0002472  )
        27           O1  tau(  27) = (   0.0002396   2.9813036   7.9858123  )
        28           O1  tau(  28) = (   3.2902150   2.9813002   7.3038282  )
        29           O1  tau(  29) = (   4.5938453   4.4726049   9.2879030  )
        30           O1  tau(  30) = (   1.9864658   4.4711199   9.2879459  )
        31           Ti1 tau(  31) = (   3.2891106   5.8743827   9.1763621  )
        32           Ti1 tau(  32) = (   0.0006254   4.4649316   9.2693709  )
        33           O1  tau(  33) = (   3.2833609   2.9822938  11.3349093  )
        34           O1  tau(  34) = (   0.0092240   2.9805883  10.6323155  )
        35           O1  tau(  35) = (   1.2838611   4.4860338  12.6468719  )
        36           O1  tau(  36) = (   5.2760156   4.4607002  12.6015494  )
        37           Ti1 tau(  37) = (   0.0673138   0.0440259  12.5461749  )
        38           Ti1 tau(  38) = (   3.3712377   4.4654930  12.4933830  )
        39           O1  tau(  39) = (   6.5217465   2.9589972  14.6412948  )
        40           O1  tau(  40) = (   3.2809526   2.9956502  13.9333893  )
        41           O1  tau(  41) = (   4.4911989   4.4583117  16.1637052  )
        42           O1  tau(  42) = (   1.9937212   4.5427850  15.9740970  )
        43           Ti1 tau(  43) = (   3.2955853   0.0167752  15.6963065  )
        44           Ti1 tau(  44) = (   6.5082246   4.6715011  16.1069148  )
        45           O1  tau(  45) = (   3.2900926   2.9813045   4.7018136  )
        46           O1  tau(  46) = (   1.3039711   4.4726057   6.0039043  )
        47           O1  tau(  47) = (   5.2763189   4.4711207   6.0039473  )
        48           N1  tau(  48) = (   1.3945086   2.8365607  18.1849301  )
        49           N1  tau(  49) = (   0.1777896   2.9650562  17.4211889  )
        50           C1  tau(  50) = (   1.4118813   3.7128676  19.3556819  )
        51           H1  tau(  51) = (   0.5171711   3.5896102  19.9880000  )
        52           H1  tau(  52) = (   2.2935099   3.4681107  19.9517681  )
        53           H1  tau(  53) = (   1.4703795   4.7520035  19.0319817  )
        54           H1  tau(  54) = (   1.4579882   1.8621926  18.4823179  )
        55           H1  tau(  55) = (   5.9558665   2.8747675  18.0551794  )

     number of k points=    10  Fermi-Dirac smearing, width (Ry)=  0.0073
                       cart. coord. in units 2pi/alat
        k(    1) = (   0.0000000   0.0000000   0.0000000), wk =   0.1250000
        k(    2) = (   0.0000000   0.0419351   0.0000000), wk =   0.2500000
        k(    3) = (   0.0000000  -0.0838702   0.0000000), wk =   0.1250000
        k(    4) = (   0.0379955   0.0000049   0.0000000), wk =   0.2500000
        k(    5) = (   0.0379955   0.0419400   0.0000000), wk =   0.2500000
        k(    6) = (   0.0379955  -0.0838652   0.0000000), wk =   0.2500000
        k(    7) = (   0.0379955  -0.0419301   0.0000000), wk =   0.2500000
        k(    8) = (  -0.0759910  -0.0000099   0.0000000), wk =   0.1250000
        k(    9) = (  -0.0759910   0.0419252   0.0000000), wk =   0.2500000
        k(   10) = (  -0.0759910  -0.0838800   0.0000000), wk =   0.1250000

     Initial potential from superposition of free atoms

     starting charge  380.99914, renormalised to  397.00000

     negative rho (up, down):  1.540E-02 0.000E+00

     %%%%%%%%%%%%%%%%%%%%%%%%%%%%%%%%%%%%%%%%%%%%%%%%%%%%%%%%%%%%%%%%%%%%%%%%
     %                                                                      %
     % You are using vdW-DF, which was implemented by the Thonhauser group. %
     % Please cite the following two papers that made this development      %
     % possible and the two reviews that describe the various versions:     %
     %                                                                      %
     %   T. Thonhauser et al., PRL 115, 136402 (2015).                      %
     %   T. Thonhauser et al., PRB 76, 125112 (2007).                       %
     %   K. Berland et al., Rep. Prog. Phys. 78, 066501 (2015).             %
     %   D.C. Langreth et al., J. Phys.: Condens. Matter 21, 084203 (2009). %
     %                                                                      %
     %                                                                      %
     % If you are calculating the stress with vdW-DF, please also cite:     %
     %                                                                      %
     %   R. Sabatini et al., J. Phys.: Condens. Matter 24, 424209 (2012).   %
     %                                                                      %
     %%%%%%%%%%%%%%%%%%%%%%%%%%%%%%%%%%%%%%%%%%%%%%%%%%%%%%%%%%%%%%%%%%%%%%%%

     Adding external electric field

     Computed dipole along edir(3) :
        Dipole               -9.6180 Ry au,        -24.4465 Debye
        Dipole field         -0.0182 Ry au,

        Potential amp.        1.6825 Ry
        Total length         46.3494 bohr

     Starting wfcs are  301 atomic wfcs
  @ DRIVER MODE: Message from server: STATUS
  @ DRIVER MODE: Message from server: POSDATA
  @ DRIVER MODE: Reading and sharing cell
  @ DRIVER MODE: Reading and sharing positions
  @ DRIVER MODE: Received positions

     Self-consistent Calculation

     iteration #  1     ecut=    29.40 Ry     beta= 0.05
     Davidson diagonalization with overlap
     c_bands:  1 eigenvalues not converged
     c_bands:  1 eigenvalues not converged
     c_bands:  1 eigenvalues not converged
     c_bands:  1 eigenvalues not converged
     c_bands:  1 eigenvalues not converged
     c_bands:  1 eigenvalues not converged
     c_bands:  2 eigenvalues not converged
     ethr =  1.00E-05,  avg # of iterations = 18.8

[...]

     total energy              =   -2533.48226502 Ry
     estimated scf accuracy    <    4540.37697850 Ry

     iteration #  2     ecut=    29.40 Ry     beta= 0.05
     Davidson diagonalization with overlap
     ethr =  1.00E-02,  avg # of iterations = 24.9

[...]

     iteration # 63     ecut=    29.40 Ry     beta= 0.05
     Davidson diagonalization with overlap
     c_bands:  1 eigenvalues not converged
     c_bands:  1 eigenvalues not converged
     ethr =  2.25E-09,  avg # of iterations = 17.2

[...]

     total energy              =   -2941.66156916 Ry
     estimated scf accuracy    <       0.00000008 Ry

     iteration # 82     ecut=    29.40 Ry     beta= 0.05
     Davidson diagonalization with overlap
     ethr =  2.08E-11,  avg # of iterations =  5.2

     negative rho (up, down):  1.607E-02 0.000E+00

     Adding external electric field

     Computed dipole along edir(3) :
        Dipole                0.9404 Ry au,          2.3902 Debye
        Dipole field          0.0018 Ry au,

        Potential amp.       -0.1645 Ry
        Total length         46.3494 bohr

     End of self-consistent calculation

          k = 0.0000 0.0000 0.0000 ( 18029 PWs)   bands (ev):

   -55.6865 -55.6695 -55.6524 -55.6329 -55.5924 -55.5382 -55.5311 -55.5009
   -55.4950 -55.4669 -55.4649 -55.4308 -55.2586 -55.0345 -54.6669 -54.6328
   -32.2205 -32.1695 -32.0427 -32.0326 -31.9993 -31.9846 -31.9793 -31.9552
   -31.9305 -31.8987 -31.8964 -31.8901 -31.8470 -31.8387 -31.8251 -31.8232
   -31.8066 -31.7914 -31.7826 -31.7474 -31.7436 -31.7367 -31.7212 -31.7177
   -31.6946 -31.6901 -31.6875 -31.6798 -31.6655 -31.6635 -31.6559 -31.6466
   -31.6410 -31.6314 -31.6179 -31.6084 -31.5770 -31.5088 -31.4650 -31.3008
   -31.2914 -31.2371 -31.0741 -30.9856 -30.9632 -30.8908 -30.8043 -30.6933
   -16.7731 -16.4171 -16.1624 -15.9331 -15.8419 -15.8115 -15.6591 -15.5275
   -15.4181 -15.3364 -15.2514 -15.2324 -15.2252 -15.2145 -15.1883 -15.1826
   -15.1353 -15.1309 -15.1114 -15.0984 -15.0483 -15.0318 -15.0282 -14.9335
   -14.8697 -14.8344 -14.8196 -14.7849 -14.7475 -14.3338 -13.1690 -13.0525
   -11.8091  -8.9766  -5.4330  -4.3621  -3.8398  -3.7885  -3.6445  -3.5940
    -3.5337  -3.4959  -3.3174  -3.2148  -2.9421  -2.8854  -2.8555  -2.8464
    -2.7935  -2.7621  -2.6015  -2.5751  -2.5044  -2.4950  -2.4802  -2.4511
    -2.4421  -2.4355  -2.3979  -2.3758  -2.3479  -2.2431  -2.1035  -2.0939
    -2.0712  -2.0382  -2.0004  -1.9518  -1.9354  -1.9152  -1.8968  -1.8845
    -1.8716  -1.7368  -1.7017  -1.5855  -1.4958  -1.4494  -1.3694  -1.2986
    -1.2688  -1.1579  -1.1181  -1.1058  -1.0916  -1.0807  -0.9810  -0.8755
    -0.8581  -0.8203  -0.7650  -0.7093  -0.6387  -0.5939  -0.5429  -0.4906
    -0.4665  -0.4511  -0.4483  -0.4132  -0.3216  -0.1803  -0.1284  -0.0940
    -0.0719   0.0048   0.0400   0.0961   0.1206   0.1439   0.1798   0.2328
     0.2764   0.2829   0.2963   0.3108   0.3155   0.4898   0.5395   0.5812
     0.6144   0.6605   0.8217   0.8437   0.9656   1.0398   1.2028   1.2810
     1.3556   1.4334   1.5473   1.6224   1.9268   1.9725   3.4443   3.5318
     3.5765   3.5903   3.6857   3.7274   3.8971   3.9276   3.9420   4.0026

[...]

          k = 0.0380-0.0419 0.0000 ( 17876 PWs)   bands (ev):

[...]

          k =-0.0760-0.0000 0.0000 ( 17886 PWs)   bands (ev):

[...]

          k =-0.0760-0.0839 0.0000 ( 17948 PWs)   bands (ev):

   -55.6697 -55.6690 -55.6548 -55.6474 -55.5864 -55.5440 -55.5185 -55.5076
   -55.4844 -55.4829 -55.4508 -55.4451 -55.2574 -55.0356 -54.6498 -54.6498
   -32.0296 -32.0199 -31.9851 -31.9845 -31.9651 -31.9643 -31.9443 -31.9378
   -31.8850 -31.8843 -31.8740 -31.8689 -31.8519 -31.8340 -31.8093 -31.8045
   -31.8002 -31.7965 -31.7900 -31.7899 -31.7886 -31.7882 -31.7844 -31.7449
   -31.7365 -31.7250 -31.7167 -31.7056 -31.6848 -31.6839 -31.6818 -31.6751
   -31.6651 -31.6611 -31.6579 -31.6554 -31.6145 -31.5113 -31.4617 -31.3630
   -31.2935 -31.2631 -30.9759 -30.9758 -30.8869 -30.8868 -30.8476 -30.8476
   -16.7469 -15.8644 -15.8033 -15.6453 -15.6101 -15.5906 -15.5557 -15.4949
   -15.4117 -15.3846 -15.3800 -15.3330 -15.3073 -15.2745 -15.2362 -15.2218
   -15.2146 -15.1958 -15.1836 -15.1496 -15.1401 -15.1285 -15.1213 -15.0458
   -15.0082 -15.0038 -14.9984 -14.8947 -14.7683 -14.5017 -13.1543 -13.1543
   -11.8154  -8.9909  -5.4472  -4.3491  -3.7648  -3.1572  -3.0701  -2.8953
    -2.8398  -2.8110  -2.7952  -2.6295  -2.6203  -2.6034  -2.5606  -2.5357
    -2.5278  -2.5174  -2.5084  -2.4874  -2.4748  -2.4397  -2.4300  -2.3947
    -2.3811  -2.3626  -2.3458  -2.3288  -2.3091  -2.2950  -2.2779  -2.2374
    -2.2179  -2.2076  -2.1872  -2.1427  -1.9323  -1.8821  -1.8359  -1.8319
    -1.8217  -1.8021  -1.7473  -1.7424  -1.7087  -1.6572  -1.5788  -1.4339
    -1.3884  -1.3720  -1.2790  -1.2575  -1.2048  -1.1326  -1.0868  -1.0699
    -1.0348  -0.9709  -0.9345  -0.8971  -0.8307  -0.8062  -0.8005  -0.7068
    -0.6858  -0.6495  -0.6429  -0.5644  -0.5138  -0.4508  -0.4354  -0.4190
    -0.3875  -0.3539  -0.3358  -0.2680  -0.1759  -0.1748  -0.1520  -0.0427
     0.0479   0.2764   0.3390   0.3762   0.4209   0.5146   0.5830   0.6077
     0.6236   0.6451   0.6646   0.7125   0.8398   0.8499   0.8841   0.9970
     1.1018   1.6385   1.7190   1.7199   1.7924   1.7925   3.7458   3.7641
     3.7847   3.8311   3.9503   3.9573   3.9794   3.9816   4.1050   4.1177

     the Fermi energy is     3.4459 ev

!    total energy              =   -2941.66157590 Ry
     estimated scf accuracy    <       0.00000004 Ry
     smearing contrib. (-TS)   =      -0.02151980 Ry
     internal energy E=F+TS    =   -2941.64005610 Ry

     The total energy is F=E-TS. E is the sum of the following terms:
     one-electron contribution =  -24276.04481506 Ry
     hartree contribution      =   12228.48046272 Ry
     xc contribution           =    -486.87249074 Ry
     ewald contribution        =    9592.79511820 Ry
     electric field correction =       0.00166878 Ry

     convergence has been achieved in  82 iterations

     Forces acting on atoms (cartesian axes, Ry/au):

     atom    1 type  1   force =     0.00017895   -0.00011414    0.09634199
     atom    2 type  1   force =    -0.00021894   -0.00063442   -0.17553613
     atom    3 type  2   force =    -0.00004143   -0.00003374   -0.02419442
     atom    4 type  2   force =     0.00004902   -0.00143888    0.05291649
     atom    5 type  2   force =    -0.01181116   -0.00048954    0.00396474
     atom    6 type  2   force =     0.01312324    0.00023679    0.00230021
     atom    7 type  1   force =    -0.00139847    0.00079953   -0.01148743
     atom    8 type  1   force =     0.00053139    0.00921058    0.02522903
     atom    9 type  2   force =    -0.00011002    0.00017380    0.00039185
     atom   10 type  2   force =    -0.00086455    0.00148586   -0.01579595
     atom   11 type  2   force =    -0.00018960   -0.00049820    0.00039237
     atom   12 type  2   force =    -0.00013679   -0.00026263    0.00002470
     atom   13 type  1   force =     0.00054411   -0.00091669    0.00006286
     atom   14 type  1   force =    -0.00008293   -0.00040327    0.00024302
     atom   15 type  2   force =     0.00017397    0.00003486   -0.00029154
     atom   16 type  2   force =     0.00006877    0.00024569    0.00005844
     atom   17 type  2   force =    -0.00050770    0.00034690    0.00048674
     atom   18 type  2   force =     0.00010928    0.00008180    0.00025434
     atom   19 type  1   force =     0.00007447   -0.00056974    0.00027239
     atom   20 type  1   force =     0.00016798    0.00035168    0.00057947
     atom   21 type  2   force =     0.00007479   -0.00007979    0.10324758
     atom   22 type  2   force =    -0.00040853   -0.00025926    0.00025907
     atom   23 type  2   force =    -0.07148637   -0.00018056   -0.02772096
     atom   24 type  2   force =     0.07140720    0.00025154   -0.02772196
     atom   25 type  1   force =     0.00003049   -0.00027897    0.09580591
     atom   26 type  1   force =    -0.00015047   -0.00023315   -0.17571038
     atom   27 type  2   force =     0.00009222   -0.00012608   -0.02329967
     atom   28 type  2   force =     0.00007999   -0.00129534    0.05334088
     atom   29 type  2   force =    -0.01194072   -0.00005444    0.00376204
     atom   30 type  2   force =     0.01319117    0.00043065    0.00213727
     atom   31 type  1   force =    -0.00141522    0.00344532   -0.01080936
     atom   32 type  1   force =     0.00064040   -0.01009502    0.02563735
     atom   33 type  2   force =    -0.00039066    0.00005149    0.00005260
     atom   34 type  2   force =     0.00075083    0.00089986   -0.02306515
     atom   35 type  2   force =    -0.00010836    0.00029248   -0.00002600
     atom   36 type  2   force =    -0.00022704    0.00059487   -0.00029010
     atom   37 type  1   force =    -0.00082364   -0.00102234   -0.00014907
     atom   38 type  1   force =    -0.00003250   -0.00009972   -0.00004253
     atom   39 type  2   force =    -0.00034811    0.00004069    0.00058117
     atom   40 type  2   force =     0.00048725    0.00025080    0.00026919
     atom   41 type  2   force =     0.00005663    0.00050543    0.00026882
     atom   42 type  2   force =     0.00006410    0.00030831   -0.00018264
     atom   43 type  1   force =     0.00019200    0.00010675   -0.00023947
     atom   44 type  1   force =    -0.00026071   -0.00060951   -0.00000606
     atom   45 type  2   force =     0.00007092   -0.00008847    0.10327095
     atom   46 type  2   force =    -0.07148747   -0.00017023   -0.02771755
     atom   47 type  2   force =     0.07141292    0.00030454   -0.02773319
     atom   48 type  3   force =     0.00005100   -0.00017390   -0.00093725
     atom   49 type  3   force =     0.00057671   -0.00018083    0.00045106
     atom   50 type  4   force =    -0.00039325   -0.00203972    0.00167592
     atom   51 type  5   force =     0.00213902    0.00244107   -0.00109039
     atom   52 type  5   force =    -0.00003718    0.00075283   -0.00081327
     atom   53 type  5   force =    -0.00119211   -0.00177768    0.00114110
     atom   54 type  5   force =     0.00004677    0.00073445   -0.00045071
     atom   55 type  5   force =    -0.00032165   -0.00025229   -0.00010843

     Total force =     0.367400     Total SCF correction =     0.000884
  @ DRIVER MODE: Message from server: STATUS
  @ DRIVER MODE: Message from server: GETFORCE
  @ DRIVER MODE: Returning v,forces,stress,ensemble

     Writing output data file ./calc.save/
  @ DRIVER MODE: Message from server: EXIT
  @ DRIVE MODE: Exiting

     General routines

     Parallel routines

   This run was terminated on:   4:18: 3  25Aug2021

   JOB DONE.