     Program PWSCF v.6.7GPU starts on 24Aug2021 at 23:52:35

     R & G space division:  proc/nbgrp/npool/nimage =       6
     Reading input from /storage/home/hcoda1/3/ntian30/research/carbon/CH3_vib_end_on/ads_slab/CH3N_a/out_0018/pw.inp
Warning: card &CELL ignored
Warning: card   CELL_DYNAMICS='IPI', ignored
Warning: card / ignored

     Current dimensions of program PWSCF are:
     Max number of different atomic species (ntypx) = 10
     Max number of k-points (npk) =  40000
     Max angular momentum in pseudopotentials (lmaxx) =  3
     Presently no symmetry can be used with electric field

     Message from routine cell_base_init:
     DEPRECATED: use true lattice parameter, not A to a.u. conversion factor

     IMPORTANT: XC functional enforced from input :
     Exchange-correlation= BEEF-VDW
                           (   1   4  43  14   2   0   0)
     Any further DFT definition will be discarded
     Please, verify this is what you really want

  @ DRIVER MODE: Connecting to
 qe_1139763_2643872.sched-torque.pace.gatech.eduyry3hwee_scratch
  using UNIX socket
  @ DRIVER MODE: Message from server: STATUS
  @ DRIVER MODE: Message from server: INIT
  @ DRIVER MODE: Receiving replica           0          -1
  @ DRIVER MODE: Receiving encoded integer          25
  @ DRIVER MODE:  SCF:  T  FORCE:  T  STRESS:  F  VC:  F  ENSEMBLE:  F
  @ DRIVER MODE:  SCF:  T  FORCE:  T  STRESS:  F  VC:  F  ENSEMBLE:  F

     Using Slab Decomposition

     bravais-lattice index     =            0
     lattice parameter (alat)  =       1.8897  a.u.
     unit-cell volume          =    6658.9804 (a.u.)^3
     number of atoms/cell      =           52
     number of atomic types    =            5
     number of electrons       =       390.00
     number of Kohn-Sham states=          205
     kinetic-energy cutoff     =      29.3995  Ry
     charge density cutoff     =     293.9946  Ry
     scf convergence threshold =      7.3E-08
     mixing beta               =       0.0500
     number of iterations used =            8  plain     mixing
     Exchange-correlation= BEEF-VDW
                           (   1   4  43  14   2   0   0)

     celldm(1)=   1.889726  celldm(2)=   0.000000  celldm(3)=   0.000000
     celldm(4)=   0.000000  celldm(5)=   0.000000  celldm(6)=   0.000000

     crystal axes: (cart. coord. in units of alat)
               a(1) = (   6.579727   0.000000   0.000000 )
               a(2) = (  -0.000775   5.961596   0.000000 )
               a(3) = (   0.000000   0.000000  25.155947 )

     reciprocal axes: (cart. coord. in units 2 pi/alat)
               b(1) = (  0.151982  0.000020  0.000000 )
               b(2) = (  0.000000  0.167740  0.000000 )
               b(3) = (  0.000000  0.000000  0.039752 )

     PseudoPot. # 1 for Ti read from file:
     /storage/coda1/p-amedford6/0/shared/rich_project_chbe-medford/medford-share/data/pseudos_module/espresso/nninc/pbe/van/Ti.UPF
     MD5 check sum: 8e4df49b7f0d34bbd5052bf3f5ea0213
     Pseudo is Ultrasoft, Zval = 12.0
     Generated by new atomic code, or converted to UPF format
     Using radial grid of  851 points,  6 beta functions with:
                l(1) =   0
                l(2) =   0
                l(3) =   1
                l(4) =   1
                l(5) =   2
                l(6) =   2
     Q(r) pseudized with  8 coefficients,  rinner =    1.000   1.000   1.000
                                                       1.000   1.000

     PseudoPot. # 2 for O  read from file:
     /storage/coda1/p-amedford6/0/shared/rich_project_chbe-medford/medford-share/data/pseudos_module/espresso/nninc/pbe/van/O.UPF
     MD5 check sum: 78c19812648e8988a0fe644b0f25305e
     Pseudo is Ultrasoft, Zval =  6.0
     Generated by new atomic code, or converted to UPF format
     Using radial grid of  737 points,  4 beta functions with:
                l(1) =   0
                l(2) =   0
                l(3) =   1
                l(4) =   1
     Q(r) pseudized with  8 coefficients,  rinner =    0.800   0.800   0.800

     PseudoPot. # 3 for N  read from file:
     /storage/coda1/p-amedford6/0/shared/rich_project_chbe-medford/medford-share/data/pseudos_module/espresso/nninc/pbe/van/N.UPF
     MD5 check sum: 90d10febe142ad51ac9d5be1deb811c4
     Pseudo is Ultrasoft, Zval =  5.0
     Generated by new atomic code, or converted to UPF format
     Using radial grid of  729 points,  4 beta functions with:
                l(1) =   0
                l(2) =   0
                l(3) =   1
                l(4) =   1
     Q(r) pseudized with  8 coefficients,  rinner =    0.800   0.800   0.800

     PseudoPot. # 4 for C  read from file:
     /storage/coda1/p-amedford6/0/shared/rich_project_chbe-medford/medford-share/data/pseudos_module/espresso/nninc/pbe/van/C.UPF
     MD5 check sum: 1a69bf6b8db32088f5b2163dbdb77a27
     Pseudo is Ultrasoft, Zval =  4.0
     Generated by new atomic code, or converted to UPF format
     Using radial grid of  721 points,  4 beta functions with:
                l(1) =   0
                l(2) =   0
                l(3) =   1
                l(4) =   1
     Q(r) pseudized with  8 coefficients,  rinner =    0.800   0.800   0.800

     PseudoPot. # 5 for H  read from file:
     /storage/coda1/p-amedford6/0/shared/rich_project_chbe-medford/medford-share/data/pseudos_module/espresso/nninc/pbe/van/H.UPF
     MD5 check sum: b5ee9d7bfd3a09ee7748110bda690ff7
     Pseudo is Ultrasoft, Zval =  1.0
     Generated by new atomic code, or converted to UPF format
     Using radial grid of  615 points,  1 beta functions with:
                l(1) =   0
     Q(r) pseudized with  8 coefficients,  rinner =    0.800

     atomic species   valence    mass     pseudopotential
        Ti1           12.00    47.86700     Ti( 1.00)
        O1             6.00    15.99900     O ( 1.00)
        N1             5.00    14.00700     N ( 1.00)
        C1             4.00    12.01100     C ( 1.00)
        H1             1.00     1.00800     H ( 1.00)

     No symmetry found

   Cartesian axes

     site n.     atom                  positions (alat units)
         1           Ti1 tau(   1) = (   0.0004258   2.9801865   6.0000000  )
         2           Ti1 tau(   2) = (   3.2906075   1.4906267   6.0002472  )
         3           O1  tau(   3) = (   0.0006271   0.0005054   7.9858123  )
         4           O1  tau(   4) = (   3.2906025   0.0005020   7.3038282  )
         5           O1  tau(   5) = (   4.5942328   1.4918067   9.2879030  )
         6           O1  tau(   6) = (   1.9868534   1.4903216   9.2879459  )
         7           Ti1 tau(   7) = (   3.2907910   2.8959150   9.1758416  )
         8           Ti1 tau(   8) = (   0.0015273   1.4827037   9.2680791  )
         9           O1  tau(   9) = (   3.3018735   5.9614316  11.2970789  )
        10           O1  tau(  10) = (   0.0116148   5.9584955  10.6183126  )
        11           O1  tau(  11) = (   1.3353665   1.4968727  12.6140821  )
        12           O1  tau(  12) = (   5.3123320   1.5002621  12.6324210  )
        13           Ti1 tau(  13) = (   6.4913169   2.9877414  12.7576577  )
        14           Ti1 tau(  14) = (   3.1819880   1.4874128  12.4666476  )
        15           O1  tau(  15) = (   0.0325390   5.9514364  14.5942808  )
        16           O1  tau(  16) = (   3.3157460   0.0104736  13.8786857  )
        17           O1  tau(  17) = (   4.5538541   1.5308062  16.0536203  )
        18           O1  tau(  18) = (   2.1012647   1.5271178  16.0466835  )
        19           Ti1 tau(  19) = (   3.3239613   3.0121693  15.6870930  )
        20           Ti1 tau(  20) = (   0.0188375   1.6096557  16.0875739  )
        21           O1  tau(  21) = (   3.2904802   0.0005063   4.7018136  )
        22           O1  tau(  22) = (   0.0443345   0.0604659  17.2041813  )
        23           O1  tau(  23) = (   1.3043587   1.4918075   6.0039043  )
        24           O1  tau(  24) = (   5.2767064   1.4903225   6.0039473  )
        25           Ti1 tau(  25) = (   0.0000382   5.9609847   6.0000000  )
        26           Ti1 tau(  26) = (   3.2902200   4.4714249   6.0002472  )
        27           O1  tau(  27) = (   0.0002396   2.9813036   7.9858123  )
        28           O1  tau(  28) = (   3.2902150   2.9813002   7.3038282  )
        29           O1  tau(  29) = (   4.5938453   4.4726049   9.2879030  )
        30           O1  tau(  30) = (   1.9864658   4.4711199   9.2879459  )
        31           Ti1 tau(  31) = (   3.2891106   5.8743827   9.1763621  )
        32           Ti1 tau(  32) = (   0.0006254   4.4649316   9.2693709  )
        33           O1  tau(  33) = (   3.3028429   2.9834257  11.2952420  )
        34           O1  tau(  34) = (   0.0092240   2.9805883  10.6323155  )
        35           O1  tau(  35) = (   1.3370139   4.4664586  12.6123119  )
        36           O1  tau(  36) = (   5.3107101   4.4655690  12.6333123  )
        37           Ti1 tau(  37) = (   6.5188704   0.0058144  12.7695920  )
        38           Ti1 tau(  38) = (   3.1805296   4.4670443  12.4671176  )
        39           O1  tau(  39) = (   0.0099197   2.9765079  14.6559069  )
        40           O1  tau(  40) = (   3.3143426   2.9928857  13.8797190  )
        41           O1  tau(  41) = (   4.5573730   4.5089470  16.0521860  )
        42           O1  tau(  42) = (   2.1018054   4.5121927  16.0508938  )
        43           Ti1 tau(  43) = (   3.3145791   0.0316975  15.6896801  )
        44           Ti1 tau(  44) = (   0.0207397   4.5876961  16.1385408  )
        45           O1  tau(  45) = (   3.2900926   2.9813045   4.7018136  )
        46           O1  tau(  46) = (   1.3039711   4.4726057   6.0039043  )
        47           O1  tau(  47) = (   5.2763189   4.4711207   6.0039473  )
        48           N1  tau(  48) = (   0.0936308   3.0233000  17.3257847  )
        49           C1  tau(  49) = (   0.4281149   3.0137428  18.7308649  )
        50           H1  tau(  50) = (   0.7292188   4.0033843  19.0962330  )
        51           H1  tau(  51) = (   6.1445545   2.6862439  19.3232575  )
        52           H1  tau(  52) = (   1.2401080   2.3040860  18.9332505  )

     number of k points=    10  Fermi-Dirac smearing, width (Ry)=  0.0073
                       cart. coord. in units 2pi/alat
        k(    1) = (   0.0000000   0.0000000   0.0000000), wk =   0.1250000
        k(    2) = (   0.0000000   0.0419351   0.0000000), wk =   0.2500000
        k(    3) = (   0.0000000  -0.0838702   0.0000000), wk =   0.1250000
        k(    4) = (   0.0379955   0.0000049   0.0000000), wk =   0.2500000
        k(    5) = (   0.0379955   0.0419400   0.0000000), wk =   0.2500000
        k(    6) = (   0.0379955  -0.0838652   0.0000000), wk =   0.2500000
        k(    7) = (   0.0379955  -0.0419301   0.0000000), wk =   0.2500000
        k(    8) = (  -0.0759910  -0.0000099   0.0000000), wk =   0.1250000
        k(    9) = (  -0.0759910   0.0419252   0.0000000), wk =   0.2500000
        k(   10) = (  -0.0759910  -0.0838800   0.0000000), wk =   0.1250000

     Initial potential from superposition of free atoms

     starting charge  373.99917, renormalised to  390.00000

     negative rho (up, down):  1.729E-02 0.000E+00

     %%%%%%%%%%%%%%%%%%%%%%%%%%%%%%%%%%%%%%%%%%%%%%%%%%%%%%%%%%%%%%%%%%%%%%%%
     %                                                                      %
     % You are using vdW-DF, which was implemented by the Thonhauser group. %
     % Please cite the following two papers that made this development      %
     % possible and the two reviews that describe the various versions:     %
     %                                                                      %
     %   T. Thonhauser et al., PRL 115, 136402 (2015).                      %
     %   T. Thonhauser et al., PRB 76, 125112 (2007).                       %
     %   K. Berland et al., Rep. Prog. Phys. 78, 066501 (2015).             %
     %   D.C. Langreth et al., J. Phys.: Condens. Matter 21, 084203 (2009). %
     %                                                                      %
     %                                                                      %
     % If you are calculating the stress with vdW-DF, please also cite:     %
     %                                                                      %
     %   R. Sabatini et al., J. Phys.: Condens. Matter 24, 424209 (2012).   %
     %                                                                      %
     %%%%%%%%%%%%%%%%%%%%%%%%%%%%%%%%%%%%%%%%%%%%%%%%%%%%%%%%%%%%%%%%%%%%%%%%

     Adding external electric field

     Computed dipole along edir(3) :
        Dipole               -4.6280 Ry au,        -11.7632 Debye
        Dipole field         -0.0087 Ry au,

        Potential amp.        0.8096 Ry
        Total length         46.3494 bohr

     Starting wfcs are  295 atomic wfcs
  @ DRIVER MODE: Message from server: STATUS
  @ DRIVER MODE: Message from server: POSDATA
  @ DRIVER MODE: Reading and sharing cell
  @ DRIVER MODE: Reading and sharing positions
  @ DRIVER MODE: Received positions

     Self-consistent Calculation

     iteration #  1     ecut=    29.40 Ry     beta= 0.05
     Davidson diagonalization with overlap
     c_bands:  4 eigenvalues not converged
     c_bands:  2 eigenvalues not converged
     c_bands:  2 eigenvalues not converged
     c_bands:  4 eigenvalues not converged
     c_bands:  4 eigenvalues not converged
     c_bands:  2 eigenvalues not converged
     c_bands:  2 eigenvalues not converged
     c_bands:  2 eigenvalues not converged
     ethr =  1.00E-05,  avg # of iterations = 19.7

[...]

     total energy              =   -2877.28219809 Ry
     estimated scf accuracy    <     482.69289133 Ry

     iteration #  2     ecut=    29.40 Ry     beta= 0.05
     Davidson diagonalization with overlap
     ethr =  1.00E-02,  avg # of iterations = 13.7

[...]

     iteration # 34     ecut=    29.40 Ry     beta= 0.05
     Davidson diagonalization with overlap
     c_bands:  1 eigenvalues not converged
     ethr =  3.83E-06,  avg # of iterations = 14.0

[...]

     total energy              =   -2919.13184975 Ry
     estimated scf accuracy    <       0.00000018 Ry

     iteration # 68     ecut=    29.40 Ry     beta= 0.05
     Davidson diagonalization with overlap
     ethr =  3.46E-11,  avg # of iterations =  5.1

     negative rho (up, down):  1.786E-02 0.000E+00

     Adding external electric field

     Computed dipole along edir(3) :
        Dipole                0.2597 Ry au,          0.6601 Debye
        Dipole field          0.0005 Ry au,

        Potential amp.       -0.0454 Ry
        Total length         46.3494 bohr

     End of self-consistent calculation

          k = 0.0000 0.0000 0.0000 ( 18029 PWs)   bands (ev):

   -56.8885 -56.8549 -56.0104 -55.9987 -55.9755 -55.9659 -55.8635 -55.8248
   -55.6468 -55.6115 -55.5524 -55.5497 -55.5185 -55.4405 -54.9687 -54.9223
   -33.3163 -33.1632 -33.1350 -33.0645 -32.9735 -32.9423 -32.4814 -32.4751
   -32.4042 -32.2947 -32.2482 -32.2242 -32.2059 -32.1845 -32.1509 -32.1466
   -32.1426 -32.1396 -32.1140 -32.1112 -32.1000 -32.0706 -32.0443 -32.0306
   -32.0175 -31.9977 -31.9905 -31.9669 -31.9448 -31.8910 -31.8782 -31.8668
   -31.7911 -31.7856 -31.7635 -31.7247 -31.7134 -31.6800 -31.6698 -31.6449
   -31.6262 -31.5691 -31.4988 -31.2194 -31.1937 -31.1733 -31.1431 -31.0280
   -17.0526 -16.6174 -16.3869 -16.2509 -16.1838 -16.1291 -16.0853 -15.9607
   -15.8881 -15.8833 -15.8429 -15.8109 -15.7399 -15.6018 -15.5032 -15.4458
   -15.4022 -15.2834 -15.2245 -15.1908 -15.1845 -15.1458 -15.1306 -14.9342
   -14.9077 -14.8196 -14.7993 -14.6729 -14.4398 -14.0512 -13.9411 -13.0779
    -7.8118  -4.6181  -4.1138  -3.8726  -3.7898  -3.6816  -3.6687  -3.5880
    -3.4693  -3.4224  -3.3760  -3.2598  -3.2563  -3.1100  -3.0886  -3.0640
    -3.0615  -3.0218  -2.9640  -2.9438  -2.9048  -2.8943  -2.8859  -2.7336
    -2.6335  -2.5660  -2.5396  -2.5267  -2.4962  -2.4235  -2.3939  -2.3852
    -2.3813  -2.2755  -2.1308  -2.1284  -2.0975  -2.0554  -2.0528  -2.0129
    -2.0014  -1.8774  -1.7863  -1.6776  -1.6676  -1.6304  -1.5687  -1.5619
    -1.4663  -1.3899  -1.3198  -1.3019  -1.1924  -1.1490  -1.1254  -1.0351
    -0.9739  -0.9367  -0.9133  -0.8973  -0.7935  -0.7779  -0.7706  -0.6771
    -0.6649  -0.6215  -0.5282  -0.5050  -0.4993  -0.4174  -0.4102  -0.3046
    -0.2772  -0.2320  -0.1995  -0.0942  -0.0737   0.0241   0.0608   0.0802
     0.2013   0.2186   0.2793   0.3514   0.4166   0.4335   0.4690   0.4995
     0.5158   0.5939   0.7061   0.7133   0.8176   0.8501   1.0216   1.0604
     1.3444   1.3530   2.0451   2.3861   2.5457   2.8441   3.0333   3.1466
     3.3610   3.3765   3.3818   3.5538   3.6057

[...]

          k = 0.0380-0.0419 0.0000 ( 17876 PWs)   bands (ev):

[...]

          k =-0.0760-0.0000 0.0000 ( 17886 PWs)   bands (ev):

[...]

          k =-0.0760-0.0839 0.0000 ( 17948 PWs)   bands (ev):

   -56.8718 -56.8714 -55.9952 -55.9895 -55.9831 -55.9824 -55.8520 -55.8362
   -55.6321 -55.6261 -55.5468 -55.5354 -55.5354 -55.4432 -54.9606 -54.9303
   -33.1490 -33.1488 -33.1332 -33.1331 -33.0176 -33.0173 -32.3113 -32.3089
   -32.2996 -32.2930 -32.2400 -32.2366 -32.1981 -32.1941 -32.1929 -32.1888
   -32.1848 -32.1819 -32.1798 -32.1781 -32.1023 -32.0898 -32.0512 -32.0390
   -31.9826 -31.9740 -31.9144 -31.9084 -31.8799 -31.8798 -31.8749 -31.8307
   -31.8289 -31.7998 -31.7631 -31.7610 -31.7609 -31.7219 -31.7219 -31.7205
   -31.6860 -31.6466 -31.3634 -31.2863 -31.1903 -31.1633 -31.1518 -31.1106
   -16.4013 -16.3992 -16.3665 -16.3662 -16.0974 -16.0938 -16.0476 -16.0442
   -15.8727 -15.8655 -15.6608 -15.6519 -15.6447 -15.6419 -15.5143 -15.5086
   -15.4454 -15.4311 -15.3427 -15.3402 -15.2778 -15.2718 -15.2327 -15.2129
   -14.9033 -14.8857 -14.7737 -14.7482 -14.5832 -14.0446 -14.0445 -13.0944
    -7.8026  -3.4998  -3.4990  -3.4355  -3.4346  -3.3101  -3.3043  -3.2310
    -3.2302  -3.1288  -3.1251  -3.0611  -2.9970  -2.9858  -2.9826  -2.9715
    -2.9562  -2.8312  -2.8289  -2.8177  -2.8016  -2.7455  -2.7433  -2.7318
    -2.6543  -2.6393  -2.6053  -2.5671  -2.4579  -2.4446  -2.4309  -2.3995
    -2.3448  -2.3303  -2.3171  -2.2756  -2.2507  -2.1645  -2.1095  -2.0561
    -1.9402  -1.9370  -1.9287  -1.9133  -1.7618  -1.7200  -1.6922  -1.6852
    -1.6769  -1.6332  -1.5350  -1.5283  -1.3938  -1.3933  -1.3132  -1.2343
    -1.2167  -1.1868  -1.0567  -1.0162  -0.9798  -0.9716  -0.9441  -0.9242
    -0.9009  -0.8632  -0.7222  -0.7090  -0.6720  -0.6370  -0.6320  -0.5761
    -0.5188  -0.4388  -0.3622  -0.3612  -0.3072  -0.2338  -0.1741  -0.0921
    -0.0789  -0.0742   0.2057   0.2852   0.3777   0.4541   0.5229   0.5759
     0.6107   0.6760   0.7142   0.8473   0.8519   0.8697   0.8700   0.9320
     0.9335   1.3351   1.9345   2.9591   2.9594   3.0263   3.0267   3.3502
     3.3561   3.4643   3.4738   3.5850   3.5873

     the Fermi energy is     2.2250 ev

!    total energy              =   -2919.13187041 Ry
     estimated scf accuracy    <       0.00000004 Ry
     smearing contrib. (-TS)   =      -0.00481435 Ry
     internal energy E=F+TS    =   -2919.12705607 Ry

     The total energy is F=E-TS. E is the sum of the following terms:
     one-electron contribution =  -24568.90068030 Ry
     hartree contribution      =   12368.67589477 Ry
     xc contribution           =    -479.89709707 Ry
     ewald contribution        =    9760.99469924 Ry
     electric field correction =       0.00012730 Ry

     convergence has been achieved in  68 iterations

     Forces acting on atoms (cartesian axes, Ry/au):

     atom    1 type  1   force =     0.00005624   -0.00050314    0.12426453
     atom    2 type  1   force =    -0.00009204   -0.00055308   -0.16064664
     atom    3 type  2   force =     0.00022102   -0.00024050   -0.06810408
     atom    4 type  2   force =    -0.00000100   -0.00032168    0.02757469
     atom    5 type  2   force =    -0.01620354    0.00174494   -0.00937474
     atom    6 type  2   force =     0.01825655    0.00228212   -0.00892750
     atom    7 type  1   force =     0.00112704   -0.00382308    0.02201157
     atom    8 type  1   force =    -0.00061729   -0.00325048    0.11121190
     atom    9 type  2   force =    -0.00010251    0.00138792   -0.00037261
     atom   10 type  2   force =    -0.00190762    0.00178596   -0.07346125
     atom   11 type  2   force =     0.00080715    0.00006059    0.00005727
     atom   12 type  2   force =    -0.00066356    0.00019729    0.00015679
     atom   13 type  1   force =     0.00005711    0.00022533   -0.00039762
     atom   14 type  1   force =    -0.00100336   -0.00024161   -0.00047667
     atom   15 type  2   force =     0.00000468   -0.00026418    0.00013972
     atom   16 type  2   force =    -0.00005734    0.00106913    0.00074032
     atom   17 type  2   force =     0.00011597    0.00013457   -0.00045676
     atom   18 type  2   force =     0.00003207    0.00020008   -0.00006086
     atom   19 type  1   force =     0.00012200    0.00003824   -0.00068492
     atom   20 type  1   force =     0.00032454   -0.00108459    0.00018128
     atom   21 type  2   force =     0.00004108   -0.00006657    0.09974500
     atom   22 type  2   force =     0.00014690   -0.00048644   -0.00020658
     atom   23 type  2   force =    -0.07919170   -0.00005483   -0.03243699
     atom   24 type  2   force =     0.07905630    0.00038007   -0.03246315
     atom   25 type  1   force =     0.00004173   -0.00049641    0.12371464
     atom   26 type  1   force =    -0.00010201   -0.00050435   -0.16066018
     atom   27 type  2   force =     0.00032575   -0.00048147   -0.06715603
     atom   28 type  2   force =     0.00002653   -0.00014422    0.02726646
     atom   29 type  2   force =    -0.01660242    0.00134533   -0.00957683
     atom   30 type  2   force =     0.01854404    0.00165144   -0.00914613
     atom   31 type  1   force =     0.00110404   -0.00129415    0.02156413
     atom   32 type  1   force =    -0.00051946    0.00069068    0.11186208
     atom   33 type  2   force =    -0.00033828   -0.00115304    0.00013111
     atom   34 type  2   force =    -0.00156637    0.00135475   -0.07240417
     atom   35 type  2   force =    -0.00179569   -0.00019739    0.00027363
     atom   36 type  2   force =     0.00068069   -0.00041568   -0.00004478
     atom   37 type  1   force =     0.00072396   -0.00032815    0.00069844
     atom   38 type  1   force =    -0.00015430    0.00051951    0.00021215
     atom   39 type  2   force =     0.00017923   -0.00031583   -0.00036108
     atom   40 type  2   force =     0.00010948   -0.00017486    0.00032387
     atom   41 type  2   force =     0.00004344    0.00045093   -0.00013476
     atom   42 type  2   force =     0.00025632    0.00054059   -0.00005233
     atom   43 type  1   force =     0.00035995    0.00016242   -0.00031787
     atom   44 type  1   force =    -0.00017403    0.00026296    0.00019342
     atom   45 type  2   force =     0.00002469   -0.00007107    0.09975302
     atom   46 type  2   force =    -0.07919918   -0.00000486   -0.03243801
     atom   47 type  2   force =     0.07906978    0.00042365   -0.03246406
     atom   48 type  3   force =     0.00037252    0.00000119    0.00042045
     atom   49 type  4   force =     0.00013506    0.00224962    0.00316471
     atom   50 type  5   force =    -0.00163124   -0.00268418   -0.00290913
     atom   51 type  5   force =     0.00005281   -0.00037163   -0.00000836
     atom   52 type  5   force =    -0.00049573    0.00036818    0.00008291

     Total force =     0.424631     Total SCF correction =     0.000974
  @ DRIVER MODE: Message from server: STATUS
  @ DRIVER MODE: Message from server: GETFORCE
  @ DRIVER MODE: Returning v,forces,stress,ensemble

     Writing output data file ./calc.save/
  @ DRIVER MODE: Message from server: EXIT
  @ DRIVE MODE: Exiting

     General routines

     Parallel routines

   This run was terminated on:   0:17:39  25Aug2021

   JOB DONE.