     Program PWSCF v.6.7GPU starts on 18Oct2021 at 17:19:15

     R & G space division:  proc/nbgrp/npool/nimage =       8
     Reading input from /storage/home/hcoda1/3/ntian30/research/carbon/CxH_vib/Thiel_calc/ads_slab/NH3_perslab/out_0012/pw.inp
Warning: card &CELL ignored
Warning: card   CELL_DYNAMICS='IPI', ignored
Warning: card / ignored

     Current dimensions of program PWSCF are:
     Max number of different atomic species (ntypx) = 10
     Max number of k-points (npk) =  40000
     Max angular momentum in pseudopotentials (lmaxx) =  3
     Presently no symmetry can be used with electric field

     Message from routine cell_base_init:
     DEPRECATED: use true lattice parameter, not A to a.u. conversion factor

     IMPORTANT: XC functional enforced from input :
     Exchange-correlation= BEEF-VDW
                           (   1   4  43  14   2   0   0)
     Any further DFT definition will be discarded
     Please, verify this is what you really want

  @ DRIVER MODE: Connecting to
 qe_1139763_3255128.sched-torque.pace.gatech.edu6cje4g7k_scratch
  using UNIX socket
  @ DRIVER MODE: Message from server: STATUS
  @ DRIVER MODE: Message from server: INIT
  @ DRIVER MODE: Receiving replica           0          -1
  @ DRIVER MODE: Receiving encoded integer          25
  @ DRIVER MODE:  SCF:  T  FORCE:  T  STRESS:  F  VC:  F  ENSEMBLE:  F
  @ DRIVER MODE:  SCF:  T  FORCE:  T  STRESS:  F  VC:  F  ENSEMBLE:  F

     Using Slab Decomposition

     bravais-lattice index     =            0
     lattice parameter (alat)  =       1.8897  a.u.
     unit-cell volume          =    9988.4706 (a.u.)^3
     number of atoms/cell      =           57
     number of atomic types    =            4
     number of electrons       =       434.00
     number of Kohn-Sham states=          227
     kinetic-energy cutoff     =      29.3995  Ry
     charge density cutoff     =     293.9946  Ry
     scf convergence threshold =      7.3E-08
     mixing beta               =       0.0500
     number of iterations used =            8  plain     mixing
     Exchange-correlation= BEEF-VDW
                           (   1   4  43  14   2   0   0)

     celldm(1)=   1.889726  celldm(2)=   0.000000  celldm(3)=   0.000000
     celldm(4)=   0.000000  celldm(5)=   0.000000  celldm(6)=   0.000000

     crystal axes: (cart. coord. in units of alat)
               a(1) = (   6.579727   0.000000   0.000000 )
               a(2) = (  -0.001163   8.942395   0.000000 )
               a(3) = (   0.000000   0.000000  25.155947 )

     reciprocal axes: (cart. coord. in units 2 pi/alat)
               b(1) = (  0.151982  0.000020  0.000000 )
               b(2) = (  0.000000  0.111827  0.000000 )
               b(3) = (  0.000000  0.000000  0.039752 )

     PseudoPot. # 1 for O  read from file:
     /storage/coda1/p-amedford6/0/shared/rich_project_chbe-medford/medford-share/data/pseudos_module/espresso/nninc/pbe/van/O.UPF
     MD5 check sum: 78c19812648e8988a0fe644b0f25305e
     Pseudo is Ultrasoft, Zval =  6.0
     Generated by new atomic code, or converted to UPF format
     Using radial grid of  737 points,  4 beta functions with:
                l(1) =   0
                l(2) =   0
                l(3) =   1
                l(4) =   1
     Q(r) pseudized with  8 coefficients,  rinner =    0.800   0.800   0.800

     PseudoPot. # 2 for Ti read from file:
     /storage/coda1/p-amedford6/0/shared/rich_project_chbe-medford/medford-share/data/pseudos_module/espresso/nninc/pbe/van/Ti.UPF
     MD5 check sum: 8e4df49b7f0d34bbd5052bf3f5ea0213
     Pseudo is Ultrasoft, Zval = 12.0
     Generated by new atomic code, or converted to UPF format
     Using radial grid of  851 points,  6 beta functions with:
                l(1) =   0
                l(2) =   0
                l(3) =   1
                l(4) =   1
                l(5) =   2
                l(6) =   2
     Q(r) pseudized with  8 coefficients,  rinner =    1.000   1.000   1.000
                                                       1.000   1.000

     PseudoPot. # 3 for N  read from file:
     /storage/coda1/p-amedford6/0/shared/rich_project_chbe-medford/medford-share/data/pseudos_module/espresso/nninc/pbe/van/N.UPF
     MD5 check sum: 90d10febe142ad51ac9d5be1deb811c4
     Pseudo is Ultrasoft, Zval =  5.0
     Generated by new atomic code, or converted to UPF format
     Using radial grid of  729 points,  4 beta functions with:
                l(1) =   0
                l(2) =   0
                l(3) =   1
                l(4) =   1
     Q(r) pseudized with  8 coefficients,  rinner =    0.800   0.800   0.800

     PseudoPot. # 4 for H  read from file:
     /storage/coda1/p-amedford6/0/shared/rich_project_chbe-medford/medford-share/data/pseudos_module/espresso/nninc/pbe/van/H.UPF
     MD5 check sum: b5ee9d7bfd3a09ee7748110bda690ff7
     Pseudo is Ultrasoft, Zval =  1.0
     Generated by new atomic code, or converted to UPF format
     Using radial grid of  615 points,  1 beta functions with:
                l(1) =   0
     Q(r) pseudized with  8 coefficients,  rinner =    0.800

     atomic species   valence    mass     pseudopotential
        O1             6.00    15.99900     O ( 1.00)
        Ti1           12.00    47.86700     Ti( 1.00)
        N1             5.00    14.00700     N ( 1.00)
        H1             1.00     1.00800     H ( 1.00)

     No symmetry found

   Cartesian axes

     site n.     atom                  positions (alat units)
         1           O1  tau(   1) = (   0.0007354   0.0005023  10.5931620  )
         2           O1  tau(   2) = (   3.2904414   0.0112058  13.8964882  )
         3           O1  tau(   3) = (   0.0005401   0.0771385  17.1949530  )
         4           O1  tau(   4) = (   0.0006271   0.0005054   7.9858123  )
         5           O1  tau(   5) = (   3.2895838   8.9314717  11.1944372  )
         6           O1  tau(   6) = (   0.0004542   0.0037726  14.5839567  )
         7           O1  tau(   7) = (   1.9868534   1.4903216   9.2879459  )
         8           O1  tau(   8) = (   5.2378633   1.6121790  12.5812404  )
         9           O1  tau(   9) = (   2.0187564   1.5175485  16.0920123  )
        10           Ti1 tau(  10) = (   0.0007404   1.4906270   9.2895810  )
        11           Ti1 tau(  11) = (   3.2908292   1.3533612  12.4825321  )
        12           Ti1 tau(  12) = (   6.5791587   1.3318727  15.7218970  )
        13           O1  tau(  13) = (   4.5942328   1.4918067   9.2879030  )
        14           O1  tau(  14) = (   1.3429762   1.6114357  12.5808800  )
        15           O1  tau(  15) = (   4.5614660   1.5177748  16.0924020  )
        16           Ti1 tau(  16) = (   3.2902859   2.9801868   9.2893338  )
        17           Ti1 tau(  17) = (   0.0008758   2.8334547  12.4616519  )
        18           Ti1 tau(  18) = (   3.2892168   3.0031368  15.7199352  )
        19           O1  tau(  19) = (   0.0003479   2.9813005  10.5931620  )
        20           O1  tau(  20) = (   3.2898890   2.9669551  13.9060418  )
        21           O1  tau(  21) = (   0.0002396   2.9813036   7.9858123  )
        22           O1  tau(  22) = (   3.2903741   2.9784362  11.1973051  )
        23           O1  tau(  23) = (   0.0002543   2.9904732  14.7865853  )
        24           O1  tau(  24) = (   1.9864658   4.4711199   9.2879459  )
        25           O1  tau(  25) = (   5.2421976   4.5796938  12.5913975  )
        26           O1  tau(  26) = (   1.9868962   4.3874993  16.0752682  )
        27           Ti1 tau(  27) = (   0.0003529   4.4714252   9.2895810  )
        28           Ti1 tau(  28) = (   3.2909855   4.3334338  12.5384581  )
        29           Ti1 tau(  29) = (  -0.0001346   4.7016419  15.7431722  )
        30           O1  tau(  30) = (   4.5938453   4.4726049   9.2879030  )
        31           O1  tau(  31) = (   1.3385138   4.5792087  12.5910896  )
        32           O1  tau(  32) = (   4.5924143   4.3878248  16.0749966  )
        33           Ti1 tau(  33) = (   3.2898983   5.9609850   9.2893338  )
        34           Ti1 tau(  34) = (   0.0009896   5.8105845  12.4545566  )
        35           Ti1 tau(  35) = (   3.2904027   6.0159751  15.8417138  )
        36           O1  tau(  36) = (  -0.0000397   5.9620987  10.5931620  )
        37           O1  tau(  37) = (   3.2899583   5.9542551  13.9530320  )
        38           O1  tau(  38) = (  -0.0003598   5.9221528  17.2055630  )
        39           O1  tau(  39) = (  -0.0001480   5.9621018   7.9858123  )
        40           O1  tau(  40) = (   3.2900585   5.9465535  11.2077716  )
        41           O1  tau(  41) = (   0.0000491   6.0342996  14.6037136  )
        42           O1  tau(  42) = (   1.9860782   7.4519181   9.2879459  )
        43           O1  tau(  43) = (   5.2346004   7.5551364  12.5649479  )
        44           O1  tau(  44) = (   2.0242992   7.4812189  16.0368393  )
        45           Ti1 tau(  45) = (  -0.0000347   7.4522234   9.2895810  )
        46           Ti1 tau(  46) = (   3.2903849   7.2707884  12.5514019  )
        47           Ti1 tau(  47) = (  -0.0000376   7.4906229  16.2622595  )
        48           O1  tau(  48) = (   4.5934577   7.4534031   9.2879030  )
        49           O1  tau(  49) = (   1.3450914   7.5544588  12.5647554  )
        50           O1  tau(  50) = (   4.5547502   7.4813962  16.0367022  )
        51           Ti1 tau(  51) = (   3.2895107   8.9417832   9.2893338  )
        52           Ti1 tau(  52) = (   0.0003618   8.7732999  12.4519576  )
        53           Ti1 tau(  53) = (   3.2901532   0.0195992  15.7030453  )
        54           N1  tau(  54) = (   3.2894534   5.9569964  18.1695816  )
        55           H1  tau(  55) = (   3.2894156   5.0059420  18.5312279  )
        56           H1  tau(  56) = (   2.4599617   6.4194056  18.5308046  )
        57           H1  tau(  57) = (   4.1186270   6.4195692  18.5314737  )

     number of k points=    10  Fermi-Dirac smearing, width (Ry)=  0.0073
                       cart. coord. in units 2pi/alat
        k(    1) = (   0.0000000   0.0000000   0.0000000), wk =   0.1250000
        k(    2) = (   0.0000000   0.0279567   0.0000000), wk =   0.2500000
        k(    3) = (   0.0000000  -0.0559134   0.0000000), wk =   0.1250000
        k(    4) = (   0.0379955   0.0000049   0.0000000), wk =   0.2500000
        k(    5) = (   0.0379955   0.0279617   0.0000000), wk =   0.2500000
        k(    6) = (   0.0379955  -0.0559085   0.0000000), wk =   0.2500000
        k(    7) = (   0.0379955  -0.0279518   0.0000000), wk =   0.2500000
        k(    8) = (  -0.0759910  -0.0000099   0.0000000), wk =   0.1250000
        k(    9) = (  -0.0759910   0.0279468   0.0000000), wk =   0.2500000
        k(   10) = (  -0.0759910  -0.0559233   0.0000000), wk =   0.1250000

     Initial potential from superposition of free atoms

     starting charge  415.99912, renormalised to  434.00000

     negative rho (up, down):  3.899E-02 0.000E+00

     %%%%%%%%%%%%%%%%%%%%%%%%%%%%%%%%%%%%%%%%%%%%%%%%%%%%%%%%%%%%%%%%%%%%%%%%
     %                                                                      %
     % You are using vdW-DF, which was implemented by the Thonhauser group. %
     % Please cite the following two papers that made this development      %
     % possible and the two reviews that describe the various versions:     %
     %                                                                      %
     %   T. Thonhauser et al., PRL 115, 136402 (2015).                      %
     %   T. Thonhauser et al., PRB 76, 125112 (2007).                       %
     %   K. Berland et al., Rep. Prog. Phys. 78, 066501 (2015).             %
     %   D.C. Langreth et al., J. Phys.: Condens. Matter 21, 084203 (2009). %
     %                                                                      %
     %                                                                      %
     % If you are calculating the stress with vdW-DF, please also cite:     %
     %                                                                      %
     %   R. Sabatini et al., J. Phys.: Condens. Matter 24, 424209 (2012).   %
     %                                                                      %
     %%%%%%%%%%%%%%%%%%%%%%%%%%%%%%%%%%%%%%%%%%%%%%%%%%%%%%%%%%%%%%%%%%%%%%%%

     Adding external electric field

     Computed dipole along edir(3) :
        Dipole               -2.9266 Ry au,         -7.4388 Debye
        Dipole field         -0.0037 Ry au,

        Potential amp.        0.3413 Ry
        Total length         46.3494 bohr

     Starting wfcs are  327 atomic wfcs
  @ DRIVER MODE: Message from server: STATUS
  @ DRIVER MODE: Message from server: POSDATA
  @ DRIVER MODE: Reading and sharing cell
  @ DRIVER MODE: Reading and sharing positions
  @ DRIVER MODE: Received positions

     Self-consistent Calculation

     iteration #  1     ecut=    29.40 Ry     beta= 0.05
     Davidson diagonalization with overlap
     c_bands:  4 eigenvalues not converged
     c_bands:  3 eigenvalues not converged
     c_bands:  4 eigenvalues not converged
     c_bands:  2 eigenvalues not converged
     c_bands:  2 eigenvalues not converged
     c_bands:  1 eigenvalues not converged
     c_bands:  2 eigenvalues not converged
     c_bands:  1 eigenvalues not converged
     c_bands:  1 eigenvalues not converged
     c_bands:  4 eigenvalues not converged
     ethr =  1.00E-05,  avg # of iterations = 22.0

[...]

     total energy              =   -3273.66887768 Ry
     estimated scf accuracy    <      14.21339232 Ry

     iteration #  2     ecut=    29.40 Ry     beta= 0.05
     Davidson diagonalization with overlap
     ethr =  3.27E-03,  avg # of iterations =  1.0

[...]

     iteration # 36     ecut=    29.40 Ry     beta= 0.05
     Davidson diagonalization with overlap
     c_bands:  1 eigenvalues not converged
     c_bands:  1 eigenvalues not converged
     ethr =  1.46E-07,  avg # of iterations = 16.0

[...]

     total energy              =   -3272.09863158 Ry
     estimated scf accuracy    <       0.00000009 Ry

     iteration # 54     ecut=    29.40 Ry     beta= 0.05
     Davidson diagonalization with overlap
     ethr =  2.09E-11,  avg # of iterations =  7.8

     negative rho (up, down):  3.685E-02 0.000E+00

     Adding external electric field

     Computed dipole along edir(3) :
        Dipole                1.4046 Ry au,          3.5702 Debye
        Dipole field          0.0018 Ry au,

        Potential amp.       -0.1638 Ry
        Total length         46.3494 bohr

     End of self-consistent calculation

          k = 0.0000 0.0000 0.0000 ( 26871 PWs)   bands (ev):

   -57.9203 -57.9011 -57.8777 -57.8710 -57.8381 -57.7371 -57.7348 -57.7076
   -57.6929 -57.6858 -57.6536 -57.6183 -57.4787 -57.4623 -57.3979 -56.9335
   -56.9086 -56.9069 -34.2861 -34.2838 -34.2786 -34.2392 -34.2290 -34.2108
   -34.2077 -34.1738 -34.1650 -34.1532 -34.1457 -34.1340 -34.1197 -34.0999
   -34.0908 -34.0773 -34.0682 -34.0238 -34.0199 -34.0166 -34.0041 -33.9999
   -33.9942 -33.9925 -33.9786 -33.9501 -33.9244 -33.9203 -33.9199 -33.9195
   -33.9036 -33.8991 -33.8906 -33.8770 -33.8741 -33.8637 -33.8593 -33.8436
   -33.8304 -33.7558 -33.6906 -33.6709 -33.6649 -33.6519 -33.5269 -33.2477
   -33.2470 -33.2453 -33.2306 -33.2292 -33.1601 -33.0966 -33.0947 -32.9599
   -18.7180 -18.3375 -18.1765 -18.1217 -18.0935 -18.0081 -17.9629 -17.9220
   -17.7339 -17.6936 -17.6728 -17.6511 -17.6271 -17.5990 -17.5890 -17.5763
   -17.5533 -17.5445 -17.5431 -17.5170 -17.5048 -17.4302 -17.3779 -17.3507
   -17.3495 -17.3342 -17.3336 -17.3232 -17.2313 -17.1486 -17.0283 -16.9150
   -16.8290 -15.3996 -15.3420 -15.3392  -7.7265  -7.6665  -6.0454  -5.8210
    -5.8085  -5.7011  -5.3348  -5.2695  -5.2533  -5.2468  -5.1874  -5.1698
    -5.1465  -5.1228  -5.0893  -5.0279  -5.0092  -5.0033  -4.9491  -4.8845
    -4.8624  -4.8376  -4.7837  -4.7516  -4.7308  -4.7128  -4.6827  -4.6562
    -4.6088  -4.5901  -4.5493  -4.5397  -4.4625  -4.4275  -4.2881  -4.2341
    -4.2208  -4.1653  -4.1510  -4.1406  -4.0812  -4.0580  -4.0266  -3.9990
    -3.9578  -3.9530  -3.8712  -3.8115  -3.6925  -3.6381  -3.6186  -3.6029
    -3.5206  -3.5056  -3.4556  -3.3256  -3.3205  -3.2482  -3.2256  -3.1821
    -3.1391  -3.0803  -2.9998  -2.9676  -2.9180  -2.8964  -2.8360  -2.7858
    -2.7464  -2.7180  -2.6698  -2.6651  -2.6106  -2.5691  -2.5679  -2.5356
    -2.5095  -2.4633  -2.4549  -2.3954  -2.3594  -2.3153  -2.2524  -2.2400
    -2.2097  -2.1857  -2.1322  -2.1015  -2.0651  -2.0534  -2.0371  -1.9276
    -1.7596  -1.7563  -1.7515  -1.7391  -1.6346  -1.6053  -1.5035  -1.3315
    -1.1293  -0.9756  -0.6868  -0.6383  -0.6368  -0.3706  -0.3684  -0.2382
     1.1101   1.2990   1.3275   1.5251   1.5468   1.5935   1.6857   1.7048
     1.7670   1.8561   1.8635

[...]

          k = 0.0380-0.0280 0.0000 ( 26873 PWs)   bands (ev):

[...]

          k =-0.0760-0.0000 0.0000 ( 26902 PWs)   bands (ev):

[...]

          k =-0.0760-0.0559 0.0000 ( 26868 PWs)   bands (ev):

   -57.9201 -57.8952 -57.8892 -57.8654 -57.8383 -57.7361 -57.7333 -57.7123
   -57.6900 -57.6849 -57.6557 -57.6174 -57.4770 -57.4645 -57.3975 -56.9257
   -56.9240 -56.8993 -34.3746 -34.3313 -34.2561 -34.2318 -34.2301 -34.2217
   -34.2175 -34.1766 -34.1643 -34.1268 -34.1169 -34.0924 -34.0861 -34.0600
   -34.0582 -34.0440 -34.0390 -34.0298 -34.0208 -34.0187 -33.9855 -33.9792
   -33.9760 -33.9734 -33.9560 -33.9548 -33.9488 -33.9488 -33.9422 -33.9279
   -33.9176 -33.9146 -33.9128 -33.9121 -33.8832 -33.8817 -33.8658 -33.8592
   -33.8337 -33.7062 -33.6967 -33.6754 -33.6629 -33.6514 -33.5653 -33.3380
   -33.2464 -33.2450 -33.2213 -33.1398 -33.1377 -33.0741 -33.0579 -33.0558
   -18.3984 -18.3313 -18.0654 -18.0236 -18.0057 -18.0043 -17.9399 -17.9059
   -17.8313 -17.8146 -17.7296 -17.6824 -17.6624 -17.6598 -17.6364 -17.6023
   -17.6007 -17.5873 -17.5782 -17.5390 -17.5335 -17.5217 -17.4966 -17.3970
   -17.3454 -17.3113 -17.2724 -17.2643 -17.2254 -17.1219 -17.0619 -17.0564
   -16.7205 -15.3978 -15.3949 -15.2785  -7.7099  -7.6649  -5.6527  -5.6439
    -5.5881  -5.5198  -5.3378  -5.2131  -5.1886  -5.1852  -5.1053  -5.0703
    -5.0461  -5.0392  -5.0319  -5.0168  -5.0044  -4.9900  -4.9322  -4.8959
    -4.8384  -4.8211  -4.8164  -4.8080  -4.7803  -4.7549  -4.6154  -4.6144
    -4.5566  -4.5373  -4.4485  -4.4448  -4.3999  -4.3969  -4.3551  -4.3077
    -4.2686  -4.2593  -4.0657  -4.0410  -3.9958  -3.9860  -3.9807  -3.9284
    -3.8852  -3.7739  -3.6832  -3.6017  -3.5645  -3.5385  -3.5300  -3.5176
    -3.4840  -3.4418  -3.3895  -3.3766  -3.3621  -3.3438  -3.3185  -3.2637
    -3.1816  -3.1184  -3.0868  -3.0757  -3.0467  -3.0276  -3.0161  -3.0092
    -2.9423  -2.9406  -2.8757  -2.8475  -2.8080  -2.7872  -2.7531  -2.7224
    -2.6548  -2.6383  -2.6110  -2.4760  -2.4510  -2.4452  -2.4271  -2.3976
    -2.3006  -2.1745  -2.1564  -2.1295  -1.9821  -1.9456  -1.9419  -1.9239
    -1.8611  -1.7950  -1.6773  -1.6691  -1.5506  -1.5094  -1.4802  -1.4700
    -1.4596  -1.2563  -0.8488  -0.5711  -0.5540  -0.5281  -0.3702  -0.3681
     1.2454   1.3378   1.3717   1.4036   1.4467   1.4543   1.4686   1.5214
     1.5859   1.6208   1.8050

     the Fermi energy is     1.1873 ev

!    total energy              =   -3272.09870299 Ry
     estimated scf accuracy    <       0.00000004 Ry
     smearing contrib. (-TS)   =      -0.03416774 Ry
     internal energy E=F+TS    =   -3272.06453525 Ry

     The total energy is F=E-TS. E is the sum of the following terms:
     one-electron contribution =  -34227.38879280 Ry
     hartree contribution      =   17174.87093794 Ry
     xc contribution           =    -536.09369034 Ry
     ewald contribution        =   14316.54452772 Ry
     electric field correction =       0.00248224 Ry

     convergence has been achieved in  54 iterations

     Forces acting on atoms (cartesian axes, Ry/au):

     atom    1 type  1   force =     0.00003638    0.00678433    0.05073804
     atom    2 type  1   force =     0.00000769    0.00017427   -0.00008966
     atom    3 type  1   force =     0.00000206    0.00093629    0.00022094
     atom    4 type  1   force =     0.00005982    0.00003310    0.10706322
     atom    5 type  1   force =    -0.00000510   -0.00020715    0.00741204
     atom    6 type  1   force =    -0.00001480   -0.00257476    0.00291465
     atom    7 type  1   force =     0.06678865   -0.00010594   -0.02922759
     atom    8 type  1   force =     0.00530727   -0.02806586    0.00304917
     atom    9 type  1   force =     0.00869915   -0.01021024   -0.00349873
     atom   10 type  2   force =    -0.00005839   -0.00260018   -0.18471562
     atom   11 type  2   force =    -0.00001005    0.02120583   -0.00781108
     atom   12 type  2   force =     0.00005796    0.00858248    0.00651748
     atom   13 type  1   force =    -0.06688848   -0.00055994   -0.02921254
     atom   14 type  1   force =    -0.00533778   -0.02801321    0.00306366
     atom   15 type  1   force =    -0.00875417   -0.01021843   -0.00354104
     atom   16 type  2   force =     0.00011796    0.00034960    0.06938619
     atom   17 type  2   force =    -0.00001097    0.03412967    0.00273929
     atom   18 type  2   force =     0.00003918   -0.00312177   -0.00516498
     atom   19 type  1   force =     0.00003159    0.00400827    0.06215958
     atom   20 type  1   force =     0.00001107    0.00065817   -0.00579529
     atom   21 type  1   force =     0.00005954    0.00057319    0.10772514
     atom   22 type  1   force =     0.00000393   -0.00106244    0.00865533
     atom   23 type  1   force =    -0.00001542    0.00170655    0.00489243
     atom   24 type  1   force =     0.06725924    0.00040477   -0.02918201
     atom   25 type  1   force =     0.00510050   -0.03016776    0.00336552
     atom   26 type  1   force =     0.01015017    0.01537950   -0.00076934
     atom   27 type  2   force =    -0.00005949   -0.00058171   -0.18588068
     atom   28 type  2   force =    -0.00001356    0.02134814   -0.00694990
     atom   29 type  2   force =     0.00000469   -0.01802369   -0.00049554
     atom   30 type  1   force =    -0.06735687   -0.00004993   -0.02916947
     atom   31 type  1   force =    -0.00514116   -0.03010475    0.00337580
     atom   32 type  1   force =    -0.01016508    0.01537183   -0.00076350
     atom   33 type  2   force =     0.00010710   -0.00104320    0.07140285
     atom   34 type  2   force =     0.00000191    0.03676686    0.00393428
     atom   35 type  2   force =    -0.00000553   -0.02136265    0.01017429
     atom   36 type  1   force =     0.00004209    0.00352583    0.05349466
     atom   37 type  1   force =    -0.00000057    0.00214414   -0.00339814
     atom   38 type  1   force =     0.00000409    0.00365445    0.00119956
     atom   39 type  1   force =     0.00005691   -0.00014547    0.10728933
     atom   40 type  1   force =     0.00000075   -0.00048349    0.00805434
     atom   41 type  1   force =    -0.00000385    0.00236328    0.00211236
     atom   42 type  1   force =     0.06750745   -0.00106390   -0.02900365
     atom   43 type  1   force =     0.00378352   -0.02773624    0.00194525
     atom   44 type  1   force =     0.01110516    0.00344317    0.00299299
     atom   45 type  2   force =    -0.00004546   -0.00030112   -0.18504678
     atom   46 type  2   force =     0.00000735    0.01830451   -0.00605963
     atom   47 type  2   force =     0.00000607   -0.00315190   -0.01510467
     atom   48 type  1   force =    -0.06759923   -0.00151065   -0.02899389
     atom   49 type  1   force =    -0.00384755   -0.02768607    0.00195947
     atom   50 type  1   force =    -0.01110499    0.00342606    0.00299662
     atom   51 type  2   force =     0.00012709   -0.00224098    0.07048418
     atom   52 type  2   force =    -0.00003419    0.03273924    0.00638249
     atom   53 type  2   force =     0.00000555    0.01447879    0.00236655
     atom   54 type  3   force =     0.00008722   -0.00482705    0.00237796
     atom   55 type  4   force =    -0.00001430    0.00408774   -0.00290837
     atom   56 type  4   force =    -0.00005581    0.00033474    0.00018250
     atom   57 type  4   force =    -0.00003631    0.00030570    0.00015392

     Total force =     0.455350     Total SCF correction =     0.000512
  @ DRIVER MODE: Message from server: STATUS
  @ DRIVER MODE: Message from server: GETFORCE
  @ DRIVER MODE: Returning v,forces,stress,ensemble

     Writing output data file ./calc.save/
  @ DRIVER MODE: Message from server: EXIT
  @ DRIVE MODE: Exiting

     General routines

     Parallel routines

   This run was terminated on:  17:46: 7  18Oct2021

   JOB DONE.