     Program PWSCF v.6.7GPU starts on  4Aug2021 at  5: 6:18

     R & G space division:  proc/nbgrp/npool/nimage =      16
     Reading input from /storage/home/hcoda1/3/ntian30/research/carbon/02Aug_vib_paired/ads_slab/CH3NH3NH3_a/out_0045/pw.inp
Warning: card &CELL ignored
Warning: card   CELL_DYNAMICS='IPI', ignored
Warning: card / ignored

     Current dimensions of program PWSCF are:
     Max number of different atomic species (ntypx) = 10
     Max number of k-points (npk) =  40000
     Max angular momentum in pseudopotentials (lmaxx) =  3
     Presently no symmetry can be used with electric field

     Message from routine cell_base_init:
     DEPRECATED: use true lattice parameter, not A to a.u. conversion factor

     IMPORTANT: XC functional enforced from input :
     Exchange-correlation= BEEF-VDW
                           (   1   4  43  14   2   0   0)
     Any further DFT definition will be discarded
     Please, verify this is what you really want

  @ DRIVER MODE: Connecting to
 qe_1139763_2492108.sched-torque.pace.gatech.edus7vesuo5_scratch
  using UNIX socket
  @ DRIVER MODE: Message from server: STATUS
  @ DRIVER MODE: Message from server: INIT
  @ DRIVER MODE: Receiving replica           0          -1
  @ DRIVER MODE: Receiving encoded integer          25
  @ DRIVER MODE:  SCF:  T  FORCE:  T  STRESS:  F  VC:  F  ENSEMBLE:  F
  @ DRIVER MODE:  SCF:  T  FORCE:  T  STRESS:  F  VC:  F  ENSEMBLE:  F

     Using Slab Decomposition

     bravais-lattice index     =            0
     lattice parameter (alat)  =       1.8897  a.u.
     unit-cell volume          =    6658.9804 (a.u.)^3
     number of atoms/cell      =           59
     number of atomic types    =            5
     number of electrons       =       401.00
     number of Kohn-Sham states=          210
     kinetic-energy cutoff     =      29.3995  Ry
     charge density cutoff     =     293.9946  Ry
     scf convergence threshold =      7.3E-08
     mixing beta               =       0.0500
     number of iterations used =            8  plain     mixing
     Exchange-correlation= BEEF-VDW
                           (   1   4  43  14   2   0   0)

     celldm(1)=   1.889726  celldm(2)=   0.000000  celldm(3)=   0.000000
     celldm(4)=   0.000000  celldm(5)=   0.000000  celldm(6)=   0.000000

     crystal axes: (cart. coord. in units of alat)
               a(1) = (   6.579727   0.000000   0.000000 )
               a(2) = (  -0.000775   5.961596   0.000000 )
               a(3) = (   0.000000   0.000000  25.155947 )

     reciprocal axes: (cart. coord. in units 2 pi/alat)
               b(1) = (  0.151982  0.000020  0.000000 )
               b(2) = (  0.000000  0.167740  0.000000 )
               b(3) = (  0.000000  0.000000  0.039752 )

     PseudoPot. # 1 for Ti read from file:
     /storage/coda1/p-amedford6/0/shared/rich_project_chbe-medford/medford-share/data/pseudos_module/espresso/nninc/pbe/van/Ti.UPF
     MD5 check sum: 8e4df49b7f0d34bbd5052bf3f5ea0213
     Pseudo is Ultrasoft, Zval = 12.0
     Generated by new atomic code, or converted to UPF format
     Using radial grid of  851 points,  6 beta functions with:
                l(1) =   0
                l(2) =   0
                l(3) =   1
                l(4) =   1
                l(5) =   2
                l(6) =   2
     Q(r) pseudized with  8 coefficients,  rinner =    1.000   1.000   1.000
                                                       1.000   1.000

     PseudoPot. # 2 for O  read from file:
     /storage/coda1/p-amedford6/0/shared/rich_project_chbe-medford/medford-share/data/pseudos_module/espresso/nninc/pbe/van/O.UPF
     MD5 check sum: 78c19812648e8988a0fe644b0f25305e
     Pseudo is Ultrasoft, Zval =  6.0
     Generated by new atomic code, or converted to UPF format
     Using radial grid of  737 points,  4 beta functions with:
                l(1) =   0
                l(2) =   0
                l(3) =   1
                l(4) =   1
     Q(r) pseudized with  8 coefficients,  rinner =    0.800   0.800   0.800

     PseudoPot. # 3 for C  read from file:
     /storage/coda1/p-amedford6/0/shared/rich_project_chbe-medford/medford-share/data/pseudos_module/espresso/nninc/pbe/van/C.UPF
     MD5 check sum: 1a69bf6b8db32088f5b2163dbdb77a27
     Pseudo is Ultrasoft, Zval =  4.0
     Generated by new atomic code, or converted to UPF format
     Using radial grid of  721 points,  4 beta functions with:
                l(1) =   0
                l(2) =   0
                l(3) =   1
                l(4) =   1
     Q(r) pseudized with  8 coefficients,  rinner =    0.800   0.800   0.800

     PseudoPot. # 4 for H  read from file:
     /storage/coda1/p-amedford6/0/shared/rich_project_chbe-medford/medford-share/data/pseudos_module/espresso/nninc/pbe/van/H.UPF
     MD5 check sum: b5ee9d7bfd3a09ee7748110bda690ff7
     Pseudo is Ultrasoft, Zval =  1.0
     Generated by new atomic code, or converted to UPF format
     Using radial grid of  615 points,  1 beta functions with:
                l(1) =   0
     Q(r) pseudized with  8 coefficients,  rinner =    0.800

     PseudoPot. # 5 for N  read from file:
     /storage/coda1/p-amedford6/0/shared/rich_project_chbe-medford/medford-share/data/pseudos_module/espresso/nninc/pbe/van/N.UPF
     MD5 check sum: 90d10febe142ad51ac9d5be1deb811c4
     Pseudo is Ultrasoft, Zval =  5.0
     Generated by new atomic code, or converted to UPF format
     Using radial grid of  729 points,  4 beta functions with:
                l(1) =   0
                l(2) =   0
                l(3) =   1
                l(4) =   1
     Q(r) pseudized with  8 coefficients,  rinner =    0.800   0.800   0.800

     atomic species   valence    mass     pseudopotential
        Ti1           12.00    47.86700     Ti( 1.00)
        O1             6.00    15.99900     O ( 1.00)
        C1             4.00    12.01100     C ( 1.00)
        H1             1.00     1.00800     H ( 1.00)
        N1             5.00    14.00700     N ( 1.00)

     No symmetry found

   Cartesian axes

     site n.     atom                  positions (alat units)
         1           Ti1 tau(   1) = (   0.0004258   2.9801865   6.0000000  )
         2           Ti1 tau(   2) = (   3.2906075   1.4906267   6.0002472  )
         3           O1  tau(   3) = (   0.0006271   0.0005054   7.9858123  )
         4           O1  tau(   4) = (   3.2906025   0.0005020   7.3038282  )
         5           O1  tau(   5) = (   4.5942328   1.4918067   9.2879030  )
         6           O1  tau(   6) = (   1.9868534   1.4903216   9.2879459  )
         7           Ti1 tau(   7) = (   3.2907910   2.8959150   9.1758416  )
         8           Ti1 tau(   8) = (   0.0015273   1.4827037   9.2680791  )
         9           O1  tau(   9) = (   3.3006472   5.9526327  11.3326431  )
        10           O1  tau(  10) = (   0.0116148   5.9584955  10.6183126  )
        11           O1  tau(  11) = (   1.2986171   1.4856602  12.6180737  )
        12           O1  tau(  12) = (   5.2832837   1.4869688  12.6136912  )
        13           Ti1 tau(  13) = (   0.0716907   2.9700601  12.6329626  )
        14           Ti1 tau(  14) = (   3.3921379   1.4824266  12.4783935  )
        15           O1  tau(  15) = (   0.0098915   0.0277142  14.6273811  )
        16           O1  tau(  16) = (   3.2980527   0.0034327  13.9214941  )
        17           O1  tau(  17) = (   4.5491770   1.5035522  16.0668258  )
        18           O1  tau(  18) = (   2.0540802   1.5011373  16.0688643  )
        19           Ti1 tau(  19) = (   3.2973159   2.9845483  15.7023000  )
        20           Ti1 tau(  20) = (   6.5754392   1.4353193  15.8239573  )
        21           O1  tau(  21) = (   3.2904802   0.0005063   4.7018136  )
        22           O1  tau(  22) = (   0.0048264   5.9571524  17.1588256  )
        23           O1  tau(  23) = (   1.3043587   1.4918075   6.0039043  )
        24           O1  tau(  24) = (   5.2767064   1.4903225   6.0039473  )
        25           Ti1 tau(  25) = (   0.0000382   5.9609847   6.0000000  )
        26           Ti1 tau(  26) = (   3.2902200   4.4714249   6.0002472  )
        27           O1  tau(  27) = (   0.0002396   2.9813036   7.9858123  )
        28           O1  tau(  28) = (   3.2902150   2.9813002   7.3038282  )
        29           O1  tau(  29) = (   4.5938453   4.4726049   9.2879030  )
        30           O1  tau(  30) = (   1.9864658   4.4711199   9.2879459  )
        31           Ti1 tau(  31) = (   3.2891106   5.8743827   9.1763621  )
        32           Ti1 tau(  32) = (   0.0006254   4.4649316   9.2693709  )
        33           O1  tau(  33) = (   3.3024910   2.9811918  11.3312481  )
        34           O1  tau(  34) = (   0.0092240   2.9805883  10.6323155  )
        35           O1  tau(  35) = (   1.2967186   4.4682081  12.6345707  )
        36           O1  tau(  36) = (   5.2888097   4.4704914  12.6297389  )
        37           Ti1 tau(  37) = (   0.0778612   5.9457776  12.5489457  )
        38           Ti1 tau(  38) = (   3.3928769   4.4622707  12.4864817  )
        39           O1  tau(  39) = (   0.0140712   2.9461142  14.6842920  )
        40           O1  tau(  40) = (   3.2991745   2.9776924  13.9065265  )
        41           O1  tau(  41) = (   4.5418516   4.4678888  16.0645815  )
        42           O1  tau(  42) = (   2.0574864   4.4691885  16.0636024  )
        43           Ti1 tau(  43) = (   3.2861726   0.0051191  15.7195692  )
        44           Ti1 tau(  44) = (   6.5761434   4.5285208  16.1368719  )
        45           O1  tau(  45) = (   3.2900926   2.9813045   4.7018136  )
        46           O1  tau(  46) = (   1.3039711   4.4726057   6.0039043  )
        47           O1  tau(  47) = (   5.2763189   4.4711207   6.0039473  )
        48           C1  tau(  48) = (   0.0175971   3.0427671  17.7901079  )
        49           H1  tau(  49) = (   5.6823727   3.3959267  18.2745233  )
        50           H1  tau(  50) = (   0.1100020   1.9921885  18.0671921  )
        51           H1  tau(  51) = (   0.8707680   3.5346006  18.2680029  )
        52           N1  tau(  52) = (   6.1495222   1.5591847  21.8098380  )
        53           H1  tau(  53) = (   6.1793786   2.4848735  21.3946126  )
        54           H1  tau(  54) = (   6.2462200   0.9013766  21.0428083  )
        55           H1  tau(  55) = (   5.2088654   1.4380024  22.1828036  )
        56           N1  tau(  56) = (   2.8510371   0.9663425  23.1735989  )
        57           H1  tau(  57) = (   2.8683653   5.9129692  23.1556095  )
        58           H1  tau(  58) = (   1.9174079   1.2374795  22.9038124  )
        59           H1  tau(  59) = (   2.9640119   1.2328864  24.1466208  )

     number of k points=    10  Fermi-Dirac smearing, width (Ry)=  0.0073
                       cart. coord. in units 2pi/alat
        k(    1) = (   0.0000000   0.0000000   0.0000000), wk =   0.1250000
        k(    2) = (   0.0000000   0.0419351   0.0000000), wk =   0.2500000
        k(    3) = (   0.0000000  -0.0838702   0.0000000), wk =   0.1250000
        k(    4) = (   0.0379955   0.0000049   0.0000000), wk =   0.2500000
        k(    5) = (   0.0379955   0.0419400   0.0000000), wk =   0.2500000
        k(    6) = (   0.0379955  -0.0838652   0.0000000), wk =   0.2500000
        k(    7) = (   0.0379955  -0.0419301   0.0000000), wk =   0.2500000
        k(    8) = (  -0.0759910  -0.0000099   0.0000000), wk =   0.1250000
        k(    9) = (  -0.0759910   0.0419252   0.0000000), wk =   0.2500000
        k(   10) = (  -0.0759910  -0.0838800   0.0000000), wk =   0.1250000

     Initial potential from superposition of free atoms

     starting charge  384.99911, renormalised to  401.00000

     negative rho (up, down):  4.922E-03 0.000E+00

     %%%%%%%%%%%%%%%%%%%%%%%%%%%%%%%%%%%%%%%%%%%%%%%%%%%%%%%%%%%%%%%%%%%%%%%%
     %                                                                      %
     % You are using vdW-DF, which was implemented by the Thonhauser group. %
     % Please cite the following two papers that made this development      %
     % possible and the two reviews that describe the various versions:     %
     %                                                                      %
     %   T. Thonhauser et al., PRL 115, 136402 (2015).                      %
     %   T. Thonhauser et al., PRB 76, 125112 (2007).                       %
     %   K. Berland et al., Rep. Prog. Phys. 78, 066501 (2015).             %
     %   D.C. Langreth et al., J. Phys.: Condens. Matter 21, 084203 (2009). %
     %                                                                      %
     %                                                                      %
     % If you are calculating the stress with vdW-DF, please also cite:     %
     %                                                                      %
     %   R. Sabatini et al., J. Phys.: Condens. Matter 24, 424209 (2012).   %
     %                                                                      %
     %%%%%%%%%%%%%%%%%%%%%%%%%%%%%%%%%%%%%%%%%%%%%%%%%%%%%%%%%%%%%%%%%%%%%%%%

     Adding external electric field

     Computed dipole along edir(3) :
        Dipole              -16.7053 Ry au,        -42.4606 Debye
        Dipole field         -0.0315 Ry au,

        Potential amp.        2.9223 Ry
        Total length         46.3494 bohr

     Starting wfcs are  305 atomic wfcs
  @ DRIVER MODE: Message from server: STATUS
  @ DRIVER MODE: Message from server: POSDATA
  @ DRIVER MODE: Reading and sharing cell
  @ DRIVER MODE: Reading and sharing positions
  @ DRIVER MODE: Received positions

     Self-consistent Calculation

     iteration #  1     ecut=    29.40 Ry     beta= 0.05
     Davidson diagonalization with overlap
     c_bands:  2 eigenvalues not converged
     c_bands:  3 eigenvalues not converged
     c_bands:  1 eigenvalues not converged
     c_bands:  4 eigenvalues not converged
     c_bands:  4 eigenvalues not converged
     c_bands:  2 eigenvalues not converged
     c_bands:  3 eigenvalues not converged
     c_bands:  3 eigenvalues not converged
     c_bands:  4 eigenvalues not converged
     ethr =  1.00E-05,  avg # of iterations = 19.8

[...]

     total energy              =   -2364.23589145 Ry
     estimated scf accuracy    <    6692.65079004 Ry

     iteration #  2     ecut=    29.40 Ry     beta= 0.05
     Davidson diagonalization with overlap
     ethr =  1.00E-02,  avg # of iterations = 22.6

[...]

     iteration # 50     ecut=    29.40 Ry     beta= 0.05
     Davidson diagonalization with overlap
     c_bands:  1 eigenvalues not converged
     ethr =  2.31E-09,  avg # of iterations = 12.7

[...]

     total energy              =   -2946.58233873 Ry
     estimated scf accuracy    <       0.00000011 Ry

     iteration # 58     ecut=    29.40 Ry     beta= 0.05
     Davidson diagonalization with overlap
     ethr =  2.79E-11,  avg # of iterations =  9.4

     negative rho (up, down):  7.001E-03 0.000E+00

     Adding external electric field

     Computed dipole along edir(3) :
        Dipole                0.3159 Ry au,          0.8029 Debye
        Dipole field          0.0006 Ry au,

        Potential amp.       -0.0553 Ry
        Total length         46.3494 bohr

     End of self-consistent calculation

          k = 0.0000 0.0000 0.0000 ( 18029 PWs)   bands (ev):

   -55.9974 -55.9874 -55.9633 -55.9504 -55.8779 -55.8536 -55.8326 -55.8145
   -55.8046 -55.7707 -55.7705 -55.7370 -55.6117 -55.3900 -54.9781 -54.9441
   -32.5412 -32.4800 -32.3525 -32.3324 -32.3039 -32.3014 -32.2901 -32.2612
   -32.2395 -32.2161 -32.2091 -32.1946 -32.1672 -32.1496 -32.1404 -32.1264
   -32.1102 -32.1018 -32.0865 -32.0584 -32.0547 -32.0545 -32.0265 -32.0073
   -32.0067 -32.0016 -31.9927 -31.9886 -31.9754 -31.9730 -31.9650 -31.9450
   -31.9430 -31.9366 -31.9235 -31.9102 -31.8826 -31.8650 -31.8275 -31.6667
   -31.6404 -31.5277 -31.3853 -31.2965 -31.2741 -31.2018 -31.1154 -31.0045
   -16.7425 -16.4732 -16.2468 -16.1508 -16.1237 -16.0044 -15.8391 -15.7172
   -15.6689 -15.5686 -15.5593 -15.5346 -15.5016 -15.4778 -15.4770 -15.4428
   -15.4398 -15.4207 -15.4091 -15.3589 -15.3358 -15.3243 -15.2091 -15.1753
   -15.1330 -15.1117 -15.0541 -15.0416 -14.6191 -13.4815 -13.3651 -13.0503
   -12.9452  -9.1019  -4.1157  -3.9589  -3.9047  -3.8596  -3.8288  -3.6119
    -3.5459  -3.2483  -3.1841  -3.1694  -3.1521  -3.1295  -3.1196  -3.0996
    -3.0366  -2.9869  -2.9012  -2.8637  -2.8293  -2.8090  -2.8060  -2.7765
    -2.7668  -2.7547  -2.7140  -2.6885  -2.6623  -2.6122  -2.5573  -2.4952
    -2.4118  -2.3939  -2.3122  -2.2898  -2.2836  -2.2407  -2.2262  -2.2184
    -2.1994  -2.1743  -2.1612  -1.9778  -1.9393  -1.8365  -1.7804  -1.7783
    -1.6069  -1.5070  -1.4652  -1.4543  -1.4249  -1.3912  -1.3845  -1.2983
    -1.1814  -1.1504  -1.1174  -1.0454  -1.0018  -0.9700  -0.8724  -0.8449
    -0.7620  -0.7597  -0.7375  -0.6496  -0.5959  -0.4823  -0.4343  -0.4243
    -0.3864  -0.3572  -0.2879  -0.2736  -0.2168  -0.1444  -0.1236  -0.0607
    -0.0304  -0.0163  -0.0051   0.0117   0.0381   0.0685   0.1725   0.2030
     0.2824   0.3502   0.4454   0.5430   0.6487   0.6577   0.7591   0.9683
     1.0419   1.1403   1.1990   1.2360   1.6151   1.6609   1.7509   2.1871
     3.1396   3.2237   3.2712   3.2819   3.3730   3.3893   3.5899   3.6142
     3.6351   3.6880

[...]

          k = 0.0380-0.0419 0.0000 ( 17876 PWs)   bands (ev):

[...]

          k =-0.0760-0.0000 0.0000 ( 17886 PWs)   bands (ev):

[...]

          k =-0.0760-0.0839 0.0000 ( 17948 PWs)   bands (ev):

   -55.9808 -55.9798 -55.9733 -55.9643 -55.8699 -55.8434 -55.8404 -55.8246
   -55.7886 -55.7860 -55.7552 -55.7527 -55.6106 -55.3910 -54.9611 -54.9609
   -32.3489 -32.3403 -32.2956 -32.2949 -32.2760 -32.2751 -32.2589 -32.2500
   -32.2037 -32.1919 -32.1856 -32.1829 -32.1451 -32.1293 -32.1276 -32.1183
   -32.1077 -32.1003 -32.1002 -32.0992 -32.0934 -32.0906 -32.0699 -32.0602
   -32.0410 -32.0380 -32.0286 -32.0117 -31.9884 -31.9875 -31.9860 -31.9842
   -31.9695 -31.9681 -31.9652 -31.9613 -31.9326 -31.8562 -31.8308 -31.6804
   -31.6686 -31.5720 -31.2868 -31.2868 -31.1982 -31.1980 -31.1586 -31.1586
   -16.1753 -16.1559 -15.9483 -15.9115 -15.9085 -15.8993 -15.7876 -15.7026
   -15.6926 -15.6919 -15.6094 -15.5972 -15.5810 -15.5369 -15.5327 -15.5233
   -15.5137 -15.5017 -15.4585 -15.4535 -15.4347 -15.4271 -15.3452 -15.3148
   -15.3111 -15.2728 -15.1407 -15.0093 -14.8609 -13.4670 -13.4668 -13.0014
   -12.9937  -9.1184  -3.4673  -3.4417  -3.1915  -3.1552  -3.1460  -3.1114
    -3.0819  -3.0664  -3.0013  -2.9805  -2.9215  -2.8953  -2.8805  -2.8758
    -2.8395  -2.8271  -2.8173  -2.8053  -2.7871  -2.7528  -2.7439  -2.7115
    -2.7006  -2.6805  -2.6671  -2.6517  -2.6271  -2.6145  -2.6081  -2.5770
    -2.5628  -2.5459  -2.5252  -2.5024  -2.4193  -2.2302  -2.2004  -2.1356
    -2.1265  -2.0961  -2.0846  -2.0611  -2.0468  -2.0282  -1.9814  -1.8284
    -1.7264  -1.7002  -1.6724  -1.5973  -1.5764  -1.5286  -1.4146  -1.3799
    -1.3525  -1.3267  -1.2766  -1.2255  -1.2081  -1.1852  -1.1162  -1.1026
    -1.0250  -0.9816  -0.9591  -0.9547  -0.8897  -0.8467  -0.7648  -0.7595
    -0.7155  -0.6799  -0.6324  -0.5922  -0.5875  -0.5005  -0.4748  -0.3582
    -0.3035  -0.0438   0.0058   0.0571   0.0833   0.1422   0.1926   0.2073
     0.3164   0.3207   0.3572   0.4009   0.4416   0.5293   0.5485   0.5832
     0.7293   1.3033   1.4065   1.4071   1.4803   1.4807   1.9545   1.9685
     3.4245   3.4398   3.4702   3.5026   3.6441   3.6479   3.6693   3.6711
     3.7974   3.8129

     the Fermi energy is     3.1373 ev

!    total energy              =   -2946.58239009 Ry
     estimated scf accuracy    <       0.00000007 Ry
     smearing contrib. (-TS)   =      -0.02179100 Ry
     internal energy E=F+TS    =   -2946.56059909 Ry

     The total energy is F=E-TS. E is the sum of the following terms:
     one-electron contribution =  -22199.70087537 Ry
     hartree contribution      =   11188.84523372 Ry
     xc contribution           =    -489.85442081 Ry
     ewald contribution        =    8554.14927507 Ry
     electric field correction =       0.00018830 Ry

     convergence has been achieved in  58 iterations

     Forces acting on atoms (cartesian axes, Ry/au):

     atom    1 type  1   force =     0.00012711   -0.00026180    0.09670058
     atom    2 type  1   force =    -0.00014265   -0.00055241   -0.17507906
     atom    3 type  2   force =    -0.00000102   -0.00002789   -0.02501388
     atom    4 type  2   force =     0.00007679   -0.00143929    0.05270948
     atom    5 type  2   force =    -0.01211164   -0.00083605    0.00339985
     atom    6 type  2   force =     0.01402425   -0.00015287    0.00290801
     atom    7 type  1   force =    -0.00082254    0.00070095   -0.01135071
     atom    8 type  1   force =     0.00025532    0.01148492    0.02858646
     atom    9 type  2   force =    -0.00010017    0.00008864   -0.00001348
     atom   10 type  2   force =    -0.00085130    0.00077141   -0.01662429
     atom   11 type  2   force =    -0.00030163    0.00009586    0.00002912
     atom   12 type  2   force =    -0.00001441    0.00020413    0.00004761
     atom   13 type  1   force =    -0.00011543   -0.00019857    0.00009255
     atom   14 type  1   force =    -0.00021443    0.00000710   -0.00005109
     atom   15 type  2   force =    -0.00003356    0.00005011   -0.00010858
     atom   16 type  2   force =    -0.00012130   -0.00004014    0.00001155
     atom   17 type  2   force =    -0.00001516   -0.00015726   -0.00001546
     atom   18 type  2   force =    -0.00021076   -0.00017654   -0.00001560
     atom   19 type  1   force =     0.00000248   -0.00021086    0.00015032
     atom   20 type  1   force =     0.00010013   -0.00036976   -0.00005116
     atom   21 type  2   force =     0.00006429    0.00000826    0.10290932
     atom   22 type  2   force =    -0.00010678   -0.00007484   -0.00038843
     atom   23 type  2   force =    -0.07138958   -0.00010454   -0.02771437
     atom   24 type  2   force =     0.07134965    0.00030279   -0.02774921
     atom   25 type  1   force =     0.00000903   -0.00030544    0.09647751
     atom   26 type  1   force =    -0.00018097   -0.00027047   -0.17526334
     atom   27 type  2   force =     0.00009408   -0.00020051   -0.02391719
     atom   28 type  2   force =     0.00011506   -0.00119909    0.05274924
     atom   29 type  2   force =    -0.01214317    0.00045570    0.00287908
     atom   30 type  2   force =     0.01397593    0.00079956    0.00242718
     atom   31 type  1   force =    -0.00076698    0.00311977   -0.01227670
     atom   32 type  1   force =     0.00027008   -0.01311724    0.02916378
     atom   33 type  2   force =    -0.00009674   -0.00003367    0.00003866
     atom   34 type  2   force =    -0.00028909    0.00077331   -0.02207412
     atom   35 type  2   force =    -0.00015509    0.00008798   -0.00004494
     atom   36 type  2   force =    -0.00010971    0.00020812   -0.00003262
     atom   37 type  1   force =    -0.00002284   -0.00031567   -0.00017025
     atom   38 type  1   force =     0.00002287   -0.00000048    0.00000175
     atom   39 type  2   force =    -0.00008235    0.00013631    0.00028445
     atom   40 type  2   force =    -0.00013320   -0.00001230   -0.00008180
     atom   41 type  2   force =     0.00001908   -0.00021377    0.00001295
     atom   42 type  2   force =    -0.00020977   -0.00022080    0.00018218
     atom   43 type  1   force =     0.00032184   -0.00016090   -0.00017221
     atom   44 type  1   force =     0.00018250   -0.00025936    0.00017957
     atom   45 type  2   force =     0.00006236   -0.00007200    0.10290291
     atom   46 type  2   force =    -0.07140125   -0.00008885   -0.02772747
     atom   47 type  2   force =     0.07135983    0.00036827   -0.02773427
     atom   48 type  3   force =    -0.00018358    0.00037555    0.00005463
     atom   49 type  4   force =    -0.00007794    0.00041894    0.00021662
     atom   50 type  4   force =    -0.00008407    0.00012830    0.00005765
     atom   51 type  4   force =     0.00008777    0.00029790    0.00038645
     atom   52 type  5   force =    -0.00057275   -0.00029128    0.00146027
     atom   53 type  4   force =     0.00007849    0.00054503   -0.00048903
     atom   54 type  4   force =    -0.00043662   -0.00040313   -0.00133987
     atom   55 type  4   force =     0.00066424    0.00023400   -0.00051517
     atom   56 type  5   force =     0.01435562   -0.00393347    0.00388771
     atom   57 type  4   force =     0.00013832   -0.00010020    0.00022150
     atom   58 type  4   force =    -0.01442208    0.00402821   -0.00477993
     atom   59 type  4   force =     0.00016348    0.00011030   -0.00033475

     Total force =     0.368331     Total SCF correction =     0.000607
  @ DRIVER MODE: Message from server: STATUS
  @ DRIVER MODE: Message from server: GETFORCE
  @ DRIVER MODE: Returning v,forces,stress,ensemble

     Writing output data file ./calc.save/
  @ DRIVER MODE: Message from server: EXIT
  @ DRIVE MODE: Exiting

     General routines

     Parallel routines

   This run was terminated on:   5:20:30   4Aug2021

   JOB DONE.