     Program PWSCF v.6.7GPU starts on 15Sep2021 at 18:19:35

     R & G space division:  proc/nbgrp/npool/nimage =      10
     Reading input from /storage/home/hcoda1/3/ntian30/research/carbon/CxH_vib/H2O_calc/ads_slab/CH3NHNH2H2O_a/out_0008/pw.inp
Warning: card &CELL ignored
Warning: card   CELL_DYNAMICS='IPI', ignored
Warning: card / ignored

     Current dimensions of program PWSCF are:
     Max number of different atomic species (ntypx) = 10
     Max number of k-points (npk) =  40000
     Max angular momentum in pseudopotentials (lmaxx) =  3
     Presently no symmetry can be used with electric field

     Message from routine cell_base_init:
     DEPRECATED: use true lattice parameter, not A to a.u. conversion factor

     IMPORTANT: XC functional enforced from input :
     Exchange-correlation= BEEF-VDW
                           (   1   4  43  14   2   0   0)
     Any further DFT definition will be discarded
     Please, verify this is what you really want

  @ DRIVER MODE: Connecting to
 qe_1139763_2852619.sched-torque.pace.gatech.eduai3wgm4v_scratch
  using UNIX socket
  @ DRIVER MODE: Message from server: STATUS
  @ DRIVER MODE: Message from server: INIT
  @ DRIVER MODE: Receiving replica           0          -1
  @ DRIVER MODE: Receiving encoded integer          25
  @ DRIVER MODE:  SCF:  T  FORCE:  T  STRESS:  F  VC:  F  ENSEMBLE:  F
  @ DRIVER MODE:  SCF:  T  FORCE:  T  STRESS:  F  VC:  F  ENSEMBLE:  F

     Using Slab Decomposition

     bravais-lattice index     =            0
     lattice parameter (alat)  =       1.8897  a.u.
     unit-cell volume          =    6658.9804 (a.u.)^3
     number of atoms/cell      =           59
     number of atomic types    =            5
     number of electrons       =       406.00
     number of Kohn-Sham states=          213
     kinetic-energy cutoff     =      29.3995  Ry
     charge density cutoff     =     293.9946  Ry
     scf convergence threshold =      7.3E-08
     mixing beta               =       0.0500
     number of iterations used =            8  plain     mixing
     Exchange-correlation= BEEF-VDW
                           (   1   4  43  14   2   0   0)

     celldm(1)=   1.889726  celldm(2)=   0.000000  celldm(3)=   0.000000
     celldm(4)=   0.000000  celldm(5)=   0.000000  celldm(6)=   0.000000

     crystal axes: (cart. coord. in units of alat)
               a(1) = (   6.579727   0.000000   0.000000 )
               a(2) = (  -0.000775   5.961596   0.000000 )
               a(3) = (   0.000000   0.000000  25.155947 )

     reciprocal axes: (cart. coord. in units 2 pi/alat)
               b(1) = (  0.151982  0.000020  0.000000 )
               b(2) = (  0.000000  0.167740  0.000000 )
               b(3) = (  0.000000  0.000000  0.039752 )

     PseudoPot. # 1 for Ti read from file:
     /storage/coda1/p-amedford6/0/shared/rich_project_chbe-medford/medford-share/data/pseudos_module/espresso/nninc/pbe/van/Ti.UPF
     MD5 check sum: 8e4df49b7f0d34bbd5052bf3f5ea0213
     Pseudo is Ultrasoft, Zval = 12.0
     Generated by new atomic code, or converted to UPF format
     Using radial grid of  851 points,  6 beta functions with:
                l(1) =   0
                l(2) =   0
                l(3) =   1
                l(4) =   1
                l(5) =   2
                l(6) =   2
     Q(r) pseudized with  8 coefficients,  rinner =    1.000   1.000   1.000
                                                       1.000   1.000

     PseudoPot. # 2 for O  read from file:
     /storage/coda1/p-amedford6/0/shared/rich_project_chbe-medford/medford-share/data/pseudos_module/espresso/nninc/pbe/van/O.UPF
     MD5 check sum: 78c19812648e8988a0fe644b0f25305e
     Pseudo is Ultrasoft, Zval =  6.0
     Generated by new atomic code, or converted to UPF format
     Using radial grid of  737 points,  4 beta functions with:
                l(1) =   0
                l(2) =   0
                l(3) =   1
                l(4) =   1
     Q(r) pseudized with  8 coefficients,  rinner =    0.800   0.800   0.800

     PseudoPot. # 3 for N  read from file:
     /storage/coda1/p-amedford6/0/shared/rich_project_chbe-medford/medford-share/data/pseudos_module/espresso/nninc/pbe/van/N.UPF
     MD5 check sum: 90d10febe142ad51ac9d5be1deb811c4
     Pseudo is Ultrasoft, Zval =  5.0
     Generated by new atomic code, or converted to UPF format
     Using radial grid of  729 points,  4 beta functions with:
                l(1) =   0
                l(2) =   0
                l(3) =   1
                l(4) =   1
     Q(r) pseudized with  8 coefficients,  rinner =    0.800   0.800   0.800

     PseudoPot. # 4 for C  read from file:
     /storage/coda1/p-amedford6/0/shared/rich_project_chbe-medford/medford-share/data/pseudos_module/espresso/nninc/pbe/van/C.UPF
     MD5 check sum: 1a69bf6b8db32088f5b2163dbdb77a27
     Pseudo is Ultrasoft, Zval =  4.0
     Generated by new atomic code, or converted to UPF format
     Using radial grid of  721 points,  4 beta functions with:
                l(1) =   0
                l(2) =   0
                l(3) =   1
                l(4) =   1
     Q(r) pseudized with  8 coefficients,  rinner =    0.800   0.800   0.800

     PseudoPot. # 5 for H  read from file:
     /storage/coda1/p-amedford6/0/shared/rich_project_chbe-medford/medford-share/data/pseudos_module/espresso/nninc/pbe/van/H.UPF
     MD5 check sum: b5ee9d7bfd3a09ee7748110bda690ff7
     Pseudo is Ultrasoft, Zval =  1.0
     Generated by new atomic code, or converted to UPF format
     Using radial grid of  615 points,  1 beta functions with:
                l(1) =   0
     Q(r) pseudized with  8 coefficients,  rinner =    0.800

     atomic species   valence    mass     pseudopotential
        Ti1           12.00    47.86700     Ti( 1.00)
        O1             6.00    15.99900     O ( 1.00)
        N1             5.00    14.00700     N ( 1.00)
        C1             4.00    12.01100     C ( 1.00)
        H1             1.00     1.00800     H ( 1.00)

     No symmetry found

   Cartesian axes

     site n.     atom                  positions (alat units)
         1           Ti1 tau(   1) = (   0.0004258   2.9801865   6.0000000  )
         2           Ti1 tau(   2) = (   3.2906075   1.4906267   6.0002472  )
         3           O1  tau(   3) = (   0.0006271   0.0005054   7.9858123  )
         4           O1  tau(   4) = (   3.2906025   0.0005020   7.3038282  )
         5           O1  tau(   5) = (   4.5942328   1.4918067   9.2879030  )
         6           O1  tau(   6) = (   1.9868534   1.4903216   9.2879459  )
         7           Ti1 tau(   7) = (   3.2907910   2.8959150   9.1758416  )
         8           Ti1 tau(   8) = (   0.0015273   1.4827037   9.2680791  )
         9           O1  tau(   9) = (   3.2683845   0.0132936  11.3796717  )
        10           O1  tau(  10) = (   0.0116148   5.9584955  10.6183126  )
        11           O1  tau(  11) = (   1.2681313   1.5011218  12.7194972  )
        12           O1  tau(  12) = (   5.2787963   1.4993765  12.6897032  )
        13           Ti1 tau(  13) = (   6.5560253   2.9823375  12.4990790  )
        14           Ti1 tau(  14) = (   3.2673924   1.4925278  12.5394213  )
        15           O1  tau(  15) = (   6.5345332   5.8735037  14.6996474  )
        16           O1  tau(  16) = (   3.2898196   5.9462848  13.9939205  )
        17           O1  tau(  17) = (   4.4957945   1.5291507  16.1605787  )
        18           O1  tau(  18) = (   1.9883785   1.5110281  16.0762771  )
        19           Ti1 tau(  19) = (   3.2526948   3.0056396  15.7740191  )
        20           Ti1 tau(  20) = (   0.0000763   1.3299063  15.8143521  )
        21           O1  tau(  21) = (   3.2904802   0.0005063   4.7018136  )
        22           O1  tau(  22) = (   6.5205728   0.2065101  17.2442985  )
        23           O1  tau(  23) = (   1.3043587   1.4918075   6.0039043  )
        24           O1  tau(  24) = (   5.2767064   1.4903225   6.0039473  )
        25           Ti1 tau(  25) = (   0.0000382   5.9609847   6.0000000  )
        26           Ti1 tau(  26) = (   3.2902200   4.4714249   6.0002472  )
        27           O1  tau(  27) = (   0.0002396   2.9813036   7.9858123  )
        28           O1  tau(  28) = (   3.2902150   2.9813002   7.3038282  )
        29           O1  tau(  29) = (   4.5938453   4.4726049   9.2879030  )
        30           O1  tau(  30) = (   1.9864658   4.4711199   9.2879459  )
        31           Ti1 tau(  31) = (   3.2891106   5.8743827   9.1763621  )
        32           Ti1 tau(  32) = (   0.0006254   4.4649316   9.2693709  )
        33           O1  tau(  33) = (   3.2688559   2.9716192  11.3757022  )
        34           O1  tau(  34) = (   0.0092240   2.9805883  10.6323155  )
        35           O1  tau(  35) = (   1.2711362   4.4646907  12.6658965  )
        36           O1  tau(  36) = (   5.2748280   4.4660984  12.6332574  )
        37           Ti1 tau(  37) = (   6.5627654   5.9477838  12.5072267  )
        38           Ti1 tau(  38) = (   3.2667511   4.4702655  12.5260729  )
        39           O1  tau(  39) = (   6.5087961   3.0586107  15.0099536  )
        40           O1  tau(  40) = (   3.2849776   3.0149387  13.9815115  )
        41           O1  tau(  41) = (   4.4906635   4.4862850  16.2792570  )
        42           O1  tau(  42) = (   1.9756856   4.4939852  16.2100911  )
        43           Ti1 tau(  43) = (   3.2747729   0.0241646  15.7895078  )
        44           Ti1 tau(  44) = (   6.5697470   4.5456975  16.1185117  )
        45           O1  tau(  45) = (   3.2900926   2.9813045   4.7018136  )
        46           O1  tau(  46) = (   1.3039711   4.4726057   6.0039043  )
        47           O1  tau(  47) = (   5.2763189   4.4711207   6.0039473  )
        48           N1  tau(  48) = (   0.9980056   3.0961469  19.0053282  )
        49           N1  tau(  49) = (   6.4163515   3.4839273  18.2229180  )
        50           C1  tau(  50) = (   1.6570833   4.2684698  19.5811903  )
        51           H1  tau(  51) = (   0.9936588   4.8902639  20.1979557  )
        52           H1  tau(  52) = (   2.4789334   3.9063689  20.1993048  )
        53           H1  tau(  53) = (   2.0598354   4.8861676  18.7819781  )
        54           H1  tau(  54) = (   0.6510520   2.5058952  19.7602174  )
        55           H1  tau(  55) = (   5.8507131   4.1735594  18.7414995  )
        56           H1  tau(  56) = (   5.8147758   2.6545292  18.1916272  )
        57           O1  tau(  57) = (   5.1718451   0.7889162  19.5681371  )
        58           H1  tau(  58) = (   5.5516362   0.5215711  18.6954158  )
        59           H1  tau(  59) = (   4.2099197   0.7512590  19.4668632  )

     number of k points=    10  Fermi-Dirac smearing, width (Ry)=  0.0073
                       cart. coord. in units 2pi/alat
        k(    1) = (   0.0000000   0.0000000   0.0000000), wk =   0.1250000
        k(    2) = (   0.0000000   0.0419351   0.0000000), wk =   0.2500000
        k(    3) = (   0.0000000  -0.0838702   0.0000000), wk =   0.1250000
        k(    4) = (   0.0379955   0.0000049   0.0000000), wk =   0.2500000
        k(    5) = (   0.0379955   0.0419400   0.0000000), wk =   0.2500000
        k(    6) = (   0.0379955  -0.0838652   0.0000000), wk =   0.2500000
        k(    7) = (   0.0379955  -0.0419301   0.0000000), wk =   0.2500000
        k(    8) = (  -0.0759910  -0.0000099   0.0000000), wk =   0.1250000
        k(    9) = (  -0.0759910   0.0419252   0.0000000), wk =   0.2500000
        k(   10) = (  -0.0759910  -0.0838800   0.0000000), wk =   0.1250000

     Initial potential from superposition of free atoms

     starting charge  389.99912, renormalised to  406.00000

     negative rho (up, down):  1.389E-02 0.000E+00

     %%%%%%%%%%%%%%%%%%%%%%%%%%%%%%%%%%%%%%%%%%%%%%%%%%%%%%%%%%%%%%%%%%%%%%%%
     %                                                                      %
     % You are using vdW-DF, which was implemented by the Thonhauser group. %
     % Please cite the following two papers that made this development      %
     % possible and the two reviews that describe the various versions:     %
     %                                                                      %
     %   T. Thonhauser et al., PRL 115, 136402 (2015).                      %
     %   T. Thonhauser et al., PRB 76, 125112 (2007).                       %
     %   K. Berland et al., Rep. Prog. Phys. 78, 066501 (2015).             %
     %   D.C. Langreth et al., J. Phys.: Condens. Matter 21, 084203 (2009). %
     %                                                                      %
     %                                                                      %
     % If you are calculating the stress with vdW-DF, please also cite:     %
     %                                                                      %
     %   R. Sabatini et al., J. Phys.: Condens. Matter 24, 424209 (2012).   %
     %                                                                      %
     %%%%%%%%%%%%%%%%%%%%%%%%%%%%%%%%%%%%%%%%%%%%%%%%%%%%%%%%%%%%%%%%%%%%%%%%

     Adding external electric field

     Computed dipole along edir(3) :
        Dipole              -16.7176 Ry au,        -42.4920 Debye
        Dipole field         -0.0315 Ry au,

        Potential amp.        2.9245 Ry
        Total length         46.3494 bohr

     Starting wfcs are  308 atomic wfcs
  @ DRIVER MODE: Message from server: STATUS
  @ DRIVER MODE: Message from server: POSDATA
  @ DRIVER MODE: Reading and sharing cell
  @ DRIVER MODE: Reading and sharing positions
  @ DRIVER MODE: Received positions

     Self-consistent Calculation

     iteration #  1     ecut=    29.40 Ry     beta= 0.05
     Davidson diagonalization with overlap
     c_bands:  2 eigenvalues not converged
     c_bands:  3 eigenvalues not converged
     c_bands:  2 eigenvalues not converged
     c_bands:  4 eigenvalues not converged
     c_bands:  1 eigenvalues not converged
     c_bands:  4 eigenvalues not converged
     c_bands:  3 eigenvalues not converged
     c_bands:  5 eigenvalues not converged
     c_bands:  3 eigenvalues not converged
     ethr =  1.00E-05,  avg # of iterations = 24.8

[...]

     total energy              =   -2136.65472832 Ry
     estimated scf accuracy    <    9692.96010020 Ry

     iteration #  2     ecut=    29.40 Ry     beta= 0.05
     Davidson diagonalization with overlap
     ethr =  1.00E-02,  avg # of iterations = 32.9

[...]

     iteration # 66     ecut=    29.40 Ry     beta= 0.05
     Davidson diagonalization with overlap
     c_bands:  1 eigenvalues not converged
     ethr =  5.46E-11,  avg # of iterations = 11.4

[...]

     total energy              =   -2977.68365025 Ry
     estimated scf accuracy    <       0.00000010 Ry

     iteration # 67     ecut=    29.40 Ry     beta= 0.05
     Davidson diagonalization with overlap
     ethr =  2.50E-11,  avg # of iterations = 11.0

     negative rho (up, down):  1.440E-02 0.000E+00

     Adding external electric field

     Computed dipole along edir(3) :
        Dipole                1.0194 Ry au,          2.5910 Debye
        Dipole field          0.0019 Ry au,

        Potential amp.       -0.1783 Ry
        Total length         46.3494 bohr

     End of self-consistent calculation

          k = 0.0000 0.0000 0.0000 ( 18029 PWs)   bands (ev):

   -55.3593 -55.3220 -55.3103 -55.2922 -55.2761 -55.2404 -55.2387 -55.2039
   -55.1826 -55.1812 -55.1483 -55.1423 -55.1086 -55.0176 -54.3422 -54.3081
   -31.9256 -31.8079 -31.8032 -31.7273 -31.6757 -31.6718 -31.6717 -31.6488
   -31.5992 -31.5947 -31.5715 -31.5689 -31.5553 -31.5386 -31.5296 -31.5262
   -31.5137 -31.5068 -31.4962 -31.4789 -31.4639 -31.4629 -31.4347 -31.4245
   -31.4170 -31.4132 -31.3923 -31.3852 -31.3689 -31.3674 -31.3625 -31.3535
   -31.3415 -31.3405 -31.3318 -31.3291 -31.2962 -31.2929 -31.2707 -31.2535
   -31.2298 -31.2276 -30.7518 -30.6571 -30.6351 -30.5681 -30.4813 -30.3704
   -18.0063 -17.6832 -16.1931 -15.9326 -15.7871 -15.6584 -15.5611 -15.4326
   -15.4133 -15.2915 -15.2212 -15.1171 -15.0662 -15.0478 -15.0121 -15.0019
   -14.9792 -14.9083 -14.9021 -14.8880 -14.8641 -14.8554 -14.8092 -14.8015
   -14.7603 -14.7359 -14.7116 -14.6126 -14.5227 -14.4479 -14.3397 -13.1198
   -12.8450 -12.7275  -9.4109  -6.3315  -5.8705  -5.7363  -4.2569  -3.5316
    -3.3829  -3.3140  -3.2779  -3.2527  -3.1191  -2.9612  -2.9111  -2.8045
    -2.7882  -2.6927  -2.6442  -2.5732  -2.5566  -2.5413  -2.3947  -2.3727
    -2.3477  -2.2808  -2.2537  -2.1872  -2.1652  -2.1548  -2.1449  -2.1217
    -2.0935  -2.0505  -1.9902  -1.9334  -1.8400  -1.8159  -1.7638  -1.7354
    -1.7136  -1.6966  -1.6510  -1.6400  -1.6004  -1.5860  -1.5679  -1.5515
    -1.3894  -1.3677  -1.2643  -1.2029  -1.1048  -0.9999  -0.9640  -0.9495
    -0.8526  -0.8336  -0.7822  -0.7405  -0.7379  -0.7031  -0.5914  -0.5287
    -0.4763  -0.4131  -0.3895  -0.3501  -0.2820  -0.1984  -0.1430  -0.1290
    -0.1129  -0.0966   0.0134   0.0258   0.0776   0.1524   0.1619   0.1681
     0.2414   0.2983   0.3685   0.3939   0.4110   0.5161   0.5318   0.5642
     0.5699   0.5998   0.6205   0.6456   0.7057   0.7360   0.8192   0.9409
     1.1333   1.2222   1.2493   1.3706   1.5724   1.5849   1.6805   1.8636
     2.2569   2.3052   3.7374   3.8086   3.8834   3.8874   3.9101   3.9738
     4.2106   4.2277   4.2423   4.2460   4.2702

[...]

          k = 0.0380-0.0419 0.0000 ( 17876 PWs)   bands (ev):

[...]

          k =-0.0760-0.0000 0.0000 ( 17886 PWs)   bands (ev):

[...]

          k =-0.0760-0.0839 0.0000 ( 17948 PWs)   bands (ev):

   -55.3456 -55.3355 -55.2934 -55.2928 -55.2909 -55.2332 -55.2282 -55.2161
   -55.1866 -55.1666 -55.1638 -55.1259 -55.1251 -55.0187 -54.3253 -54.3249
   -31.7336 -31.7258 -31.7235 -31.6395 -31.6196 -31.6185 -31.6180 -31.5845
   -31.5842 -31.5729 -31.5588 -31.5576 -31.5508 -31.5308 -31.5192 -31.5060
   -31.4995 -31.4962 -31.4947 -31.4931 -31.4863 -31.4790 -31.4467 -31.4393
   -31.4363 -31.4359 -31.4218 -31.4170 -31.4131 -31.4125 -31.4072 -31.3994
   -31.3971 -31.3798 -31.3766 -31.3742 -31.3597 -31.3563 -31.3066 -31.3064
   -31.3000 -31.2337 -30.6479 -30.6476 -30.5643 -30.5641 -30.5248 -30.5246
   -17.9931 -17.6934 -15.6735 -15.5886 -15.5677 -15.4127 -15.3610 -15.3345
   -15.3235 -15.2082 -15.1658 -15.1464 -15.1320 -15.1104 -15.0720 -15.0625
   -15.0559 -14.9924 -14.9720 -14.9632 -14.9372 -14.8835 -14.8759 -14.8679
   -14.8602 -14.8103 -14.8064 -14.7666 -14.7157 -14.7122 -14.6358 -13.1260
   -12.8289 -12.8289  -9.4158  -6.3485  -5.9179  -5.6404  -4.2351  -2.9200
    -2.8463  -2.8359  -2.8289  -2.7020  -2.6259  -2.5505  -2.5283  -2.5068
    -2.4206  -2.4089  -2.3782  -2.3530  -2.3234  -2.2843  -2.2465  -2.2397
    -2.2042  -2.1957  -2.1797  -2.1632  -2.1419  -2.1257  -2.0924  -2.0817
    -2.0673  -2.0235  -1.9982  -1.9842  -1.9632  -1.9423  -1.9352  -1.9163
    -1.8414  -1.7512  -1.7266  -1.6409  -1.5762  -1.5703  -1.5652  -1.5024
    -1.4589  -1.4206  -1.3956  -1.3787  -1.2393  -1.1678  -1.1237  -1.1094
    -1.0948  -0.9640  -0.9580  -0.8817  -0.8592  -0.8527  -0.7625  -0.7140
    -0.6759  -0.6693  -0.5824  -0.5707  -0.4946  -0.3962  -0.3742  -0.3600
    -0.3153  -0.3135  -0.2759  -0.2630  -0.1666  -0.1312  -0.1095  -0.0972
    -0.0809  -0.0390   0.1124   0.1608   0.1674   0.3009   0.3323   0.4707
     0.5007   0.5651   0.6449   0.6933   0.7459   0.7787   0.8657   0.9400
     0.9432   1.0066   1.0222   1.0882   1.1004   1.3766   2.0367   2.0372
     2.1251   2.1254   3.8853   4.0006   4.0041   4.0334   4.1560   4.1787
     4.2552   4.2827   4.3220   4.3255   4.3935

     the Fermi energy is     3.8015 ev

!    total energy              =   -2977.68370347 Ry
     estimated scf accuracy    <       0.00000007 Ry
     smearing contrib. (-TS)   =      -0.03717253 Ry
     internal energy E=F+TS    =   -2977.64653093 Ry

     The total energy is F=E-TS. E is the sum of the following terms:
     one-electron contribution =  -22682.00188325 Ry
     hartree contribution      =   11438.36496968 Ry
     xc contribution           =    -496.61305174 Ry
     ewald contribution        =    8762.60147335 Ry
     electric field correction =       0.00196103 Ry

     convergence has been achieved in  67 iterations

     Forces acting on atoms (cartesian axes, Ry/au):

     atom    1 type  1   force =     0.00024405   -0.00037524    0.09322562
     atom    2 type  1   force =     0.00001254   -0.00037785   -0.17816645
     atom    3 type  2   force =     0.00004862   -0.00042795   -0.02001754
     atom    4 type  2   force =     0.00000808   -0.00190383    0.05910635
     atom    5 type  2   force =    -0.01036445   -0.00059431    0.00861987
     atom    6 type  2   force =     0.01130797    0.00009726    0.00628627
     atom    7 type  1   force =    -0.00096967    0.00197367   -0.01425278
     atom    8 type  1   force =     0.00097750   -0.00256446   -0.00598588
     atom    9 type  2   force =     0.00016779   -0.00002663    0.00008747
     atom   10 type  2   force =    -0.00231232    0.00308306    0.00262377
     atom   11 type  2   force =     0.00041845   -0.00043922   -0.00057452
     atom   12 type  2   force =     0.00003343   -0.00042010   -0.00057296
     atom   13 type  1   force =     0.00035301   -0.00027843   -0.00020968
     atom   14 type  1   force =     0.00004427   -0.00008420   -0.00006052
     atom   15 type  2   force =     0.00004265    0.00061134   -0.00007540
     atom   16 type  2   force =     0.00031068    0.00027186   -0.00011925
     atom   17 type  2   force =     0.00039794    0.00026589    0.00038813
     atom   18 type  2   force =    -0.00048666    0.00021181   -0.00008385
     atom   19 type  1   force =    -0.00016528    0.00007483    0.00027857
     atom   20 type  1   force =    -0.00010874   -0.00013159    0.00069367
     atom   21 type  2   force =     0.00011897   -0.00011576    0.10399813
     atom   22 type  2   force =     0.00014217   -0.00021198    0.00045517
     atom   23 type  2   force =    -0.07028373   -0.00020050   -0.02688480
     atom   24 type  2   force =     0.07026478    0.00024469   -0.02688681
     atom   25 type  1   force =     0.00016706   -0.00030740    0.09240943
     atom   26 type  1   force =     0.00006159   -0.00053378   -0.17849119
     atom   27 type  2   force =     0.00007886   -0.00020432   -0.01907556
     atom   28 type  2   force =     0.00005847   -0.00173187    0.05853036
     atom   29 type  2   force =    -0.01101769   -0.00114416    0.00945685
     atom   30 type  2   force =     0.01187381   -0.00070122    0.00723865
     atom   31 type  1   force =    -0.00087586    0.00647273   -0.01492567
     atom   32 type  1   force =     0.00102706    0.00221294   -0.00639012
     atom   33 type  2   force =     0.00025706    0.00010327    0.00001297
     atom   34 type  2   force =    -0.00214845   -0.00242792   -0.00032056
     atom   35 type  2   force =     0.00028669    0.00013341   -0.00001100
     atom   36 type  2   force =     0.00024414    0.00004537    0.00050749
     atom   37 type  1   force =    -0.00008467    0.00003374   -0.00002380
     atom   38 type  1   force =     0.00015663   -0.00007388    0.00000246
     atom   39 type  2   force =    -0.00013907   -0.00020091    0.00038059
     atom   40 type  2   force =    -0.00014414    0.00009043    0.00005780
     atom   41 type  2   force =    -0.00017222    0.00002048    0.00049676
     atom   42 type  2   force =     0.00041091   -0.00007292   -0.00025297
     atom   43 type  1   force =     0.00034898    0.00030879   -0.00007717
     atom   44 type  1   force =     0.00028497   -0.00007474   -0.00011253
     atom   45 type  2   force =     0.00012283   -0.00011128    0.10392721
     atom   46 type  2   force =    -0.07025159   -0.00012654   -0.02682746
     atom   47 type  2   force =     0.07023717    0.00028031   -0.02689294
     atom   48 type  3   force =     0.00442502   -0.00069563    0.00315506
     atom   49 type  3   force =    -0.01727186   -0.00126444   -0.00066707
     atom   50 type  4   force =     0.00080043   -0.00057143    0.00011306
     atom   51 type  5   force =    -0.00092396    0.00028915    0.00030345
     atom   52 type  5   force =     0.00044944    0.00015348    0.00041213
     atom   53 type  5   force =    -0.00007065    0.00018219   -0.00047329
     atom   54 type  5   force =     0.00028578   -0.00026137   -0.00002946
     atom   55 type  5   force =     0.00531466   -0.00324416   -0.00355428
     atom   56 type  5   force =     0.00576407    0.00500553    0.00005881
     atom   57 type  2   force =    -0.00097400   -0.00047056    0.00081631
     atom   58 type  5   force =     0.00010147   -0.00031726   -0.00017860
     atom   59 type  5   force =     0.00111497    0.00052162   -0.00144826

     Total force =     0.366852     Total SCF correction =     0.000603
  @ DRIVER MODE: Message from server: STATUS
  @ DRIVER MODE: Message from server: GETFORCE
  @ DRIVER MODE: Returning v,forces,stress,ensemble

     Writing output data file ./calc.save/
  @ DRIVER MODE: Message from server: EXIT
  @ DRIVE MODE: Exiting

     General routines

     Parallel routines

   This run was terminated on:  18:37:56  15Sep2021

   JOB DONE.