     Program PWSCF v.6.7GPU starts on 18Oct2021 at 20:40: 6

     R & G space division:  proc/nbgrp/npool/nimage =       8
     Reading input from /storage/home/hcoda1/3/ntian30/research/carbon/CxH_vib/Thiel_calc/ads_slab/NH2NH2_perslab/out_0021/pw.inp
Warning: card &CELL ignored
Warning: card   CELL_DYNAMICS='IPI', ignored
Warning: card / ignored

     Current dimensions of program PWSCF are:
     Max number of different atomic species (ntypx) = 10
     Max number of k-points (npk) =  40000
     Max angular momentum in pseudopotentials (lmaxx) =  3
     Presently no symmetry can be used with electric field

     Message from routine cell_base_init:
     DEPRECATED: use true lattice parameter, not A to a.u. conversion factor

     IMPORTANT: XC functional enforced from input :
     Exchange-correlation= BEEF-VDW
                           (   1   4  43  14   2   0   0)
     Any further DFT definition will be discarded
     Please, verify this is what you really want

  @ DRIVER MODE: Connecting to
 qe_1139763_3255136.sched-torque.pace.gatech.eduj1vugxy8_scratch
  using UNIX socket
  @ DRIVER MODE: Message from server: STATUS
  @ DRIVER MODE: Message from server: INIT
  @ DRIVER MODE: Receiving replica           0          -1
  @ DRIVER MODE: Receiving encoded integer          25
  @ DRIVER MODE:  SCF:  T  FORCE:  T  STRESS:  F  VC:  F  ENSEMBLE:  F
  @ DRIVER MODE:  SCF:  T  FORCE:  T  STRESS:  F  VC:  F  ENSEMBLE:  F

     Using Slab Decomposition

     bravais-lattice index     =            0
     lattice parameter (alat)  =       1.8897  a.u.
     unit-cell volume          =    9988.4706 (a.u.)^3
     number of atoms/cell      =           59
     number of atomic types    =            4
     number of electrons       =       440.00
     number of Kohn-Sham states=          230
     kinetic-energy cutoff     =      29.3995  Ry
     charge density cutoff     =     293.9946  Ry
     scf convergence threshold =      7.3E-08
     mixing beta               =       0.0500
     number of iterations used =            8  plain     mixing
     Exchange-correlation= BEEF-VDW
                           (   1   4  43  14   2   0   0)

     celldm(1)=   1.889726  celldm(2)=   0.000000  celldm(3)=   0.000000
     celldm(4)=   0.000000  celldm(5)=   0.000000  celldm(6)=   0.000000

     crystal axes: (cart. coord. in units of alat)
               a(1) = (   6.579727   0.000000   0.000000 )
               a(2) = (  -0.001163   8.942395   0.000000 )
               a(3) = (   0.000000   0.000000  25.155947 )

     reciprocal axes: (cart. coord. in units 2 pi/alat)
               b(1) = (  0.151982  0.000020  0.000000 )
               b(2) = (  0.000000  0.111827  0.000000 )
               b(3) = (  0.000000  0.000000  0.039752 )

     PseudoPot. # 1 for O  read from file:
     /storage/coda1/p-amedford6/0/shared/rich_project_chbe-medford/medford-share/data/pseudos_module/espresso/nninc/pbe/van/O.UPF
     MD5 check sum: 78c19812648e8988a0fe644b0f25305e
     Pseudo is Ultrasoft, Zval =  6.0
     Generated by new atomic code, or converted to UPF format
     Using radial grid of  737 points,  4 beta functions with:
                l(1) =   0
                l(2) =   0
                l(3) =   1
                l(4) =   1
     Q(r) pseudized with  8 coefficients,  rinner =    0.800   0.800   0.800

     PseudoPot. # 2 for Ti read from file:
     /storage/coda1/p-amedford6/0/shared/rich_project_chbe-medford/medford-share/data/pseudos_module/espresso/nninc/pbe/van/Ti.UPF
     MD5 check sum: 8e4df49b7f0d34bbd5052bf3f5ea0213
     Pseudo is Ultrasoft, Zval = 12.0
     Generated by new atomic code, or converted to UPF format
     Using radial grid of  851 points,  6 beta functions with:
                l(1) =   0
                l(2) =   0
                l(3) =   1
                l(4) =   1
                l(5) =   2
                l(6) =   2
     Q(r) pseudized with  8 coefficients,  rinner =    1.000   1.000   1.000
                                                       1.000   1.000

     PseudoPot. # 3 for N  read from file:
     /storage/coda1/p-amedford6/0/shared/rich_project_chbe-medford/medford-share/data/pseudos_module/espresso/nninc/pbe/van/N.UPF
     MD5 check sum: 90d10febe142ad51ac9d5be1deb811c4
     Pseudo is Ultrasoft, Zval =  5.0
     Generated by new atomic code, or converted to UPF format
     Using radial grid of  729 points,  4 beta functions with:
                l(1) =   0
                l(2) =   0
                l(3) =   1
                l(4) =   1
     Q(r) pseudized with  8 coefficients,  rinner =    0.800   0.800   0.800

     PseudoPot. # 4 for H  read from file:
     /storage/coda1/p-amedford6/0/shared/rich_project_chbe-medford/medford-share/data/pseudos_module/espresso/nninc/pbe/van/H.UPF
     MD5 check sum: b5ee9d7bfd3a09ee7748110bda690ff7
     Pseudo is Ultrasoft, Zval =  1.0
     Generated by new atomic code, or converted to UPF format
     Using radial grid of  615 points,  1 beta functions with:
                l(1) =   0
     Q(r) pseudized with  8 coefficients,  rinner =    0.800

     atomic species   valence    mass     pseudopotential
        O1             6.00    15.99900     O ( 1.00)
        Ti1           12.00    47.86700     Ti( 1.00)
        N1             5.00    14.00700     N ( 1.00)
        H1             1.00     1.00800     H ( 1.00)

     No symmetry found

   Cartesian axes

     site n.     atom                  positions (alat units)
         1           O1  tau(   1) = (   0.0007354   0.0005023  10.5931620  )
         2           O1  tau(   2) = (   3.2892726   8.9022636  13.7900476  )
         3           O1  tau(   3) = (  -0.0000012   0.0159539  17.0845323  )
         4           O1  tau(   4) = (   0.0006271   0.0005054   7.9858123  )
         5           O1  tau(   5) = (   3.2903981   0.0001071  11.1466942  )
         6           O1  tau(   6) = (   6.5796972   0.0370899  14.4522764  )
         7           O1  tau(   7) = (   1.9868534   1.4903216   9.2879459  )
         8           O1  tau(   8) = (   5.2071659   1.5879261  12.5336177  )
         9           O1  tau(   9) = (   2.0150580   1.5800225  15.9505780  )
        10           Ti1 tau(  10) = (   0.0007404   1.4906270   9.2895810  )
        11           Ti1 tau(  11) = (   3.2907621   1.2831726  12.4565622  )
        12           Ti1 tau(  12) = (   6.5792216   1.1939559  15.8009323  )
        13           O1  tau(  13) = (   4.5942328   1.4918067   9.2879030  )
        14           O1  tau(  14) = (   1.3733293   1.5875306  12.5337771  )
        15           O1  tau(  15) = (   4.5635363   1.5794237  15.9511286  )
        16           Ti1 tau(  16) = (   3.2902859   2.9801868   9.2893338  )
        17           Ti1 tau(  17) = (   0.0006963   2.7899128  12.4910476  )
        18           Ti1 tau(  18) = (   3.2889055   2.8853182  15.6510148  )
        19           O1  tau(  19) = (   0.0003479   2.9813005  10.5931620  )
        20           O1  tau(  20) = (   3.2901137   2.9323735  13.8075185  )
        21           O1  tau(  21) = (   0.0002396   2.9813036   7.9858123  )
        22           O1  tau(  22) = (   3.2901566   2.9796509  11.1657827  )
        23           O1  tau(  23) = (  -0.0001005   3.0518452  14.6148139  )
        24           O1  tau(  24) = (   1.9864658   4.4711199   9.2879459  )
        25           O1  tau(  25) = (   5.2244327   4.5330399  12.5550231  )
        26           O1  tau(  26) = (   2.0317078   4.4891842  16.0144209  )
        27           Ti1 tau(  27) = (   0.0003529   4.4714252   9.2895810  )
        28           Ti1 tau(  28) = (   3.2908221   4.3047718  12.5439168  )
        29           Ti1 tau(  29) = (   0.0007318   4.2809743  15.9563396  )
        30           O1  tau(  30) = (   4.5938453   4.4726049   9.2879030  )
        31           O1  tau(  31) = (   1.3553747   4.5324408  12.5551093  )
        32           O1  tau(  32) = (   4.5484712   4.4888783  16.0159471  )
        33           Ti1 tau(  33) = (   3.2898983   5.9609850   9.2893338  )
        34           Ti1 tau(  34) = (   0.0004637   5.7541984  12.5654138  )
        35           Ti1 tau(  35) = (   3.2913524   5.8154114  16.2798070  )
        36           O1  tau(  36) = (  -0.0000397   5.9620987  10.5931620  )
        37           O1  tau(  37) = (   3.2897947   5.8994426  13.7907643  )
        38           O1  tau(  38) = (   0.0001798   5.9238570  17.1594641  )
        39           O1  tau(  39) = (  -0.0001480   5.9621018   7.9858123  )
        40           O1  tau(  40) = (   3.2896433   5.9245955  11.1661191  )
        41           O1  tau(  41) = (   0.0000838   5.9808129  14.5563373  )
        42           O1  tau(  42) = (   1.9860782   7.4519181   9.2879459  )
        43           O1  tau(  43) = (   5.2244350   7.5051086  12.5363475  )
        44           O1  tau(  44) = (   2.0177701   7.5673364  15.9764862  )
        45           Ti1 tau(  45) = (  -0.0000347   7.4522234   9.2895810  )
        46           Ti1 tau(  46) = (   3.2896674   7.1828241  12.5854878  )
        47           Ti1 tau(  47) = (   0.0003403   7.2137487  16.0183084  )
        48           O1  tau(  48) = (   4.5934577   7.4534031   9.2879030  )
        49           O1  tau(  49) = (   1.3543201   7.5047529  12.5365769  )
        50           O1  tau(  50) = (   4.5609347   7.5656990  15.9757490  )
        51           Ti1 tau(  51) = (   3.2895107   8.9417832   9.2893338  )
        52           Ti1 tau(  52) = (  -0.0005834   8.7067995  12.4790564  )
        53           Ti1 tau(  53) = (   3.2900135   8.8028796  15.6464995  )
        54           N1  tau(  54) = (   3.2900669   5.9334594  18.1702238  )
        55           H1  tau(  55) = (   3.2900466   5.1481598  18.8081281  )
        56           H1  tau(  56) = (   3.2872703   6.8047138  18.6863891  )
        57           N1  tau(  57) = (   0.0002662   3.1305291  17.5522950  )
        58           H1  tau(  58) = (   0.0007553   2.2326612  18.0099153  )
        59           H1  tau(  59) = (   6.5771877   3.8386968  18.2941669  )

     number of k points=    10  Fermi-Dirac smearing, width (Ry)=  0.0073
                       cart. coord. in units 2pi/alat
        k(    1) = (   0.0000000   0.0000000   0.0000000), wk =   0.1250000
        k(    2) = (   0.0000000   0.0279567   0.0000000), wk =   0.2500000
        k(    3) = (   0.0000000  -0.0559134   0.0000000), wk =   0.1250000
        k(    4) = (   0.0379955   0.0000049   0.0000000), wk =   0.2500000
        k(    5) = (   0.0379955   0.0279617   0.0000000), wk =   0.2500000
        k(    6) = (   0.0379955  -0.0559085   0.0000000), wk =   0.2500000
        k(    7) = (   0.0379955  -0.0279518   0.0000000), wk =   0.2500000
        k(    8) = (  -0.0759910  -0.0000099   0.0000000), wk =   0.1250000
        k(    9) = (  -0.0759910   0.0279468   0.0000000), wk =   0.2500000
        k(   10) = (  -0.0759910  -0.0559233   0.0000000), wk =   0.1250000

     Initial potential from superposition of free atoms

     starting charge  421.99910, renormalised to  440.00000

     negative rho (up, down):  3.740E-02 0.000E+00

     %%%%%%%%%%%%%%%%%%%%%%%%%%%%%%%%%%%%%%%%%%%%%%%%%%%%%%%%%%%%%%%%%%%%%%%%
     %                                                                      %
     % You are using vdW-DF, which was implemented by the Thonhauser group. %
     % Please cite the following two papers that made this development      %
     % possible and the two reviews that describe the various versions:     %
     %                                                                      %
     %   T. Thonhauser et al., PRL 115, 136402 (2015).                      %
     %   T. Thonhauser et al., PRB 76, 125112 (2007).                       %
     %   K. Berland et al., Rep. Prog. Phys. 78, 066501 (2015).             %
     %   D.C. Langreth et al., J. Phys.: Condens. Matter 21, 084203 (2009). %
     %                                                                      %
     %                                                                      %
     % If you are calculating the stress with vdW-DF, please also cite:     %
     %                                                                      %
     %   R. Sabatini et al., J. Phys.: Condens. Matter 24, 424209 (2012).   %
     %                                                                      %
     %%%%%%%%%%%%%%%%%%%%%%%%%%%%%%%%%%%%%%%%%%%%%%%%%%%%%%%%%%%%%%%%%%%%%%%%

     Adding external electric field

     Computed dipole along edir(3) :
        Dipole               -3.9767 Ry au,        -10.1078 Debye
        Dipole field         -0.0050 Ry au,

        Potential amp.        0.4638 Ry
        Total length         46.3494 bohr

     Starting wfcs are  332 atomic wfcs
  @ DRIVER MODE: Message from server: STATUS
  @ DRIVER MODE: Message from server: POSDATA
  @ DRIVER MODE: Reading and sharing cell
  @ DRIVER MODE: Reading and sharing positions
  @ DRIVER MODE: Received positions

     Self-consistent Calculation

     iteration #  1     ecut=    29.40 Ry     beta= 0.05
     Davidson diagonalization with overlap
     c_bands:  1 eigenvalues not converged
     c_bands:  2 eigenvalues not converged
     c_bands:  3 eigenvalues not converged
     c_bands:  3 eigenvalues not converged
     c_bands:  1 eigenvalues not converged
     c_bands:  3 eigenvalues not converged
     c_bands:  4 eigenvalues not converged
     c_bands:  3 eigenvalues not converged
     c_bands:  3 eigenvalues not converged
     ethr =  1.00E-05,  avg # of iterations = 19.2

[...]

     total energy              =   -3293.78585942 Ry
     estimated scf accuracy    <      28.28608138 Ry

     iteration #  2     ecut=    29.40 Ry     beta= 0.05
     Davidson diagonalization with overlap
     ethr =  6.43E-03,  avg # of iterations =  1.1

[...]

     iteration # 30     ecut=    29.40 Ry     beta= 0.05
     Davidson diagonalization with overlap
     c_bands:  1 eigenvalues not converged
     ethr =  1.88E-08,  avg # of iterations =  7.6

[...]

     total energy              =   -3293.29536094 Ry
     estimated scf accuracy    <       0.00000011 Ry

     iteration # 49     ecut=    29.40 Ry     beta= 0.05
     Davidson diagonalization with overlap
     ethr =  2.45E-11,  avg # of iterations =  5.0

     negative rho (up, down):  3.612E-02 0.000E+00

     Adding external electric field

     Computed dipole along edir(3) :
        Dipole                0.9479 Ry au,          2.4092 Debye
        Dipole field          0.0012 Ry au,

        Potential amp.       -0.1105 Ry
        Total length         46.3494 bohr

     End of self-consistent calculation

          k = 0.0000 0.0000 0.0000 ( 26871 PWs)   bands (ev):

   -58.4710 -58.4475 -58.4415 -58.4036 -58.3591 -58.0051 -57.9667 -57.9639
   -57.8801 -57.7611 -57.6867 -57.5754 -57.4877 -57.2205 -57.1454 -57.0737
   -57.0335 -57.0206 -34.8715 -34.8362 -34.8090 -34.7926 -34.7892 -34.7828
   -34.7341 -34.6734 -34.6465 -34.5959 -34.5831 -34.5806 -34.5748 -34.5532
   -34.5079 -34.4070 -34.3712 -34.3461 -34.3235 -34.3189 -34.2743 -34.2413
   -34.2285 -34.2253 -34.1902 -34.1868 -34.1549 -34.0578 -34.0471 -33.9879
   -33.9839 -33.9566 -33.9000 -33.8842 -33.8728 -33.8083 -33.7437 -33.7239
   -33.6952 -33.6835 -33.5803 -33.4639 -33.4453 -33.4180 -33.4177 -33.3814
   -33.3756 -33.3712 -33.3570 -33.3459 -33.2776 -33.2130 -33.1919 -33.0719
   -19.0230 -18.5599 -18.5009 -18.3518 -18.3026 -18.2823 -18.2764 -18.1256
   -17.9088 -17.8635 -17.8492 -17.8279 -17.7453 -17.7250 -17.7092 -17.6866
   -17.6721 -17.6512 -17.5628 -17.5559 -17.5358 -17.5118 -17.4917 -17.4363
   -17.3775 -17.3558 -17.2680 -17.1925 -17.1530 -16.9315 -16.6754 -16.5908
   -15.5395 -15.4983 -15.4900 -15.2764 -15.1480  -6.7581  -6.5955  -6.3579
    -6.1637  -5.9516  -5.8164  -5.6975  -5.6443  -5.5632  -5.4972  -5.4593
    -5.4573  -5.3969  -5.3501  -5.2559  -5.2498  -5.1577  -5.1082  -5.0922
    -5.0626  -5.0144  -4.9676  -4.9223  -4.9067  -4.8457  -4.8019  -4.7915
    -4.7416  -4.6805  -4.6763  -4.6563  -4.6533  -4.6199  -4.5860  -4.4642
    -4.4616  -4.4174  -4.3529  -4.3016  -4.2649  -4.2241  -4.1904  -4.1900
    -4.1737  -4.1280  -4.0945  -3.9191  -3.8683  -3.8312  -3.7989  -3.7161
    -3.6527  -3.5955  -3.5606  -3.5154  -3.4289  -3.3595  -3.3532  -3.3419
    -3.2774  -3.2341  -3.1963  -3.1645  -3.1469  -3.0833  -3.0312  -3.0307
    -2.9873  -2.9728  -2.9587  -2.9123  -2.8585  -2.8348  -2.8330  -2.7933
    -2.7862  -2.7436  -2.6476  -2.6170  -2.5563  -2.5179  -2.4636  -2.4154
    -2.4099  -2.3744  -2.3374  -2.2691  -2.1769  -2.1269  -1.9952  -1.9897
    -1.9135  -1.9030  -1.8374  -1.8118  -1.7919  -1.7440  -1.7175  -1.6046
    -1.5288  -1.4075  -1.1956  -0.9913  -0.8396  -0.7662  -0.7517  -0.7077
    -0.5687  -0.5497  -0.4609  -0.4523   0.8050   0.9406   1.1003   1.1182
     1.3182   1.4469   1.4651   1.5072   1.5643   1.6975

[...]

          k = 0.0380-0.0280 0.0000 ( 26873 PWs)   bands (ev):

[...]

          k =-0.0760-0.0000 0.0000 ( 26902 PWs)   bands (ev):

[...]

          k =-0.0760-0.0559 0.0000 ( 26868 PWs)   bands (ev):

   -58.4651 -58.4590 -58.4358 -58.4034 -58.3592 -58.0050 -57.9668 -57.9638
   -57.8800 -57.7613 -57.6865 -57.5754 -57.4877 -57.2206 -57.1453 -57.0724
   -57.0375 -57.0178 -34.8996 -34.8840 -34.8398 -34.8114 -34.7800 -34.6894
   -34.6728 -34.6246 -34.6181 -34.6059 -34.6036 -34.5924 -34.5777 -34.5566
   -34.5550 -34.4354 -34.3792 -34.3602 -34.3451 -34.3249 -34.2570 -34.2227
   -34.2192 -34.1888 -34.1812 -34.1651 -34.1190 -34.0661 -34.0578 -34.0313
   -33.9914 -33.9772 -33.9087 -33.8993 -33.8785 -33.7925 -33.7436 -33.7106
   -33.6950 -33.6611 -33.5692 -33.4834 -33.4529 -33.4483 -33.4197 -33.4185
   -33.3866 -33.3680 -33.3675 -33.2694 -33.2345 -33.1837 -33.1818 -33.1529
   -18.8097 -18.6613 -18.4159 -18.3172 -18.1543 -18.1067 -18.0539 -18.0438
   -18.0377 -17.9417 -17.9247 -17.8812 -17.8723 -17.8237 -17.7990 -17.7872
   -17.7806 -17.7486 -17.6810 -17.6257 -17.5404 -17.4475 -17.4349 -17.4194
   -17.4126 -17.3334 -17.2337 -17.1902 -17.1533 -16.9540 -16.6846 -16.5536
   -15.5513 -15.5383 -15.4287 -15.2715 -15.1488  -6.7544  -6.6066  -6.1217
    -5.9267  -5.8951  -5.8541  -5.5365  -5.4937  -5.3891  -5.3599  -5.3564
    -5.3292  -5.2853  -5.2470  -5.1914  -5.1563  -5.1377  -5.1299  -5.1114
    -5.0851  -5.0382  -5.0137  -4.9698  -4.9647  -4.9497  -4.9197  -4.8964
    -4.8472  -4.8385  -4.7664  -4.7572  -4.7237  -4.5286  -4.4756  -4.4123
    -4.3635  -4.2973  -4.2443  -4.1903  -4.1901  -4.1053  -4.1038  -4.0381
    -3.9797  -3.8921  -3.8122  -3.8045  -3.7814  -3.7535  -3.7207  -3.6878
    -3.6651  -3.6446  -3.6050  -3.5573  -3.5195  -3.4458  -3.4128  -3.4065
    -3.3661  -3.3470  -3.3357  -3.3316  -3.3152  -3.2099  -3.2041  -3.1439
    -3.1104  -3.1030  -3.0351  -3.0282  -2.9760  -2.9514  -2.8822  -2.8422
    -2.8352  -2.7464  -2.7388  -2.7338  -2.6545  -2.6448  -2.5442  -2.5105
    -2.4275  -2.3019  -2.1815  -2.1790  -2.1692  -2.0496  -2.0465  -2.0360
    -1.9907  -1.9290  -1.9032  -1.7216  -1.7182  -1.6724  -1.6012  -1.5801
    -1.5563  -1.5415  -1.4260  -1.4035  -0.9988  -0.7070  -0.6829  -0.6786
    -0.6460  -0.6164  -0.5830  -0.5741   0.8566   1.0173   1.0949   1.1605
     1.1862   1.2299   1.2616   1.4363   1.4987   1.5052

     the Fermi energy is     0.2179 ev

!    total energy              =   -3293.29547789 Ry
     estimated scf accuracy    <       0.00000003 Ry
     smearing contrib. (-TS)   =      -0.00052847 Ry
     internal energy E=F+TS    =   -3293.29494942 Ry

     The total energy is F=E-TS. E is the sum of the following terms:
     one-electron contribution =  -34586.10032912 Ry
     hartree contribution      =   17354.86347042 Ry
     xc contribution           =    -542.07555413 Ry
     ewald contribution        =   14480.01633310 Ry
     electric field correction =       0.00113031 Ry

     convergence has been achieved in  49 iterations

     Forces acting on atoms (cartesian axes, Ry/au):

     atom    1 type  1   force =    -0.00000709    0.00891395    0.04217048
     atom    2 type  1   force =     0.00002345   -0.00250304   -0.00302846
     atom    3 type  1   force =    -0.00003298   -0.00663859   -0.00133425
     atom    4 type  1   force =     0.00004716    0.00394777    0.10167893
     atom    5 type  1   force =     0.00002069   -0.00060606    0.00717602
     atom    6 type  1   force =    -0.00002314    0.00064464    0.00251545
     atom    7 type  1   force =     0.07636333    0.00119588   -0.03510198
     atom    8 type  1   force =     0.00754641   -0.02411306    0.00123419
     atom    9 type  1   force =     0.00820840   -0.02078083    0.00155936
     atom   10 type  2   force =    -0.00003313   -0.00385319   -0.16972413
     atom   11 type  2   force =    -0.00011467    0.02223459   -0.00318052
     atom   12 type  2   force =    -0.00000061    0.02083127   -0.00492312
     atom   13 type  1   force =    -0.07645629    0.00074242   -0.03505096
     atom   14 type  1   force =    -0.00762634   -0.02398840    0.00122910
     atom   15 type  1   force =    -0.00815424   -0.02086575    0.00156735
     atom   16 type  2   force =     0.00009760    0.00206370    0.07521195
     atom   17 type  2   force =     0.00020632    0.02907717    0.00186012
     atom   18 type  2   force =    -0.00009384    0.02354668    0.00026048
     atom   19 type  1   force =     0.00000450    0.00223015    0.05609483
     atom   20 type  1   force =     0.00000379   -0.00070370   -0.00276887
     atom   21 type  1   force =     0.00004770   -0.00273414    0.10231058
     atom   22 type  1   force =     0.00000921   -0.00165495    0.00633525
     atom   23 type  1   force =    -0.00001781   -0.00349451    0.00160425
     atom   24 type  1   force =     0.07835395   -0.00056125   -0.03677755
     atom   25 type  1   force =     0.00982118   -0.02946449   -0.00095645
     atom   26 type  1   force =     0.01062441   -0.02688465   -0.00643432
     atom   27 type  2   force =    -0.00005795    0.01457138   -0.15614841
     atom   28 type  2   force =    -0.00013545    0.02620110   -0.00047216
     atom   29 type  2   force =     0.00003607    0.02123508    0.00476684
     atom   30 type  1   force =    -0.07844890   -0.00098922   -0.03672655
     atom   31 type  1   force =    -0.00988261   -0.02932053   -0.00095821
     atom   32 type  1   force =    -0.01049731   -0.02694971   -0.00648468
     atom   33 type  2   force =     0.00009816   -0.00383476    0.07802552
     atom   34 type  2   force =     0.00019765    0.03433920    0.00308971
     atom   35 type  2   force =    -0.00012263    0.03181443    0.00686729
     atom   36 type  1   force =     0.00002017    0.00148155    0.05148517
     atom   37 type  1   force =     0.00002270   -0.00168003   -0.00235139
     atom   38 type  1   force =    -0.00002020   -0.00401402    0.00013673
     atom   39 type  1   force =     0.00004960    0.00037072    0.09992978
     atom   40 type  1   force =     0.00001716   -0.00069116    0.00653455
     atom   41 type  1   force =    -0.00002524   -0.00128367    0.00443276
     atom   42 type  1   force =     0.07943451    0.00172124   -0.03466708
     atom   43 type  1   force =     0.00605503   -0.02329034    0.00044649
     atom   44 type  1   force =     0.00707052   -0.02160332    0.00389406
     atom   45 type  2   force =    -0.00005754   -0.01581407   -0.15541779
     atom   46 type  2   force =    -0.00010446    0.01699997    0.00084461
     atom   47 type  2   force =     0.00002657    0.02105316   -0.00086099
     atom   48 type  1   force =    -0.07952670    0.00128154   -0.03461466
     atom   49 type  1   force =    -0.00616926   -0.02317593    0.00043637
     atom   50 type  1   force =    -0.00693411   -0.02163082    0.00389221
     atom   51 type  2   force =     0.00008399   -0.00447752    0.06172930
     atom   52 type  2   force =     0.00019681    0.02908990    0.00075822
     atom   53 type  2   force =    -0.00014349    0.02964058    0.00016443
     atom   54 type  3   force =     0.00001163    0.00160581   -0.00128826
     atom   55 type  4   force =     0.00002898   -0.00046779    0.00024788
     atom   56 type  4   force =    -0.00005413   -0.00006976   -0.00008841
     atom   57 type  3   force =    -0.00003593    0.02180994   -0.00028800
     atom   58 type  4   force =     0.00006652   -0.01101439    0.00629096
     atom   59 type  4   force =    -0.00001814   -0.00949018   -0.00713402

     Total force =     0.439927     Total SCF correction =     0.000560
  @ DRIVER MODE: Message from server: STATUS
  @ DRIVER MODE: Message from server: GETFORCE
  @ DRIVER MODE: Returning v,forces,stress,ensemble

     Writing output data file ./calc.save/
  @ DRIVER MODE: Message from server: EXIT
  @ DRIVE MODE: Exiting

     General routines

     Parallel routines

   This run was terminated on:  21: 5: 1  18Oct2021

   JOB DONE.