     Program PWSCF v.6.7GPU starts on 25Sep2021 at 19:55:48

     R & G space division:  proc/nbgrp/npool/nimage =       8
     Reading input from /storage/home/hcoda1/3/ntian30/research/carbon/CxH_vib/H2O_calc/ads_slab/CH3OHN2HO_a/out_0010/pw.inp
Warning: card &CELL ignored
Warning: card   CELL_DYNAMICS='IPI', ignored
Warning: card / ignored

     Current dimensions of program PWSCF are:
     Max number of different atomic species (ntypx) = 10
     Max number of k-points (npk) =  40000
     Max angular momentum in pseudopotentials (lmaxx) =  3
     Presently no symmetry can be used with electric field

     Message from routine cell_base_init:
     DEPRECATED: use true lattice parameter, not A to a.u. conversion factor

     IMPORTANT: XC functional enforced from input :
     Exchange-correlation= BEEF-VDW
                           (   1   4  43  14   2   0   0)
     Any further DFT definition will be discarded
     Please, verify this is what you really want

  @ DRIVER MODE: Connecting to
 qe_1139763_2971668.sched-torque.pace.gatech.edup00e7vwj_scratch
  using UNIX socket
  @ DRIVER MODE: Message from server: STATUS
  @ DRIVER MODE: Message from server: INIT
  @ DRIVER MODE: Receiving replica           0          -1
  @ DRIVER MODE: Receiving encoded integer          25
  @ DRIVER MODE:  SCF:  T  FORCE:  T  STRESS:  F  VC:  F  ENSEMBLE:  F
  @ DRIVER MODE:  SCF:  T  FORCE:  T  STRESS:  F  VC:  F  ENSEMBLE:  F

     Using Slab Decomposition

     bravais-lattice index     =            0
     lattice parameter (alat)  =       1.8897  a.u.
     unit-cell volume          =    6658.9804 (a.u.)^3
     number of atoms/cell      =           57
     number of atomic types    =            5
     number of electrons       =       409.00
     number of Kohn-Sham states=          214
     kinetic-energy cutoff     =      29.3995  Ry
     charge density cutoff     =     293.9946  Ry
     scf convergence threshold =      7.3E-08
     mixing beta               =       0.0500
     number of iterations used =            8  plain     mixing
     Exchange-correlation= BEEF-VDW
                           (   1   4  43  14   2   0   0)

     celldm(1)=   1.889726  celldm(2)=   0.000000  celldm(3)=   0.000000
     celldm(4)=   0.000000  celldm(5)=   0.000000  celldm(6)=   0.000000

     crystal axes: (cart. coord. in units of alat)
               a(1) = (   6.579727   0.000000   0.000000 )
               a(2) = (  -0.000775   5.961596   0.000000 )
               a(3) = (   0.000000   0.000000  25.155947 )

     reciprocal axes: (cart. coord. in units 2 pi/alat)
               b(1) = (  0.151982  0.000020  0.000000 )
               b(2) = (  0.000000  0.167740  0.000000 )
               b(3) = (  0.000000  0.000000  0.039752 )

     PseudoPot. # 1 for Ti read from file:
     /storage/coda1/p-amedford6/0/shared/rich_project_chbe-medford/medford-share/data/pseudos_module/espresso/nninc/pbe/van/Ti.UPF
     MD5 check sum: 8e4df49b7f0d34bbd5052bf3f5ea0213
     Pseudo is Ultrasoft, Zval = 12.0
     Generated by new atomic code, or converted to UPF format
     Using radial grid of  851 points,  6 beta functions with:
                l(1) =   0
                l(2) =   0
                l(3) =   1
                l(4) =   1
                l(5) =   2
                l(6) =   2
     Q(r) pseudized with  8 coefficients,  rinner =    1.000   1.000   1.000
                                                       1.000   1.000

     PseudoPot. # 2 for O  read from file:
     /storage/coda1/p-amedford6/0/shared/rich_project_chbe-medford/medford-share/data/pseudos_module/espresso/nninc/pbe/van/O.UPF
     MD5 check sum: 78c19812648e8988a0fe644b0f25305e
     Pseudo is Ultrasoft, Zval =  6.0
     Generated by new atomic code, or converted to UPF format
     Using radial grid of  737 points,  4 beta functions with:
                l(1) =   0
                l(2) =   0
                l(3) =   1
                l(4) =   1
     Q(r) pseudized with  8 coefficients,  rinner =    0.800   0.800   0.800

     PseudoPot. # 3 for C  read from file:
     /storage/coda1/p-amedford6/0/shared/rich_project_chbe-medford/medford-share/data/pseudos_module/espresso/nninc/pbe/van/C.UPF
     MD5 check sum: 1a69bf6b8db32088f5b2163dbdb77a27
     Pseudo is Ultrasoft, Zval =  4.0
     Generated by new atomic code, or converted to UPF format
     Using radial grid of  721 points,  4 beta functions with:
                l(1) =   0
                l(2) =   0
                l(3) =   1
                l(4) =   1
     Q(r) pseudized with  8 coefficients,  rinner =    0.800   0.800   0.800

     PseudoPot. # 4 for H  read from file:
     /storage/coda1/p-amedford6/0/shared/rich_project_chbe-medford/medford-share/data/pseudos_module/espresso/nninc/pbe/van/H.UPF
     MD5 check sum: b5ee9d7bfd3a09ee7748110bda690ff7
     Pseudo is Ultrasoft, Zval =  1.0
     Generated by new atomic code, or converted to UPF format
     Using radial grid of  615 points,  1 beta functions with:
                l(1) =   0
     Q(r) pseudized with  8 coefficients,  rinner =    0.800

     PseudoPot. # 5 for N  read from file:
     /storage/coda1/p-amedford6/0/shared/rich_project_chbe-medford/medford-share/data/pseudos_module/espresso/nninc/pbe/van/N.UPF
     MD5 check sum: 90d10febe142ad51ac9d5be1deb811c4
     Pseudo is Ultrasoft, Zval =  5.0
     Generated by new atomic code, or converted to UPF format
     Using radial grid of  729 points,  4 beta functions with:
                l(1) =   0
                l(2) =   0
                l(3) =   1
                l(4) =   1
     Q(r) pseudized with  8 coefficients,  rinner =    0.800   0.800   0.800

     atomic species   valence    mass     pseudopotential
        Ti1           12.00    47.86700     Ti( 1.00)
        O1             6.00    15.99900     O ( 1.00)
        C1             4.00    12.01100     C ( 1.00)
        H1             1.00     1.00800     H ( 1.00)
        N1             5.00    14.00700     N ( 1.00)

     No symmetry found

   Cartesian axes

     site n.     atom                  positions (alat units)
         1           Ti1 tau(   1) = (   0.0004258   2.9801865   6.0000000  )
         2           Ti1 tau(   2) = (   3.2906075   1.4906267   6.0002472  )
         3           O1  tau(   3) = (   0.0006271   0.0005054   7.9858123  )
         4           O1  tau(   4) = (   3.2906025   0.0005020   7.3038282  )
         5           O1  tau(   5) = (   4.5942328   1.4918067   9.2879030  )
         6           O1  tau(   6) = (   1.9868534   1.4903216   9.2879459  )
         7           Ti1 tau(   7) = (   3.3371032   3.0268772   9.1887580  )
         8           Ti1 tau(   8) = (   0.0611061   1.5258697   9.2809523  )
         9           O1  tau(   9) = (   3.3143856   0.0188946  11.3581724  )
        10           O1  tau(  10) = (   0.0164151   0.0031400  10.5895864  )
        11           O1  tau(  11) = (   1.3088961   1.4994640  12.6347600  )
        12           O1  tau(  12) = (   5.3347766   1.4946156  12.6347356  )
        13           Ti1 tau(  13) = (   0.0202478   3.0292801  12.5720800  )
        14           Ti1 tau(  14) = (   3.3188568   1.5851219  12.4260843  )
        15           O1  tau(  15) = (   0.0445434   5.9450813  14.6510506  )
        16           O1  tau(  16) = (   3.3207065   5.8849141  14.0104376  )
        17           O1  tau(  17) = (   4.6249962   1.5116716  16.1313945  )
        18           O1  tau(  18) = (   2.0639035   1.5439872  16.0680944  )
        19           Ti1 tau(  19) = (   3.3360141   2.9454253  15.6763505  )
        20           Ti1 tau(  20) = (   0.0686920   1.3314864  15.9334539  )
        21           O1  tau(  21) = (   3.2904802   0.0005063   4.7018136  )
        22           O1  tau(  22) = (   0.0979609   0.0039778  17.1657837  )
        23           O1  tau(  23) = (   1.3043587   1.4918075   6.0039043  )
        24           O1  tau(  24) = (   5.2767064   1.4903225   6.0039473  )
        25           Ti1 tau(  25) = (   0.0000382   5.9609847   6.0000000  )
        26           Ti1 tau(  26) = (   3.2902200   4.4714249   6.0002472  )
        27           O1  tau(  27) = (   0.0002396   2.9813036   7.9858123  )
        28           O1  tau(  28) = (   3.2902150   2.9813002   7.3038282  )
        29           O1  tau(  29) = (   4.5938453   4.4726049   9.2879030  )
        30           O1  tau(  30) = (   1.9864658   4.4711199   9.2879459  )
        31           Ti1 tau(  31) = (   3.3368545   0.0404040   9.1664313  )
        32           Ti1 tau(  32) = (   0.0604674   4.4799263   9.2696248  )
        33           O1  tau(  33) = (   3.3137611   2.9662427  11.3084074  )
        34           O1  tau(  34) = (   0.0134136   2.9850836  10.6046154  )
        35           O1  tau(  35) = (   1.3054726   4.4719986  12.6384794  )
        36           O1  tau(  36) = (   5.3362180   4.4781181  12.6390536  )
        37           Ti1 tau(  37) = (   0.0365240   0.0487139  12.4702884  )
        38           Ti1 tau(  38) = (   3.3180881   4.6653017  12.7087268  )
        39           O1  tau(  39) = (   0.0228105   2.9918545  14.7761892  )
        40           O1  tau(  40) = (   3.3431522   2.9700269  13.9040455  )
        41           O1  tau(  41) = (   4.6265974   4.4152401  16.1544535  )
        42           O1  tau(  42) = (   2.0571238   4.3592187  16.1146037  )
        43           Ti1 tau(  43) = (   3.3848590   5.9294639  16.2700006  )
        44           Ti1 tau(  44) = (   0.0517009   4.5268197  15.8466567  )
        45           O1  tau(  45) = (   3.2900926   2.9813045   4.7018136  )
        46           O1  tau(  46) = (   1.3039711   4.4726057   6.0039043  )
        47           O1  tau(  47) = (   5.2763189   4.4711207   6.0039473  )
        48           C1  tau(  48) = (   5.9450987   3.0517216  18.8599509  )
        49           O1  tau(  49) = (   0.1802289   3.0184098  17.6484507  )
        50           H1  tau(  50) = (   4.9625852   2.6832861  18.5889656  )
        51           H1  tau(  51) = (   1.1163247   3.1442434  17.8758057  )
        52           H1  tau(  52) = (   6.3899442   2.3914015  19.6026461  )
        53           H1  tau(  53) = (   5.8846647   4.0795385  19.2151274  )
        54           N1  tau(  54) = (   5.7598779   3.1323611  22.9045362  )
        55           N1  tau(  55) = (   4.9845974   3.1850264  22.1203839  )
        56           O1  tau(  56) = (   3.1467188   0.0118795  18.1166202  )
        57           H1  tau(  57) = (   2.2164505   0.0865285  18.3868412  )

     number of k points=    10  Fermi-Dirac smearing, width (Ry)=  0.0073
                       cart. coord. in units 2pi/alat
        k(    1) = (   0.0000000   0.0000000   0.0000000), wk =   0.1250000
        k(    2) = (   0.0000000   0.0419351   0.0000000), wk =   0.2500000
        k(    3) = (   0.0000000  -0.0838702   0.0000000), wk =   0.1250000
        k(    4) = (   0.0379955   0.0000049   0.0000000), wk =   0.2500000
        k(    5) = (   0.0379955   0.0419400   0.0000000), wk =   0.2500000
        k(    6) = (   0.0379955  -0.0838652   0.0000000), wk =   0.2500000
        k(    7) = (   0.0379955  -0.0419301   0.0000000), wk =   0.2500000
        k(    8) = (  -0.0759910  -0.0000099   0.0000000), wk =   0.1250000
        k(    9) = (  -0.0759910   0.0419252   0.0000000), wk =   0.2500000
        k(   10) = (  -0.0759910  -0.0838800   0.0000000), wk =   0.1250000

     Initial potential from superposition of free atoms

     starting charge  392.99914, renormalised to  409.00000

     negative rho (up, down):  9.140E-03 0.000E+00

     %%%%%%%%%%%%%%%%%%%%%%%%%%%%%%%%%%%%%%%%%%%%%%%%%%%%%%%%%%%%%%%%%%%%%%%%
     %                                                                      %
     % You are using vdW-DF, which was implemented by the Thonhauser group. %
     % Please cite the following two papers that made this development      %
     % possible and the two reviews that describe the various versions:     %
     %                                                                      %
     %   T. Thonhauser et al., PRL 115, 136402 (2015).                      %
     %   T. Thonhauser et al., PRB 76, 125112 (2007).                       %
     %   K. Berland et al., Rep. Prog. Phys. 78, 066501 (2015).             %
     %   D.C. Langreth et al., J. Phys.: Condens. Matter 21, 084203 (2009). %
     %                                                                      %
     %                                                                      %
     % If you are calculating the stress with vdW-DF, please also cite:     %
     %                                                                      %
     %   R. Sabatini et al., J. Phys.: Condens. Matter 24, 424209 (2012).   %
     %                                                                      %
     %%%%%%%%%%%%%%%%%%%%%%%%%%%%%%%%%%%%%%%%%%%%%%%%%%%%%%%%%%%%%%%%%%%%%%%%

     Adding external electric field

     Computed dipole along edir(3) :
        Dipole              -18.8687 Ry au,        -47.9594 Debye
        Dipole field         -0.0356 Ry au,

        Potential amp.        3.3008 Ry
        Total length         46.3494 bohr

     Starting wfcs are  309 atomic wfcs
  @ DRIVER MODE: Message from server: STATUS
  @ DRIVER MODE: Message from server: POSDATA
  @ DRIVER MODE: Reading and sharing cell
  @ DRIVER MODE: Reading and sharing positions
  @ DRIVER MODE: Received positions

     Self-consistent Calculation

     iteration #  1     ecut=    29.40 Ry     beta= 0.05
     Davidson diagonalization with overlap
     c_bands:  5 eigenvalues not converged
     c_bands:  5 eigenvalues not converged
     c_bands:  1 eigenvalues not converged
     c_bands:  4 eigenvalues not converged
     c_bands:  1 eigenvalues not converged
     c_bands:  3 eigenvalues not converged
     ethr =  1.00E-05,  avg # of iterations = 27.3

[...]

     total energy              =   -2113.19020135 Ry
     estimated scf accuracy    <   10331.05293673 Ry

     iteration #  2     ecut=    29.40 Ry     beta= 0.05
     Davidson diagonalization with overlap
     ethr =  1.00E-02,  avg # of iterations = 29.9

[...]

     iteration # 62     ecut=    29.40 Ry     beta= 0.05
     Davidson diagonalization with overlap
     c_bands:  1 eigenvalues not converged
     ethr =  1.67E-09,  avg # of iterations = 13.3

[...]

     total energy              =   -3006.45826717 Ry
     estimated scf accuracy    <       0.00000011 Ry

     iteration # 70     ecut=    29.40 Ry     beta= 0.05
     Davidson diagonalization with overlap
     ethr =  2.60E-11,  avg # of iterations = 10.1

     negative rho (up, down):  1.064E-02 0.000E+00

     Adding external electric field

     Computed dipole along edir(3) :
        Dipole                1.0507 Ry au,          2.6705 Debye
        Dipole field          0.0020 Ry au,

        Potential amp.       -0.1838 Ry
        Total length         46.3494 bohr

     End of self-consistent calculation

          k = 0.0000 0.0000 0.0000 ( 18029 PWs)   bands (ev):

   -55.3284 -55.2528 -55.2175 -55.1435 -55.1212 -55.0868 -55.0506 -55.0462
   -55.0443 -55.0250 -55.0151 -54.9851 -54.8983 -54.8221 -54.2124 -54.1784
   -31.7308 -31.7221 -31.6345 -31.6230 -31.5818 -31.5684 -31.5437 -31.5419
   -31.5070 -31.4956 -31.4843 -31.4193 -31.4065 -31.4062 -31.3797 -31.3613
   -31.3529 -31.3358 -31.3351 -31.3232 -31.3164 -31.3116 -31.2657 -31.2635
   -31.2615 -31.2549 -31.2519 -31.2390 -31.2328 -31.2140 -31.2072 -31.1967
   -31.1950 -31.1750 -31.1704 -31.1626 -31.1613 -31.1272 -31.0871 -31.0675
   -31.0364 -31.0260 -30.6185 -30.5322 -30.5097 -30.4355 -30.3492 -30.2376
   -21.5077 -19.7193 -16.1352 -15.9050 -15.7257 -15.5237 -15.4669 -15.4005
   -15.2133 -15.1398 -14.9840 -14.8588 -14.8440 -14.7873 -14.7862 -14.7762
   -14.7472 -14.7223 -14.6770 -14.6656 -14.6602 -14.6566 -14.5951 -14.5527
   -14.5499 -14.5230 -14.5022 -14.3751 -14.3281 -14.2736 -14.1032 -14.0817
   -12.7121 -12.5960 -10.5774  -6.6881  -6.4142  -4.6693  -4.6315  -4.5923
    -4.4115  -3.6514  -3.3721  -3.2543  -3.1537  -3.1350  -3.0704  -3.0197
    -2.8045  -2.6995  -2.6354  -2.5228  -2.3955  -2.3585  -2.3084  -2.2772
    -2.1858  -2.1663  -2.1357  -2.1069  -2.0497  -2.0222  -2.0146  -2.0007
    -1.9269  -1.9196  -1.7897  -1.7847  -1.7281  -1.6369  -1.6185  -1.5957
    -1.5883  -1.5543  -1.5518  -1.5095  -1.4858  -1.4617  -1.4329  -1.3581
    -1.3388  -1.2759  -1.2386  -1.0061  -0.8515  -0.8268  -0.7468  -0.7303
    -0.6996  -0.6702  -0.6505  -0.6400  -0.6025  -0.5872  -0.4835  -0.3799
    -0.3715  -0.3117  -0.2740  -0.2692  -0.1336  -0.0891  -0.0145   0.0085
     0.0405   0.0618   0.1461   0.1946   0.2163   0.2832   0.3142   0.4198
     0.4572   0.4765   0.5180   0.5732   0.6337   0.6675   0.7069   0.7103
     0.7430   0.7923   0.8217   0.8563   0.8787   0.9257   1.0285   1.0658
     1.0764   1.2169   1.2280   1.3102   1.4350   1.4869   1.7600   1.8125
     1.8592   2.0048   2.3813   2.4282   3.8711   3.9737   3.9947   4.0160
     4.0837   4.1655   4.3310   4.3540   4.4184   4.5201

[...]

          k = 0.0380-0.0419 0.0000 ( 17876 PWs)   bands (ev):

[...]

          k =-0.0760-0.0000 0.0000 ( 17886 PWs)   bands (ev):

[...]

          k =-0.0760-0.0839 0.0000 ( 17948 PWs)   bands (ev):

   -55.3276 -55.2398 -55.2304 -55.1375 -55.1168 -55.0925 -55.0502 -55.0453
   -55.0368 -55.0285 -55.0160 -54.9943 -54.8946 -54.8257 -54.1956 -54.1950
   -31.6417 -31.5780 -31.5682 -31.5508 -31.5417 -31.5415 -31.5359 -31.5198
   -31.4578 -31.4530 -31.4142 -31.3925 -31.3812 -31.3760 -31.3597 -31.3574
   -31.3538 -31.3522 -31.3451 -31.3394 -31.3344 -31.3322 -31.3170 -31.3148
   -31.2958 -31.2853 -31.2559 -31.2496 -31.2466 -31.2424 -31.2345 -31.2332
   -31.2267 -31.2218 -31.2180 -31.2135 -31.2111 -31.1726 -31.1540 -31.0911
   -31.0735 -31.0299 -30.5226 -30.5222 -30.4323 -30.4308 -30.3926 -30.3916
   -21.5076 -19.7155 -16.1116 -15.5351 -15.3783 -15.2075 -15.1937 -15.1142
   -15.0227 -15.0050 -14.9741 -14.9612 -14.9440 -14.9194 -14.9116 -14.8757
   -14.8132 -14.7713 -14.7482 -14.7400 -14.6930 -14.6878 -14.6843 -14.6215
   -14.6141 -14.5961 -14.5714 -14.5115 -14.5026 -14.4019 -14.3871 -14.2144
   -12.6983 -12.6974 -10.5795  -6.6884  -6.4161  -4.6649  -4.6384  -4.5799
    -4.4039  -3.6167  -3.3625  -2.6834  -2.5988  -2.5381  -2.4313  -2.3528
    -2.2998  -2.2490  -2.2283  -2.1835  -2.1623  -2.0928  -2.0580  -2.0495
    -2.0301  -2.0278  -1.9972  -1.9817  -1.9695  -1.9478  -1.9196  -1.9024
    -1.8917  -1.8709  -1.8509  -1.8244  -1.8129  -1.8031  -1.7879  -1.7716
    -1.6615  -1.6445  -1.6120  -1.4487  -1.4378  -1.3687  -1.3373  -1.3106
    -1.3069  -1.2770  -1.2613  -1.2193  -1.1170  -1.0842  -1.0368  -0.9975
    -0.9024  -0.8866  -0.8357  -0.7836  -0.7390  -0.7099  -0.6791  -0.6644
    -0.6110  -0.4726  -0.4515  -0.4067  -0.2875  -0.2144  -0.1986  -0.1860
    -0.1642  -0.1411  -0.0948  -0.0865  -0.0249  -0.0120   0.0588   0.0628
     0.0918   0.1134   0.2159   0.3380   0.4166   0.4604   0.5054   0.5547
     0.5884   0.6707   0.7470   0.8334   0.9096   0.9390   0.9528   1.0705
     1.1029   1.1554   1.2014   1.2218   1.2799   1.3157   1.3559   1.3890
     2.1735   2.1872   2.2435   2.2491   4.0516   4.3018   4.3618   4.3788
     4.3886   4.4209   4.4421   4.4935   4.5099   4.5338

     the Fermi energy is     3.8812 ev

!    total energy              =   -3006.45830029 Ry
     estimated scf accuracy    <       0.00000006 Ry
     smearing contrib. (-TS)   =      -0.02082763 Ry
     internal energy E=F+TS    =   -3006.43747266 Ry

     The total energy is F=E-TS. E is the sum of the following terms:
     one-electron contribution =  -22317.82880384 Ry
     hartree contribution      =   11258.43806230 Ry
     xc contribution           =    -501.14763592 Ry
     ewald contribution        =    8554.09882161 Ry
     electric field correction =       0.00208320 Ry

     convergence has been achieved in  70 iterations

     Forces acting on atoms (cartesian axes, Ry/au):

     atom    1 type  1   force =    -0.00037825   -0.00017121    0.09499103
     atom    2 type  1   force =    -0.00034559    0.00512996   -0.17481095
     atom    3 type  2   force =     0.00070853    0.00013153   -0.02672328
     atom    4 type  2   force =     0.00128975    0.00083441    0.05204753
     atom    5 type  2   force =    -0.01097738   -0.00256202    0.00077334
     atom    6 type  2   force =     0.01194315   -0.00381262    0.00178228
     atom    7 type  1   force =    -0.00022605    0.00039285    0.00067177
     atom    8 type  1   force =     0.00014203    0.00023143    0.00015515
     atom    9 type  2   force =     0.00025078    0.00075906   -0.00065535
     atom   10 type  2   force =    -0.00038952    0.00016152    0.00013588
     atom   11 type  2   force =     0.00043811   -0.00015218    0.00009603
     atom   12 type  2   force =    -0.00084235   -0.00015199    0.00034971
     atom   13 type  1   force =     0.00043155    0.00035864   -0.00023858
     atom   14 type  1   force =    -0.00034219   -0.00070949    0.00092899
     atom   15 type  2   force =    -0.00013782   -0.00022819   -0.00096260
     atom   16 type  2   force =    -0.00027649    0.00000385   -0.00024727
     atom   17 type  2   force =    -0.00090898    0.00034520    0.00004125
     atom   18 type  2   force =     0.00033579    0.00075217    0.00008104
     atom   19 type  1   force =     0.00026100   -0.00067478    0.00023768
     atom   20 type  1   force =    -0.00028132   -0.00001157    0.00011843
     atom   21 type  2   force =    -0.00000732    0.00007684    0.10303730
     atom   22 type  2   force =    -0.00002457    0.00065841    0.00101768
     atom   23 type  2   force =    -0.07194798    0.00013035   -0.02803774
     atom   24 type  2   force =     0.07178572    0.00062854   -0.02813933
     atom   25 type  1   force =    -0.00035938    0.00026604    0.10243720
     atom   26 type  1   force =    -0.00011043   -0.00474394   -0.17505754
     atom   27 type  2   force =     0.00084862    0.00117130   -0.02483525
     atom   28 type  2   force =     0.00119745    0.00025423    0.05168195
     atom   29 type  2   force =    -0.01194267    0.00381419    0.00171661
     atom   30 type  2   force =     0.01377577    0.00146391    0.00244816
     atom   31 type  1   force =    -0.00029437   -0.00017655    0.00080820
     atom   32 type  1   force =     0.00029263    0.00028516    0.00059861
     atom   33 type  2   force =     0.00000771    0.00020179    0.00008811
     atom   34 type  2   force =    -0.00027229   -0.00032504   -0.00057964
     atom   35 type  2   force =    -0.00023730    0.00005006   -0.00048004
     atom   36 type  2   force =    -0.00037342    0.00009582   -0.00009818
     atom   37 type  1   force =    -0.00006430   -0.00034576    0.00003264
     atom   38 type  1   force =    -0.00056920    0.00028431    0.00000812
     atom   39 type  2   force =    -0.00026044   -0.00021966    0.00079502
     atom   40 type  2   force =    -0.00019833    0.00011336    0.00029373
     atom   41 type  2   force =    -0.00147313   -0.00023728   -0.00009192
     atom   42 type  2   force =     0.00125436   -0.00008790   -0.00066104
     atom   43 type  1   force =    -0.00019282    0.00041598    0.00018008
     atom   44 type  1   force =    -0.00005741    0.00000169    0.00032074
     atom   45 type  2   force =     0.00000122    0.00014196    0.10261900
     atom   46 type  2   force =    -0.07184677   -0.00061636   -0.02798315
     atom   47 type  2   force =     0.07170182   -0.00012621   -0.02805640
     atom   48 type  3   force =    -0.00028130    0.00212514    0.00014885
     atom   49 type  2   force =    -0.00345470   -0.00436834   -0.00078670
     atom   50 type  4   force =     0.00010302   -0.00051923   -0.00057362
     atom   51 type  4   force =     0.00256728    0.00106255    0.00016973
     atom   52 type  4   force =     0.00030013   -0.00007038   -0.00105335
     atom   53 type  4   force =    -0.00069489   -0.00065221   -0.00006220
     atom   54 type  5   force =     0.00015137   -0.00007386    0.00035917
     atom   55 type  5   force =    -0.00051339    0.00005348   -0.00034420
     atom   56 type  2   force =     0.00078508   -0.00052553    0.00051105
     atom   57 type  4   force =    -0.00029047   -0.00083343   -0.00120373

     Total force =     0.364872     Total SCF correction =     0.000604
  @ DRIVER MODE: Message from server: STATUS
  @ DRIVER MODE: Message from server: GETFORCE
  @ DRIVER MODE: Returning v,forces,stress,ensemble

     Writing output data file ./calc.save/
  @ DRIVER MODE: Message from server: EXIT
  @ DRIVE MODE: Exiting

     General routines

     Parallel routines

   This run was terminated on:  20:25:31  25Sep2021

   JOB DONE.