     Program PWSCF v.6.7GPU starts on 25Aug2021 at 11:23:37

     R & G space division:  proc/nbgrp/npool/nimage =       6
     Reading input from /storage/home/hcoda1/3/ntian30/research/carbon/CH3_vib_end_on/ads_slab/CH3N2H2_f/out_0036/pw.inp
Warning: card &CELL ignored
Warning: card   CELL_DYNAMICS='IPI', ignored
Warning: card / ignored

     Current dimensions of program PWSCF are:
     Max number of different atomic species (ntypx) = 10
     Max number of k-points (npk) =  40000
     Max angular momentum in pseudopotentials (lmaxx) =  3
     Presently no symmetry can be used with electric field

     Message from routine cell_base_init:
     DEPRECATED: use true lattice parameter, not A to a.u. conversion factor

     IMPORTANT: XC functional enforced from input :
     Exchange-correlation= BEEF-VDW
                           (   1   4  43  14   2   0   0)
     Any further DFT definition will be discarded
     Please, verify this is what you really want

  @ DRIVER MODE: Connecting to
 qe_1139763_2643870.sched-torque.pace.gatech.edu823156lx_scratch
  using UNIX socket
  @ DRIVER MODE: Message from server: STATUS
  @ DRIVER MODE: Message from server: INIT
  @ DRIVER MODE: Receiving replica           0          -1
  @ DRIVER MODE: Receiving encoded integer          25
  @ DRIVER MODE:  SCF:  T  FORCE:  T  STRESS:  F  VC:  F  ENSEMBLE:  F
  @ DRIVER MODE:  SCF:  T  FORCE:  T  STRESS:  F  VC:  F  ENSEMBLE:  F

     Using Slab Decomposition

     bravais-lattice index     =            0
     lattice parameter (alat)  =       1.8897  a.u.
     unit-cell volume          =    6658.9804 (a.u.)^3
     number of atoms/cell      =           55
     number of atomic types    =            5
     number of electrons       =       397.00
     number of Kohn-Sham states=          208
     kinetic-energy cutoff     =      29.3995  Ry
     charge density cutoff     =     293.9946  Ry
     scf convergence threshold =      7.3E-08
     mixing beta               =       0.0500
     number of iterations used =            8  plain     mixing
     Exchange-correlation= BEEF-VDW
                           (   1   4  43  14   2   0   0)

     celldm(1)=   1.889726  celldm(2)=   0.000000  celldm(3)=   0.000000
     celldm(4)=   0.000000  celldm(5)=   0.000000  celldm(6)=   0.000000

     crystal axes: (cart. coord. in units of alat)
               a(1) = (   6.579727   0.000000   0.000000 )
               a(2) = (  -0.000775   5.961596   0.000000 )
               a(3) = (   0.000000   0.000000  25.155947 )

     reciprocal axes: (cart. coord. in units 2 pi/alat)
               b(1) = (  0.151982  0.000020  0.000000 )
               b(2) = (  0.000000  0.167740  0.000000 )
               b(3) = (  0.000000  0.000000  0.039752 )

     PseudoPot. # 1 for Ti read from file:
     /storage/coda1/p-amedford6/0/shared/rich_project_chbe-medford/medford-share/data/pseudos_module/espresso/nninc/pbe/van/Ti.UPF
     MD5 check sum: 8e4df49b7f0d34bbd5052bf3f5ea0213
     Pseudo is Ultrasoft, Zval = 12.0
     Generated by new atomic code, or converted to UPF format
     Using radial grid of  851 points,  6 beta functions with:
                l(1) =   0
                l(2) =   0
                l(3) =   1
                l(4) =   1
                l(5) =   2
                l(6) =   2
     Q(r) pseudized with  8 coefficients,  rinner =    1.000   1.000   1.000
                                                       1.000   1.000

     PseudoPot. # 2 for O  read from file:
     /storage/coda1/p-amedford6/0/shared/rich_project_chbe-medford/medford-share/data/pseudos_module/espresso/nninc/pbe/van/O.UPF
     MD5 check sum: 78c19812648e8988a0fe644b0f25305e
     Pseudo is Ultrasoft, Zval =  6.0
     Generated by new atomic code, or converted to UPF format
     Using radial grid of  737 points,  4 beta functions with:
                l(1) =   0
                l(2) =   0
                l(3) =   1
                l(4) =   1
     Q(r) pseudized with  8 coefficients,  rinner =    0.800   0.800   0.800

     PseudoPot. # 3 for N  read from file:
     /storage/coda1/p-amedford6/0/shared/rich_project_chbe-medford/medford-share/data/pseudos_module/espresso/nninc/pbe/van/N.UPF
     MD5 check sum: 90d10febe142ad51ac9d5be1deb811c4
     Pseudo is Ultrasoft, Zval =  5.0
     Generated by new atomic code, or converted to UPF format
     Using radial grid of  729 points,  4 beta functions with:
                l(1) =   0
                l(2) =   0
                l(3) =   1
                l(4) =   1
     Q(r) pseudized with  8 coefficients,  rinner =    0.800   0.800   0.800

     PseudoPot. # 4 for C  read from file:
     /storage/coda1/p-amedford6/0/shared/rich_project_chbe-medford/medford-share/data/pseudos_module/espresso/nninc/pbe/van/C.UPF
     MD5 check sum: 1a69bf6b8db32088f5b2163dbdb77a27
     Pseudo is Ultrasoft, Zval =  4.0
     Generated by new atomic code, or converted to UPF format
     Using radial grid of  721 points,  4 beta functions with:
                l(1) =   0
                l(2) =   0
                l(3) =   1
                l(4) =   1
     Q(r) pseudized with  8 coefficients,  rinner =    0.800   0.800   0.800

     PseudoPot. # 5 for H  read from file:
     /storage/coda1/p-amedford6/0/shared/rich_project_chbe-medford/medford-share/data/pseudos_module/espresso/nninc/pbe/van/H.UPF
     MD5 check sum: b5ee9d7bfd3a09ee7748110bda690ff7
     Pseudo is Ultrasoft, Zval =  1.0
     Generated by new atomic code, or converted to UPF format
     Using radial grid of  615 points,  1 beta functions with:
                l(1) =   0
     Q(r) pseudized with  8 coefficients,  rinner =    0.800

     atomic species   valence    mass     pseudopotential
        Ti1           12.00    47.86700     Ti( 1.00)
        O1             6.00    15.99900     O ( 1.00)
        N1             5.00    14.00700     N ( 1.00)
        C1             4.00    12.01100     C ( 1.00)
        H1             1.00     1.00800     H ( 1.00)

     No symmetry found

   Cartesian axes

     site n.     atom                  positions (alat units)
         1           Ti1 tau(   1) = (   0.0004258   2.9801865   6.0000000  )
         2           Ti1 tau(   2) = (   3.2906075   1.4906267   6.0002472  )
         3           O1  tau(   3) = (   0.0006271   0.0005054   7.9858123  )
         4           O1  tau(   4) = (   3.2906025   0.0005020   7.3038282  )
         5           O1  tau(   5) = (   4.5942328   1.4918067   9.2879030  )
         6           O1  tau(   6) = (   1.9868534   1.4903216   9.2879459  )
         7           Ti1 tau(   7) = (   3.2907910   2.8959150   9.1758416  )
         8           Ti1 tau(   8) = (   0.0015273   1.4827037   9.2680791  )
         9           O1  tau(   9) = (   3.2830128   5.9597860  11.3344455  )
        10           O1  tau(  10) = (   0.0116148   5.9584955  10.6183126  )
        11           O1  tau(  11) = (   1.2885291   1.4855062  12.6376555  )
        12           O1  tau(  12) = (   5.2724004   1.4911608  12.5936499  )
        13           Ti1 tau(  13) = (   0.0410009   3.0319447  12.6084003  )
        14           Ti1 tau(  14) = (   3.3739341   1.4916561  12.4823474  )
        15           O1  tau(  15) = (   6.4862162   0.0153916  14.6455093  )
        16           O1  tau(  16) = (   3.3439542   5.9611638  13.9051029  )
        17           O1  tau(  17) = (   4.4933269   1.5483200  16.1231154  )
        18           O1  tau(  18) = (   1.9964937   1.4536654  15.9127221  )
        19           Ti1 tau(  19) = (   3.1412959   3.0017366  15.7441667  )
        20           Ti1 tau(  20) = (   6.4823597   1.5369342  15.8006069  )
        21           O1  tau(  21) = (   3.2904802   0.0005063   4.7018136  )
        22           O1  tau(  22) = (   6.5709111   0.0522475  17.2082838  )
        23           O1  tau(  23) = (   1.3043587   1.4918075   6.0039043  )
        24           O1  tau(  24) = (   5.2767064   1.4903225   6.0039473  )
        25           Ti1 tau(  25) = (   0.0000382   5.9609847   6.0000000  )
        26           Ti1 tau(  26) = (   3.2902200   4.4714249   6.0002472  )
        27           O1  tau(  27) = (   0.0002396   2.9813036   7.9858123  )
        28           O1  tau(  28) = (   3.2902150   2.9813002   7.3038282  )
        29           O1  tau(  29) = (   4.5938453   4.4726049   9.2879030  )
        30           O1  tau(  30) = (   1.9864658   4.4711199   9.2879459  )
        31           Ti1 tau(  31) = (   3.2891106   5.8743827   9.1763621  )
        32           Ti1 tau(  32) = (   0.0006254   4.4649316   9.2693709  )
        33           O1  tau(  33) = (   3.2833609   2.9822938  11.3349093  )
        34           O1  tau(  34) = (   0.0092240   2.9805883  10.6323155  )
        35           O1  tau(  35) = (   1.2838611   4.4860338  12.6468719  )
        36           O1  tau(  36) = (   5.2760156   4.4607002  12.6015494  )
        37           Ti1 tau(  37) = (   0.0673138   0.0440259  12.5461749  )
        38           Ti1 tau(  38) = (   3.3712377   4.4654930  12.4933830  )
        39           O1  tau(  39) = (   6.5217465   2.9589972  14.6412948  )
        40           O1  tau(  40) = (   3.2809526   2.9956502  13.9333893  )
        41           O1  tau(  41) = (   4.4911989   4.4583117  16.1637052  )
        42           O1  tau(  42) = (   1.9937212   4.5427850  15.9740970  )
        43           Ti1 tau(  43) = (   3.2955853   0.0167752  15.6963065  )
        44           Ti1 tau(  44) = (   6.5082246   4.6715011  16.1069148  )
        45           O1  tau(  45) = (   3.2900926   2.9813045   4.7018136  )
        46           O1  tau(  46) = (   1.3039711   4.4726057   6.0039043  )
        47           O1  tau(  47) = (   5.2763189   4.4711207   6.0039473  )
        48           N1  tau(  48) = (   1.3945086   2.8365607  18.1849301  )
        49           N1  tau(  49) = (   0.1777896   2.9650562  17.4211889  )
        50           C1  tau(  50) = (   1.4118813   3.7128676  19.3556819  )
        51           H1  tau(  51) = (   0.5171711   3.5996102  19.9880000  )
        52           H1  tau(  52) = (   2.2935099   3.4681107  19.9517681  )
        53           H1  tau(  53) = (   1.4703795   4.7520035  19.0419817  )
        54           H1  tau(  54) = (   1.4579882   1.8621926  18.4823179  )
        55           H1  tau(  55) = (   5.9558665   2.8747675  18.0551794  )

     number of k points=    10  Fermi-Dirac smearing, width (Ry)=  0.0073
                       cart. coord. in units 2pi/alat
        k(    1) = (   0.0000000   0.0000000   0.0000000), wk =   0.1250000
        k(    2) = (   0.0000000   0.0419351   0.0000000), wk =   0.2500000
        k(    3) = (   0.0000000  -0.0838702   0.0000000), wk =   0.1250000
        k(    4) = (   0.0379955   0.0000049   0.0000000), wk =   0.2500000
        k(    5) = (   0.0379955   0.0419400   0.0000000), wk =   0.2500000
        k(    6) = (   0.0379955  -0.0838652   0.0000000), wk =   0.2500000
        k(    7) = (   0.0379955  -0.0419301   0.0000000), wk =   0.2500000
        k(    8) = (  -0.0759910  -0.0000099   0.0000000), wk =   0.1250000
        k(    9) = (  -0.0759910   0.0419252   0.0000000), wk =   0.2500000
        k(   10) = (  -0.0759910  -0.0838800   0.0000000), wk =   0.1250000

     Initial potential from superposition of free atoms

     starting charge  380.99914, renormalised to  397.00000

     negative rho (up, down):  1.540E-02 0.000E+00

     %%%%%%%%%%%%%%%%%%%%%%%%%%%%%%%%%%%%%%%%%%%%%%%%%%%%%%%%%%%%%%%%%%%%%%%%
     %                                                                      %
     % You are using vdW-DF, which was implemented by the Thonhauser group. %
     % Please cite the following two papers that made this development      %
     % possible and the two reviews that describe the various versions:     %
     %                                                                      %
     %   T. Thonhauser et al., PRL 115, 136402 (2015).                      %
     %   T. Thonhauser et al., PRB 76, 125112 (2007).                       %
     %   K. Berland et al., Rep. Prog. Phys. 78, 066501 (2015).             %
     %   D.C. Langreth et al., J. Phys.: Condens. Matter 21, 084203 (2009). %
     %                                                                      %
     %                                                                      %
     % If you are calculating the stress with vdW-DF, please also cite:     %
     %                                                                      %
     %   R. Sabatini et al., J. Phys.: Condens. Matter 24, 424209 (2012).   %
     %                                                                      %
     %%%%%%%%%%%%%%%%%%%%%%%%%%%%%%%%%%%%%%%%%%%%%%%%%%%%%%%%%%%%%%%%%%%%%%%%

     Adding external electric field

     Computed dipole along edir(3) :
        Dipole               -9.6188 Ry au,        -24.4486 Debye
        Dipole field         -0.0182 Ry au,

        Potential amp.        1.6827 Ry
        Total length         46.3494 bohr

     Starting wfcs are  301 atomic wfcs
  @ DRIVER MODE: Message from server: STATUS
  @ DRIVER MODE: Message from server: POSDATA
  @ DRIVER MODE: Reading and sharing cell
  @ DRIVER MODE: Reading and sharing positions
  @ DRIVER MODE: Received positions

     Self-consistent Calculation

     iteration #  1     ecut=    29.40 Ry     beta= 0.05
     Davidson diagonalization with overlap
     c_bands:  1 eigenvalues not converged
     c_bands:  1 eigenvalues not converged
     c_bands:  1 eigenvalues not converged
     c_bands:  1 eigenvalues not converged
     c_bands:  1 eigenvalues not converged
     c_bands:  1 eigenvalues not converged
     c_bands:  2 eigenvalues not converged
     ethr =  1.00E-05,  avg # of iterations = 18.8

[...]

     total energy              =   -2533.46647870 Ry
     estimated scf accuracy    <    4540.47441481 Ry

     iteration #  2     ecut=    29.40 Ry     beta= 0.05
     Davidson diagonalization with overlap
     ethr =  1.00E-02,  avg # of iterations = 25.5

[...]

     iteration # 71     ecut=    29.40 Ry     beta= 0.05
     Davidson diagonalization with overlap
     c_bands:  1 eigenvalues not converged
     ethr =  2.58E-10,  avg # of iterations =  9.6

[...]

     total energy              =   -2941.66157467 Ry
     estimated scf accuracy    <       0.00000009 Ry

     iteration # 80     ecut=    29.40 Ry     beta= 0.05
     Davidson diagonalization with overlap
     ethr =  2.26E-11,  avg # of iterations =  7.9

     negative rho (up, down):  1.607E-02 0.000E+00

     Adding external electric field

     Computed dipole along edir(3) :
        Dipole                0.9415 Ry au,          2.3931 Debye
        Dipole field          0.0018 Ry au,

        Potential amp.       -0.1647 Ry
        Total length         46.3494 bohr

     End of self-consistent calculation

          k = 0.0000 0.0000 0.0000 ( 18029 PWs)   bands (ev):

   -55.6870 -55.6698 -55.6529 -55.6332 -55.5926 -55.5383 -55.5313 -55.5014
   -55.4953 -55.4674 -55.4653 -55.4312 -55.2586 -55.0343 -54.6673 -54.6333
   -32.2208 -32.1701 -32.0429 -32.0329 -31.9997 -31.9849 -31.9798 -31.9556
   -31.9310 -31.8990 -31.8966 -31.8904 -31.8474 -31.8391 -31.8252 -31.8236
   -31.8069 -31.7920 -31.7830 -31.7478 -31.7440 -31.7370 -31.7214 -31.7178
   -31.6950 -31.6905 -31.6878 -31.6802 -31.6659 -31.6637 -31.6561 -31.6469
   -31.6414 -31.6319 -31.6183 -31.6089 -31.5775 -31.5089 -31.4650 -31.3006
   -31.2912 -31.2370 -31.0745 -30.9860 -30.9636 -30.8913 -30.8048 -30.6937
   -16.7733 -16.4174 -16.1627 -15.9332 -15.8422 -15.8117 -15.6593 -15.5279
   -15.4186 -15.3366 -15.2516 -15.2327 -15.2255 -15.2145 -15.1887 -15.1828
   -15.1358 -15.1310 -15.1117 -15.0987 -15.0487 -15.0321 -15.0286 -14.9338
   -14.8699 -14.8346 -14.8199 -14.7851 -14.7479 -14.3336 -13.1696 -13.0531
   -11.8093  -8.9900  -5.4298  -4.3737  -3.8412  -3.7888  -3.6448  -3.5945
    -3.5340  -3.4955  -3.3177  -3.2150  -2.9423  -2.8852  -2.8559  -2.8466
    -2.7912  -2.7598  -2.6017  -2.5754  -2.5048  -2.4954  -2.4806  -2.4514
    -2.4428  -2.4359  -2.3994  -2.3762  -2.3477  -2.2435  -2.1038  -2.0944
    -2.0715  -2.0384  -2.0008  -1.9522  -1.9358  -1.9155  -1.8972  -1.8846
    -1.8719  -1.7371  -1.7020  -1.5856  -1.4961  -1.4495  -1.3696  -1.2991
    -1.2691  -1.1581  -1.1185  -1.1061  -1.0917  -1.0811  -0.9814  -0.8756
    -0.8583  -0.8205  -0.7654  -0.7097  -0.6390  -0.5941  -0.5430  -0.4908
    -0.4666  -0.4514  -0.4487  -0.4135  -0.3221  -0.1806  -0.1287  -0.0944
    -0.0721   0.0046   0.0396   0.0957   0.1203   0.1437   0.1795   0.2324
     0.2761   0.2825   0.2960   0.3105   0.3152   0.4896   0.5391   0.5808
     0.6142   0.6602   0.8213   0.8437   0.9651   1.0395   1.2020   1.2804
     1.3550   1.4330   1.5467   1.6203   1.9262   1.9720   3.4438   3.5313
     3.5761   3.5900   3.6852   3.7272   3.8965   3.9273   3.9417   4.0017

[...]

          k = 0.0380-0.0419 0.0000 ( 17876 PWs)   bands (ev):

[...]

          k =-0.0760-0.0000 0.0000 ( 17886 PWs)   bands (ev):

[...]

          k =-0.0760-0.0839 0.0000 ( 17948 PWs)   bands (ev):

   -55.6703 -55.6695 -55.6551 -55.6478 -55.5866 -55.5442 -55.5187 -55.5079
   -55.4848 -55.4834 -55.4512 -55.4454 -55.2574 -55.0354 -54.6502 -54.6502
   -32.0299 -32.0202 -31.9857 -31.9851 -31.9656 -31.9647 -31.9445 -31.9381
   -31.8852 -31.8846 -31.8744 -31.8691 -31.8522 -31.8342 -31.8096 -31.8050
   -31.8006 -31.7970 -31.7903 -31.7902 -31.7890 -31.7887 -31.7848 -31.7451
   -31.7368 -31.7253 -31.7171 -31.7059 -31.6853 -31.6843 -31.6822 -31.6755
   -31.6655 -31.6615 -31.6583 -31.6558 -31.6146 -31.5113 -31.4617 -31.3628
   -31.2933 -31.2629 -30.9763 -30.9763 -30.8873 -30.8872 -30.8481 -30.8480
   -16.7472 -15.8645 -15.8035 -15.6458 -15.6106 -15.5909 -15.5559 -15.4952
   -15.4120 -15.3849 -15.3803 -15.3331 -15.3074 -15.2746 -15.2366 -15.2220
   -15.2150 -15.1961 -15.1837 -15.1500 -15.1405 -15.1289 -15.1217 -15.0461
   -15.0086 -15.0043 -14.9986 -14.8950 -14.7685 -14.5013 -13.1550 -13.1549
   -11.8157  -9.0043  -5.4438  -4.3604  -3.7652  -3.1573  -3.0704  -2.8957
    -2.8401  -2.8113  -2.7956  -2.6294  -2.6196  -2.6035  -2.5593  -2.5360
    -2.5278  -2.5176  -2.5088  -2.4877  -2.4751  -2.4400  -2.4302  -2.3953
    -2.3809  -2.3631  -2.3462  -2.3291  -2.3094  -2.2953  -2.2788  -2.2379
    -2.2181  -2.2075  -2.1870  -2.1430  -1.9326  -1.8824  -1.8364  -1.8327
    -1.8222  -1.8026  -1.7478  -1.7428  -1.7087  -1.6577  -1.5789  -1.4341
    -1.3888  -1.3724  -1.2792  -1.2576  -1.2049  -1.1329  -1.0871  -1.0702
    -1.0352  -0.9712  -0.9350  -0.8974  -0.8310  -0.8065  -0.8008  -0.7069
    -0.6861  -0.6499  -0.6432  -0.5646  -0.5141  -0.4511  -0.4357  -0.4194
    -0.3878  -0.3543  -0.3362  -0.2682  -0.1762  -0.1751  -0.1520  -0.0429
     0.0477   0.2761   0.3388   0.3758   0.4207   0.5143   0.5827   0.6074
     0.6232   0.6450   0.6643   0.7126   0.8394   0.8495   0.8838   0.9967
     1.1008   1.6366   1.7184   1.7193   1.7918   1.7919   3.7456   3.7639
     3.7844   3.8308   3.9499   3.9569   3.9789   3.9810   4.1037   4.1165

     the Fermi energy is     3.4455 ev

!    total energy              =   -2941.66158413 Ry
     estimated scf accuracy    <       0.00000002 Ry
     smearing contrib. (-TS)   =      -0.02151242 Ry
     internal energy E=F+TS    =   -2941.64007171 Ry

     The total energy is F=E-TS. E is the sum of the following terms:
     one-electron contribution =  -24275.59275864 Ry
     hartree contribution      =   12228.25282249 Ry
     xc contribution           =    -486.87482942 Ry
     ewald contribution        =    9592.57302107 Ry
     electric field correction =       0.00167279 Ry

     convergence has been achieved in  80 iterations

     Forces acting on atoms (cartesian axes, Ry/au):

     atom    1 type  1   force =     0.00018182   -0.00011720    0.09636300
     atom    2 type  1   force =    -0.00021798   -0.00063589   -0.17551743
     atom    3 type  2   force =    -0.00004244   -0.00003395   -0.02420269
     atom    4 type  2   force =     0.00004981   -0.00143657    0.05289624
     atom    5 type  2   force =    -0.01181512   -0.00049121    0.00396029
     atom    6 type  2   force =     0.01312546    0.00023356    0.00229595
     atom    7 type  1   force =    -0.00139988    0.00080077   -0.01148521
     atom    8 type  1   force =     0.00053434    0.00922646    0.02521880
     atom    9 type  2   force =    -0.00011172    0.00017375    0.00038627
     atom   10 type  2   force =    -0.00086455    0.00148482   -0.01580243
     atom   11 type  2   force =    -0.00018753   -0.00049830    0.00039611
     atom   12 type  2   force =    -0.00014249   -0.00026044    0.00002545
     atom   13 type  1   force =     0.00055210   -0.00091519    0.00008127
     atom   14 type  1   force =    -0.00008425   -0.00040421    0.00025138
     atom   15 type  2   force =     0.00017586    0.00003414   -0.00030884
     atom   16 type  2   force =     0.00006742    0.00024609    0.00004899
     atom   17 type  2   force =    -0.00051615    0.00035164    0.00049544
     atom   18 type  2   force =     0.00011417    0.00010896    0.00028404
     atom   19 type  1   force =     0.00008582   -0.00052776    0.00024001
     atom   20 type  1   force =     0.00015327    0.00033849    0.00059157
     atom   21 type  2   force =     0.00007502   -0.00008129    0.10321743
     atom   22 type  2   force =    -0.00041055   -0.00026369    0.00028264
     atom   23 type  2   force =    -0.07148248   -0.00017817   -0.02771379
     atom   24 type  2   force =     0.07140438    0.00024994   -0.02771421
     atom   25 type  1   force =     0.00003360   -0.00027333    0.09582234
     atom   26 type  1   force =    -0.00014916   -0.00023360   -0.17569130
     atom   27 type  2   force =     0.00009049   -0.00012559   -0.02330852
     atom   28 type  2   force =     0.00008053   -0.00129559    0.05331989
     atom   29 type  2   force =    -0.01194355   -0.00005626    0.00375803
     atom   30 type  2   force =     0.01319273    0.00042895    0.00213445
     atom   31 type  1   force =    -0.00141514    0.00344476   -0.01081146
     atom   32 type  1   force =     0.00064197   -0.01010920    0.02562895
     atom   33 type  2   force =    -0.00039021    0.00005055    0.00004368
     atom   34 type  2   force =     0.00074867    0.00090081   -0.02306610
     atom   35 type  2   force =    -0.00010393    0.00029592   -0.00002307
     atom   36 type  2   force =    -0.00023471    0.00059691   -0.00028837
     atom   37 type  1   force =    -0.00081460   -0.00102723   -0.00012845
     atom   38 type  1   force =    -0.00003426   -0.00010273   -0.00003104
     atom   39 type  2   force =    -0.00034652    0.00004641    0.00056248
     atom   40 type  2   force =     0.00048600    0.00024990    0.00026739
     atom   41 type  2   force =     0.00005174    0.00050052    0.00027370
     atom   42 type  2   force =     0.00009167    0.00028465   -0.00020839
     atom   43 type  1   force =     0.00018017    0.00007066   -0.00020269
     atom   44 type  1   force =    -0.00021961   -0.00060002    0.00004217
     atom   45 type  2   force =     0.00007143   -0.00008746    0.10323879
     atom   46 type  2   force =    -0.07148213   -0.00017020   -0.02770860
     atom   47 type  2   force =     0.07140757    0.00030419   -0.02772371
     atom   48 type  3   force =    -0.00065208    0.00109285   -0.00038187
     atom   49 type  3   force =     0.00043703   -0.00020807    0.00028595
     atom   50 type  4   force =     0.00048935   -0.00321897    0.00378337
     atom   51 type  5   force =     0.00110911   -0.00021268   -0.00043114
     atom   52 type  5   force =    -0.00038076    0.00016904   -0.00049531
     atom   53 type  5   force =     0.00001773    0.00129829   -0.00252302
     atom   54 type  5   force =     0.00005994    0.00084630   -0.00029424
     atom   55 type  5   force =    -0.00026740   -0.00026453   -0.00013421

     Total force =     0.367376     Total SCF correction =     0.000422
  @ DRIVER MODE: Message from server: STATUS
  @ DRIVER MODE: Message from server: GETFORCE
  @ DRIVER MODE: Returning v,forces,stress,ensemble

     Writing output data file ./calc.save/
  @ DRIVER MODE: Message from server: EXIT
  @ DRIVE MODE: Exiting

     General routines

     Parallel routines

   This run was terminated on:  11:58: 6  25Aug2021

   JOB DONE.