     Program PWSCF v.6.7GPU starts on 22Sep2021 at 21:24:31

     R & G space division:  proc/nbgrp/npool/nimage =      10
     Reading input from /storage/home/hcoda1/3/ntian30/research/carbon/CxH_vib/H2O_calc/ads_slab/CH2NHNHO_a/out_0016/pw.inp
Warning: card &CELL ignored
Warning: card   CELL_DYNAMICS='IPI', ignored
Warning: card / ignored

     Current dimensions of program PWSCF are:
     Max number of different atomic species (ntypx) = 10
     Max number of k-points (npk) =  40000
     Max angular momentum in pseudopotentials (lmaxx) =  3
     Presently no symmetry can be used with electric field

     Message from routine cell_base_init:
     DEPRECATED: use true lattice parameter, not A to a.u. conversion factor

     IMPORTANT: XC functional enforced from input :
     Exchange-correlation= BEEF-VDW
                           (   1   4  43  14   2   0   0)
     Any further DFT definition will be discarded
     Please, verify this is what you really want

  @ DRIVER MODE: Connecting to
 qe_1139763_2937322.sched-torque.pace.gatech.eduz89o6y21_scratch
  using UNIX socket
  @ DRIVER MODE: Message from server: STATUS
  @ DRIVER MODE: Message from server: INIT
  @ DRIVER MODE: Receiving replica           0          -1
  @ DRIVER MODE: Receiving encoded integer          25
  @ DRIVER MODE:  SCF:  T  FORCE:  T  STRESS:  F  VC:  F  ENSEMBLE:  F
  @ DRIVER MODE:  SCF:  T  FORCE:  T  STRESS:  F  VC:  F  ENSEMBLE:  F

     Using Slab Decomposition

     bravais-lattice index     =            0
     lattice parameter (alat)  =       1.8897  a.u.
     unit-cell volume          =    6658.9804 (a.u.)^3
     number of atoms/cell      =           55
     number of atomic types    =            5
     number of electrons       =       402.00
     number of Kohn-Sham states=          211
     kinetic-energy cutoff     =      29.3995  Ry
     charge density cutoff     =     293.9946  Ry
     scf convergence threshold =      7.3E-08
     mixing beta               =       0.0500
     number of iterations used =            8  plain     mixing
     Exchange-correlation= BEEF-VDW
                           (   1   4  43  14   2   0   0)

     celldm(1)=   1.889726  celldm(2)=   0.000000  celldm(3)=   0.000000
     celldm(4)=   0.000000  celldm(5)=   0.000000  celldm(6)=   0.000000

     crystal axes: (cart. coord. in units of alat)
               a(1) = (   6.579727   0.000000   0.000000 )
               a(2) = (  -0.000775   5.961596   0.000000 )
               a(3) = (   0.000000   0.000000  25.155947 )

     reciprocal axes: (cart. coord. in units 2 pi/alat)
               b(1) = (  0.151982  0.000020  0.000000 )
               b(2) = (  0.000000  0.167740  0.000000 )
               b(3) = (  0.000000  0.000000  0.039752 )

     PseudoPot. # 1 for Ti read from file:
     /storage/coda1/p-amedford6/0/shared/rich_project_chbe-medford/medford-share/data/pseudos_module/espresso/nninc/pbe/van/Ti.UPF
     MD5 check sum: 8e4df49b7f0d34bbd5052bf3f5ea0213
     Pseudo is Ultrasoft, Zval = 12.0
     Generated by new atomic code, or converted to UPF format
     Using radial grid of  851 points,  6 beta functions with:
                l(1) =   0
                l(2) =   0
                l(3) =   1
                l(4) =   1
                l(5) =   2
                l(6) =   2
     Q(r) pseudized with  8 coefficients,  rinner =    1.000   1.000   1.000
                                                       1.000   1.000

     PseudoPot. # 2 for O  read from file:
     /storage/coda1/p-amedford6/0/shared/rich_project_chbe-medford/medford-share/data/pseudos_module/espresso/nninc/pbe/van/O.UPF
     MD5 check sum: 78c19812648e8988a0fe644b0f25305e
     Pseudo is Ultrasoft, Zval =  6.0
     Generated by new atomic code, or converted to UPF format
     Using radial grid of  737 points,  4 beta functions with:
                l(1) =   0
                l(2) =   0
                l(3) =   1
                l(4) =   1
     Q(r) pseudized with  8 coefficients,  rinner =    0.800   0.800   0.800

     PseudoPot. # 3 for N  read from file:
     /storage/coda1/p-amedford6/0/shared/rich_project_chbe-medford/medford-share/data/pseudos_module/espresso/nninc/pbe/van/N.UPF
     MD5 check sum: 90d10febe142ad51ac9d5be1deb811c4
     Pseudo is Ultrasoft, Zval =  5.0
     Generated by new atomic code, or converted to UPF format
     Using radial grid of  729 points,  4 beta functions with:
                l(1) =   0
                l(2) =   0
                l(3) =   1
                l(4) =   1
     Q(r) pseudized with  8 coefficients,  rinner =    0.800   0.800   0.800

     PseudoPot. # 4 for C  read from file:
     /storage/coda1/p-amedford6/0/shared/rich_project_chbe-medford/medford-share/data/pseudos_module/espresso/nninc/pbe/van/C.UPF
     MD5 check sum: 1a69bf6b8db32088f5b2163dbdb77a27
     Pseudo is Ultrasoft, Zval =  4.0
     Generated by new atomic code, or converted to UPF format
     Using radial grid of  721 points,  4 beta functions with:
                l(1) =   0
                l(2) =   0
                l(3) =   1
                l(4) =   1
     Q(r) pseudized with  8 coefficients,  rinner =    0.800   0.800   0.800

     PseudoPot. # 5 for H  read from file:
     /storage/coda1/p-amedford6/0/shared/rich_project_chbe-medford/medford-share/data/pseudos_module/espresso/nninc/pbe/van/H.UPF
     MD5 check sum: b5ee9d7bfd3a09ee7748110bda690ff7
     Pseudo is Ultrasoft, Zval =  1.0
     Generated by new atomic code, or converted to UPF format
     Using radial grid of  615 points,  1 beta functions with:
                l(1) =   0
     Q(r) pseudized with  8 coefficients,  rinner =    0.800

     atomic species   valence    mass     pseudopotential
        Ti1           12.00    47.86700     Ti( 1.00)
        O1             6.00    15.99900     O ( 1.00)
        N1             5.00    14.00700     N ( 1.00)
        C1             4.00    12.01100     C ( 1.00)
        H1             1.00     1.00800     H ( 1.00)

     No symmetry found

   Cartesian axes

     site n.     atom                  positions (alat units)
         1           Ti1 tau(   1) = (   0.0004258   2.9801865   6.0000000  )
         2           Ti1 tau(   2) = (   3.2906075   1.4906267   6.0002472  )
         3           O1  tau(   3) = (   0.0006271   0.0005054   7.9858123  )
         4           O1  tau(   4) = (   3.2906025   0.0005020   7.3038282  )
         5           O1  tau(   5) = (   4.5942328   1.4918067   9.2879030  )
         6           O1  tau(   6) = (   1.9868534   1.4903216   9.2879459  )
         7           Ti1 tau(   7) = (   3.2907910   2.8959150   9.1758416  )
         8           Ti1 tau(   8) = (   0.0015273   1.4827037   9.2680791  )
         9           O1  tau(   9) = (   3.2865774   0.0244666  11.2672233  )
        10           O1  tau(  10) = (   0.0116148   5.9584955  10.6183126  )
        11           O1  tau(  11) = (   1.2851059   1.4881214  12.6284388  )
        12           O1  tau(  12) = (   5.2821296   1.4859116  12.6239949  )
        13           Ti1 tau(  13) = (   6.5757640   3.1226837  12.6583379  )
        14           Ti1 tau(  14) = (   3.2808560   1.5553189  12.4169499  )
        15           O1  tau(  15) = (   6.5631415   0.0020138  14.6662933  )
        16           O1  tau(  16) = (   3.2768600   5.9282172  13.8639556  )
        17           O1  tau(  17) = (   4.5247100   1.5609280  15.9911388  )
        18           O1  tau(  18) = (   2.0319249   1.5505618  16.0334288  )
        19           Ti1 tau(  19) = (   3.2655126   3.0139642  15.6417618  )
        20           Ti1 tau(  20) = (   6.4701730   1.5779936  15.7979382  )
        21           O1  tau(  21) = (   3.2904802   0.0005063   4.7018136  )
        22           O1  tau(  22) = (   6.5470303   0.0764028  17.2486596  )
        23           O1  tau(  23) = (   1.3043587   1.4918075   6.0039043  )
        24           O1  tau(  24) = (   5.2767064   1.4903225   6.0039473  )
        25           Ti1 tau(  25) = (   0.0000382   5.9609847   6.0000000  )
        26           Ti1 tau(  26) = (   3.2902200   4.4714249   6.0002472  )
        27           O1  tau(  27) = (   0.0002396   2.9813036   7.9858123  )
        28           O1  tau(  28) = (   3.2902150   2.9813002   7.3038282  )
        29           O1  tau(  29) = (   4.5938453   4.4726049   9.2879030  )
        30           O1  tau(  30) = (   1.9864658   4.4711199   9.2879459  )
        31           Ti1 tau(  31) = (   3.2891106   5.8743827   9.1763621  )
        32           Ti1 tau(  32) = (   0.0006254   4.4649316   9.2693709  )
        33           O1  tau(  33) = (   3.2856154   2.9374191  11.2445503  )
        34           O1  tau(  34) = (   0.0092240   2.9805883  10.6323155  )
        35           O1  tau(  35) = (   1.2776263   4.4762221  12.6158080  )
        36           O1  tau(  36) = (   5.2889682   4.4773653  12.6103441  )
        37           Ti1 tau(  37) = (   6.5721904   0.1276321  12.6579576  )
        38           Ti1 tau(  38) = (   3.2825792   4.6513186  12.6446142  )
        39           O1  tau(  39) = (   6.5601178   2.9984380  14.6401328  )
        40           O1  tau(  40) = (   3.2784952   3.0022753  13.8540846  )
        41           O1  tau(  41) = (   4.5130724   4.4679886  16.1105769  )
        42           O1  tau(  42) = (   2.0068779   4.4712703  16.0772645  )
        43           Ti1 tau(  43) = (   3.1879138   0.0422448  16.2953621  )
        44           Ti1 tau(  44) = (   6.5239028   4.6756254  16.1574449  )
        45           O1  tau(  45) = (   3.2900926   2.9813045   4.7018136  )
        46           O1  tau(  46) = (   1.3039711   4.4726057   6.0039043  )
        47           O1  tau(  47) = (   5.2763189   4.4711207   6.0039473  )
        48           N1  tau(  48) = (   0.1470516   2.5879757  18.5611170  )
        49           N1  tau(  49) = (   6.5778558   2.9357776  17.3215245  )
        50           C1  tau(  50) = (   0.2601206   3.3552726  19.6311682  )
        51           H1  tau(  51) = (   0.3627438   2.8498571  20.5812141  )
        52           H1  tau(  52) = (   0.2464683   4.4174571  19.5160682  )
        53           H1  tau(  53) = (   0.1772712   1.5612145  18.6921905  )
        54           O1  tau(  54) = (   3.2326362   0.0923429  18.1472848  )
        55           H1  tau(  55) = (   3.6209404   5.2806276  18.5811828  )

     number of k points=    10  Fermi-Dirac smearing, width (Ry)=  0.0073
                       cart. coord. in units 2pi/alat
        k(    1) = (   0.0000000   0.0000000   0.0000000), wk =   0.1250000
        k(    2) = (   0.0000000   0.0419351   0.0000000), wk =   0.2500000
        k(    3) = (   0.0000000  -0.0838702   0.0000000), wk =   0.1250000
        k(    4) = (   0.0379955   0.0000049   0.0000000), wk =   0.2500000
        k(    5) = (   0.0379955   0.0419400   0.0000000), wk =   0.2500000
        k(    6) = (   0.0379955  -0.0838652   0.0000000), wk =   0.2500000
        k(    7) = (   0.0379955  -0.0419301   0.0000000), wk =   0.2500000
        k(    8) = (  -0.0759910  -0.0000099   0.0000000), wk =   0.1250000
        k(    9) = (  -0.0759910   0.0419252   0.0000000), wk =   0.2500000
        k(   10) = (  -0.0759910  -0.0838800   0.0000000), wk =   0.1250000

     Initial potential from superposition of free atoms

     starting charge  385.99915, renormalised to  402.00000

     negative rho (up, down):  1.462E-02 0.000E+00

     %%%%%%%%%%%%%%%%%%%%%%%%%%%%%%%%%%%%%%%%%%%%%%%%%%%%%%%%%%%%%%%%%%%%%%%%
     %                                                                      %
     % You are using vdW-DF, which was implemented by the Thonhauser group. %
     % Please cite the following two papers that made this development      %
     % possible and the two reviews that describe the various versions:     %
     %                                                                      %
     %   T. Thonhauser et al., PRL 115, 136402 (2015).                      %
     %   T. Thonhauser et al., PRB 76, 125112 (2007).                       %
     %   K. Berland et al., Rep. Prog. Phys. 78, 066501 (2015).             %
     %   D.C. Langreth et al., J. Phys.: Condens. Matter 21, 084203 (2009). %
     %                                                                      %
     %                                                                      %
     % If you are calculating the stress with vdW-DF, please also cite:     %
     %                                                                      %
     %   R. Sabatini et al., J. Phys.: Condens. Matter 24, 424209 (2012).   %
     %                                                                      %
     %%%%%%%%%%%%%%%%%%%%%%%%%%%%%%%%%%%%%%%%%%%%%%%%%%%%%%%%%%%%%%%%%%%%%%%%

     Adding external electric field

     Computed dipole along edir(3) :
        Dipole              -11.6290 Ry au,        -29.5581 Debye
        Dipole field         -0.0219 Ry au,

        Potential amp.        2.0343 Ry
        Total length         46.3494 bohr

     Starting wfcs are  304 atomic wfcs
  @ DRIVER MODE: Message from server: STATUS
  @ DRIVER MODE: Message from server: POSDATA
  @ DRIVER MODE: Reading and sharing cell
  @ DRIVER MODE: Reading and sharing positions
  @ DRIVER MODE: Received positions

     Self-consistent Calculation

     iteration #  1     ecut=    29.40 Ry     beta= 0.05
     Davidson diagonalization with overlap
     c_bands:  3 eigenvalues not converged
     c_bands:  2 eigenvalues not converged
     c_bands:  3 eigenvalues not converged
     c_bands:  4 eigenvalues not converged
     c_bands:  1 eigenvalues not converged
     c_bands:  4 eigenvalues not converged
     c_bands:  5 eigenvalues not converged
     c_bands:  5 eigenvalues not converged
     c_bands:  5 eigenvalues not converged
     ethr =  1.00E-05,  avg # of iterations = 23.9

[...]

     total energy              =   -2412.17081562 Ry
     estimated scf accuracy    <    6293.20052243 Ry

     iteration #  2     ecut=    29.40 Ry     beta= 0.05
     Davidson diagonalization with overlap
     ethr =  1.00E-02,  avg # of iterations = 23.2

[...]

     iteration # 58     ecut=    29.40 Ry     beta= 0.05
     Davidson diagonalization with overlap
     c_bands:  1 eigenvalues not converged
     ethr =  1.58E-06,  avg # of iterations =  9.9

[...]

     total energy              =   -2972.74086489 Ry
     estimated scf accuracy    <       0.00000009 Ry

     iteration # 81     ecut=    29.40 Ry     beta= 0.05
     Davidson diagonalization with overlap
     ethr =  2.17E-11,  avg # of iterations =  2.8

     negative rho (up, down):  1.521E-02 0.000E+00

     Adding external electric field

     Computed dipole along edir(3) :
        Dipole                0.6629 Ry au,          1.6848 Debye
        Dipole field          0.0013 Ry au,

        Potential amp.       -0.1160 Ry
        Total length         46.3494 bohr

     End of self-consistent calculation

          k = 0.0000 0.0000 0.0000 ( 18029 PWs)   bands (ev):

   -56.5003 -56.4667 -55.7022 -55.6682 -55.4430 -55.3866 -55.1437 -55.1108
   -55.0893 -55.0554 -55.0374 -54.9865 -54.9836 -54.7900 -54.7584 -54.6473
   -32.9241 -32.7780 -32.7499 -32.6740 -32.5834 -32.5506 -32.1856 -31.9242
   -31.9234 -31.8935 -31.8423 -31.8377 -31.8180 -31.6722 -31.6642 -31.6170
   -31.5950 -31.5892 -31.5473 -31.5181 -31.4764 -31.4634 -31.4341 -31.4098
   -31.3762 -31.3760 -31.3726 -31.3615 -31.3088 -31.2961 -31.2768 -31.2527
   -31.2340 -31.2190 -31.2144 -31.2054 -31.1881 -31.1750 -31.1619 -31.1027
   -31.0499 -31.0293 -31.0002 -30.9896 -30.9745 -30.9237 -30.8623 -30.8376
   -18.6281 -16.6354 -16.1296 -16.0819 -15.8378 -15.7770 -15.7203 -15.7155
   -15.6725 -15.4290 -15.3923 -15.3619 -15.3153 -15.2205 -15.0886 -14.9919
   -14.8028 -14.7476 -14.7456 -14.7142 -14.6907 -14.6576 -14.6349 -14.6016
   -14.5981 -14.5650 -14.5090 -14.3373 -14.2736 -14.0637 -14.0481 -13.5870
   -13.4791 -12.3705  -8.5815  -5.9682  -4.6055  -4.2015  -3.6445  -3.6094
    -3.4318  -3.3266  -3.2504  -3.1714  -3.0940  -3.0421  -2.9651  -2.9235
    -2.9071  -2.8481  -2.8184  -2.6551  -2.6298  -2.6109  -2.5233  -2.4953
    -2.3323  -2.3093  -2.2265  -2.1537  -2.1342  -2.0763  -2.0627  -2.0037
    -1.9519  -1.9347  -1.8680  -1.8613  -1.8487  -1.7357  -1.7170  -1.6831
    -1.6366  -1.5730  -1.5658  -1.5107  -1.4252  -1.4119  -1.2800  -1.1939
    -1.1507  -1.1467  -1.1080  -1.0660  -1.0210  -0.8854  -0.8745  -0.7645
    -0.7454  -0.7434  -0.6761  -0.5800  -0.5586  -0.5259  -0.4510  -0.4136
    -0.3682  -0.3215  -0.2649  -0.1434  -0.1368  -0.1203  -0.0742  -0.0324
    -0.0164   0.0569   0.1478   0.1628   0.2694   0.2854   0.3339   0.4269
     0.5092   0.5180   0.5372   0.5986   0.6412   0.6762   0.7509   0.7702
     0.8107   0.8224   0.8709   0.9324   0.9574   1.0576   1.1068   1.1245
     1.1576   1.2081   1.2855   1.3679   1.4672   1.5089   1.5356   1.8085
     2.3291   2.7822   2.9448   3.2224   3.3330   3.6436   3.7694   3.7701
     3.7809   3.9832   4.1321

[...]

          k = 0.0380-0.0419 0.0000 ( 17876 PWs)   bands (ev):

[...]

          k =-0.0760-0.0000 0.0000 ( 17886 PWs)   bands (ev):

[...]

          k =-0.0760-0.0839 0.0000 ( 17948 PWs)   bands (ev):

   -56.4838 -56.4831 -55.6881 -55.6821 -55.4373 -55.3922 -55.1425 -55.1065
   -55.0725 -55.0721 -55.0415 -54.9864 -54.9834 -54.7913 -54.7562 -54.6494
   -32.7640 -32.7634 -32.7414 -32.7409 -32.6276 -32.6269 -32.0080 -32.0032
   -31.8829 -31.8774 -31.8724 -31.8625 -31.7446 -31.7097 -31.6656 -31.6587
   -31.6186 -31.6148 -31.4492 -31.4386 -31.4229 -31.4227 -31.3870 -31.3806
   -31.3659 -31.3577 -31.3453 -31.3251 -31.3036 -31.2941 -31.2934 -31.2778
   -31.2592 -31.2557 -31.2551 -31.2429 -31.2244 -31.1917 -31.1818 -31.1536
   -31.1374 -31.0537 -31.0115 -31.0043 -30.9907 -30.9530 -30.8768 -30.8644
   -18.6244 -16.0724 -16.0046 -16.0019 -15.9414 -15.9397 -15.7072 -15.7033
   -15.4680 -15.4398 -15.2840 -15.1888 -15.1709 -15.1090 -15.0708 -15.0205
   -14.9658 -14.9363 -14.8275 -14.7899 -14.7583 -14.7202 -14.6938 -14.6731
   -14.6120 -14.5754 -14.5537 -14.4546 -14.4289 -14.1952 -14.1882 -13.5833
   -13.5830 -12.3751  -8.5843  -5.9626  -4.5626  -3.6655  -3.3187  -3.0728
    -3.0691  -3.0619  -3.0569  -3.0412  -2.8178  -2.8142  -2.6624  -2.6284
    -2.6168  -2.5913  -2.5604  -2.4568  -2.3812  -2.3636  -2.3621  -2.3576
    -2.3081  -2.3001  -2.2502  -2.1739  -2.1098  -2.1018  -2.0671  -2.0052
    -1.9470  -1.8980  -1.8933  -1.8548  -1.8314  -1.8009  -1.7811  -1.7613
    -1.7167  -1.6332  -1.5081  -1.4319  -1.4006  -1.3825  -1.3449  -1.2989
    -1.2837  -1.2735  -1.2209  -1.2064  -1.1410  -1.1112  -1.0716  -0.9766
    -0.9168  -0.8853  -0.8599  -0.7562  -0.7176  -0.6417  -0.5958  -0.5619
    -0.5290  -0.5032  -0.4420  -0.4318  -0.3493  -0.2817  -0.2537  -0.1978
    -0.1843  -0.1722  -0.1544  -0.1101  -0.0055   0.0113   0.0461   0.1449
     0.2067   0.2795   0.2970   0.3886   0.4188   0.4889   0.6047   0.6419
     0.7115   0.7749   0.8484   0.9341   0.9815   1.0272   1.1320   1.2182
     1.2334   1.2811   1.3089   1.3151   1.3163   1.3685   1.3882   1.5131
     2.1664   3.3656   3.3673   3.4241   3.4288   3.7283   3.7336   3.8397
     3.8432   4.0922   4.1133

     the Fermi energy is     2.5945 ev

!    total energy              =   -2972.74088983 Ry
     estimated scf accuracy    <       0.00000006 Ry
     smearing contrib. (-TS)   =      -0.00423069 Ry
     internal energy E=F+TS    =   -2972.73665914 Ry

     The total energy is F=E-TS. E is the sum of the following terms:
     one-electron contribution =  -23699.85379955 Ry
     hartree contribution      =   11945.20092379 Ry
     xc contribution           =    -493.11904083 Ry
     ewald contribution        =    9275.03442827 Ry
     electric field correction =       0.00082918 Ry

     convergence has been achieved in  81 iterations

     Forces acting on atoms (cartesian axes, Ry/au):

     atom    1 type  1   force =     0.00016388   -0.00043414    0.12195713
     atom    2 type  1   force =    -0.00004300    0.00028348   -0.15639563
     atom    3 type  2   force =     0.00004642   -0.00048279   -0.06045512
     atom    4 type  2   force =     0.00005056    0.00071313    0.01978234
     atom    5 type  2   force =    -0.00085341   -0.00260163   -0.01517262
     atom    6 type  2   force =     0.00220586   -0.00198594   -0.01653062
     atom    7 type  1   force =    -0.00030097   -0.00090665    0.05406387
     atom    8 type  1   force =     0.00081706    0.00108040    0.08999329
     atom    9 type  2   force =    -0.00035936   -0.00028423    0.00013212
     atom   10 type  2   force =    -0.00296021    0.00316607   -0.05922065
     atom   11 type  2   force =    -0.00026102    0.00019255    0.00007243
     atom   12 type  2   force =    -0.00022307    0.00014348   -0.00035836
     atom   13 type  1   force =    -0.00052382    0.00038845    0.00020434
     atom   14 type  1   force =     0.00006473    0.00141284   -0.00118352
     atom   15 type  2   force =    -0.00001995   -0.00069118   -0.00137809
     atom   16 type  2   force =     0.00011603    0.00070318    0.00057370
     atom   17 type  2   force =    -0.00077861   -0.00040067   -0.00008861
     atom   18 type  2   force =     0.00038882    0.00014237   -0.00030697
     atom   19 type  1   force =     0.00004005    0.00120818   -0.00020530
     atom   20 type  1   force =     0.00007815    0.00035751    0.00008246
     atom   21 type  2   force =     0.00009374   -0.00002795    0.09825482
     atom   22 type  2   force =     0.00036384   -0.00048021    0.00033060
     atom   23 type  2   force =    -0.08160538   -0.00005383   -0.03245500
     atom   24 type  2   force =     0.08159027    0.00036435   -0.03248843
     atom   25 type  1   force =     0.00002413   -0.00028679    0.12163403
     atom   26 type  1   force =     0.00003639   -0.00154763   -0.15641912
     atom   27 type  2   force =     0.00012762    0.00020779   -0.05941817
     atom   28 type  2   force =     0.00005388    0.00038739    0.01464737
     atom   29 type  2   force =    -0.00456186    0.00217583   -0.01160701
     atom   30 type  2   force =     0.00589372    0.00262273   -0.01291499
     atom   31 type  1   force =    -0.00043780   -0.00214258    0.04006463
     atom   32 type  1   force =     0.00078692   -0.00225078    0.09101322
     atom   33 type  2   force =    -0.00012522    0.00036345    0.00015802
     atom   34 type  2   force =    -0.00234988    0.00049143   -0.06872880
     atom   35 type  2   force =    -0.00020985    0.00005061    0.00028350
     atom   36 type  2   force =     0.00058513   -0.00027521    0.00004693
     atom   37 type  1   force =    -0.00002206    0.00022553   -0.00084050
     atom   38 type  1   force =     0.00013255    0.00106233   -0.00054707
     atom   39 type  2   force =    -0.00049145   -0.00121514    0.00049306
     atom   40 type  2   force =    -0.00001758    0.00045118   -0.00002931
     atom   41 type  2   force =     0.00085929   -0.00045511    0.00002364
     atom   42 type  2   force =    -0.00067502   -0.00074975   -0.00068056
     atom   43 type  1   force =    -0.00015513   -0.00122820    0.00017672
     atom   44 type  1   force =    -0.00013069   -0.00049004    0.00023502
     atom   45 type  2   force =     0.00009451    0.00008137    0.09806053
     atom   46 type  2   force =    -0.08155793   -0.00002820   -0.03245206
     atom   47 type  2   force =     0.08154356    0.00041248   -0.03246786
     atom   48 type  3   force =     0.00062692    0.00987432    0.00502544
     atom   49 type  3   force =    -0.00012345   -0.00248452    0.00082013
     atom   50 type  4   force =     0.00039820   -0.02720037   -0.00012220
     atom   51 type  5   force =     0.00022632    0.00516551   -0.00491205
     atom   52 type  5   force =     0.00036807    0.01209686   -0.00183796
     atom   53 type  5   force =     0.00014447    0.00189868    0.00118246
     atom   54 type  2   force =    -0.00050740    0.00102586   -0.00112131
     atom   55 type  5   force =     0.00137302   -0.00004581    0.00102608

     Total force =     0.409466     Total SCF correction =     0.000764
  @ DRIVER MODE: Message from server: STATUS
  @ DRIVER MODE: Message from server: GETFORCE
  @ DRIVER MODE: Returning v,forces,stress,ensemble

     Writing output data file ./calc.save/
  @ DRIVER MODE: Message from server: EXIT
  @ DRIVE MODE: Exiting

     General routines

     Parallel routines

   This run was terminated on:  21:46:16  22Sep2021

   JOB DONE.