     Program PWSCF v.6.7GPU starts on 15Sep2021 at 18: 8:50

     R & G space division:  proc/nbgrp/npool/nimage =      10
     Reading input from /storage/home/hcoda1/3/ntian30/research/carbon/CxH_vib/H2O_calc/ads_slab/CHNH2O_a/out_0008/pw.inp
Warning: card &CELL ignored
Warning: card   CELL_DYNAMICS='IPI', ignored
Warning: card / ignored

     Current dimensions of program PWSCF are:
     Max number of different atomic species (ntypx) = 10
     Max number of k-points (npk) =  40000
     Max angular momentum in pseudopotentials (lmaxx) =  3
     Presently no symmetry can be used with electric field

     Message from routine cell_base_init:
     DEPRECATED: use true lattice parameter, not A to a.u. conversion factor

     IMPORTANT: XC functional enforced from input :
     Exchange-correlation= BEEF-VDW
                           (   1   4  43  14   2   0   0)
     Any further DFT definition will be discarded
     Please, verify this is what you really want

  @ DRIVER MODE: Connecting to
 qe_1139763_2852627.sched-torque.pace.gatech.edur63nduv4_scratch
  using UNIX socket
  @ DRIVER MODE: Message from server: STATUS
  @ DRIVER MODE: Message from server: INIT
  @ DRIVER MODE: Receiving replica           0          -1
  @ DRIVER MODE: Receiving encoded integer          25
  @ DRIVER MODE:  SCF:  T  FORCE:  T  STRESS:  F  VC:  F  ENSEMBLE:  F
  @ DRIVER MODE:  SCF:  T  FORCE:  T  STRESS:  F  VC:  F  ENSEMBLE:  F

     Using Slab Decomposition

     bravais-lattice index     =            0
     lattice parameter (alat)  =       1.8897  a.u.
     unit-cell volume          =    6658.9804 (a.u.)^3
     number of atoms/cell      =           53
     number of atomic types    =            5
     number of electrons       =       396.00
     number of Kohn-Sham states=          208
     kinetic-energy cutoff     =      29.3995  Ry
     charge density cutoff     =     293.9946  Ry
     scf convergence threshold =      7.3E-08
     mixing beta               =       0.0500
     number of iterations used =            8  plain     mixing
     Exchange-correlation= BEEF-VDW
                           (   1   4  43  14   2   0   0)

     celldm(1)=   1.889726  celldm(2)=   0.000000  celldm(3)=   0.000000
     celldm(4)=   0.000000  celldm(5)=   0.000000  celldm(6)=   0.000000

     crystal axes: (cart. coord. in units of alat)
               a(1) = (   6.579727   0.000000   0.000000 )
               a(2) = (  -0.000775   5.961596   0.000000 )
               a(3) = (   0.000000   0.000000  25.155947 )

     reciprocal axes: (cart. coord. in units 2 pi/alat)
               b(1) = (  0.151982  0.000020  0.000000 )
               b(2) = (  0.000000  0.167740  0.000000 )
               b(3) = (  0.000000  0.000000  0.039752 )

     PseudoPot. # 1 for Ti read from file:
     /storage/coda1/p-amedford6/0/shared/rich_project_chbe-medford/medford-share/data/pseudos_module/espresso/nninc/pbe/van/Ti.UPF
     MD5 check sum: 8e4df49b7f0d34bbd5052bf3f5ea0213
     Pseudo is Ultrasoft, Zval = 12.0
     Generated by new atomic code, or converted to UPF format
     Using radial grid of  851 points,  6 beta functions with:
                l(1) =   0
                l(2) =   0
                l(3) =   1
                l(4) =   1
                l(5) =   2
                l(6) =   2
     Q(r) pseudized with  8 coefficients,  rinner =    1.000   1.000   1.000
                                                       1.000   1.000

     PseudoPot. # 2 for O  read from file:
     /storage/coda1/p-amedford6/0/shared/rich_project_chbe-medford/medford-share/data/pseudos_module/espresso/nninc/pbe/van/O.UPF
     MD5 check sum: 78c19812648e8988a0fe644b0f25305e
     Pseudo is Ultrasoft, Zval =  6.0
     Generated by new atomic code, or converted to UPF format
     Using radial grid of  737 points,  4 beta functions with:
                l(1) =   0
                l(2) =   0
                l(3) =   1
                l(4) =   1
     Q(r) pseudized with  8 coefficients,  rinner =    0.800   0.800   0.800

     PseudoPot. # 3 for N  read from file:
     /storage/coda1/p-amedford6/0/shared/rich_project_chbe-medford/medford-share/data/pseudos_module/espresso/nninc/pbe/van/N.UPF
     MD5 check sum: 90d10febe142ad51ac9d5be1deb811c4
     Pseudo is Ultrasoft, Zval =  5.0
     Generated by new atomic code, or converted to UPF format
     Using radial grid of  729 points,  4 beta functions with:
                l(1) =   0
                l(2) =   0
                l(3) =   1
                l(4) =   1
     Q(r) pseudized with  8 coefficients,  rinner =    0.800   0.800   0.800

     PseudoPot. # 4 for C  read from file:
     /storage/coda1/p-amedford6/0/shared/rich_project_chbe-medford/medford-share/data/pseudos_module/espresso/nninc/pbe/van/C.UPF
     MD5 check sum: 1a69bf6b8db32088f5b2163dbdb77a27
     Pseudo is Ultrasoft, Zval =  4.0
     Generated by new atomic code, or converted to UPF format
     Using radial grid of  721 points,  4 beta functions with:
                l(1) =   0
                l(2) =   0
                l(3) =   1
                l(4) =   1
     Q(r) pseudized with  8 coefficients,  rinner =    0.800   0.800   0.800

     PseudoPot. # 5 for H  read from file:
     /storage/coda1/p-amedford6/0/shared/rich_project_chbe-medford/medford-share/data/pseudos_module/espresso/nninc/pbe/van/H.UPF
     MD5 check sum: b5ee9d7bfd3a09ee7748110bda690ff7
     Pseudo is Ultrasoft, Zval =  1.0
     Generated by new atomic code, or converted to UPF format
     Using radial grid of  615 points,  1 beta functions with:
                l(1) =   0
     Q(r) pseudized with  8 coefficients,  rinner =    0.800

     atomic species   valence    mass     pseudopotential
        Ti1           12.00    47.86700     Ti( 1.00)
        O1             6.00    15.99900     O ( 1.00)
        N1             5.00    14.00700     N ( 1.00)
        C1             4.00    12.01100     C ( 1.00)
        H1             1.00     1.00800     H ( 1.00)

     No symmetry found

   Cartesian axes

     site n.     atom                  positions (alat units)
         1           Ti1 tau(   1) = (   0.0004258   2.9801865   6.0000000  )
         2           Ti1 tau(   2) = (   3.2906075   1.4906267   6.0002472  )
         3           O1  tau(   3) = (   0.0006271   0.0005054   7.9858123  )
         4           O1  tau(   4) = (   3.2906025   0.0005020   7.3038282  )
         5           O1  tau(   5) = (   4.5942328   1.4918067   9.2879030  )
         6           O1  tau(   6) = (   1.9868534   1.4903216   9.2879459  )
         7           Ti1 tau(   7) = (   3.2907910   2.8959150   9.1758416  )
         8           Ti1 tau(   8) = (   0.0015273   1.4827037   9.2680791  )
         9           O1  tau(   9) = (   3.3001320   0.0223556  11.3750156  )
        10           O1  tau(  10) = (   0.0116148   5.9584955  10.6183126  )
        11           O1  tau(  11) = (   1.2984793   1.5070296  12.6822906  )
        12           O1  tau(  12) = (   5.3053048   1.5066133  12.6782214  )
        13           Ti1 tau(  13) = (   0.0240538   2.9928608  12.5236668  )
        14           Ti1 tau(  14) = (   3.3205759   1.5163330  12.5292614  )
        15           O1  tau(  15) = (   0.0116174   5.9170763  14.6754219  )
        16           O1  tau(  16) = (   3.3074613   5.9602333  14.0123823  )
        17           O1  tau(  17) = (   4.5729729   1.5428591  16.1031931  )
        18           O1  tau(  18) = (   2.0357456   1.5455963  16.0959954  )
        19           Ti1 tau(  19) = (   3.3038618   3.0179751  15.7376193  )
        20           Ti1 tau(  20) = (   0.0182819   1.3639466  15.8252938  )
        21           O1  tau(  21) = (   3.2904802   0.0005063   4.7018136  )
        22           O1  tau(  22) = (   0.0233993   0.1148627  17.2261141  )
        23           O1  tau(  23) = (   1.3043587   1.4918075   6.0039043  )
        24           O1  tau(  24) = (   5.2767064   1.4903225   6.0039473  )
        25           Ti1 tau(  25) = (   0.0000382   5.9609847   6.0000000  )
        26           Ti1 tau(  26) = (   3.2902200   4.4714249   6.0002472  )
        27           O1  tau(  27) = (   0.0002396   2.9813036   7.9858123  )
        28           O1  tau(  28) = (   3.2902150   2.9813002   7.3038282  )
        29           O1  tau(  29) = (   4.5938453   4.4726049   9.2879030  )
        30           O1  tau(  30) = (   1.9864658   4.4711199   9.2879459  )
        31           Ti1 tau(  31) = (   3.2891106   5.8743827   9.1763621  )
        32           Ti1 tau(  32) = (   0.0006254   4.4649316   9.2693709  )
        33           O1  tau(  33) = (   3.3008157   2.9919736  11.3713264  )
        34           O1  tau(  34) = (   0.0092240   2.9805883  10.6323155  )
        35           O1  tau(  35) = (   1.3007438   4.4795902  12.6508594  )
        36           O1  tau(  36) = (   5.3032704   4.4808111  12.6474791  )
        37           Ti1 tau(  37) = (   0.0257871   0.0021926  12.5000826  )
        38           Ti1 tau(  38) = (   3.3207303   4.5031034  12.5344522  )
        39           O1  tau(  39) = (   0.0087802   3.0322157  14.9253570  )
        40           O1  tau(  40) = (   3.3068524   3.0154938  13.9499554  )
        41           O1  tau(  41) = (   4.5633958   4.4699756  16.2119971  )
        42           O1  tau(  42) = (   2.0378630   4.4655417  16.1963084  )
        43           Ti1 tau(  43) = (   3.3121544   0.0541299  15.8353365  )
        44           Ti1 tau(  44) = (   0.0163097   4.5868159  16.0488687  )
        45           O1  tau(  45) = (   3.2900926   2.9813045   4.7018136  )
        46           O1  tau(  46) = (   1.3039711   4.4726057   6.0039043  )
        47           O1  tau(  47) = (   5.2763189   4.4711207   6.0039473  )
        48           N1  tau(  48) = (   0.0062226   3.2377968  17.9635855  )
        49           C1  tau(  49) = (   6.5697590   2.5083335  18.8557918  )
        50           H1  tau(  50) = (   6.5336154   1.7992569  19.6484373  )
        51           O1  tau(  51) = (   3.2480284   5.9531242  18.4006015  )
        52           H1  tau(  52) = (   3.9795166   5.3132839  18.3896481  )
        53           H1  tau(  53) = (   2.4340588   5.4237150  18.3412978  )

     number of k points=    10  Fermi-Dirac smearing, width (Ry)=  0.0073
                       cart. coord. in units 2pi/alat
        k(    1) = (   0.0000000   0.0000000   0.0000000), wk =   0.1250000
        k(    2) = (   0.0000000   0.0419351   0.0000000), wk =   0.2500000
        k(    3) = (   0.0000000  -0.0838702   0.0000000), wk =   0.1250000
        k(    4) = (   0.0379955   0.0000049   0.0000000), wk =   0.2500000
        k(    5) = (   0.0379955   0.0419400   0.0000000), wk =   0.2500000
        k(    6) = (   0.0379955  -0.0838652   0.0000000), wk =   0.2500000
        k(    7) = (   0.0379955  -0.0419301   0.0000000), wk =   0.2500000
        k(    8) = (  -0.0759910  -0.0000099   0.0000000), wk =   0.1250000
        k(    9) = (  -0.0759910   0.0419252   0.0000000), wk =   0.2500000
        k(   10) = (  -0.0759910  -0.0838800   0.0000000), wk =   0.1250000

     Initial potential from superposition of free atoms

     starting charge  379.99917, renormalised to  396.00000

     negative rho (up, down):  1.669E-02 0.000E+00

     %%%%%%%%%%%%%%%%%%%%%%%%%%%%%%%%%%%%%%%%%%%%%%%%%%%%%%%%%%%%%%%%%%%%%%%%
     %                                                                      %
     % You are using vdW-DF, which was implemented by the Thonhauser group. %
     % Please cite the following two papers that made this development      %
     % possible and the two reviews that describe the various versions:     %
     %                                                                      %
     %   T. Thonhauser et al., PRL 115, 136402 (2015).                      %
     %   T. Thonhauser et al., PRB 76, 125112 (2007).                       %
     %   K. Berland et al., Rep. Prog. Phys. 78, 066501 (2015).             %
     %   D.C. Langreth et al., J. Phys.: Condens. Matter 21, 084203 (2009). %
     %                                                                      %
     %                                                                      %
     % If you are calculating the stress with vdW-DF, please also cite:     %
     %                                                                      %
     %   R. Sabatini et al., J. Phys.: Condens. Matter 24, 424209 (2012).   %
     %                                                                      %
     %%%%%%%%%%%%%%%%%%%%%%%%%%%%%%%%%%%%%%%%%%%%%%%%%%%%%%%%%%%%%%%%%%%%%%%%

     Adding external electric field

     Computed dipole along edir(3) :
        Dipole               -9.4938 Ry au,        -24.1308 Debye
        Dipole field         -0.0179 Ry au,

        Potential amp.        1.6608 Ry
        Total length         46.3494 bohr

     Starting wfcs are  299 atomic wfcs
  @ DRIVER MODE: Message from server: STATUS
  @ DRIVER MODE: Message from server: POSDATA
  @ DRIVER MODE: Reading and sharing cell
  @ DRIVER MODE: Reading and sharing positions
  @ DRIVER MODE: Received positions

     Self-consistent Calculation

     iteration #  1     ecut=    29.40 Ry     beta= 0.05
     Davidson diagonalization with overlap
     c_bands:  1 eigenvalues not converged
     c_bands:  1 eigenvalues not converged
     c_bands:  2 eigenvalues not converged
     c_bands:  3 eigenvalues not converged
     c_bands:  3 eigenvalues not converged
     c_bands:  2 eigenvalues not converged
     c_bands:  3 eigenvalues not converged
     c_bands:  1 eigenvalues not converged
     c_bands:  2 eigenvalues not converged
     c_bands:  2 eigenvalues not converged
     ethr =  1.00E-05,  avg # of iterations = 20.0

[...]

     total energy              =   -2563.41294231 Ry
     estimated scf accuracy    <    4341.72181980 Ry

     iteration #  2     ecut=    29.40 Ry     beta= 0.05
     Davidson diagonalization with overlap
     ethr =  1.00E-02,  avg # of iterations = 24.0

[...]

     iteration # 80     ecut=    29.40 Ry     beta= 0.05
     Davidson diagonalization with overlap
     ethr =  3.75E-11,  avg # of iterations =  9.3

[...]

     total energy              =   -2951.44742805 Ry
     estimated scf accuracy    <       0.00000010 Ry

     iteration # 81     ecut=    29.40 Ry     beta= 0.05
     Davidson diagonalization with overlap
     c_bands:  1 eigenvalues not converged
     ethr =  2.54E-11,  avg # of iterations = 11.5

     negative rho (up, down):  1.630E-02 0.000E+00

     Adding external electric field

     Computed dipole along edir(3) :
        Dipole                1.4824 Ry au,          3.7680 Debye
        Dipole field          0.0028 Ry au,

        Potential amp.       -0.2593 Ry
        Total length         46.3494 bohr

     End of self-consistent calculation

          k = 0.0000 0.0000 0.0000 ( 18029 PWs)   bands (ev):

   -55.3155 -55.2796 -55.2787 -55.2446 -55.2261 -55.1937 -55.1564 -55.1380
   -55.1182 -55.1073 -55.1033 -55.0927 -55.0738 -55.0069 -54.3034 -54.2694
   -31.8753 -31.7703 -31.7107 -31.6825 -31.6344 -31.6268 -31.6120 -31.6115
   -31.5678 -31.5330 -31.5264 -31.5232 -31.5006 -31.4873 -31.4633 -31.4605
   -31.4562 -31.4539 -31.4368 -31.4307 -31.4023 -31.3917 -31.3859 -31.3736
   -31.3674 -31.3387 -31.3375 -31.3358 -31.3246 -31.3231 -31.3217 -31.3045
   -31.2964 -31.2903 -31.2863 -31.2627 -31.2516 -31.2403 -31.2355 -31.2175
   -31.2161 -31.1244 -30.7126 -30.6188 -30.5967 -30.5289 -30.4422 -30.3314
   -18.9172 -17.3430 -16.1214 -15.8666 -15.7137 -15.6131 -15.5140 -15.3726
   -15.3185 -15.2087 -15.1430 -15.0025 -14.9656 -14.9474 -14.9295 -14.9275
   -14.8824 -14.8551 -14.8491 -14.8159 -14.8132 -14.7870 -14.7510 -14.7420
   -14.7117 -14.6959 -14.6495 -14.5412 -14.4718 -14.4086 -14.1125 -12.8059
   -12.6885  -8.9807  -6.6460  -4.6247  -3.4665  -3.4330  -3.3268  -3.2212
    -3.2137  -3.1887  -3.1707  -3.0604  -3.0248  -2.7752  -2.7187  -2.6604
    -2.5710  -2.4986  -2.4872  -2.4477  -2.3196  -2.2770  -2.2366  -2.1681
    -2.1506  -2.1240  -2.1002  -2.0909  -2.0315  -2.0249  -2.0010  -1.8841
    -1.8434  -1.7760  -1.7260  -1.7093  -1.6562  -1.6351  -1.6041  -1.6033
    -1.5984  -1.5532  -1.5518  -1.4968  -1.4858  -1.3803  -1.3391  -1.1508
    -1.0566  -0.9984  -0.9541  -0.8871  -0.8729  -0.7992  -0.7593  -0.7042
    -0.7019  -0.6450  -0.5247  -0.4342  -0.4121  -0.3838  -0.2980  -0.2618
    -0.2000  -0.1835  -0.0958  -0.0828  -0.0762  -0.0688   0.0602   0.1093
     0.1901   0.1956   0.2453   0.2656   0.3437   0.3584   0.4287   0.4669
     0.5227   0.5669   0.6231   0.6313   0.6565   0.6767   0.6933   0.7833
     0.7966   0.8239   0.8982   1.0350   1.2254   1.2960   1.3180   1.6269
     1.6479   1.7194   1.9043   2.2951   2.3432   3.7783   3.8572   3.9196
     3.9290   3.9412   4.0143   4.2609   4.2778   4.2790   4.2943   4.3214

[...]

          k = 0.0380-0.0419 0.0000 ( 17876 PWs)   bands (ev):

[...]

          k =-0.0760-0.0000 0.0000 ( 17886 PWs)   bands (ev):

[...]

          k =-0.0760-0.0839 0.0000 ( 17948 PWs)   bands (ev):

   -55.2991 -55.2958 -55.2617 -55.2614 -55.2238 -55.1823 -55.1677 -55.1227
   -55.1180 -55.1152 -55.0949 -55.0912 -55.0901 -55.0098 -54.2865 -54.2862
   -31.6841 -31.6761 -31.6331 -31.5855 -31.5852 -31.5710 -31.5628 -31.5533
   -31.5531 -31.5265 -31.5158 -31.5133 -31.5036 -31.4716 -31.4552 -31.4509
   -31.4466 -31.4441 -31.4423 -31.4360 -31.4310 -31.3983 -31.3956 -31.3950
   -31.3813 -31.3811 -31.3786 -31.3745 -31.3620 -31.3553 -31.3489 -31.3429
   -31.3360 -31.3315 -31.3199 -31.3184 -31.3118 -31.2786 -31.2710 -31.2701
   -31.2238 -31.2157 -30.6095 -30.6092 -30.5252 -30.5251 -30.4856 -30.4855
   -18.9163 -17.3381 -15.6576 -15.5527 -15.4429 -15.3229 -15.3149 -15.2583
   -15.2107 -15.1302 -15.0890 -15.0764 -15.0559 -15.0417 -15.0108 -15.0070
   -14.9865 -14.9121 -14.9014 -14.8912 -14.8680 -14.8263 -14.8157 -14.8130
   -14.7958 -14.7702 -14.7661 -14.6714 -14.6684 -14.5737 -14.4485 -12.7901
   -12.7899  -8.9786  -6.6392  -4.6115  -3.3346  -3.2565  -2.9289  -2.8196
    -2.7752  -2.6845  -2.5342  -2.5048  -2.4339  -2.4278  -2.3607  -2.3086
    -2.2943  -2.2751  -2.1920  -2.1753  -2.1646  -2.1524  -2.1395  -2.1113
    -2.0882  -2.0407  -2.0375  -2.0360  -2.0270  -2.0061  -1.9704  -1.9507
    -1.9113  -1.9022  -1.8810  -1.8342  -1.7921  -1.7745  -1.7572  -1.6519
    -1.6254  -1.5189  -1.5141  -1.4142  -1.4096  -1.3822  -1.3572  -1.3476
    -1.2795  -1.2126  -1.0605  -1.0510  -1.0185  -0.9406  -0.9285  -0.8713
    -0.8646  -0.7797  -0.7627  -0.7343  -0.6394  -0.6092  -0.5057  -0.4919
    -0.4837  -0.3466  -0.3428  -0.2865  -0.2747  -0.2718  -0.2039  -0.1977
    -0.1916  -0.1106  -0.0761  -0.0491  -0.0379   0.0155   0.2037   0.2309
     0.2608   0.3837   0.4315   0.5716   0.6652   0.6701   0.7407   0.8034
     0.8219   0.8823   0.9796   0.9930   1.0495   1.0796   1.1279   1.1430
     1.1531   2.0765   2.0776   2.1631   2.1632   3.8941   3.9938   4.0610
     4.1116   4.1251   4.2143   4.2993   4.3281   4.3608   4.3627   4.4420

     the Fermi energy is     3.8360 ev

!    total energy              =   -2951.44743824 Ry
     estimated scf accuracy    <       0.00000006 Ry
     smearing contrib. (-TS)   =      -0.03730397 Ry
     internal energy E=F+TS    =   -2951.41013427 Ry

     The total energy is F=E-TS. E is the sum of the following terms:
     one-electron contribution =  -24061.02446164 Ry
     hartree contribution      =   12123.57865150 Ry
     xc contribution           =    -487.22836837 Ry
     ewald contribution        =    9473.25989706 Ry
     electric field correction =       0.00414718 Ry

     convergence has been achieved in  81 iterations

     Forces acting on atoms (cartesian axes, Ry/au):

     atom    1 type  1   force =    -0.00003242   -0.00025729    0.09359479
     atom    2 type  1   force =    -0.00016363   -0.00044514   -0.17784620
     atom    3 type  2   force =     0.00002732   -0.00025989   -0.02077199
     atom    4 type  2   force =    -0.00003183   -0.00179951    0.05843153
     atom    5 type  2   force =    -0.01030779   -0.00058655    0.00697617
     atom    6 type  2   force =     0.01197272    0.00004692    0.00668918
     atom    7 type  1   force =    -0.00013269    0.00222006   -0.01163671
     atom    8 type  1   force =    -0.00006847    0.00226517   -0.00163629
     atom    9 type  2   force =     0.00007369    0.00060631    0.00060480
     atom   10 type  2   force =    -0.00107029    0.00321677   -0.00394604
     atom   11 type  2   force =     0.00037143   -0.00031462   -0.00029992
     atom   12 type  2   force =    -0.00040598   -0.00031639   -0.00017164
     atom   13 type  1   force =     0.00000682    0.00014791    0.00023679
     atom   14 type  1   force =    -0.00000366   -0.00047020    0.00042627
     atom   15 type  2   force =    -0.00027366   -0.00067416    0.00064736
     atom   16 type  2   force =    -0.00002048    0.00043471    0.00022627
     atom   17 type  2   force =     0.00005010   -0.00024715   -0.00023051
     atom   18 type  2   force =     0.00017442   -0.00029775   -0.00047664
     atom   19 type  1   force =    -0.00042374   -0.00121274   -0.00019330
     atom   20 type  1   force =     0.00015274    0.00000749   -0.00079026
     atom   21 type  2   force =    -0.00001314   -0.00011777    0.10390611
     atom   22 type  2   force =    -0.00003543    0.00051483   -0.00047828
     atom   23 type  2   force =    -0.07055372   -0.00021560   -0.02695751
     atom   24 type  2   force =     0.07034679    0.00021802   -0.02700957
     atom   25 type  1   force =    -0.00001821   -0.00027958    0.09314304
     atom   26 type  1   force =    -0.00019646   -0.00052361   -0.17811558
     atom   27 type  2   force =     0.00007126   -0.00021120   -0.01971105
     atom   28 type  2   force =     0.00001730   -0.00155743    0.05763916
     atom   29 type  2   force =    -0.01083904   -0.00007800    0.00741296
     atom   30 type  2   force =     0.01236547    0.00025988    0.00709279
     atom   31 type  1   force =    -0.00009434    0.00572848   -0.01416540
     atom   32 type  1   force =    -0.00009140   -0.00267382   -0.00142110
     atom   33 type  2   force =     0.00010921   -0.00051681    0.00032822
     atom   34 type  2   force =    -0.00048253   -0.00029463   -0.00098692
     atom   35 type  2   force =    -0.00032755   -0.00017593   -0.00031945
     atom   36 type  2   force =     0.00032927   -0.00029968   -0.00011410
     atom   37 type  1   force =     0.00011219   -0.00043106    0.00059193
     atom   38 type  1   force =    -0.00002221   -0.00060349   -0.00028513
     atom   39 type  2   force =     0.00002657    0.00016301    0.00018489
     atom   40 type  2   force =    -0.00007557   -0.00013847   -0.00004834
     atom   41 type  2   force =     0.00002363    0.00014936    0.00040690
     atom   42 type  2   force =     0.00016706    0.00021757    0.00043567
     atom   43 type  1   force =    -0.00042618    0.00063908   -0.00040541
     atom   44 type  1   force =     0.00030829    0.00038964   -0.00038940
     atom   45 type  2   force =    -0.00001951   -0.00015276    0.10387595
     atom   46 type  2   force =    -0.07053682   -0.00015940   -0.02694814
     atom   47 type  2   force =     0.07034067    0.00027242   -0.02700650
     atom   48 type  3   force =     0.00096364   -0.00049465    0.00017700
     atom   49 type  4   force =    -0.00197560   -0.00045999    0.00059647
     atom   50 type  5   force =     0.00085039   -0.00096025   -0.00047509
     atom   51 type  2   force =     0.00027827    0.00051137   -0.00056772
     atom   52 type  5   force =    -0.00000114   -0.00058450   -0.00023029
     atom   53 type  5   force =    -0.00049579   -0.00019900    0.00001023

     Total force =     0.365867     Total SCF correction =     0.000380
  @ DRIVER MODE: Message from server: STATUS
  @ DRIVER MODE: Message from server: GETFORCE
  @ DRIVER MODE: Returning v,forces,stress,ensemble

     Writing output data file ./calc.save/
  @ DRIVER MODE: Message from server: EXIT
  @ DRIVE MODE: Exiting

     General routines

     Parallel routines

   This run was terminated on:  18:28:20  15Sep2021

   JOB DONE.