     Program PWSCF v.6.7GPU starts on 14Sep2021 at 15:22:39

     R & G space division:  proc/nbgrp/npool/nimage =      10
     Reading input from /storage/home/hcoda1/3/ntian30/research/carbon/CxH_vib/CH_calc/ads_slab/CHOHN2_a/out_0005/pw.inp
Warning: card &CELL ignored
Warning: card   CELL_DYNAMICS='IPI', ignored
Warning: card / ignored

     Current dimensions of program PWSCF are:
     Max number of different atomic species (ntypx) = 10
     Max number of k-points (npk) =  40000
     Max angular momentum in pseudopotentials (lmaxx) =  3
     Presently no symmetry can be used with electric field

     Message from routine cell_base_init:
     DEPRECATED: use true lattice parameter, not A to a.u. conversion factor

     IMPORTANT: XC functional enforced from input :
     Exchange-correlation= BEEF-VDW
                           (   1   4  43  14   2   0   0)
     Any further DFT definition will be discarded
     Please, verify this is what you really want

  @ DRIVER MODE: Connecting to
 qe_1139763_2840439.sched-torque.pace.gatech.edu4j8trhlu_scratch
  using UNIX socket
  @ DRIVER MODE: Message from server: STATUS
  @ DRIVER MODE: Message from server: INIT
  @ DRIVER MODE: Receiving replica           0          -1
  @ DRIVER MODE: Receiving encoded integer          25
  @ DRIVER MODE:  SCF:  T  FORCE:  T  STRESS:  F  VC:  F  ENSEMBLE:  F
  @ DRIVER MODE:  SCF:  T  FORCE:  T  STRESS:  F  VC:  F  ENSEMBLE:  F

     Using Slab Decomposition

     bravais-lattice index     =            0
     lattice parameter (alat)  =       1.8897  a.u.
     unit-cell volume          =    6658.9804 (a.u.)^3
     number of atoms/cell      =           53
     number of atomic types    =            5
     number of electrons       =       400.00
     number of Kohn-Sham states=          210
     kinetic-energy cutoff     =      29.3995  Ry
     charge density cutoff     =     293.9946  Ry
     scf convergence threshold =      7.3E-08
     mixing beta               =       0.0500
     number of iterations used =            8  plain     mixing
     Exchange-correlation= BEEF-VDW
                           (   1   4  43  14   2   0   0)

     celldm(1)=   1.889726  celldm(2)=   0.000000  celldm(3)=   0.000000
     celldm(4)=   0.000000  celldm(5)=   0.000000  celldm(6)=   0.000000

     crystal axes: (cart. coord. in units of alat)
               a(1) = (   6.579727   0.000000   0.000000 )
               a(2) = (  -0.000775   5.961596   0.000000 )
               a(3) = (   0.000000   0.000000  25.155947 )

     reciprocal axes: (cart. coord. in units 2 pi/alat)
               b(1) = (  0.151982  0.000020  0.000000 )
               b(2) = (  0.000000  0.167740  0.000000 )
               b(3) = (  0.000000  0.000000  0.039752 )

     PseudoPot. # 1 for C  read from file:
     /storage/coda1/p-amedford6/0/shared/rich_project_chbe-medford/medford-share/data/pseudos_module/espresso/nninc/pbe/van/C.UPF
     MD5 check sum: 1a69bf6b8db32088f5b2163dbdb77a27
     Pseudo is Ultrasoft, Zval =  4.0
     Generated by new atomic code, or converted to UPF format
     Using radial grid of  721 points,  4 beta functions with:
                l(1) =   0
                l(2) =   0
                l(3) =   1
                l(4) =   1
     Q(r) pseudized with  8 coefficients,  rinner =    0.800   0.800   0.800

     PseudoPot. # 2 for H  read from file:
     /storage/coda1/p-amedford6/0/shared/rich_project_chbe-medford/medford-share/data/pseudos_module/espresso/nninc/pbe/van/H.UPF
     MD5 check sum: b5ee9d7bfd3a09ee7748110bda690ff7
     Pseudo is Ultrasoft, Zval =  1.0
     Generated by new atomic code, or converted to UPF format
     Using radial grid of  615 points,  1 beta functions with:
                l(1) =   0
     Q(r) pseudized with  8 coefficients,  rinner =    0.800

     PseudoPot. # 3 for O  read from file:
     /storage/coda1/p-amedford6/0/shared/rich_project_chbe-medford/medford-share/data/pseudos_module/espresso/nninc/pbe/van/O.UPF
     MD5 check sum: 78c19812648e8988a0fe644b0f25305e
     Pseudo is Ultrasoft, Zval =  6.0
     Generated by new atomic code, or converted to UPF format
     Using radial grid of  737 points,  4 beta functions with:
                l(1) =   0
                l(2) =   0
                l(3) =   1
                l(4) =   1
     Q(r) pseudized with  8 coefficients,  rinner =    0.800   0.800   0.800

     PseudoPot. # 4 for Ti read from file:
     /storage/coda1/p-amedford6/0/shared/rich_project_chbe-medford/medford-share/data/pseudos_module/espresso/nninc/pbe/van/Ti.UPF
     MD5 check sum: 8e4df49b7f0d34bbd5052bf3f5ea0213
     Pseudo is Ultrasoft, Zval = 12.0
     Generated by new atomic code, or converted to UPF format
     Using radial grid of  851 points,  6 beta functions with:
                l(1) =   0
                l(2) =   0
                l(3) =   1
                l(4) =   1
                l(5) =   2
                l(6) =   2
     Q(r) pseudized with  8 coefficients,  rinner =    1.000   1.000   1.000
                                                       1.000   1.000

     PseudoPot. # 5 for N  read from file:
     /storage/coda1/p-amedford6/0/shared/rich_project_chbe-medford/medford-share/data/pseudos_module/espresso/nninc/pbe/van/N.UPF
     MD5 check sum: 90d10febe142ad51ac9d5be1deb811c4
     Pseudo is Ultrasoft, Zval =  5.0
     Generated by new atomic code, or converted to UPF format
     Using radial grid of  729 points,  4 beta functions with:
                l(1) =   0
                l(2) =   0
                l(3) =   1
                l(4) =   1
     Q(r) pseudized with  8 coefficients,  rinner =    0.800   0.800   0.800

     atomic species   valence    mass     pseudopotential
        C1             4.00    12.01100     C ( 1.00)
        H1             1.00     1.00800     H ( 1.00)
        O1             6.00    15.99900     O ( 1.00)
        Ti1           12.00    47.86700     Ti( 1.00)
        N1             5.00    14.00700     N ( 1.00)

     No symmetry found

   Cartesian axes

     site n.     atom                  positions (alat units)
         1           C1  tau(   1) = (   5.6818245   3.0934261  18.8613826  )
         2           H1  tau(   2) = (   0.9295697   3.0331078  18.1055300  )
         3           H1  tau(   3) = (   5.3049293   4.0639705  19.1352297  )
         4           O1  tau(   4) = (   3.2904802   0.0005063   4.7018136  )
         5           O1  tau(   5) = (   3.2900926   2.9813045   4.7018136  )
         6           O1  tau(   6) = (   1.3043587   1.4918075   6.0039043  )
         7           O1  tau(   7) = (   1.3039711   4.4726057   6.0039043  )
         8           O1  tau(   8) = (   5.2767064   1.4903225   6.0039473  )
         9           O1  tau(   9) = (   5.2763189   4.4711207   6.0039473  )
        10           O1  tau(  10) = (   3.2906025   0.0005020   7.3038282  )
        11           O1  tau(  11) = (   3.2902150   2.9813002   7.3038282  )
        12           O1  tau(  12) = (   0.0006271   0.0005054   7.9858123  )
        13           O1  tau(  13) = (   0.0002396   2.9813036   7.9858123  )
        14           O1  tau(  14) = (   4.5942328   1.4918067   9.2879030  )
        15           O1  tau(  15) = (   4.5938453   4.4726049   9.2879030  )
        16           O1  tau(  16) = (   1.9868534   1.4903216   9.2879459  )
        17           O1  tau(  17) = (   1.9864658   4.4711199   9.2879459  )
        18           O1  tau(  18) = (   6.5737290   0.0025997  10.6073112  )
        19           O1  tau(  19) = (   6.5745157   2.9846488  10.6292520  )
        20           O1  tau(  20) = (   3.2733922   2.9888808  11.3669225  )
        21           O1  tau(  21) = (   3.2734535   0.0083669  11.3733985  )
        22           O1  tau(  22) = (   1.2686495   4.4776606  12.6533150  )
        23           O1  tau(  23) = (   1.2691242   1.4995788  12.6525255  )
        24           O1  tau(  24) = (   5.2697113   4.4789153  12.6558726  )
        25           O1  tau(  25) = (   5.2698035   1.4991558  12.6558074  )
        26           O1  tau(  26) = (   3.2614338   2.9920807  13.9552461  )
        27           O1  tau(  27) = (   3.2541646   0.0113981  14.0020514  )
        28           O1  tau(  28) = (   6.5688946   0.0096870  14.6775192  )
        29           O1  tau(  29) = (   6.5667413   2.9928499  14.8718366  )
        30           O1  tau(  30) = (   4.5340645   4.4751187  16.1466513  )
        31           O1  tau(  31) = (   4.5349815   1.5188077  16.1513287  )
        32           O1  tau(  32) = (   2.0116004   1.5352794  16.1924295  )
        33           O1  tau(  33) = (   2.0125852   4.4566501  16.1924965  )
        34           O1  tau(  34) = (   6.5583959   0.0051910  17.1951124  )
        35           O1  tau(  35) = (   0.0128280   2.9917589  17.7791131  )
        36           Ti1 tau(  36) = (   0.0004258   2.9801865   6.0000000  )
        37           Ti1 tau(  37) = (   0.0000382   5.9609847   6.0000000  )
        38           Ti1 tau(  38) = (   3.2906075   1.4906267   6.0002472  )
        39           Ti1 tau(  39) = (   3.2902200   4.4714249   6.0002472  )
        40           Ti1 tau(  40) = (   3.3204229   0.0006979   9.1540291  )
        41           Ti1 tau(  41) = (   3.3226256   2.9815539   9.1563990  )
        42           Ti1 tau(  42) = (   0.0414996   4.4578595   9.2720048  )
        43           Ti1 tau(  43) = (   0.0419130   1.4910583   9.2667342  )
        44           Ti1 tau(  44) = (   6.5463313   0.0151476  12.4833176  )
        45           Ti1 tau(  45) = (   3.2510826   4.4792010  12.5152252  )
        46           Ti1 tau(  46) = (   3.2519543   1.5009035  12.5151888  )
        47           Ti1 tau(  47) = (   6.5510796   2.9946678  12.5453677  )
        48           Ti1 tau(  48) = (   3.2768179   2.9983465  15.7329562  )
        49           Ti1 tau(  49) = (   3.2517467   0.0179395  15.7976682  )
        50           Ti1 tau(  50) = (   6.5407926   4.5826425  15.9111250  )
        51           Ti1 tau(  51) = (   6.5448107   1.3670631  15.9596882  )
        52           N1  tau(  52) = (   4.6962475   1.0170953  19.6889386  )
        53           N1  tau(  53) = (   5.1479752   2.0001232  19.2934520  )

     number of k points=    10  Fermi-Dirac smearing, width (Ry)=  0.0073
                       cart. coord. in units 2pi/alat
        k(    1) = (   0.0000000   0.0000000   0.0000000), wk =   0.1250000
        k(    2) = (   0.0000000   0.0419351   0.0000000), wk =   0.2500000
        k(    3) = (   0.0000000  -0.0838702   0.0000000), wk =   0.1250000
        k(    4) = (   0.0379955   0.0000049   0.0000000), wk =   0.2500000
        k(    5) = (   0.0379955   0.0419400   0.0000000), wk =   0.2500000
        k(    6) = (   0.0379955  -0.0838652   0.0000000), wk =   0.2500000
        k(    7) = (   0.0379955  -0.0419301   0.0000000), wk =   0.2500000
        k(    8) = (  -0.0759910  -0.0000099   0.0000000), wk =   0.1250000
        k(    9) = (  -0.0759910   0.0419252   0.0000000), wk =   0.2500000
        k(   10) = (  -0.0759910  -0.0838800   0.0000000), wk =   0.1250000

     Initial potential from superposition of free atoms

     starting charge  383.99917, renormalised to  400.00000

     negative rho (up, down):  1.646E-02 0.000E+00

     %%%%%%%%%%%%%%%%%%%%%%%%%%%%%%%%%%%%%%%%%%%%%%%%%%%%%%%%%%%%%%%%%%%%%%%%
     %                                                                      %
     % You are using vdW-DF, which was implemented by the Thonhauser group. %
     % Please cite the following two papers that made this development      %
     % possible and the two reviews that describe the various versions:     %
     %                                                                      %
     %   T. Thonhauser et al., PRL 115, 136402 (2015).                      %
     %   T. Thonhauser et al., PRB 76, 125112 (2007).                       %
     %   K. Berland et al., Rep. Prog. Phys. 78, 066501 (2015).             %
     %   D.C. Langreth et al., J. Phys.: Condens. Matter 21, 084203 (2009). %
     %                                                                      %
     %                                                                      %
     % If you are calculating the stress with vdW-DF, please also cite:     %
     %                                                                      %
     %   R. Sabatini et al., J. Phys.: Condens. Matter 24, 424209 (2012).   %
     %                                                                      %
     %%%%%%%%%%%%%%%%%%%%%%%%%%%%%%%%%%%%%%%%%%%%%%%%%%%%%%%%%%%%%%%%%%%%%%%%

     Adding external electric field

     Computed dipole along edir(3) :
        Dipole              -12.5202 Ry au,        -31.8232 Debye
        Dipole field         -0.0236 Ry au,

        Potential amp.        2.1902 Ry
        Total length         46.3494 bohr

     Starting wfcs are  302 atomic wfcs
  @ DRIVER MODE: Message from server: STATUS
  @ DRIVER MODE: Message from server: POSDATA
  @ DRIVER MODE: Reading and sharing cell
  @ DRIVER MODE: Reading and sharing positions
  @ DRIVER MODE: Received positions

     Self-consistent Calculation

     iteration #  1     ecut=    29.40 Ry     beta= 0.05
     Davidson diagonalization with overlap
     c_bands:  3 eigenvalues not converged
     c_bands:  1 eigenvalues not converged
     c_bands:  4 eigenvalues not converged
     c_bands:  1 eigenvalues not converged
     c_bands:  5 eigenvalues not converged
     c_bands:  4 eigenvalues not converged
     c_bands:  5 eigenvalues not converged
     c_bands:  1 eigenvalues not converged
     ethr =  1.00E-05,  avg # of iterations = 20.9

[...]

     total energy              =   -2397.69482582 Ry
     estimated scf accuracy    <    6488.36955005 Ry

     iteration #  2     ecut=    29.40 Ry     beta= 0.05
     Davidson diagonalization with overlap
     ethr =  1.00E-02,  avg # of iterations = 22.1

[...]

     iteration # 69     ecut=    29.40 Ry     beta= 0.05
     Davidson diagonalization with overlap
     c_bands:  1 eigenvalues not converged
     ethr =  5.03E-11,  avg # of iterations = 14.2

[...]

     total energy              =   -2970.16551511 Ry
     estimated scf accuracy    <       0.00000008 Ry

     iteration # 73     ecut=    29.40 Ry     beta= 0.05
     Davidson diagonalization with overlap
     ethr =  2.12E-11,  avg # of iterations =  9.2

     negative rho (up, down):  1.635E-02 0.000E+00

     Adding external electric field

     Computed dipole along edir(3) :
        Dipole                0.8223 Ry au,          2.0901 Debye
        Dipole field          0.0016 Ry au,

        Potential amp.       -0.1438 Ry
        Total length         46.3494 bohr

     End of self-consistent calculation

          k = 0.0000 0.0000 0.0000 ( 18029 PWs)   bands (ev):

   -55.5680 -55.5355 -55.5320 -55.5011 -55.4609 -55.4555 -55.4426 -55.4095
   -55.4040 -55.3894 -55.3698 -55.3534 -55.3488 -55.3149 -54.6287 -54.5946
   -32.1395 -32.0668 -32.0308 -31.9398 -31.8873 -31.8794 -31.8706 -31.8583
   -31.8237 -31.8151 -31.7782 -31.7781 -31.7733 -31.7504 -31.7450 -31.7221
   -31.7146 -31.7024 -31.6925 -31.6895 -31.6877 -31.6811 -31.6609 -31.6517
   -31.6510 -31.6327 -31.6318 -31.6024 -31.5949 -31.5927 -31.5776 -31.5548
   -31.5547 -31.5527 -31.5444 -31.5333 -31.5208 -31.5029 -31.4875 -31.4840
   -31.4715 -31.4594 -31.0409 -30.9378 -30.9163 -30.8572 -30.7709 -30.6598
   -21.0962 -20.2978 -16.3966 -16.1342 -15.9885 -15.8893 -15.7832 -15.6478
   -15.6257 -15.5072 -15.3759 -15.3004 -15.2310 -15.2279 -15.2142 -15.1963
   -15.1875 -15.1795 -15.1228 -15.0949 -15.0709 -15.0545 -15.0464 -15.0108
   -14.9557 -14.9489 -14.9262 -14.7975 -14.7271 -14.6676 -14.3635 -14.2526
   -13.1291 -13.0096  -8.5255  -6.7985  -5.6593  -4.5318  -4.0272  -3.7459
    -3.7230  -3.5750  -3.4989  -3.4848  -3.4183  -3.3117  -3.1742  -2.9980
    -2.9127  -2.8516  -2.8244  -2.7758  -2.7435  -2.7018  -2.5258  -2.5136
    -2.4804  -2.4594  -2.4446  -2.4348  -2.4035  -2.3359  -2.3206  -2.3036
    -2.2791  -2.1497  -2.1311  -2.0438  -1.9914  -1.9652  -1.9063  -1.8895
    -1.8851  -1.8551  -1.8374  -1.8212  -1.8168  -1.7592  -1.5929  -1.5915
    -1.4834  -1.4309  -1.3469  -1.2905  -1.1262  -1.1252  -1.0713  -1.0600
    -1.0112  -0.9711  -0.9650  -0.9261  -0.8093  -0.7225  -0.6749  -0.6074
    -0.5661  -0.5226  -0.4673  -0.3617  -0.3545  -0.3383  -0.3240  -0.2001
    -0.1372  -0.0880  -0.0635  -0.0238  -0.0073   0.0877   0.1087   0.1940
     0.2030   0.2566   0.2584   0.3627   0.3765   0.3806   0.4037   0.4252
     0.5128   0.5844   0.5894   0.6017   0.7758   0.9654   0.9918   1.0326
     1.2846   1.3860   1.3976   1.5375   1.5565   1.9845   2.0400   3.5297
     3.5970   3.6371   3.6548   3.6716   3.7369   3.9938   4.0194   4.0348
     4.0522   4.0586

[...]

          k = 0.0380-0.0419 0.0000 ( 17876 PWs)   bands (ev):

[...]

          k =-0.0760-0.0000 0.0000 ( 17886 PWs)   bands (ev):

[...]

          k =-0.0760-0.0839 0.0000 ( 17948 PWs)   bands (ev):

   -55.5504 -55.5494 -55.5201 -55.5163 -55.4577 -55.4478 -55.4361 -55.4171
   -55.3962 -55.3879 -55.3856 -55.3561 -55.3328 -55.3310 -54.6116 -54.6116
   -31.9877 -31.9431 -31.9416 -31.8581 -31.8475 -31.8439 -31.8300 -31.8128
   -31.8054 -31.7854 -31.7701 -31.7673 -31.7635 -31.7210 -31.7191 -31.7091
   -31.7046 -31.7034 -31.6950 -31.6886 -31.6886 -31.6874 -31.6684 -31.6511
   -31.6490 -31.6485 -31.6458 -31.6432 -31.6390 -31.6368 -31.6344 -31.6090
   -31.6026 -31.5956 -31.5861 -31.5857 -31.5730 -31.5581 -31.5566 -31.5368
   -31.5189 -31.5162 -30.9288 -30.9288 -30.8536 -30.8535 -30.8141 -30.8140
   -21.0940 -20.2974 -15.9430 -15.8316 -15.7492 -15.5701 -15.5624 -15.5620
   -15.5305 -15.3888 -15.3718 -15.3616 -15.3249 -15.3195 -15.2971 -15.2835
   -15.2669 -15.1595 -15.1585 -15.1509 -15.1490 -15.0840 -15.0808 -15.0658
   -15.0490 -15.0093 -15.0088 -14.9956 -14.9917 -14.8266 -14.7248 -14.2601
   -13.1109 -13.1102  -8.5154  -6.8025  -5.6666  -4.5121  -3.9983  -3.6473
    -3.1103  -3.0403  -3.0111  -2.7840  -2.7772  -2.7325  -2.6959  -2.6377
    -2.5636  -2.5560  -2.5523  -2.4804  -2.4739  -2.4633  -2.4608  -2.4481
    -2.3929  -2.3852  -2.3537  -2.3456  -2.2995  -2.2744  -2.2626  -2.2308
    -2.2281  -2.2242  -2.2025  -2.1894  -2.1758  -2.1738  -2.0552  -2.0085
    -1.9266  -1.9130  -1.8084  -1.7925  -1.7782  -1.7004  -1.6641  -1.6418
    -1.5797  -1.5692  -1.5112  -1.3850  -1.3647  -1.3572  -1.2852  -1.2268
    -1.1991  -1.1536  -1.1030  -1.0469  -1.0329  -0.9517  -0.8950  -0.8739
    -0.7670  -0.7615  -0.7069  -0.5982  -0.5616  -0.5600  -0.5538  -0.5407
    -0.4673  -0.4504  -0.4004  -0.3610  -0.3109  -0.2861  -0.2645  -0.0628
    -0.0529   0.0152   0.1189   0.1583   0.3319   0.3511   0.3839   0.4409
     0.5010   0.5117   0.5961   0.7059   0.7124   0.7483   0.8198   0.8595
     0.8680   0.9060   1.4901   1.7492   1.7499   1.8536   1.8567   3.6807
     3.7704   3.7829   3.8150   3.8593   3.9538   4.0387   4.0557   4.0828
     4.0911   4.1650

     the Fermi energy is     3.5858 ev

!    total energy              =   -2970.16553213 Ry
     estimated scf accuracy    <       0.00000004 Ry
     smearing contrib. (-TS)   =      -0.03779147 Ry
     internal energy E=F+TS    =   -2970.12774067 Ry

     The total energy is F=E-TS. E is the sum of the following terms:
     one-electron contribution =  -23551.41364141 Ry
     hartree contribution      =   11867.44245015 Ry
     xc contribution           =    -491.70965032 Ry
     ewald contribution        =    9205.55182489 Ry
     electric field correction =       0.00127602 Ry

     convergence has been achieved in  73 iterations

     Forces acting on atoms (cartesian axes, Ry/au):

     atom    1 type  1   force =     0.00066346    0.00004510    0.00071059
     atom    2 type  2   force =     0.00075715   -0.00017824    0.00020215
     atom    3 type  2   force =    -0.00000617   -0.00037609   -0.00025145
     atom    4 type  3   force =     0.00005990   -0.00000401    0.10503329
     atom    5 type  3   force =     0.00004306    0.00002206    0.10503220
     atom    6 type  3   force =    -0.06774245   -0.00002830   -0.02682881
     atom    7 type  3   force =    -0.06778538   -0.00058530   -0.02686375
     atom    8 type  3   force =     0.06762273    0.00042248   -0.02688935
     atom    9 type  3   force =     0.06765817   -0.00015353   -0.02692228
     atom   10 type  3   force =     0.00072382    0.00002126    0.05056861
     atom   11 type  3   force =     0.00077651    0.00001039    0.05064584
     atom   12 type  3   force =     0.00061022   -0.00004035   -0.02305137
     atom   13 type  3   force =     0.00057616   -0.00016700   -0.02179198
     atom   14 type  3   force =    -0.01560610   -0.00018520    0.00504550
     atom   15 type  3   force =    -0.01567072    0.00008780    0.00501544
     atom   16 type  3   force =     0.01437833    0.00025160    0.00482310
     atom   17 type  3   force =     0.01445430    0.00059693    0.00483152
     atom   18 type  3   force =    -0.00007285   -0.00000009   -0.00000600
     atom   19 type  3   force =    -0.00014087   -0.00000315   -0.00015683
     atom   20 type  3   force =    -0.00012225    0.00007704    0.00019786
     atom   21 type  3   force =     0.00003576   -0.00012343    0.00030958
     atom   22 type  3   force =     0.00052326    0.00014732    0.00013360
     atom   23 type  3   force =     0.00027215    0.00015776    0.00017694
     atom   24 type  3   force =    -0.00044178    0.00001725    0.00031079
     atom   25 type  3   force =    -0.00019217   -0.00001273    0.00020374
     atom   26 type  3   force =     0.00017257   -0.00017234   -0.00630030
     atom   27 type  3   force =    -0.00008772    0.00017893   -0.00055014
     atom   28 type  3   force =    -0.00008977    0.00024889   -0.00010001
     atom   29 type  3   force =     0.00031009   -0.00003778   -0.00001844
     atom   30 type  3   force =    -0.00006810   -0.00029530   -0.00109996
     atom   31 type  3   force =    -0.00008239    0.00011735   -0.00076955
     atom   32 type  3   force =     0.00033408   -0.00010454   -0.00081697
     atom   33 type  3   force =     0.00030394   -0.00021937   -0.00106569
     atom   34 type  3   force =    -0.00000938   -0.00001577   -0.00007491
     atom   35 type  3   force =    -0.00098542    0.00005034   -0.00084504
     atom   36 type  4   force =    -0.00022175    0.00011914    0.09297463
     atom   37 type  4   force =    -0.00016751   -0.00012021    0.09683736
     atom   38 type  4   force =    -0.00010736    0.00036052   -0.18352855
     atom   39 type  4   force =    -0.00004865   -0.00058650   -0.18366672
     atom   40 type  4   force =     0.00000791    0.00004551    0.00008533
     atom   41 type  4   force =     0.00018599   -0.00002517   -0.00002524
     atom   42 type  4   force =    -0.00036818    0.00009187   -0.00015088
     atom   43 type  4   force =    -0.00023282    0.00033232    0.00011280
     atom   44 type  4   force =     0.00018988    0.00014416    0.00040992
     atom   45 type  4   force =    -0.00007270    0.00157995   -0.00109267
     atom   46 type  4   force =    -0.00009948   -0.00144602   -0.00107348
     atom   47 type  4   force =    -0.00008124   -0.00014828   -0.00022335
     atom   48 type  4   force =    -0.00012097   -0.00022203    0.01025199
     atom   49 type  4   force =    -0.00020797   -0.00000919    0.00110391
     atom   50 type  4   force =    -0.00004841   -0.00017257   -0.00000998
     atom   51 type  4   force =     0.00019521   -0.00050609   -0.00016282
     atom   52 type  5   force =    -0.00088535   -0.00023664   -0.00096556
     atom   53 type  5   force =     0.00091125    0.00104926    0.00028539

     Total force =     0.368817     Total SCF correction =     0.000522
  @ DRIVER MODE: Message from server: STATUS
  @ DRIVER MODE: Message from server: GETFORCE
  @ DRIVER MODE: Returning v,forces,stress,ensemble

     Writing output data file ./calc.save/
  @ DRIVER MODE: Message from server: EXIT
  @ DRIVE MODE: Exiting

     General routines

     Parallel routines

   This run was terminated on:  15:42:56  14Sep2021

   JOB DONE.