     Program PWSCF v.6.7GPU starts on 15Sep2021 at 22:59:32

     R & G space division:  proc/nbgrp/npool/nimage =      10
     Reading input from /storage/home/hcoda1/3/ntian30/research/carbon/CxH_vib/H2O_calc/ads_slab/CH3NNH3H2O_a/out_0021/pw.inp
Warning: card &CELL ignored
Warning: card   CELL_DYNAMICS='IPI', ignored
Warning: card / ignored

     Current dimensions of program PWSCF are:
     Max number of different atomic species (ntypx) = 10
     Max number of k-points (npk) =  40000
     Max angular momentum in pseudopotentials (lmaxx) =  3
     Presently no symmetry can be used with electric field

     Message from routine cell_base_init:
     DEPRECATED: use true lattice parameter, not A to a.u. conversion factor

     IMPORTANT: XC functional enforced from input :
     Exchange-correlation= BEEF-VDW
                           (   1   4  43  14   2   0   0)
     Any further DFT definition will be discarded
     Please, verify this is what you really want

  @ DRIVER MODE: Connecting to
 qe_1139763_2852621.sched-torque.pace.gatech.edu47y086sa_scratch
  using UNIX socket
  @ DRIVER MODE: Message from server: STATUS
  @ DRIVER MODE: Message from server: INIT
  @ DRIVER MODE: Receiving replica           0          -1
  @ DRIVER MODE: Receiving encoded integer          25
  @ DRIVER MODE:  SCF:  T  FORCE:  T  STRESS:  F  VC:  F  ENSEMBLE:  F
  @ DRIVER MODE:  SCF:  T  FORCE:  T  STRESS:  F  VC:  F  ENSEMBLE:  F

     Using Slab Decomposition

     bravais-lattice index     =            0
     lattice parameter (alat)  =       1.8897  a.u.
     unit-cell volume          =    6658.9804 (a.u.)^3
     number of atoms/cell      =           59
     number of atomic types    =            5
     number of electrons       =       406.00
     number of Kohn-Sham states=          213
     kinetic-energy cutoff     =      29.3995  Ry
     charge density cutoff     =     293.9946  Ry
     scf convergence threshold =      7.3E-08
     mixing beta               =       0.0500
     number of iterations used =            8  plain     mixing
     Exchange-correlation= BEEF-VDW
                           (   1   4  43  14   2   0   0)

     celldm(1)=   1.889726  celldm(2)=   0.000000  celldm(3)=   0.000000
     celldm(4)=   0.000000  celldm(5)=   0.000000  celldm(6)=   0.000000

     crystal axes: (cart. coord. in units of alat)
               a(1) = (   6.579727   0.000000   0.000000 )
               a(2) = (  -0.000775   5.961596   0.000000 )
               a(3) = (   0.000000   0.000000  25.155947 )

     reciprocal axes: (cart. coord. in units 2 pi/alat)
               b(1) = (  0.151982  0.000020  0.000000 )
               b(2) = (  0.000000  0.167740  0.000000 )
               b(3) = (  0.000000  0.000000  0.039752 )

     PseudoPot. # 1 for Ti read from file:
     /storage/coda1/p-amedford6/0/shared/rich_project_chbe-medford/medford-share/data/pseudos_module/espresso/nninc/pbe/van/Ti.UPF
     MD5 check sum: 8e4df49b7f0d34bbd5052bf3f5ea0213
     Pseudo is Ultrasoft, Zval = 12.0
     Generated by new atomic code, or converted to UPF format
     Using radial grid of  851 points,  6 beta functions with:
                l(1) =   0
                l(2) =   0
                l(3) =   1
                l(4) =   1
                l(5) =   2
                l(6) =   2
     Q(r) pseudized with  8 coefficients,  rinner =    1.000   1.000   1.000
                                                       1.000   1.000

     PseudoPot. # 2 for O  read from file:
     /storage/coda1/p-amedford6/0/shared/rich_project_chbe-medford/medford-share/data/pseudos_module/espresso/nninc/pbe/van/O.UPF
     MD5 check sum: 78c19812648e8988a0fe644b0f25305e
     Pseudo is Ultrasoft, Zval =  6.0
     Generated by new atomic code, or converted to UPF format
     Using radial grid of  737 points,  4 beta functions with:
                l(1) =   0
                l(2) =   0
                l(3) =   1
                l(4) =   1
     Q(r) pseudized with  8 coefficients,  rinner =    0.800   0.800   0.800

     PseudoPot. # 3 for N  read from file:
     /storage/coda1/p-amedford6/0/shared/rich_project_chbe-medford/medford-share/data/pseudos_module/espresso/nninc/pbe/van/N.UPF
     MD5 check sum: 90d10febe142ad51ac9d5be1deb811c4
     Pseudo is Ultrasoft, Zval =  5.0
     Generated by new atomic code, or converted to UPF format
     Using radial grid of  729 points,  4 beta functions with:
                l(1) =   0
                l(2) =   0
                l(3) =   1
                l(4) =   1
     Q(r) pseudized with  8 coefficients,  rinner =    0.800   0.800   0.800

     PseudoPot. # 4 for C  read from file:
     /storage/coda1/p-amedford6/0/shared/rich_project_chbe-medford/medford-share/data/pseudos_module/espresso/nninc/pbe/van/C.UPF
     MD5 check sum: 1a69bf6b8db32088f5b2163dbdb77a27
     Pseudo is Ultrasoft, Zval =  4.0
     Generated by new atomic code, or converted to UPF format
     Using radial grid of  721 points,  4 beta functions with:
                l(1) =   0
                l(2) =   0
                l(3) =   1
                l(4) =   1
     Q(r) pseudized with  8 coefficients,  rinner =    0.800   0.800   0.800

     PseudoPot. # 5 for H  read from file:
     /storage/coda1/p-amedford6/0/shared/rich_project_chbe-medford/medford-share/data/pseudos_module/espresso/nninc/pbe/van/H.UPF
     MD5 check sum: b5ee9d7bfd3a09ee7748110bda690ff7
     Pseudo is Ultrasoft, Zval =  1.0
     Generated by new atomic code, or converted to UPF format
     Using radial grid of  615 points,  1 beta functions with:
                l(1) =   0
     Q(r) pseudized with  8 coefficients,  rinner =    0.800

     atomic species   valence    mass     pseudopotential
        Ti1           12.00    47.86700     Ti( 1.00)
        O1             6.00    15.99900     O ( 1.00)
        N1             5.00    14.00700     N ( 1.00)
        C1             4.00    12.01100     C ( 1.00)
        H1             1.00     1.00800     H ( 1.00)

     No symmetry found

   Cartesian axes

     site n.     atom                  positions (alat units)
         1           Ti1 tau(   1) = (   0.0004258   2.9801865   6.0000000  )
         2           Ti1 tau(   2) = (   3.2906075   1.4906267   6.0002472  )
         3           O1  tau(   3) = (   0.0006271   0.0005054   7.9858123  )
         4           O1  tau(   4) = (   3.2906025   0.0005020   7.3038282  )
         5           O1  tau(   5) = (   4.5942328   1.4918067   9.2879030  )
         6           O1  tau(   6) = (   1.9868534   1.4903216   9.2879459  )
         7           Ti1 tau(   7) = (   3.2907910   2.8959150   9.1758416  )
         8           Ti1 tau(   8) = (   0.0015273   1.4827037   9.2680791  )
         9           O1  tau(   9) = (   3.2954490   0.0159868  11.2922163  )
        10           O1  tau(  10) = (   0.0116148   5.9584955  10.6183126  )
        11           O1  tau(  11) = (   1.3242731   1.5050266  12.6143764  )
        12           O1  tau(  12) = (   5.3073597   1.5103589  12.6267567  )
        13           Ti1 tau(  13) = (   6.4831477   3.0011104  12.7364612  )
        14           Ti1 tau(  14) = (   3.1751638   1.4975352  12.4748964  )
        15           O1  tau(  15) = (   0.0212859   5.9607631  14.5987152  )
        16           O1  tau(  16) = (   3.3058086   0.0238703  13.8910224  )
        17           O1  tau(  17) = (   4.5539421   1.5574750  15.9960573  )
        18           O1  tau(  18) = (   2.0731809   1.5597727  15.9888445  )
        19           Ti1 tau(  19) = (   3.3176354   3.0289328  15.6523405  )
        20           Ti1 tau(  20) = (   0.0198791   1.6227889  16.0606591  )
        21           O1  tau(  21) = (   3.2904802   0.0005063   4.7018136  )
        22           O1  tau(  22) = (   0.0290054   0.0533443  17.2129705  )
        23           O1  tau(  23) = (   1.3043587   1.4918075   6.0039043  )
        24           O1  tau(  24) = (   5.2767064   1.4903225   6.0039473  )
        25           Ti1 tau(  25) = (   0.0000382   5.9609847   6.0000000  )
        26           Ti1 tau(  26) = (   3.2902200   4.4714249   6.0002472  )
        27           O1  tau(  27) = (   0.0002396   2.9813036   7.9858123  )
        28           O1  tau(  28) = (   3.2902150   2.9813002   7.3038282  )
        29           O1  tau(  29) = (   4.5938453   4.4726049   9.2879030  )
        30           O1  tau(  30) = (   1.9864658   4.4711199   9.2879459  )
        31           Ti1 tau(  31) = (   3.2891106   5.8743827   9.1763621  )
        32           Ti1 tau(  32) = (   0.0006254   4.4649316   9.2693709  )
        33           O1  tau(  33) = (   3.2918316   2.9938763  11.2915017  )
        34           O1  tau(  34) = (   0.0092240   2.9805883  10.6323155  )
        35           O1  tau(  35) = (   1.3226278   4.4784642  12.6110361  )
        36           O1  tau(  36) = (   5.3078083   4.4770455  12.6250823  )
        37           Ti1 tau(  37) = (   6.5141033   0.0190828  12.7620745  )
        38           Ti1 tau(  38) = (   3.1722404   4.4939287  12.4712879  )
        39           O1  tau(  39) = (   0.0035410   2.9850241  14.6487316  )
        40           O1  tau(  40) = (   3.3118331   3.0109266  13.8519036  )
        41           O1  tau(  41) = (   4.5522870   4.5059159  16.0259181  )
        42           O1  tau(  42) = (   2.0778134   4.5048723  16.0185459  )
        43           Ti1 tau(  43) = (   3.3116469   0.0596163  15.7453941  )
        44           Ti1 tau(  44) = (   0.0183239   4.5967015  16.1059876  )
        45           O1  tau(  45) = (   3.2900926   2.9813045   4.7018136  )
        46           O1  tau(  46) = (   1.3039711   4.4726057   6.0039043  )
        47           O1  tau(  47) = (   5.2763189   4.4711207   6.0039473  )
        48           N1  tau(  48) = (   0.0600715   3.0265251  17.3188267  )
        49           N1  tau(  49) = (   6.2826239   2.5295367  22.6224490  )
        50           C1  tau(  50) = (   0.2859397   3.0149959  18.7399364  )
        51           H1  tau(  51) = (   0.1411154   3.9960466  19.1894648  )
        52           H1  tau(  52) = (   6.1913215   2.3105648  19.2421896  )
        53           H1  tau(  53) = (   1.3125146   2.6868920  18.9691123  )
        54           H1  tau(  54) = (   6.1000088   3.2491606  23.3142794  )
        55           H1  tau(  55) = (   0.1456284   1.7586669  23.1118534  )
        56           H1  tau(  56) = (   0.3974265   2.9048463  21.9856970  )
        57           O1  tau(  57) = (   3.2908421   0.1144680  18.1630233  )
        58           H1  tau(  58) = (   4.0679411   5.5688996  18.4486002  )
        59           H1  tau(  59) = (   2.5060966   5.5711546  18.4327789  )

     number of k points=    10  Fermi-Dirac smearing, width (Ry)=  0.0073
                       cart. coord. in units 2pi/alat
        k(    1) = (   0.0000000   0.0000000   0.0000000), wk =   0.1250000
        k(    2) = (   0.0000000   0.0419351   0.0000000), wk =   0.2500000
        k(    3) = (   0.0000000  -0.0838702   0.0000000), wk =   0.1250000
        k(    4) = (   0.0379955   0.0000049   0.0000000), wk =   0.2500000
        k(    5) = (   0.0379955   0.0419400   0.0000000), wk =   0.2500000
        k(    6) = (   0.0379955  -0.0838652   0.0000000), wk =   0.2500000
        k(    7) = (   0.0379955  -0.0419301   0.0000000), wk =   0.2500000
        k(    8) = (  -0.0759910  -0.0000099   0.0000000), wk =   0.1250000
        k(    9) = (  -0.0759910   0.0419252   0.0000000), wk =   0.2500000
        k(   10) = (  -0.0759910  -0.0838800   0.0000000), wk =   0.1250000

     Initial potential from superposition of free atoms

     starting charge  389.99912, renormalised to  406.00000

     negative rho (up, down):  6.917E-03 0.000E+00

     %%%%%%%%%%%%%%%%%%%%%%%%%%%%%%%%%%%%%%%%%%%%%%%%%%%%%%%%%%%%%%%%%%%%%%%%
     %                                                                      %
     % You are using vdW-DF, which was implemented by the Thonhauser group. %
     % Please cite the following two papers that made this development      %
     % possible and the two reviews that describe the various versions:     %
     %                                                                      %
     %   T. Thonhauser et al., PRL 115, 136402 (2015).                      %
     %   T. Thonhauser et al., PRB 76, 125112 (2007).                       %
     %   K. Berland et al., Rep. Prog. Phys. 78, 066501 (2015).             %
     %   D.C. Langreth et al., J. Phys.: Condens. Matter 21, 084203 (2009). %
     %                                                                      %
     %                                                                      %
     % If you are calculating the stress with vdW-DF, please also cite:     %
     %                                                                      %
     %   R. Sabatini et al., J. Phys.: Condens. Matter 24, 424209 (2012).   %
     %                                                                      %
     %%%%%%%%%%%%%%%%%%%%%%%%%%%%%%%%%%%%%%%%%%%%%%%%%%%%%%%%%%%%%%%%%%%%%%%%

     Adding external electric field

     Computed dipole along edir(3) :
        Dipole              -16.2336 Ry au,        -41.2616 Debye
        Dipole field         -0.0306 Ry au,

        Potential amp.        2.8398 Ry
        Total length         46.3494 bohr

     Starting wfcs are  308 atomic wfcs
  @ DRIVER MODE: Message from server: STATUS
  @ DRIVER MODE: Message from server: POSDATA
  @ DRIVER MODE: Reading and sharing cell
  @ DRIVER MODE: Reading and sharing positions
  @ DRIVER MODE: Received positions

     Self-consistent Calculation

     iteration #  1     ecut=    29.40 Ry     beta= 0.05
     Davidson diagonalization with overlap
     c_bands:  2 eigenvalues not converged
     c_bands:  3 eigenvalues not converged
     c_bands:  5 eigenvalues not converged
     c_bands:  3 eigenvalues not converged
     c_bands:  3 eigenvalues not converged
     c_bands:  3 eigenvalues not converged
     c_bands:  1 eigenvalues not converged
     c_bands:  5 eigenvalues not converged
     c_bands:  3 eigenvalues not converged
     ethr =  1.00E-05,  avg # of iterations = 20.6

[...]

     total energy              =   -2253.45078500 Ry
     estimated scf accuracy    <    8262.97761175 Ry

     iteration #  2     ecut=    29.40 Ry     beta= 0.05
     Davidson diagonalization with overlap
     ethr =  1.00E-02,  avg # of iterations = 27.1

[...]

     iteration # 46     ecut=    29.40 Ry     beta= 0.05
     Davidson diagonalization with overlap
     c_bands:  1 eigenvalues not converged
     ethr =  5.23E-07,  avg # of iterations =  7.3

[...]

     total energy              =   -2977.74428000 Ry
     estimated scf accuracy    <       0.00000044 Ry

     iteration # 69     ecut=    29.40 Ry     beta= 0.05
     Davidson diagonalization with overlap
     ethr =  3.57E-11,  avg # of iterations =  6.4

     negative rho (up, down):  8.784E-03 0.000E+00

     Adding external electric field

     Computed dipole along edir(3) :
        Dipole                0.7677 Ry au,          1.9513 Debye
        Dipole field          0.0014 Ry au,

        Potential amp.       -0.1343 Ry
        Total length         46.3494 bohr

     End of self-consistent calculation

          k = 0.0000 0.0000 0.0000 ( 18029 PWs)   bands (ev):

   -56.2604 -56.2268 -55.3776 -55.3436 -55.3354 -55.3004 -55.1524 -55.1172
   -55.0307 -54.9102 -54.8919 -54.8903 -54.8763 -54.8054 -54.3892 -54.3397
   -32.6872 -32.5348 -32.5066 -32.4368 -32.3458 -32.3133 -31.8453 -31.8176
   -31.6878 -31.6434 -31.5945 -31.5767 -31.5465 -31.5374 -31.5083 -31.5033
   -31.4848 -31.4784 -31.4562 -31.4418 -31.4284 -31.3792 -31.3688 -31.3302
   -31.3177 -31.3012 -31.2924 -31.2787 -31.2547 -31.2540 -31.2498 -31.2256
   -31.1307 -31.1202 -31.0801 -31.0697 -31.0422 -31.0371 -31.0282 -31.0096
   -30.9789 -30.9262 -30.9039 -30.6328 -30.6106 -30.5795 -30.5587 -30.4498
   -18.4460 -16.4163 -15.9501 -15.7067 -15.6172 -15.5340 -15.4952 -15.4512
   -15.2990 -15.2316 -15.2090 -15.2085 -15.1378 -14.9896 -14.9426 -14.8446
   -14.7508 -14.6158 -14.5989 -14.5657 -14.5479 -14.5148 -14.5077 -14.4561
   -14.2928 -14.2570 -14.2090 -14.1460 -14.0606 -14.0437 -13.8354 -13.4088
   -13.2992 -12.6460  -7.4697  -6.2364  -4.1098  -4.0894  -3.9837  -3.4497
    -3.1805  -3.1529  -3.0244  -3.0197  -2.9748  -2.8390  -2.8303  -2.7551
    -2.7291  -2.6991  -2.6156  -2.5830  -2.5339  -2.4441  -2.4315  -2.4116
    -2.4002  -2.3829  -2.2607  -2.2194  -2.1671  -2.0634  -1.9553  -1.9124
    -1.8852  -1.8414  -1.8032  -1.7561  -1.7440  -1.7292  -1.7225  -1.6113
    -1.4971  -1.4642  -1.4492  -1.4032  -1.3849  -1.3762  -1.3541  -1.2689
    -1.1595  -1.0661  -0.9989  -0.9867  -0.9189  -0.9110  -0.8522  -0.7361
    -0.6752  -0.6708  -0.6547  -0.5511  -0.5244  -0.4529  -0.3902  -0.3322
    -0.2775  -0.2148  -0.1647  -0.1421  -0.1292  -0.0301   0.0414   0.0648
     0.1156   0.1253   0.1340   0.1550   0.2514   0.2874   0.3603   0.4057
     0.4419   0.4862   0.5694   0.6194   0.6869   0.7367   0.7599   0.8214
     0.8749   0.9300   1.0256   1.0699   1.0797   1.0883   1.1112   1.1716
     1.1855   1.2617   1.3447   1.3598   1.4325   1.5008   1.6614   1.7005
     1.9490   2.0220   2.6486   3.0167   3.1780   3.4732   3.6630   3.8004
     3.9959   4.0064   4.0134   4.2395   4.2631

[...]

          k = 0.0380-0.0419 0.0000 ( 17876 PWs)   bands (ev):

[...]

          k =-0.0760-0.0000 0.0000 ( 17886 PWs)   bands (ev):

[...]

          k =-0.0760-0.0839 0.0000 ( 17948 PWs)   bands (ev):

   -56.2438 -56.2433 -55.3626 -55.3582 -55.3228 -55.3131 -55.1358 -55.1336
   -55.0284 -54.8933 -54.8931 -54.8924 -54.8882 -54.8090 -54.3821 -54.3467
   -32.5207 -32.5203 -32.5042 -32.5039 -32.3900 -32.3895 -31.6690 -31.6631
   -31.6534 -31.6459 -31.5696 -31.5546 -31.5526 -31.5483 -31.5420 -31.5405
   -31.5347 -31.5261 -31.4939 -31.4775 -31.3814 -31.3793 -31.3457 -31.3399
   -31.3209 -31.2847 -31.2462 -31.2386 -31.2385 -31.2379 -31.2133 -31.1912
   -31.1484 -31.1181 -31.1178 -31.1143 -31.0914 -31.0789 -31.0788 -31.0641
   -31.0471 -31.0117 -30.7646 -30.7020 -30.6085 -30.5841 -30.5667 -30.5203
   -18.4451 -15.7669 -15.7649 -15.7298 -15.7290 -15.4621 -15.4588 -15.3653
   -15.3600 -15.2255 -15.1085 -15.0070 -14.9942 -14.9587 -14.9316 -14.8196
   -14.7988 -14.7895 -14.7794 -14.6679 -14.6478 -14.6024 -14.5912 -14.5749
   -14.5647 -14.2709 -14.2577 -14.1548 -14.1310 -14.0430 -13.9885 -13.4028
   -13.4027 -12.6646  -7.4635  -6.2288  -4.1198  -4.0912  -2.8636  -2.8563
    -2.8215  -2.8018  -2.8010  -2.7606  -2.6365  -2.5970  -2.5950  -2.5937
    -2.5129  -2.4452  -2.4372  -2.3662  -2.3330  -2.3136  -2.2555  -2.2461
    -2.1795  -2.1532  -2.1450  -2.1287  -2.1049  -2.1037  -2.0075  -1.9447
    -1.8929  -1.8894  -1.8220  -1.8042  -1.7400  -1.7195  -1.7080  -1.6761
    -1.6344  -1.6117  -1.5799  -1.5462  -1.5055  -1.4454  -1.2787  -1.2697
    -1.2602  -1.2387  -1.1137  -1.1070  -1.0756  -1.0455  -1.0398  -0.9659
    -0.9163  -0.8811  -0.8239  -0.7400  -0.7176  -0.6158  -0.5646  -0.5185
    -0.4624  -0.3564  -0.3387  -0.3280  -0.3187  -0.2883  -0.2221  -0.1932
    -0.1774  -0.0568  -0.0372   0.0156   0.0370   0.0932   0.1195   0.1838
     0.2110   0.2825   0.2943   0.3332   0.4067   0.4887   0.5223   0.5711
     0.5757   0.8520   0.9258   1.0547   1.0615   1.1237   1.1824   1.2538
     1.3132   1.3458   1.3726   1.4956   1.4999   1.5091   1.5097   1.5812
     1.5863   1.9282   2.5258   3.5926   3.5929   3.6594   3.6602   3.9808
     3.9871   4.0940   4.1043   4.2651   4.2802

     the Fermi energy is     2.8446 ev

!    total energy              =   -2977.74431407 Ry
     estimated scf accuracy    <       0.00000002 Ry
     smearing contrib. (-TS)   =      -0.00445495 Ry
     internal energy E=F+TS    =   -2977.73985912 Ry

     The total energy is F=E-TS. E is the sum of the following terms:
     one-electron contribution =  -22876.04501147 Ry
     hartree contribution      =   11535.75014632 Ry
     xc contribution           =    -496.33307421 Ry
     ewald contribution        =    8858.88696800 Ry
     electric field correction =       0.00111224 Ry

     convergence has been achieved in  69 iterations

     Forces acting on atoms (cartesian axes, Ry/au):

     atom    1 type  1   force =    -0.00003839   -0.00046636    0.12450539
     atom    2 type  1   force =    -0.00008125   -0.00048557   -0.15978331
     atom    3 type  2   force =     0.00019179   -0.00024323   -0.06791314
     atom    4 type  2   force =    -0.00000667   -0.00011449    0.02621052
     atom    5 type  2   force =    -0.01448429    0.00181964   -0.00990216
     atom    6 type  2   force =     0.01626414    0.00224309   -0.01025157
     atom    7 type  1   force =     0.00071759   -0.00387237    0.02889687
     atom    8 type  1   force =    -0.00034602   -0.00439690    0.10953996
     atom    9 type  2   force =     0.00023798   -0.00028994   -0.00051641
     atom   10 type  2   force =    -0.00231315    0.00256654   -0.07334865
     atom   11 type  2   force =    -0.00001581   -0.00033442   -0.00000786
     atom   12 type  2   force =    -0.00016297   -0.00082602    0.00001687
     atom   13 type  1   force =     0.00106449   -0.00040477    0.00012793
     atom   14 type  1   force =    -0.00064779    0.00065003   -0.00010710
     atom   15 type  2   force =    -0.00029023   -0.00038975   -0.00077851
     atom   16 type  2   force =    -0.00001689   -0.00011201    0.00068513
     atom   17 type  2   force =     0.00014945   -0.00091208   -0.00018621
     atom   18 type  2   force =     0.00050804   -0.00052320    0.00014153
     atom   19 type  1   force =    -0.00114577   -0.00009725   -0.00096403
     atom   20 type  1   force =     0.00081916   -0.00009601   -0.00041479
     atom   21 type  2   force =     0.00004658   -0.00003620    0.09942357
     atom   22 type  2   force =     0.00003323   -0.00024639   -0.00036117
     atom   23 type  2   force =    -0.07968479   -0.00005682   -0.03250140
     atom   24 type  2   force =     0.07952824    0.00038067   -0.03255090
     atom   25 type  1   force =    -0.00000751   -0.00056967    0.12415834
     atom   26 type  1   force =    -0.00008581   -0.00061582   -0.15992763
     atom   27 type  2   force =     0.00030007   -0.00036274   -0.06696730
     atom   28 type  2   force =    -0.00001970    0.00015168    0.02512943
     atom   29 type  2   force =    -0.01510502    0.00192764   -0.00984256
     atom   30 type  2   force =     0.01678113    0.00242739   -0.01015810
     atom   31 type  1   force =     0.00074348   -0.00075060    0.02407161
     atom   32 type  1   force =    -0.00027536    0.00204866    0.11016445
     atom   33 type  2   force =     0.00007595    0.00029201    0.00058141
     atom   34 type  2   force =    -0.00193496    0.00200088   -0.07166257
     atom   35 type  2   force =    -0.00000894    0.00034293   -0.00001897
     atom   36 type  2   force =    -0.00053767    0.00061205   -0.00005909
     atom   37 type  1   force =     0.00119034    0.00042605    0.00031360
     atom   38 type  1   force =    -0.00055297   -0.00088710   -0.00022349
     atom   39 type  2   force =    -0.00027383   -0.00014125    0.00087911
     atom   40 type  2   force =     0.00017807   -0.00012978    0.00024409
     atom   41 type  2   force =     0.00101834    0.00016086    0.00018221
     atom   42 type  2   force =    -0.00048496   -0.00023177    0.00055956
     atom   43 type  1   force =    -0.00160076    0.00001465   -0.00033345
     atom   44 type  1   force =     0.00090863   -0.00013823   -0.00030852
     atom   45 type  2   force =     0.00002194   -0.00004739    0.09937773
     atom   46 type  2   force =    -0.07969890    0.00000487   -0.03251538
     atom   47 type  2   force =     0.07955105    0.00043855   -0.03254201
     atom   48 type  3   force =    -0.00094402   -0.00058814   -0.00067156
     atom   49 type  3   force =    -0.00033365   -0.00046417    0.00131755
     atom   50 type  4   force =     0.00094088   -0.00948118   -0.00297825
     atom   51 type  5   force =    -0.00152014    0.01053716    0.00378964
     atom   52 type  5   force =     0.00008313   -0.00123774    0.00047000
     atom   53 type  5   force =     0.00055566   -0.00046874    0.00011124
     atom   54 type  5   force =     0.00006891   -0.00024003   -0.00060090
     atom   55 type  5   force =     0.00002902    0.00032280   -0.00030845
     atom   56 type  5   force =     0.00029473    0.00034739   -0.00181297
     atom   57 type  2   force =     0.00159230   -0.00051338   -0.00032817
     atom   58 type  5   force =    -0.00047400    0.00091360    0.00000352
     atom   59 type  5   force =    -0.00080209    0.00014235   -0.00005465

     Total force =     0.423771     Total SCF correction =     0.000552
  @ DRIVER MODE: Message from server: STATUS
  @ DRIVER MODE: Message from server: GETFORCE
  @ DRIVER MODE: Returning v,forces,stress,ensemble

     Writing output data file ./calc.save/
  @ DRIVER MODE: Message from server: EXIT
  @ DRIVE MODE: Exiting

     General routines

     Parallel routines

   This run was terminated on:  23:19:14  15Sep2021

   JOB DONE.