     Program PWSCF v.6.7GPU starts on 23Sep2021 at 12:39:38

     R & G space division:  proc/nbgrp/npool/nimage =       8
     Reading input from /storage/home/hcoda1/3/ntian30/research/carbon/CxH_vib/H2O_calc/ads_slab/CH2N2HO_b/out_0005/pw.inp
Warning: card &CELL ignored
Warning: card   CELL_DYNAMICS='IPI', ignored
Warning: card / ignored

     Current dimensions of program PWSCF are:
     Max number of different atomic species (ntypx) = 10
     Max number of k-points (npk) =  40000
     Max angular momentum in pseudopotentials (lmaxx) =  3
     Presently no symmetry can be used with electric field

     Message from routine cell_base_init:
     DEPRECATED: use true lattice parameter, not A to a.u. conversion factor

     IMPORTANT: XC functional enforced from input :
     Exchange-correlation= BEEF-VDW
                           (   1   4  43  14   2   0   0)
     Any further DFT definition will be discarded
     Please, verify this is what you really want

  @ DRIVER MODE: Connecting to
 qe_1139763_2947312.sched-torque.pace.gatech.eduz39s02c1_scratch
  using UNIX socket
  @ DRIVER MODE: Message from server: STATUS
  @ DRIVER MODE: Message from server: INIT
  @ DRIVER MODE: Receiving replica           0          -1
  @ DRIVER MODE: Receiving encoded integer          25
  @ DRIVER MODE:  SCF:  T  FORCE:  T  STRESS:  F  VC:  F  ENSEMBLE:  F
  @ DRIVER MODE:  SCF:  T  FORCE:  T  STRESS:  F  VC:  F  ENSEMBLE:  F

     Using Slab Decomposition

     bravais-lattice index     =            0
     lattice parameter (alat)  =       1.8897  a.u.
     unit-cell volume          =    6658.9804 (a.u.)^3
     number of atoms/cell      =           54
     number of atomic types    =            5
     number of electrons       =       401.00
     number of Kohn-Sham states=          210
     kinetic-energy cutoff     =      29.3995  Ry
     charge density cutoff     =     293.9946  Ry
     scf convergence threshold =      7.3E-08
     mixing beta               =       0.0500
     number of iterations used =            8  plain     mixing
     Exchange-correlation= BEEF-VDW
                           (   1   4  43  14   2   0   0)

     celldm(1)=   1.889726  celldm(2)=   0.000000  celldm(3)=   0.000000
     celldm(4)=   0.000000  celldm(5)=   0.000000  celldm(6)=   0.000000

     crystal axes: (cart. coord. in units of alat)
               a(1) = (   6.579727   0.000000   0.000000 )
               a(2) = (  -0.000775   5.961596   0.000000 )
               a(3) = (   0.000000   0.000000  25.155947 )

     reciprocal axes: (cart. coord. in units 2 pi/alat)
               b(1) = (  0.151982  0.000020  0.000000 )
               b(2) = (  0.000000  0.167740  0.000000 )
               b(3) = (  0.000000  0.000000  0.039752 )

     PseudoPot. # 1 for Ti read from file:
     /storage/coda1/p-amedford6/0/shared/rich_project_chbe-medford/medford-share/data/pseudos_module/espresso/nninc/pbe/van/Ti.UPF
     MD5 check sum: 8e4df49b7f0d34bbd5052bf3f5ea0213
     Pseudo is Ultrasoft, Zval = 12.0
     Generated by new atomic code, or converted to UPF format
     Using radial grid of  851 points,  6 beta functions with:
                l(1) =   0
                l(2) =   0
                l(3) =   1
                l(4) =   1
                l(5) =   2
                l(6) =   2
     Q(r) pseudized with  8 coefficients,  rinner =    1.000   1.000   1.000
                                                       1.000   1.000

     PseudoPot. # 2 for O  read from file:
     /storage/coda1/p-amedford6/0/shared/rich_project_chbe-medford/medford-share/data/pseudos_module/espresso/nninc/pbe/van/O.UPF
     MD5 check sum: 78c19812648e8988a0fe644b0f25305e
     Pseudo is Ultrasoft, Zval =  6.0
     Generated by new atomic code, or converted to UPF format
     Using radial grid of  737 points,  4 beta functions with:
                l(1) =   0
                l(2) =   0
                l(3) =   1
                l(4) =   1
     Q(r) pseudized with  8 coefficients,  rinner =    0.800   0.800   0.800

     PseudoPot. # 3 for N  read from file:
     /storage/coda1/p-amedford6/0/shared/rich_project_chbe-medford/medford-share/data/pseudos_module/espresso/nninc/pbe/van/N.UPF
     MD5 check sum: 90d10febe142ad51ac9d5be1deb811c4
     Pseudo is Ultrasoft, Zval =  5.0
     Generated by new atomic code, or converted to UPF format
     Using radial grid of  729 points,  4 beta functions with:
                l(1) =   0
                l(2) =   0
                l(3) =   1
                l(4) =   1
     Q(r) pseudized with  8 coefficients,  rinner =    0.800   0.800   0.800

     PseudoPot. # 4 for C  read from file:
     /storage/coda1/p-amedford6/0/shared/rich_project_chbe-medford/medford-share/data/pseudos_module/espresso/nninc/pbe/van/C.UPF
     MD5 check sum: 1a69bf6b8db32088f5b2163dbdb77a27
     Pseudo is Ultrasoft, Zval =  4.0
     Generated by new atomic code, or converted to UPF format
     Using radial grid of  721 points,  4 beta functions with:
                l(1) =   0
                l(2) =   0
                l(3) =   1
                l(4) =   1
     Q(r) pseudized with  8 coefficients,  rinner =    0.800   0.800   0.800

     PseudoPot. # 5 for H  read from file:
     /storage/coda1/p-amedford6/0/shared/rich_project_chbe-medford/medford-share/data/pseudos_module/espresso/nninc/pbe/van/H.UPF
     MD5 check sum: b5ee9d7bfd3a09ee7748110bda690ff7
     Pseudo is Ultrasoft, Zval =  1.0
     Generated by new atomic code, or converted to UPF format
     Using radial grid of  615 points,  1 beta functions with:
                l(1) =   0
     Q(r) pseudized with  8 coefficients,  rinner =    0.800

     atomic species   valence    mass     pseudopotential
        Ti1           12.00    47.86700     Ti( 1.00)
        O1             6.00    15.99900     O ( 1.00)
        N1             5.00    14.00700     N ( 1.00)
        C1             4.00    12.01100     C ( 1.00)
        H1             1.00     1.00800     H ( 1.00)

     No symmetry found

   Cartesian axes

     site n.     atom                  positions (alat units)
         1           Ti1 tau(   1) = (   0.0004258   2.9801865   6.0000000  )
         2           Ti1 tau(   2) = (   3.2906075   1.4906267   6.0002472  )
         3           O1  tau(   3) = (   0.0006271   0.0005054   7.9858123  )
         4           O1  tau(   4) = (   3.2906025   0.0005020   7.3038282  )
         5           O1  tau(   5) = (   4.5942328   1.4918067   9.2879030  )
         6           O1  tau(   6) = (   1.9868534   1.4903216   9.2879459  )
         7           Ti1 tau(   7) = (   3.2907910   2.8959150   9.1758416  )
         8           Ti1 tau(   8) = (   0.0015273   1.4827037   9.2680791  )
         9           O1  tau(   9) = (   3.2935892   5.9488104  11.3374186  )
        10           O1  tau(  10) = (   0.0116148   5.9584955  10.6183126  )
        11           O1  tau(  11) = (   1.2908913   1.5070562  12.6495475  )
        12           O1  tau(  12) = (   5.3136790   1.4931969  12.6373367  )
        13           Ti1 tau(  13) = (   0.0127878   2.8868139  12.6015941  )
        14           Ti1 tau(  14) = (   3.2987545   1.3040885  12.7026746  )
        15           O1  tau(  15) = (   0.0175227   0.0240941  14.6538407  )
        16           O1  tau(  16) = (   3.3064676   0.0741613  13.9771881  )
        17           O1  tau(  17) = (   4.5827780   1.5498142  16.1449436  )
        18           O1  tau(  18) = (   2.0366442   1.5898792  16.0867183  )
        19           Ti1 tau(  19) = (   3.3102262   3.0030951  15.6784192  )
        20           Ti1 tau(  20) = (   0.0574396   1.3488835  16.0050117  )
        21           O1  tau(  21) = (   3.2904802   0.0005063   4.7018136  )
        22           O1  tau(  22) = (   0.0721820   0.0083530  17.1768217  )
        23           O1  tau(  23) = (   1.3043587   1.4918075   6.0039043  )
        24           O1  tau(  24) = (   5.2767064   1.4903225   6.0039473  )
        25           Ti1 tau(  25) = (   0.0000382   5.9609847   6.0000000  )
        26           Ti1 tau(  26) = (   3.2902200   4.4714249   6.0002472  )
        27           O1  tau(  27) = (   0.0002396   2.9813036   7.9858123  )
        28           O1  tau(  28) = (   3.2902150   2.9813002   7.3038282  )
        29           O1  tau(  29) = (   4.5938453   4.4726049   9.2879030  )
        30           O1  tau(  30) = (   1.9864658   4.4711199   9.2879459  )
        31           Ti1 tau(  31) = (   3.2891106   5.8743827   9.1763621  )
        32           Ti1 tau(  32) = (   0.0006254   4.4649316   9.2693709  )
        33           O1  tau(  33) = (   3.2934580   3.0155445  11.2926531  )
        34           O1  tau(  34) = (   0.0092240   2.9805883  10.6323155  )
        35           O1  tau(  35) = (   1.2931599   4.4792858  12.6478595  )
        36           O1  tau(  36) = (   5.3056662   4.4876152  12.6363886  )
        37           Ti1 tau(  37) = (   6.5746511   5.8741161  12.5153022  )
        38           Ti1 tau(  38) = (   3.2863760   4.3878630  12.4273393  )
        39           O1  tau(  39) = (   6.5684735   3.0099032  14.7382625  )
        40           O1  tau(  40) = (   3.3273571   2.9915841  13.8999870  )
        41           O1  tau(  41) = (   4.5754576   4.4629145  16.1269992  )
        42           O1  tau(  42) = (   2.0375947   4.4358961  16.0236521  )
        43           Ti1 tau(  43) = (   3.3857405   0.0156461  16.2930207  )
        44           Ti1 tau(  44) = (   0.0840152   4.5257857  15.8004899  )
        45           O1  tau(  45) = (   3.2900926   2.9813045   4.7018136  )
        46           O1  tau(  46) = (   1.3039711   4.4726057   6.0039043  )
        47           O1  tau(  47) = (   5.2763189   4.4711207   6.0039473  )
        48           N1  tau(  48) = (   6.4876325   3.2951735  18.6821505  )
        49           N1  tau(  49) = (   0.0139976   3.0420413  17.5569154  )
        50           C1  tau(  50) = (   6.3059459   3.6199554  19.9036174  )
        51           H1  tau(  51) = (   5.2963100   3.8231348  20.2372398  )
        52           H1  tau(  52) = (   0.5840524   3.7151184  20.5547593  )
        53           O1  tau(  53) = (   3.1058724   5.9363815  18.1230642  )
        54           H1  tau(  54) = (   2.1709728   0.0855973  18.3648350  )

     number of k points=    10  Fermi-Dirac smearing, width (Ry)=  0.0073
                       cart. coord. in units 2pi/alat
        k(    1) = (   0.0000000   0.0000000   0.0000000), wk =   0.1250000
        k(    2) = (   0.0000000   0.0419351   0.0000000), wk =   0.2500000
        k(    3) = (   0.0000000  -0.0838702   0.0000000), wk =   0.1250000
        k(    4) = (   0.0379955   0.0000049   0.0000000), wk =   0.2500000
        k(    5) = (   0.0379955   0.0419400   0.0000000), wk =   0.2500000
        k(    6) = (   0.0379955  -0.0838652   0.0000000), wk =   0.2500000
        k(    7) = (   0.0379955  -0.0419301   0.0000000), wk =   0.2500000
        k(    8) = (  -0.0759910  -0.0000099   0.0000000), wk =   0.1250000
        k(    9) = (  -0.0759910   0.0419252   0.0000000), wk =   0.2500000
        k(   10) = (  -0.0759910  -0.0838800   0.0000000), wk =   0.1250000

     Initial potential from superposition of free atoms

     starting charge  384.99916, renormalised to  401.00000

     negative rho (up, down):  1.407E-02 0.000E+00

     %%%%%%%%%%%%%%%%%%%%%%%%%%%%%%%%%%%%%%%%%%%%%%%%%%%%%%%%%%%%%%%%%%%%%%%%
     %                                                                      %
     % You are using vdW-DF, which was implemented by the Thonhauser group. %
     % Please cite the following two papers that made this development      %
     % possible and the two reviews that describe the various versions:     %
     %                                                                      %
     %   T. Thonhauser et al., PRL 115, 136402 (2015).                      %
     %   T. Thonhauser et al., PRB 76, 125112 (2007).                       %
     %   K. Berland et al., Rep. Prog. Phys. 78, 066501 (2015).             %
     %   D.C. Langreth et al., J. Phys.: Condens. Matter 21, 084203 (2009). %
     %                                                                      %
     %                                                                      %
     % If you are calculating the stress with vdW-DF, please also cite:     %
     %                                                                      %
     %   R. Sabatini et al., J. Phys.: Condens. Matter 24, 424209 (2012).   %
     %                                                                      %
     %%%%%%%%%%%%%%%%%%%%%%%%%%%%%%%%%%%%%%%%%%%%%%%%%%%%%%%%%%%%%%%%%%%%%%%%

     Adding external electric field

     Computed dipole along edir(3) :
        Dipole              -11.8166 Ry au,        -30.0349 Debye
        Dipole field         -0.0223 Ry au,

        Potential amp.        2.0671 Ry
        Total length         46.3494 bohr

     Starting wfcs are  303 atomic wfcs
  @ DRIVER MODE: Message from server: STATUS
  @ DRIVER MODE: Message from server: POSDATA
  @ DRIVER MODE: Reading and sharing cell
  @ DRIVER MODE: Reading and sharing positions
  @ DRIVER MODE: Received positions

     Self-consistent Calculation

     iteration #  1     ecut=    29.40 Ry     beta= 0.05
     Davidson diagonalization with overlap
     c_bands:  3 eigenvalues not converged
     c_bands:  4 eigenvalues not converged
     c_bands:  1 eigenvalues not converged
     c_bands:  4 eigenvalues not converged
     c_bands:  4 eigenvalues not converged
     c_bands:  1 eigenvalues not converged
     c_bands:  2 eigenvalues not converged
     ethr =  1.00E-05,  avg # of iterations = 22.9

[...]

     total energy              =   -2411.67727774 Ry
     estimated scf accuracy    <    6295.40224939 Ry

     iteration #  2     ecut=    29.40 Ry     beta= 0.05
     Davidson diagonalization with overlap
     ethr =  1.00E-02,  avg # of iterations = 22.0

[...]

     iteration # 54     ecut=    29.40 Ry     beta= 0.05
     Davidson diagonalization with overlap
     c_bands:  1 eigenvalues not converged
     ethr =  2.69E-07,  avg # of iterations = 10.7

[...]

     total energy              =   -2971.49110469 Ry
     estimated scf accuracy    <       0.00000010 Ry

     iteration # 75     ecut=    29.40 Ry     beta= 0.05
     Davidson diagonalization with overlap
     ethr =  2.47E-11,  avg # of iterations =  7.5

     negative rho (up, down):  1.459E-02 0.000E+00

     Adding external electric field

     Computed dipole along edir(3) :
        Dipole                1.0677 Ry au,          2.7137 Debye
        Dipole field          0.0020 Ry au,

        Potential amp.       -0.1868 Ry
        Total length         46.3494 bohr

     End of self-consistent calculation

          k = 0.0000 0.0000 0.0000 ( 18029 PWs)   bands (ev):

   -55.6841 -55.6501 -55.4812 -55.4691 -55.4352 -55.3278 -55.3148 -55.2793
   -55.2760 -55.2307 -55.1868 -55.1030 -55.0856 -54.9808 -54.5926 -54.5586
   -32.1581 -31.9796 -31.9774 -31.9214 -31.8366 -31.8110 -31.8102 -31.7989
   -31.7807 -31.7640 -31.7549 -31.7424 -31.7064 -31.6896 -31.6887 -31.6509
   -31.6433 -31.6038 -31.5793 -31.5767 -31.5740 -31.5461 -31.5383 -31.5359
   -31.4888 -31.4878 -31.4754 -31.4688 -31.4629 -31.4495 -31.4343 -31.4304
   -31.4231 -31.3775 -31.3700 -31.3601 -31.3015 -31.2807 -31.2664 -31.2301
   -31.2045 -31.1915 -30.9956 -30.9169 -30.8940 -30.8136 -30.7277 -30.6157
   -20.9274 -16.2621 -16.1665 -15.9667 -15.7864 -15.6412 -15.5860 -15.4438
   -15.3676 -15.2777 -15.1862 -15.0881 -15.0667 -15.0299 -15.0015 -14.9918
   -14.9749 -14.9363 -14.9330 -14.9212 -14.8895 -14.8467 -14.7802 -14.7699
   -14.7225 -14.6959 -14.6550 -14.6125 -14.6016 -14.5149 -14.2521 -14.2402
   -13.0905 -12.9754  -7.4090  -6.1127  -5.7219  -5.1399  -3.7715  -3.5727
    -3.4996  -3.3551  -3.2724  -3.2163  -3.1558  -2.9854  -2.9030  -2.7453
    -2.6586  -2.6399  -2.5854  -2.5232  -2.4582  -2.4316  -2.3925  -2.3687
    -2.2985  -2.2570  -2.2314  -2.2102  -2.1554  -2.1236  -2.0941  -2.0053
    -1.9682  -1.9396  -1.8611  -1.8571  -1.8322  -1.8275  -1.7803  -1.7635
    -1.7466  -1.7392  -1.5962  -1.5846  -1.5111  -1.4727  -1.3241  -1.1941
    -1.1345  -1.0587  -1.0469  -0.9634  -0.9333  -0.8557  -0.8434  -0.8079
    -0.7708  -0.6963  -0.6352  -0.6097  -0.5697  -0.5316  -0.3916  -0.3715
    -0.3295  -0.3232  -0.2931  -0.2391  -0.1668  -0.0818  -0.0716  -0.0063
     0.0161   0.0972   0.1784   0.1874   0.2374   0.2602   0.3164   0.3403
     0.3561   0.3903   0.4171   0.4886   0.5536   0.5981   0.6043   0.6362
     0.7041   0.7737   0.8124   0.8457   0.9900   1.0201   1.0315   1.1281
     1.1396   1.2464   1.4116   1.4336   1.6344   1.6376   1.9937   2.0362
     3.4619   3.5920   3.6255   3.7031   3.7840   3.9028   3.9199   4.0431
     4.1654   4.1711

[...]

          k = 0.0380-0.0419 0.0000 ( 17876 PWs)   bands (ev):

[...]

          k =-0.0760-0.0000 0.0000 ( 17886 PWs)   bands (ev):

[...]

          k =-0.0760-0.0839 0.0000 ( 17948 PWs)   bands (ev):

   -55.6675 -55.6665 -55.4804 -55.4534 -55.4508 -55.3215 -55.3013 -55.2926
   -55.2822 -55.2313 -55.1832 -55.1065 -55.0829 -54.9833 -54.5761 -54.5750
   -31.9739 -31.9734 -31.9635 -31.9627 -31.7880 -31.7867 -31.7748 -31.7691
   -31.7490 -31.7284 -31.6947 -31.6887 -31.6781 -31.6761 -31.6478 -31.6423
   -31.6300 -31.6169 -31.6157 -31.6100 -31.5873 -31.5466 -31.5409 -31.5237
   -31.5231 -31.5223 -31.5116 -31.5069 -31.5000 -31.4861 -31.4640 -31.4634
   -31.4348 -31.3969 -31.3813 -31.3524 -31.3488 -31.3259 -31.3049 -31.2848
   -31.2366 -31.1951 -30.9072 -30.9064 -30.8096 -30.8082 -30.7711 -30.7703
   -20.9263 -16.2366 -15.6173 -15.5427 -15.5280 -15.5229 -15.3996 -15.3662
   -15.2364 -15.2353 -15.2143 -15.1544 -15.1453 -15.1138 -15.1121 -15.0887
   -15.0517 -15.0258 -15.0028 -14.9743 -14.9597 -14.9172 -14.8881 -14.8837
   -14.8687 -14.8238 -14.7352 -14.6596 -14.6011 -14.5735 -14.5060 -14.3685
   -13.0780 -13.0774  -7.4099  -6.1162  -5.7253  -5.1168  -3.7452  -3.1934
    -2.8945  -2.7493  -2.7160  -2.5907  -2.5727  -2.4764  -2.4691  -2.4272
    -2.4152  -2.3794  -2.3469  -2.3279  -2.2847  -2.2698  -2.2523  -2.2515
    -2.2302  -2.1998  -2.1910  -2.1868  -2.1771  -2.1529  -2.1327  -2.1149
    -2.0991  -2.0481  -2.0259  -1.9336  -1.8203  -1.7952  -1.7235  -1.7064
    -1.7049  -1.6933  -1.6730  -1.6504  -1.5668  -1.4776  -1.4406  -1.3850
    -1.2125  -1.2003  -1.1732  -1.1527  -1.0918  -1.0519  -1.0159  -0.9644
    -0.9492  -0.9310  -0.8647  -0.7949  -0.7218  -0.6990  -0.6330  -0.5769
    -0.5599  -0.4736  -0.4619  -0.4286  -0.3852  -0.3717  -0.3461  -0.2863
    -0.2740  -0.2519  -0.2295  -0.1903  -0.1535   0.0155   0.1460   0.2116
     0.2282   0.2656   0.3190   0.3835   0.4077   0.5938   0.6072   0.6142
     0.6442   0.7142   0.7384   0.7524   0.8421   0.9488   0.9864   1.0178
     1.0498   1.0706   1.1460   1.2082   1.8044   1.8126   1.8558   1.8565
     3.4631   3.9985   4.0175   4.0195   4.0205   4.1131   4.1356   4.1448
     4.2106   4.2636

     the Fermi energy is     3.4566 ev

!    total energy              =   -2971.49111446 Ry
     estimated scf accuracy    <       0.00000004 Ry
     smearing contrib. (-TS)   =      -0.01888529 Ry
     internal energy E=F+TS    =   -2971.47222917 Ry

     The total energy is F=E-TS. E is the sum of the following terms:
     one-electron contribution =  -23620.66165281 Ry
     hartree contribution      =   11904.16963522 Ry
     xc contribution           =    -492.37322134 Ry
     ewald contribution        =    9237.39085859 Ry
     electric field correction =       0.00215117 Ry

     convergence has been achieved in  75 iterations

     Forces acting on atoms (cartesian axes, Ry/au):

     atom    1 type  1   force =     0.00001341   -0.00040257    0.09761013
     atom    2 type  1   force =    -0.00003844    0.00021474   -0.17218243
     atom    3 type  2   force =     0.00005008   -0.00005502   -0.02532353
     atom    4 type  2   force =     0.00001581   -0.00145127    0.04769368
     atom    5 type  2   force =    -0.00620543   -0.00239756   -0.00080984
     atom    6 type  2   force =     0.00782598   -0.00181674   -0.00147567
     atom    7 type  1   force =    -0.00008029   -0.00483544    0.01862881
     atom    8 type  1   force =     0.00022421    0.01221503    0.02679615
     atom    9 type  2   force =    -0.00010433   -0.00013874    0.00009876
     atom   10 type  2   force =    -0.00112056    0.00130998   -0.02466857
     atom   11 type  2   force =     0.00019950   -0.00004250    0.00018169
     atom   12 type  2   force =     0.00000492   -0.00004186    0.00010799
     atom   13 type  1   force =     0.00034253   -0.00014843   -0.00078006
     atom   14 type  1   force =     0.00004902   -0.00016537   -0.00053869
     atom   15 type  2   force =    -0.00026014   -0.00024291    0.00025041
     atom   16 type  2   force =    -0.00003178   -0.00017122   -0.00017590
     atom   17 type  2   force =     0.00020777    0.00013239    0.00025491
     atom   18 type  2   force =    -0.00024378   -0.00006367    0.00024401
     atom   19 type  1   force =    -0.00015327   -0.00002034   -0.00102432
     atom   20 type  1   force =    -0.00015780   -0.00075226   -0.00167164
     atom   21 type  2   force =     0.00005605    0.00008620    0.10226134
     atom   22 type  2   force =     0.00008000   -0.00013427    0.00017430
     atom   23 type  2   force =    -0.07351720   -0.00015986   -0.02810441
     atom   24 type  2   force =     0.07343285    0.00028272   -0.02817375
     atom   25 type  1   force =     0.00013085   -0.00033323    0.09740986
     atom   26 type  1   force =    -0.00004598   -0.00130371   -0.17230335
     atom   27 type  2   force =     0.00009434   -0.00030525   -0.02395487
     atom   28 type  2   force =     0.00004250    0.00030201    0.04332618
     atom   29 type  2   force =    -0.00509580    0.00402918   -0.00273236
     atom   30 type  2   force =     0.00660482    0.00441967   -0.00328758
     atom   31 type  1   force =     0.00001679    0.00581008    0.00667282
     atom   32 type  1   force =     0.00028829   -0.01517362    0.02636361
     atom   33 type  2   force =     0.00038250   -0.00000772    0.00033811
     atom   34 type  2   force =    -0.00138495    0.00098351   -0.02640905
     atom   35 type  2   force =     0.00039635    0.00001933    0.00015787
     atom   36 type  2   force =    -0.00031160   -0.00009905    0.00003795
     atom   37 type  1   force =     0.00009981   -0.00048779   -0.00068365
     atom   38 type  1   force =     0.00024964    0.00017109   -0.00019760
     atom   39 type  2   force =    -0.00012166   -0.00014039    0.00043086
     atom   40 type  2   force =     0.00005185    0.00002078    0.00029534
     atom   41 type  2   force =     0.00020711   -0.00010564    0.00011195
     atom   42 type  2   force =    -0.00055079   -0.00022165    0.00034579
     atom   43 type  1   force =    -0.00014802    0.00023356   -0.00100101
     atom   44 type  1   force =    -0.00027541    0.00119733   -0.00186498
     atom   45 type  2   force =     0.00005044   -0.00008130    0.10205418
     atom   46 type  2   force =    -0.07355271   -0.00007894   -0.02813870
     atom   47 type  2   force =     0.07345824    0.00035971   -0.02818771
     atom   48 type  3   force =    -0.00660939    0.01222389    0.05372082
     atom   49 type  3   force =     0.00285827   -0.00710935   -0.03124846
     atom   50 type  4   force =     0.00197495   -0.00466852   -0.01738060
     atom   51 type  5   force =     0.00051894   -0.00044918   -0.00121065
     atom   52 type  5   force =    -0.00013051   -0.00044206   -0.00171029
     atom   53 type  2   force =     0.00031815    0.00070644   -0.00017888
     atom   54 type  5   force =    -0.00010612   -0.00067023   -0.00014898

     Total force =     0.370972     Total SCF correction =     0.000336
  @ DRIVER MODE: Message from server: STATUS
  @ DRIVER MODE: Message from server: GETFORCE
  @ DRIVER MODE: Returning v,forces,stress,ensemble

     Writing output data file ./calc.save/
  @ DRIVER MODE: Message from server: EXIT
  @ DRIVE MODE: Exiting

     General routines

     Parallel routines

   This run was terminated on:  13: 4: 6  23Sep2021

   JOB DONE.