     Program PWSCF v.6.7GPU starts on  9Sep2021 at 15:56:18

     R & G space division:  proc/nbgrp/npool/nimage =       8
     Reading input from /storage/home/hcoda1/3/ntian30/research/carbon/CH2_calc/ads_slab/CH2O_c/CH2_calc.log/pw.inp
Warning: card &CELL ignored
Warning: card   CELL_DYNAMICS='IPI', ignored
Warning: card / ignored

     Current dimensions of program PWSCF are:
     Max number of different atomic species (ntypx) = 10
     Max number of k-points (npk) =  40000
     Max angular momentum in pseudopotentials (lmaxx) =  3
     Presently no symmetry can be used with electric field

     Message from routine cell_base_init:
     DEPRECATED: use true lattice parameter, not A to a.u. conversion factor

     IMPORTANT: XC functional enforced from input :
     Exchange-correlation= BEEF-VDW
                           (   1   4  43  14   2   0   0)
     Any further DFT definition will be discarded
     Please, verify this is what you really want

  @ DRIVER MODE: Connecting to
 qe_1139763_2777662.sched-torque.pace.gatech.edu9gat8110_scratch
  using UNIX socket
  @ DRIVER MODE: Message from server: STATUS
  @ DRIVER MODE: Message from server: INIT
  @ DRIVER MODE: Receiving replica           0          -1
  @ DRIVER MODE: Receiving encoded integer          25
  @ DRIVER MODE:  SCF:  T  FORCE:  T  STRESS:  F  VC:  F  ENSEMBLE:  F
  @ DRIVER MODE:  SCF:  T  FORCE:  T  STRESS:  F  VC:  F  ENSEMBLE:  F

     Using Slab Decomposition

     bravais-lattice index     =            0
     lattice parameter (alat)  =       1.8897  a.u.
     unit-cell volume          =    6658.9804 (a.u.)^3
     number of atoms/cell      =           51
     number of atomic types    =            4
     number of electrons       =       390.00
     number of Kohn-Sham states=          205
     kinetic-energy cutoff     =      29.3995  Ry
     charge density cutoff     =     293.9946  Ry
     scf convergence threshold =      7.3E-08
     mixing beta               =       0.0500
     number of iterations used =            8  plain     mixing
     Exchange-correlation= BEEF-VDW
                           (   1   4  43  14   2   0   0)

     celldm(1)=   1.889726  celldm(2)=   0.000000  celldm(3)=   0.000000
     celldm(4)=   0.000000  celldm(5)=   0.000000  celldm(6)=   0.000000

     crystal axes: (cart. coord. in units of alat)
               a(1) = (   6.579727   0.000000   0.000000 )
               a(2) = (  -0.000775   5.961596   0.000000 )
               a(3) = (   0.000000   0.000000  25.155947 )

     reciprocal axes: (cart. coord. in units 2 pi/alat)
               b(1) = (  0.151982  0.000020  0.000000 )
               b(2) = (  0.000000  0.167740  0.000000 )
               b(3) = (  0.000000  0.000000  0.039752 )

     PseudoPot. # 1 for O  read from file:
     /storage/coda1/p-amedford6/0/shared/rich_project_chbe-medford/medford-share/data/pseudos_module/espresso/nninc/pbe/van/O.UPF
     MD5 check sum: 78c19812648e8988a0fe644b0f25305e
     Pseudo is Ultrasoft, Zval =  6.0
     Generated by new atomic code, or converted to UPF format
     Using radial grid of  737 points,  4 beta functions with:
                l(1) =   0
                l(2) =   0
                l(3) =   1
                l(4) =   1
     Q(r) pseudized with  8 coefficients,  rinner =    0.800   0.800   0.800

     PseudoPot. # 2 for Ti read from file:
     /storage/coda1/p-amedford6/0/shared/rich_project_chbe-medford/medford-share/data/pseudos_module/espresso/nninc/pbe/van/Ti.UPF
     MD5 check sum: 8e4df49b7f0d34bbd5052bf3f5ea0213
     Pseudo is Ultrasoft, Zval = 12.0
     Generated by new atomic code, or converted to UPF format
     Using radial grid of  851 points,  6 beta functions with:
                l(1) =   0
                l(2) =   0
                l(3) =   1
                l(4) =   1
                l(5) =   2
                l(6) =   2
     Q(r) pseudized with  8 coefficients,  rinner =    1.000   1.000   1.000
                                                       1.000   1.000

     PseudoPot. # 3 for C  read from file:
     /storage/coda1/p-amedford6/0/shared/rich_project_chbe-medford/medford-share/data/pseudos_module/espresso/nninc/pbe/van/C.UPF
     MD5 check sum: 1a69bf6b8db32088f5b2163dbdb77a27
     Pseudo is Ultrasoft, Zval =  4.0
     Generated by new atomic code, or converted to UPF format
     Using radial grid of  721 points,  4 beta functions with:
                l(1) =   0
                l(2) =   0
                l(3) =   1
                l(4) =   1
     Q(r) pseudized with  8 coefficients,  rinner =    0.800   0.800   0.800

     PseudoPot. # 4 for H  read from file:
     /storage/coda1/p-amedford6/0/shared/rich_project_chbe-medford/medford-share/data/pseudos_module/espresso/nninc/pbe/van/H.UPF
     MD5 check sum: b5ee9d7bfd3a09ee7748110bda690ff7
     Pseudo is Ultrasoft, Zval =  1.0
     Generated by new atomic code, or converted to UPF format
     Using radial grid of  615 points,  1 beta functions with:
                l(1) =   0
     Q(r) pseudized with  8 coefficients,  rinner =    0.800

     atomic species   valence    mass     pseudopotential
        O1             6.00    15.99900     O ( 1.00)
        Ti1           12.00    47.86700     Ti( 1.00)
        C1             4.00    12.01100     C ( 1.00)
        H1             1.00     1.00800     H ( 1.00)

     No symmetry found

   Cartesian axes

     site n.     atom                  positions (alat units)
         1           O1  tau(   1) = (   3.2904802   0.0005063   4.7018136  )
         2           O1  tau(   2) = (   3.2900926   2.9813045   4.7018136  )
         3           Ti1 tau(   3) = (   0.0004258   2.9801865   6.0000000  )
         4           Ti1 tau(   4) = (   0.0000382   5.9609847   6.0000000  )
         5           Ti1 tau(   5) = (   3.2906075   1.4906267   6.0002472  )
         6           Ti1 tau(   6) = (   3.2902200   4.4714249   6.0002472  )
         7           O1  tau(   7) = (   1.3043587   1.4918075   6.0039043  )
         8           O1  tau(   8) = (   1.3039711   4.4726057   6.0039043  )
         9           O1  tau(   9) = (   5.2767064   1.4903225   6.0039473  )
        10           O1  tau(  10) = (   5.2763189   4.4711207   6.0039473  )
        11           O1  tau(  11) = (   3.2906025   0.0005020   7.3038282  )
        12           O1  tau(  12) = (   3.2902150   2.9813002   7.3038282  )
        13           O1  tau(  13) = (   0.0006271   0.0005054   7.9858123  )
        14           O1  tau(  14) = (   0.0002396   2.9813036   7.9858123  )
        15           Ti1 tau(  15) = (   3.3160408   0.0312979   9.1533790  )
        16           Ti1 tau(  16) = (   3.3184627   3.0104606   9.1553648  )
        17           Ti1 tau(  17) = (   0.0342031   4.4824714   9.2635914  )
        18           Ti1 tau(  18) = (   0.0346466   1.5145919   9.2725854  )
        19           O1  tau(  19) = (   4.5942328   1.4918067   9.2879030  )
        20           O1  tau(  20) = (   4.5938453   4.4726049   9.2879030  )
        21           O1  tau(  21) = (   1.9868534   1.4903216   9.2879459  )
        22           O1  tau(  22) = (   1.9864658   4.4711199   9.2879459  )
        23           O1  tau(  23) = (   0.0072146   0.0022432  10.6032180  )
        24           O1  tau(  24) = (   0.0071558   2.9827229  10.6249429  )
        25           O1  tau(  25) = (   3.3296961   2.9874083  11.3532073  )
        26           O1  tau(  26) = (   3.3323670   0.0074739  11.3628161  )
        27           Ti1 tau(  27) = (   0.0318003   0.0267859  12.4824326  )
        28           Ti1 tau(  28) = (   3.3243002   4.4792164  12.4996646  )
        29           Ti1 tau(  29) = (   3.3257882   1.5006484  12.5017209  )
        30           Ti1 tau(  30) = (   0.0399007   3.0049294  12.5399032  )
        31           O1  tau(  31) = (   1.3339759   4.4780823  12.6303471  )
        32           O1  tau(  32) = (   1.3334854   1.5010653  12.6312402  )
        33           O1  tau(  33) = (   5.3316377   4.4803543  12.6653953  )
        34           O1  tau(  34) = (   5.3322653   1.4967215  12.6661074  )
        35           O1  tau(  35) = (   3.3365867   2.9884115  13.9371009  )
        36           O1  tau(  36) = (   3.3209445   0.0065530  13.9947117  )
        37           O1  tau(  37) = (   0.0958175   0.0109015  14.6781201  )
        38           O1  tau(  38) = (   0.1017966   3.0039049  14.8467192  )
        39           Ti1 tau(  39) = (   3.3866828   2.9872137  15.7186651  )
        40           Ti1 tau(  40) = (   3.3530478   0.0116223  15.7847896  )
        41           Ti1 tau(  41) = (   0.0420906   4.5503417  15.8661587  )
        42           Ti1 tau(  42) = (   0.0851359   1.3433488  15.9962781  )
        43           O1  tau(  43) = (   4.6519449   4.4651455  16.1366910  )
        44           O1  tau(  44) = (   4.6470289   1.5235192  16.1521327  )
        45           O1  tau(  45) = (   2.1274687   1.5288575  16.1863263  )
        46           O1  tau(  46) = (   2.1329502   4.4467914  16.2189938  )
        47           O1  tau(  47) = (   0.0861787   0.0156205  17.2101336  )
        48           O1  tau(  48) = (   0.2335693   3.0433622  17.6694830  )
        49           C1  tau(  49) = (   6.0571888   3.1179766  18.9039971  )
        50           H1  tau(  50) = (   6.1352977   4.1238860  19.3131673  )
        51           H1  tau(  51) = (   6.4315421   2.3664480  19.5988381  )

     number of k points=    10  Fermi-Dirac smearing, width (Ry)=  0.0073
                       cart. coord. in units 2pi/alat
        k(    1) = (   0.0000000   0.0000000   0.0000000), wk =   0.1250000
        k(    2) = (   0.0000000   0.0419351   0.0000000), wk =   0.2500000
        k(    3) = (   0.0000000  -0.0838702   0.0000000), wk =   0.1250000
        k(    4) = (   0.0379955   0.0000049   0.0000000), wk =   0.2500000
        k(    5) = (   0.0379955   0.0419400   0.0000000), wk =   0.2500000
        k(    6) = (   0.0379955  -0.0838652   0.0000000), wk =   0.2500000
        k(    7) = (   0.0379955  -0.0419301   0.0000000), wk =   0.2500000
        k(    8) = (  -0.0759910  -0.0000099   0.0000000), wk =   0.1250000
        k(    9) = (  -0.0759910   0.0419252   0.0000000), wk =   0.2500000
        k(   10) = (  -0.0759910  -0.0838800   0.0000000), wk =   0.1250000

     Initial potential from superposition of free atoms

     starting charge  373.99919, renormalised to  390.00000

     negative rho (up, down):  1.726E-02 0.000E+00

     %%%%%%%%%%%%%%%%%%%%%%%%%%%%%%%%%%%%%%%%%%%%%%%%%%%%%%%%%%%%%%%%%%%%%%%%
     %                                                                      %
     % You are using vdW-DF, which was implemented by the Thonhauser group. %
     % Please cite the following two papers that made this development      %
     % possible and the two reviews that describe the various versions:     %
     %                                                                      %
     %   T. Thonhauser et al., PRL 115, 136402 (2015).                      %
     %   T. Thonhauser et al., PRB 76, 125112 (2007).                       %
     %   K. Berland et al., Rep. Prog. Phys. 78, 066501 (2015).             %
[...]
        42           Ti1 tau(  42) = (   0.0529596   1.3576790  16.0634653  )
        43           O1  tau(  43) = (   4.5816956   4.4716048  16.1122107  )
        44           O1  tau(  44) = (   4.5804352   1.5134882  16.1349573  )
        45           O1  tau(  45) = (   2.0790431   1.5140283  16.1458196  )
        46           O1  tau(  46) = (   2.0763174   4.4704617  16.1228498  )
        47           O1  tau(  47) = (   0.0319764   5.9533488  17.2279542  )
        48           O1  tau(  48) = (   0.0045808   3.0055778  17.4347708  )
        49           C1  tau(  49) = (   6.3748837   3.1172104  18.6904438  )
        50           H1  tau(  50) = (   6.2284389   4.1096566  19.1075778  )
        51           H1  tau(  51) = (   6.3313168   2.2214775  19.3012303  )

     number of k points=    10  Fermi-Dirac smearing, width (Ry)=  0.0073
                       cart. coord. in units 2pi/alat
        k(    1) = (   0.0000000   0.0000000   0.0000000), wk =   0.1250000
        k(    2) = (   0.0000000   0.0419351   0.0000000), wk =   0.2500000
        k(    3) = (   0.0000000  -0.0838702   0.0000000), wk =   0.1250000
        k(    4) = (   0.0379955   0.0000049   0.0000000), wk =   0.2500000
        k(    5) = (   0.0379955   0.0419400   0.0000000), wk =   0.2500000
        k(    6) = (   0.0379955  -0.0838652   0.0000000), wk =   0.2500000
        k(    7) = (   0.0379955  -0.0419301   0.0000000), wk =   0.2500000
        k(    8) = (  -0.0759910  -0.0000099   0.0000000), wk =   0.1250000
        k(    9) = (  -0.0759910   0.0419252   0.0000000), wk =   0.2500000
        k(   10) = (  -0.0759910  -0.0838800   0.0000000), wk =   0.1250000

     Initial potential from superposition of free atoms

     starting charge  373.99919, renormalised to  390.00000

[...]

     %%%%%%%%%%%%%%%%%%%%%%%%%%%%%%%%%%%%%%%%%%%%%%%%%%%%%%%%%%%%%%%%%%%%%%%%
     %                                                                      %
     % You are using vdW-DF, which was implemented by the Thonhauser group. %
     % Please cite the following two papers that made this development      %
     % possible and the two reviews that describe the various versions:     %
     %                                                                      %
     %   T. Thonhauser et al., PRL 115, 136402 (2015).                      %
     %   T. Thonhauser et al., PRB 76, 125112 (2007).                       %
     %   K. Berland et al., Rep. Prog. Phys. 78, 066501 (2015).             %
     %   D.C. Langreth et al., J. Phys.: Condens. Matter 21, 084203 (2009). %
     %                                                                      %
     %                                                                      %
     % If you are calculating the stress with vdW-DF, please also cite:     %
     %                                                                      %
     %   R. Sabatini et al., J. Phys.: Condens. Matter 24, 424209 (2012).   %
     %                                                                      %
     %%%%%%%%%%%%%%%%%%%%%%%%%%%%%%%%%%%%%%%%%%%%%%%%%%%%%%%%%%%%%%%%%%%%%%%%

[...]

     Starting wfcs are  294 atomic wfcs
  @ DRIVER MODE: Message from server: STATUS
  @ DRIVER MODE: Message from server: POSDATA
  @ DRIVER MODE: Reading and sharing cell
  @ DRIVER MODE: Reading and sharing positions
  @ DRIVER MODE: Received positions

[...]

     Writing config to output data dir ./calc.save/
  @ DRIVER MODE: Message from server: STATUS
  @ DRIVER MODE: Message from server: INIT
  @ DRIVER MODE: Receiving replica           0           0
  @ DRIVER MODE: Receiving encoded integer          25
  @ DRIVER MODE:  SCF:  T  FORCE:  T  STRESS:  F  VC:  F  ENSEMBLE:  F
  @ DRIVER MODE:  SCF:  T  FORCE:  T  STRESS:  F  VC:  F  ENSEMBLE:  F
  @ DRIVER MODE: Message from server: STATUS
  @ DRIVER MODE: Message from server: POSDATA
  @ DRIVER MODE: Reading and sharing positions
  @ DRIVER MODE: Received positions
     NEW-OLD atomic charge density approx. for the potential

[...]

     Self-consistent Calculation

[...]

     iteration # 12     ecut=    29.40 Ry     beta= 0.05
     Davidson diagonalization with overlap
     c_bands:  1 eigenvalues not converged
     ethr =  8.23E-10,  avg # of iterations = 14.9

[...]

     total energy              =   -2930.16730027 Ry
     estimated scf accuracy    <       0.00000014 Ry

     iteration # 18     ecut=    29.40 Ry     beta= 0.05
     Davidson diagonalization with overlap
     ethr =  2.59E-11,  avg # of iterations =  7.2

[...]

     End of self-consistent calculation

[...]

          k = 0.0380-0.0419 0.0000 ( 17876 PWs)   bands (ev):

[...]

          k =-0.0760-0.0839 0.0000 ( 17948 PWs)   bands (ev):

   -55.8078 -55.7950 -55.7901 -55.7894 -55.7005 -55.6925 -55.6831 -55.6040
   -55.5963 -55.5746 -55.5720 -55.5695 -55.5296 -55.4882 -54.8296 -54.8283
   -32.1791 -32.1788 -32.1156 -32.1021 -32.1006 -32.0952 -32.0808 -32.0754
   -32.0611 -32.0321 -32.0241 -32.0095 -31.9930 -31.9562 -31.9452 -31.9365
   -31.9349 -31.9321 -31.9240 -31.9205 -31.9032 -31.9005 -31.8969 -31.8959
   -31.8930 -31.8899 -31.8781 -31.8550 -31.8277 -31.8269 -31.8263 -31.8043
   -31.7996 -31.7820 -31.7789 -31.7724 -31.7694 -31.7686 -31.7418 -31.7154
   -31.7078 -31.6833 -31.1496 -31.1480 -31.0696 -31.0686 -31.0304 -31.0293
   -19.8317 -16.0214 -15.9909 -15.8741 -15.7611 -15.7482 -15.7056 -15.6626
   -15.6146 -15.5563 -15.5534 -15.5052 -15.4861 -15.4822 -15.4375 -15.4048
   -15.3567 -15.3506 -15.3396 -15.3384 -15.2847 -15.2811 -15.2346 -15.2269
   -15.2064 -15.1674 -15.1640 -15.0937 -15.0590 -15.0035 -13.3305 -13.3283
    -9.2977  -5.5186  -5.4992  -3.5546  -3.3101  -3.2768  -3.1070  -2.9789
    -2.9692  -2.9107  -2.8268  -2.7895  -2.7447  -2.6949  -2.6916  -2.6699
    -2.6576  -2.6436  -2.6397  -2.6316  -2.5859  -2.5663  -2.5247  -2.4808
    -2.4732  -2.4598  -2.4540  -2.4139  -2.3980  -2.3863  -2.3791  -2.3732
    -2.3019  -2.2257  -2.1544  -2.0793  -2.0262  -2.0063  -1.9753  -1.9406
    -1.9058  -1.8886  -1.8716  -1.7473  -1.7248  -1.5761  -1.5603  -1.5374
    -1.5284  -1.4747  -1.4677  -1.3464  -1.2699  -1.2639  -1.1948  -1.1743
    -1.1457  -1.0970  -1.0747  -0.9949  -0.9524  -0.9098  -0.8557  -0.7952
    -0.7835  -0.7173  -0.7070  -0.6263  -0.6056  -0.5844  -0.5797  -0.5092
    -0.4752  -0.3959  -0.3848  -0.3620  -0.2612  -0.1958  -0.1909   0.0041
     0.1757   0.1807   0.2005   0.3001   0.3308   0.3738   0.4297   0.4452
     0.5318   0.5864   0.6773   0.6975   0.7063   0.7871   1.5373   1.5384
     1.6294   1.6400   3.3002   3.5650   3.6020   3.6060   3.6665   3.8195
     3.8226   3.8398   3.8490   3.9738   3.9814

     the Fermi energy is     3.3311 ev

!    total energy              =   -2930.16730284 Ry
     estimated scf accuracy    <       0.00000004 Ry
     smearing contrib. (-TS)   =      -0.03343055 Ry
     internal energy E=F+TS    =   -2930.13387229 Ry

     The total energy is F=E-TS. E is the sum of the following terms:
     one-electron contribution =  -24668.12191515 Ry
     hartree contribution      =   12419.51121365 Ry
     xc contribution           =    -481.26864649 Ry
     ewald contribution        =    9799.74383937 Ry
     electric field correction =       0.00163632 Ry

     convergence has been achieved in  18 iterations

     Forces acting on atoms (cartesian axes, Ry/au):

     atom    1 type  1   force =    -0.00010900    0.00005460    0.10428301
     atom    2 type  1   force =    -0.00010466    0.00005113    0.10434180
     atom    3 type  2   force =    -0.00025876   -0.00196128    0.10280055
     atom    4 type  2   force =    -0.00015288    0.00159928    0.11371031
     atom    5 type  2   force =    -0.00034630    0.00058920   -0.18044862
     atom    6 type  2   force =    -0.00021229   -0.00013977   -0.18078599
     atom    7 type  1   force =    -0.06897572    0.00063063   -0.02909064
     atom    8 type  1   force =    -0.06851048   -0.00119802   -0.02912985
     atom    9 type  1   force =     0.06859493    0.00111805   -0.02916642
     atom   10 type  1   force =     0.06821701   -0.00080240   -0.02922096
     atom   11 type  1   force =     0.00036299    0.00051542    0.04559213
     atom   12 type  1   force =     0.00055678    0.00076597    0.04712255
     atom   13 type  1   force =     0.00027532   -0.00577896   -0.03305807
     atom   14 type  1   force =     0.00032685    0.00398142   -0.02583409
     atom   15 type  2   force =     0.00006455   -0.00028891    0.00028168
     atom   16 type  2   force =     0.00014648    0.00012665   -0.00007645
     atom   17 type  2   force =    -0.00021245   -0.00068686    0.00126139
     atom   18 type  2   force =    -0.00026666   -0.00036693    0.00073465
     atom   19 type  1   force =    -0.01793750    0.00015265    0.00393691
     atom   20 type  1   force =    -0.01644754    0.00130827    0.00319763
     atom   21 type  1   force =     0.01955243   -0.00097418    0.00433145
     atom   22 type  1   force =     0.01781056    0.00102979    0.00342708
     atom   23 type  1   force =    -0.00015909   -0.00025914    0.00013621
     atom   24 type  1   force =    -0.00022388    0.00002556    0.00001602
     atom   25 type  1   force =    -0.00003421   -0.00010098   -0.00089173
     atom   26 type  1   force =    -0.00010234    0.00025011   -0.00015743
     atom   27 type  2   force =    -0.00006255   -0.00078209   -0.00092983
     atom   28 type  2   force =     0.00012413    0.00069466    0.00017704
     atom   29 type  2   force =     0.00008017   -0.00087841    0.00049672
     atom   30 type  2   force =    -0.00026667    0.00139359   -0.00044304
     atom   31 type  1   force =    -0.00018715   -0.00032279    0.00043396
     atom   32 type  1   force =    -0.00022964    0.00034113   -0.00000944
     atom   33 type  1   force =     0.00000939   -0.00038033    0.00054757
     atom   34 type  1   force =     0.00020988    0.00042670    0.00021787
     atom   35 type  1   force =     0.00016247   -0.00005249   -0.00138248
     atom   36 type  1   force =    -0.00006716    0.00034058   -0.00012704
     atom   37 type  1   force =    -0.00074400    0.00010318    0.00042207
     atom   38 type  1   force =     0.00008329   -0.00025049   -0.00063158
     atom   39 type  2   force =    -0.00076727    0.00069826    0.00128381
     atom   40 type  2   force =    -0.00102179   -0.00009100    0.00039632
     atom   41 type  2   force =     0.00064623   -0.00092676   -0.00070533
     atom   42 type  2   force =     0.00071071    0.00101662   -0.00061845
     atom   43 type  1   force =    -0.00032653    0.00020100    0.00053775
     atom   44 type  1   force =     0.00056499    0.00014724    0.00053353
     atom   45 type  1   force =    -0.00062558   -0.00004975    0.00038612
     atom   46 type  1   force =     0.00020622    0.00014178    0.00053651
     atom   47 type  1   force =    -0.00044754    0.00077926    0.00148154
     atom   48 type  1   force =    -0.00049772   -0.00009817    0.00098273
     atom   49 type  3   force =    -0.00025198   -0.00032706   -0.00044134
     atom   50 type  4   force =     0.00046633   -0.00090655    0.00016242
     atom   51 type  4   force =     0.00037759   -0.00085939   -0.00062055

     Total force =     0.374457     Total SCF correction =     0.000894
  @ DRIVER MODE: Message from server: STATUS
  @ DRIVER MODE: Message from server: GETFORCE
  @ DRIVER MODE: Returning v,forces,stress,ensemble

     Writing config to output data dir ./calc.save/
  @ DRIVER MODE: Message from server: STATUS
  @ DRIVER MODE: Message from server: INIT
  @ DRIVER MODE: Receiving replica           0           0
  @ DRIVER MODE: Receiving encoded integer           2
  @ DRIVER MODE:  SCF:  T  FORCE:  T  STRESS:  F  VC:  F  ENSEMBLE:  F
  @ DRIVER MODE:  SCF:  F  FORCE:  F  STRESS:  F  VC:  F  ENSEMBLE:  T
  @ DRIVER MODE: Message from server: STATUS
  @ DRIVER MODE: Message from server: POSDATA
  @ DRIVER MODE: Reading and sharing positions
  @ DRIVER MODE: Received positions
     NEW-OLD atomic charge density approx. for the potential

[...]

     Adding external electric field

     Computed dipole along edir(3) :
        Dipole                0.9312 Ry au,          2.3668 Debye
        Dipole field          0.0018 Ry au,

        Potential amp.       -0.1629 Ry
        Total length         46.3494 bohr

  @ DRIVER MODE: BEEF-vdw

[...]

     negative rho (up, down):  1.727E-02 0.000E+00

     negative rho (up, down):  1.727E-02 0.000E+00
 BEEFens 2000 ensemble energies
             -0.345535696854030E+02
             -0.202466758400571E+01
             -0.711127268116606E+01
              0.239783839997574E+02
             -0.118726291590912E+02
             -0.917604095381262E+01
             -0.239616571487076E+02
             -0.501158648545232E+02
             -0.213882619468544E+02
             -0.225282034168321E+02
             -0.209503057577143E+02
              0.425626089636192E+01
              0.199483917492880E+01
             -0.107379250373226E+01
              0.171500248389846E+01
              0.264253850333920E+02
             -0.101544136105329E+02
             -0.717507593403545E+01
              0.117214678176687E+02
             -0.617089279002249E+02
              0.309496621559818E+02
             -0.132947569803824E+02
             -0.238589366767687E+01
             -0.557285055954164E+01
             -0.978604227958897E+00
             -0.211605266526421E+01
              0.478430751293720E+02
             -0.150255214590821E+02
             -0.398306572989469E+01
             -0.302869441079171E+02
              0.391102876710753E+02
             -0.431500095114397E+01
             -0.212820836062794E+02
              0.111816931421298E+02
             -0.204968936385541E+01
              0.129877493189339E+02
             -0.544273796824456E+00
              0.271772650310524E+01
              0.188871354604344E+02
             -0.544368256770841E+02
              0.303341936848582E+02
              0.811365530473986E+01
             -0.625864492962074E+01
             -0.174098385642295E+02
              0.688211069770389E+01
             -0.109175805824467E+02
              0.248072243652880E+02
              0.198263084246352E+02
             -0.127749835971709E+02
             -0.163299242314103E+02
             -0.172619815211829E+02
             -0.207312092297818E+02
              0.105257353034252E+02
             -0.269736910562733E+02
              0.826471098277887E+01
              0.344981075413586E+02
              0.397774248359272E+02
              0.185183440839188E+02
              0.825283003251083E+01
              0.172846584626550E+02
[...]
             -0.406677194921784E+02
              0.277944185249027E+01
             -0.147535926400735E+01
             -0.566747744545040E+01
              0.532081492600298E-01
             -0.362108588570551E+02
             -0.698633838487638E+01
              0.489071651780114E+01
              0.739663207536287E+01
              0.271309377004681E+02
             -0.237318588135314E+02
              0.309226474934097E+02
             -0.221508476824756E+02
              0.142441091812562E+02
              0.224282410921011E+02

 BEEF-vdW xc energy contributions
           1 :   -407.874903795844
           2 :    355.423087349081
           3 :   -270.691407413236
           4 :    182.146632851813
           5 :   -112.564538247964
           6 :    71.0304206548863
           7 :   -53.8110794703798
           8 :    50.8267627718399
           9 :   -52.6097116186880
          10 :    53.9263599417270
          11 :   -53.5677431054496
          12 :    52.0950800838215
          13 :   -49.9113108311662
          14 :    46.7448274950369
          15 :   -42.2435395861874
          16 :    36.6550586897441
          17 :   -30.9423964674665
          18 :    26.3095291752330
          19 :   -23.5887522384938
          20 :    22.8982319302681
          21 :   -23.7299445256734
          22 :    25.2972601329745
          23 :   -26.8753630668689
          24 :    27.9492651117909
          25 :   -28.1996498834842
          26 :    27.4524332565771
          27 :   -25.6933900130567
          28 :    23.1345127303669
          29 :   -20.2449186786197
          30 :    17.6499428020555
          31 :   -47.8260481581061
          32 :   -32.4644549711179
  @ DRIVER MODE: Message from server: STATUS
  @ DRIVER MODE: Message from server: GETFORCE
  @ DRIVER MODE: Returning v,forces,stress,ensemble
  @ DRIVE MODE: Returning Ensemble Energies

     Writing config to output data dir ./calc.save/
  @ DRIVER MODE: Message from server: EXIT
  @ DRIVE MODE: Exiting

     General routines

     Parallel routines

   This run was terminated on:   0: 0:36  10Sep2021

   JOB DONE.