     Program PWSCF v.6.7GPU starts on 24Aug2021 at 19:26:44

     R & G space division:  proc/nbgrp/npool/nimage =      72
     Reading input from /storage/home/hcoda1/3/ntian30/research/carbon/CH2_vib/ads_slab/CH2NNH3_a/out_0026/pw.inp
Warning: card &CELL ignored
Warning: card   CELL_DYNAMICS='IPI', ignored
Warning: card / ignored

     Current dimensions of program PWSCF are:
     Max number of different atomic species (ntypx) = 10
     Max number of k-points (npk) =  40000
     Max angular momentum in pseudopotentials (lmaxx) =  3
     Presently no symmetry can be used with electric field

     Message from routine cell_base_init:
     DEPRECATED: use true lattice parameter, not A to a.u. conversion factor

     IMPORTANT: XC functional enforced from input :
     Exchange-correlation= BEEF-VDW
                           (   1   4  43  14   2   0   0)
     Any further DFT definition will be discarded
     Please, verify this is what you really want

  @ DRIVER MODE: Connecting to
 qe_1139763_2641442.sched-torque.pace.gatech.eduwbguwv_q_scratch
  using UNIX socket
  @ DRIVER MODE: Message from server: STATUS
  @ DRIVER MODE: Message from server: INIT
  @ DRIVER MODE: Receiving replica           0          -1
  @ DRIVER MODE: Receiving encoded integer          25
  @ DRIVER MODE:  SCF:  T  FORCE:  T  STRESS:  F  VC:  F  ENSEMBLE:  F
  @ DRIVER MODE:  SCF:  T  FORCE:  T  STRESS:  F  VC:  F  ENSEMBLE:  F

     Using Slab Decomposition

     bravais-lattice index     =            0
     lattice parameter (alat)  =       1.8897  a.u.
     unit-cell volume          =    6658.9804 (a.u.)^3
     number of atoms/cell      =           55
     number of atomic types    =            5
     number of electrons       =       397.00
     number of Kohn-Sham states=          208
     kinetic-energy cutoff     =      29.3995  Ry
     charge density cutoff     =     293.9946  Ry
     scf convergence threshold =      7.3E-08
     mixing beta               =       0.0500
     number of iterations used =            8  plain     mixing
     Exchange-correlation= BEEF-VDW
                           (   1   4  43  14   2   0   0)

     celldm(1)=   1.889726  celldm(2)=   0.000000  celldm(3)=   0.000000
     celldm(4)=   0.000000  celldm(5)=   0.000000  celldm(6)=   0.000000

     crystal axes: (cart. coord. in units of alat)
               a(1) = (   6.579727   0.000000   0.000000 )
               a(2) = (  -0.000775   5.961596   0.000000 )
               a(3) = (   0.000000   0.000000  25.155947 )

     reciprocal axes: (cart. coord. in units 2 pi/alat)
               b(1) = (  0.151982  0.000020  0.000000 )
               b(2) = (  0.000000  0.167740  0.000000 )
               b(3) = (  0.000000  0.000000  0.039752 )

     PseudoPot. # 1 for Ti read from file:
     /storage/coda1/p-amedford6/0/shared/rich_project_chbe-medford/medford-share/data/pseudos_module/espresso/nninc/pbe/van/Ti.UPF
     MD5 check sum: 8e4df49b7f0d34bbd5052bf3f5ea0213
     Pseudo is Ultrasoft, Zval = 12.0
     Generated by new atomic code, or converted to UPF format
     Using radial grid of  851 points,  6 beta functions with:
                l(1) =   0
                l(2) =   0
                l(3) =   1
                l(4) =   1
                l(5) =   2
                l(6) =   2
     Q(r) pseudized with  8 coefficients,  rinner =    1.000   1.000   1.000
                                                       1.000   1.000

     PseudoPot. # 2 for O  read from file:
     /storage/coda1/p-amedford6/0/shared/rich_project_chbe-medford/medford-share/data/pseudos_module/espresso/nninc/pbe/van/O.UPF
     MD5 check sum: 78c19812648e8988a0fe644b0f25305e
     Pseudo is Ultrasoft, Zval =  6.0
     Generated by new atomic code, or converted to UPF format
     Using radial grid of  737 points,  4 beta functions with:
                l(1) =   0
                l(2) =   0
                l(3) =   1
                l(4) =   1
     Q(r) pseudized with  8 coefficients,  rinner =    0.800   0.800   0.800

     PseudoPot. # 3 for N  read from file:
     /storage/coda1/p-amedford6/0/shared/rich_project_chbe-medford/medford-share/data/pseudos_module/espresso/nninc/pbe/van/N.UPF
     MD5 check sum: 90d10febe142ad51ac9d5be1deb811c4
     Pseudo is Ultrasoft, Zval =  5.0
     Generated by new atomic code, or converted to UPF format
     Using radial grid of  729 points,  4 beta functions with:
                l(1) =   0
                l(2) =   0
                l(3) =   1
                l(4) =   1
     Q(r) pseudized with  8 coefficients,  rinner =    0.800   0.800   0.800

     PseudoPot. # 4 for C  read from file:
     /storage/coda1/p-amedford6/0/shared/rich_project_chbe-medford/medford-share/data/pseudos_module/espresso/nninc/pbe/van/C.UPF
     MD5 check sum: 1a69bf6b8db32088f5b2163dbdb77a27
     Pseudo is Ultrasoft, Zval =  4.0
     Generated by new atomic code, or converted to UPF format
     Using radial grid of  721 points,  4 beta functions with:
                l(1) =   0
                l(2) =   0
                l(3) =   1
                l(4) =   1
     Q(r) pseudized with  8 coefficients,  rinner =    0.800   0.800   0.800

     PseudoPot. # 5 for H  read from file:
     /storage/coda1/p-amedford6/0/shared/rich_project_chbe-medford/medford-share/data/pseudos_module/espresso/nninc/pbe/van/H.UPF
     MD5 check sum: b5ee9d7bfd3a09ee7748110bda690ff7
     Pseudo is Ultrasoft, Zval =  1.0
     Generated by new atomic code, or converted to UPF format
     Using radial grid of  615 points,  1 beta functions with:
                l(1) =   0
     Q(r) pseudized with  8 coefficients,  rinner =    0.800

     atomic species   valence    mass     pseudopotential
        Ti1           12.00    47.86700     Ti( 1.00)
        O1             6.00    15.99900     O ( 1.00)
        N1             5.00    14.00700     N ( 1.00)
        C1             4.00    12.01100     C ( 1.00)
        H1             1.00     1.00800     H ( 1.00)

     No symmetry found

   Cartesian axes

     site n.     atom                  positions (alat units)
         1           Ti1 tau(   1) = (   0.0004258   2.9801865   6.0000000  )
         2           Ti1 tau(   2) = (   3.2906075   1.4906267   6.0002472  )
         3           O1  tau(   3) = (   0.0006271   0.0005054   7.9858123  )
         4           O1  tau(   4) = (   3.2906025   0.0005020   7.3038282  )
         5           O1  tau(   5) = (   4.5942328   1.4918067   9.2879030  )
         6           O1  tau(   6) = (   1.9868534   1.4903216   9.2879459  )
         7           Ti1 tau(   7) = (   3.2907910   2.8959150   9.1758416  )
         8           Ti1 tau(   8) = (   0.0015273   1.4827037   9.2680791  )
         9           O1  tau(   9) = (   3.2870044   0.0008392  11.3329265  )
        10           O1  tau(  10) = (   0.0116148   5.9584955  10.6183126  )
        11           O1  tau(  11) = (   1.3103063   1.4923116  12.6208530  )
        12           O1  tau(  12) = (   5.2933663   1.4849185  12.6124200  )
        13           Ti1 tau(  13) = (   6.5212574   2.9536302  12.6166858  )
        14           Ti1 tau(  14) = (   3.2058376   1.4897313  12.4816367  )
        15           O1  tau(  15) = (   6.5713238   0.0136578  14.6546308  )
        16           O1  tau(  16) = (   3.3039920   0.0133407  13.9274802  )
        17           O1  tau(  17) = (   4.5398155   1.5323753  16.0810081  )
        18           O1  tau(  18) = (   2.0543055   1.5218724  16.0470058  )
        19           Ti1 tau(  19) = (   3.2774803   3.0107093  15.7022328  )
        20           Ti1 tau(  20) = (   6.5342633   1.5374647  15.8423947  )
        21           O1  tau(  21) = (   3.2904802   0.0005063   4.7018136  )
        22           O1  tau(  22) = (   0.0034288   0.0322173  17.2228558  )
        23           O1  tau(  23) = (   1.3043587   1.4918075   6.0039043  )
        24           O1  tau(  24) = (   5.2767064   1.4903225   6.0039473  )
        25           Ti1 tau(  25) = (   0.0000382   5.9609847   6.0000000  )
        26           Ti1 tau(  26) = (   3.2902200   4.4714249   6.0002472  )
        27           O1  tau(  27) = (   0.0002396   2.9813036   7.9858123  )
        28           O1  tau(  28) = (   3.2902150   2.9813002   7.3038282  )
        29           O1  tau(  29) = (   4.5938453   4.4726049   9.2879030  )
        30           O1  tau(  30) = (   1.9864658   4.4711199   9.2879459  )
        31           Ti1 tau(  31) = (   3.2891106   5.8743827   9.1763621  )
        32           Ti1 tau(  32) = (   0.0006254   4.4649316   9.2693709  )
        33           O1  tau(  33) = (   3.2848367   2.9872869  11.3311783  )
        34           O1  tau(  34) = (   0.0092240   2.9805883  10.6323155  )
        35           O1  tau(  35) = (   1.3050274   4.4824158  12.6313026  )
        36           O1  tau(  36) = (   5.2955027   4.4751037  12.6224712  )
        37           Ti1 tau(  37) = (   6.5218534   5.9301143  12.5590122  )
        38           Ti1 tau(  38) = (   3.2037265   4.4702053  12.4865905  )
        39           O1  tau(  39) = (   6.5652647   2.9430126  14.6458727  )
        40           O1  tau(  40) = (   3.3006234   2.9978660  13.9063397  )
        41           O1  tau(  41) = (   4.5289998   4.4870283  16.1192093  )
        42           O1  tau(  42) = (   2.0463452   4.4937679  16.0531255  )
        43           Ti1 tau(  43) = (   3.2679282   0.0255942  15.7259849  )
        44           Ti1 tau(  44) = (   6.5624932   4.6695214  16.1100661  )
        45           O1  tau(  45) = (   3.2900926   2.9813045   4.7018136  )
        46           O1  tau(  46) = (   1.3039711   4.4726057   6.0039043  )
        47           O1  tau(  47) = (   5.2763189   4.4711207   6.0039473  )
        48           N1  tau(  48) = (   0.0665130   2.9625449  17.3937163  )
        49           C1  tau(  49) = (   0.2662726   2.8715582  18.6342609  )
        50           H1  tau(  50) = (   0.3859136   3.7587535  19.2661104  )
        51           H1  tau(  51) = (   0.3502417   1.8926937  19.1273272  )
        52           N1  tau(  52) = (   3.5929462   4.8819607  19.5834040  )
        53           H1  tau(  53) = (   4.1394342   5.6873527  19.8504637  )
        54           H1  tau(  54) = (   4.0752263   4.4438539  18.8113048  )
        55           H1  tau(  55) = (   3.6086599   4.2347498  20.3655469  )

     number of k points=    10  Fermi-Dirac smearing, width (Ry)=  0.0073
                       cart. coord. in units 2pi/alat
        k(    1) = (   0.0000000   0.0000000   0.0000000), wk =   0.1250000
        k(    2) = (   0.0000000   0.0419351   0.0000000), wk =   0.2500000
        k(    3) = (   0.0000000  -0.0838702   0.0000000), wk =   0.1250000
        k(    4) = (   0.0379955   0.0000049   0.0000000), wk =   0.2500000
        k(    5) = (   0.0379955   0.0419400   0.0000000), wk =   0.2500000
        k(    6) = (   0.0379955  -0.0838652   0.0000000), wk =   0.2500000
        k(    7) = (   0.0379955  -0.0419301   0.0000000), wk =   0.2500000
        k(    8) = (  -0.0759910  -0.0000099   0.0000000), wk =   0.1250000
        k(    9) = (  -0.0759910   0.0419252   0.0000000), wk =   0.2500000
        k(   10) = (  -0.0759910  -0.0838800   0.0000000), wk =   0.1250000

     Initial potential from superposition of free atoms

     starting charge  380.99914, renormalised to  397.00000

     negative rho (up, down):  1.455E-02 0.000E+00

     %%%%%%%%%%%%%%%%%%%%%%%%%%%%%%%%%%%%%%%%%%%%%%%%%%%%%%%%%%%%%%%%%%%%%%%%
     %                                                                      %
     % You are using vdW-DF, which was implemented by the Thonhauser group. %
     % Please cite the following two papers that made this development      %
     % possible and the two reviews that describe the various versions:     %
     %                                                                      %
     %   T. Thonhauser et al., PRL 115, 136402 (2015).                      %
     %   T. Thonhauser et al., PRB 76, 125112 (2007).                       %
     %   K. Berland et al., Rep. Prog. Phys. 78, 066501 (2015).             %
     %   D.C. Langreth et al., J. Phys.: Condens. Matter 21, 084203 (2009). %
     %                                                                      %
     %                                                                      %
     % If you are calculating the stress with vdW-DF, please also cite:     %
     %                                                                      %
     %   R. Sabatini et al., J. Phys.: Condens. Matter 24, 424209 (2012).   %
     %                                                                      %
     %%%%%%%%%%%%%%%%%%%%%%%%%%%%%%%%%%%%%%%%%%%%%%%%%%%%%%%%%%%%%%%%%%%%%%%%

     Adding external electric field

     Computed dipole along edir(3) :
        Dipole              -10.1102 Ry au,        -25.6976 Debye
        Dipole field         -0.0191 Ry au,

        Potential amp.        1.7686 Ry
        Total length         46.3494 bohr

     Starting wfcs are  301 atomic wfcs
  @ DRIVER MODE: Message from server: STATUS
  @ DRIVER MODE: Message from server: POSDATA
  @ DRIVER MODE: Reading and sharing cell
  @ DRIVER MODE: Reading and sharing positions
  @ DRIVER MODE: Received positions

     Self-consistent Calculation

     iteration #  1     ecut=    29.40 Ry     beta= 0.05
     Davidson diagonalization with overlap
     c_bands:  2 eigenvalues not converged
     c_bands:  1 eigenvalues not converged
     c_bands:  1 eigenvalues not converged
     c_bands:  1 eigenvalues not converged
     c_bands:  1 eigenvalues not converged
     c_bands:  1 eigenvalues not converged
     c_bands:  1 eigenvalues not converged
     c_bands:  2 eigenvalues not converged
     ethr =  1.00E-05,  avg # of iterations = 19.0

[...]

     total energy              =   -2537.42399968 Ry
     estimated scf accuracy    <    4508.96358933 Ry

     iteration #  2     ecut=    29.40 Ry     beta= 0.05
     Davidson diagonalization with overlap
     ethr =  1.00E-02,  avg # of iterations = 25.1

[...]

     iteration # 64     ecut=    29.40 Ry     beta= 0.05
     Davidson diagonalization with overlap
     c_bands:  1 eigenvalues not converged
     ethr =  2.69E-10,  avg # of iterations = 14.0

[...]

     total energy              =   -2941.70782708 Ry
     estimated scf accuracy    <       0.00000008 Ry

     iteration # 70     ecut=    29.40 Ry     beta= 0.05
     Davidson diagonalization with overlap
     ethr =  1.90E-11,  avg # of iterations =  3.2

     negative rho (up, down):  1.503E-02 0.000E+00

     Adding external electric field

     Computed dipole along edir(3) :
        Dipole                0.8868 Ry au,          2.2540 Debye
        Dipole field          0.0017 Ry au,

        Potential amp.       -0.1551 Ry
        Total length         46.3494 bohr

     End of self-consistent calculation

          k = 0.0000 0.0000 0.0000 ( 18029 PWs)   bands (ev):

   -55.7592 -55.7505 -55.7251 -55.7145 -55.6447 -55.6040 -55.5879 -55.5695
   -55.5676 -55.5337 -55.5314 -55.4978 -55.2785 -55.0262 -54.7362 -54.7022
   -32.3034 -32.2416 -32.1052 -32.0945 -32.0665 -32.0631 -32.0521 -32.0219
   -32.0017 -31.9776 -31.9709 -31.9505 -31.9301 -31.9112 -31.9026 -31.8896
   -31.8757 -31.8635 -31.8484 -31.8162 -31.8134 -31.8107 -31.7692 -31.7624
   -31.7617 -31.7600 -31.7554 -31.7462 -31.7333 -31.7189 -31.7110 -31.7068
   -31.7020 -31.6980 -31.6844 -31.6749 -31.6436 -31.5327 -31.4595 -31.3076
   -31.2799 -31.2336 -31.1432 -31.0550 -31.0326 -30.9600 -30.8735 -30.7624
   -16.4990 -16.2339 -16.0172 -15.9127 -15.8773 -15.7616 -15.5976 -15.4785
   -15.4259 -15.3277 -15.3141 -15.2949 -15.2612 -15.2448 -15.2240 -15.2051
   -15.2004 -15.1830 -15.1694 -15.1179 -15.0951 -15.0577 -14.9605 -14.9310
   -14.8936 -14.8769 -14.8188 -14.8138 -14.6799 -14.3302 -14.0582 -13.2388
   -13.1224  -7.2958  -4.1996  -4.1688  -4.0405  -3.8749  -3.7658  -3.7124
    -3.6643  -3.6037  -3.3980  -3.3075  -3.2826  -2.9862  -2.9403  -2.9254
    -2.9032  -2.8777  -2.6581  -2.6035  -2.5720  -2.5548  -2.5401  -2.5268
    -2.5191  -2.4996  -2.4655  -2.3680  -2.3142  -2.2995  -2.1763  -2.1477
    -2.0875  -2.0711  -2.0243  -2.0091  -1.9961  -1.9913  -1.9631  -1.9468
    -1.9215  -1.8431  -1.7275  -1.5752  -1.5567  -1.5231  -1.4031  -1.3658
    -1.3019  -1.2182  -1.2001  -1.1840  -1.1501  -1.1384  -1.0590  -0.9465
    -0.9060  -0.8973  -0.7941  -0.7541  -0.7338  -0.6297  -0.6059  -0.5380
    -0.5214  -0.5117  -0.4787  -0.3187  -0.2608  -0.2258  -0.1611  -0.1380
    -0.0786  -0.0608  -0.0306   0.0524   0.1003   0.1269   0.1287   0.1775
     0.2158   0.2327   0.2368   0.2516   0.2718   0.4388   0.5147   0.5286
     0.5982   0.6097   0.7722   0.8172   0.8985   1.0014   1.0719   1.2115
     1.2857   1.3755   1.4780   1.6808   1.8570   1.9025   3.3779   3.4614
     3.5098   3.5223   3.6205   3.6616   3.8308   3.8391   3.8496   3.9239

[...]

          k = 0.0380-0.0419 0.0000 ( 17876 PWs)   bands (ev):

[...]

          k =-0.0760-0.0000 0.0000 ( 17886 PWs)   bands (ev):

[...]

          k =-0.0760-0.0839 0.0000 ( 17948 PWs)   bands (ev):

   -55.7425 -55.7417 -55.7332 -55.7315 -55.6388 -55.5936 -55.5885 -55.5849
   -55.5513 -55.5496 -55.5153 -55.5141 -55.2774 -55.0271 -54.7192 -54.7190
   -32.1084 -32.1057 -32.0571 -32.0565 -32.0380 -32.0371 -32.0218 -32.0096
   -31.9572 -31.9531 -31.9485 -31.9444 -31.9098 -31.8830 -31.8816 -31.8784
   -31.8691 -31.8632 -31.8619 -31.8610 -31.8543 -31.8519 -31.8420 -31.8077
   -31.8014 -31.7945 -31.7821 -31.7694 -31.7500 -31.7496 -31.7465 -31.7454
   -31.7299 -31.7292 -31.7244 -31.7216 -31.6420 -31.5351 -31.4560 -31.3743
   -31.2816 -31.2556 -31.0453 -31.0452 -30.9561 -30.9559 -30.9168 -30.9168
   -15.9384 -15.9071 -15.7021 -15.6750 -15.6714 -15.6552 -15.5303 -15.4672
   -15.4541 -15.4519 -15.3878 -15.3675 -15.3308 -15.3035 -15.2892 -15.2791
   -15.2733 -15.2671 -15.2183 -15.2125 -15.1949 -15.1876 -15.0845 -15.0750
   -15.0711 -15.0160 -14.9355 -14.7937 -14.6965 -14.5038 -14.0579 -13.2242
   -13.2242  -7.2923  -4.2103  -4.1595  -4.0404  -3.4394  -3.2283  -3.1910
    -2.9317  -2.9135  -2.8999  -2.8449  -2.6721  -2.6547  -2.6332  -2.6151
    -2.5814  -2.5805  -2.5614  -2.5595  -2.5486  -2.5142  -2.5025  -2.4727
    -2.4352  -2.4248  -2.4131  -2.4118  -2.3817  -2.3720  -2.3333  -2.3038
    -2.2947  -2.2762  -2.2614  -2.0919  -1.9836  -1.9584  -1.8952  -1.8874
    -1.8586  -1.8226  -1.8152  -1.7944  -1.7436  -1.6576  -1.4904  -1.4582
    -1.4399  -1.3779  -1.3603  -1.3095  -1.2295  -1.1557  -1.1334  -1.1281
    -1.0784  -0.9688  -0.9462  -0.9380  -0.8683  -0.8221  -0.8153  -0.7798
    -0.7512  -0.7184  -0.7141  -0.6219  -0.5724  -0.5296  -0.5246  -0.4763
    -0.4089  -0.3976  -0.3690  -0.2599  -0.2371  -0.1797  -0.1450  -0.0351
     0.0284   0.2263   0.2802   0.3163   0.3737   0.4485   0.5309   0.5463
     0.5505   0.5609   0.6168   0.6705   0.7748   0.7836   0.8388   0.9458
     1.0388   1.6060   1.6495   1.6501   1.7224   1.7224   3.6606   3.6724
     3.7113   3.7319   3.8701   3.8854   3.9091   3.9100   3.9614   4.0476

     the Fermi energy is     3.3754 ev

!    total energy              =   -2941.70784563 Ry
     estimated scf accuracy    <       0.00000005 Ry
     smearing contrib. (-TS)   =      -0.02185570 Ry
     internal energy E=F+TS    =   -2941.68598992 Ry

     The total energy is F=E-TS. E is the sum of the following terms:
     one-electron contribution =  -23925.37264313 Ry
     hartree contribution      =   12052.32193073 Ry
     xc contribution           =    -486.77321631 Ry
     ewald contribution        =    9418.13645471 Ry
     electric field correction =       0.00148407 Ry

     convergence has been achieved in  70 iterations

     Forces acting on atoms (cartesian axes, Ry/au):

     atom    1 type  1   force =     0.00002440   -0.00025461    0.09662247
     atom    2 type  1   force =     0.00003953   -0.00059143   -0.17537655
     atom    3 type  2   force =     0.00011394   -0.00004632   -0.02488888
     atom    4 type  2   force =    -0.00000328   -0.00141878    0.05291927
     atom    5 type  2   force =    -0.01226744   -0.00026625    0.00348655
     atom    6 type  2   force =     0.01361827    0.00026270    0.00256162
     atom    7 type  1   force =     0.00031243    0.00058108   -0.01136188
     atom    8 type  1   force =     0.00052324    0.00783380    0.02845496
     atom    9 type  2   force =     0.00020431    0.00041164    0.00049533
     atom   10 type  2   force =    -0.00292159    0.00137926   -0.01555631
     atom   11 type  2   force =     0.00067029   -0.00000745   -0.00001639
     atom   12 type  2   force =    -0.00009213   -0.00013822   -0.00013850
     atom   13 type  1   force =    -0.00019835   -0.00031769    0.00098099
     atom   14 type  1   force =     0.00018415   -0.00007318   -0.00020437
     atom   15 type  2   force =     0.00017685    0.00048241    0.00020174
     atom   16 type  2   force =    -0.00033362   -0.00036001   -0.00028955
     atom   17 type  2   force =    -0.00066373    0.00002531   -0.00044640
     atom   18 type  2   force =     0.00038087    0.00044755   -0.00002853
     atom   19 type  1   force =    -0.00048568   -0.00078467   -0.00026184
     atom   20 type  1   force =     0.00046362    0.00094548   -0.00113468
     atom   21 type  2   force =     0.00005191   -0.00006510    0.10316069
     atom   22 type  2   force =    -0.00077449    0.00004628    0.00064641
     atom   23 type  2   force =    -0.07151717   -0.00013871   -0.02771699
     atom   24 type  2   force =     0.07143650    0.00032139   -0.02779148
     atom   25 type  1   force =     0.00016414   -0.00024668    0.09626629
     atom   26 type  1   force =     0.00008859   -0.00022619   -0.17561590
     atom   27 type  2   force =     0.00016902   -0.00018878   -0.02393870
     atom   28 type  2   force =    -0.00000377   -0.00117574    0.05282882
     atom   29 type  2   force =    -0.01239793    0.00039360    0.00318255
     atom   30 type  2   force =     0.01364716    0.00085863    0.00222712
     atom   31 type  1   force =     0.00028470    0.00323986   -0.01195757
     atom   32 type  1   force =     0.00065992   -0.01007572    0.02886254
     atom   33 type  2   force =     0.00024050   -0.00024469    0.00062988
     atom   34 type  2   force =    -0.00238173    0.00102665   -0.02370234
     atom   35 type  2   force =     0.00059461   -0.00070892   -0.00008792
     atom   36 type  2   force =    -0.00016559   -0.00079625    0.00017852
     atom   37 type  1   force =    -0.00017870   -0.00013741    0.00048100
     atom   38 type  1   force =     0.00030350    0.00036445   -0.00066324
     atom   39 type  2   force =    -0.00009577   -0.00074326    0.00119312
     atom   40 type  2   force =     0.00026508   -0.00062361   -0.00011769
     atom   41 type  2   force =    -0.00026506   -0.00064044    0.00000409
     atom   42 type  2   force =    -0.00034937   -0.00025627    0.00001157
     atom   43 type  1   force =    -0.00048249    0.00070761    0.00004801
     atom   44 type  1   force =    -0.00020830    0.00015884   -0.00035891
     atom   45 type  2   force =     0.00007513   -0.00006813    0.10319856
     atom   46 type  2   force =    -0.07154685   -0.00009154   -0.02774167
     atom   47 type  2   force =     0.07145120    0.00033338   -0.02780487
     atom   48 type  3   force =    -0.00018929   -0.00065132   -0.00126660
     atom   49 type  4   force =     0.00063881   -0.00098465    0.00080117
     atom   50 type  5   force =    -0.00043118    0.00073021    0.00112913
     atom   51 type  5   force =    -0.00028527    0.00064087   -0.00049447
     atom   52 type  3   force =    -0.01129712   -0.00358940    0.00317462
     atom   53 type  5   force =     0.00654403    0.00659052    0.00153645
     atom   54 type  5   force =     0.00560077   -0.00282593   -0.00394845
     atom   55 type  5   force =     0.00060839    0.00095582   -0.00237283

     Total force =     0.368444     Total SCF correction =     0.000738
  @ DRIVER MODE: Message from server: STATUS
  @ DRIVER MODE: Message from server: GETFORCE
  @ DRIVER MODE: Returning v,forces,stress,ensemble

     Writing output data file ./calc.save/
  @ DRIVER MODE: Message from server: EXIT
  @ DRIVE MODE: Exiting

     General routines

     Parallel routines

   This run was terminated on:  19:49:27  24Aug2021

   JOB DONE.