     Program PWSCF v.6.7GPU starts on  2Aug2021 at 19:30:36

     R & G space division:  proc/nbgrp/npool/nimage =      16
     Reading input from /storage/home/hcoda1/3/ntian30/research/carbon/02Aug_vib_paired/ads_slab/CH3NN_a/out_0022/pw.inp
Warning: card &CELL ignored
Warning: card   CELL_DYNAMICS='IPI', ignored
Warning: card / ignored

     Current dimensions of program PWSCF are:
     Max number of different atomic species (ntypx) = 10
     Max number of k-points (npk) =  40000
     Max angular momentum in pseudopotentials (lmaxx) =  3
     Presently no symmetry can be used with electric field

     Message from routine cell_base_init:
     DEPRECATED: use true lattice parameter, not A to a.u. conversion factor

     IMPORTANT: XC functional enforced from input :
     Exchange-correlation= BEEF-VDW
                           (   1   4  43  14   2   0   0)
     Any further DFT definition will be discarded
     Please, verify this is what you really want

  @ DRIVER MODE: Connecting to
 qe_1139763_2482546.sched-torque.pace.gatech.eduygbbkx6k_scratch
  using UNIX socket
  @ DRIVER MODE: Message from server: STATUS
  @ DRIVER MODE: Message from server: INIT
  @ DRIVER MODE: Receiving replica           0          -1
  @ DRIVER MODE: Receiving encoded integer          25
  @ DRIVER MODE:  SCF:  T  FORCE:  T  STRESS:  F  VC:  F  ENSEMBLE:  F
  @ DRIVER MODE:  SCF:  T  FORCE:  T  STRESS:  F  VC:  F  ENSEMBLE:  F

     Using Slab Decomposition

     bravais-lattice index     =            0
     lattice parameter (alat)  =       1.8897  a.u.
     unit-cell volume          =    6658.9804 (a.u.)^3
     number of atoms/cell      =           53
     number of atomic types    =            5
     number of electrons       =       395.00
     number of Kohn-Sham states=          207
     kinetic-energy cutoff     =      29.3995  Ry
     charge density cutoff     =     293.9946  Ry
     scf convergence threshold =      7.3E-08
     mixing beta               =       0.0500
     number of iterations used =            8  plain     mixing
     Exchange-correlation= BEEF-VDW
                           (   1   4  43  14   2   0   0)

     celldm(1)=   1.889726  celldm(2)=   0.000000  celldm(3)=   0.000000
     celldm(4)=   0.000000  celldm(5)=   0.000000  celldm(6)=   0.000000

     crystal axes: (cart. coord. in units of alat)
               a(1) = (   6.579727   0.000000   0.000000 )
               a(2) = (  -0.000775   5.961596   0.000000 )
               a(3) = (   0.000000   0.000000  25.155947 )

     reciprocal axes: (cart. coord. in units 2 pi/alat)
               b(1) = (  0.151982  0.000020  0.000000 )
               b(2) = (  0.000000  0.167740  0.000000 )
               b(3) = (  0.000000  0.000000  0.039752 )

     PseudoPot. # 1 for Ti read from file:
     /storage/coda1/p-amedford6/0/shared/rich_project_chbe-medford/medford-share/data/pseudos_module/espresso/nninc/pbe/van/Ti.UPF
     MD5 check sum: 8e4df49b7f0d34bbd5052bf3f5ea0213
     Pseudo is Ultrasoft, Zval = 12.0
     Generated by new atomic code, or converted to UPF format
     Using radial grid of  851 points,  6 beta functions with:
                l(1) =   0
                l(2) =   0
                l(3) =   1
                l(4) =   1
                l(5) =   2
                l(6) =   2
     Q(r) pseudized with  8 coefficients,  rinner =    1.000   1.000   1.000
                                                       1.000   1.000

     PseudoPot. # 2 for O  read from file:
     /storage/coda1/p-amedford6/0/shared/rich_project_chbe-medford/medford-share/data/pseudos_module/espresso/nninc/pbe/van/O.UPF
     MD5 check sum: 78c19812648e8988a0fe644b0f25305e
     Pseudo is Ultrasoft, Zval =  6.0
     Generated by new atomic code, or converted to UPF format
     Using radial grid of  737 points,  4 beta functions with:
                l(1) =   0
                l(2) =   0
                l(3) =   1
                l(4) =   1
     Q(r) pseudized with  8 coefficients,  rinner =    0.800   0.800   0.800

     PseudoPot. # 3 for N  read from file:
     /storage/coda1/p-amedford6/0/shared/rich_project_chbe-medford/medford-share/data/pseudos_module/espresso/nninc/pbe/van/N.UPF
     MD5 check sum: 90d10febe142ad51ac9d5be1deb811c4
     Pseudo is Ultrasoft, Zval =  5.0
     Generated by new atomic code, or converted to UPF format
     Using radial grid of  729 points,  4 beta functions with:
                l(1) =   0
                l(2) =   0
                l(3) =   1
                l(4) =   1
     Q(r) pseudized with  8 coefficients,  rinner =    0.800   0.800   0.800

     PseudoPot. # 4 for C  read from file:
     /storage/coda1/p-amedford6/0/shared/rich_project_chbe-medford/medford-share/data/pseudos_module/espresso/nninc/pbe/van/C.UPF
     MD5 check sum: 1a69bf6b8db32088f5b2163dbdb77a27
     Pseudo is Ultrasoft, Zval =  4.0
     Generated by new atomic code, or converted to UPF format
     Using radial grid of  721 points,  4 beta functions with:
                l(1) =   0
                l(2) =   0
                l(3) =   1
                l(4) =   1
     Q(r) pseudized with  8 coefficients,  rinner =    0.800   0.800   0.800

     PseudoPot. # 5 for H  read from file:
     /storage/coda1/p-amedford6/0/shared/rich_project_chbe-medford/medford-share/data/pseudos_module/espresso/nninc/pbe/van/H.UPF
     MD5 check sum: b5ee9d7bfd3a09ee7748110bda690ff7
     Pseudo is Ultrasoft, Zval =  1.0
     Generated by new atomic code, or converted to UPF format
     Using radial grid of  615 points,  1 beta functions with:
                l(1) =   0
     Q(r) pseudized with  8 coefficients,  rinner =    0.800

     atomic species   valence    mass     pseudopotential
        Ti1           12.00    47.86700     Ti( 1.00)
        O1             6.00    15.99900     O ( 1.00)
        N1             5.00    14.00700     N ( 1.00)
        C1             4.00    12.01100     C ( 1.00)
        H1             1.00     1.00800     H ( 1.00)

     No symmetry found

   Cartesian axes

     site n.     atom                  positions (alat units)
         1           Ti1 tau(   1) = (   0.0004258   2.9801865   6.0000000  )
         2           Ti1 tau(   2) = (   3.2906075   1.4906267   6.0002472  )
         3           O1  tau(   3) = (   0.0006271   0.0005054   7.9858123  )
         4           O1  tau(   4) = (   3.2906025   0.0005020   7.3038282  )
         5           O1  tau(   5) = (   4.5942328   1.4918067   9.2879030  )
         6           O1  tau(   6) = (   1.9868534   1.4903216   9.2879459  )
         7           Ti1 tau(   7) = (   3.2907910   2.8959150   9.1758416  )
         8           Ti1 tau(   8) = (   0.0015273   1.4827037   9.2680791  )
         9           O1  tau(   9) = (   3.2935944   5.9504131  11.3331737  )
        10           O1  tau(  10) = (   0.0116148   5.9584955  10.6183126  )
        11           O1  tau(  11) = (   1.3139784   1.4900993  12.6222913  )
        12           O1  tau(  12) = (   5.2991156   1.4868386  12.6236412  )
        13           Ti1 tau(  13) = (   6.5257823   2.9641578  12.6501544  )
        14           Ti1 tau(  14) = (   3.2087869   1.4768241  12.4812772  )
        15           O1  tau(  15) = (   0.0069532   0.0155221  14.6013729  )
        16           O1  tau(  16) = (   3.2989757   5.9447163  13.9218705  )
        17           O1  tau(  17) = (   4.5399408   1.4684032  16.0509043  )
        18           O1  tau(  18) = (   2.0534050   1.4785924  16.0487376  )
        19           Ti1 tau(  19) = (   3.3071538   2.9600697  15.7031993  )
        20           Ti1 tau(  20) = (   0.0179100   1.3679571  15.8029155  )
        21           O1  tau(  21) = (   3.2904802   0.0005063   4.7018136  )
        22           O1  tau(  22) = (   0.0297737   0.0076327  17.1327444  )
        23           O1  tau(  23) = (   1.3043587   1.4918075   6.0039043  )
        24           O1  tau(  24) = (   5.2767064   1.4903225   6.0039473  )
        25           Ti1 tau(  25) = (   0.0000382   5.9609847   6.0000000  )
        26           Ti1 tau(  26) = (   3.2902200   4.4714249   6.0002472  )
        27           O1  tau(  27) = (   0.0002396   2.9813036   7.9858123  )
        28           O1  tau(  28) = (   3.2902150   2.9813002   7.3038282  )
        29           O1  tau(  29) = (   4.5938453   4.4726049   9.2879030  )
        30           O1  tau(  30) = (   1.9864658   4.4711199   9.2879459  )
        31           Ti1 tau(  31) = (   3.2891106   5.8743827   9.1763621  )
        32           Ti1 tau(  32) = (   0.0006254   4.4649316   9.2693709  )
        33           O1  tau(  33) = (   3.2925666   2.9731923  11.3325550  )
        34           O1  tau(  34) = (   0.0092240   2.9805883  10.6323155  )
        35           O1  tau(  35) = (   1.3076969   4.4692784  12.6256357  )
        36           O1  tau(  36) = (   5.2992390   4.4652990  12.6273021  )
        37           Ti1 tau(  37) = (   6.5214685   5.9362284  12.5385417  )
        38           Ti1 tau(  38) = (   3.2054519   4.4560432  12.4842663  )
        39           O1  tau(  39) = (   0.0022752   2.9713357  14.7092999  )
        40           O1  tau(  40) = (   3.3007181   2.9764241  13.9083417  )
        41           O1  tau(  41) = (   4.5485645   4.4411382  16.0917119  )
        42           O1  tau(  42) = (   2.0537992   4.4371030  16.0853891  )
        43           Ti1 tau(  43) = (   3.2976414   5.9412218  15.7196561  )
        44           Ti1 tau(  44) = (   0.0123595   4.4653852  16.1631357  )
        45           O1  tau(  45) = (   3.2900926   2.9813045   4.7018136  )
        46           O1  tau(  46) = (   1.3039711   4.4726057   6.0039043  )
        47           O1  tau(  47) = (   5.2763189   4.4711207   6.0039473  )
        48           N1  tau(  48) = (   0.6591532   2.9890904  22.3781942  )
        49           C1  tau(  49) = (   6.5648715   3.0365617  17.8347222  )
        50           H1  tau(  50) = (   6.0219261   3.7962297  18.4082231  )
        51           H1  tau(  51) = (   6.0207922   2.1239738  18.0322221  )
        52           H1  tau(  52) = (   0.9815245   2.9432023  18.2699478  )
        53           N1  tau(  53) = (   6.1995506   3.0156182  22.7499213  )

     number of k points=    10  Fermi-Dirac smearing, width (Ry)=  0.0073
                       cart. coord. in units 2pi/alat
        k(    1) = (   0.0000000   0.0000000   0.0000000), wk =   0.1250000
        k(    2) = (   0.0000000   0.0419351   0.0000000), wk =   0.2500000
        k(    3) = (   0.0000000  -0.0838702   0.0000000), wk =   0.1250000
        k(    4) = (   0.0379955   0.0000049   0.0000000), wk =   0.2500000
        k(    5) = (   0.0379955   0.0419400   0.0000000), wk =   0.2500000
        k(    6) = (   0.0379955  -0.0838652   0.0000000), wk =   0.2500000
        k(    7) = (   0.0379955  -0.0419301   0.0000000), wk =   0.2500000
        k(    8) = (  -0.0759910  -0.0000099   0.0000000), wk =   0.1250000
        k(    9) = (  -0.0759910   0.0419252   0.0000000), wk =   0.2500000
        k(   10) = (  -0.0759910  -0.0838800   0.0000000), wk =   0.1250000

     Initial potential from superposition of free atoms

     starting charge  378.99916, renormalised to  395.00000

     negative rho (up, down):  1.028E-02 0.000E+00

     %%%%%%%%%%%%%%%%%%%%%%%%%%%%%%%%%%%%%%%%%%%%%%%%%%%%%%%%%%%%%%%%%%%%%%%%
     %                                                                      %
     % You are using vdW-DF, which was implemented by the Thonhauser group. %
     % Please cite the following two papers that made this development      %
     % possible and the two reviews that describe the various versions:     %
     %                                                                      %
     %   T. Thonhauser et al., PRL 115, 136402 (2015).                      %
     %   T. Thonhauser et al., PRB 76, 125112 (2007).                       %
     %   K. Berland et al., Rep. Prog. Phys. 78, 066501 (2015).             %
     %   D.C. Langreth et al., J. Phys.: Condens. Matter 21, 084203 (2009). %
     %                                                                      %
     %                                                                      %
     % If you are calculating the stress with vdW-DF, please also cite:     %
     %                                                                      %
     %   R. Sabatini et al., J. Phys.: Condens. Matter 24, 424209 (2012).   %
     %                                                                      %
     %%%%%%%%%%%%%%%%%%%%%%%%%%%%%%%%%%%%%%%%%%%%%%%%%%%%%%%%%%%%%%%%%%%%%%%%

     Adding external electric field

     Computed dipole along edir(3) :
        Dipole              -11.4336 Ry au,        -29.0614 Debye
        Dipole field         -0.0216 Ry au,

        Potential amp.        2.0001 Ry
        Total length         46.3494 bohr

     Starting wfcs are  299 atomic wfcs
  @ DRIVER MODE: Message from server: STATUS
  @ DRIVER MODE: Message from server: POSDATA
  @ DRIVER MODE: Reading and sharing cell
  @ DRIVER MODE: Reading and sharing positions
  @ DRIVER MODE: Received positions

     Self-consistent Calculation

     iteration #  1     ecut=    29.40 Ry     beta= 0.05
     Davidson diagonalization with overlap
     c_bands:  1 eigenvalues not converged
     c_bands:  1 eigenvalues not converged
     c_bands:  1 eigenvalues not converged
     c_bands:  1 eigenvalues not converged
     c_bands:  2 eigenvalues not converged
     c_bands:  2 eigenvalues not converged
     c_bands:  1 eigenvalues not converged
     ethr =  1.00E-05,  avg # of iterations = 19.2

[...]

     total energy              =   -2597.27117355 Ry
     estimated scf accuracy    <    3830.58745685 Ry

     iteration #  2     ecut=    29.40 Ry     beta= 0.05
     Davidson diagonalization with overlap
     ethr =  1.00E-02,  avg # of iterations = 22.3

[...]

     iteration # 55     ecut=    29.40 Ry     beta= 0.05
     Davidson diagonalization with overlap
     c_bands:  3 eigenvalues not converged
     ethr =  2.47E-09,  avg # of iterations = 13.1

[...]

     total energy              =   -2939.19597910 Ry
     estimated scf accuracy    <       0.00000010 Ry

     iteration # 65     ecut=    29.40 Ry     beta= 0.05
     Davidson diagonalization with overlap
     ethr =  2.64E-11,  avg # of iterations = 12.8

     negative rho (up, down):  1.218E-02 0.000E+00

     Adding external electric field

     Computed dipole along edir(3) :
        Dipole                0.4058 Ry au,          1.0315 Debye
        Dipole field          0.0008 Ry au,

        Potential amp.       -0.0710 Ry
        Total length         46.3494 bohr

     End of self-consistent calculation

          k = 0.0000 0.0000 0.0000 ( 18029 PWs)   bands (ev):

   -56.0201 -56.0091 -55.9860 -55.9731 -55.9024 -55.8778 -55.8569 -55.8347
   -55.8259 -55.7923 -55.7919 -55.7585 -55.5768 -55.4529 -54.9970 -54.9630
   -32.5647 -32.5022 -32.3734 -32.3561 -32.3259 -32.3252 -32.3130 -32.2827
   -32.2621 -32.2385 -32.2324 -32.2201 -32.1901 -32.1722 -32.1611 -32.1494
   -32.1335 -32.1241 -32.1078 -32.0817 -32.0788 -32.0771 -32.0393 -32.0312
   -32.0280 -32.0232 -32.0137 -32.0097 -31.9946 -31.9924 -31.9869 -31.9671
   -31.9663 -31.9600 -31.9449 -31.9294 -31.9040 -31.8613 -31.7903 -31.7359
   -31.6690 -31.5574 -31.4041 -31.3157 -31.2933 -31.2208 -31.1343 -31.0233
   -20.6294 -16.7664 -16.4953 -16.2723 -16.1736 -16.1477 -16.0309 -15.8630
   -15.7387 -15.6944 -15.5942 -15.5790 -15.5556 -15.5252 -15.5128 -15.5037
   -15.4683 -15.4609 -15.4434 -15.4316 -15.3806 -15.3627 -15.3530 -15.2415
   -15.1959 -15.1544 -15.1384 -15.0744 -15.0257 -14.6384 -13.4996 -13.3832
    -9.1084  -5.7962  -4.1386  -3.9782  -3.9258  -3.8820  -3.8516  -3.7559
    -3.7526  -3.6353  -3.5715  -3.2646  -3.2074  -3.1912  -3.1734  -3.1455
    -2.9856  -2.9198  -2.8550  -2.8332  -2.8265  -2.7981  -2.7900  -2.7765
    -2.7399  -2.7010  -2.6786  -2.6327  -2.5810  -2.5040  -2.5011  -2.4359
    -2.4132  -2.3342  -2.3163  -2.2898  -2.2611  -2.2472  -2.2383  -2.2168
    -2.2010  -2.1784  -1.9905  -1.9643  -1.8936  -1.8087  -1.8039  -1.6268
    -1.5273  -1.4979  -1.4729  -1.4460  -1.4114  -1.3969  -1.3187  -1.2084
    -1.1753  -1.1374  -1.0756  -1.0251  -0.9936  -0.8938  -0.8707  -0.7818
    -0.7805  -0.7561  -0.7015  -0.6130  -0.5055  -0.4754  -0.4581  -0.4108
    -0.3759  -0.3119  -0.2947  -0.2339  -0.1683  -0.1571  -0.0818  -0.0551
    -0.0506  -0.0262  -0.0150   0.0295   0.0436   0.1648   0.1880   0.2738
     0.3183   0.4139   0.5349   0.6394   0.6764   0.7354   0.9505   1.0249
     1.1245   1.1660   1.2172   1.5962   1.6418   3.1194   3.2025   3.2506
     3.2581   3.3516   3.3651   3.5673   3.5940   3.6248   3.6646

[...]

          k = 0.0380-0.0419 0.0000 ( 17876 PWs)   bands (ev):

[...]

          k =-0.0760-0.0000 0.0000 ( 17886 PWs)   bands (ev):

[...]

          k =-0.0760-0.0839 0.0000 ( 17948 PWs)   bands (ev):

   -56.0035 -56.0024 -55.9916 -55.9904 -55.8945 -55.8694 -55.8647 -55.8430
   -55.8098 -55.8076 -55.7773 -55.7737 -55.5748 -55.4548 -54.9800 -54.9798
   -32.3685 -32.3674 -32.3177 -32.3171 -32.2988 -32.2980 -32.2832 -32.2747
   -32.2270 -32.2126 -32.2100 -32.2053 -32.1689 -32.1523 -32.1493 -32.1385
   -32.1307 -32.1230 -32.1217 -32.1216 -32.1152 -32.1116 -32.0942 -32.0863
   -32.0622 -32.0594 -32.0550 -32.0297 -32.0100 -32.0088 -32.0073 -32.0054
   -31.9913 -31.9894 -31.9866 -31.9815 -31.9407 -31.8463 -31.7924 -31.7386
   -31.7093 -31.6076 -31.3061 -31.3059 -31.2170 -31.2168 -31.1776 -31.1775
   -20.6292 -16.2012 -16.1805 -15.9775 -15.9346 -15.9291 -15.9242 -15.8207
   -15.7173 -15.7150 -15.7133 -15.6432 -15.6185 -15.6072 -15.5581 -15.5553
   -15.5443 -15.5328 -15.5277 -15.4813 -15.4741 -15.4567 -15.4480 -15.3827
   -15.3359 -15.3314 -15.3098 -15.1207 -14.9998 -14.9210 -13.4852 -13.4848
    -9.1211  -5.7994  -3.7596  -3.7552  -3.4925  -3.4682  -3.2360  -3.1801
    -3.1676  -3.0940  -2.9514  -2.9156  -2.9093  -2.8969  -2.8631  -2.8523
    -2.8371  -2.8276  -2.8176  -2.7906  -2.7668  -2.7332  -2.7273  -2.7034
    -2.6887  -2.6710  -2.6470  -2.6373  -2.6187  -2.5930  -2.5801  -2.5594
    -2.5489  -2.5237  -2.4865  -2.3541  -2.2536  -2.2170  -2.1567  -2.1491
    -2.1305  -2.0963  -2.0814  -2.0643  -2.0601  -2.0066  -1.8484  -1.7403
    -1.7247  -1.6879  -1.6399  -1.6185  -1.5665  -1.4298  -1.4033  -1.3771
    -1.3146  -1.3020  -1.2559  -1.2335  -1.2198  -1.1392  -1.1222  -1.0615
    -0.9994  -0.9801  -0.9764  -0.9201  -0.8606  -0.7901  -0.7798  -0.7370
    -0.6995  -0.6493  -0.6319  -0.5954  -0.5262  -0.4896  -0.3700  -0.3209
    -0.0921  -0.0403   0.0269   0.0735   0.1319   0.1789   0.1834   0.2984
     0.3007   0.3148   0.4140   0.4192   0.5074   0.5247   0.5478   0.7376
     1.2630   1.3886   1.3895   1.4612   1.4619   3.3943   3.4125   3.4418
     3.4838   3.6199   3.6292   3.6479   3.6493   3.7754   3.7967

     the Fermi energy is     3.1153 ev

!    total energy              =   -2939.19600583 Ry
     estimated scf accuracy    <       0.00000006 Ry
     smearing contrib. (-TS)   =      -0.02186587 Ry
     internal energy E=F+TS    =   -2939.17413996 Ry

     The total energy is F=E-TS. E is the sum of the following terms:
     one-electron contribution =  -23189.51718997 Ry
     hartree contribution      =   11680.03163770 Ry
     xc contribution           =    -484.91092576 Ry
     ewald contribution        =    9055.22202729 Ry
     electric field correction =       0.00031078 Ry

     convergence has been achieved in  65 iterations

     Forces acting on atoms (cartesian axes, Ry/au):

     atom    1 type  1   force =     0.00000009   -0.00019227    0.09686705
     atom    2 type  1   force =    -0.00000910   -0.00054535   -0.17525457
     atom    3 type  2   force =     0.00009431   -0.00001191   -0.02518819
     atom    4 type  2   force =    -0.00003033   -0.00141195    0.05282299
     atom    5 type  2   force =    -0.01240253   -0.00103485    0.00324357
     atom    6 type  2   force =     0.01389351   -0.00053328    0.00284448
     atom    7 type  1   force =     0.00059763    0.00044999   -0.01143847
     atom    8 type  1   force =     0.00025552    0.01540626    0.02922940
     atom    9 type  2   force =    -0.00019819    0.00078672    0.00004570
     atom   10 type  2   force =    -0.00283996    0.00140949   -0.01827074
     atom   11 type  2   force =     0.00081064    0.00002544   -0.00002616
     atom   12 type  2   force =    -0.00061577   -0.00015948   -0.00011056
     atom   13 type  1   force =     0.00059762   -0.00030332   -0.00001763
     atom   14 type  1   force =    -0.00040333    0.00030010   -0.00009345
     atom   15 type  2   force =     0.00015184   -0.00013466    0.00070659
     atom   16 type  2   force =    -0.00015010    0.00008517    0.00048304
     atom   17 type  2   force =     0.00033188   -0.00056740   -0.00010773
     atom   18 type  2   force =    -0.00000702   -0.00064028    0.00007713
     atom   19 type  1   force =    -0.00009982   -0.00143970   -0.00032711
     atom   20 type  1   force =     0.00008207    0.00012936   -0.00007212
     atom   21 type  2   force =     0.00002560    0.00005577    0.10326354
     atom   22 type  2   force =    -0.00024814    0.00068694   -0.00004450
     atom   23 type  2   force =    -0.07154102   -0.00009593   -0.02769756
     atom   24 type  2   force =     0.07140825    0.00039360   -0.02775841
     atom   25 type  1   force =     0.00005178   -0.00026681    0.09666080
     atom   26 type  1   force =     0.00003265   -0.00013629   -0.17542806
     atom   27 type  2   force =     0.00012852   -0.00012294   -0.02392464
     atom   28 type  2   force =    -0.00000670   -0.00118654    0.05300684
     atom   29 type  2   force =    -0.01259694    0.00056067    0.00299894
     atom   30 type  2   force =     0.01395463    0.00101870    0.00262832
     atom   31 type  1   force =     0.00052250    0.00341248   -0.01250276
     atom   32 type  1   force =     0.00028041   -0.01699634    0.02993441
     atom   33 type  2   force =    -0.00024815   -0.00053039   -0.00050942
     atom   34 type  2   force =    -0.00265664    0.00030775   -0.02242500
     atom   35 type  2   force =    -0.00005850   -0.00016680    0.00001489
     atom   36 type  2   force =     0.00001529   -0.00002032    0.00005066
     atom   37 type  1   force =     0.00028894   -0.00037560   -0.00057017
     atom   38 type  1   force =    -0.00023393    0.00040477    0.00020834
     atom   39 type  2   force =     0.00002298   -0.00038338    0.00030833
     atom   40 type  2   force =     0.00032386   -0.00051053    0.00000042
     atom   41 type  2   force =    -0.00037758    0.00012846    0.00003789
     atom   42 type  2   force =     0.00052575    0.00030639   -0.00008734
     atom   43 type  1   force =    -0.00025619    0.00067686    0.00004772
     atom   44 type  1   force =     0.00029764   -0.00038201   -0.00005147
     atom   45 type  2   force =     0.00002155    0.00002279    0.10325699
     atom   46 type  2   force =    -0.07153374   -0.00000716   -0.02769237
     atom   47 type  2   force =     0.07138104    0.00040027   -0.02775462
     atom   48 type  3   force =    -0.00081139    0.00017072   -0.00040867
     atom   49 type  4   force =     0.00584689    0.00839322   -0.00266100
     atom   50 type  5   force =    -0.00009175    0.00196236    0.00010979
     atom   51 type  5   force =    -0.00489527   -0.01020486    0.00190051
     atom   52 type  5   force =    -0.00032450    0.00061679    0.00004834
     atom   53 type  3   force =     0.00069322    0.00024931   -0.00037398

     Total force =     0.369167     Total SCF correction =     0.000434
  @ DRIVER MODE: Message from server: STATUS
  @ DRIVER MODE: Message from server: GETFORCE
  @ DRIVER MODE: Returning v,forces,stress,ensemble

     Writing output data file ./calc.save/
  @ DRIVER MODE: Message from server: EXIT
  @ DRIVE MODE: Exiting

     General routines

     Parallel routines

   This run was terminated on:  19:45: 6   2Aug2021

   JOB DONE.