     Program PWSCF v.6.7GPU starts on 29Sep2021 at  8:14: 4

     R & G space division:  proc/nbgrp/npool/nimage =       8
     Reading input from /storage/home/hcoda1/3/ntian30/research/carbon/CxH_vib/H2O_calc/ads_slab/CHNHNH2HO_b/out_0052/pw.inp
Warning: card &CELL ignored
Warning: card   CELL_DYNAMICS='IPI', ignored
Warning: card / ignored

     Current dimensions of program PWSCF are:
     Max number of different atomic species (ntypx) = 10
     Max number of k-points (npk) =  40000
     Max angular momentum in pseudopotentials (lmaxx) =  3
     Presently no symmetry can be used with electric field

     Message from routine cell_base_init:
     DEPRECATED: use true lattice parameter, not A to a.u. conversion factor

     IMPORTANT: XC functional enforced from input :
     Exchange-correlation= BEEF-VDW
                           (   1   4  43  14   2   0   0)
     Any further DFT definition will be discarded
     Please, verify this is what you really want

  @ DRIVER MODE: Connecting to
 qe_1139763_3009830.sched-torque.pace.gatech.edu2s66q97i_scratch
  using UNIX socket
  @ DRIVER MODE: Message from server: STATUS
  @ DRIVER MODE: Message from server: INIT
  @ DRIVER MODE: Receiving replica           0          -1
  @ DRIVER MODE: Receiving encoded integer          25
  @ DRIVER MODE:  SCF:  T  FORCE:  T  STRESS:  F  VC:  F  ENSEMBLE:  F
  @ DRIVER MODE:  SCF:  T  FORCE:  T  STRESS:  F  VC:  F  ENSEMBLE:  F

     Using Slab Decomposition

     bravais-lattice index     =            0
     lattice parameter (alat)  =       1.8897  a.u.
     unit-cell volume          =    6658.9804 (a.u.)^3
     number of atoms/cell      =           56
     number of atomic types    =            5
     number of electrons       =       403.00
     number of Kohn-Sham states=          211
     kinetic-energy cutoff     =      29.3995  Ry
     charge density cutoff     =     293.9946  Ry
     scf convergence threshold =      7.3E-08
     mixing beta               =       0.0500
     number of iterations used =            8  plain     mixing
     Exchange-correlation= BEEF-VDW
                           (   1   4  43  14   2   0   0)

     celldm(1)=   1.889726  celldm(2)=   0.000000  celldm(3)=   0.000000
     celldm(4)=   0.000000  celldm(5)=   0.000000  celldm(6)=   0.000000

     crystal axes: (cart. coord. in units of alat)
               a(1) = (   6.579727   0.000000   0.000000 )
               a(2) = (  -0.000775   5.961596   0.000000 )
               a(3) = (   0.000000   0.000000  25.155947 )

     reciprocal axes: (cart. coord. in units 2 pi/alat)
               b(1) = (  0.151982  0.000020  0.000000 )
               b(2) = (  0.000000  0.167740  0.000000 )
               b(3) = (  0.000000  0.000000  0.039752 )

     PseudoPot. # 1 for Ti read from file:
     /storage/coda1/p-amedford6/0/shared/rich_project_chbe-medford/medford-share/data/pseudos_module/espresso/nninc/pbe/van/Ti.UPF
     MD5 check sum: 8e4df49b7f0d34bbd5052bf3f5ea0213
     Pseudo is Ultrasoft, Zval = 12.0
     Generated by new atomic code, or converted to UPF format
     Using radial grid of  851 points,  6 beta functions with:
                l(1) =   0
                l(2) =   0
                l(3) =   1
                l(4) =   1
                l(5) =   2
                l(6) =   2
     Q(r) pseudized with  8 coefficients,  rinner =    1.000   1.000   1.000
                                                       1.000   1.000

     PseudoPot. # 2 for O  read from file:
     /storage/coda1/p-amedford6/0/shared/rich_project_chbe-medford/medford-share/data/pseudos_module/espresso/nninc/pbe/van/O.UPF
     MD5 check sum: 78c19812648e8988a0fe644b0f25305e
     Pseudo is Ultrasoft, Zval =  6.0
     Generated by new atomic code, or converted to UPF format
     Using radial grid of  737 points,  4 beta functions with:
                l(1) =   0
                l(2) =   0
                l(3) =   1
                l(4) =   1
     Q(r) pseudized with  8 coefficients,  rinner =    0.800   0.800   0.800

     PseudoPot. # 3 for N  read from file:
     /storage/coda1/p-amedford6/0/shared/rich_project_chbe-medford/medford-share/data/pseudos_module/espresso/nninc/pbe/van/N.UPF
     MD5 check sum: 90d10febe142ad51ac9d5be1deb811c4
     Pseudo is Ultrasoft, Zval =  5.0
     Generated by new atomic code, or converted to UPF format
     Using radial grid of  729 points,  4 beta functions with:
                l(1) =   0
                l(2) =   0
                l(3) =   1
                l(4) =   1
     Q(r) pseudized with  8 coefficients,  rinner =    0.800   0.800   0.800

     PseudoPot. # 4 for C  read from file:
     /storage/coda1/p-amedford6/0/shared/rich_project_chbe-medford/medford-share/data/pseudos_module/espresso/nninc/pbe/van/C.UPF
     MD5 check sum: 1a69bf6b8db32088f5b2163dbdb77a27
     Pseudo is Ultrasoft, Zval =  4.0
     Generated by new atomic code, or converted to UPF format
     Using radial grid of  721 points,  4 beta functions with:
                l(1) =   0
                l(2) =   0
                l(3) =   1
                l(4) =   1
     Q(r) pseudized with  8 coefficients,  rinner =    0.800   0.800   0.800

     PseudoPot. # 5 for H  read from file:
     /storage/coda1/p-amedford6/0/shared/rich_project_chbe-medford/medford-share/data/pseudos_module/espresso/nninc/pbe/van/H.UPF
     MD5 check sum: b5ee9d7bfd3a09ee7748110bda690ff7
     Pseudo is Ultrasoft, Zval =  1.0
     Generated by new atomic code, or converted to UPF format
     Using radial grid of  615 points,  1 beta functions with:
                l(1) =   0
     Q(r) pseudized with  8 coefficients,  rinner =    0.800

     atomic species   valence    mass     pseudopotential
        Ti1           12.00    47.86700     Ti( 1.00)
        O1             6.00    15.99900     O ( 1.00)
        N1             5.00    14.00700     N ( 1.00)
        C1             4.00    12.01100     C ( 1.00)
        H1             1.00     1.00800     H ( 1.00)

     No symmetry found

   Cartesian axes

     site n.     atom                  positions (alat units)
         1           Ti1 tau(   1) = (   0.0004258   2.9801865   6.0000000  )
         2           Ti1 tau(   2) = (   3.2906075   1.4906267   6.0002472  )
         3           O1  tau(   3) = (   0.0006271   0.0005054   7.9858123  )
         4           O1  tau(   4) = (   3.2906025   0.0005020   7.3038282  )
         5           O1  tau(   5) = (   4.5942328   1.4918067   9.2879030  )
         6           O1  tau(   6) = (   1.9868534   1.4903216   9.2879459  )
         7           Ti1 tau(   7) = (   3.2907910   2.8959150   9.1758416  )
         8           Ti1 tau(   8) = (   0.0015273   1.4827037   9.2680791  )
         9           O1  tau(   9) = (   3.2982983   0.0405180  11.3424948  )
        10           O1  tau(  10) = (   0.0116148   5.9584955  10.6183126  )
        11           O1  tau(  11) = (   1.2753745   1.5072422  12.7016807  )
        12           O1  tau(  12) = (   5.3195175   1.5181342  12.6954276  )
        13           Ti1 tau(  13) = (   0.0019584   2.9687762  12.4995492  )
        14           Ti1 tau(  14) = (   3.3051642   1.5697923  12.4614731  )
        15           O1  tau(  15) = (   6.5474216   5.8614089  14.6874354  )
        16           O1  tau(  16) = (   3.3077571   5.9224049  13.9445013  )
        17           O1  tau(  17) = (   4.5645563   1.5748115  16.1270233  )
        18           O1  tau(  18) = (   2.0342606   1.5395256  16.0843959  )
        19           Ti1 tau(  19) = (   3.2752269   2.9899004  15.7194909  )
        20           Ti1 tau(  20) = (   6.5310352   1.3332667  15.7916221  )
        21           O1  tau(  21) = (   3.2904802   0.0005063   4.7018136  )
        22           O1  tau(  22) = (   0.0193913   0.2006272  17.2172921  )
        23           O1  tau(  23) = (   1.3043587   1.4918075   6.0039043  )
        24           O1  tau(  24) = (   5.2767064   1.4903225   6.0039473  )
        25           Ti1 tau(  25) = (   0.0000382   5.9609847   6.0000000  )
        26           Ti1 tau(  26) = (   3.2902200   4.4714249   6.0002472  )
        27           O1  tau(  27) = (   0.0002396   2.9813036   7.9858123  )
        28           O1  tau(  28) = (   3.2902150   2.9813002   7.3038282  )
        29           O1  tau(  29) = (   4.5938453   4.4726049   9.2879030  )
        30           O1  tau(  30) = (   1.9864658   4.4711199   9.2879459  )
        31           Ti1 tau(  31) = (   3.2891106   5.8743827   9.1763621  )
        32           Ti1 tau(  32) = (   0.0006254   4.4649316   9.2693709  )
        33           O1  tau(  33) = (   3.2939295   2.9453814  11.3217152  )
        34           O1  tau(  34) = (   0.0092240   2.9805883  10.6323155  )
        35           O1  tau(  35) = (   1.2781447   4.4822909  12.6561401  )
        36           O1  tau(  36) = (   5.3212068   4.4743896  12.6463055  )
        37           Ti1 tau(  37) = (   0.0302233   5.9315785  12.5023592  )
        38           Ti1 tau(  38) = (   3.3112215   4.6713144  12.7097751  )
        39           O1  tau(  39) = (   0.0192075   3.0624537  14.9697097  )
        40           O1  tau(  40) = (   3.2993887   3.0147307  13.9488589  )
        41           O1  tau(  41) = (   4.5718800   4.4489939  16.2708329  )
        42           O1  tau(  42) = (   2.0246426   4.4466800  16.2581844  )
        43           Ti1 tau(  43) = (   3.2612680   0.0306108  16.4716933  )
        44           Ti1 tau(  44) = (   6.5506247   4.5497786  16.0606151  )
        45           O1  tau(  45) = (   3.2900926   2.9813045   4.7018136  )
        46           O1  tau(  46) = (   1.3039711   4.4726057   6.0039043  )
        47           O1  tau(  47) = (   5.2763189   4.4711207   6.0039473  )
        48           N1  tau(  48) = (   0.9981237   2.4704741  18.7333368  )
        49           N1  tau(  49) = (   6.5532285   3.4232418  18.2716252  )
        50           C1  tau(  50) = (   2.1690532   2.7243113  19.1879583  )
        51           H1  tau(  51) = (   2.3212509   3.8010200  19.3435938  )
        52           H1  tau(  52) = (   0.7222050   1.5235952  18.4365492  )
        53           H1  tau(  53) = (   0.1086806   4.2950834  18.7847415  )
        54           H1  tau(  54) = (   5.6367167   3.0457734  18.5222562  )
        55           O1  tau(  55) = (   3.2473456   0.1866190  18.2687603  )
        56           H1  tau(  56) = (   3.0571027   1.0591837  18.7494863  )

     number of k points=    10  Fermi-Dirac smearing, width (Ry)=  0.0073
                       cart. coord. in units 2pi/alat
        k(    1) = (   0.0000000   0.0000000   0.0000000), wk =   0.1250000
        k(    2) = (   0.0000000   0.0419351   0.0000000), wk =   0.2500000
        k(    3) = (   0.0000000  -0.0838702   0.0000000), wk =   0.1250000
        k(    4) = (   0.0379955   0.0000049   0.0000000), wk =   0.2500000
        k(    5) = (   0.0379955   0.0419400   0.0000000), wk =   0.2500000
        k(    6) = (   0.0379955  -0.0838652   0.0000000), wk =   0.2500000
        k(    7) = (   0.0379955  -0.0419301   0.0000000), wk =   0.2500000
        k(    8) = (  -0.0759910  -0.0000099   0.0000000), wk =   0.1250000
        k(    9) = (  -0.0759910   0.0419252   0.0000000), wk =   0.2500000
        k(   10) = (  -0.0759910  -0.0838800   0.0000000), wk =   0.1250000

     Initial potential from superposition of free atoms

     starting charge  386.99914, renormalised to  403.00000

     negative rho (up, down):  1.628E-02 0.000E+00

     %%%%%%%%%%%%%%%%%%%%%%%%%%%%%%%%%%%%%%%%%%%%%%%%%%%%%%%%%%%%%%%%%%%%%%%%
     %                                                                      %
     % You are using vdW-DF, which was implemented by the Thonhauser group. %
     % Please cite the following two papers that made this development      %
     % possible and the two reviews that describe the various versions:     %
     %                                                                      %
     %   T. Thonhauser et al., PRL 115, 136402 (2015).                      %
     %   T. Thonhauser et al., PRB 76, 125112 (2007).                       %
     %   K. Berland et al., Rep. Prog. Phys. 78, 066501 (2015).             %
     %   D.C. Langreth et al., J. Phys.: Condens. Matter 21, 084203 (2009). %
     %                                                                      %
     %                                                                      %
     % If you are calculating the stress with vdW-DF, please also cite:     %
     %                                                                      %
     %   R. Sabatini et al., J. Phys.: Condens. Matter 24, 424209 (2012).   %
     %                                                                      %
     %%%%%%%%%%%%%%%%%%%%%%%%%%%%%%%%%%%%%%%%%%%%%%%%%%%%%%%%%%%%%%%%%%%%%%%%

     Adding external electric field

     Computed dipole along edir(3) :
        Dipole              -13.0968 Ry au,        -33.2887 Debye
        Dipole field         -0.0247 Ry au,

        Potential amp.        2.2911 Ry
        Total length         46.3494 bohr

     Starting wfcs are  305 atomic wfcs
  @ DRIVER MODE: Message from server: STATUS
  @ DRIVER MODE: Message from server: POSDATA
  @ DRIVER MODE: Reading and sharing cell
  @ DRIVER MODE: Reading and sharing positions
  @ DRIVER MODE: Received positions

     Self-consistent Calculation

     iteration #  1     ecut=    29.40 Ry     beta= 0.05
     Davidson diagonalization with overlap
     c_bands:  5 eigenvalues not converged
     c_bands:  2 eigenvalues not converged
     c_bands:  5 eigenvalues not converged
     c_bands:  1 eigenvalues not converged
     c_bands:  1 eigenvalues not converged
     c_bands:  5 eigenvalues not converged
     c_bands:  3 eigenvalues not converged
     c_bands:  1 eigenvalues not converged
     ethr =  1.00E-05,  avg # of iterations = 26.0

[...]

     total energy              =   -2284.67354912 Ry
     estimated scf accuracy    <    7797.25016225 Ry

     iteration #  2     ecut=    29.40 Ry     beta= 0.05
     Davidson diagonalization with overlap
     ethr =  1.00E-02,  avg # of iterations = 25.2

[...]

     iteration # 49     ecut=    29.40 Ry     beta= 0.05
     Davidson diagonalization with overlap
     c_bands:  1 eigenvalues not converged
     c_bands:  1 eigenvalues not converged
     ethr =  7.28E-07,  avg # of iterations = 15.1

[...]

     total energy              =   -2973.89794540 Ry
     estimated scf accuracy    <       0.00000009 Ry

     iteration # 68     ecut=    29.40 Ry     beta= 0.05
     Davidson diagonalization with overlap
     ethr =  2.26E-11,  avg # of iterations =  6.7

     negative rho (up, down):  1.612E-02 0.000E+00

     Adding external electric field

     Computed dipole along edir(3) :
        Dipole                0.8578 Ry au,          2.1804 Debye
        Dipole field          0.0016 Ry au,

        Potential amp.       -0.1501 Ry
        Total length         46.3494 bohr

     End of self-consistent calculation

          k = 0.0000 0.0000 0.0000 ( 18029 PWs)   bands (ev):

   -55.6349 -55.6326 -55.6009 -55.5661 -55.4851 -55.4629 -55.4427 -55.4393
   -55.4289 -55.3861 -55.3438 -55.2871 -55.2075 -55.0617 -54.5980 -54.5640
   -32.1192 -32.0938 -31.9696 -31.9676 -31.9663 -31.9255 -31.8945 -31.8808
   -31.8740 -31.8553 -31.8395 -31.8296 -31.7876 -31.7579 -31.7440 -31.7413
   -31.7367 -31.7230 -31.7024 -31.6977 -31.6927 -31.6673 -31.6611 -31.6483
   -31.6360 -31.6355 -31.6138 -31.6048 -31.5900 -31.5858 -31.5804 -31.5690
   -31.5577 -31.5410 -31.4976 -31.4909 -31.4877 -31.4713 -31.4075 -31.3213
   -31.2875 -31.2794 -31.0031 -30.9187 -30.8962 -30.8210 -30.7347 -30.6226
   -18.7137 -16.2896 -16.2174 -16.1015 -15.8839 -15.7972 -15.7651 -15.6053
   -15.4789 -15.4371 -15.3143 -15.1670 -15.1369 -15.1292 -15.1227 -15.1141
   -15.0967 -15.0691 -15.0558 -15.0510 -15.0375 -14.9732 -14.9543 -14.9255
   -14.8457 -14.7931 -14.7657 -14.6955 -14.6526 -14.5508 -14.5268 -14.2671
   -13.0955 -12.9793  -9.5966  -6.9244  -5.8705  -4.3090  -4.0697  -3.8402
    -3.6224  -3.5335  -3.5104  -3.4021  -3.3111  -3.0811  -3.0592  -2.9898
    -2.8372  -2.7442  -2.6592  -2.6324  -2.5912  -2.5376  -2.5236  -2.4810
    -2.4149  -2.3836  -2.3418  -2.3300  -2.2805  -2.2725  -2.2267  -2.1487
    -2.1419  -2.0366  -1.9685  -1.9634  -1.9490  -1.9405  -1.8909  -1.8755
    -1.8679  -1.7974  -1.7425  -1.7077  -1.6417  -1.6160  -1.5442  -1.2989
    -1.2213  -1.2084  -1.1463  -1.0657  -1.0351  -1.0207  -1.0099  -0.9855
    -0.9565  -0.8693  -0.8410  -0.7021  -0.6961  -0.6620  -0.6354  -0.6030
    -0.4906  -0.4268  -0.4041  -0.3585  -0.3374  -0.3004  -0.2349  -0.2152
    -0.1370  -0.0926  -0.0129  -0.0080   0.0150   0.0859   0.1446   0.1792
     0.1953   0.2955   0.3104   0.3395   0.3460   0.3687   0.3948   0.4879
     0.5059   0.5476   0.5705   0.7120   0.7225   0.7747   0.9188   0.9476
     1.0507   1.1488   1.3529   1.3887   1.4295   1.4564   1.6256   1.9943
     2.0392   3.4446   3.6040   3.6170   3.7139   3.7279   3.8035   3.9390
     4.0335   4.1046   4.1387

[...]

          k = 0.0380-0.0419 0.0000 ( 17876 PWs)   bands (ev):

[...]

          k =-0.0760-0.0000 0.0000 ( 17886 PWs)   bands (ev):

[...]

          k =-0.0760-0.0839 0.0000 ( 17948 PWs)   bands (ev):

   -55.6317 -55.6178 -55.6178 -55.5650 -55.4769 -55.4484 -55.4464 -55.4439
   -55.4433 -55.3778 -55.3523 -55.2881 -55.2056 -55.0636 -54.5810 -54.5809
   -32.0189 -31.9346 -31.9345 -31.9230 -31.9111 -31.9109 -31.8962 -31.8354
   -31.8133 -31.8065 -31.7955 -31.7799 -31.7745 -31.7587 -31.7563 -31.7379
   -31.7379 -31.7280 -31.7270 -31.7155 -31.7148 -31.7006 -31.6906 -31.6832
   -31.6472 -31.6435 -31.6423 -31.6365 -31.6216 -31.6190 -31.6111 -31.5987
   -31.5822 -31.5764 -31.5665 -31.5623 -31.4923 -31.4627 -31.4110 -31.4026
   -31.3260 -31.2828 -30.9089 -30.9089 -30.8163 -30.8159 -30.7780 -30.7777
   -18.7076 -16.2016 -15.9374 -15.6312 -15.6300 -15.6103 -15.4515 -15.4178
   -15.3858 -15.3562 -15.3053 -15.2999 -15.2747 -15.2395 -15.2267 -15.1732
   -15.1490 -15.1320 -15.1135 -15.0945 -15.0750 -15.0464 -15.0357 -15.0342
   -14.9549 -14.9454 -14.9310 -14.9232 -14.8493 -14.6336 -14.4973 -14.4249
   -13.0813 -13.0812  -9.5835  -6.9183  -5.8339  -4.4887  -3.9238  -3.7759
    -3.0643  -2.8656  -2.8356  -2.7091  -2.6755  -2.6525  -2.5879  -2.5471
    -2.5453  -2.4688  -2.4557  -2.4108  -2.4067  -2.3619  -2.3598  -2.3317
    -2.3228  -2.3093  -2.3000  -2.2930  -2.2440  -2.2181  -2.2150  -2.2024
    -2.1790  -2.1653  -2.1411  -2.1244  -2.0649  -1.9890  -1.8772  -1.8547
    -1.7954  -1.7606  -1.7462  -1.7270  -1.7050  -1.6778  -1.6591  -1.5624
    -1.4785  -1.4175  -1.3148  -1.2299  -1.2087  -1.1558  -1.1475  -1.1057
    -1.0827  -1.0622  -1.0264  -0.9561  -0.8477  -0.8353  -0.7655  -0.6814
    -0.6424  -0.5746  -0.5723  -0.5659  -0.5502  -0.5251  -0.5074  -0.4612
    -0.4527  -0.3611  -0.3368  -0.3301  -0.3115  -0.2827  -0.1480  -0.1083
    -0.0606   0.1405   0.1470   0.1754   0.2839   0.3738   0.4399   0.4489
     0.5078   0.5545   0.5885   0.6283   0.6839   0.7076   0.7730   0.8831
     0.8897   0.9085   0.9504   1.0116   1.2263   1.7946   1.8014   1.8595
     1.8598   3.6587   3.8514   3.9689   3.9740   3.9891   4.0304   4.0399
     4.0531   4.1135   4.1246

     the Fermi energy is     3.4852 ev

!    total energy              =   -2973.89797102 Ry
     estimated scf accuracy    <       0.00000007 Ry
     smearing contrib. (-TS)   =      -0.01933489 Ry
     internal energy E=F+TS    =   -2973.87863613 Ry

     The total energy is F=E-TS. E is the sum of the following terms:
     one-electron contribution =  -23221.64202308 Ry
     hartree contribution      =   11705.28158951 Ry
     xc contribution           =    -493.95004769 Ry
     ewald contribution        =    9036.43045639 Ry
     electric field correction =       0.00138874 Ry

     convergence has been achieved in  68 iterations

     Forces acting on atoms (cartesian axes, Ry/au):

     atom    1 type  1   force =     0.00006472   -0.00019834    0.09418385
     atom    2 type  1   force =    -0.00015846    0.00003379   -0.17484173
     atom    3 type  2   force =     0.00002892   -0.00049908   -0.02071510
     atom    4 type  2   force =     0.00004321   -0.00070708    0.05226818
     atom    5 type  2   force =    -0.00299347   -0.00196857    0.00013189
     atom    6 type  2   force =     0.00462882   -0.00150456   -0.00032463
     atom    7 type  1   force =    -0.00019440    0.00281902    0.01409005
     atom    8 type  1   force =    -0.00011958   -0.00122221   -0.00058381
     atom    9 type  2   force =     0.00005234   -0.00009888   -0.00010628
     atom   10 type  2   force =    -0.00139844    0.00347066   -0.00730245
     atom   11 type  2   force =    -0.00018750    0.00025264    0.00021971
     atom   12 type  2   force =     0.00037577    0.00039210    0.00062683
     atom   13 type  1   force =    -0.00042851    0.00058370   -0.00030779
     atom   14 type  1   force =     0.00000340   -0.00010585    0.00070650
     atom   15 type  2   force =     0.00038491    0.00085284    0.00068249
     atom   16 type  2   force =    -0.00008958   -0.00079064    0.00085068
     atom   17 type  2   force =     0.00065127   -0.00014592   -0.00009876
     atom   18 type  2   force =     0.00014665    0.00009789   -0.00023914
     atom   19 type  1   force =    -0.00001422    0.00000951   -0.00072497
     atom   20 type  1   force =    -0.00027385   -0.00025190   -0.00065723
     atom   21 type  2   force =     0.00006891   -0.00000246    0.10301326
     atom   22 type  2   force =     0.00039187    0.00037455    0.00014889
     atom   23 type  2   force =    -0.07234937   -0.00018063   -0.02726032
     atom   24 type  2   force =     0.07229230    0.00026494   -0.02731085
     atom   25 type  1   force =     0.00006958   -0.00030610    0.09363174
     atom   26 type  1   force =    -0.00006047   -0.00116501   -0.17495203
     atom   27 type  2   force =     0.00017304   -0.00002580   -0.01958693
     atom   28 type  2   force =     0.00003209   -0.00104319    0.04854950
     atom   29 type  2   force =    -0.00594192    0.00105768    0.00313047
     atom   30 type  2   force =     0.00742421    0.00157300    0.00263300
     atom   31 type  1   force =     0.00004606    0.00142120    0.00269554
     atom   32 type  1   force =     0.00006487    0.00068572   -0.00037350
     atom   33 type  2   force =    -0.00016864   -0.00011663   -0.00052001
     atom   34 type  2   force =    -0.00061535   -0.00196797   -0.01092134
     atom   35 type  2   force =     0.00023311   -0.00040608   -0.00013207
     atom   36 type  2   force =    -0.00003325   -0.00026315   -0.00019766
     atom   37 type  1   force =    -0.00026136   -0.00039584   -0.00053910
     atom   38 type  1   force =     0.00025551    0.00025410    0.00036409
     atom   39 type  2   force =    -0.00037018   -0.00121478   -0.00025935
     atom   40 type  2   force =    -0.00012951    0.00036044    0.00083718
     atom   41 type  2   force =    -0.00068270   -0.00003117    0.00036366
     atom   42 type  2   force =     0.00022585   -0.00064777    0.00001510
     atom   43 type  1   force =    -0.00031715    0.00070008    0.00076765
     atom   44 type  1   force =     0.00011288   -0.00103506   -0.00031521
     atom   45 type  2   force =     0.00006613    0.00005639    0.10286337
     atom   46 type  2   force =    -0.07230365   -0.00006265   -0.02721380
     atom   47 type  2   force =     0.07221267    0.00038688   -0.02724602
     atom   48 type  3   force =    -0.00148900    0.00020087    0.00007542
     atom   49 type  3   force =     0.00015342    0.00000091    0.00096811
     atom   50 type  4   force =     0.00055633    0.00004856   -0.00010274
     atom   51 type  5   force =    -0.00008056   -0.00123015    0.00037402
     atom   52 type  5   force =    -0.00004749    0.00131833    0.00044120
     atom   53 type  5   force =     0.00006621   -0.00025712   -0.00073304
     atom   54 type  5   force =     0.00038187    0.00065667    0.00033684
     atom   55 type  2   force =    -0.00146763    0.00938478    0.00399223
     atom   56 type  5   force =     0.00096927   -0.00941265   -0.00539560

     Total force =     0.361376     Total SCF correction =     0.000703
  @ DRIVER MODE: Message from server: STATUS
  @ DRIVER MODE: Message from server: GETFORCE
  @ DRIVER MODE: Returning v,forces,stress,ensemble

     Writing output data file ./calc.save/
  @ DRIVER MODE: Message from server: EXIT
  @ DRIVE MODE: Exiting

     General routines

     Parallel routines

   This run was terminated on:   8:38:33  29Sep2021

   JOB DONE.