     Program PWSCF v.6.7GPU starts on 24Aug2021 at 11:14:57

     R & G space division:  proc/nbgrp/npool/nimage =      72
     Reading input from /storage/home/hcoda1/3/ntian30/research/carbon/CH2_vib/ads_slab/CH2_a/out_0005/pw.inp
Warning: card &CELL ignored
Warning: card   CELL_DYNAMICS='IPI', ignored
Warning: card / ignored

     Current dimensions of program PWSCF are:
     Max number of different atomic species (ntypx) = 10
     Max number of k-points (npk) =  40000
     Max angular momentum in pseudopotentials (lmaxx) =  3
     Presently no symmetry can be used with electric field

     Message from routine cell_base_init:
     DEPRECATED: use true lattice parameter, not A to a.u. conversion factor

     IMPORTANT: XC functional enforced from input :
     Exchange-correlation= BEEF-VDW
                           (   1   4  43  14   2   0   0)
     Any further DFT definition will be discarded
     Please, verify this is what you really want

  @ DRIVER MODE: Connecting to
 qe_1139763_2641437.sched-torque.pace.gatech.edukdhwpv27_scratch
  using UNIX socket
  @ DRIVER MODE: Message from server: STATUS
  @ DRIVER MODE: Message from server: INIT
  @ DRIVER MODE: Receiving replica           0          -1
  @ DRIVER MODE: Receiving encoded integer          25
  @ DRIVER MODE:  SCF:  T  FORCE:  T  STRESS:  F  VC:  F  ENSEMBLE:  F
  @ DRIVER MODE:  SCF:  T  FORCE:  T  STRESS:  F  VC:  F  ENSEMBLE:  F

     Using Slab Decomposition

     bravais-lattice index     =            0
     lattice parameter (alat)  =       1.8897  a.u.
     unit-cell volume          =    6658.9804 (a.u.)^3
     number of atoms/cell      =           50
     number of atomic types    =            4
     number of electrons       =       384.00
     number of Kohn-Sham states=          202
     kinetic-energy cutoff     =      29.3995  Ry
     charge density cutoff     =     293.9946  Ry
     scf convergence threshold =      7.3E-08
     mixing beta               =       0.0500
     number of iterations used =            8  plain     mixing
     Exchange-correlation= BEEF-VDW
                           (   1   4  43  14   2   0   0)

     celldm(1)=   1.889726  celldm(2)=   0.000000  celldm(3)=   0.000000
     celldm(4)=   0.000000  celldm(5)=   0.000000  celldm(6)=   0.000000

     crystal axes: (cart. coord. in units of alat)
               a(1) = (   6.579727   0.000000   0.000000 )
               a(2) = (  -0.000775   5.961596   0.000000 )
               a(3) = (   0.000000   0.000000  25.155947 )

     reciprocal axes: (cart. coord. in units 2 pi/alat)
               b(1) = (  0.151982  0.000020  0.000000 )
               b(2) = (  0.000000  0.167740  0.000000 )
               b(3) = (  0.000000  0.000000  0.039752 )

     PseudoPot. # 1 for Ti read from file:
     /storage/coda1/p-amedford6/0/shared/rich_project_chbe-medford/medford-share/data/pseudos_module/espresso/nninc/pbe/van/Ti.UPF
     MD5 check sum: 8e4df49b7f0d34bbd5052bf3f5ea0213
     Pseudo is Ultrasoft, Zval = 12.0
     Generated by new atomic code, or converted to UPF format
     Using radial grid of  851 points,  6 beta functions with:
                l(1) =   0
                l(2) =   0
                l(3) =   1
                l(4) =   1
                l(5) =   2
                l(6) =   2
     Q(r) pseudized with  8 coefficients,  rinner =    1.000   1.000   1.000
                                                       1.000   1.000

     PseudoPot. # 2 for O  read from file:
     /storage/coda1/p-amedford6/0/shared/rich_project_chbe-medford/medford-share/data/pseudos_module/espresso/nninc/pbe/van/O.UPF
     MD5 check sum: 78c19812648e8988a0fe644b0f25305e
     Pseudo is Ultrasoft, Zval =  6.0
     Generated by new atomic code, or converted to UPF format
     Using radial grid of  737 points,  4 beta functions with:
                l(1) =   0
                l(2) =   0
                l(3) =   1
                l(4) =   1
     Q(r) pseudized with  8 coefficients,  rinner =    0.800   0.800   0.800

     PseudoPot. # 3 for C  read from file:
     /storage/coda1/p-amedford6/0/shared/rich_project_chbe-medford/medford-share/data/pseudos_module/espresso/nninc/pbe/van/C.UPF
     MD5 check sum: 1a69bf6b8db32088f5b2163dbdb77a27
     Pseudo is Ultrasoft, Zval =  4.0
     Generated by new atomic code, or converted to UPF format
     Using radial grid of  721 points,  4 beta functions with:
                l(1) =   0
                l(2) =   0
                l(3) =   1
                l(4) =   1
     Q(r) pseudized with  8 coefficients,  rinner =    0.800   0.800   0.800

     PseudoPot. # 4 for H  read from file:
     /storage/coda1/p-amedford6/0/shared/rich_project_chbe-medford/medford-share/data/pseudos_module/espresso/nninc/pbe/van/H.UPF
     MD5 check sum: b5ee9d7bfd3a09ee7748110bda690ff7
     Pseudo is Ultrasoft, Zval =  1.0
     Generated by new atomic code, or converted to UPF format
     Using radial grid of  615 points,  1 beta functions with:
                l(1) =   0
     Q(r) pseudized with  8 coefficients,  rinner =    0.800

     atomic species   valence    mass     pseudopotential
        Ti1           12.00    47.86700     Ti( 1.00)
        O1             6.00    15.99900     O ( 1.00)
        C1             4.00    12.01100     C ( 1.00)
        H1             1.00     1.00800     H ( 1.00)

     No symmetry found

   Cartesian axes

     site n.     atom                  positions (alat units)
         1           Ti1 tau(   1) = (   0.0004258   2.9801865   6.0000000  )
         2           Ti1 tau(   2) = (   3.2906075   1.4906267   6.0002472  )
         3           O1  tau(   3) = (   0.0006271   0.0005054   7.9858123  )
         4           O1  tau(   4) = (   3.2906025   0.0005020   7.3038282  )
         5           O1  tau(   5) = (   4.5942328   1.4918067   9.2879030  )
         6           O1  tau(   6) = (   1.9868534   1.4903216   9.2879459  )
         7           Ti1 tau(   7) = (   3.2756478   2.8760420   9.1630771  )
         8           Ti1 tau(   8) = (   6.5651030   1.4385007   9.3790407  )
         9           O1  tau(   9) = (   3.2651923   0.0045787  11.3553482  )
        10           O1  tau(  10) = (   6.5766178   5.9492394  10.5646413  )
        11           O1  tau(  11) = (   1.2591847   1.4977620  12.6679731  )
        12           O1  tau(  12) = (   5.2482661   1.4982983  12.6347741  )
        13           Ti1 tau(  13) = (   0.0651775   2.9654633  12.8696618  )
        14           Ti1 tau(  14) = (   3.3800656   1.4924449  12.4946823  )
        15           O1  tau(  15) = (   6.5296085   5.9207011  14.6097682  )
        16           O1  tau(  16) = (   3.2682314   0.0147111  13.9481481  )
        17           O1  tau(  17) = (   4.4912147   1.5408453  16.1034427  )
        18           O1  tau(  18) = (   2.0062121   1.5430191  16.1010343  )
        19           Ti1 tau(  19) = (   3.2584153   3.0188911  15.7272741  )
        20           Ti1 tau(  20) = (   6.5595668   1.6180917  16.2090303  )
        21           O1  tau(  21) = (   3.2904802   0.0005063   4.7018136  )
        22           O1  tau(  22) = (   6.5447935   0.0528136  17.2578995  )
        23           O1  tau(  23) = (   1.3043587   1.4918075   6.0039043  )
        24           O1  tau(  24) = (   5.2767064   1.4903225   6.0039473  )
        25           Ti1 tau(  25) = (   0.0000382   5.9609847   6.0000000  )
        26           Ti1 tau(  26) = (   3.2902200   4.4714249   6.0002472  )
        27           O1  tau(  27) = (   0.0002396   2.9813036   7.9858123  )
        28           O1  tau(  28) = (   3.2902150   2.9813002   7.3038282  )
        29           O1  tau(  29) = (   4.5938453   4.4726049   9.2879030  )
        30           O1  tau(  30) = (   1.9864658   4.4711199   9.2879459  )
        31           Ti1 tau(  31) = (   3.2806623   5.8565216   9.1617982  )
        32           Ti1 tau(  32) = (   6.5670484   4.4138833   9.3856844  )
        33           O1  tau(  33) = (   3.2704644   2.9808095  11.3502114  )
        34           O1  tau(  34) = (   6.5770050   2.9672111  10.5601139  )
        35           O1  tau(  35) = (   1.2614422   4.4490125  12.6594447  )
        36           O1  tau(  36) = (   5.2451530   4.4578719  12.6250501  )
        37           Ti1 tau(  37) = (   0.0436288   5.9429386  12.8080954  )
        38           Ti1 tau(  38) = (   3.3780510   4.4695497  12.4860242  )
        39           O1  tau(  39) = (   6.5513063   2.9765972  14.7162787  )
        40           O1  tau(  40) = (   3.2682626   2.9952000  13.9367060  )
        41           O1  tau(  41) = (   4.4851171   4.5114873  16.1027694  )
        42           O1  tau(  42) = (   2.0082088   4.5103763  16.0975713  )
        43           Ti1 tau(  43) = (   3.2690221   0.0357551  15.7449602  )
        44           Ti1 tau(  44) = (   6.5655258   4.6249605  16.1704562  )
        45           O1  tau(  45) = (   3.2900926   2.9813045   4.7018136  )
        46           O1  tau(  46) = (   1.3039711   4.4726057   6.0039043  )
        47           O1  tau(  47) = (   5.2763189   4.4711207   6.0039473  )
        48           C1  tau(  48) = (   6.5259393   3.0234738  17.6025649  )
        49           H1  tau(  49) = (   0.8472112   3.1395175  18.2203151  )
        50           H1  tau(  50) = (   5.6209537   3.1160310  18.2142257  )

     number of k points=    10  Fermi-Dirac smearing, width (Ry)=  0.0073
                       cart. coord. in units 2pi/alat
        k(    1) = (   0.0000000   0.0000000   0.0000000), wk =   0.1250000
        k(    2) = (   0.0000000   0.0419351   0.0000000), wk =   0.2500000
        k(    3) = (   0.0000000  -0.0838702   0.0000000), wk =   0.1250000
        k(    4) = (   0.0379955   0.0000049   0.0000000), wk =   0.2500000
        k(    5) = (   0.0379955   0.0419400   0.0000000), wk =   0.2500000
        k(    6) = (   0.0379955  -0.0838652   0.0000000), wk =   0.2500000
        k(    7) = (   0.0379955  -0.0419301   0.0000000), wk =   0.2500000
        k(    8) = (  -0.0759910  -0.0000099   0.0000000), wk =   0.1250000
        k(    9) = (  -0.0759910   0.0419252   0.0000000), wk =   0.2500000
        k(   10) = (  -0.0759910  -0.0838800   0.0000000), wk =   0.1250000

     Initial potential from superposition of free atoms

     starting charge  367.99919, renormalised to  384.00000

     negative rho (up, down):  2.117E-02 0.000E+00

     %%%%%%%%%%%%%%%%%%%%%%%%%%%%%%%%%%%%%%%%%%%%%%%%%%%%%%%%%%%%%%%%%%%%%%%%
     %                                                                      %
     % You are using vdW-DF, which was implemented by the Thonhauser group. %
     % Please cite the following two papers that made this development      %
     % possible and the two reviews that describe the various versions:     %
     %                                                                      %
     %   T. Thonhauser et al., PRL 115, 136402 (2015).                      %
     %   T. Thonhauser et al., PRB 76, 125112 (2007).                       %
     %   K. Berland et al., Rep. Prog. Phys. 78, 066501 (2015).             %
     %   D.C. Langreth et al., J. Phys.: Condens. Matter 21, 084203 (2009). %
     %                                                                      %
     %                                                                      %
     % If you are calculating the stress with vdW-DF, please also cite:     %
     %                                                                      %
     %   R. Sabatini et al., J. Phys.: Condens. Matter 24, 424209 (2012).   %
     %                                                                      %
     %%%%%%%%%%%%%%%%%%%%%%%%%%%%%%%%%%%%%%%%%%%%%%%%%%%%%%%%%%%%%%%%%%%%%%%%

     Adding external electric field

     Computed dipole along edir(3) :
        Dipole               -0.5161 Ry au,         -1.3117 Debye
        Dipole field         -0.0010 Ry au,

        Potential amp.        0.0903 Ry
        Total length         46.3494 bohr

     Starting wfcs are  290 atomic wfcs
  @ DRIVER MODE: Message from server: STATUS
  @ DRIVER MODE: Message from server: POSDATA
  @ DRIVER MODE: Reading and sharing cell
  @ DRIVER MODE: Reading and sharing positions
  @ DRIVER MODE: Received positions

     Self-consistent Calculation

     iteration #  1     ecut=    29.40 Ry     beta= 0.05
     Davidson diagonalization with overlap
     c_bands:  1 eigenvalues not converged
     c_bands:  2 eigenvalues not converged
     c_bands:  4 eigenvalues not converged
     c_bands:  3 eigenvalues not converged
     c_bands:  1 eigenvalues not converged
     c_bands:  2 eigenvalues not converged
     c_bands:  1 eigenvalues not converged
     c_bands:  1 eigenvalues not converged
     c_bands:  1 eigenvalues not converged
     c_bands:  2 eigenvalues not converged
     ethr =  1.00E-05,  avg # of iterations = 22.0

[...]

     total energy              =   -2899.22718777 Ry
     estimated scf accuracy    <      12.09430576 Ry

     iteration #  2     ecut=    29.40 Ry     beta= 0.05
     Davidson diagonalization with overlap
     ethr =  3.15E-03,  avg # of iterations =  1.0

[...]

     iteration # 50     ecut=    29.40 Ry     beta= 0.05
     Davidson diagonalization with overlap
     c_bands:  1 eigenvalues not converged
     c_bands:  2 eigenvalues not converged
     ethr =  3.38E-07,  avg # of iterations = 10.3

[...]

     total energy              =   -2897.72453237 Ry
     estimated scf accuracy    <       0.00000008 Ry

     iteration # 69     ecut=    29.40 Ry     beta= 0.05
     Davidson diagonalization with overlap
     ethr =  2.18E-11,  avg # of iterations =  5.1

     negative rho (up, down):  2.039E-02 0.000E+00

     Adding external electric field

     Computed dipole along edir(3) :
        Dipole                0.2849 Ry au,          0.7242 Debye
        Dipole field          0.0005 Ry au,

        Potential amp.       -0.0498 Ry
        Total length         46.3494 bohr

     End of self-consistent calculation

          k = 0.0000 0.0000 0.0000 ( 18029 PWs)   bands (ev):

   -56.6549 -56.6209 -56.3950 -56.3584 -56.3194 -56.2667 -56.0859 -56.0852
   -56.0513 -55.9795 -55.9580 -55.9197 -55.5441 -55.4728 -55.4388 -55.4183
   -33.0844 -32.9413 -32.9036 -32.8749 -32.8456 -32.7701 -32.7540 -32.7179
   -32.7110 -32.6377 -32.6193 -32.5947 -32.5872 -32.5660 -32.5572 -32.5449
   -32.5438 -32.5265 -32.4583 -32.4474 -32.3808 -32.3485 -32.3368 -32.3206
   -32.3077 -32.3030 -32.2363 -32.2205 -32.2105 -32.1956 -32.1937 -32.1542
   -32.1495 -32.1361 -32.1120 -32.0568 -32.0117 -31.8742 -31.8522 -31.7968
   -31.7964 -31.7727 -31.7390 -31.6925 -31.6075 -31.5963 -31.4954 -31.4684
   -17.0461 -16.8388 -16.6214 -16.4760 -16.3922 -16.3395 -16.0498 -16.0351
   -16.0208 -15.9212 -15.9146 -15.8531 -15.8252 -15.8175 -15.8082 -15.8058
   -15.7657 -15.7243 -15.6962 -15.6604 -15.6302 -15.5939 -15.4978 -15.4603
   -15.4414 -15.3216 -15.2633 -15.2300 -15.0883 -13.9657 -13.8511  -8.3736
    -4.4320  -4.3822  -4.2266  -4.2153  -4.1019  -3.8838  -3.7054  -3.5168
    -3.4834  -3.4541  -3.4477  -3.3472  -3.2961  -3.1847  -3.1811  -3.1464
    -3.1327  -3.1034  -3.0836  -3.0764  -3.0372  -3.0118  -2.9524  -2.9100
    -2.9047  -2.8501  -2.7662  -2.6728  -2.6540  -2.6202  -2.5890  -2.5485
    -2.5340  -2.4341  -2.4284  -2.3612  -2.2194  -2.2074  -2.1576  -2.1296
    -2.1006  -2.0626  -1.9264  -1.7825  -1.7350  -1.7240  -1.6938  -1.6832
    -1.6508  -1.5312  -1.4841  -1.3859  -1.3541  -1.2455  -1.2322  -1.2155
    -1.1969  -1.1711  -1.1011  -1.0708  -1.0373  -0.9465  -0.8947  -0.7648
    -0.7279  -0.7099  -0.6854  -0.6772  -0.6197  -0.5775  -0.5190  -0.5060
    -0.4502  -0.4084  -0.3903  -0.3733  -0.3484  -0.2861  -0.2168  -0.1910
    -0.1325  -0.0905   0.1027   0.1378   0.1609   0.1889   0.2687   0.3026
     0.4814   0.4928   0.5562   0.7591   0.8016   1.1495   1.2290   1.7007
     2.6087   2.7896   2.9919   3.0475   3.0877   3.1664   3.2273   3.3038
     3.3370   3.4572

[...]

          k = 0.0380-0.0419 0.0000 ( 17876 PWs)   bands (ev):

[...]

          k =-0.0760-0.0000 0.0000 ( 17886 PWs)   bands (ev):

[...]

          k =-0.0760-0.0839 0.0000 ( 17948 PWs)   bands (ev):

   -56.6406 -56.6351 -56.3804 -56.3728 -56.3129 -56.2730 -56.0830 -56.0690
   -56.0673 -55.9823 -55.9465 -55.9312 -55.5417 -55.4558 -55.4557 -55.4206
   -32.9040 -32.8995 -32.8922 -32.8855 -32.8004 -32.7957 -32.7490 -32.7426
   -32.6810 -32.6681 -32.6106 -32.6050 -32.5803 -32.5742 -32.5670 -32.5569
   -32.5123 -32.4759 -32.4034 -32.3916 -32.3907 -32.3268 -32.3226 -32.3194
   -32.3030 -32.2899 -32.2865 -32.2827 -32.2613 -32.2523 -32.2293 -32.2133
   -32.1587 -32.1577 -32.1468 -32.1440 -31.9201 -31.8506 -31.8003 -31.7856
   -31.7855 -31.7224 -31.6910 -31.6883 -31.6881 -31.6501 -31.6501 -31.4882
   -16.5146 -16.4877 -16.2710 -16.2574 -16.1497 -16.1468 -16.1360 -16.1349
   -16.0419 -16.0377 -15.9883 -15.9678 -15.9117 -15.8998 -15.8626 -15.8609
   -15.8375 -15.8362 -15.7931 -15.7906 -15.6516 -15.6499 -15.5324 -15.5281
   -15.4914 -15.4482 -15.4097 -15.3950 -15.2286 -13.9534 -13.9530  -8.3755
    -3.8183  -3.7810  -3.4849  -3.4766  -3.2795  -3.2768  -3.2549  -3.2468
    -3.2251  -3.1974  -3.1837  -3.1816  -3.1443  -3.1033  -3.0808  -3.0630
    -3.0519  -3.0456  -3.0412  -3.0395  -3.0203  -2.9987  -2.9816  -2.9575
    -2.9022  -2.8912  -2.8662  -2.8568  -2.7690  -2.6256  -2.5651  -2.5599
    -2.5313  -2.5234  -2.4833  -2.3978  -2.3923  -2.3561  -2.3467  -2.3269
    -2.1283  -2.0717  -2.0674  -2.0042  -1.9754  -1.8701  -1.7252  -1.6906
    -1.6675  -1.6463  -1.5623  -1.5243  -1.5086  -1.4853  -1.4783  -1.4542
    -1.4449  -1.3524  -1.3475  -1.3153  -1.2668  -1.2072  -1.2041  -1.1807
    -1.1597  -1.0614  -0.9934  -0.9777  -0.9651  -0.9224  -0.8404  -0.7990
    -0.7590  -0.6747  -0.6589  -0.3913  -0.3894  -0.2495  -0.2408  -0.1119
    -0.0949  -0.0035   0.0259   0.0691   0.1831   0.1962   0.2011   0.2294
     0.3284   0.3298   0.3557   0.9400   0.9403   1.0054   1.0067   1.9730
     3.0390   3.0560   3.1352   3.1481   3.1533   3.1747   3.2155   3.2175
     3.5167   3.5293

     the Fermi energy is     2.3187 ev

!    total energy              =   -2897.72455071 Ry
     estimated scf accuracy    <       0.00000007 Ry
     smearing contrib. (-TS)   =      -0.00174676 Ry
     internal energy E=F+TS    =   -2897.72280395 Ry

     The total energy is F=E-TS. E is the sum of the following terms:
     one-electron contribution =  -24687.27096861 Ry
     hartree contribution      =   12421.62629390 Ry
     xc contribution           =    -473.85399335 Ry
     ewald contribution        =    9841.77571090 Ry
     electric field correction =       0.00015321 Ry

     convergence has been achieved in  69 iterations

     Forces acting on atoms (cartesian axes, Ry/au):

     atom    1 type  1   force =     0.00029862   -0.00003840    0.14831633
     atom    2 type  1   force =     0.00005954   -0.00032235   -0.17135538
     atom    3 type  2   force =    -0.00004539    0.00264366   -0.06005080
     atom    4 type  2   force =    -0.00032636   -0.00140625    0.04053241
     atom    5 type  2   force =    -0.02536270    0.00094516    0.00491151
     atom    6 type  2   force =     0.02287247    0.00012155    0.00295895
     atom    7 type  1   force =    -0.00051432   -0.00073050    0.00007438
     atom    8 type  1   force =     0.00074199   -0.00040700    0.00059808
     atom    9 type  2   force =     0.00089255   -0.00028307    0.00020587
     atom   10 type  2   force =    -0.00010940   -0.00000288   -0.00040095
     atom   11 type  2   force =    -0.00014835    0.00002845    0.00008540
     atom   12 type  2   force =     0.00014905    0.00012221    0.00004245
     atom   13 type  1   force =     0.00001448   -0.00099787    0.00064889
     atom   14 type  1   force =    -0.00003291   -0.00115532   -0.00014071
     atom   15 type  2   force =     0.00024246   -0.00038339   -0.00096514
     atom   16 type  2   force =     0.00002553    0.00015391    0.00020356
     atom   17 type  2   force =     0.00091012    0.00000939    0.00018077
     atom   18 type  2   force =    -0.00052686   -0.00027954    0.00026287
     atom   19 type  1   force =     0.00053459   -0.00027813    0.00018724
     atom   20 type  1   force =     0.00020776   -0.00232699   -0.00227151
     atom   21 type  2   force =     0.00014134   -0.00010252    0.10272800
     atom   22 type  2   force =     0.00008527    0.00009617    0.00004080
     atom   23 type  2   force =    -0.07358693    0.00029655   -0.03462623
     atom   24 type  2   force =     0.07363523    0.00074363   -0.03467725
     atom   25 type  1   force =     0.00008056   -0.00018376    0.14949726
     atom   26 type  1   force =     0.00000345   -0.00105464   -0.17151796
     atom   27 type  2   force =    -0.00006862    0.00191145   -0.05903780
     atom   28 type  2   force =    -0.00039667   -0.00136545    0.04050155
     atom   29 type  2   force =    -0.02528445    0.00191503    0.00519964
     atom   30 type  2   force =     0.02337460    0.00034750    0.00324715
     atom   31 type  1   force =    -0.00048214   -0.00021234    0.00011914
     atom   32 type  1   force =     0.00062476   -0.00026451    0.00018960
     atom   33 type  2   force =     0.00005119   -0.00037895    0.00028500
     atom   34 type  2   force =     0.00007084   -0.00014296   -0.00011815
     atom   35 type  2   force =    -0.00018068   -0.00034717   -0.00042333
     atom   36 type  2   force =     0.00049216   -0.00063498   -0.00021124
     atom   37 type  1   force =     0.00090473    0.00031662    0.00033337
     atom   38 type  1   force =    -0.00033459   -0.00015326    0.00039157
     atom   39 type  2   force =     0.00007490    0.00008384   -0.00175650
     atom   40 type  2   force =     0.00000321    0.00030253   -0.00100018
     atom   41 type  2   force =     0.00008789    0.00031140    0.00017786
     atom   42 type  2   force =     0.00045061    0.00061775    0.00024580
     atom   43 type  1   force =     0.00039863    0.00081036   -0.00076221
     atom   44 type  1   force =    -0.00045668    0.00095236   -0.00097420
     atom   45 type  2   force =     0.00013872   -0.00009478    0.10269755
     atom   46 type  2   force =    -0.07361371   -0.00012488   -0.03461733
     atom   47 type  2   force =     0.07367126    0.00033861   -0.03469311
     atom   48 type  3   force =     0.00125117    0.00274267    0.01397405
     atom   49 type  4   force =    -0.00546856   -0.00141949   -0.00467119
     atom   50 type  4   force =     0.00444963   -0.00071941   -0.00456590

     Total force =     0.404802     Total SCF correction =     0.000527
  @ DRIVER MODE: Message from server: STATUS
  @ DRIVER MODE: Message from server: GETFORCE
  @ DRIVER MODE: Returning v,forces,stress,ensemble

     Writing output data file ./calc.save/
  @ DRIVER MODE: Message from server: EXIT
  @ DRIVE MODE: Exiting

     General routines

     Parallel routines

   This run was terminated on:  11:35:32  24Aug2021

   JOB DONE.