     Program PWSCF v.6.7GPU starts on 29Sep2021 at 19: 5: 3

     R & G space division:  proc/nbgrp/npool/nimage =       8
     Reading input from /storage/home/hcoda1/3/ntian30/research/carbon/CxH_vib/pristine/ads_slab/CH2N2_c/out_0010/pw.inp
Warning: card &CELL ignored
Warning: card   CELL_DYNAMICS='IPI', ignored
Warning: card / ignored

     Current dimensions of program PWSCF are:
     Max number of different atomic species (ntypx) = 10
     Max number of k-points (npk) =  40000
     Max angular momentum in pseudopotentials (lmaxx) =  3
     Presently no symmetry can be used with electric field

     Message from routine cell_base_init:
     DEPRECATED: use true lattice parameter, not A to a.u. conversion factor

     IMPORTANT: XC functional enforced from input :
     Exchange-correlation= BEEF-VDW
                           (   1   4  43  14   2   0   0)
     Any further DFT definition will be discarded
     Please, verify this is what you really want

  @ DRIVER MODE: Connecting to
 qe_1139763_3025227.sched-torque.pace.gatech.eduxkbdcl2v_scratch
  using UNIX socket
  @ DRIVER MODE: Message from server: STATUS
  @ DRIVER MODE: Message from server: INIT
  @ DRIVER MODE: Receiving replica           0          -1
  @ DRIVER MODE: Receiving encoded integer          25
  @ DRIVER MODE:  SCF:  T  FORCE:  T  STRESS:  F  VC:  F  ENSEMBLE:  F
  @ DRIVER MODE:  SCF:  T  FORCE:  T  STRESS:  F  VC:  F  ENSEMBLE:  F

     Using Slab Decomposition

     bravais-lattice index     =            0
     lattice parameter (alat)  =       1.8897  a.u.
     unit-cell volume          =    6658.9804 (a.u.)^3
     number of atoms/cell      =           53
     number of atomic types    =            5
     number of electrons       =       400.00
     number of Kohn-Sham states=          210
     kinetic-energy cutoff     =      29.3995  Ry
     charge density cutoff     =     293.9946  Ry
     scf convergence threshold =      7.3E-08
     mixing beta               =       0.0500
     number of iterations used =            8  plain     mixing
     Exchange-correlation= BEEF-VDW
                           (   1   4  43  14   2   0   0)

     celldm(1)=   1.889726  celldm(2)=   0.000000  celldm(3)=   0.000000
     celldm(4)=   0.000000  celldm(5)=   0.000000  celldm(6)=   0.000000

     crystal axes: (cart. coord. in units of alat)
               a(1) = (   6.579727   0.000000   0.000000 )
               a(2) = (  -0.000775   5.961596   0.000000 )
               a(3) = (   0.000000   0.000000  25.155947 )

     reciprocal axes: (cart. coord. in units 2 pi/alat)
               b(1) = (  0.151982  0.000020  0.000000 )
               b(2) = (  0.000000  0.167740  0.000000 )
               b(3) = (  0.000000  0.000000  0.039752 )

     PseudoPot. # 1 for Ti read from file:
     /storage/coda1/p-amedford6/0/shared/rich_project_chbe-medford/medford-share/data/pseudos_module/espresso/nninc/pbe/van/Ti.UPF
     MD5 check sum: 8e4df49b7f0d34bbd5052bf3f5ea0213
     Pseudo is Ultrasoft, Zval = 12.0
     Generated by new atomic code, or converted to UPF format
     Using radial grid of  851 points,  6 beta functions with:
                l(1) =   0
                l(2) =   0
                l(3) =   1
                l(4) =   1
                l(5) =   2
                l(6) =   2
     Q(r) pseudized with  8 coefficients,  rinner =    1.000   1.000   1.000
                                                       1.000   1.000

     PseudoPot. # 2 for O  read from file:
     /storage/coda1/p-amedford6/0/shared/rich_project_chbe-medford/medford-share/data/pseudos_module/espresso/nninc/pbe/van/O.UPF
     MD5 check sum: 78c19812648e8988a0fe644b0f25305e
     Pseudo is Ultrasoft, Zval =  6.0
     Generated by new atomic code, or converted to UPF format
     Using radial grid of  737 points,  4 beta functions with:
                l(1) =   0
                l(2) =   0
                l(3) =   1
                l(4) =   1
     Q(r) pseudized with  8 coefficients,  rinner =    0.800   0.800   0.800

     PseudoPot. # 3 for N  read from file:
     /storage/coda1/p-amedford6/0/shared/rich_project_chbe-medford/medford-share/data/pseudos_module/espresso/nninc/pbe/van/N.UPF
     MD5 check sum: 90d10febe142ad51ac9d5be1deb811c4
     Pseudo is Ultrasoft, Zval =  5.0
     Generated by new atomic code, or converted to UPF format
     Using radial grid of  729 points,  4 beta functions with:
                l(1) =   0
                l(2) =   0
                l(3) =   1
                l(4) =   1
     Q(r) pseudized with  8 coefficients,  rinner =    0.800   0.800   0.800

     PseudoPot. # 4 for C  read from file:
     /storage/coda1/p-amedford6/0/shared/rich_project_chbe-medford/medford-share/data/pseudos_module/espresso/nninc/pbe/van/C.UPF
     MD5 check sum: 1a69bf6b8db32088f5b2163dbdb77a27
     Pseudo is Ultrasoft, Zval =  4.0
     Generated by new atomic code, or converted to UPF format
     Using radial grid of  721 points,  4 beta functions with:
                l(1) =   0
                l(2) =   0
                l(3) =   1
                l(4) =   1
     Q(r) pseudized with  8 coefficients,  rinner =    0.800   0.800   0.800

     PseudoPot. # 5 for H  read from file:
     /storage/coda1/p-amedford6/0/shared/rich_project_chbe-medford/medford-share/data/pseudos_module/espresso/nninc/pbe/van/H.UPF
     MD5 check sum: b5ee9d7bfd3a09ee7748110bda690ff7
     Pseudo is Ultrasoft, Zval =  1.0
     Generated by new atomic code, or converted to UPF format
     Using radial grid of  615 points,  1 beta functions with:
                l(1) =   0
     Q(r) pseudized with  8 coefficients,  rinner =    0.800

     atomic species   valence    mass     pseudopotential
        Ti1           12.00    47.86700     Ti( 1.00)
        O1             6.00    15.99900     O ( 1.00)
        N1             5.00    14.00700     N ( 1.00)
        C1             4.00    12.01100     C ( 1.00)
        H1             1.00     1.00800     H ( 1.00)

     No symmetry found

   Cartesian axes

     site n.     atom                  positions (alat units)
         1           Ti1 tau(   1) = (   0.0004258   2.9801865   6.0000000  )
         2           Ti1 tau(   2) = (   3.2906075   1.4906267   6.0002472  )
         3           O1  tau(   3) = (   0.0006271   0.0005054   7.9858123  )
         4           O1  tau(   4) = (   3.2906025   0.0005020   7.3038282  )
         5           O1  tau(   5) = (   4.5942328   1.4918067   9.2879030  )
         6           O1  tau(   6) = (   1.9868534   1.4903216   9.2879459  )
         7           Ti1 tau(   7) = (   3.2785950   2.8620264   9.1674676  )
         8           Ti1 tau(   8) = (   6.5781813   1.4341531   9.3833155  )
         9           O1  tau(   9) = (   3.3145900   5.9487502  11.3480437  )
        10           O1  tau(  10) = (   0.0063384   5.9489964  10.5610107  )
        11           O1  tau(  11) = (   1.3034973   1.4807819  12.6446922  )
        12           O1  tau(  12) = (   5.3015769   1.4818569  12.6358846  )
        13           Ti1 tau(  13) = (   0.1076100   2.9713955  12.8282313  )
        14           Ti1 tau(  14) = (   3.4293281   1.4717859  12.4936833  )
        15           O1  tau(  15) = (   0.0296261   0.0013950  14.6649934  )
        16           O1  tau(  16) = (   3.3139734   5.9559375  13.9452938  )
        17           O1  tau(  17) = (   4.5568938   1.4842850  16.0642655  )
        18           O1  tau(  18) = (   2.0675170   1.4827017  16.0617013  )
        19           Ti1 tau(  19) = (   3.3081901   2.9629817  15.7008690  )
        20           Ti1 tau(  20) = (   0.0097687   1.4520379  16.1724920  )
        21           O1  tau(  21) = (   3.2904802   0.0005063   4.7018136  )
        22           O1  tau(  22) = (   0.0191552   5.9343797  17.2479478  )
        23           O1  tau(  23) = (   1.3043587   1.4918075   6.0039043  )
        24           O1  tau(  24) = (   5.2767064   1.4903225   6.0039473  )
        25           Ti1 tau(  25) = (   0.0000382   5.9609847   6.0000000  )
        26           Ti1 tau(  26) = (   3.2902200   4.4714249   6.0002472  )
        27           O1  tau(  27) = (   0.0002396   2.9813036   7.9858123  )
        28           O1  tau(  28) = (   3.2902150   2.9813002   7.3038282  )
        29           O1  tau(  29) = (   4.5938453   4.4726049   9.2879030  )
        30           O1  tau(  30) = (   1.9864658   4.4711199   9.2879459  )
        31           Ti1 tau(  31) = (   3.2981115   5.8424800   9.1654069  )
        32           Ti1 tau(  32) = (   0.0061885   4.4171606   9.3817948  )
        33           O1  tau(  33) = (   3.3160899   2.9715062  11.3475872  )
        34           O1  tau(  34) = (   0.0081518   2.9687805  10.5628331  )
        35           O1  tau(  35) = (   1.3040072   4.4662140  12.6497434  )
        36           O1  tau(  36) = (   5.3008443   4.4652654  12.6404979  )
        37           Ti1 tau(  37) = (   0.1012718   5.9536009  12.8334903  )
        38           Ti1 tau(  38) = (   3.4286588   4.4602296  12.4928226  )
        39           O1  tau(  39) = (   0.0319021   2.9714116  14.6601935  )
        40           O1  tau(  40) = (   3.3101560   2.9646938  13.9065487  )
        41           O1  tau(  41) = (   4.5621106   4.4348364  16.0307704  )
        42           O1  tau(  42) = (   2.0631145   4.4362735  16.0340239  )
        43           Ti1 tau(  43) = (   3.3022073   5.9430436  15.7660435  )
        44           Ti1 tau(  44) = (   0.0096536   4.4281594  16.1671579  )
        45           O1  tau(  45) = (   3.2900926   2.9813045   4.7018136  )
        46           O1  tau(  46) = (   0.0201356   2.9582321  17.2481609  )
        47           O1  tau(  47) = (   1.3039711   4.4726057   6.0039043  )
        48           O1  tau(  48) = (   5.2763189   4.4711207   6.0039473  )
        49           N1  tau(  49) = (   3.1912726   0.1001446  19.4138715  )
        50           N1  tau(  50) = (   3.2720412   5.7395159  18.3236336  )
        51           C1  tau(  51) = (   3.0989320   0.4433392  20.6510207  )
        52           H1  tau(  52) = (   2.1138422   0.5496673  21.0731464  )
        53           H1  tau(  53) = (   4.0116933   0.5939059  21.2009644  )

     number of k points=    10  Fermi-Dirac smearing, width (Ry)=  0.0073
                       cart. coord. in units 2pi/alat
        k(    1) = (   0.0000000   0.0000000   0.0000000), wk =   0.1250000
        k(    2) = (   0.0000000   0.0419351   0.0000000), wk =   0.2500000
        k(    3) = (   0.0000000  -0.0838702   0.0000000), wk =   0.1250000
        k(    4) = (   0.0379955   0.0000049   0.0000000), wk =   0.2500000
        k(    5) = (   0.0379955   0.0419400   0.0000000), wk =   0.2500000
        k(    6) = (   0.0379955  -0.0838652   0.0000000), wk =   0.2500000
        k(    7) = (   0.0379955  -0.0419301   0.0000000), wk =   0.2500000
        k(    8) = (  -0.0759910  -0.0000099   0.0000000), wk =   0.1250000
        k(    9) = (  -0.0759910   0.0419252   0.0000000), wk =   0.2500000
        k(   10) = (  -0.0759910  -0.0838800   0.0000000), wk =   0.1250000

     Initial potential from superposition of free atoms

     starting charge  383.99917, renormalised to  400.00000

     negative rho (up, down):  1.243E-02 0.000E+00

     %%%%%%%%%%%%%%%%%%%%%%%%%%%%%%%%%%%%%%%%%%%%%%%%%%%%%%%%%%%%%%%%%%%%%%%%
     %                                                                      %
     % You are using vdW-DF, which was implemented by the Thonhauser group. %
     % Please cite the following two papers that made this development      %
     % possible and the two reviews that describe the various versions:     %
     %                                                                      %
     %   T. Thonhauser et al., PRL 115, 136402 (2015).                      %
     %   T. Thonhauser et al., PRB 76, 125112 (2007).                       %
     %   K. Berland et al., Rep. Prog. Phys. 78, 066501 (2015).             %
     %   D.C. Langreth et al., J. Phys.: Condens. Matter 21, 084203 (2009). %
     %                                                                      %
     %                                                                      %
     % If you are calculating the stress with vdW-DF, please also cite:     %
     %                                                                      %
     %   R. Sabatini et al., J. Phys.: Condens. Matter 24, 424209 (2012).   %
     %                                                                      %
     %%%%%%%%%%%%%%%%%%%%%%%%%%%%%%%%%%%%%%%%%%%%%%%%%%%%%%%%%%%%%%%%%%%%%%%%

     Adding external electric field

     Computed dipole along edir(3) :
        Dipole              -11.0071 Ry au,        -27.9773 Debye
        Dipole field         -0.0208 Ry au,

        Potential amp.        1.9255 Ry
        Total length         46.3494 bohr

     Starting wfcs are  302 atomic wfcs
  @ DRIVER MODE: Message from server: STATUS
  @ DRIVER MODE: Message from server: POSDATA
  @ DRIVER MODE: Reading and sharing cell
  @ DRIVER MODE: Reading and sharing positions
  @ DRIVER MODE: Received positions

     Self-consistent Calculation

     iteration #  1     ecut=    29.40 Ry     beta= 0.05
     Davidson diagonalization with overlap
     c_bands:  1 eigenvalues not converged
     c_bands:  1 eigenvalues not converged
     c_bands:  1 eigenvalues not converged
     c_bands:  2 eigenvalues not converged
     c_bands:  2 eigenvalues not converged
     c_bands:  2 eigenvalues not converged
     c_bands:  2 eigenvalues not converged
     c_bands:  4 eigenvalues not converged
     c_bands:  2 eigenvalues not converged
     ethr =  1.00E-05,  avg # of iterations = 20.0

[...]

     total energy              =   -2516.86521486 Ry
     estimated scf accuracy    <    5070.57426970 Ry

     iteration #  2     ecut=    29.40 Ry     beta= 0.05
     Davidson diagonalization with overlap
     ethr =  1.00E-02,  avg # of iterations = 22.0

[...]

     iteration # 52     ecut=    29.40 Ry     beta= 0.05
     Davidson diagonalization with overlap
     c_bands:  1 eigenvalues not converged
     c_bands:  1 eigenvalues not converged
     ethr =  1.32E-07,  avg # of iterations =  9.5

[...]

     total energy              =   -2970.32647944 Ry
     estimated scf accuracy    <       0.00000008 Ry

     iteration # 78     ecut=    29.40 Ry     beta= 0.05
     Davidson diagonalization with overlap
     ethr =  1.97E-11,  avg # of iterations =  5.9

     negative rho (up, down):  1.353E-02 0.000E+00

     Adding external electric field

     Computed dipole along edir(3) :
        Dipole                0.8958 Ry au,          2.2769 Debye
        Dipole field          0.0017 Ry au,

        Potential amp.       -0.1567 Ry
        Total length         46.3494 bohr

     End of self-consistent calculation

          k = 0.0000 0.0000 0.0000 ( 18029 PWs)   bands (ev):

   -55.9938 -55.9602 -55.6751 -55.6392 -55.6049 -55.4862 -55.3970 -55.3725
   -55.3621 -55.3385 -55.2866 -55.2515 -55.2445 -55.2074 -54.7780 -54.7440
   -32.4214 -32.2407 -32.2137 -32.2127 -32.1857 -32.0946 -32.0482 -32.0346
   -31.9784 -31.8995 -31.8925 -31.8823 -31.8685 -31.8524 -31.8420 -31.8337
   -31.8229 -31.7998 -31.7900 -31.7573 -31.6754 -31.6470 -31.6385 -31.6320
   -31.6266 -31.6189 -31.5897 -31.5812 -31.5657 -31.5313 -31.5308 -31.5095
   -31.5012 -31.4894 -31.4679 -31.4673 -31.4656 -31.4499 -31.4431 -31.4204
   -31.3883 -31.3153 -31.1778 -31.1043 -31.0805 -30.9962 -30.9112 -30.7993
   -20.8856 -16.3340 -16.1553 -15.9294 -15.7860 -15.7093 -15.5725 -15.3609
   -15.3477 -15.2736 -15.2402 -15.2216 -15.1565 -15.1491 -15.1212 -15.1126
   -15.0869 -15.0603 -15.0261 -15.0099 -14.9971 -14.9557 -14.9053 -14.8678
   -14.7887 -14.7311 -14.6354 -14.6112 -14.5827 -14.5086 -14.4754 -14.2064
   -13.2714 -13.1577  -6.7875  -5.8280  -4.7584  -4.4412  -3.7434  -3.6728
    -3.5331  -3.5304  -3.4020  -3.1447  -3.0471  -2.8288  -2.8167  -2.7649
    -2.7242  -2.7068  -2.6681  -2.6072  -2.5039  -2.4870  -2.4577  -2.4326
    -2.4125  -2.4075  -2.3953  -2.3358  -2.3147  -2.2285  -2.2231  -2.2178
    -2.1789  -2.0465  -2.0003  -1.9541  -1.9469  -1.9163  -1.8354  -1.8225
    -1.8062  -1.7630  -1.6710  -1.6370  -1.5075  -1.4069  -1.4023  -1.3605
    -1.3021  -1.2526  -1.0565  -1.0166  -1.0045  -0.9825  -0.9742  -0.9592
    -0.8861  -0.8253  -0.6980  -0.5932  -0.5720  -0.5375  -0.5183  -0.5128
    -0.4830  -0.4188  -0.4095  -0.3865  -0.3457  -0.2125  -0.0693  -0.0397
    -0.0097   0.0141   0.0324   0.1047   0.1136   0.1594   0.1906   0.2374
     0.2454   0.2856   0.3051   0.3290   0.4129   0.4432   0.4959   0.5269
     0.5500   0.5710   0.6107   0.7781   0.8486   0.9629   0.9829   1.0576
     1.1945   1.2156   1.2501   1.4621   1.5078   1.6320   1.8382   1.9139
     3.2764   3.4614   3.6664   3.7496   3.7784   3.8686   3.9440   3.9969
     4.0498   4.1510

[...]

          k = 0.0380-0.0419 0.0000 ( 17876 PWs)   bands (ev):

[...]

          k =-0.0760-0.0000 0.0000 ( 17886 PWs)   bands (ev):

[...]

          k =-0.0760-0.0839 0.0000 ( 17948 PWs)   bands (ev):

   -55.9779 -55.9760 -55.6585 -55.6556 -55.6022 -55.4886 -55.3818 -55.3772
   -55.3560 -55.3547 -55.2698 -55.2682 -55.2280 -55.2238 -54.7609 -54.7609
   -32.2396 -32.2381 -32.2276 -32.2250 -32.1393 -32.1376 -32.0231 -32.0124
   -31.9350 -31.9235 -31.8941 -31.8693 -31.8602 -31.8566 -31.8265 -31.8002
   -31.7874 -31.7035 -31.6994 -31.6884 -31.6862 -31.6855 -31.6176 -31.6163
   -31.6091 -31.6055 -31.6048 -31.6008 -31.5931 -31.5921 -31.5654 -31.5640
   -31.5549 -31.5494 -31.4844 -31.4834 -31.4783 -31.4765 -31.4636 -31.4597
   -31.4473 -31.4439 -31.0933 -31.0933 -30.9920 -30.9919 -30.9538 -30.9538
   -20.8854 -15.7986 -15.7288 -15.5512 -15.5237 -15.4622 -15.4605 -15.4390
   -15.4262 -15.3719 -15.3706 -15.2385 -15.2288 -15.2224 -15.2164 -15.1550
   -15.1500 -15.1463 -15.1423 -15.0924 -15.0873 -14.9548 -14.9516 -14.8579
   -14.8523 -14.8128 -14.8050 -14.7510 -14.7406 -14.6545 -14.6458 -14.2060
   -13.2602 -13.2599  -6.7844  -5.8297  -4.7654  -4.4397  -3.0975  -2.9794
    -2.7947  -2.7742  -2.7451  -2.6185  -2.6138  -2.5931  -2.5882  -2.5300
    -2.4906  -2.4739  -2.4694  -2.4380  -2.4338  -2.3773  -2.3722  -2.3571
    -2.3479  -2.3423  -2.3376  -2.3306  -2.3230  -2.2430  -2.2362  -2.2212
    -2.2185  -2.1499  -2.1436  -2.1140  -2.1042  -1.8836  -1.8825  -1.8278
    -1.8173  -1.7014  -1.6970  -1.6788  -1.6764  -1.6178  -1.5920  -1.3723
    -1.3647  -1.3113  -1.2923  -1.2405  -1.2369  -1.1137  -1.0885  -0.9803
    -0.9405  -0.9344  -0.9270  -0.7966  -0.7853  -0.7769  -0.7606  -0.7520
    -0.7440  -0.6495  -0.5911  -0.5467  -0.5376  -0.5058  -0.4963  -0.4746
    -0.4275  -0.2868  -0.2833  -0.2779  -0.2688  -0.1329  -0.1308  -0.0695
    -0.0646   0.1746   0.1873   0.3011   0.3038   0.5602   0.5664   0.5929
     0.6080   0.7351   0.7480   0.7565   0.7906   0.9004   0.9047   0.9107
     0.9202   1.0120   1.0163   1.6184   1.6370   1.6378   1.6928   1.6933
     3.7908   3.8006   3.8221   3.8236   3.8496   3.8665   3.8957   3.9041
     4.1544   4.1746

     the Fermi energy is     2.6499 ev

!    total energy              =   -2970.32648759 Ry
     estimated scf accuracy    <       0.00000002 Ry
     smearing contrib. (-TS)   =      -0.00010044 Ry
     internal energy E=F+TS    =   -2970.32638715 Ry

     The total energy is F=E-TS. E is the sum of the following terms:
     one-electron contribution =  -23420.65211937 Ry
     hartree contribution      =   11802.09823859 Ry
     xc contribution           =    -491.46793643 Ry
     ewald contribution        =    9139.69391567 Ry
     electric field correction =       0.00151440 Ry

     convergence has been achieved in  78 iterations

     Forces acting on atoms (cartesian axes, Ry/au):

     atom    1 type  1   force =     0.00002498   -0.00005859    0.14944014
     atom    2 type  1   force =    -0.00006601   -0.00023345   -0.16929064
     atom    3 type  2   force =     0.00008130    0.00240774   -0.05964822
     atom    4 type  2   force =     0.00006184   -0.00153915    0.04011319
     atom    5 type  2   force =    -0.02178292   -0.00036158    0.00379083
     atom    6 type  2   force =     0.02138505    0.00005763    0.00420409
     atom    7 type  1   force =     0.00133980    0.00036715    0.00016050
     atom    8 type  1   force =    -0.00052639    0.00125351   -0.00036681
     atom    9 type  2   force =    -0.00067075    0.00012961   -0.00018523
     atom   10 type  2   force =    -0.00008144   -0.00038954    0.00061078
     atom   11 type  2   force =    -0.00079019    0.00025507   -0.00018056
     atom   12 type  2   force =    -0.00076467   -0.00004326   -0.00023025
     atom   13 type  1   force =     0.00050570    0.00010167   -0.00065992
     atom   14 type  1   force =    -0.00026617    0.00001849    0.00036868
     atom   15 type  2   force =    -0.00023569   -0.00038561    0.00031311
     atom   16 type  2   force =    -0.00007372   -0.00004534   -0.00042042
     atom   17 type  2   force =     0.00066735   -0.00028369   -0.00028664
     atom   18 type  2   force =     0.00022323   -0.00016348    0.00008739
     atom   19 type  1   force =    -0.00068206    0.00048835   -0.00012772
     atom   20 type  1   force =     0.00092160    0.00024217   -0.00043446
     atom   21 type  2   force =    -0.00000065   -0.00005158    0.10222270
     atom   22 type  2   force =     0.00022812   -0.00039195    0.00031243
     atom   23 type  2   force =    -0.07493142    0.00010072   -0.03477935
     atom   24 type  2   force =     0.07480392    0.00051582   -0.03481760
     atom   25 type  1   force =     0.00006412   -0.00002915    0.14883164
     atom   26 type  1   force =    -0.00000383   -0.00105731   -0.16931152
     atom   27 type  2   force =     0.00012597    0.00253871   -0.05990505
     atom   28 type  2   force =    -0.00032872   -0.00146951    0.04028582
     atom   29 type  2   force =    -0.02032467    0.00063289    0.00353226
     atom   30 type  2   force =     0.02285207   -0.00006659    0.00404088
     atom   31 type  1   force =     0.00100861    0.00067901   -0.00011334
     atom   32 type  1   force =    -0.00081579   -0.00143793   -0.00021043
     atom   33 type  2   force =    -0.00055318   -0.00039899   -0.00030601
     atom   34 type  2   force =    -0.00014240   -0.00005647   -0.00011627
     atom   35 type  2   force =    -0.00109686   -0.00079059   -0.00018496
     atom   36 type  2   force =    -0.00057793   -0.00045213   -0.00022145
     atom   37 type  1   force =     0.00072469   -0.00077293    0.00010129
     atom   38 type  1   force =    -0.00036353   -0.00016502    0.00059340
     atom   39 type  2   force =    -0.00040033   -0.00040277    0.00028884
     atom   40 type  2   force =    -0.00022592   -0.00040965    0.00001068
     atom   41 type  2   force =     0.00047674   -0.00033239    0.00030544
     atom   42 type  2   force =     0.00019078   -0.00037622   -0.00006613
     atom   43 type  1   force =    -0.00064549   -0.00100131    0.00032789
     atom   44 type  1   force =     0.00091932    0.00000072   -0.00026739
     atom   45 type  2   force =     0.00000442   -0.00007054    0.10219186
     atom   46 type  2   force =     0.00013886   -0.00007881   -0.00035110
     atom   47 type  2   force =    -0.07492387    0.00029426   -0.03474872
     atom   48 type  2   force =     0.07480790    0.00076543   -0.03484926
     atom   49 type  3   force =    -0.00109966    0.00572611    0.01074992
     atom   50 type  3   force =     0.00111719   -0.00473176   -0.01034128
     atom   51 type  4   force =    -0.00091439    0.00021455    0.00135855
     atom   52 type  5   force =     0.00125483    0.00031546   -0.00121135
     atom   53 type  5   force =    -0.00063970    0.00094222   -0.00061025

     Total force =     0.403240     Total SCF correction =     0.000458
  @ DRIVER MODE: Message from server: STATUS
  @ DRIVER MODE: Message from server: GETFORCE
  @ DRIVER MODE: Returning v,forces,stress,ensemble

     Writing output data file ./calc.save/
  @ DRIVER MODE: Message from server: EXIT
  @ DRIVE MODE: Exiting

     General routines

     Parallel routines

   This run was terminated on:  19:30:47  29Sep2021

   JOB DONE.