     Program PWSCF v.6.7GPU starts on 22Sep2021 at 23:25:56

     R & G space division:  proc/nbgrp/npool/nimage =      10
     Reading input from /storage/home/hcoda1/3/ntian30/research/carbon/CxH_vib/H2O_calc/ads_slab/CH2NHO_a/out_0023/pw.inp
Warning: card &CELL ignored
Warning: card   CELL_DYNAMICS='IPI', ignored
Warning: card / ignored

     Current dimensions of program PWSCF are:
     Max number of different atomic species (ntypx) = 10
     Max number of k-points (npk) =  40000
     Max angular momentum in pseudopotentials (lmaxx) =  3
     Presently no symmetry can be used with electric field

     Message from routine cell_base_init:
     DEPRECATED: use true lattice parameter, not A to a.u. conversion factor

     IMPORTANT: XC functional enforced from input :
     Exchange-correlation= BEEF-VDW
                           (   1   4  43  14   2   0   0)
     Any further DFT definition will be discarded
     Please, verify this is what you really want

  @ DRIVER MODE: Connecting to
 qe_1139763_2937321.sched-torque.pace.gatech.educgcme18y_scratch
  using UNIX socket
  @ DRIVER MODE: Message from server: STATUS
  @ DRIVER MODE: Message from server: INIT
  @ DRIVER MODE: Receiving replica           0          -1
  @ DRIVER MODE: Receiving encoded integer          25
  @ DRIVER MODE:  SCF:  T  FORCE:  T  STRESS:  F  VC:  F  ENSEMBLE:  F
  @ DRIVER MODE:  SCF:  T  FORCE:  T  STRESS:  F  VC:  F  ENSEMBLE:  F

     Using Slab Decomposition

     bravais-lattice index     =            0
     lattice parameter (alat)  =       1.8897  a.u.
     unit-cell volume          =    6658.9804 (a.u.)^3
     number of atoms/cell      =           53
     number of atomic types    =            5
     number of electrons       =       396.00
     number of Kohn-Sham states=          208
     kinetic-energy cutoff     =      29.3995  Ry
     charge density cutoff     =     293.9946  Ry
     scf convergence threshold =      7.3E-08
     mixing beta               =       0.0500
     number of iterations used =            8  plain     mixing
     Exchange-correlation= BEEF-VDW
                           (   1   4  43  14   2   0   0)

     celldm(1)=   1.889726  celldm(2)=   0.000000  celldm(3)=   0.000000
     celldm(4)=   0.000000  celldm(5)=   0.000000  celldm(6)=   0.000000

     crystal axes: (cart. coord. in units of alat)
               a(1) = (   6.579727   0.000000   0.000000 )
               a(2) = (  -0.000775   5.961596   0.000000 )
               a(3) = (   0.000000   0.000000  25.155947 )

     reciprocal axes: (cart. coord. in units 2 pi/alat)
               b(1) = (  0.151982  0.000020  0.000000 )
               b(2) = (  0.000000  0.167740  0.000000 )
               b(3) = (  0.000000  0.000000  0.039752 )

     PseudoPot. # 1 for Ti read from file:
     /storage/coda1/p-amedford6/0/shared/rich_project_chbe-medford/medford-share/data/pseudos_module/espresso/nninc/pbe/van/Ti.UPF
     MD5 check sum: 8e4df49b7f0d34bbd5052bf3f5ea0213
     Pseudo is Ultrasoft, Zval = 12.0
     Generated by new atomic code, or converted to UPF format
     Using radial grid of  851 points,  6 beta functions with:
                l(1) =   0
                l(2) =   0
                l(3) =   1
                l(4) =   1
                l(5) =   2
                l(6) =   2
     Q(r) pseudized with  8 coefficients,  rinner =    1.000   1.000   1.000
                                                       1.000   1.000

     PseudoPot. # 2 for O  read from file:
     /storage/coda1/p-amedford6/0/shared/rich_project_chbe-medford/medford-share/data/pseudos_module/espresso/nninc/pbe/van/O.UPF
     MD5 check sum: 78c19812648e8988a0fe644b0f25305e
     Pseudo is Ultrasoft, Zval =  6.0
     Generated by new atomic code, or converted to UPF format
     Using radial grid of  737 points,  4 beta functions with:
                l(1) =   0
                l(2) =   0
                l(3) =   1
                l(4) =   1
     Q(r) pseudized with  8 coefficients,  rinner =    0.800   0.800   0.800

     PseudoPot. # 3 for N  read from file:
     /storage/coda1/p-amedford6/0/shared/rich_project_chbe-medford/medford-share/data/pseudos_module/espresso/nninc/pbe/van/N.UPF
     MD5 check sum: 90d10febe142ad51ac9d5be1deb811c4
     Pseudo is Ultrasoft, Zval =  5.0
     Generated by new atomic code, or converted to UPF format
     Using radial grid of  729 points,  4 beta functions with:
                l(1) =   0
                l(2) =   0
                l(3) =   1
                l(4) =   1
     Q(r) pseudized with  8 coefficients,  rinner =    0.800   0.800   0.800

     PseudoPot. # 4 for C  read from file:
     /storage/coda1/p-amedford6/0/shared/rich_project_chbe-medford/medford-share/data/pseudos_module/espresso/nninc/pbe/van/C.UPF
     MD5 check sum: 1a69bf6b8db32088f5b2163dbdb77a27
     Pseudo is Ultrasoft, Zval =  4.0
     Generated by new atomic code, or converted to UPF format
     Using radial grid of  721 points,  4 beta functions with:
                l(1) =   0
                l(2) =   0
                l(3) =   1
                l(4) =   1
     Q(r) pseudized with  8 coefficients,  rinner =    0.800   0.800   0.800

     PseudoPot. # 5 for H  read from file:
     /storage/coda1/p-amedford6/0/shared/rich_project_chbe-medford/medford-share/data/pseudos_module/espresso/nninc/pbe/van/H.UPF
     MD5 check sum: b5ee9d7bfd3a09ee7748110bda690ff7
     Pseudo is Ultrasoft, Zval =  1.0
     Generated by new atomic code, or converted to UPF format
     Using radial grid of  615 points,  1 beta functions with:
                l(1) =   0
     Q(r) pseudized with  8 coefficients,  rinner =    0.800

     atomic species   valence    mass     pseudopotential
        Ti1           12.00    47.86700     Ti( 1.00)
        O1             6.00    15.99900     O ( 1.00)
        N1             5.00    14.00700     N ( 1.00)
        C1             4.00    12.01100     C ( 1.00)
        H1             1.00     1.00800     H ( 1.00)

     No symmetry found

   Cartesian axes

     site n.     atom                  positions (alat units)
         1           Ti1 tau(   1) = (   0.0004258   2.9801865   6.0000000  )
         2           Ti1 tau(   2) = (   3.2906075   1.4906267   6.0002472  )
         3           O1  tau(   3) = (   0.0006271   0.0005054   7.9858123  )
         4           O1  tau(   4) = (   3.2906025   0.0005020   7.3038282  )
         5           O1  tau(   5) = (   4.5942328   1.4918067   9.2879030  )
         6           O1  tau(   6) = (   1.9868534   1.4903216   9.2879459  )
         7           Ti1 tau(   7) = (   3.2907910   2.8959150   9.1758416  )
         8           Ti1 tau(   8) = (   0.0015273   1.4827037   9.2680791  )
         9           O1  tau(   9) = (   3.3049783   5.9490022  11.2668993  )
        10           O1  tau(  10) = (   0.0116148   5.9584955  10.6183126  )
        11           O1  tau(  11) = (   1.3054562   1.4902858  12.6165390  )
        12           O1  tau(  12) = (   5.3128925   1.4966897  12.6222362  )
        13           Ti1 tau(  13) = (   0.0227526   2.8513963  12.7011302  )
        14           Ti1 tau(  14) = (   3.3146314   1.3157910  12.6511296  )
        15           O1  tau(  15) = (   0.0292331   0.0037381  14.6451560  )
        16           O1  tau(  16) = (   3.3105559   0.0332628  13.8611824  )
        17           O1  tau(  17) = (   4.5798417   1.5533887  16.0574704  )
        18           O1  tau(  18) = (   2.0659959   1.5620864  16.0379710  )
        19           Ti1 tau(  19) = (   3.3199680   3.0150018  15.6455324  )
        20           Ti1 tau(  20) = (   6.5662113   1.5085715  15.8767718  )
        21           O1  tau(  21) = (   3.2904802   0.0005063   4.7018136  )
        22           O1  tau(  22) = (   0.0336757   0.0283057  17.1922241  )
        23           O1  tau(  23) = (   1.3043587   1.4918075   6.0039043  )
        24           O1  tau(  24) = (   5.2767064   1.4903225   6.0039473  )
        25           Ti1 tau(  25) = (   0.0000382   5.9609847   6.0000000  )
        26           Ti1 tau(  26) = (   3.2902200   4.4714249   6.0002472  )
        27           O1  tau(  27) = (   0.0002396   2.9813036   7.9858123  )
        28           O1  tau(  28) = (   3.2902150   2.9813002   7.3038282  )
        29           O1  tau(  29) = (   4.5938453   4.4726049   9.2879030  )
        30           O1  tau(  30) = (   1.9864658   4.4711199   9.2879459  )
        31           Ti1 tau(  31) = (   3.2891106   5.8743827   9.1763621  )
        32           Ti1 tau(  32) = (   0.0006254   4.4649316   9.2693709  )
        33           O1  tau(  33) = (   3.3044035   3.0314990  11.2389097  )
        34           O1  tau(  34) = (   0.0092240   2.9805883  10.6323155  )
        35           O1  tau(  35) = (   1.3090660   4.4724101  12.6204063  )
        36           O1  tau(  36) = (   5.3093727   4.4739031  12.6240458  )
        37           Ti1 tau(  37) = (   0.0315986   5.8296340  12.6341251  )
        38           Ti1 tau(  38) = (   3.3217628   4.4127071  12.4104736  )
        39           O1  tau(  39) = (   0.0286309   2.9529265  14.6620113  )
        40           O1  tau(  40) = (   3.3111648   2.9942334  13.8608864  )
        41           O1  tau(  41) = (   4.5850423   4.4544105  16.0703757  )
        42           O1  tau(  42) = (   2.0817017   4.4739285  16.0881885  )
        43           Ti1 tau(  43) = (   3.2564312   0.0343949  16.3346327  )
        44           Ti1 tau(  44) = (   6.5491996   4.6347227  16.0815441  )
        45           O1  tau(  45) = (   3.2900926   2.9813045   4.7018136  )
        46           O1  tau(  46) = (   1.3039711   4.4726057   6.0039043  )
        47           O1  tau(  47) = (   5.2763189   4.4711207   6.0039473  )
        48           N1  tau(  48) = (   0.0476609   2.9608057  17.4046342  )
        49           C1  tau(  49) = (   0.0744360   2.8714357  18.6596517  )
        50           H1  tau(  50) = (   0.0810575   3.7616739  19.3027278  )
        51           H1  tau(  51) = (   0.0872865   1.8968143  19.1521030  )
        52           O1  tau(  52) = (   3.2917830   0.0572188  18.1605702  )
        53           H1  tau(  53) = (   2.8914424   5.3141097  18.6896264  )

     number of k points=    10  Fermi-Dirac smearing, width (Ry)=  0.0073
                       cart. coord. in units 2pi/alat
        k(    1) = (   0.0000000   0.0000000   0.0000000), wk =   0.1250000
        k(    2) = (   0.0000000   0.0419351   0.0000000), wk =   0.2500000
        k(    3) = (   0.0000000  -0.0838702   0.0000000), wk =   0.1250000
        k(    4) = (   0.0379955   0.0000049   0.0000000), wk =   0.2500000
        k(    5) = (   0.0379955   0.0419400   0.0000000), wk =   0.2500000
        k(    6) = (   0.0379955  -0.0838652   0.0000000), wk =   0.2500000
        k(    7) = (   0.0379955  -0.0419301   0.0000000), wk =   0.2500000
        k(    8) = (  -0.0759910  -0.0000099   0.0000000), wk =   0.1250000
        k(    9) = (  -0.0759910   0.0419252   0.0000000), wk =   0.2500000
        k(   10) = (  -0.0759910  -0.0838800   0.0000000), wk =   0.1250000

     Initial potential from superposition of free atoms

     starting charge  379.99917, renormalised to  396.00000

     negative rho (up, down):  1.695E-02 0.000E+00

     %%%%%%%%%%%%%%%%%%%%%%%%%%%%%%%%%%%%%%%%%%%%%%%%%%%%%%%%%%%%%%%%%%%%%%%%
     %                                                                      %
     % You are using vdW-DF, which was implemented by the Thonhauser group. %
     % Please cite the following two papers that made this development      %
     % possible and the two reviews that describe the various versions:     %
     %                                                                      %
     %   T. Thonhauser et al., PRL 115, 136402 (2015).                      %
     %   T. Thonhauser et al., PRB 76, 125112 (2007).                       %
     %   K. Berland et al., Rep. Prog. Phys. 78, 066501 (2015).             %
     %   D.C. Langreth et al., J. Phys.: Condens. Matter 21, 084203 (2009). %
     %                                                                      %
     %                                                                      %
     % If you are calculating the stress with vdW-DF, please also cite:     %
     %                                                                      %
     %   R. Sabatini et al., J. Phys.: Condens. Matter 24, 424209 (2012).   %
     %                                                                      %
     %%%%%%%%%%%%%%%%%%%%%%%%%%%%%%%%%%%%%%%%%%%%%%%%%%%%%%%%%%%%%%%%%%%%%%%%

     Adding external electric field

     Computed dipole along edir(3) :
        Dipole               -7.7043 Ry au,        -19.5825 Debye
        Dipole field         -0.0145 Ry au,

        Potential amp.        1.3478 Ry
        Total length         46.3494 bohr

     Starting wfcs are  299 atomic wfcs
  @ DRIVER MODE: Message from server: STATUS
  @ DRIVER MODE: Message from server: POSDATA
  @ DRIVER MODE: Reading and sharing cell
  @ DRIVER MODE: Reading and sharing positions
  @ DRIVER MODE: Received positions

     Self-consistent Calculation

     iteration #  1     ecut=    29.40 Ry     beta= 0.05
     Davidson diagonalization with overlap
     c_bands:  1 eigenvalues not converged
     c_bands:  3 eigenvalues not converged
     c_bands:  1 eigenvalues not converged
     c_bands:  2 eigenvalues not converged
     c_bands:  3 eigenvalues not converged
     c_bands:  2 eigenvalues not converged
     c_bands:  3 eigenvalues not converged
     c_bands:  2 eigenvalues not converged
     ethr =  1.00E-05,  avg # of iterations = 19.5

[...]

     total energy              =   -2658.47577319 Ry
     estimated scf accuracy    <    3232.38662543 Ry

[...]

     iteration #  3     ecut=    29.40 Ry     beta= 0.05
     Davidson diagonalization with overlap
     ethr =  1.00E-02,  avg # of iterations = 14.9

[...]

     iteration # 44     ecut=    29.40 Ry     beta= 0.05
     Davidson diagonalization with overlap
     c_bands:  1 eigenvalues not converged
     c_bands:  1 eigenvalues not converged
     ethr =  8.38E-08,  avg # of iterations =  8.3

[...]

     total energy              =   -2951.50538910 Ry
     estimated scf accuracy    <       0.00000009 Ry

     iteration # 66     ecut=    29.40 Ry     beta= 0.05
     Davidson diagonalization with overlap
     ethr =  2.31E-11,  avg # of iterations =  4.8

     negative rho (up, down):  1.701E-02 0.000E+00

     Adding external electric field

     Computed dipole along edir(3) :
        Dipole                0.3628 Ry au,          0.9222 Debye
        Dipole field          0.0007 Ry au,

        Potential amp.       -0.0635 Ry
        Total length         46.3494 bohr

     End of self-consistent calculation

          k = 0.0000 0.0000 0.0000 ( 18029 PWs)   bands (ev):

   -56.8868 -56.8532 -56.0102 -55.9743 -55.7621 -55.6981 -55.5443 -55.4455
   -55.4116 -55.3925 -55.3295 -55.3056 -55.2768 -55.2579 -55.0756 -55.0127
   -33.3068 -33.1601 -33.1320 -33.0642 -32.9739 -32.9337 -32.4933 -32.2396
   -32.2307 -32.2023 -32.1504 -32.1480 -32.1214 -31.9951 -31.9801 -31.9311
   -31.9025 -31.8929 -31.8700 -31.8617 -31.8247 -31.7925 -31.7922 -31.7677
   -31.7646 -31.7600 -31.7180 -31.6908 -31.6594 -31.6501 -31.5939 -31.5695
   -31.5467 -31.5290 -31.5247 -31.5201 -31.5024 -31.4818 -31.4743 -31.4685
   -31.4579 -31.4278 -31.3383 -31.3169 -31.2821 -31.2756 -31.2533 -31.2145
   -16.9988 -16.4621 -16.4523 -16.2085 -16.1010 -16.0860 -16.0587 -15.9848
   -15.7996 -15.7287 -15.7014 -15.6505 -15.5264 -15.4030 -15.3064 -15.1594
   -15.0754 -15.0301 -15.0288 -15.0119 -14.9758 -14.9621 -14.9402 -14.8769
   -14.8567 -14.7859 -14.6484 -14.6123 -14.6025 -14.3334 -14.3241 -13.9429
   -13.8358  -7.2080  -4.5710  -4.1514  -3.9972  -3.9318  -3.7663  -3.5944
    -3.5796  -3.4438  -3.4102  -3.2689  -3.2645  -3.2504  -3.1654  -3.1499
    -3.0301  -2.9632  -2.9488  -2.8479  -2.8069  -2.6551  -2.6172  -2.5269
    -2.4743  -2.4533  -2.3905  -2.3414  -2.3146  -2.2905  -2.2654  -2.2091
    -2.1888  -2.1548  -2.0891  -2.0527  -1.9659  -1.9287  -1.9180  -1.9116
    -1.7980  -1.7712  -1.7307  -1.5917  -1.5325  -1.5142  -1.4919  -1.4393
    -1.3798  -1.3566  -1.3061  -1.2054  -1.1283  -1.1131  -1.0462  -1.0290
    -1.0160  -0.8917  -0.8379  -0.7446  -0.7354  -0.7199  -0.6531  -0.5943
    -0.5564  -0.4722  -0.3969  -0.3874  -0.3741  -0.3377  -0.3144  -0.2569
    -0.1466  -0.1054  -0.0566   0.0166   0.0378   0.1266   0.2214   0.2559
     0.2694   0.3139   0.3428   0.3637   0.4216   0.4855   0.4989   0.5680
     0.5760   0.5800   0.6656   0.7564   0.7943   0.8452   0.8692   0.8802
     1.0025   1.0884   1.1128   1.1580   1.5269   1.7506   2.4040   2.5735
     2.8496   3.0040   3.3272   3.3904   3.4033   3.4066   3.6739   3.8081

[...]

          k = 0.0380-0.0419 0.0000 ( 17876 PWs)   bands (ev):

[...]

          k =-0.0760-0.0000 0.0000 ( 17886 PWs)   bands (ev):

[...]

          k =-0.0760-0.0839 0.0000 ( 17948 PWs)   bands (ev):

   -56.8706 -56.8692 -55.9985 -55.9858 -55.7572 -55.7029 -55.5434 -55.4290
   -55.4279 -55.3889 -55.3302 -55.3090 -55.2754 -55.2568 -55.0769 -55.0137
   -33.1466 -33.1451 -33.1247 -33.1233 -33.0182 -33.0171 -32.3189 -32.3080
   -32.1931 -32.1807 -32.1803 -32.1720 -32.0627 -32.0199 -31.9883 -31.9771
   -31.9302 -31.9257 -31.8387 -31.7907 -31.7812 -31.7804 -31.7468 -31.7196
   -31.6990 -31.6511 -31.6494 -31.6492 -31.6468 -31.6358 -31.6155 -31.6106
   -31.6096 -31.6084 -31.5861 -31.5452 -31.5377 -31.5178 -31.5059 -31.4841
   -31.4768 -31.4255 -31.4242 -31.3470 -31.3399 -31.2861 -31.2555 -31.2345
   -16.4469 -16.3616 -16.3594 -16.3091 -16.3075 -16.0587 -16.0538 -15.8031
   -15.7722 -15.5882 -15.5111 -15.4790 -15.4291 -15.3880 -15.3533 -15.2518
   -15.2388 -15.1419 -15.1137 -15.1041 -15.0570 -15.0130 -14.9700 -14.9403
   -14.9010 -14.8104 -14.7513 -14.7158 -14.6159 -14.5171 -14.4671 -13.9403
   -13.9398  -7.2031  -4.1493  -3.9901  -3.4302  -3.4254  -3.4154  -3.4071
    -3.3483  -3.1834  -3.1757  -2.9901  -2.9624  -2.9600  -2.8890  -2.8827
    -2.7758  -2.7105  -2.7046  -2.7037  -2.6692  -2.6418  -2.6357  -2.5789
    -2.4719  -2.4209  -2.3960  -2.3743  -2.3451  -2.3166  -2.2627  -2.1733
    -2.1654  -2.1559  -2.1259  -2.1058  -2.0804  -2.0752  -1.9370  -1.8357
    -1.7642  -1.7152  -1.7053  -1.6903  -1.6636  -1.6279  -1.5972  -1.5838
    -1.5377  -1.4788  -1.4536  -1.3979  -1.3489  -1.3010  -1.2188  -1.1578
    -1.0902  -1.0691  -0.9365  -0.9210  -0.9016  -0.8632  -0.8300  -0.8205
    -0.7454  -0.6721  -0.6131  -0.5974  -0.5365  -0.5135  -0.4788  -0.4409
    -0.4318  -0.3765  -0.3543  -0.3054  -0.2905  -0.1696  -0.0865   0.0347
     0.0672   0.0853   0.1424   0.1752   0.3125   0.3217   0.3720   0.4863
     0.5226   0.6647   0.6821   0.7845   0.8335   0.8962   0.9526   0.9563
     0.9568   0.9829   1.0169   1.0379   1.1142   1.6886   2.9942   2.9971
     3.0541   3.0598   3.3666   3.3707   3.4752   3.4808   3.7851   3.7917

     the Fermi energy is     2.1416 ev

!    total energy              =   -2951.50541153 Ry
     estimated scf accuracy    <       0.00000002 Ry
     smearing contrib. (-TS)   =      -0.00232628 Ry
     internal energy E=F+TS    =   -2951.50308525 Ry

     The total energy is F=E-TS. E is the sum of the following terms:
     one-electron contribution =  -24182.26916394 Ry
     hartree contribution      =   12180.63012607 Ry
     xc contribution           =    -487.04178055 Ry
     ewald contribution        =    9537.17748473 Ry
     electric field correction =       0.00024844 Ry

     convergence has been achieved in  66 iterations

     Forces acting on atoms (cartesian axes, Ry/au):

     atom    1 type  1   force =     0.00001464   -0.00050876    0.12458562
     atom    2 type  1   force =    -0.00009520    0.00034817   -0.15486696
     atom    3 type  2   force =     0.00004591   -0.00012298   -0.06537799
     atom    4 type  2   force =     0.00007409    0.00024411    0.01706193
     atom    5 type  2   force =    -0.00338602   -0.00145320   -0.01348106
     atom    6 type  2   force =     0.00542552   -0.00094399   -0.01319676
     atom    7 type  1   force =     0.00029941   -0.00647379    0.05888501
     atom    8 type  1   force =     0.00011286    0.00855201    0.09583676
     atom    9 type  2   force =     0.00026641   -0.00010740    0.00025363
     atom   10 type  2   force =    -0.00166771    0.00093395   -0.05964661
     atom   11 type  2   force =     0.00079837   -0.00033816   -0.00033599
     atom   12 type  2   force =    -0.00102661   -0.00073722   -0.00007940
     atom   13 type  1   force =    -0.00020086   -0.00074605    0.00006746
     atom   14 type  1   force =     0.00003454   -0.00065274   -0.00014422
     atom   15 type  2   force =     0.00008544   -0.00023020   -0.00013299
     atom   16 type  2   force =    -0.00008768    0.00001212   -0.00040521
     atom   17 type  2   force =     0.00023203   -0.00013026   -0.00013306
     atom   18 type  2   force =    -0.00037040   -0.00021914   -0.00014655
     atom   19 type  1   force =    -0.00018147   -0.00137692    0.00012309
     atom   20 type  1   force =    -0.00013821    0.00005034   -0.00022694
     atom   21 type  2   force =     0.00002353    0.00021566    0.09783950
     atom   22 type  2   force =    -0.00027769   -0.00028819    0.00033243
     atom   23 type  2   force =    -0.08254513    0.00005195   -0.03294001
     atom   24 type  2   force =     0.08242980    0.00049281   -0.03299355
     atom   25 type  1   force =     0.00002504   -0.00057424    0.12482046
     atom   26 type  1   force =    -0.00019100   -0.00146607   -0.15525324
     atom   27 type  2   force =     0.00011555   -0.00079835   -0.06369092
     atom   28 type  2   force =     0.00005653    0.00198317    0.01252077
     atom   29 type  2   force =    -0.00155870    0.00507849   -0.01679532
     atom   30 type  2   force =     0.00370594    0.00540150   -0.01640674
     atom   31 type  1   force =     0.00000357    0.00179359    0.04177148
     atom   32 type  1   force =     0.00011461   -0.01183590    0.09590682
     atom   33 type  2   force =     0.00001395   -0.00023374   -0.00028244
     atom   34 type  2   force =    -0.00105249    0.00154106   -0.07415706
     atom   35 type  2   force =    -0.00040528    0.00017805    0.00009471
     atom   36 type  2   force =     0.00111391    0.00043719    0.00016682
     atom   37 type  1   force =    -0.00030037    0.00060569    0.00027470
     atom   38 type  1   force =     0.00020574   -0.00054191    0.00000917
     atom   39 type  2   force =     0.00015491    0.00025436    0.00009184
     atom   40 type  2   force =    -0.00005048   -0.00049969   -0.00058488
     atom   41 type  2   force =     0.00048205    0.00011415   -0.00022105
     atom   42 type  2   force =    -0.00076521   -0.00007519    0.00007920
     atom   43 type  1   force =     0.00001885    0.00104277   -0.00073162
     atom   44 type  1   force =    -0.00003530   -0.00010912   -0.00051753
     atom   45 type  2   force =     0.00004016    0.00001945    0.09765760
     atom   46 type  2   force =    -0.08260517    0.00001559   -0.03294874
     atom   47 type  2   force =     0.08248117    0.00044522   -0.03299956
     atom   48 type  3   force =    -0.00019189    0.00114420   -0.00110187
     atom   49 type  4   force =    -0.00017292    0.00305117   -0.00310603
     atom   50 type  5   force =    -0.00011218   -0.00053513    0.00017340
     atom   51 type  5   force =    -0.00005020   -0.00388765    0.00431160
     atom   52 type  2   force =     0.00013892    0.00056728    0.00014812
     atom   53 type  5   force =    -0.00104528    0.00031197   -0.00010783

     Total force =     0.415546     Total SCF correction =     0.000353
  @ DRIVER MODE: Message from server: STATUS
  @ DRIVER MODE: Message from server: GETFORCE
  @ DRIVER MODE: Returning v,forces,stress,ensemble

     Writing output data file ./calc.save/
  @ DRIVER MODE: Message from server: EXIT
  @ DRIVE MODE: Exiting

     General routines

     Parallel routines

   This run was terminated on:  23:43:12  22Sep2021

   JOB DONE.