     Program PWSCF v.6.7GPU starts on  9Sep2021 at  0:10:36

     R & G space division:  proc/nbgrp/npool/nimage =      10
     Reading input from /storage/home/hcoda1/3/ntian30/research/carbon/CxH_vib/CH_calc/ads_slab/CHNNHH_a/out_0007/pw.inp
Warning: card &CELL ignored
Warning: card   CELL_DYNAMICS='IPI', ignored
Warning: card / ignored

     Current dimensions of program PWSCF are:
     Max number of different atomic species (ntypx) = 10
     Max number of k-points (npk) =  40000
     Max angular momentum in pseudopotentials (lmaxx) =  3
     Presently no symmetry can be used with electric field

     Message from routine cell_base_init:
     DEPRECATED: use true lattice parameter, not A to a.u. conversion factor

     IMPORTANT: XC functional enforced from input :
     Exchange-correlation= BEEF-VDW
                           (   1   4  43  14   2   0   0)
     Any further DFT definition will be discarded
     Please, verify this is what you really want

  @ DRIVER MODE: Connecting to
 qe_1139763_2767382.sched-torque.pace.gatech.edutwwu6a3q_scratch
  using UNIX socket
  @ DRIVER MODE: Message from server: STATUS
  @ DRIVER MODE: Message from server: INIT
  @ DRIVER MODE: Receiving replica           0          -1
  @ DRIVER MODE: Receiving encoded integer          25
  @ DRIVER MODE:  SCF:  T  FORCE:  T  STRESS:  F  VC:  F  ENSEMBLE:  F
  @ DRIVER MODE:  SCF:  T  FORCE:  T  STRESS:  F  VC:  F  ENSEMBLE:  F

     Using Slab Decomposition

     bravais-lattice index     =            0
     lattice parameter (alat)  =       1.8897  a.u.
     unit-cell volume          =    6658.9804 (a.u.)^3
     number of atoms/cell      =           53
     number of atomic types    =            5
     number of electrons       =       395.00
     number of Kohn-Sham states=          207
     kinetic-energy cutoff     =      29.3995  Ry
     charge density cutoff     =     293.9946  Ry
     scf convergence threshold =      7.3E-08
     mixing beta               =       0.0500
     number of iterations used =            8  plain     mixing
     Exchange-correlation= BEEF-VDW
                           (   1   4  43  14   2   0   0)

     celldm(1)=   1.889726  celldm(2)=   0.000000  celldm(3)=   0.000000
     celldm(4)=   0.000000  celldm(5)=   0.000000  celldm(6)=   0.000000

     crystal axes: (cart. coord. in units of alat)
               a(1) = (   6.579727   0.000000   0.000000 )
               a(2) = (  -0.000775   5.961596   0.000000 )
               a(3) = (   0.000000   0.000000  25.155947 )

     reciprocal axes: (cart. coord. in units 2 pi/alat)
               b(1) = (  0.151982  0.000020  0.000000 )
               b(2) = (  0.000000  0.167740  0.000000 )
               b(3) = (  0.000000  0.000000  0.039752 )

     PseudoPot. # 1 for Ti read from file:
     /storage/coda1/p-amedford6/0/shared/rich_project_chbe-medford/medford-share/data/pseudos_module/espresso/nninc/pbe/van/Ti.UPF
     MD5 check sum: 8e4df49b7f0d34bbd5052bf3f5ea0213
     Pseudo is Ultrasoft, Zval = 12.0
     Generated by new atomic code, or converted to UPF format
     Using radial grid of  851 points,  6 beta functions with:
                l(1) =   0
                l(2) =   0
                l(3) =   1
                l(4) =   1
                l(5) =   2
                l(6) =   2
     Q(r) pseudized with  8 coefficients,  rinner =    1.000   1.000   1.000
                                                       1.000   1.000

     PseudoPot. # 2 for O  read from file:
     /storage/coda1/p-amedford6/0/shared/rich_project_chbe-medford/medford-share/data/pseudos_module/espresso/nninc/pbe/van/O.UPF
     MD5 check sum: 78c19812648e8988a0fe644b0f25305e
     Pseudo is Ultrasoft, Zval =  6.0
     Generated by new atomic code, or converted to UPF format
     Using radial grid of  737 points,  4 beta functions with:
                l(1) =   0
                l(2) =   0
                l(3) =   1
                l(4) =   1
     Q(r) pseudized with  8 coefficients,  rinner =    0.800   0.800   0.800

     PseudoPot. # 3 for N  read from file:
     /storage/coda1/p-amedford6/0/shared/rich_project_chbe-medford/medford-share/data/pseudos_module/espresso/nninc/pbe/van/N.UPF
     MD5 check sum: 90d10febe142ad51ac9d5be1deb811c4
     Pseudo is Ultrasoft, Zval =  5.0
     Generated by new atomic code, or converted to UPF format
     Using radial grid of  729 points,  4 beta functions with:
                l(1) =   0
                l(2) =   0
                l(3) =   1
                l(4) =   1
     Q(r) pseudized with  8 coefficients,  rinner =    0.800   0.800   0.800

     PseudoPot. # 4 for C  read from file:
     /storage/coda1/p-amedford6/0/shared/rich_project_chbe-medford/medford-share/data/pseudos_module/espresso/nninc/pbe/van/C.UPF
     MD5 check sum: 1a69bf6b8db32088f5b2163dbdb77a27
     Pseudo is Ultrasoft, Zval =  4.0
     Generated by new atomic code, or converted to UPF format
     Using radial grid of  721 points,  4 beta functions with:
                l(1) =   0
                l(2) =   0
                l(3) =   1
                l(4) =   1
     Q(r) pseudized with  8 coefficients,  rinner =    0.800   0.800   0.800

     PseudoPot. # 5 for H  read from file:
     /storage/coda1/p-amedford6/0/shared/rich_project_chbe-medford/medford-share/data/pseudos_module/espresso/nninc/pbe/van/H.UPF
     MD5 check sum: b5ee9d7bfd3a09ee7748110bda690ff7
     Pseudo is Ultrasoft, Zval =  1.0
     Generated by new atomic code, or converted to UPF format
     Using radial grid of  615 points,  1 beta functions with:
                l(1) =   0
     Q(r) pseudized with  8 coefficients,  rinner =    0.800

     atomic species   valence    mass     pseudopotential
        Ti1           12.00    47.86700     Ti( 1.00)
        O1             6.00    15.99900     O ( 1.00)
        N1             5.00    14.00700     N ( 1.00)
        C1             4.00    12.01100     C ( 1.00)
        H1             1.00     1.00800     H ( 1.00)

     No symmetry found

   Cartesian axes

     site n.     atom                  positions (alat units)
         1           Ti1 tau(   1) = (   0.0004258   2.9801865   6.0000000  )
         2           Ti1 tau(   2) = (   3.2906075   1.4906267   6.0002472  )
         3           O1  tau(   3) = (   0.0006271   0.0005054   7.9858123  )
         4           O1  tau(   4) = (   3.2906025   0.0005020   7.3038282  )
         5           O1  tau(   5) = (   4.5942328   1.4918067   9.2879030  )
         6           O1  tau(   6) = (   1.9868534   1.4903216   9.2879459  )
         7           Ti1 tau(   7) = (   3.2907910   2.8959150   9.1758416  )
         8           Ti1 tau(   8) = (   0.0015273   1.4827037   9.2680791  )
         9           O1  tau(   9) = (   3.2912281   5.9459940  11.3193265  )
        10           O1  tau(  10) = (   0.0116148   5.9584955  10.6183126  )
        11           O1  tau(  11) = (   1.3103257   1.4650607  12.6442557  )
        12           O1  tau(  12) = (   5.3047449   1.4806448  12.6312737  )
        13           Ti1 tau(  13) = (   6.5337005   3.0128982  12.6900614  )
        14           Ti1 tau(  14) = (   3.2207025   1.4698770  12.4715817  )
        15           O1  tau(  15) = (   6.5518216   5.9146589  14.6704082  )
        16           O1  tau(  16) = (   3.3240203   5.9583723  13.8895330  )
        17           O1  tau(  17) = (   4.5456974   1.5225049  16.1264218  )
        18           O1  tau(  18) = (   2.0489736   1.4727210  15.9535721  )
        19           Ti1 tau(  19) = (   3.2591190   2.9927146  15.6788090  )
        20           Ti1 tau(  20) = (   0.0289511   1.3544711  15.7732889  )
        21           O1  tau(  21) = (   3.2904802   0.0005063   4.7018136  )
        22           O1  tau(  22) = (   0.0559926   0.0451390  17.2112278  )
        23           O1  tau(  23) = (   1.3043587   1.4918075   6.0039043  )
        24           O1  tau(  24) = (   5.2767064   1.4903225   6.0039473  )
        25           Ti1 tau(  25) = (   0.0000382   5.9609847   6.0000000  )
        26           Ti1 tau(  26) = (   3.2902200   4.4714249   6.0002472  )
        27           O1  tau(  27) = (   0.0002396   2.9813036   7.9858123  )
        28           O1  tau(  28) = (   3.2902150   2.9813002   7.3038282  )
        29           O1  tau(  29) = (   4.5938453   4.4726049   9.2879030  )
        30           O1  tau(  30) = (   1.9864658   4.4711199   9.2879459  )
        31           Ti1 tau(  31) = (   3.2891106   5.8743827   9.1763621  )
        32           Ti1 tau(  32) = (   0.0006254   4.4649316   9.2693709  )
        33           O1  tau(  33) = (   3.2889932   2.9698301  11.3211337  )
        34           O1  tau(  34) = (   0.0092240   2.9805883  10.6323155  )
        35           O1  tau(  35) = (   1.3069247   4.4567274  12.6410950  )
        36           O1  tau(  36) = (   5.3013738   4.4587240  12.6283471  )
        37           Ti1 tau(  37) = (   6.5339814   0.0202798  12.5235249  )
        38           Ti1 tau(  38) = (   3.2191325   4.4512509  12.4750946  )
        39           O1  tau(  39) = (   6.5688456   2.9522374  14.7547250  )
        40           O1  tau(  40) = (   3.3031296   2.9710333  13.8824388  )
        41           O1  tau(  41) = (   4.5425837   4.4734130  15.9989242  )
        42           O1  tau(  42) = (   2.0771424   4.4889556  16.0364895  )
        43           Ti1 tau(  43) = (   3.3121389   0.0026565  15.6888161  )
        44           Ti1 tau(  44) = (   6.5128106   4.4989306  16.3061806  )
        45           O1  tau(  45) = (   3.2900926   2.9813045   4.7018136  )
        46           O1  tau(  46) = (   1.3039711   4.4726057   6.0039043  )
        47           O1  tau(  47) = (   5.2763189   4.4711207   6.0039473  )
        48           N1  tau(  48) = (   0.4628824   2.9849886  17.7976856  )
        49           C1  tau(  49) = (   1.4082946   2.9518240  18.6700831  )
        50           H1  tau(  50) = (   2.3503500   2.6458988  18.1556329  )
        51           N1  tau(  51) = (   5.7893717   3.5482605  18.2279111  )
        52           H1  tau(  52) = (   5.8942619   4.0012392  19.1365464  )
        53           H1  tau(  53) = (   5.0734348   2.8266848  18.2415795  )

     number of k points=    10  Fermi-Dirac smearing, width (Ry)=  0.0073
                       cart. coord. in units 2pi/alat
        k(    1) = (   0.0000000   0.0000000   0.0000000), wk =   0.1250000
        k(    2) = (   0.0000000   0.0419351   0.0000000), wk =   0.2500000
        k(    3) = (   0.0000000  -0.0838702   0.0000000), wk =   0.1250000
        k(    4) = (   0.0379955   0.0000049   0.0000000), wk =   0.2500000
        k(    5) = (   0.0379955   0.0419400   0.0000000), wk =   0.2500000
        k(    6) = (   0.0379955  -0.0838652   0.0000000), wk =   0.2500000
        k(    7) = (   0.0379955  -0.0419301   0.0000000), wk =   0.2500000
        k(    8) = (  -0.0759910  -0.0000099   0.0000000), wk =   0.1250000
        k(    9) = (  -0.0759910   0.0419252   0.0000000), wk =   0.2500000
        k(   10) = (  -0.0759910  -0.0838800   0.0000000), wk =   0.1250000

     Initial potential from superposition of free atoms

     starting charge  378.99916, renormalised to  395.00000

     negative rho (up, down):  1.775E-02 0.000E+00

     %%%%%%%%%%%%%%%%%%%%%%%%%%%%%%%%%%%%%%%%%%%%%%%%%%%%%%%%%%%%%%%%%%%%%%%%
     %                                                                      %
     % You are using vdW-DF, which was implemented by the Thonhauser group. %
     % Please cite the following two papers that made this development      %
     % possible and the two reviews that describe the various versions:     %
     %                                                                      %
     %   T. Thonhauser et al., PRL 115, 136402 (2015).                      %
     %   T. Thonhauser et al., PRB 76, 125112 (2007).                       %
     %   K. Berland et al., Rep. Prog. Phys. 78, 066501 (2015).             %
     %   D.C. Langreth et al., J. Phys.: Condens. Matter 21, 084203 (2009). %
     %                                                                      %
     %                                                                      %
     % If you are calculating the stress with vdW-DF, please also cite:     %
     %                                                                      %
     %   R. Sabatini et al., J. Phys.: Condens. Matter 24, 424209 (2012).   %
     %                                                                      %
     %%%%%%%%%%%%%%%%%%%%%%%%%%%%%%%%%%%%%%%%%%%%%%%%%%%%%%%%%%%%%%%%%%%%%%%%

     Adding external electric field

     Computed dipole along edir(3) :
        Dipole               -8.0620 Ry au,        -20.4914 Debye
        Dipole field         -0.0152 Ry au,

        Potential amp.        1.4103 Ry
        Total length         46.3494 bohr

     Starting wfcs are  299 atomic wfcs
  @ DRIVER MODE: Message from server: STATUS
  @ DRIVER MODE: Message from server: POSDATA
  @ DRIVER MODE: Reading and sharing cell
  @ DRIVER MODE: Reading and sharing positions
  @ DRIVER MODE: Received positions

     Self-consistent Calculation

     iteration #  1     ecut=    29.40 Ry     beta= 0.05
     Davidson diagonalization with overlap
     c_bands:  1 eigenvalues not converged
     c_bands:  1 eigenvalues not converged
     c_bands:  2 eigenvalues not converged
     c_bands:  3 eigenvalues not converged
     c_bands:  3 eigenvalues not converged
     c_bands:  2 eigenvalues not converged
     c_bands:  1 eigenvalues not converged
     ethr =  1.00E-05,  avg # of iterations = 19.3

[...]

     total energy              =   -2614.86455724 Ry
     estimated scf accuracy    <    3583.91410139 Ry

[...]

     iteration #  3     ecut=    29.40 Ry     beta= 0.05
     Davidson diagonalization with overlap
     ethr =  1.00E-02,  avg # of iterations = 14.0

[...]

     iteration # 69     ecut=    29.40 Ry     beta= 0.05
     Davidson diagonalization with overlap
     c_bands:  1 eigenvalues not converged
     ethr =  9.58E-11,  avg # of iterations =  9.8

[...]

     total energy              =   -2939.00588157 Ry
     estimated scf accuracy    <       0.00000035 Ry

     iteration # 72     ecut=    29.40 Ry     beta= 0.05
     Davidson diagonalization with overlap
     ethr =  4.30E-11,  avg # of iterations = 10.0

     negative rho (up, down):  1.648E-02 0.000E+00

     Adding external electric field

     Computed dipole along edir(3) :
        Dipole                0.3054 Ry au,          0.7762 Debye
        Dipole field          0.0006 Ry au,

        Potential amp.       -0.0534 Ry
        Total length         46.3494 bohr

     End of self-consistent calculation

          k = 0.0000 0.0000 0.0000 ( 18029 PWs)   bands (ev):

   -56.1069 -56.1040 -56.0727 -56.0677 -55.9945 -55.9597 -55.9542 -55.9189
   -55.9039 -55.8696 -55.8678 -55.8336 -55.6496 -55.5867 -55.0765 -55.0425
   -32.6630 -32.5879 -32.4861 -32.4256 -32.4113 -32.4077 -32.3992 -32.3590
   -32.3467 -32.3317 -32.3053 -32.2844 -32.2780 -32.2592 -32.2516 -32.2448
   -32.2099 -32.1961 -32.1938 -32.1892 -32.1849 -32.1642 -32.1592 -32.1416
   -32.1170 -32.1023 -32.1012 -32.1000 -32.0952 -32.0917 -32.0702 -32.0434
   -32.0433 -32.0283 -32.0209 -32.0019 -31.9799 -31.9545 -31.8772 -31.8484
   -31.8019 -31.7389 -31.4833 -31.3959 -31.3734 -31.3002 -31.2137 -31.1025
   -18.0090 -16.8723 -16.5827 -16.3676 -16.2618 -16.2464 -16.1398 -15.9546
   -15.8214 -15.7930 -15.6865 -15.6798 -15.6388 -15.6270 -15.5974 -15.5739
   -15.5656 -15.5389 -15.5364 -15.5202 -15.4760 -15.4525 -15.4331 -15.3382
   -15.2974 -15.2368 -15.2148 -15.1533 -15.0316 -14.7980 -13.5787 -13.4624
   -13.3487  -8.0349  -6.3607  -4.3556  -4.2464  -4.0699  -4.0092  -3.9655
    -3.9557  -3.7190  -3.6859  -3.3273  -3.2947  -3.2745  -3.2646  -3.2532
    -3.1327  -3.0185  -2.9632  -2.9207  -2.9106  -2.8998  -2.8924  -2.8799
    -2.8537  -2.8317  -2.7298  -2.6836  -2.6527  -2.5423  -2.5244  -2.4342
    -2.4168  -2.4068  -2.3712  -2.3507  -2.3416  -2.3159  -2.3045  -2.2782
    -2.1940  -2.1448  -2.0291  -1.9690  -1.8875  -1.8517  -1.7031  -1.6600
    -1.5729  -1.5662  -1.5470  -1.5242  -1.4910  -1.4051  -1.3339  -1.2416
    -1.1998  -1.1623  -1.1262  -1.0827  -1.0017  -0.9823  -0.9647  -0.8687
    -0.8645  -0.8553  -0.8132  -0.6113  -0.5890  -0.5520  -0.5395  -0.4639
    -0.4036  -0.3875  -0.3663  -0.3185  -0.2580  -0.1952  -0.1494  -0.1340
    -0.1225  -0.1192  -0.0857  -0.0590   0.0840   0.0940   0.1883   0.2006
     0.2225   0.3493   0.5242   0.5627   0.5803   0.7023   0.8767   0.9459
     1.0479   1.1388   1.5164   1.5616   2.4161   3.0312   3.1175   3.1513
     3.1709   3.2763   3.3087   3.4786   3.4942   3.5291   3.5486

[...]

          k = 0.0380-0.0419 0.0000 ( 17876 PWs)   bands (ev):

[...]

          k =-0.0760-0.0000 0.0000 ( 17886 PWs)   bands (ev):

[...]

          k =-0.0760-0.0839 0.0000 ( 17948 PWs)   bands (ev):

   -56.0908 -56.0886 -56.0877 -56.0837 -55.9853 -55.9633 -55.9500 -55.9285
   -55.8887 -55.8843 -55.8542 -55.8475 -55.6464 -55.5897 -55.0595 -55.0594
   -32.4665 -32.4620 -32.4039 -32.4026 -32.3856 -32.3840 -32.3649 -32.3529
   -32.3341 -32.3146 -32.2907 -32.2745 -32.2488 -32.2391 -32.2382 -32.2200
   -32.2196 -32.2106 -32.2082 -32.2022 -32.2011 -32.1928 -32.1870 -32.1730
   -32.1683 -32.1496 -32.1337 -32.1310 -32.0881 -32.0860 -32.0843 -32.0803
   -32.0731 -32.0691 -32.0662 -32.0639 -32.0604 -31.9724 -31.8890 -31.8416
   -31.8053 -31.7951 -31.3862 -31.3860 -31.2962 -31.2960 -31.2570 -31.2569
   -17.9993 -16.3079 -16.2922 -16.0759 -16.0310 -16.0269 -16.0062 -15.9181
   -15.8277 -15.8085 -15.7944 -15.7768 -15.7617 -15.6818 -15.6561 -15.6337
   -15.6298 -15.6174 -15.5622 -15.5565 -15.5534 -15.5484 -15.5283 -15.4951
   -15.4127 -15.4077 -15.3974 -15.1597 -15.0945 -15.0222 -13.5646 -13.5640
   -13.3613  -7.9941  -6.2994  -4.3629  -3.6010  -3.5822  -3.3553  -3.3043
    -3.2827  -3.2737  -3.1590  -3.0569  -3.0269  -3.0142  -2.9756  -2.9574
    -2.9450  -2.9327  -2.9197  -2.9005  -2.8747  -2.8416  -2.8361  -2.7895
    -2.7728  -2.7518  -2.7346  -2.7130  -2.7119  -2.6714  -2.6654  -2.6267
    -2.5888  -2.5431  -2.4358  -2.3804  -2.3440  -2.2929  -2.2353  -2.2247
    -2.2161  -2.1619  -2.1567  -2.1243  -2.0377  -1.9621  -1.8269  -1.8046
    -1.7717  -1.7319  -1.6979  -1.6026  -1.5577  -1.5081  -1.4558  -1.4001
    -1.3882  -1.3454  -1.3087  -1.2417  -1.2251  -1.1853  -1.1644  -1.1019
    -1.0600  -1.0558  -0.9926  -0.9250  -0.8675  -0.8652  -0.8446  -0.8280
    -0.7712  -0.7229  -0.6564  -0.6070  -0.5654  -0.4693  -0.4118  -0.2981
    -0.1870  -0.0685   0.0031   0.0069   0.0624   0.1400   0.1847   0.2203
     0.2294   0.2464   0.3405   0.4117   0.4316   0.4444   0.5080   0.6981
     1.3106   1.3118   1.3809   1.3818   2.4097   3.3195   3.3578   3.3721
     3.4031   3.5483   3.5509   3.5630   3.5666   3.6856   3.7353

     the Fermi energy is     3.0284 ev

!    total energy              =   -2939.00591612 Ry
     estimated scf accuracy    <       0.00000007 Ry
     smearing contrib. (-TS)   =      -0.02202601 Ry
     internal energy E=F+TS    =   -2938.98389012 Ry

     The total energy is F=E-TS. E is the sum of the following terms:
     one-electron contribution =  -24452.93740405 Ry
     hartree contribution      =   12311.53824829 Ry
     xc contribution           =    -485.13393931 Ry
     ewald contribution        =    9687.54902895 Ry
     electric field correction =       0.00017600 Ry

     convergence has been achieved in  72 iterations

     Forces acting on atoms (cartesian axes, Ry/au):

     atom    1 type  1   force =     0.00018210   -0.00029139    0.09692526
     atom    2 type  1   force =     0.00006585   -0.00078493   -0.17498177
     atom    3 type  2   force =     0.00014659   -0.00008548   -0.02555335
     atom    4 type  2   force =    -0.00003220   -0.00142525    0.05152581
     atom    5 type  2   force =    -0.01202920   -0.00173015    0.00279426
     atom    6 type  2   force =     0.01344847   -0.00133649    0.00223246
     atom    7 type  1   force =     0.00040451    0.00016036   -0.01206635
     atom    8 type  1   force =     0.00018723    0.02417557    0.02897752
     atom    9 type  2   force =    -0.00004534    0.00051778   -0.00005763
     atom   10 type  2   force =    -0.00266250    0.00015011   -0.01162215
     atom   11 type  2   force =    -0.00003421    0.00026707    0.00005336
     atom   12 type  2   force =    -0.00024495   -0.00001294    0.00015481
     atom   13 type  1   force =    -0.00012637    0.00113807   -0.00018821
     atom   14 type  1   force =    -0.00000529    0.00051502    0.00006515
     atom   15 type  2   force =     0.00009196   -0.00007379   -0.00001884
     atom   16 type  2   force =    -0.00021373    0.00023015   -0.00030693
     atom   17 type  2   force =     0.00043410    0.00013120   -0.00043649
     atom   18 type  2   force =    -0.00038119    0.00007320   -0.00016880
     atom   19 type  1   force =    -0.00011446   -0.00027589   -0.00023235
     atom   20 type  1   force =     0.00013359   -0.00022982   -0.00048921
     atom   21 type  2   force =     0.00006570   -0.00007153    0.10292724
     atom   22 type  2   force =     0.00006422   -0.00018131   -0.00039861
     atom   23 type  2   force =    -0.07174045   -0.00016609   -0.02790428
     atom   24 type  2   force =     0.07164246    0.00029051   -0.02793880
     atom   25 type  1   force =     0.00003450   -0.00025799    0.09681921
     atom   26 type  1   force =    -0.00000944   -0.00019072   -0.17515036
     atom   27 type  2   force =     0.00015780   -0.00026708   -0.02421958
     atom   28 type  2   force =     0.00001366   -0.00118055    0.05207850
     atom   29 type  2   force =    -0.01218466    0.00078410    0.00247336
     atom   30 type  2   force =     0.01349038    0.00126927    0.00188339
     atom   31 type  1   force =     0.00044874    0.00286561   -0.01395434
     atom   32 type  1   force =     0.00038647   -0.02518819    0.03046621
     atom   33 type  2   force =     0.00004207   -0.00008036   -0.00016129
     atom   34 type  2   force =    -0.00184103   -0.00050164   -0.02069864
     atom   35 type  2   force =    -0.00000968    0.00021990   -0.00004448
     atom   36 type  2   force =     0.00017504    0.00033171    0.00017416
     atom   37 type  1   force =    -0.00020846   -0.00086008   -0.00004422
     atom   38 type  1   force =     0.00008724    0.00011553   -0.00020089
     atom   39 type  2   force =     0.00008467    0.00034285   -0.00010662
     atom   40 type  2   force =    -0.00007210    0.00008727    0.00035114
     atom   41 type  2   force =     0.00060777    0.00007847   -0.00017693
     atom   42 type  2   force =    -0.00049875   -0.00007694   -0.00015082
     atom   43 type  1   force =    -0.00035344    0.00039394    0.00016990
     atom   44 type  1   force =    -0.00012253    0.00053635   -0.00033173
     atom   45 type  2   force =     0.00005490   -0.00006585    0.10297150
     atom   46 type  2   force =    -0.07177419   -0.00011988   -0.02790179
     atom   47 type  2   force =     0.07165889    0.00025338   -0.02792466
     atom   48 type  3   force =    -0.01005334    0.00110924   -0.00724675
     atom   49 type  4   force =     0.01988703   -0.00347176    0.00407150
     atom   50 type  5   force =    -0.00641414    0.00273328    0.00429829
     atom   51 type  3   force =    -0.00280642    0.00043345   -0.00083683
     atom   52 type  5   force =     0.00019070   -0.00032570   -0.00012529
     atom   53 type  5   force =    -0.00020857    0.00004839    0.00022597

     Total force =     0.369883     Total SCF correction =     0.000813
  @ DRIVER MODE: Message from server: STATUS
  @ DRIVER MODE: Message from server: GETFORCE
  @ DRIVER MODE: Returning v,forces,stress,ensemble

     Writing output data file ./calc.save/
  @ DRIVER MODE: Message from server: EXIT
  @ DRIVE MODE: Exiting

     General routines

     Parallel routines

   This run was terminated on:   0:31:19   9Sep2021

   JOB DONE.