     Program PWSCF v.6.7GPU starts on 24Aug2021 at  1: 7:30

     R & G space division:  proc/nbgrp/npool/nimage =       6
     Reading input from /storage/home/hcoda1/3/ntian30/research/carbon/CH_vib/ads_slab/CHNHH_a/out_0025/pw.inp
Warning: card &CELL ignored
Warning: card   CELL_DYNAMICS='IPI', ignored
Warning: card / ignored

     Current dimensions of program PWSCF are:
     Max number of different atomic species (ntypx) = 10
     Max number of k-points (npk) =  40000
     Max angular momentum in pseudopotentials (lmaxx) =  3
     Presently no symmetry can be used with electric field

     Message from routine cell_base_init:
     DEPRECATED: use true lattice parameter, not A to a.u. conversion factor

     IMPORTANT: XC functional enforced from input :
     Exchange-correlation= BEEF-VDW
                           (   1   4  43  14   2   0   0)
     Any further DFT definition will be discarded
     Please, verify this is what you really want

  @ DRIVER MODE: Connecting to
 qe_1139763_2632797.sched-torque.pace.gatech.eduhn9ul16s_scratch
  using UNIX socket
  @ DRIVER MODE: Message from server: STATUS
  @ DRIVER MODE: Message from server: INIT
  @ DRIVER MODE: Receiving replica           0          -1
  @ DRIVER MODE: Receiving encoded integer          25
  @ DRIVER MODE:  SCF:  T  FORCE:  T  STRESS:  F  VC:  F  ENSEMBLE:  F
  @ DRIVER MODE:  SCF:  T  FORCE:  T  STRESS:  F  VC:  F  ENSEMBLE:  F

     Using Slab Decomposition

     bravais-lattice index     =            0
     lattice parameter (alat)  =       1.8897  a.u.
     unit-cell volume          =    6658.9804 (a.u.)^3
     number of atoms/cell      =           52
     number of atomic types    =            5
     number of electrons       =       390.00
     number of Kohn-Sham states=          205
     kinetic-energy cutoff     =      29.3995  Ry
     charge density cutoff     =     293.9946  Ry
     scf convergence threshold =      7.3E-08
     mixing beta               =       0.0500
     number of iterations used =            8  plain     mixing
     Exchange-correlation= BEEF-VDW
                           (   1   4  43  14   2   0   0)

     celldm(1)=   1.889726  celldm(2)=   0.000000  celldm(3)=   0.000000
     celldm(4)=   0.000000  celldm(5)=   0.000000  celldm(6)=   0.000000

     crystal axes: (cart. coord. in units of alat)
               a(1) = (   6.579727   0.000000   0.000000 )
               a(2) = (  -0.000775   5.961596   0.000000 )
               a(3) = (   0.000000   0.000000  25.155947 )

     reciprocal axes: (cart. coord. in units 2 pi/alat)
               b(1) = (  0.151982  0.000020  0.000000 )
               b(2) = (  0.000000  0.167740  0.000000 )
               b(3) = (  0.000000  0.000000  0.039752 )

     PseudoPot. # 1 for Ti read from file:
     /storage/coda1/p-amedford6/0/shared/rich_project_chbe-medford/medford-share/data/pseudos_module/espresso/nninc/pbe/van/Ti.UPF
     MD5 check sum: 8e4df49b7f0d34bbd5052bf3f5ea0213
     Pseudo is Ultrasoft, Zval = 12.0
     Generated by new atomic code, or converted to UPF format
     Using radial grid of  851 points,  6 beta functions with:
                l(1) =   0
                l(2) =   0
                l(3) =   1
                l(4) =   1
                l(5) =   2
                l(6) =   2
     Q(r) pseudized with  8 coefficients,  rinner =    1.000   1.000   1.000
                                                       1.000   1.000

     PseudoPot. # 2 for O  read from file:
     /storage/coda1/p-amedford6/0/shared/rich_project_chbe-medford/medford-share/data/pseudos_module/espresso/nninc/pbe/van/O.UPF
     MD5 check sum: 78c19812648e8988a0fe644b0f25305e
     Pseudo is Ultrasoft, Zval =  6.0
     Generated by new atomic code, or converted to UPF format
     Using radial grid of  737 points,  4 beta functions with:
                l(1) =   0
                l(2) =   0
                l(3) =   1
                l(4) =   1
     Q(r) pseudized with  8 coefficients,  rinner =    0.800   0.800   0.800

     PseudoPot. # 3 for N  read from file:
     /storage/coda1/p-amedford6/0/shared/rich_project_chbe-medford/medford-share/data/pseudos_module/espresso/nninc/pbe/van/N.UPF
     MD5 check sum: 90d10febe142ad51ac9d5be1deb811c4
     Pseudo is Ultrasoft, Zval =  5.0
     Generated by new atomic code, or converted to UPF format
     Using radial grid of  729 points,  4 beta functions with:
                l(1) =   0
                l(2) =   0
                l(3) =   1
                l(4) =   1
     Q(r) pseudized with  8 coefficients,  rinner =    0.800   0.800   0.800

     PseudoPot. # 4 for C  read from file:
     /storage/coda1/p-amedford6/0/shared/rich_project_chbe-medford/medford-share/data/pseudos_module/espresso/nninc/pbe/van/C.UPF
     MD5 check sum: 1a69bf6b8db32088f5b2163dbdb77a27
     Pseudo is Ultrasoft, Zval =  4.0
     Generated by new atomic code, or converted to UPF format
     Using radial grid of  721 points,  4 beta functions with:
                l(1) =   0
                l(2) =   0
                l(3) =   1
                l(4) =   1
     Q(r) pseudized with  8 coefficients,  rinner =    0.800   0.800   0.800

     PseudoPot. # 5 for H  read from file:
     /storage/coda1/p-amedford6/0/shared/rich_project_chbe-medford/medford-share/data/pseudos_module/espresso/nninc/pbe/van/H.UPF
     MD5 check sum: b5ee9d7bfd3a09ee7748110bda690ff7
     Pseudo is Ultrasoft, Zval =  1.0
     Generated by new atomic code, or converted to UPF format
     Using radial grid of  615 points,  1 beta functions with:
                l(1) =   0
     Q(r) pseudized with  8 coefficients,  rinner =    0.800

     atomic species   valence    mass     pseudopotential
        Ti1           12.00    47.86700     Ti( 1.00)
        O1             6.00    15.99900     O ( 1.00)
        N1             5.00    14.00700     N ( 1.00)
        C1             4.00    12.01100     C ( 1.00)
        H1             1.00     1.00800     H ( 1.00)

     No symmetry found

   Cartesian axes

     site n.     atom                  positions (alat units)
         1           Ti1 tau(   1) = (   0.0004258   2.9801865   6.0000000  )
         2           Ti1 tau(   2) = (   3.2906075   1.4906267   6.0002472  )
         3           O1  tau(   3) = (   0.0006271   0.0005054   7.9858123  )
         4           O1  tau(   4) = (   3.2906025   0.0005020   7.3038282  )
         5           O1  tau(   5) = (   4.5942328   1.4918067   9.2879030  )
         6           O1  tau(   6) = (   1.9868534   1.4903216   9.2879459  )
         7           Ti1 tau(   7) = (   3.2907910   2.8959150   9.1758416  )
         8           Ti1 tau(   8) = (   0.0015273   1.4827037   9.2680791  )
         9           O1  tau(   9) = (   3.2768318   5.9518058  11.3501096  )
        10           O1  tau(  10) = (   0.0116148   5.9584955  10.6183126  )
        11           O1  tau(  11) = (   1.2820894   1.4890407  12.6429483  )
        12           O1  tau(  12) = (   5.2701592   1.4861355  12.6244956  )
        13           Ti1 tau(  13) = (   0.0263608   2.9732685  12.5725065  )
        14           Ti1 tau(  14) = (   3.3311081   1.4825583  12.4934812  )
        15           O1  tau(  15) = (   6.5448050   0.0382128  14.6485099  )
        16           O1  tau(  16) = (   3.2835306   5.9556129  13.9684075  )
        17           O1  tau(  17) = (   4.5065730   1.5084740  16.1486978  )
        18           O1  tau(  18) = (   2.0110176   1.4968469  16.1316129  )
        19           Ti1 tau(  19) = (   3.2365874   2.9692752  15.7101938  )
        20           Ti1 tau(  20) = (   6.5183500   1.5288441  15.9766389  )
        21           O1  tau(  21) = (   3.2904802   0.0005063   4.7018136  )
        22           O1  tau(  22) = (   6.5552815   5.8936090  17.2115513  )
        23           O1  tau(  23) = (   1.3043587   1.4918075   6.0039043  )
        24           O1  tau(  24) = (   5.2767064   1.4903225   6.0039473  )
        25           Ti1 tau(  25) = (   0.0000382   5.9609847   6.0000000  )
        26           Ti1 tau(  26) = (   3.2902200   4.4714249   6.0002472  )
        27           O1  tau(  27) = (   0.0002396   2.9813036   7.9858123  )
        28           O1  tau(  28) = (   3.2902150   2.9813002   7.3038282  )
        29           O1  tau(  29) = (   4.5938453   4.4726049   9.2879030  )
        30           O1  tau(  30) = (   1.9864658   4.4711199   9.2879459  )
        31           Ti1 tau(  31) = (   3.2891106   5.8743827   9.1763621  )
        32           Ti1 tau(  32) = (   0.0006254   4.4649316   9.2693709  )
        33           O1  tau(  33) = (   3.2825058   2.9767457  11.3441782  )
        34           O1  tau(  34) = (   0.0092240   2.9805883  10.6323155  )
        35           O1  tau(  35) = (   1.2778777   4.4660374  12.6604661  )
        36           O1  tau(  36) = (   5.2710664   4.4675109  12.6369154  )
        37           Ti1 tau(  37) = (   0.0243246   5.9574881  12.5203091  )
        38           Ti1 tau(  38) = (   3.3318591   4.4611298  12.5006215  )
        39           O1  tau(  39) = (   6.5359656   2.9584677  14.7835642  )
        40           O1  tau(  40) = (   3.2771955   2.9708399  13.9242642  )
        41           O1  tau(  41) = (   4.4981441   4.4410618  16.1740548  )
        42           O1  tau(  42) = (   2.0042129   4.4512231  16.1075086  )
        43           Ti1 tau(  43) = (   3.2538698   5.9555144  15.7617387  )
        44           Ti1 tau(  44) = (   6.5531130   4.6830099  15.9084494  )
        45           O1  tau(  45) = (   3.2900926   2.9813045   4.7018136  )
        46           O1  tau(  46) = (   1.3039711   4.4726057   6.0039043  )
        47           O1  tau(  47) = (   5.2763189   4.4711207   6.0039473  )
        48           N1  tau(  48) = (   5.6690603   3.2568973  18.6585782  )
        49           C1  tau(  49) = (   0.0091554   2.6844975  17.9068455  )
        50           H1  tau(  50) = (   0.8805123   2.3964943  18.5001670  )
        51           H1  tau(  51) = (   4.8619660   3.6873350  18.2178346  )
        52           H1  tau(  52) = (   5.7995507   3.4768026  19.6356901  )

     number of k points=    10  Fermi-Dirac smearing, width (Ry)=  0.0073
                       cart. coord. in units 2pi/alat
        k(    1) = (   0.0000000   0.0000000   0.0000000), wk =   0.1250000
        k(    2) = (   0.0000000   0.0419351   0.0000000), wk =   0.2500000
        k(    3) = (   0.0000000  -0.0838702   0.0000000), wk =   0.1250000
        k(    4) = (   0.0379955   0.0000049   0.0000000), wk =   0.2500000
        k(    5) = (   0.0379955   0.0419400   0.0000000), wk =   0.2500000
        k(    6) = (   0.0379955  -0.0838652   0.0000000), wk =   0.2500000
        k(    7) = (   0.0379955  -0.0419301   0.0000000), wk =   0.2500000
        k(    8) = (  -0.0759910  -0.0000099   0.0000000), wk =   0.1250000
        k(    9) = (  -0.0759910   0.0419252   0.0000000), wk =   0.2500000
        k(   10) = (  -0.0759910  -0.0838800   0.0000000), wk =   0.1250000

     Initial potential from superposition of free atoms

     starting charge  373.99917, renormalised to  390.00000

     negative rho (up, down):  1.782E-02 0.000E+00

     %%%%%%%%%%%%%%%%%%%%%%%%%%%%%%%%%%%%%%%%%%%%%%%%%%%%%%%%%%%%%%%%%%%%%%%%
     %                                                                      %
     % You are using vdW-DF, which was implemented by the Thonhauser group. %
     % Please cite the following two papers that made this development      %
     % possible and the two reviews that describe the various versions:     %
     %                                                                      %
     %   T. Thonhauser et al., PRL 115, 136402 (2015).                      %
     %   T. Thonhauser et al., PRB 76, 125112 (2007).                       %
     %   K. Berland et al., Rep. Prog. Phys. 78, 066501 (2015).             %
     %   D.C. Langreth et al., J. Phys.: Condens. Matter 21, 084203 (2009). %
     %                                                                      %
     %                                                                      %
     % If you are calculating the stress with vdW-DF, please also cite:     %
     %                                                                      %
     %   R. Sabatini et al., J. Phys.: Condens. Matter 24, 424209 (2012).   %
     %                                                                      %
     %%%%%%%%%%%%%%%%%%%%%%%%%%%%%%%%%%%%%%%%%%%%%%%%%%%%%%%%%%%%%%%%%%%%%%%%

     Adding external electric field

     Computed dipole along edir(3) :
        Dipole               -5.8555 Ry au,        -14.8831 Debye
        Dipole field         -0.0111 Ry au,

        Potential amp.        1.0243 Ry
        Total length         46.3494 bohr

     Starting wfcs are  295 atomic wfcs
  @ DRIVER MODE: Message from server: STATUS
  @ DRIVER MODE: Message from server: POSDATA
  @ DRIVER MODE: Reading and sharing cell
  @ DRIVER MODE: Reading and sharing positions
  @ DRIVER MODE: Received positions

     Self-consistent Calculation

     iteration #  1     ecut=    29.40 Ry     beta= 0.05
     Davidson diagonalization with overlap
     c_bands:  4 eigenvalues not converged
     c_bands:  1 eigenvalues not converged
     c_bands:  1 eigenvalues not converged
     c_bands:  2 eigenvalues not converged
     c_bands:  3 eigenvalues not converged
     c_bands:  3 eigenvalues not converged
     c_bands:  3 eigenvalues not converged
     c_bands:  3 eigenvalues not converged
     c_bands:  4 eigenvalues not converged
     c_bands:  5 eigenvalues not converged
     ethr =  1.00E-05,  avg # of iterations = 20.0

[...]

     total energy              =   -2777.28375007 Ry
     estimated scf accuracy    <    1561.00922624 Ry

     iteration #  2     ecut=    29.40 Ry     beta= 0.05
     Davidson diagonalization with overlap
     ethr =  1.00E-02,  avg # of iterations = 18.3

[...]

     iteration # 63     ecut=    29.40 Ry     beta= 0.05
     Davidson diagonalization with overlap
     c_bands:  1 eigenvalues not converged
     ethr =  2.85E-10,  avg # of iterations = 14.8

[...]

     total energy              =   -2919.04286137 Ry
     estimated scf accuracy    <       0.00000009 Ry

     iteration # 71     ecut=    29.40 Ry     beta= 0.05
     Davidson diagonalization with overlap
     ethr =  2.26E-11,  avg # of iterations =  9.0

     negative rho (up, down):  1.802E-02 0.000E+00

     Adding external electric field

     Computed dipole along edir(3) :
        Dipole                1.3799 Ry au,          3.5073 Debye
        Dipole field          0.0026 Ry au,

        Potential amp.       -0.2414 Ry
        Total length         46.3494 bohr

     End of self-consistent calculation

          k = 0.0000 0.0000 0.0000 ( 18029 PWs)   bands (ev):

   -55.5096 -55.4841 -55.4733 -55.4500 -55.4234 -55.3786 -55.3367 -55.3282
   -55.3093 -55.3024 -55.2729 -55.2710 -55.0538 -54.9459 -54.4879 -54.4538
   -32.0766 -31.9716 -31.8702 -31.8479 -31.8377 -31.8048 -31.7971 -31.7745
   -31.7645 -31.7280 -31.7241 -31.7192 -31.6862 -31.6610 -31.6512 -31.6486
   -31.6371 -31.6125 -31.6020 -31.5932 -31.5803 -31.5674 -31.5416 -31.5376
   -31.5366 -31.5167 -31.5142 -31.5095 -31.5083 -31.4992 -31.4852 -31.4697
   -31.4584 -31.4583 -31.4352 -31.4241 -31.4086 -31.3570 -31.2897 -31.1912
   -31.1804 -31.0922 -30.8960 -30.8051 -30.7828 -30.7128 -30.6261 -30.5149
   -17.0244 -16.3087 -16.0247 -15.8601 -15.7174 -15.6865 -15.5759 -15.4008
   -15.3224 -15.2477 -15.2286 -15.1489 -15.1320 -15.1171 -15.0974 -15.0388
   -15.0310 -14.9859 -14.9809 -14.9453 -14.9268 -14.8950 -14.8775 -14.8700
   -14.8145 -14.7752 -14.7118 -14.6457 -14.5905 -14.1183 -12.9902 -12.8732
    -9.4714  -7.2114  -4.6082  -3.6661  -3.4966  -3.4157  -3.4064  -3.3848
    -3.1962  -3.1197  -2.8440  -2.7506  -2.7156  -2.7095  -2.6828  -2.6223
    -2.5495  -2.4512  -2.3795  -2.3504  -2.3303  -2.3230  -2.3114  -2.2961
    -2.2866  -2.2556  -2.1819  -2.1243  -2.0518  -1.9704  -1.8953  -1.8795
    -1.8192  -1.7913  -1.7763  -1.7700  -1.7629  -1.7373  -1.7322  -1.6411
    -1.5504  -1.5117  -1.4118  -1.3894  -1.2936  -1.1593  -1.1313  -1.0272
    -1.0201  -0.9644  -0.9385  -0.8960  -0.8465  -0.8380  -0.8197  -0.6769
    -0.6096  -0.5486  -0.4900  -0.4633  -0.4448  -0.3583  -0.2912  -0.2841
    -0.2667  -0.2447  -0.0701  -0.0384  -0.0182   0.0047   0.0192   0.1086
     0.1404   0.2155   0.2954   0.3098   0.3147   0.3924   0.4156   0.4587
     0.4611   0.4885   0.4938   0.6649   0.6754   0.7018   0.7331   0.8128
     0.8969   1.1020   1.1245   1.1667   1.4503   1.5168   1.5349   1.7225
     2.1083   2.1552   3.5809   3.6857   3.7180   3.7338   3.7617   3.8320
     3.8977   4.0765   4.0839   4.1145   4.1204

[...]

          k = 0.0380-0.0419 0.0000 ( 17876 PWs)   bands (ev):

[...]

          k =-0.0760-0.0000 0.0000 ( 17886 PWs)   bands (ev):

[...]

          k =-0.0760-0.0839 0.0000 ( 17948 PWs)   bands (ev):

   -55.4939 -55.4889 -55.4672 -55.4667 -55.4201 -55.3697 -55.3456 -55.3313
   -55.2907 -55.2891 -55.2886 -55.2870 -55.0509 -54.9486 -54.4708 -54.4707
   -31.8820 -31.8780 -31.8125 -31.7870 -31.7866 -31.7754 -31.7602 -31.7596
   -31.7202 -31.7149 -31.7131 -31.7060 -31.6765 -31.6398 -31.6309 -31.6267
   -31.6262 -31.6237 -31.6194 -31.6181 -31.6080 -31.5871 -31.5866 -31.5740
   -31.5706 -31.5600 -31.5477 -31.5312 -31.5238 -31.5213 -31.5053 -31.5046
   -31.5041 -31.5028 -31.4777 -31.4674 -31.4637 -31.3614 -31.2852 -31.2098
   -31.1835 -31.1761 -30.7956 -30.7955 -30.7087 -30.7085 -30.6695 -30.6695
   -17.0193 -15.7664 -15.7047 -15.5687 -15.4879 -15.4659 -15.4541 -15.4301
   -15.2914 -15.2760 -15.2575 -15.2080 -15.2043 -15.2018 -15.1618 -15.1057
   -15.0724 -15.0699 -15.0613 -15.0350 -15.0004 -14.9951 -14.9608 -14.9522
   -14.9388 -14.8491 -14.8439 -14.8416 -14.6688 -14.3423 -12.9749 -12.9748
    -9.4762  -7.2127  -4.5898  -3.0493  -2.9758  -2.8153  -2.7133  -2.6834
    -2.6514  -2.5077  -2.4729  -2.4627  -2.4494  -2.4121  -2.3973  -2.3831
    -2.3536  -2.3396  -2.3352  -2.3168  -2.3060  -2.2938  -2.2497  -2.2083
    -2.2038  -2.1966  -2.1658  -2.1460  -2.1335  -2.1047  -2.0853  -2.0696
    -2.0556  -2.0079  -1.8336  -1.8025  -1.7023  -1.6819  -1.6727  -1.6512
    -1.5844  -1.5573  -1.5251  -1.4855  -1.4343  -1.3115  -1.2453  -1.2243
    -1.1945  -1.1849  -1.1325  -1.0110  -0.9751  -0.9523  -0.9059  -0.8691
    -0.8249  -0.8146  -0.6947  -0.6891  -0.6439  -0.6011  -0.4879  -0.4709
    -0.4616  -0.4490  -0.4349  -0.3058  -0.2963  -0.2896  -0.2722  -0.2283
    -0.2112  -0.1055  -0.0060   0.0087   0.1110   0.1633   0.2885   0.3522
     0.4481   0.4938   0.5180   0.6081   0.6439   0.7260   0.7482   0.8025
     0.8140   0.9101   0.9646   0.9828   0.9908   1.0587   1.8949   1.8957
     1.9751   1.9753   3.7412   3.8370   3.8753   3.8974   3.9432   4.1018
     4.1176   4.1652   4.1679   4.1834   4.2641

     the Fermi energy is     3.6386 ev

!    total energy              =   -2919.04287468 Ry
     estimated scf accuracy    <       0.00000007 Ry
     smearing contrib. (-TS)   =      -0.03610928 Ry
     internal energy E=F+TS    =   -2919.00676540 Ry

     The total energy is F=E-TS. E is the sum of the following terms:
     one-electron contribution =  -24479.25725935 Ry
     hartree contribution      =   12327.79397118 Ry
     xc contribution           =    -480.00014360 Ry
     ewald contribution        =    9712.45307324 Ry
     electric field correction =       0.00359313 Ry

     convergence has been achieved in  71 iterations

     Forces acting on atoms (cartesian axes, Ry/au):

     atom    1 type  1   force =     0.00009485   -0.00020441    0.09494411
     atom    2 type  1   force =    -0.00022899   -0.00036016   -0.17676906
     atom    3 type  2   force =    -0.00004440   -0.00006570   -0.02292177
     atom    4 type  2   force =    -0.00004431   -0.00167828    0.05580076
     atom    5 type  2   force =    -0.01135495   -0.00123241    0.00625515
     atom    6 type  2   force =     0.01253271   -0.00035130    0.00441911
     atom    7 type  1   force =    -0.00113847    0.00152530   -0.01378105
     atom    8 type  1   force =     0.00062702    0.00694692    0.01264791
     atom    9 type  2   force =     0.00020142   -0.00005095    0.00012606
     atom   10 type  2   force =    -0.00163830    0.00010368   -0.00996507
     atom   11 type  2   force =    -0.00020820    0.00002841    0.00013951
     atom   12 type  2   force =     0.00023959    0.00011316   -0.00008410
     atom   13 type  1   force =     0.00007110   -0.00001322    0.00033470
     atom   14 type  1   force =     0.00001223   -0.00015479    0.00023016
     atom   15 type  2   force =     0.00002397    0.00004123   -0.00003218
     atom   16 type  2   force =     0.00025441    0.00028687   -0.00003452
     atom   17 type  2   force =    -0.00008061   -0.00022063    0.00022101
     atom   18 type  2   force =     0.00034569    0.00009599    0.00014445
     atom   19 type  1   force =     0.00041017    0.00002498   -0.00012897
     atom   20 type  1   force =     0.00018156   -0.00006518    0.00014988
     atom   21 type  2   force =     0.00004715   -0.00004331    0.10361414
     atom   22 type  2   force =     0.00003360    0.00010390    0.00018441
     atom   23 type  2   force =    -0.07099718   -0.00016291   -0.02732033
     atom   24 type  2   force =     0.07085021    0.00031938   -0.02733502
     atom   25 type  1   force =    -0.00012383   -0.00020255    0.09464257
     atom   26 type  1   force =    -0.00019644   -0.00046918   -0.17692306
     atom   27 type  2   force =     0.00006962   -0.00035428   -0.02194708
     atom   28 type  2   force =     0.00003663   -0.00139039    0.05535282
     atom   29 type  2   force =    -0.01157990   -0.00009245    0.00586533
     atom   30 type  2   force =     0.01264990    0.00012876    0.00408233
     atom   31 type  1   force =    -0.00124962    0.00416789   -0.01465388
     atom   32 type  1   force =     0.00055557   -0.00777115    0.01250332
     atom   33 type  2   force =    -0.00001429    0.00009335    0.00003951
     atom   34 type  2   force =    -0.00127346    0.00082874   -0.00837319
     atom   35 type  2   force =     0.00011734    0.00020114   -0.00002426
     atom   36 type  2   force =     0.00011929    0.00004282    0.00016937
     atom   37 type  1   force =     0.00003277    0.00000268    0.00001768
     atom   38 type  1   force =    -0.00003419   -0.00015739   -0.00013752
     atom   39 type  2   force =    -0.00017159   -0.00017686   -0.00012025
     atom   40 type  2   force =     0.00023190   -0.00002775   -0.00018503
     atom   41 type  2   force =     0.00023852   -0.00004648    0.00006588
     atom   42 type  2   force =    -0.00009060    0.00011780   -0.00039627
     atom   43 type  1   force =    -0.00021949   -0.00001605    0.00018143
     atom   44 type  1   force =     0.00043287   -0.00011742    0.00018932
     atom   45 type  2   force =     0.00003464   -0.00004921    0.10358542
     atom   46 type  2   force =    -0.07100061   -0.00007301   -0.02731087
     atom   47 type  2   force =     0.07085903    0.00032562   -0.02734082
     atom   48 type  3   force =    -0.00294431    0.00133724   -0.00358448
     atom   49 type  4   force =     0.00003609    0.00021566    0.00132162
     atom   50 type  5   force =     0.00033453   -0.00024122   -0.00033011
     atom   51 type  5   force =     0.00072834   -0.00074780   -0.00096265
     atom   52 type  5   force =     0.00223103   -0.00051507    0.00343359

     Total force =     0.366131     Total SCF correction =     0.000646
  @ DRIVER MODE: Message from server: STATUS
  @ DRIVER MODE: Message from server: GETFORCE
  @ DRIVER MODE: Returning v,forces,stress,ensemble

     Writing output data file ./calc.save/
  @ DRIVER MODE: Message from server: EXIT
  @ DRIVE MODE: Exiting

     General routines

     Parallel routines

   This run was terminated on:   1:38:35  24Aug2021

   JOB DONE.