     Program PWSCF v.6.7GPU starts on 18Oct2021 at 21:50:53

     R & G space division:  proc/nbgrp/npool/nimage =       8
     Reading input from /storage/home/hcoda1/3/ntian30/research/carbon/CxH_vib/Thiel_calc/ads_slab/NH2HNH_perslab/out_0022/pw.inp
Warning: card &CELL ignored
Warning: card   CELL_DYNAMICS='IPI', ignored
Warning: card / ignored

     Current dimensions of program PWSCF are:
     Max number of different atomic species (ntypx) = 10
     Max number of k-points (npk) =  40000
     Max angular momentum in pseudopotentials (lmaxx) =  3
     Presently no symmetry can be used with electric field

     Message from routine cell_base_init:
     DEPRECATED: use true lattice parameter, not A to a.u. conversion factor

     IMPORTANT: XC functional enforced from input :
     Exchange-correlation= BEEF-VDW
                           (   1   4  43  14   2   0   0)
     Any further DFT definition will be discarded
     Please, verify this is what you really want

  @ DRIVER MODE: Connecting to
 qe_1139763_3255135.sched-torque.pace.gatech.edu9zz7qpd7_scratch
  using UNIX socket
  @ DRIVER MODE: Message from server: STATUS
  @ DRIVER MODE: Message from server: INIT
  @ DRIVER MODE: Receiving replica           0          -1
  @ DRIVER MODE: Receiving encoded integer          25
  @ DRIVER MODE:  SCF:  T  FORCE:  T  STRESS:  F  VC:  F  ENSEMBLE:  F
  @ DRIVER MODE:  SCF:  T  FORCE:  T  STRESS:  F  VC:  F  ENSEMBLE:  F

     Using Slab Decomposition

     bravais-lattice index     =            0
     lattice parameter (alat)  =       1.8897  a.u.
     unit-cell volume          =    9988.4706 (a.u.)^3
     number of atoms/cell      =           59
     number of atomic types    =            4
     number of electrons       =       440.00
     number of Kohn-Sham states=          230
     kinetic-energy cutoff     =      29.3995  Ry
     charge density cutoff     =     293.9946  Ry
     scf convergence threshold =      7.3E-08
     mixing beta               =       0.0500
     number of iterations used =            8  plain     mixing
     Exchange-correlation= BEEF-VDW
                           (   1   4  43  14   2   0   0)

     celldm(1)=   1.889726  celldm(2)=   0.000000  celldm(3)=   0.000000
     celldm(4)=   0.000000  celldm(5)=   0.000000  celldm(6)=   0.000000

     crystal axes: (cart. coord. in units of alat)
               a(1) = (   6.579727   0.000000   0.000000 )
               a(2) = (  -0.001163   8.942395   0.000000 )
               a(3) = (   0.000000   0.000000  25.155947 )

     reciprocal axes: (cart. coord. in units 2 pi/alat)
               b(1) = (  0.151982  0.000020  0.000000 )
               b(2) = (  0.000000  0.111827  0.000000 )
               b(3) = (  0.000000  0.000000  0.039752 )

     PseudoPot. # 1 for O  read from file:
     /storage/coda1/p-amedford6/0/shared/rich_project_chbe-medford/medford-share/data/pseudos_module/espresso/nninc/pbe/van/O.UPF
     MD5 check sum: 78c19812648e8988a0fe644b0f25305e
     Pseudo is Ultrasoft, Zval =  6.0
     Generated by new atomic code, or converted to UPF format
     Using radial grid of  737 points,  4 beta functions with:
                l(1) =   0
                l(2) =   0
                l(3) =   1
                l(4) =   1
     Q(r) pseudized with  8 coefficients,  rinner =    0.800   0.800   0.800

     PseudoPot. # 2 for Ti read from file:
     /storage/coda1/p-amedford6/0/shared/rich_project_chbe-medford/medford-share/data/pseudos_module/espresso/nninc/pbe/van/Ti.UPF
     MD5 check sum: 8e4df49b7f0d34bbd5052bf3f5ea0213
     Pseudo is Ultrasoft, Zval = 12.0
     Generated by new atomic code, or converted to UPF format
     Using radial grid of  851 points,  6 beta functions with:
                l(1) =   0
                l(2) =   0
                l(3) =   1
                l(4) =   1
                l(5) =   2
                l(6) =   2
     Q(r) pseudized with  8 coefficients,  rinner =    1.000   1.000   1.000
                                                       1.000   1.000

     PseudoPot. # 3 for H  read from file:
     /storage/coda1/p-amedford6/0/shared/rich_project_chbe-medford/medford-share/data/pseudos_module/espresso/nninc/pbe/van/H.UPF
     MD5 check sum: b5ee9d7bfd3a09ee7748110bda690ff7
     Pseudo is Ultrasoft, Zval =  1.0
     Generated by new atomic code, or converted to UPF format
     Using radial grid of  615 points,  1 beta functions with:
                l(1) =   0
     Q(r) pseudized with  8 coefficients,  rinner =    0.800

     PseudoPot. # 4 for N  read from file:
     /storage/coda1/p-amedford6/0/shared/rich_project_chbe-medford/medford-share/data/pseudos_module/espresso/nninc/pbe/van/N.UPF
     MD5 check sum: 90d10febe142ad51ac9d5be1deb811c4
     Pseudo is Ultrasoft, Zval =  5.0
     Generated by new atomic code, or converted to UPF format
     Using radial grid of  729 points,  4 beta functions with:
                l(1) =   0
                l(2) =   0
                l(3) =   1
                l(4) =   1
     Q(r) pseudized with  8 coefficients,  rinner =    0.800   0.800   0.800

     atomic species   valence    mass     pseudopotential
        O1             6.00    15.99900     O ( 1.00)
        Ti1           12.00    47.86700     Ti( 1.00)
        H1             1.00     1.00800     H ( 1.00)
        N1             5.00    14.00700     N ( 1.00)

     No symmetry found

   Cartesian axes

     site n.     atom                  positions (alat units)
         1           O1  tau(   1) = (   0.0007354   0.0005023  10.5931620  )
         2           O1  tau(   2) = (   3.2891522   8.9193323  13.7813865  )
         3           O1  tau(   3) = (  -0.0003195   8.9357148  17.1597790  )
         4           O1  tau(   4) = (   0.0006271   0.0005054   7.9858123  )
         5           O1  tau(   5) = (   3.2896276   8.9330874  11.1456747  )
         6           O1  tau(   6) = (   0.0000757   8.8957392  14.5326415  )
         7           O1  tau(   7) = (   1.9868534   1.4903216   9.2879459  )
         8           O1  tau(   8) = (   5.2085136   1.5567490  12.5272226  )
         9           O1  tau(   9) = (   2.0368910   1.4086519  15.9478609  )
        10           Ti1 tau(  10) = (   0.0007404   1.4906270   9.2895810  )
        11           Ti1 tau(  11) = (   3.2920048   1.2896434  12.4335303  )
        12           Ti1 tau(  12) = (   0.0003947   1.7483972  15.9485354  )
        13           O1  tau(  13) = (   4.5942328   1.4918067   9.2879030  )
        14           O1  tau(  14) = (   1.3734151   1.5562871  12.5269411  )
        15           O1  tau(  15) = (   4.5446063   1.4075665  15.9467422  )
        16           Ti1 tau(  16) = (   3.2902859   2.9801868   9.2893338  )
        17           Ti1 tau(  17) = (   0.0022843   2.7629733  12.5422407  )
        18           Ti1 tau(  18) = (   3.2887740   3.1097933  15.6402895  )
        19           O1  tau(  19) = (   0.0003479   2.9813005  10.5931620  )
        20           O1  tau(  20) = (   3.2903674   2.9527630  13.7969158  )
        21           O1  tau(  21) = (   0.0002396   2.9813036   7.9858123  )
        22           O1  tau(  22) = (   3.2906228   2.9775883  11.1663003  )
        23           O1  tau(  23) = (   0.0006598   2.9368866  14.5305733  )
        24           O1  tau(  24) = (   1.9864658   4.4711199   9.2879459  )
        25           O1  tau(  25) = (   5.2231876   4.5386380  12.5467233  )
        26           O1  tau(  26) = (   2.0248981   4.3679406  15.9930346  )
        27           Ti1 tau(  27) = (   0.0003529   4.4714252   9.2895810  )
        28           Ti1 tau(  28) = (   3.2918124   4.3135021  12.5344809  )
        29           Ti1 tau(  29) = (   6.5788423   4.6929592  16.0739603  )
        30           O1  tau(  30) = (   4.5938453   4.4726049   9.2879030  )
        31           O1  tau(  31) = (   1.3570704   4.5373869  12.5465102  )
        32           O1  tau(  32) = (   4.5538814   4.3671241  15.9936543  )
        33           Ti1 tau(  33) = (   3.2898983   5.9609850   9.2893338  )
        34           Ti1 tau(  34) = (   0.0013264   5.7428985  12.5110789  )
        35           Ti1 tau(  35) = (   3.2898306   6.0937744  16.2866611  )
        36           O1  tau(  36) = (  -0.0000397   5.9620987  10.5931620  )
        37           O1  tau(  37) = (   3.2897329   5.8964334  13.7986068  )
        38           O1  tau(  38) = (  -0.0007474   6.0119579  17.1634496  )
        39           O1  tau(  39) = (  -0.0001480   5.9621018   7.9858123  )
        40           O1  tau(  40) = (   3.2898370   5.9388437  11.1687384  )
        41           O1  tau(  41) = (  -0.0001539   5.9931028  14.5676369  )
        42           O1  tau(  42) = (   1.9860782   7.4519181   9.2879459  )
        43           O1  tau(  43) = (   5.2258842   7.5046952  12.5406166  )
        44           O1  tau(  44) = (   2.0242945   7.4351242  16.0034066  )
        45           Ti1 tau(  45) = (  -0.0000347   7.4522234   9.2895810  )
        46           Ti1 tau(  46) = (   3.2896699   7.1866417  12.6007890  )
        47           Ti1 tau(  47) = (   0.0000787   7.5542351  15.7482610  )
        48           O1  tau(  48) = (   4.5934577   7.4534031   9.2879030  )
        49           O1  tau(  49) = (   1.3527639   7.5038087  12.5404143  )
        50           O1  tau(  50) = (   4.5545665   7.4356877  16.0029592  )
        51           Ti1 tau(  51) = (   3.2895107   8.9417832   9.2893338  )
        52           Ti1 tau(  52) = (  -0.0005703   8.7121504  12.4856418  )
        53           Ti1 tau(  53) = (   3.2909615   0.1005107  15.6284087  )
        54           H1  tau(  54) = (   6.5785809   3.1351568  18.2688824  )
        55           H1  tau(  55) = (   6.5783155   8.7923607  18.1116139  )
        56           N1  tau(  56) = (  -0.0001347   2.9716693  17.2674093  )
        57           N1  tau(  57) = (   3.2897564   6.0021341  18.1800631  )
        58           H1  tau(  58) = (   3.2887465   5.1266479  18.7045293  )
        59           H1  tau(  59) = (   3.2892443   6.7858760  18.8071070  )

     number of k points=    10  Fermi-Dirac smearing, width (Ry)=  0.0073
                       cart. coord. in units 2pi/alat
        k(    1) = (   0.0000000   0.0000000   0.0000000), wk =   0.1250000
        k(    2) = (   0.0000000   0.0279567   0.0000000), wk =   0.2500000
        k(    3) = (   0.0000000  -0.0559134   0.0000000), wk =   0.1250000
        k(    4) = (   0.0379955   0.0000049   0.0000000), wk =   0.2500000
        k(    5) = (   0.0379955   0.0279617   0.0000000), wk =   0.2500000
        k(    6) = (   0.0379955  -0.0559085   0.0000000), wk =   0.2500000
        k(    7) = (   0.0379955  -0.0279518   0.0000000), wk =   0.2500000
        k(    8) = (  -0.0759910  -0.0000099   0.0000000), wk =   0.1250000
        k(    9) = (  -0.0759910   0.0279468   0.0000000), wk =   0.2500000
        k(   10) = (  -0.0759910  -0.0559233   0.0000000), wk =   0.1250000

     Initial potential from superposition of free atoms

     starting charge  421.99910, renormalised to  440.00000

     negative rho (up, down):  3.701E-02 0.000E+00

     %%%%%%%%%%%%%%%%%%%%%%%%%%%%%%%%%%%%%%%%%%%%%%%%%%%%%%%%%%%%%%%%%%%%%%%%
     %                                                                      %
     % You are using vdW-DF, which was implemented by the Thonhauser group. %
     % Please cite the following two papers that made this development      %
     % possible and the two reviews that describe the various versions:     %
     %                                                                      %
     %   T. Thonhauser et al., PRL 115, 136402 (2015).                      %
     %   T. Thonhauser et al., PRB 76, 125112 (2007).                       %
     %   K. Berland et al., Rep. Prog. Phys. 78, 066501 (2015).             %
     %   D.C. Langreth et al., J. Phys.: Condens. Matter 21, 084203 (2009). %
     %                                                                      %
     %                                                                      %
     % If you are calculating the stress with vdW-DF, please also cite:     %
     %                                                                      %
     %   R. Sabatini et al., J. Phys.: Condens. Matter 24, 424209 (2012).   %
     %                                                                      %
     %%%%%%%%%%%%%%%%%%%%%%%%%%%%%%%%%%%%%%%%%%%%%%%%%%%%%%%%%%%%%%%%%%%%%%%%

     Adding external electric field

     Computed dipole along edir(3) :
        Dipole               -3.9424 Ry au,        -10.0206 Debye
        Dipole field         -0.0050 Ry au,

        Potential amp.        0.4598 Ry
        Total length         46.3494 bohr

     Starting wfcs are  332 atomic wfcs
  @ DRIVER MODE: Message from server: STATUS
  @ DRIVER MODE: Message from server: POSDATA
  @ DRIVER MODE: Reading and sharing cell
  @ DRIVER MODE: Reading and sharing positions
  @ DRIVER MODE: Received positions

     Self-consistent Calculation

     iteration #  1     ecut=    29.40 Ry     beta= 0.05
     Davidson diagonalization with overlap
     c_bands:  1 eigenvalues not converged
     c_bands:  2 eigenvalues not converged
     c_bands:  4 eigenvalues not converged
     c_bands:  2 eigenvalues not converged
     c_bands:  2 eigenvalues not converged
     c_bands:  2 eigenvalues not converged
     c_bands:  4 eigenvalues not converged
     c_bands:  3 eigenvalues not converged
     c_bands:  2 eigenvalues not converged
     ethr =  1.00E-05,  avg # of iterations = 19.2

[...]

     total energy              =   -3294.67536444 Ry
     estimated scf accuracy    <      19.62391391 Ry

     iteration #  2     ecut=    29.40 Ry     beta= 0.05
     Davidson diagonalization with overlap
     ethr =  4.46E-03,  avg # of iterations =  1.0

[...]

     iteration # 36     ecut=    29.40 Ry     beta= 0.05
     Davidson diagonalization with overlap
     c_bands:  1 eigenvalues not converged
     c_bands:  1 eigenvalues not converged
     ethr =  4.52E-07,  avg # of iterations =  8.8

[...]

     total energy              =   -3293.29212004 Ry
     estimated scf accuracy    <       0.00000011 Ry

     iteration # 61     ecut=    29.40 Ry     beta= 0.05
     Davidson diagonalization with overlap
     ethr =  2.50E-11,  avg # of iterations =  2.4

     negative rho (up, down):  3.603E-02 0.000E+00

     Adding external electric field

     Computed dipole along edir(3) :
        Dipole                1.2946 Ry au,          3.2905 Debye
        Dipole field          0.0016 Ry au,

        Potential amp.       -0.1510 Ry
        Total length         46.3494 bohr

     End of self-consistent calculation

          k = 0.0000 0.0000 0.0000 ( 26871 PWs)   bands (ev):

   -58.2968 -58.2728 -58.2690 -58.2096 -58.1613 -57.7930 -57.7737 -57.7571
   -57.6218 -57.5917 -57.5711 -57.5122 -57.4877 -56.8994 -56.8773 -56.8514
   -56.8425 -56.8364 -34.6879 -34.6608 -34.6307 -34.6189 -34.6133 -34.6083
   -34.5454 -34.4820 -34.4719 -34.4094 -34.4052 -34.4023 -34.3885 -34.3583
   -34.3334 -34.1963 -34.1497 -34.1448 -34.1241 -34.0960 -34.0824 -34.0780
   -34.0577 -34.0202 -34.0091 -33.9631 -33.9187 -33.8741 -33.8589 -33.8502
   -33.8345 -33.8268 -33.7799 -33.7570 -33.7479 -33.7429 -33.6957 -33.6901
   -33.6767 -33.3608 -33.2220 -33.2124 -33.2020 -33.1876 -33.1808 -33.1748
   -33.1625 -33.1176 -33.0850 -33.0797 -33.0267 -33.0253 -33.0081 -32.8850
   -18.9118 -18.8264 -18.3713 -18.2959 -18.1742 -18.1190 -18.1127 -18.0474
   -17.9445 -17.7234 -17.6831 -17.6743 -17.6461 -17.5385 -17.5304 -17.5271
   -17.4927 -17.4859 -17.4735 -17.3853 -17.3279 -17.3133 -17.3083 -17.3082
   -17.1994 -17.1749 -17.1228 -17.0567 -17.0449 -16.9488 -16.7645 -16.4314
   -15.3530 -15.3123 -15.3026 -15.1569 -13.6009  -6.9778  -6.6241  -6.1786
    -5.9851  -5.7750  -5.6369  -5.5219  -5.4689  -5.3764  -5.3105  -5.2855
    -5.2680  -5.2280  -5.1940  -5.1674  -5.0646  -5.0549  -4.9735  -4.9192
    -4.8735  -4.8273  -4.7851  -4.7388  -4.7369  -4.6969  -4.6280  -4.6177
    -4.5825  -4.5354  -4.5061  -4.4985  -4.4429  -4.4145  -4.3937  -4.2740
    -4.2590  -4.1916  -4.1794  -4.1723  -4.0676  -4.0607  -4.0173  -3.9910
    -3.9808  -3.9605  -3.9104  -3.8313  -3.8001  -3.6436  -3.6219  -3.6115
    -3.5204  -3.3808  -3.3670  -3.3229  -3.2036  -3.1362  -3.1122  -3.0770
    -3.0567  -3.0393  -3.0146  -3.0047  -2.9712  -2.8771  -2.8758  -2.8146
    -2.8121  -2.7975  -2.7770  -2.7701  -2.7305  -2.6581  -2.5990  -2.5864
    -2.5655  -2.5475  -2.4609  -2.4464  -2.3558  -2.3396  -2.2844  -2.2420
    -2.2359  -2.1704  -2.0958  -2.0880  -2.0237  -1.9993  -1.8254  -1.8005
    -1.7228  -1.7173  -1.6511  -1.6241  -1.6013  -1.5490  -1.4245  -1.3934
    -1.2977  -1.1864  -1.0219  -0.7819  -0.5917  -0.5698  -0.5606  -0.5285
    -0.4356  -0.3819  -0.3660  -0.2709   0.9815   1.1275   1.2804   1.3021
     1.4957   1.6054   1.6182   1.6730   1.7525   1.8503

[...]

          k = 0.0380-0.0280 0.0000 ( 26873 PWs)   bands (ev):

[...]

          k =-0.0760-0.0000 0.0000 ( 26902 PWs)   bands (ev):

[...]

          k =-0.0760-0.0559 0.0000 ( 26868 PWs)   bands (ev):

   -58.2901 -58.2860 -58.2624 -58.2094 -58.1614 -57.7930 -57.7732 -57.7576
   -57.6202 -57.5951 -57.5693 -57.5120 -57.4878 -56.8995 -56.8744 -56.8573
   -56.8424 -56.8334 -34.7132 -34.7094 -34.6631 -34.6385 -34.6056 -34.4974
   -34.4826 -34.4485 -34.4453 -34.4328 -34.4263 -34.4065 -34.3844 -34.3809
   -34.3603 -34.2314 -34.1721 -34.1671 -34.1390 -34.1219 -34.0780 -34.0029
   -33.9988 -33.9982 -33.9644 -33.9273 -33.9204 -33.9062 -33.8982 -33.8742
   -33.8648 -33.8497 -33.7747 -33.7665 -33.7390 -33.7125 -33.7116 -33.6937
   -33.6883 -33.3364 -33.2636 -33.2230 -33.2186 -33.2076 -33.1846 -33.1770
   -33.1245 -33.0806 -33.0719 -33.0530 -33.0308 -32.9960 -32.9895 -32.9725
   -18.8902 -18.6215 -18.4740 -18.2379 -18.1379 -17.9740 -17.8911 -17.8785
   -17.8605 -17.8596 -17.7605 -17.7495 -17.6983 -17.6738 -17.6307 -17.6211
   -17.6088 -17.5718 -17.5655 -17.4523 -17.3612 -17.3525 -17.2572 -17.2422
   -17.2150 -17.1534 -17.1352 -17.0457 -17.0262 -16.9536 -16.7725 -16.4161
   -15.3640 -15.3523 -15.2418 -15.1576 -13.5978  -6.9499  -6.6253  -5.9494
    -5.7546  -5.7202  -5.6693  -5.3491  -5.3118  -5.2278  -5.2017  -5.1627
    -5.1373  -5.1233  -5.0932  -5.0819  -5.0066  -4.9699  -4.9608  -4.9570
    -4.9139  -4.8950  -4.8467  -4.8257  -4.7757  -4.7543  -4.7468  -4.7124
    -4.6690  -4.6505  -4.5755  -4.5701  -4.4967  -4.4573  -4.3184  -4.2342
    -4.2092  -4.1798  -4.0832  -4.0662  -4.0366  -3.9467  -3.9249  -3.9042
    -3.7766  -3.7406  -3.6325  -3.6169  -3.5676  -3.5443  -3.5164  -3.4889
    -3.4249  -3.3824  -3.3665  -3.3611  -3.3273  -3.2593  -3.2287  -3.2124
    -3.1795  -3.1625  -3.1522  -3.1416  -3.0753  -3.0586  -3.0287  -2.9890
    -2.9277  -2.9037  -2.8501  -2.8479  -2.7860  -2.7470  -2.6926  -2.6865
    -2.6149  -2.5925  -2.5856  -2.5782  -2.4774  -2.4517  -2.4434  -2.3024
    -2.1638  -2.1125  -2.0696  -1.9664  -1.9083  -1.9043  -1.8806  -1.8126
    -1.7882  -1.7039  -1.6500  -1.6264  -1.6191  -1.5937  -1.3746  -1.3446
    -1.3329  -1.2900  -1.2257  -1.1316  -0.8120  -0.5926  -0.5799  -0.4991
    -0.4761  -0.4232  -0.4018  -0.3873   1.0306   1.2055   1.2771   1.3703
     1.3712   1.4037   1.4534   1.6193   1.6527   1.7063

     the Fermi energy is     0.3884 ev

!    total energy              =   -3293.29215399 Ry
     estimated scf accuracy    <       0.00000005 Ry
     smearing contrib. (-TS)   =      -0.00047752 Ry
     internal energy E=F+TS    =   -3293.29167647 Ry

     The total energy is F=E-TS. E is the sum of the following terms:
     one-electron contribution =  -34638.99620443 Ry
     hartree contribution      =   17383.80283119 Ry
     xc contribution           =    -542.08655204 Ry
     ewald contribution        =   14503.98614028 Ry
     electric field correction =       0.00210854 Ry

     convergence has been achieved in  61 iterations

     Forces acting on atoms (cartesian axes, Ry/au):

     atom    1 type  1   force =     0.00000909    0.00245700    0.04674074
     atom    2 type  1   force =     0.00000765   -0.00340561   -0.00288512
     atom    3 type  1   force =    -0.00000726    0.00326094   -0.00097186
     atom    4 type  1   force =     0.00005104   -0.00098055    0.10171175
     atom    5 type  1   force =    -0.00000948   -0.00070652    0.00563235
     atom    6 type  1   force =    -0.00001327    0.00367880    0.00082381
     atom    7 type  1   force =     0.07820075    0.00086217   -0.03541889
     atom    8 type  1   force =     0.00833934   -0.02586711    0.00018834
     atom    9 type  1   force =     0.00848629    0.02074501    0.00129337
     atom   10 type  2   force =    -0.00006101    0.00866632   -0.15840289
     atom   11 type  2   force =    -0.00003726    0.02304977   -0.00230622
     atom   12 type  2   force =     0.00005562   -0.02566874   -0.00431913
     atom   13 type  1   force =    -0.07829318    0.00040577   -0.03540666
     atom   14 type  1   force =    -0.00838573   -0.02578087    0.00019653
     atom   15 type  1   force =    -0.00843712    0.02085413    0.00132595
     atom   16 type  2   force =     0.00013198    0.00086152    0.07317152
     atom   17 type  2   force =     0.00005340    0.03071857    0.00237923
     atom   18 type  2   force =    -0.00006124   -0.02704045    0.00052264
     atom   19 type  1   force =     0.00004030    0.00299954    0.05012596
     atom   20 type  1   force =    -0.00002080   -0.00127346   -0.00136375
     atom   21 type  1   force =     0.00005180   -0.00064582    0.10019350
     atom   22 type  1   force =    -0.00001558   -0.00179786    0.00546168
     atom   23 type  1   force =    -0.00002108    0.00237855    0.00383023
     atom   24 type  1   force =     0.07914881    0.00064542   -0.03607028
     atom   25 type  1   force =     0.00924514   -0.02948344    0.00063238
     atom   26 type  1   force =     0.00852939    0.02163048    0.00344425
     atom   27 type  2   force =    -0.00006981   -0.00813688   -0.15492810
     atom   28 type  2   force =    -0.00000959    0.02635730   -0.00224503
     atom   29 type  2   force =     0.00004269   -0.02435997   -0.00339987
     atom   30 type  1   force =    -0.07923862    0.00023648   -0.03606669
     atom   31 type  1   force =    -0.00925229   -0.02941426    0.00063756
     atom   32 type  1   force =    -0.00848385    0.02170947    0.00347270
     atom   33 type  2   force =     0.00013142   -0.00255742    0.07886123
     atom   34 type  2   force =     0.00004457    0.03587138    0.00274279
     atom   35 type  2   force =    -0.00007143   -0.02826563    0.00304617
     atom   36 type  1   force =     0.00004191    0.00307063    0.05240898
     atom   37 type  1   force =    -0.00000369   -0.00186676   -0.00296502
     atom   38 type  1   force =    -0.00002129    0.00193446    0.00082793
     atom   39 type  1   force =     0.00004644    0.00287311    0.10111647
     atom   40 type  1   force =    -0.00000988   -0.00170743    0.00618199
     atom   41 type  1   force =    -0.00002772    0.00296239    0.00390212
     atom   42 type  1   force =     0.07826157    0.00076728   -0.03489196
     atom   43 type  1   force =     0.00661887   -0.02303523   -0.00019807
     atom   44 type  1   force =     0.01111663    0.02214996   -0.00746637
     atom   45 type  2   force =    -0.00006277   -0.00549245   -0.16466907
     atom   46 type  2   force =    -0.00007147    0.01955273    0.00102049
     atom   47 type  2   force =     0.00002124   -0.01852671    0.00741814
     atom   48 type  1   force =    -0.07835664    0.00031732   -0.03487256
     atom   49 type  1   force =    -0.00665876   -0.02300184   -0.00019419
     atom   50 type  1   force =    -0.01108589    0.02213374   -0.00742234
     atom   51 type  2   force =     0.00012891   -0.00435908    0.06095920
     atom   52 type  2   force =     0.00012645    0.02964289    0.00360749
     atom   53 type  2   force =    -0.00007179   -0.02520279    0.00098847
     atom   54 type  3   force =    -0.00000627    0.00076086   -0.00012721
     atom   55 type  3   force =    -0.00001649   -0.00010538    0.00013407
     atom   56 type  4   force =    -0.00002369    0.00704698    0.00060451
     atom   57 type  4   force =    -0.00001359   -0.02400345   -0.00032586
     atom   58 type  3   force =     0.00000960    0.01174721   -0.00704977
     atom   59 type  3   force =    -0.00002236    0.01033755    0.00836233

     Total force =     0.438392     Total SCF correction =     0.000666
  @ DRIVER MODE: Message from server: STATUS
  @ DRIVER MODE: Message from server: GETFORCE
  @ DRIVER MODE: Returning v,forces,stress,ensemble

     Writing output data file ./calc.save/
  @ DRIVER MODE: Message from server: EXIT
  @ DRIVE MODE: Exiting

     General routines

     Parallel routines

   This run was terminated on:  22:20:21  18Oct2021

   JOB DONE.