     Program PWSCF v.6.7GPU starts on  9Sep2021 at  9: 9: 9

     R & G space division:  proc/nbgrp/npool/nimage =      10
     Reading input from /storage/home/hcoda1/3/ntian30/research/carbon/CxH_vib/CH3_calc/ads_slab/CH3NHNH_a/out_0036/pw.inp
Warning: card &CELL ignored
Warning: card   CELL_DYNAMICS='IPI', ignored
Warning: card / ignored

     Current dimensions of program PWSCF are:
     Max number of different atomic species (ntypx) = 10
     Max number of k-points (npk) =  40000
     Max angular momentum in pseudopotentials (lmaxx) =  3
     Presently no symmetry can be used with electric field

     Message from routine cell_base_init:
     DEPRECATED: use true lattice parameter, not A to a.u. conversion factor

     IMPORTANT: XC functional enforced from input :
     Exchange-correlation= BEEF-VDW
                           (   1   4  43  14   2   0   0)
     Any further DFT definition will be discarded
     Please, verify this is what you really want

  @ DRIVER MODE: Connecting to
 qe_1139763_2767401.sched-torque.pace.gatech.eduw3dc9z39_scratch
  using UNIX socket
  @ DRIVER MODE: Message from server: STATUS
  @ DRIVER MODE: Message from server: INIT
  @ DRIVER MODE: Receiving replica           0          -1
  @ DRIVER MODE: Receiving encoded integer          25
  @ DRIVER MODE:  SCF:  T  FORCE:  T  STRESS:  F  VC:  F  ENSEMBLE:  F
  @ DRIVER MODE:  SCF:  T  FORCE:  T  STRESS:  F  VC:  F  ENSEMBLE:  F

     Using Slab Decomposition

     bravais-lattice index     =            0
     lattice parameter (alat)  =       1.8897  a.u.
     unit-cell volume          =    6658.9804 (a.u.)^3
     number of atoms/cell      =           55
     number of atomic types    =            5
     number of electrons       =       397.00
     number of Kohn-Sham states=          208
     kinetic-energy cutoff     =      29.3995  Ry
     charge density cutoff     =     293.9946  Ry
     scf convergence threshold =      7.3E-08
     mixing beta               =       0.0500
     number of iterations used =            8  plain     mixing
     Exchange-correlation= BEEF-VDW
                           (   1   4  43  14   2   0   0)

     celldm(1)=   1.889726  celldm(2)=   0.000000  celldm(3)=   0.000000
     celldm(4)=   0.000000  celldm(5)=   0.000000  celldm(6)=   0.000000

     crystal axes: (cart. coord. in units of alat)
               a(1) = (   6.579727   0.000000   0.000000 )
               a(2) = (  -0.000775   5.961596   0.000000 )
               a(3) = (   0.000000   0.000000  25.155947 )

     reciprocal axes: (cart. coord. in units 2 pi/alat)
               b(1) = (  0.151982  0.000020  0.000000 )
               b(2) = (  0.000000  0.167740  0.000000 )
               b(3) = (  0.000000  0.000000  0.039752 )

     PseudoPot. # 1 for Ti read from file:
     /storage/coda1/p-amedford6/0/shared/rich_project_chbe-medford/medford-share/data/pseudos_module/espresso/nninc/pbe/van/Ti.UPF
     MD5 check sum: 8e4df49b7f0d34bbd5052bf3f5ea0213
     Pseudo is Ultrasoft, Zval = 12.0
     Generated by new atomic code, or converted to UPF format
     Using radial grid of  851 points,  6 beta functions with:
                l(1) =   0
                l(2) =   0
                l(3) =   1
                l(4) =   1
                l(5) =   2
                l(6) =   2
     Q(r) pseudized with  8 coefficients,  rinner =    1.000   1.000   1.000
                                                       1.000   1.000

     PseudoPot. # 2 for O  read from file:
     /storage/coda1/p-amedford6/0/shared/rich_project_chbe-medford/medford-share/data/pseudos_module/espresso/nninc/pbe/van/O.UPF
     MD5 check sum: 78c19812648e8988a0fe644b0f25305e
     Pseudo is Ultrasoft, Zval =  6.0
     Generated by new atomic code, or converted to UPF format
     Using radial grid of  737 points,  4 beta functions with:
                l(1) =   0
                l(2) =   0
                l(3) =   1
                l(4) =   1
     Q(r) pseudized with  8 coefficients,  rinner =    0.800   0.800   0.800

     PseudoPot. # 3 for N  read from file:
     /storage/coda1/p-amedford6/0/shared/rich_project_chbe-medford/medford-share/data/pseudos_module/espresso/nninc/pbe/van/N.UPF
     MD5 check sum: 90d10febe142ad51ac9d5be1deb811c4
     Pseudo is Ultrasoft, Zval =  5.0
     Generated by new atomic code, or converted to UPF format
     Using radial grid of  729 points,  4 beta functions with:
                l(1) =   0
                l(2) =   0
                l(3) =   1
                l(4) =   1
     Q(r) pseudized with  8 coefficients,  rinner =    0.800   0.800   0.800

     PseudoPot. # 4 for C  read from file:
     /storage/coda1/p-amedford6/0/shared/rich_project_chbe-medford/medford-share/data/pseudos_module/espresso/nninc/pbe/van/C.UPF
     MD5 check sum: 1a69bf6b8db32088f5b2163dbdb77a27
     Pseudo is Ultrasoft, Zval =  4.0
     Generated by new atomic code, or converted to UPF format
     Using radial grid of  721 points,  4 beta functions with:
                l(1) =   0
                l(2) =   0
                l(3) =   1
                l(4) =   1
     Q(r) pseudized with  8 coefficients,  rinner =    0.800   0.800   0.800

     PseudoPot. # 5 for H  read from file:
     /storage/coda1/p-amedford6/0/shared/rich_project_chbe-medford/medford-share/data/pseudos_module/espresso/nninc/pbe/van/H.UPF
     MD5 check sum: b5ee9d7bfd3a09ee7748110bda690ff7
     Pseudo is Ultrasoft, Zval =  1.0
     Generated by new atomic code, or converted to UPF format
     Using radial grid of  615 points,  1 beta functions with:
                l(1) =   0
     Q(r) pseudized with  8 coefficients,  rinner =    0.800

     atomic species   valence    mass     pseudopotential
        Ti1           12.00    47.86700     Ti( 1.00)
        O1             6.00    15.99900     O ( 1.00)
        N1             5.00    14.00700     N ( 1.00)
        C1             4.00    12.01100     C ( 1.00)
        H1             1.00     1.00800     H ( 1.00)

     No symmetry found

   Cartesian axes

     site n.     atom                  positions (alat units)
         1           Ti1 tau(   1) = (   0.0004258   2.9801865   6.0000000  )
         2           Ti1 tau(   2) = (   3.2906075   1.4906267   6.0002472  )
         3           O1  tau(   3) = (   0.0006271   0.0005054   7.9858123  )
         4           O1  tau(   4) = (   3.2906025   0.0005020   7.3038282  )
         5           O1  tau(   5) = (   4.5942328   1.4918067   9.2879030  )
         6           O1  tau(   6) = (   1.9868534   1.4903216   9.2879459  )
         7           Ti1 tau(   7) = (   3.2907910   2.8959150   9.1758416  )
         8           Ti1 tau(   8) = (   0.0015273   1.4827037   9.2680791  )
         9           O1  tau(   9) = (   3.2830128   5.9597860  11.3344455  )
        10           O1  tau(  10) = (   0.0116148   5.9584955  10.6183126  )
        11           O1  tau(  11) = (   1.2885291   1.4855062  12.6376555  )
        12           O1  tau(  12) = (   5.2724004   1.4911608  12.5936499  )
        13           Ti1 tau(  13) = (   0.0410009   3.0319447  12.6084003  )
        14           Ti1 tau(  14) = (   3.3739341   1.4916561  12.4823474  )
        15           O1  tau(  15) = (   6.4862162   0.0153916  14.6455093  )
        16           O1  tau(  16) = (   3.3439542   5.9611638  13.9051029  )
        17           O1  tau(  17) = (   4.4933269   1.5483200  16.1231154  )
        18           O1  tau(  18) = (   1.9964937   1.4536654  15.9127221  )
        19           Ti1 tau(  19) = (   3.1412959   3.0017366  15.7441667  )
        20           Ti1 tau(  20) = (   6.4823597   1.5369342  15.8006069  )
        21           O1  tau(  21) = (   3.2904802   0.0005063   4.7018136  )
        22           O1  tau(  22) = (   6.5709111   0.0522475  17.2082838  )
        23           O1  tau(  23) = (   1.3043587   1.4918075   6.0039043  )
        24           O1  tau(  24) = (   5.2767064   1.4903225   6.0039473  )
        25           Ti1 tau(  25) = (   0.0000382   5.9609847   6.0000000  )
        26           Ti1 tau(  26) = (   3.2902200   4.4714249   6.0002472  )
        27           O1  tau(  27) = (   0.0002396   2.9813036   7.9858123  )
        28           O1  tau(  28) = (   3.2902150   2.9813002   7.3038282  )
        29           O1  tau(  29) = (   4.5938453   4.4726049   9.2879030  )
        30           O1  tau(  30) = (   1.9864658   4.4711199   9.2879459  )
        31           Ti1 tau(  31) = (   3.2891106   5.8743827   9.1763621  )
        32           Ti1 tau(  32) = (   0.0006254   4.4649316   9.2693709  )
        33           O1  tau(  33) = (   3.2833609   2.9822938  11.3349093  )
        34           O1  tau(  34) = (   0.0092240   2.9805883  10.6323155  )
        35           O1  tau(  35) = (   1.2838611   4.4860338  12.6468719  )
        36           O1  tau(  36) = (   5.2760156   4.4607002  12.6015494  )
        37           Ti1 tau(  37) = (   0.0673138   0.0440259  12.5461749  )
        38           Ti1 tau(  38) = (   3.3712377   4.4654930  12.4933830  )
        39           O1  tau(  39) = (   6.5217465   2.9589972  14.6412948  )
        40           O1  tau(  40) = (   3.2809526   2.9956502  13.9333893  )
        41           O1  tau(  41) = (   4.4911989   4.4583117  16.1637052  )
        42           O1  tau(  42) = (   1.9937212   4.5427850  15.9740970  )
        43           Ti1 tau(  43) = (   3.2955853   0.0167752  15.6963065  )
        44           Ti1 tau(  44) = (   6.5082246   4.6715011  16.1069148  )
        45           O1  tau(  45) = (   3.2900926   2.9813045   4.7018136  )
        46           O1  tau(  46) = (   1.3039711   4.4726057   6.0039043  )
        47           O1  tau(  47) = (   5.2763189   4.4711207   6.0039473  )
        48           N1  tau(  48) = (   1.3945086   2.8365607  18.1849301  )
        49           N1  tau(  49) = (   0.1777896   2.9650562  17.4211889  )
        50           C1  tau(  50) = (   1.4118813   3.7128676  19.3556819  )
        51           H1  tau(  51) = (   0.5171711   3.5996102  19.9880000  )
        52           H1  tau(  52) = (   2.2935099   3.4681107  19.9517681  )
        53           H1  tau(  53) = (   1.4703795   4.7520035  19.0419817  )
        54           H1  tau(  54) = (   1.4579882   1.8621926  18.4823179  )
        55           H1  tau(  55) = (   5.9558665   2.8747675  18.0551794  )

     number of k points=    10  Fermi-Dirac smearing, width (Ry)=  0.0073
                       cart. coord. in units 2pi/alat
        k(    1) = (   0.0000000   0.0000000   0.0000000), wk =   0.1250000
        k(    2) = (   0.0000000   0.0419351   0.0000000), wk =   0.2500000
        k(    3) = (   0.0000000  -0.0838702   0.0000000), wk =   0.1250000
        k(    4) = (   0.0379955   0.0000049   0.0000000), wk =   0.2500000
        k(    5) = (   0.0379955   0.0419400   0.0000000), wk =   0.2500000
        k(    6) = (   0.0379955  -0.0838652   0.0000000), wk =   0.2500000
        k(    7) = (   0.0379955  -0.0419301   0.0000000), wk =   0.2500000
        k(    8) = (  -0.0759910  -0.0000099   0.0000000), wk =   0.1250000
        k(    9) = (  -0.0759910   0.0419252   0.0000000), wk =   0.2500000
        k(   10) = (  -0.0759910  -0.0838800   0.0000000), wk =   0.1250000

     Initial potential from superposition of free atoms

     starting charge  380.99914, renormalised to  397.00000

     negative rho (up, down):  1.540E-02 0.000E+00

     %%%%%%%%%%%%%%%%%%%%%%%%%%%%%%%%%%%%%%%%%%%%%%%%%%%%%%%%%%%%%%%%%%%%%%%%
     %                                                                      %
     % You are using vdW-DF, which was implemented by the Thonhauser group. %
     % Please cite the following two papers that made this development      %
     % possible and the two reviews that describe the various versions:     %
     %                                                                      %
     %   T. Thonhauser et al., PRL 115, 136402 (2015).                      %
     %   T. Thonhauser et al., PRB 76, 125112 (2007).                       %
     %   K. Berland et al., Rep. Prog. Phys. 78, 066501 (2015).             %
     %   D.C. Langreth et al., J. Phys.: Condens. Matter 21, 084203 (2009). %
     %                                                                      %
     %                                                                      %
     % If you are calculating the stress with vdW-DF, please also cite:     %
     %                                                                      %
     %   R. Sabatini et al., J. Phys.: Condens. Matter 24, 424209 (2012).   %
     %                                                                      %
     %%%%%%%%%%%%%%%%%%%%%%%%%%%%%%%%%%%%%%%%%%%%%%%%%%%%%%%%%%%%%%%%%%%%%%%%

     Adding external electric field

     Computed dipole along edir(3) :
        Dipole               -9.6188 Ry au,        -24.4486 Debye
        Dipole field         -0.0182 Ry au,

        Potential amp.        1.6827 Ry
        Total length         46.3494 bohr

     Starting wfcs are  301 atomic wfcs
  @ DRIVER MODE: Message from server: STATUS
  @ DRIVER MODE: Message from server: POSDATA
  @ DRIVER MODE: Reading and sharing cell
  @ DRIVER MODE: Reading and sharing positions
  @ DRIVER MODE: Received positions

     Self-consistent Calculation

     iteration #  1     ecut=    29.40 Ry     beta= 0.05
     Davidson diagonalization with overlap
     c_bands:  1 eigenvalues not converged
     c_bands:  1 eigenvalues not converged
     c_bands:  1 eigenvalues not converged
     c_bands:  1 eigenvalues not converged
     c_bands:  1 eigenvalues not converged
     c_bands:  1 eigenvalues not converged
     c_bands:  2 eigenvalues not converged
     ethr =  1.00E-05,  avg # of iterations = 18.8

[...]

     total energy              =   -2533.46647870 Ry
     estimated scf accuracy    <    4540.47441484 Ry

     iteration #  2     ecut=    29.40 Ry     beta= 0.05
     Davidson diagonalization with overlap
     ethr =  1.00E-02,  avg # of iterations = 25.5

[...]

     iteration # 39     ecut=    29.40 Ry     beta= 0.05
     Davidson diagonalization with overlap
     c_bands:  1 eigenvalues not converged
     c_bands:  2 eigenvalues not converged
     c_bands:  1 eigenvalues not converged
     c_bands:  1 eigenvalues not converged
     ethr =  1.62E-06,  avg # of iterations = 15.2

[...]

     total energy              =   -2941.66155748 Ry
     estimated scf accuracy    <       0.00000010 Ry

     iteration # 66     ecut=    29.40 Ry     beta= 0.05
     Davidson diagonalization with overlap
     ethr =  2.50E-11,  avg # of iterations =  3.9

     negative rho (up, down):  1.607E-02 0.000E+00

     Adding external electric field

     Computed dipole along edir(3) :
        Dipole                0.9427 Ry au,          2.3961 Debye
        Dipole field          0.0018 Ry au,

        Potential amp.       -0.1649 Ry
        Total length         46.3494 bohr

     End of self-consistent calculation

          k = 0.0000 0.0000 0.0000 ( 18029 PWs)   bands (ev):

   -55.6868 -55.6698 -55.6527 -55.6332 -55.5926 -55.5384 -55.5314 -55.5012
   -55.4953 -55.4672 -55.4651 -55.4310 -55.2587 -55.0347 -54.6672 -54.6332
   -32.2207 -32.1699 -32.0429 -32.0329 -31.9996 -31.9849 -31.9797 -31.9554
   -31.9309 -31.8989 -31.8966 -31.8904 -31.8473 -31.8390 -31.8252 -31.8235
   -31.8068 -31.7917 -31.7828 -31.7478 -31.7439 -31.7370 -31.7214 -31.7179
   -31.6948 -31.6904 -31.6879 -31.6801 -31.6657 -31.6638 -31.6561 -31.6469
   -31.6412 -31.6317 -31.6181 -31.6087 -31.5772 -31.5089 -31.4651 -31.3008
   -31.2915 -31.2372 -31.0744 -30.9859 -30.9635 -30.8912 -30.8047 -30.6936
   -16.7734 -16.4174 -16.1627 -15.9332 -15.8422 -15.8117 -15.6593 -15.5278
   -15.4185 -15.3366 -15.2517 -15.2327 -15.2256 -15.2145 -15.1887 -15.1828
   -15.1356 -15.1310 -15.1117 -15.0987 -15.0486 -15.0320 -15.0285 -14.9338
   -14.8699 -14.8346 -14.8200 -14.7851 -14.7478 -14.3335 -13.1697 -13.0532
   -11.8094  -8.9901  -5.4299  -4.3738  -3.8413  -3.7887  -3.6447  -3.5944
    -3.5339  -3.4955  -3.3175  -3.2150  -2.9423  -2.8852  -2.8558  -2.8466
    -2.7912  -2.7598  -2.6016  -2.5754  -2.5048  -2.4954  -2.4805  -2.4513
    -2.4427  -2.4359  -2.3994  -2.3762  -2.3477  -2.2434  -2.1038  -2.0944
    -2.0715  -2.0384  -2.0008  -1.9522  -1.9357  -1.9155  -1.8970  -1.8846
    -1.8719  -1.7370  -1.7019  -1.5855  -1.4960  -1.4495  -1.3695  -1.2990
    -1.2691  -1.1581  -1.1183  -1.1060  -1.0917  -1.0810  -0.9813  -0.8755
    -0.8583  -0.8205  -0.7654  -0.7096  -0.6389  -0.5941  -0.5430  -0.4908
    -0.4665  -0.4514  -0.4486  -0.4134  -0.3221  -0.1806  -0.1287  -0.0943
    -0.0721   0.0046   0.0397   0.0958   0.1204   0.1437   0.1796   0.2325
     0.2761   0.2826   0.2960   0.3106   0.3153   0.4896   0.5391   0.5809
     0.6142   0.6603   0.8214   0.8437   0.9652   1.0395   1.2020   1.2805
     1.3550   1.4331   1.5467   1.6203   1.9262   1.9719   3.4439   3.5314
     3.5762   3.5899   3.6853   3.7270   3.8967   3.9272   3.9417   4.0017

[...]

          k = 0.0380-0.0419 0.0000 ( 17876 PWs)   bands (ev):

[...]

          k =-0.0760-0.0000 0.0000 ( 17886 PWs)   bands (ev):

[...]

          k =-0.0760-0.0839 0.0000 ( 17948 PWs)   bands (ev):

   -55.6700 -55.6693 -55.6551 -55.6476 -55.5866 -55.5443 -55.5188 -55.5079
   -55.4847 -55.4832 -55.4510 -55.4452 -55.2575 -55.0357 -54.6502 -54.6501
   -32.0298 -32.0201 -31.9854 -31.9849 -31.9655 -31.9647 -31.9445 -31.9381
   -31.8852 -31.8846 -31.8743 -31.8691 -31.8521 -31.8342 -31.8096 -31.8048
   -31.8005 -31.7968 -31.7902 -31.7901 -31.7889 -31.7885 -31.7846 -31.7451
   -31.7369 -31.7253 -31.7170 -31.7059 -31.6851 -31.6841 -31.6820 -31.6753
   -31.6653 -31.6613 -31.6582 -31.6557 -31.6147 -31.5114 -31.4618 -31.3630
   -31.2936 -31.2632 -30.9762 -30.9762 -30.8872 -30.8871 -30.8480 -30.8480
   -16.7473 -15.8646 -15.8035 -15.6457 -15.6105 -15.5908 -15.5559 -15.4952
   -15.4120 -15.3849 -15.3803 -15.3331 -15.3074 -15.2746 -15.2365 -15.2221
   -15.2149 -15.1961 -15.1838 -15.1499 -15.1404 -15.1289 -15.1216 -15.0461
   -15.0085 -15.0042 -14.9986 -14.8949 -14.7685 -14.5013 -13.1550 -13.1550
   -11.8158  -9.0044  -5.4439  -4.3605  -3.7654  -3.1573  -3.0703  -2.8956
    -2.8400  -2.8112  -2.7954  -2.6294  -2.6196  -2.6035  -2.5593  -2.5360
    -2.5278  -2.5175  -2.5087  -2.4876  -2.4750  -2.4399  -2.4302  -2.3952
    -2.3809  -2.3629  -2.3461  -2.3290  -2.3094  -2.2953  -2.2788  -2.2379
    -2.2180  -2.2075  -2.1870  -2.1429  -1.9326  -1.8824  -1.8363  -1.8326
    -1.8220  -1.8026  -1.7478  -1.7428  -1.7087  -1.6577  -1.5789  -1.4341
    -1.3887  -1.3723  -1.2791  -1.2575  -1.2048  -1.1328  -1.0871  -1.0701
    -1.0351  -0.9711  -0.9350  -0.8974  -0.8309  -0.8064  -0.8007  -0.7069
    -0.6860  -0.6499  -0.6432  -0.5646  -0.5141  -0.4511  -0.4357  -0.4193
    -0.3877  -0.3542  -0.3361  -0.2682  -0.1761  -0.1751  -0.1520  -0.0429
     0.0477   0.2761   0.3388   0.3758   0.4207   0.5143   0.5828   0.6074
     0.6233   0.6450   0.6644   0.7126   0.8395   0.8496   0.8838   0.9968
     1.1008   1.6365   1.7184   1.7193   1.7918   1.7919   3.7455   3.7638
     3.7843   3.8308   3.9500   3.9569   3.9790   3.9812   4.1038   4.1169

     the Fermi energy is     3.4455 ev

!    total energy              =   -2941.66158502 Ry
     estimated scf accuracy    <       0.00000007 Ry
     smearing contrib. (-TS)   =      -0.02151922 Ry
     internal energy E=F+TS    =   -2941.64006580 Ry

     The total energy is F=E-TS. E is the sum of the following terms:
     one-electron contribution =  -24275.58796720 Ry
     hartree contribution      =   12228.24811493 Ry
     xc contribution           =    -486.87491167 Ry
     ewald contribution        =    9592.57302107 Ry
     electric field correction =       0.00167706 Ry

     convergence has been achieved in  66 iterations

     Forces acting on atoms (cartesian axes, Ry/au):

     atom    1 type  1   force =     0.00017891   -0.00011517    0.09636279
     atom    2 type  1   force =    -0.00021385   -0.00063397   -0.17551022
     atom    3 type  2   force =    -0.00004191   -0.00003290   -0.02419712
     atom    4 type  2   force =     0.00005053   -0.00143757    0.05290321
     atom    5 type  2   force =    -0.01181878   -0.00048880    0.00396511
     atom    6 type  2   force =     0.01312972    0.00023817    0.00230288
     atom    7 type  1   force =    -0.00140166    0.00080363   -0.01148305
     atom    8 type  1   force =     0.00053516    0.00920934    0.02522466
     atom    9 type  2   force =    -0.00010867    0.00017351    0.00039490
     atom   10 type  2   force =    -0.00086404    0.00148747   -0.01579495
     atom   11 type  2   force =    -0.00019560   -0.00049848    0.00039318
     atom   12 type  2   force =    -0.00013596   -0.00026234    0.00002593
     atom   13 type  1   force =     0.00054817   -0.00091390    0.00006729
     atom   14 type  1   force =    -0.00008217   -0.00040561    0.00023902
     atom   15 type  2   force =     0.00018071    0.00004112   -0.00029237
     atom   16 type  2   force =     0.00006653    0.00024964    0.00005139
     atom   17 type  2   force =    -0.00051760    0.00034815    0.00049574
     atom   18 type  2   force =     0.00011672    0.00010878    0.00029090
     atom   19 type  1   force =     0.00007854   -0.00054001    0.00022354
     atom   20 type  1   force =     0.00014922    0.00034013    0.00058565
     atom   21 type  2   force =     0.00007439   -0.00008068    0.10319238
     atom   22 type  2   force =    -0.00041366   -0.00028941    0.00024538
     atom   23 type  2   force =    -0.07148178   -0.00018164   -0.02770664
     atom   24 type  2   force =     0.07140464    0.00025190   -0.02770854
     atom   25 type  1   force =     0.00003140   -0.00027617    0.09582322
     atom   26 type  1   force =    -0.00014533   -0.00023155   -0.17568008
     atom   27 type  2   force =     0.00009326   -0.00012567   -0.02330206
     atom   28 type  2   force =     0.00007990   -0.00129520    0.05332892
     atom   29 type  2   force =    -0.01194773   -0.00005411    0.00376326
     atom   30 type  2   force =     0.01319778    0.00043207    0.00214002
     atom   31 type  1   force =    -0.00141547    0.00344882   -0.01080990
     atom   32 type  1   force =     0.00064133   -0.01010130    0.02563183
     atom   33 type  2   force =    -0.00039050    0.00005319    0.00005275
     atom   34 type  2   force =     0.00075022    0.00090125   -0.02306544
     atom   35 type  2   force =    -0.00011090    0.00029375   -0.00002496
     atom   36 type  2   force =    -0.00022540    0.00059511   -0.00029099
     atom   37 type  1   force =    -0.00082460   -0.00101949   -0.00014596
     atom   38 type  1   force =    -0.00002806   -0.00010012   -0.00003377
     atom   39 type  2   force =    -0.00034688    0.00003195    0.00056586
     atom   40 type  2   force =     0.00048641    0.00024944    0.00027157
     atom   41 type  2   force =     0.00005340    0.00050692    0.00027685
     atom   42 type  2   force =     0.00009143    0.00028505   -0.00020445
     atom   43 type  1   force =     0.00018847    0.00007725   -0.00019213
     atom   44 type  1   force =    -0.00021974   -0.00059735    0.00004353
     atom   45 type  2   force =     0.00007091   -0.00008653    0.10321516
     atom   46 type  2   force =    -0.07148524   -0.00016779   -0.02770753
     atom   47 type  2   force =     0.07141130    0.00030625   -0.02771988
     atom   48 type  3   force =    -0.00066022    0.00108980   -0.00038038
     atom   49 type  3   force =     0.00043730   -0.00020746    0.00028854
     atom   50 type  4   force =     0.00048789   -0.00322051    0.00377603
     atom   51 type  5   force =     0.00110779   -0.00021135   -0.00043223
     atom   52 type  5   force =    -0.00037978    0.00017024   -0.00049748
     atom   53 type  5   force =     0.00001913    0.00129920   -0.00252503
     atom   54 type  5   force =     0.00005880    0.00084504   -0.00029658
     atom   55 type  5   force =    -0.00026443   -0.00026212   -0.00013977

     Total force =     0.367355     Total SCF correction =     0.000672
  @ DRIVER MODE: Message from server: STATUS
  @ DRIVER MODE: Message from server: GETFORCE
  @ DRIVER MODE: Returning v,forces,stress,ensemble

     Writing output data file ./calc.save/
  @ DRIVER MODE: Message from server: EXIT
  @ DRIVE MODE: Exiting

     General routines

     Parallel routines

   This run was terminated on:   9:27:12   9Sep2021

   JOB DONE.