     Program PWSCF v.6.7GPU starts on 26Sep2021 at 23:49:53

     R & G space division:  proc/nbgrp/npool/nimage =       8
     Reading input from /storage/home/hcoda1/3/ntian30/research/carbon/CxH_vib/CH_calc/ads_slab/CHONHNH2_b/out_0029/pw.inp
Warning: card &CELL ignored
Warning: card   CELL_DYNAMICS='IPI', ignored
Warning: card / ignored

     Current dimensions of program PWSCF are:
     Max number of different atomic species (ntypx) = 10
     Max number of k-points (npk) =  40000
     Max angular momentum in pseudopotentials (lmaxx) =  3
     Presently no symmetry can be used with electric field

     Message from routine cell_base_init:
     DEPRECATED: use true lattice parameter, not A to a.u. conversion factor

     IMPORTANT: XC functional enforced from input :
     Exchange-correlation= BEEF-VDW
                           (   1   4  43  14   2   0   0)
     Any further DFT definition will be discarded
     Please, verify this is what you really want

  @ DRIVER MODE: Connecting to
 qe_1139763_2982672.sched-torque.pace.gatech.edu1f2u4g2k_scratch
  using UNIX socket
  @ DRIVER MODE: Message from server: STATUS
  @ DRIVER MODE: Message from server: INIT
  @ DRIVER MODE: Receiving replica           0          -1
  @ DRIVER MODE: Receiving encoded integer          25
  @ DRIVER MODE:  SCF:  T  FORCE:  T  STRESS:  F  VC:  F  ENSEMBLE:  F
  @ DRIVER MODE:  SCF:  T  FORCE:  T  STRESS:  F  VC:  F  ENSEMBLE:  F

     Using Slab Decomposition

     bravais-lattice index     =            0
     lattice parameter (alat)  =       1.8897  a.u.
     unit-cell volume          =    6658.9804 (a.u.)^3
     number of atoms/cell      =           55
     number of atomic types    =            5
     number of electrons       =       402.00
     number of Kohn-Sham states=          211
     kinetic-energy cutoff     =      29.3995  Ry
     charge density cutoff     =     293.9946  Ry
     scf convergence threshold =      7.3E-08
     mixing beta               =       0.0500
     number of iterations used =            8  plain     mixing
     Exchange-correlation= BEEF-VDW
                           (   1   4  43  14   2   0   0)

     celldm(1)=   1.889726  celldm(2)=   0.000000  celldm(3)=   0.000000
     celldm(4)=   0.000000  celldm(5)=   0.000000  celldm(6)=   0.000000

     crystal axes: (cart. coord. in units of alat)
               a(1) = (   6.579727   0.000000   0.000000 )
               a(2) = (  -0.000775   5.961596   0.000000 )
               a(3) = (   0.000000   0.000000  25.155947 )

     reciprocal axes: (cart. coord. in units 2 pi/alat)
               b(1) = (  0.151982  0.000020  0.000000 )
               b(2) = (  0.000000  0.167740  0.000000 )
               b(3) = (  0.000000  0.000000  0.039752 )

     PseudoPot. # 1 for O  read from file:
     /storage/coda1/p-amedford6/0/shared/rich_project_chbe-medford/medford-share/data/pseudos_module/espresso/nninc/pbe/van/O.UPF
     MD5 check sum: 78c19812648e8988a0fe644b0f25305e
     Pseudo is Ultrasoft, Zval =  6.0
     Generated by new atomic code, or converted to UPF format
     Using radial grid of  737 points,  4 beta functions with:
                l(1) =   0
                l(2) =   0
                l(3) =   1
                l(4) =   1
     Q(r) pseudized with  8 coefficients,  rinner =    0.800   0.800   0.800

     PseudoPot. # 2 for Ti read from file:
     /storage/coda1/p-amedford6/0/shared/rich_project_chbe-medford/medford-share/data/pseudos_module/espresso/nninc/pbe/van/Ti.UPF
     MD5 check sum: 8e4df49b7f0d34bbd5052bf3f5ea0213
     Pseudo is Ultrasoft, Zval = 12.0
     Generated by new atomic code, or converted to UPF format
     Using radial grid of  851 points,  6 beta functions with:
                l(1) =   0
                l(2) =   0
                l(3) =   1
                l(4) =   1
                l(5) =   2
                l(6) =   2
     Q(r) pseudized with  8 coefficients,  rinner =    1.000   1.000   1.000
                                                       1.000   1.000

     PseudoPot. # 3 for N  read from file:
     /storage/coda1/p-amedford6/0/shared/rich_project_chbe-medford/medford-share/data/pseudos_module/espresso/nninc/pbe/van/N.UPF
     MD5 check sum: 90d10febe142ad51ac9d5be1deb811c4
     Pseudo is Ultrasoft, Zval =  5.0
     Generated by new atomic code, or converted to UPF format
     Using radial grid of  729 points,  4 beta functions with:
                l(1) =   0
                l(2) =   0
                l(3) =   1
                l(4) =   1
     Q(r) pseudized with  8 coefficients,  rinner =    0.800   0.800   0.800

     PseudoPot. # 4 for H  read from file:
     /storage/coda1/p-amedford6/0/shared/rich_project_chbe-medford/medford-share/data/pseudos_module/espresso/nninc/pbe/van/H.UPF
     MD5 check sum: b5ee9d7bfd3a09ee7748110bda690ff7
     Pseudo is Ultrasoft, Zval =  1.0
     Generated by new atomic code, or converted to UPF format
     Using radial grid of  615 points,  1 beta functions with:
                l(1) =   0
     Q(r) pseudized with  8 coefficients,  rinner =    0.800

     PseudoPot. # 5 for C  read from file:
     /storage/coda1/p-amedford6/0/shared/rich_project_chbe-medford/medford-share/data/pseudos_module/espresso/nninc/pbe/van/C.UPF
     MD5 check sum: 1a69bf6b8db32088f5b2163dbdb77a27
     Pseudo is Ultrasoft, Zval =  4.0
     Generated by new atomic code, or converted to UPF format
     Using radial grid of  721 points,  4 beta functions with:
                l(1) =   0
                l(2) =   0
                l(3) =   1
                l(4) =   1
     Q(r) pseudized with  8 coefficients,  rinner =    0.800   0.800   0.800

     atomic species   valence    mass     pseudopotential
        O1             6.00    15.99900     O ( 1.00)
        Ti1           12.00    47.86700     Ti( 1.00)
        N1             5.00    14.00700     N ( 1.00)
        H1             1.00     1.00800     H ( 1.00)
        C1             4.00    12.01100     C ( 1.00)

     No symmetry found

   Cartesian axes

     site n.     atom                  positions (alat units)
         1           O1  tau(   1) = (   3.2904802   0.0005063   4.7018136  )
         2           O1  tau(   2) = (   3.2900926   2.9813045   4.7018136  )
         3           Ti1 tau(   3) = (   0.0004258   2.9801865   6.0000000  )
         4           Ti1 tau(   4) = (   0.0000382   5.9609847   6.0000000  )
         5           Ti1 tau(   5) = (   3.2906075   1.4906267   6.0002472  )
         6           Ti1 tau(   6) = (   3.2902200   4.4714249   6.0002472  )
         7           O1  tau(   7) = (   1.3043587   1.4918075   6.0039043  )
         8           O1  tau(   8) = (   1.3039711   4.4726057   6.0039043  )
         9           O1  tau(   9) = (   5.2767064   1.4903225   6.0039473  )
        10           O1  tau(  10) = (   5.2763189   4.4711207   6.0039473  )
        11           O1  tau(  11) = (   3.2906025   0.0005020   7.3038282  )
        12           O1  tau(  12) = (   3.2902150   2.9813002   7.3038282  )
        13           O1  tau(  13) = (   0.0006271   0.0005054   7.9858123  )
        14           O1  tau(  14) = (   0.0002396   2.9813036   7.9858123  )
        15           Ti1 tau(  15) = (   3.2907910   2.8959150   9.1758416  )
        16           Ti1 tau(  16) = (   3.2891106   5.8743827   9.1763621  )
        17           Ti1 tau(  17) = (   0.0015273   1.4827037   9.2680791  )
        18           Ti1 tau(  18) = (   0.0006254   4.4649316   9.2693709  )
        19           O1  tau(  19) = (   4.5942328   1.4918067   9.2879030  )
        20           O1  tau(  20) = (   4.5938453   4.4726049   9.2879030  )
        21           O1  tau(  21) = (   1.9868534   1.4903216   9.2879459  )
        22           O1  tau(  22) = (   1.9864658   4.4711199   9.2879459  )
        23           O1  tau(  23) = (   0.0116148   5.9584955  10.6183126  )
        24           O1  tau(  24) = (   0.0092240   2.9805883  10.6323155  )
        25           O1  tau(  25) = (   3.2729272   2.9749101  11.3358637  )
        26           O1  tau(  26) = (   3.2774458   5.9577983  11.3358029  )
        27           Ti1 tau(  27) = (   6.5123228   0.0223980  12.5466522  )
        28           Ti1 tau(  28) = (   6.5139447   2.9993280  12.6164542  )
        29           Ti1 tau(  29) = (   3.1950650   4.4673527  12.4897579  )
        30           Ti1 tau(  30) = (   3.1950454   1.4921031  12.4944583  )
        31           O1  tau(  31) = (   5.2839716   4.4726476  12.6140382  )
        32           O1  tau(  32) = (   1.2968206   4.4781603  12.6268461  )
        33           O1  tau(  33) = (   5.2856119   1.4917077  12.6233973  )
        34           O1  tau(  34) = (   1.2888650   1.4770595  12.6372879  )
        35           O1  tau(  35) = (   3.2788258   2.9629383  13.9230881  )
        36           O1  tau(  36) = (   3.2980453   5.9500611  13.9147740  )
        37           O1  tau(  37) = (   6.5334376   5.9389224  14.6738689  )
        38           O1  tau(  38) = (   6.5776160   3.0156023  14.6540868  )
        39           Ti1 tau(  39) = (   3.2542760   2.9504115  15.7371360  )
        40           Ti1 tau(  40) = (   3.3062714   5.9309079  15.7116640  )
        41           Ti1 tau(  41) = (   6.5650095   1.2976281  16.1142359  )
        42           Ti1 tau(  42) = (   0.0079766   4.4268374  15.8391656  )
        43           O1  tau(  43) = (   2.0280489   1.4492115  16.0660627  )
        44           O1  tau(  44) = (   4.5116609   1.4624326  16.0993158  )
        45           O1  tau(  45) = (   2.0244938   4.4513709  16.0356871  )
        46           O1  tau(  46) = (   4.5113612   4.4342832  16.0730653  )
        47           O1  tau(  47) = (   6.5716746   5.9215154  17.2308814  )
        48           N1  tau(  48) = (   5.9800345   2.9984367  18.5879729  )
        49           H1  tau(  49) = (   4.9797160   2.8240766  18.4383897  )
        50           H1  tau(  50) = (   1.6245422   1.3425840  19.0439533  )
        51           H1  tau(  51) = (   6.0578502   3.9810051  18.8619266  )
        52           N1  tau(  52) = (   2.1403542   1.9713023  19.6516680  )
        53           C1  tau(  53) = (   2.8938676   2.8537551  19.2737185  )
        54           H1  tau(  54) = (   3.3792091   3.5764479  19.9483559  )
        55           O1  tau(  55) = (   6.5521836   2.9666373  17.2729174  )

     number of k points=    10  Fermi-Dirac smearing, width (Ry)=  0.0073
                       cart. coord. in units 2pi/alat
        k(    1) = (   0.0000000   0.0000000   0.0000000), wk =   0.1250000
        k(    2) = (   0.0000000   0.0419351   0.0000000), wk =   0.2500000
        k(    3) = (   0.0000000  -0.0838702   0.0000000), wk =   0.1250000
        k(    4) = (   0.0379955   0.0000049   0.0000000), wk =   0.2500000
        k(    5) = (   0.0379955   0.0419400   0.0000000), wk =   0.2500000
        k(    6) = (   0.0379955  -0.0838652   0.0000000), wk =   0.2500000
        k(    7) = (   0.0379955  -0.0419301   0.0000000), wk =   0.2500000
        k(    8) = (  -0.0759910  -0.0000099   0.0000000), wk =   0.1250000
        k(    9) = (  -0.0759910   0.0419252   0.0000000), wk =   0.2500000
        k(   10) = (  -0.0759910  -0.0838800   0.0000000), wk =   0.1250000

     Initial potential from superposition of free atoms

     starting charge  385.99915, renormalised to  402.00000

     negative rho (up, down):  1.543E-02 0.000E+00

     %%%%%%%%%%%%%%%%%%%%%%%%%%%%%%%%%%%%%%%%%%%%%%%%%%%%%%%%%%%%%%%%%%%%%%%%
     %                                                                      %
     % You are using vdW-DF, which was implemented by the Thonhauser group. %
     % Please cite the following two papers that made this development      %
     % possible and the two reviews that describe the various versions:     %
     %                                                                      %
     %   T. Thonhauser et al., PRL 115, 136402 (2015).                      %
     %   T. Thonhauser et al., PRB 76, 125112 (2007).                       %
     %   K. Berland et al., Rep. Prog. Phys. 78, 066501 (2015).             %
     %   D.C. Langreth et al., J. Phys.: Condens. Matter 21, 084203 (2009). %
     %                                                                      %
     %                                                                      %
     % If you are calculating the stress with vdW-DF, please also cite:     %
     %                                                                      %
     %   R. Sabatini et al., J. Phys.: Condens. Matter 24, 424209 (2012).   %
     %                                                                      %
     %%%%%%%%%%%%%%%%%%%%%%%%%%%%%%%%%%%%%%%%%%%%%%%%%%%%%%%%%%%%%%%%%%%%%%%%

     Adding external electric field

     Computed dipole along edir(3) :
        Dipole              -12.8589 Ry au,        -32.6842 Debye
        Dipole field         -0.0243 Ry au,

        Potential amp.        2.2495 Ry
        Total length         46.3494 bohr

     Starting wfcs are  304 atomic wfcs
  @ DRIVER MODE: Message from server: STATUS
  @ DRIVER MODE: Message from server: POSDATA
  @ DRIVER MODE: Reading and sharing cell
  @ DRIVER MODE: Reading and sharing positions
  @ DRIVER MODE: Received positions

     Self-consistent Calculation

     iteration #  1     ecut=    29.40 Ry     beta= 0.05
     Davidson diagonalization with overlap
     c_bands:  5 eigenvalues not converged
     c_bands:  2 eigenvalues not converged
     c_bands:  2 eigenvalues not converged
     c_bands:  5 eigenvalues not converged
     c_bands:  3 eigenvalues not converged
     c_bands:  3 eigenvalues not converged
     c_bands:  2 eigenvalues not converged
     c_bands:  3 eigenvalues not converged
     c_bands:  1 eigenvalues not converged
     ethr =  1.00E-05,  avg # of iterations = 21.5

[...]

     total energy              =   -2369.70669383 Ry
     estimated scf accuracy    <    6837.09685284 Ry

     iteration #  2     ecut=    29.40 Ry     beta= 0.05
     Davidson diagonalization with overlap
     ethr =  1.00E-02,  avg # of iterations = 23.8

[...]

     iteration # 41     ecut=    29.40 Ry     beta= 0.05
     Davidson diagonalization with overlap
     c_bands:  2 eigenvalues not converged
     c_bands:  1 eigenvalues not converged
     ethr =  4.68E-06,  avg # of iterations = 16.9

[...]

     total energy              =   -2972.58415655 Ry
     estimated scf accuracy    <       0.00000010 Ry

     iteration # 69     ecut=    29.40 Ry     beta= 0.05
     Davidson diagonalization with overlap
     ethr =  2.07E-11,  avg # of iterations =  6.9

     negative rho (up, down):  1.520E-02 0.000E+00

     Adding external electric field

     Computed dipole along edir(3) :
        Dipole                0.4989 Ry au,          1.2681 Debye
        Dipole field          0.0009 Ry au,

        Potential amp.       -0.0873 Ry
        Total length         46.3494 bohr

     End of self-consistent calculation

          k = 0.0000 0.0000 0.0000 ( 18029 PWs)   bands (ev):

   -55.8785 -55.8587 -55.8444 -55.8207 -55.7400 -55.7225 -55.7049 -55.6899
   -55.6808 -55.6559 -55.6545 -55.6206 -55.5142 -55.3032 -54.8576 -54.8236
   -32.4041 -32.3612 -32.2385 -32.1888 -32.1825 -32.1712 -32.1559 -32.1447
   -32.1218 -32.0894 -32.0463 -32.0341 -32.0310 -32.0308 -32.0127 -31.9920
   -31.9906 -31.9830 -31.9720 -31.9628 -31.9492 -31.9377 -31.9357 -31.8941
   -31.8867 -31.8815 -31.8792 -31.8703 -31.8623 -31.8547 -31.8512 -31.8304
   -31.8208 -31.8076 -31.7967 -31.7901 -31.7666 -31.7514 -31.7197 -31.5727
   -31.5347 -31.5171 -31.2647 -31.1763 -31.1539 -31.0815 -30.9950 -30.8839
   -18.6580 -16.6009 -16.3500 -16.1109 -16.0278 -15.9924 -15.9456 -15.8410
   -15.7176 -15.6062 -15.5129 -15.4371 -15.4176 -15.4154 -15.3764 -15.3691
   -15.3437 -15.3233 -15.3158 -15.2980 -15.2773 -15.2368 -15.2232 -15.2153
   -15.1258 -15.0477 -15.0132 -14.9710 -14.9617 -14.9362 -14.5562 -13.3599
   -13.2434 -12.2344  -8.2231  -5.3254  -4.9651  -4.5828  -3.9748  -3.8356
    -3.7846  -3.7174  -3.6796  -3.4980  -3.3893  -3.1339  -3.0600  -3.0396
    -3.0168  -2.9701  -2.8713  -2.7882  -2.6911  -2.6869  -2.6858  -2.6502
    -2.6403  -2.6227  -2.5848  -2.5609  -2.4980  -2.4223  -2.3900  -2.2797
    -2.2705  -2.2394  -2.1914  -2.1841  -2.1412  -2.1171  -2.1034  -2.1019
    -2.0847  -2.0461  -2.0382  -1.9055  -1.8672  -1.7920  -1.6724  -1.5981
    -1.4889  -1.4875  -1.3821  -1.3461  -1.3369  -1.3061  -1.2713  -1.2291
    -1.1671  -1.0671  -1.0376  -1.0093  -1.0041  -0.9003  -0.8415  -0.8173
    -0.7520  -0.6789  -0.6527  -0.6384  -0.6287  -0.5992  -0.3821  -0.3387
    -0.3197  -0.2855  -0.2408  -0.1873  -0.1472  -0.1011  -0.0626   0.0057
     0.0137   0.0660   0.0915   0.1026   0.1191   0.1300   0.1452   0.2399
     0.3336   0.3711   0.3933   0.4688   0.4728   0.6471   0.7090   0.7772
     0.8858   1.0908   1.1647   1.2484   1.3567   1.7357   1.7570   1.7816
     3.2505   3.2525   3.3431   3.3854   3.3937   3.4945   3.5423   3.7069
     3.7397   3.7707   3.8094

[...]

          k = 0.0380-0.0419 0.0000 ( 17876 PWs)   bands (ev):

[...]

          k =-0.0760-0.0000 0.0000 ( 17886 PWs)   bands (ev):

[...]

          k =-0.0760-0.0839 0.0000 ( 17948 PWs)   bands (ev):

   -55.8619 -55.8608 -55.8460 -55.8332 -55.7261 -55.7187 -55.7132 -55.6898
   -55.6739 -55.6714 -55.6402 -55.6351 -55.5129 -55.3044 -54.8406 -54.8405
   -32.2145 -32.2013 -32.1768 -32.1761 -32.1571 -32.1560 -32.1085 -32.1002
   -32.0822 -32.0731 -32.0367 -32.0278 -32.0057 -31.9980 -31.9961 -31.9934
   -31.9863 -31.9816 -31.9804 -31.9782 -31.9755 -31.9735 -31.9372 -31.9352
   -31.9300 -31.9152 -31.9080 -31.8982 -31.8750 -31.8740 -31.8729 -31.8705
   -31.8647 -31.8545 -31.8512 -31.8493 -31.8439 -31.7492 -31.7229 -31.6434
   -31.5644 -31.5245 -31.1667 -31.1665 -31.0776 -31.0774 -31.0383 -31.0382
   -18.6428 -16.0202 -15.9987 -15.9473 -15.8343 -15.7976 -15.7592 -15.7477
   -15.6722 -15.5910 -15.5696 -15.5648 -15.4867 -15.4684 -15.4542 -15.4158
   -15.4041 -15.3940 -15.3876 -15.3524 -15.3360 -15.3268 -15.3184 -15.3108
   -15.2348 -15.1978 -15.1930 -15.1822 -15.0691 -14.9455 -14.7338 -13.3453
   -13.3451 -12.2470  -8.2233  -5.3227  -4.9744  -4.5032  -3.3066  -3.2739
    -3.0932  -3.0088  -2.9932  -2.9751  -2.8708  -2.7898  -2.7828  -2.7489
    -2.7159  -2.7093  -2.6989  -2.6961  -2.6722  -2.6611  -2.6138  -2.5910
    -2.5791  -2.5505  -2.5407  -2.5356  -2.5049  -2.4917  -2.4551  -2.4339
    -2.4161  -2.4037  -2.3826  -2.3181  -2.2047  -2.1145  -2.0815  -2.0212
    -2.0108  -1.9812  -1.9470  -1.9326  -1.9147  -1.8951  -1.8600  -1.7377
    -1.6270  -1.5708  -1.5677  -1.5224  -1.4663  -1.4262  -1.3687  -1.3147
    -1.2828  -1.2691  -1.2205  -1.1608  -1.1407  -1.0644  -1.0222  -0.9924
    -0.9525  -0.9273  -0.8551  -0.8393  -0.8367  -0.8064  -0.7178  -0.6984
    -0.6413  -0.6347  -0.6075  -0.5517  -0.5338  -0.5026  -0.3791  -0.3558
    -0.2326  -0.1659  -0.0809   0.0699   0.0943   0.1906   0.2277   0.2547
     0.3134   0.4154   0.4344   0.4454   0.4630   0.4950   0.5222   0.6510
     0.6648   0.6988   0.8191   1.5284   1.5289   1.5991   1.6016   1.6042
     3.2377   3.5811   3.5873   3.6077   3.6352   3.7688   3.7707   3.7892
     3.7908   3.9244   3.9436

     the Fermi energy is     3.2539 ev

!    total energy              =   -2972.58417391 Ry
     estimated scf accuracy    <       0.00000003 Ry
     smearing contrib. (-TS)   =      -0.03088885 Ry
     internal energy E=F+TS    =   -2972.55328507 Ry

     The total energy is F=E-TS. E is the sum of the following terms:
     one-electron contribution =  -23747.36118012 Ry
     hartree contribution      =   11965.09197342 Ry
     xc contribution           =    -493.08171440 Ry
     ewald contribution        =    9302.79716633 Ry
     electric field correction =       0.00046970 Ry

     convergence has been achieved in  69 iterations

     Forces acting on atoms (cartesian axes, Ry/au):

     atom    1 type  1   force =     0.00004441   -0.00002761    0.10321639
     atom    2 type  1   force =     0.00004982   -0.00004777    0.10325286
     atom    3 type  2   force =     0.00007377   -0.00022218    0.09626125
     atom    4 type  2   force =    -0.00000601   -0.00030575    0.09606385
     atom    5 type  2   force =     0.00003366   -0.00062816   -0.17555839
     atom    6 type  2   force =    -0.00002603   -0.00024407   -0.17550998
     atom    7 type  1   force =    -0.07154166   -0.00013863   -0.02766756
     atom    8 type  1   force =    -0.07152392   -0.00013017   -0.02764244
     atom    9 type  1   force =     0.07138843    0.00028794   -0.02773636
     atom   10 type  1   force =     0.07137172    0.00031040   -0.02770059
     atom   11 type  1   force =    -0.00005474   -0.00145011    0.05287652
     atom   12 type  1   force =    -0.00002852   -0.00126001    0.05322324
     atom   13 type  1   force =     0.00000541   -0.00000223   -0.02441257
     atom   14 type  1   force =     0.00010014   -0.00023316   -0.02344540
     atom   15 type  2   force =     0.00002698    0.00048320   -0.01062728
     atom   16 type  2   force =     0.00014226    0.00349756   -0.00997172
     atom   17 type  2   force =     0.00069817    0.01061378    0.02592358
     atom   18 type  2   force =     0.00084436   -0.01140026    0.02624203
     atom   19 type  1   force =    -0.01196411   -0.00052030    0.00384362
     atom   20 type  1   force =    -0.01230868   -0.00009194    0.00375719
     atom   21 type  1   force =     0.01292597   -0.00009043    0.00218688
     atom   22 type  1   force =     0.01317045    0.00047820    0.00214290
     atom   23 type  1   force =    -0.00432035    0.00133187   -0.01314025
     atom   24 type  1   force =    -0.00237191    0.00054383   -0.02172453
     atom   25 type  1   force =     0.00023781   -0.00090592    0.00019301
     atom   26 type  1   force =     0.00001574    0.00043835    0.00083957
     atom   27 type  2   force =    -0.00041106    0.00040623   -0.00031059
     atom   28 type  2   force =    -0.00066286   -0.00053454   -0.00029917
     atom   29 type  2   force =     0.00100739    0.00001527   -0.00032835
     atom   30 type  2   force =     0.00037877   -0.00073248   -0.00033270
     atom   31 type  1   force =     0.00083375    0.00011970    0.00029494
     atom   32 type  1   force =    -0.00047305   -0.00001821    0.00018297
     atom   33 type  1   force =     0.00039915   -0.00036913    0.00003487
     atom   34 type  1   force =     0.00124987   -0.00021512    0.00004824
     atom   35 type  1   force =     0.00030593   -0.00029923    0.00034754
     atom   36 type  1   force =     0.00027128    0.00025668   -0.00020218
     atom   37 type  1   force =     0.00020543   -0.00009999   -0.00035883
     atom   38 type  1   force =     0.00019845    0.00020061    0.00014324
     atom   39 type  2   force =    -0.00075237    0.00028604   -0.00087189
     atom   40 type  2   force =    -0.00071907   -0.00000514    0.00010544
     atom   41 type  2   force =     0.00019837   -0.00031000   -0.00085248
     atom   42 type  2   force =     0.00072663   -0.00004617   -0.00021437
     atom   43 type  1   force =     0.00021186    0.00026963   -0.00016420
     atom   44 type  1   force =     0.00035371   -0.00001136    0.00004228
     atom   45 type  1   force =     0.00028568    0.00020643    0.00018171
     atom   46 type  1   force =     0.00017761    0.00047141    0.00029955
     atom   47 type  1   force =     0.00012527   -0.00005051    0.00016622
     atom   48 type  3   force =    -0.00069346   -0.00003569   -0.00093112
     atom   49 type  4   force =     0.00090341    0.00055794    0.00010728
     atom   50 type  4   force =    -0.00393445   -0.00518907   -0.00668332
     atom   51 type  4   force =    -0.00032009    0.00072912   -0.00025783
     atom   52 type  3   force =    -0.00094508   -0.00067782    0.00955885
     atom   53 type  5   force =     0.00522331    0.00647575   -0.00344621
     atom   54 type  4   force =    -0.00106674   -0.00145673   -0.00075667
     atom   55 type  1   force =    -0.00006079   -0.00023010   -0.00038904

     Total force =     0.367639     Total SCF correction =     0.000643
  @ DRIVER MODE: Message from server: STATUS
  @ DRIVER MODE: Message from server: GETFORCE
  @ DRIVER MODE: Returning v,forces,stress,ensemble

     Writing output data file ./calc.save/
  @ DRIVER MODE: Message from server: EXIT
  @ DRIVE MODE: Exiting

     General routines

     Parallel routines

   This run was terminated on:   0:12:45  27Sep2021

   JOB DONE.