     Program PWSCF v.6.7GPU starts on 16Sep2021 at  1:47:49

     R & G space division:  proc/nbgrp/npool/nimage =      10
     Reading input from /storage/home/hcoda1/3/ntian30/research/carbon/CxH_vib/H2O_calc/ads_slab/CH2NHNH2O_a/out_0032/pw.inp
Warning: card &CELL ignored
Warning: card   CELL_DYNAMICS='IPI', ignored
Warning: card / ignored

     Current dimensions of program PWSCF are:
     Max number of different atomic species (ntypx) = 10
     Max number of k-points (npk) =  40000
     Max angular momentum in pseudopotentials (lmaxx) =  3
     Presently no symmetry can be used with electric field

     Message from routine cell_base_init:
     DEPRECATED: use true lattice parameter, not A to a.u. conversion factor

     IMPORTANT: XC functional enforced from input :
     Exchange-correlation= BEEF-VDW
                           (   1   4  43  14   2   0   0)
     Any further DFT definition will be discarded
     Please, verify this is what you really want

  @ DRIVER MODE: Connecting to
 qe_1139763_2852610.sched-torque.pace.gatech.edumw4eoxmf_scratch
  using UNIX socket
  @ DRIVER MODE: Message from server: STATUS
  @ DRIVER MODE: Message from server: INIT
  @ DRIVER MODE: Receiving replica           0          -1
  @ DRIVER MODE: Receiving encoded integer          25
  @ DRIVER MODE:  SCF:  T  FORCE:  T  STRESS:  F  VC:  F  ENSEMBLE:  F
  @ DRIVER MODE:  SCF:  T  FORCE:  T  STRESS:  F  VC:  F  ENSEMBLE:  F

     Using Slab Decomposition

     bravais-lattice index     =            0
     lattice parameter (alat)  =       1.8897  a.u.
     unit-cell volume          =    6658.9804 (a.u.)^3
     number of atoms/cell      =           56
     number of atomic types    =            5
     number of electrons       =       403.00
     number of Kohn-Sham states=          211
     kinetic-energy cutoff     =      29.3995  Ry
     charge density cutoff     =     293.9946  Ry
     scf convergence threshold =      7.3E-08
     mixing beta               =       0.0500
     number of iterations used =            8  plain     mixing
     Exchange-correlation= BEEF-VDW
                           (   1   4  43  14   2   0   0)

     celldm(1)=   1.889726  celldm(2)=   0.000000  celldm(3)=   0.000000
     celldm(4)=   0.000000  celldm(5)=   0.000000  celldm(6)=   0.000000

     crystal axes: (cart. coord. in units of alat)
               a(1) = (   6.579727   0.000000   0.000000 )
               a(2) = (  -0.000775   5.961596   0.000000 )
               a(3) = (   0.000000   0.000000  25.155947 )

     reciprocal axes: (cart. coord. in units 2 pi/alat)
               b(1) = (  0.151982  0.000020  0.000000 )
               b(2) = (  0.000000  0.167740  0.000000 )
               b(3) = (  0.000000  0.000000  0.039752 )

     PseudoPot. # 1 for Ti read from file:
     /storage/coda1/p-amedford6/0/shared/rich_project_chbe-medford/medford-share/data/pseudos_module/espresso/nninc/pbe/van/Ti.UPF
     MD5 check sum: 8e4df49b7f0d34bbd5052bf3f5ea0213
     Pseudo is Ultrasoft, Zval = 12.0
     Generated by new atomic code, or converted to UPF format
     Using radial grid of  851 points,  6 beta functions with:
                l(1) =   0
                l(2) =   0
                l(3) =   1
                l(4) =   1
                l(5) =   2
                l(6) =   2
     Q(r) pseudized with  8 coefficients,  rinner =    1.000   1.000   1.000
                                                       1.000   1.000

     PseudoPot. # 2 for O  read from file:
     /storage/coda1/p-amedford6/0/shared/rich_project_chbe-medford/medford-share/data/pseudos_module/espresso/nninc/pbe/van/O.UPF
     MD5 check sum: 78c19812648e8988a0fe644b0f25305e
     Pseudo is Ultrasoft, Zval =  6.0
     Generated by new atomic code, or converted to UPF format
     Using radial grid of  737 points,  4 beta functions with:
                l(1) =   0
                l(2) =   0
                l(3) =   1
                l(4) =   1
     Q(r) pseudized with  8 coefficients,  rinner =    0.800   0.800   0.800

     PseudoPot. # 3 for H  read from file:
     /storage/coda1/p-amedford6/0/shared/rich_project_chbe-medford/medford-share/data/pseudos_module/espresso/nninc/pbe/van/H.UPF
     MD5 check sum: b5ee9d7bfd3a09ee7748110bda690ff7
     Pseudo is Ultrasoft, Zval =  1.0
     Generated by new atomic code, or converted to UPF format
     Using radial grid of  615 points,  1 beta functions with:
                l(1) =   0
     Q(r) pseudized with  8 coefficients,  rinner =    0.800

     PseudoPot. # 4 for N  read from file:
     /storage/coda1/p-amedford6/0/shared/rich_project_chbe-medford/medford-share/data/pseudos_module/espresso/nninc/pbe/van/N.UPF
     MD5 check sum: 90d10febe142ad51ac9d5be1deb811c4
     Pseudo is Ultrasoft, Zval =  5.0
     Generated by new atomic code, or converted to UPF format
     Using radial grid of  729 points,  4 beta functions with:
                l(1) =   0
                l(2) =   0
                l(3) =   1
                l(4) =   1
     Q(r) pseudized with  8 coefficients,  rinner =    0.800   0.800   0.800

     PseudoPot. # 5 for C  read from file:
     /storage/coda1/p-amedford6/0/shared/rich_project_chbe-medford/medford-share/data/pseudos_module/espresso/nninc/pbe/van/C.UPF
     MD5 check sum: 1a69bf6b8db32088f5b2163dbdb77a27
     Pseudo is Ultrasoft, Zval =  4.0
     Generated by new atomic code, or converted to UPF format
     Using radial grid of  721 points,  4 beta functions with:
                l(1) =   0
                l(2) =   0
                l(3) =   1
                l(4) =   1
     Q(r) pseudized with  8 coefficients,  rinner =    0.800   0.800   0.800

     atomic species   valence    mass     pseudopotential
        Ti1           12.00    47.86700     Ti( 1.00)
        O1             6.00    15.99900     O ( 1.00)
        H1             1.00     1.00800     H ( 1.00)
        N1             5.00    14.00700     N ( 1.00)
        C1             4.00    12.01100     C ( 1.00)

     No symmetry found

   Cartesian axes

     site n.     atom                  positions (alat units)
         1           Ti1 tau(   1) = (   0.0004258   2.9801865   6.0000000  )
         2           Ti1 tau(   2) = (   3.2906075   1.4906267   6.0002472  )
         3           O1  tau(   3) = (   0.0006271   0.0005054   7.9858123  )
         4           O1  tau(   4) = (   3.2906025   0.0005020   7.3038282  )
         5           O1  tau(   5) = (   4.5942328   1.4918067   9.2879030  )
         6           O1  tau(   6) = (   1.9868534   1.4903216   9.2879459  )
         7           Ti1 tau(   7) = (   3.2907910   2.8959150   9.1758416  )
         8           Ti1 tau(   8) = (   0.0015273   1.4827037   9.2680791  )
         9           O1  tau(   9) = (   3.2960012   0.0062018  11.3595187  )
        10           O1  tau(  10) = (   0.0116148   5.9584955  10.6183126  )
        11           O1  tau(  11) = (   1.2731109   1.5057875  12.6314550  )
        12           O1  tau(  12) = (   5.2959999   1.4755877  12.6679080  )
        13           Ti1 tau(  13) = (   0.0553992   2.9538365  12.5526742  )
        14           Ti1 tau(  14) = (   3.3268292   1.5427496  12.5634199  )
        15           O1  tau(  15) = (   0.1371361   5.9015051  14.6217027  )
        16           O1  tau(  16) = (   3.1880369   0.0098958  13.9252199  )
        17           O1  tau(  17) = (   4.6462182   1.4014471  15.8552565  )
        18           O1  tau(  18) = (   2.0822703   1.5558083  16.1249119  )
        19           Ti1 tau(  19) = (   3.3548958   3.0525267  15.8597497  )
        20           Ti1 tau(  20) = (   0.0948755   1.3182250  15.7908873  )
        21           O1  tau(  21) = (   3.2904802   0.0005063   4.7018136  )
        22           O1  tau(  22) = (   0.0722171   0.0319689  17.1393915  )
        23           O1  tau(  23) = (   1.3043587   1.4918075   6.0039043  )
        24           O1  tau(  24) = (   5.2767064   1.4903225   6.0039473  )
        25           Ti1 tau(  25) = (   0.0000382   5.9609847   6.0000000  )
        26           Ti1 tau(  26) = (   3.2902200   4.4714249   6.0002472  )
        27           O1  tau(  27) = (   0.0002396   2.9813036   7.9858123  )
        28           O1  tau(  28) = (   3.2902150   2.9813002   7.3038282  )
        29           O1  tau(  29) = (   4.5938453   4.4726049   9.2879030  )
        30           O1  tau(  30) = (   1.9864658   4.4711199   9.2879459  )
        31           Ti1 tau(  31) = (   3.2891106   5.8743827   9.1763621  )
        32           Ti1 tau(  32) = (   0.0006254   4.4649316   9.2693709  )
        33           O1  tau(  33) = (   3.2982667   2.9897935  11.3544942  )
        34           O1  tau(  34) = (   0.0092240   2.9805883  10.6323155  )
        35           O1  tau(  35) = (   1.2737041   4.4504026  12.6113924  )
        36           O1  tau(  36) = (   5.2903739   4.4874249  12.6576873  )
        37           Ti1 tau(  37) = (   6.5697415   5.9260651  12.4959683  )
        38           Ti1 tau(  38) = (   3.3125242   4.5024033  12.5372123  )
        39           O1  tau(  39) = (   0.0674008   2.9793056  14.8363759  )
        40           O1  tau(  40) = (   3.2999477   2.9756493  13.9369993  )
        41           O1  tau(  41) = (   4.6108370   4.5787535  15.7719701  )
        42           O1  tau(  42) = (   2.0428421   4.3627697  16.1441833  )
        43           Ti1 tau(  43) = (   3.3552955   0.0804576  15.7648105  )
        44           Ti1 tau(  44) = (   6.5672415   4.5273692  15.9765751  )
        45           O1  tau(  45) = (   3.2900926   2.9813045   4.7018136  )
        46           O1  tau(  46) = (   1.3039711   4.4726057   6.0039043  )
        47           O1  tau(  47) = (   5.2763189   4.4711207   6.0039473  )
        48           H1  tau(  48) = (   4.1035413   2.4672077  18.5646977  )
        49           N1  tau(  49) = (   5.6961598   3.2907635  17.7856741  )
        50           C1  tau(  50) = (   6.4968133   2.7471819  18.6454045  )
        51           H1  tau(  51) = (   6.1325458   2.1374441  19.4677963  )
        52           H1  tau(  52) = (   0.9799315   2.9096255  18.5325614  )
        53           N1  tau(  53) = (   4.3509097   3.1788467  17.8642182  )
        54           O1  tau(  54) = (   3.3174094   5.8609012  18.0981057  )
        55           H1  tau(  55) = (   3.6736973   4.9388346  18.2201127  )
        56           H1  tau(  56) = (   2.3597147   5.7972335  18.2603650  )

     number of k points=    10  Fermi-Dirac smearing, width (Ry)=  0.0073
                       cart. coord. in units 2pi/alat
        k(    1) = (   0.0000000   0.0000000   0.0000000), wk =   0.1250000
        k(    2) = (   0.0000000   0.0419351   0.0000000), wk =   0.2500000
        k(    3) = (   0.0000000  -0.0838702   0.0000000), wk =   0.1250000
        k(    4) = (   0.0379955   0.0000049   0.0000000), wk =   0.2500000
        k(    5) = (   0.0379955   0.0419400   0.0000000), wk =   0.2500000
        k(    6) = (   0.0379955  -0.0838652   0.0000000), wk =   0.2500000
        k(    7) = (   0.0379955  -0.0419301   0.0000000), wk =   0.2500000
        k(    8) = (  -0.0759910  -0.0000099   0.0000000), wk =   0.1250000
        k(    9) = (  -0.0759910   0.0419252   0.0000000), wk =   0.2500000
        k(   10) = (  -0.0759910  -0.0838800   0.0000000), wk =   0.1250000

     Initial potential from superposition of free atoms

     starting charge  386.99914, renormalised to  403.00000

     negative rho (up, down):  1.703E-02 0.000E+00

     %%%%%%%%%%%%%%%%%%%%%%%%%%%%%%%%%%%%%%%%%%%%%%%%%%%%%%%%%%%%%%%%%%%%%%%%
     %                                                                      %
     % You are using vdW-DF, which was implemented by the Thonhauser group. %
     % Please cite the following two papers that made this development      %
     % possible and the two reviews that describe the various versions:     %
     %                                                                      %
     %   T. Thonhauser et al., PRL 115, 136402 (2015).                      %
     %   T. Thonhauser et al., PRB 76, 125112 (2007).                       %
     %   K. Berland et al., Rep. Prog. Phys. 78, 066501 (2015).             %
     %   D.C. Langreth et al., J. Phys.: Condens. Matter 21, 084203 (2009). %
     %                                                                      %
     %                                                                      %
     % If you are calculating the stress with vdW-DF, please also cite:     %
     %                                                                      %
     %   R. Sabatini et al., J. Phys.: Condens. Matter 24, 424209 (2012).   %
     %                                                                      %
     %%%%%%%%%%%%%%%%%%%%%%%%%%%%%%%%%%%%%%%%%%%%%%%%%%%%%%%%%%%%%%%%%%%%%%%%

     Adding external electric field

     Computed dipole along edir(3) :
        Dipole              -12.3736 Ry au,        -31.4507 Debye
        Dipole field         -0.0234 Ry au,

        Potential amp.        2.1646 Ry
        Total length         46.3494 bohr

     Starting wfcs are  305 atomic wfcs
  @ DRIVER MODE: Message from server: STATUS
  @ DRIVER MODE: Message from server: POSDATA
  @ DRIVER MODE: Reading and sharing cell
  @ DRIVER MODE: Reading and sharing positions
  @ DRIVER MODE: Received positions

     Self-consistent Calculation

     iteration #  1     ecut=    29.40 Ry     beta= 0.05
     Davidson diagonalization with overlap
     c_bands:  4 eigenvalues not converged
     c_bands:  3 eigenvalues not converged
     c_bands:  3 eigenvalues not converged
     c_bands:  1 eigenvalues not converged
     c_bands:  1 eigenvalues not converged
     c_bands:  4 eigenvalues not converged
     c_bands:  3 eigenvalues not converged
     ethr =  1.00E-05,  avg # of iterations = 27.4

[...]

     total energy              =   -2355.29569253 Ry
     estimated scf accuracy    <    7010.94844569 Ry

     iteration #  2     ecut=    29.40 Ry     beta= 0.05
     Davidson diagonalization with overlap
     ethr =  1.00E-02,  avg # of iterations = 24.7

[...]

     iteration # 40     ecut=    29.40 Ry     beta= 0.05
     Davidson diagonalization with overlap
     c_bands:  1 eigenvalues not converged
     ethr =  2.71E-06,  avg # of iterations = 14.7

[...]

     total energy              =   -2973.97634025 Ry
     estimated scf accuracy    <       0.00000012 Ry

     iteration # 60     ecut=    29.40 Ry     beta= 0.05
     Davidson diagonalization with overlap
     ethr =  2.90E-11,  avg # of iterations = 11.2

     negative rho (up, down):  1.700E-02 0.000E+00

     Adding external electric field

     Computed dipole along edir(3) :
        Dipole                0.9033 Ry au,          2.2961 Debye
        Dipole field          0.0017 Ry au,

        Potential amp.       -0.1580 Ry
        Total length         46.3494 bohr

     End of self-consistent calculation

          k = 0.0000 0.0000 0.0000 ( 18029 PWs)   bands (ev):

   -55.6391 -55.6051 -55.5213 -55.4855 -55.4786 -55.4657 -55.4438 -55.4319
   -55.4268 -55.4077 -55.3933 -55.3927 -55.3598 -55.2400 -54.6254 -54.5914
   -32.1249 -32.0272 -31.9731 -31.9676 -31.9585 -31.9302 -31.9166 -31.8996
   -31.8848 -31.7918 -31.7862 -31.7799 -31.7521 -31.7467 -31.7414 -31.7073
   -31.6966 -31.6839 -31.6788 -31.6704 -31.6639 -31.6613 -31.6467 -31.6436
   -31.6371 -31.6282 -31.6259 -31.6209 -31.6155 -31.6097 -31.6040 -31.5955
   -31.5854 -31.5834 -31.5827 -31.5806 -31.5749 -31.5396 -31.5331 -31.5172
   -31.4412 -31.3682 -31.0324 -30.9439 -30.9215 -30.8494 -30.7629 -30.6516
   -18.4492 -17.8238 -16.3026 -16.1122 -15.8871 -15.7850 -15.7448 -15.5712
   -15.4409 -15.3982 -15.2722 -15.2063 -15.1825 -15.1636 -15.1496 -15.1174
   -15.0939 -15.0698 -15.0683 -15.0491 -15.0248 -15.0021 -14.9739 -14.9558
   -14.9138 -14.7883 -14.7807 -14.7693 -14.7308 -14.6933 -14.2925 -13.1258
   -13.0092 -12.3669  -7.9264  -6.2170  -5.4470  -4.8349  -3.6739  -3.5819
    -3.5494  -3.5270  -3.4540  -3.3384  -3.2361  -3.0383  -2.9281  -2.8991
    -2.8835  -2.7919  -2.7097  -2.6689  -2.5658  -2.5335  -2.5229  -2.4790
    -2.4235  -2.4104  -2.3789  -2.3657  -2.3298  -2.1970  -2.1775  -2.1394
    -2.0278  -2.0109  -2.0038  -1.9628  -1.9571  -1.9273  -1.9175  -1.8987
    -1.8822  -1.8704  -1.8028  -1.7229  -1.6884  -1.6388  -1.5842  -1.5803
    -1.2769  -1.2600  -1.1937  -1.1610  -1.0905  -1.0591  -1.0427  -1.0280
    -0.9985  -0.8980  -0.8068  -0.7878  -0.7249  -0.6638  -0.5639  -0.5496
    -0.4487  -0.3994  -0.3943  -0.3815  -0.3401  -0.2898  -0.2335  -0.1749
    -0.1264  -0.0453   0.0097   0.0200   0.0604   0.1046   0.1337   0.1920
     0.2548   0.2821   0.3152   0.3302   0.3717   0.4323   0.4543   0.4698
     0.5503   0.5873   0.6099   0.7077   0.7175   0.7573   0.8278   1.0123
     1.0583   1.1972   1.3358   1.3991   1.4650   1.5912   1.8830   1.9693
     2.0154   3.4509   3.5848   3.6057   3.6411   3.7130   3.7589   3.9326
     4.0280   4.0508   4.1115

[...]

          k = 0.0380-0.0419 0.0000 ( 17876 PWs)   bands (ev):

[...]

          k =-0.0760-0.0000 0.0000 ( 17886 PWs)   bands (ev):

[...]

          k =-0.0760-0.0839 0.0000 ( 17948 PWs)   bands (ev):

   -55.6221 -55.6220 -55.5066 -55.4998 -55.4633 -55.4593 -55.4487 -55.4483
   -55.4128 -55.4069 -55.4053 -55.3781 -55.3754 -55.2418 -54.6084 -54.6082
   -31.9402 -31.9401 -31.9157 -31.9157 -31.8842 -31.8504 -31.8216 -31.8025
   -31.7918 -31.7768 -31.7676 -31.7553 -31.7509 -31.7419 -31.7416 -31.7349
   -31.7344 -31.7232 -31.7194 -31.7120 -31.6861 -31.6840 -31.6788 -31.6726
   -31.6579 -31.6556 -31.6547 -31.6408 -31.6341 -31.6333 -31.6299 -31.6295
   -31.6256 -31.6231 -31.6228 -31.6178 -31.6165 -31.6051 -31.5884 -31.5408
   -31.4507 -31.4480 -30.9343 -30.9341 -30.8453 -30.8451 -30.8062 -30.8061
   -18.4412 -17.8254 -15.8525 -15.6093 -15.5957 -15.5595 -15.5407 -15.4214
   -15.3765 -15.3722 -15.3512 -15.2963 -15.2609 -15.2240 -15.1924 -15.1745
   -15.1510 -15.1403 -15.0985 -15.0950 -15.0879 -15.0659 -15.0250 -15.0141
   -14.9896 -14.9692 -14.9647 -14.9525 -14.9209 -14.7511 -14.6403 -13.1110
   -13.1109 -12.3825  -7.8873  -6.2023  -5.5051  -4.7571  -3.1736  -3.0690
    -3.0239  -2.8024  -2.7579  -2.7411  -2.7038  -2.6437  -2.5909  -2.5738
    -2.5550  -2.5273  -2.5174  -2.4647  -2.4389  -2.4131  -2.3887  -2.3726
    -2.3634  -2.3497  -2.3237  -2.3043  -2.2827  -2.2730  -2.2493  -2.2382
    -2.2160  -2.2091  -2.1940  -2.1722  -2.0844  -2.0002  -1.9010  -1.8402
    -1.7967  -1.7960  -1.7660  -1.7372  -1.7091  -1.7042  -1.6647  -1.6361
    -1.5672  -1.5064  -1.3217  -1.3079  -1.2634  -1.1792  -1.1774  -1.1280
    -1.1210  -1.0702  -1.0424  -0.9957  -0.9462  -0.9138  -0.8253  -0.6719
    -0.6230  -0.6036  -0.5977  -0.5825  -0.5417  -0.5278  -0.4751  -0.4575
    -0.4411  -0.3739  -0.3443  -0.3400  -0.2898  -0.2695  -0.1562  -0.0553
    -0.0332   0.0196   0.0603   0.1796   0.2958   0.3706   0.4618   0.4771
     0.4951   0.5482   0.6566   0.6662   0.7115   0.7735   0.8388   0.8450
     0.8756   0.9391   0.9513   0.9881   1.7623   1.7637   1.8311   1.8355
     1.8359   3.8596   3.9001   3.9504   3.9567   3.9809   4.0309   4.0382
     4.0685   4.1195   4.1365

     the Fermi energy is     3.4833 ev

!    total energy              =   -2973.97640616 Ry
     estimated scf accuracy    <       0.00000005 Ry
     smearing contrib. (-TS)   =      -0.01978466 Ry
     internal energy E=F+TS    =   -2973.95662150 Ry

     The total energy is F=E-TS. E is the sum of the following terms:
     one-electron contribution =  -24367.80831774 Ry
     hartree contribution      =   12278.42777816 Ry
     xc contribution           =    -494.13905871 Ry
     ewald contribution        =    9609.56143684 Ry
     electric field correction =       0.00153996 Ry

     convergence has been achieved in  60 iterations

     Forces acting on atoms (cartesian axes, Ry/au):

     atom    1 type  1   force =     0.00016317   -0.00030892    0.09442825
     atom    2 type  1   force =    -0.00007836   -0.00076621   -0.17587063
     atom    3 type  2   force =     0.00006025   -0.00019241   -0.02182403
     atom    4 type  2   force =     0.00003955   -0.00134171    0.05331930
     atom    5 type  2   force =    -0.00869661   -0.00017981    0.00367291
     atom    6 type  2   force =     0.01036745    0.00047104    0.00302587
     atom    7 type  1   force =    -0.00045128    0.00081809   -0.00105825
     atom    8 type  1   force =     0.00044958    0.00749977    0.00862135
     atom    9 type  2   force =     0.00046993    0.00016162    0.00008943
     atom   10 type  2   force =    -0.00262675    0.00131908   -0.01724165
     atom   11 type  2   force =    -0.00006998    0.00008920   -0.00039929
     atom   12 type  2   force =     0.00028522    0.00007776   -0.00007187
     atom   13 type  1   force =    -0.00042106   -0.00037643   -0.00019985
     atom   14 type  1   force =     0.00036345    0.00001370    0.00016373
     atom   15 type  2   force =     0.00010267   -0.00007084   -0.00036532
     atom   16 type  2   force =     0.00021068    0.00019133    0.00012564
     atom   17 type  2   force =    -0.00018341    0.00003410    0.00020190
     atom   18 type  2   force =     0.00022024   -0.00002700   -0.00006741
     atom   19 type  1   force =    -0.00009323    0.00034471   -0.00074733
     atom   20 type  1   force =     0.00030003   -0.00015899    0.00031271
     atom   21 type  2   force =     0.00006597   -0.00000309    0.10325264
     atom   22 type  2   force =    -0.00028089   -0.00058493   -0.00025318
     atom   23 type  2   force =    -0.07154272   -0.00011172   -0.02735401
     atom   24 type  2   force =     0.07148209    0.00037321   -0.02736932
     atom   25 type  1   force =     0.00004373   -0.00021201    0.09441755
     atom   26 type  1   force =    -0.00013277   -0.00029036   -0.17598728
     atom   27 type  2   force =     0.00003936   -0.00019010   -0.02072223
     atom   28 type  2   force =     0.00009526   -0.00112735    0.05370824
     atom   29 type  2   force =    -0.00878106   -0.00002276    0.00344062
     atom   30 type  2   force =     0.01029783    0.00036394    0.00286860
     atom   31 type  1   force =    -0.00032249    0.00465762    0.00187880
     atom   32 type  1   force =     0.00043387   -0.00853148    0.00856932
     atom   33 type  2   force =    -0.00003295    0.00002831    0.00002888
     atom   34 type  2   force =    -0.00403256   -0.00112172   -0.01184247
     atom   35 type  2   force =     0.00015850    0.00007309    0.00034262
     atom   36 type  2   force =     0.00051726    0.00005385   -0.00021632
     atom   37 type  1   force =     0.00062571   -0.00018369    0.00002555
     atom   38 type  1   force =     0.00023420   -0.00010537   -0.00015767
     atom   39 type  2   force =    -0.00013671   -0.00005294   -0.00025756
     atom   40 type  2   force =     0.00044593    0.00006576    0.00073135
     atom   41 type  2   force =    -0.00013366    0.00056888   -0.00000436
     atom   42 type  2   force =     0.00041878    0.00008817   -0.00000892
     atom   43 type  1   force =    -0.00029459   -0.00019087   -0.00026230
     atom   44 type  1   force =     0.00045808    0.00061608    0.00095015
     atom   45 type  2   force =     0.00005571   -0.00000027    0.10332312
     atom   46 type  2   force =    -0.07153607   -0.00004308   -0.02734547
     atom   47 type  2   force =     0.07148001    0.00035220   -0.02736844
     atom   48 type  3   force =     0.00261457    0.00175860   -0.00235073
     atom   49 type  4   force =     0.00855670    0.00034648   -0.00005315
     atom   50 type  5   force =     0.00329500   -0.00202035   -0.00039160
     atom   51 type  3   force =    -0.00059922    0.00050425    0.00081433
     atom   52 type  3   force =    -0.00021380   -0.00028173    0.00016046
     atom   53 type  4   force =    -0.01461890   -0.00216879    0.00138181
     atom   54 type  2   force =     0.00054428   -0.00108778    0.00080211
     atom   55 type  3   force =    -0.00037912    0.00087355   -0.00057026
     atom   56 type  3   force =     0.00076313    0.00000836   -0.00029636

     Total force =     0.364240     Total SCF correction =     0.000659
  @ DRIVER MODE: Message from server: STATUS
  @ DRIVER MODE: Message from server: GETFORCE
  @ DRIVER MODE: Returning v,forces,stress,ensemble

     Writing output data file ./calc.save/
  @ DRIVER MODE: Message from server: EXIT
  @ DRIVE MODE: Exiting

     General routines

     Parallel routines

   This run was terminated on:   2: 4:59  16Sep2021

   JOB DONE.