     Program PWSCF v.6.7GPU starts on 24Sep2021 at  6:49: 2

     R & G space division:  proc/nbgrp/npool/nimage =       8
     Reading input from /storage/home/hcoda1/3/ntian30/research/carbon/CxH_vib/H2O_calc/ads_slab/CH3NHHHO_a/out_0049/pw.inp
Warning: card &CELL ignored
Warning: card   CELL_DYNAMICS='IPI', ignored
Warning: card / ignored

     Current dimensions of program PWSCF are:
     Max number of different atomic species (ntypx) = 10
     Max number of k-points (npk) =  40000
     Max angular momentum in pseudopotentials (lmaxx) =  3
     Presently no symmetry can be used with electric field

     Message from routine cell_base_init:
     DEPRECATED: use true lattice parameter, not A to a.u. conversion factor

     IMPORTANT: XC functional enforced from input :
     Exchange-correlation= BEEF-VDW
                           (   1   4  43  14   2   0   0)
     Any further DFT definition will be discarded
     Please, verify this is what you really want

  @ DRIVER MODE: Connecting to
 qe_1139763_2947311.sched-torque.pace.gatech.eduew0fy514_scratch
  using UNIX socket
  @ DRIVER MODE: Message from server: STATUS
  @ DRIVER MODE: Message from server: INIT
  @ DRIVER MODE: Receiving replica           0          -1
  @ DRIVER MODE: Receiving encoded integer          25
  @ DRIVER MODE:  SCF:  T  FORCE:  T  STRESS:  F  VC:  F  ENSEMBLE:  F
  @ DRIVER MODE:  SCF:  T  FORCE:  T  STRESS:  F  VC:  F  ENSEMBLE:  F

     Using Slab Decomposition

     bravais-lattice index     =            0
     lattice parameter (alat)  =       1.8897  a.u.
     unit-cell volume          =    6658.9804 (a.u.)^3
     number of atoms/cell      =           56
     number of atomic types    =            5
     number of electrons       =       399.00
     number of Kohn-Sham states=          209
     kinetic-energy cutoff     =      29.3995  Ry
     charge density cutoff     =     293.9946  Ry
     scf convergence threshold =      7.3E-08
     mixing beta               =       0.0500
     number of iterations used =            8  plain     mixing
     Exchange-correlation= BEEF-VDW
                           (   1   4  43  14   2   0   0)

     celldm(1)=   1.889726  celldm(2)=   0.000000  celldm(3)=   0.000000
     celldm(4)=   0.000000  celldm(5)=   0.000000  celldm(6)=   0.000000

     crystal axes: (cart. coord. in units of alat)
               a(1) = (   6.579727   0.000000   0.000000 )
               a(2) = (  -0.000775   5.961596   0.000000 )
               a(3) = (   0.000000   0.000000  25.155947 )

     reciprocal axes: (cart. coord. in units 2 pi/alat)
               b(1) = (  0.151982  0.000020  0.000000 )
               b(2) = (  0.000000  0.167740  0.000000 )
               b(3) = (  0.000000  0.000000  0.039752 )

     PseudoPot. # 1 for Ti read from file:
     /storage/coda1/p-amedford6/0/shared/rich_project_chbe-medford/medford-share/data/pseudos_module/espresso/nninc/pbe/van/Ti.UPF
     MD5 check sum: 8e4df49b7f0d34bbd5052bf3f5ea0213
     Pseudo is Ultrasoft, Zval = 12.0
     Generated by new atomic code, or converted to UPF format
     Using radial grid of  851 points,  6 beta functions with:
                l(1) =   0
                l(2) =   0
                l(3) =   1
                l(4) =   1
                l(5) =   2
                l(6) =   2
     Q(r) pseudized with  8 coefficients,  rinner =    1.000   1.000   1.000
                                                       1.000   1.000

     PseudoPot. # 2 for O  read from file:
     /storage/coda1/p-amedford6/0/shared/rich_project_chbe-medford/medford-share/data/pseudos_module/espresso/nninc/pbe/van/O.UPF
     MD5 check sum: 78c19812648e8988a0fe644b0f25305e
     Pseudo is Ultrasoft, Zval =  6.0
     Generated by new atomic code, or converted to UPF format
     Using radial grid of  737 points,  4 beta functions with:
                l(1) =   0
                l(2) =   0
                l(3) =   1
                l(4) =   1
     Q(r) pseudized with  8 coefficients,  rinner =    0.800   0.800   0.800

     PseudoPot. # 3 for N  read from file:
     /storage/coda1/p-amedford6/0/shared/rich_project_chbe-medford/medford-share/data/pseudos_module/espresso/nninc/pbe/van/N.UPF
     MD5 check sum: 90d10febe142ad51ac9d5be1deb811c4
     Pseudo is Ultrasoft, Zval =  5.0
     Generated by new atomic code, or converted to UPF format
     Using radial grid of  729 points,  4 beta functions with:
                l(1) =   0
                l(2) =   0
                l(3) =   1
                l(4) =   1
     Q(r) pseudized with  8 coefficients,  rinner =    0.800   0.800   0.800

     PseudoPot. # 4 for C  read from file:
     /storage/coda1/p-amedford6/0/shared/rich_project_chbe-medford/medford-share/data/pseudos_module/espresso/nninc/pbe/van/C.UPF
     MD5 check sum: 1a69bf6b8db32088f5b2163dbdb77a27
     Pseudo is Ultrasoft, Zval =  4.0
     Generated by new atomic code, or converted to UPF format
     Using radial grid of  721 points,  4 beta functions with:
                l(1) =   0
                l(2) =   0
                l(3) =   1
                l(4) =   1
     Q(r) pseudized with  8 coefficients,  rinner =    0.800   0.800   0.800

     PseudoPot. # 5 for H  read from file:
     /storage/coda1/p-amedford6/0/shared/rich_project_chbe-medford/medford-share/data/pseudos_module/espresso/nninc/pbe/van/H.UPF
     MD5 check sum: b5ee9d7bfd3a09ee7748110bda690ff7
     Pseudo is Ultrasoft, Zval =  1.0
     Generated by new atomic code, or converted to UPF format
     Using radial grid of  615 points,  1 beta functions with:
                l(1) =   0
     Q(r) pseudized with  8 coefficients,  rinner =    0.800

     atomic species   valence    mass     pseudopotential
        Ti1           12.00    47.86700     Ti( 1.00)
        O1             6.00    15.99900     O ( 1.00)
        N1             5.00    14.00700     N ( 1.00)
        C1             4.00    12.01100     C ( 1.00)
        H1             1.00     1.00800     H ( 1.00)

     No symmetry found

   Cartesian axes

     site n.     atom                  positions (alat units)
         1           Ti1 tau(   1) = (   0.0004258   2.9801865   6.0000000  )
         2           Ti1 tau(   2) = (   3.2906075   1.4906267   6.0002472  )
         3           O1  tau(   3) = (   0.0006271   0.0005054   7.9858123  )
         4           O1  tau(   4) = (   3.2906025   0.0005020   7.3038282  )
         5           O1  tau(   5) = (   4.5942328   1.4918067   9.2879030  )
         6           O1  tau(   6) = (   1.9868534   1.4903216   9.2879459  )
         7           Ti1 tau(   7) = (   3.2907910   2.8959150   9.1758416  )
         8           Ti1 tau(   8) = (   0.0015273   1.4827037   9.2680791  )
         9           O1  tau(   9) = (   3.2949530   5.9481847  11.3666340  )
        10           O1  tau(  10) = (   0.0116148   5.9584955  10.6183126  )
        11           O1  tau(  11) = (   1.2732546   1.4916747  12.6876809  )
        12           O1  tau(  12) = (   5.3119445   1.4892451  12.6851550  )
        13           Ti1 tau(  13) = (   6.5688325   2.9465269  12.5174317  )
        14           Ti1 tau(  14) = (   3.2996026   1.2975375  12.7241829  )
        15           O1  tau(  15) = (   0.0172205   5.8793003  14.6619373  )
        16           O1  tau(  16) = (   3.2917661   0.0702926  14.0149596  )
        17           O1  tau(  17) = (   4.5643074   1.5920826  16.1346482  )
        18           O1  tau(  18) = (   2.0131957   1.5841813  16.0575481  )
        19           Ti1 tau(  19) = (   3.2662748   3.0407108  15.6947786  )
        20           Ti1 tau(  20) = (   0.0618610   1.3206105  15.7998127  )
        21           O1  tau(  21) = (   3.2904802   0.0005063   4.7018136  )
        22           O1  tau(  22) = (   0.0233933   0.1570098  17.1842078  )
        23           O1  tau(  23) = (   1.3043587   1.4918075   6.0039043  )
        24           O1  tau(  24) = (   5.2767064   1.4903225   6.0039473  )
        25           Ti1 tau(  25) = (   0.0000382   5.9609847   6.0000000  )
        26           Ti1 tau(  26) = (   3.2902200   4.4714249   6.0002472  )
        27           O1  tau(  27) = (   0.0002396   2.9813036   7.9858123  )
        28           O1  tau(  28) = (   3.2902150   2.9813002   7.3038282  )
        29           O1  tau(  29) = (   4.5938453   4.4726049   9.2879030  )
        30           O1  tau(  30) = (   1.9864658   4.4711199   9.2879459  )
        31           Ti1 tau(  31) = (   3.2891106   5.8743827   9.1763621  )
        32           Ti1 tau(  32) = (   0.0006254   4.4649316   9.2693709  )
        33           O1  tau(  33) = (   3.2948289   2.9949798  11.3176834  )
        34           O1  tau(  34) = (   0.0092240   2.9805883  10.6323155  )
        35           O1  tau(  35) = (   1.2828652   4.4571597  12.6432593  )
        36           O1  tau(  36) = (   5.3079144   4.4605214  12.6419564  )
        37           Ti1 tau(  37) = (   0.0266940   5.9154698  12.5044250  )
        38           Ti1 tau(  38) = (   3.3008436   4.3760658  12.4353554  )
        39           O1  tau(  39) = (   6.5507285   3.0461080  14.9005035  )
        40           O1  tau(  40) = (   3.2938476   3.0131494  13.9233183  )
        41           O1  tau(  41) = (   4.5350990   4.4864192  16.1518712  )
        42           O1  tau(  42) = (   1.9883536   4.4285065  16.1690201  )
        43           Ti1 tau(  43) = (   3.3916644   0.0784854  16.2809578  )
        44           Ti1 tau(  44) = (   0.0590441   4.5159846  16.0209683  )
        45           O1  tau(  45) = (   3.2900926   2.9813045   4.7018136  )
        46           O1  tau(  46) = (   1.3039711   4.4726057   6.0039043  )
        47           O1  tau(  47) = (   5.2763189   4.4711207   6.0039473  )
        48           N1  tau(  48) = (   6.2706434   3.3837210  18.0754458  )
        49           C1  tau(  49) = (   0.7642246   3.1223808  19.0622891  )
        50           H1  tau(  50) = (   1.3158356   4.0410886  19.2409436  )
        51           H1  tau(  51) = (   0.3597117   2.7583523  20.0089400  )
        52           H1  tau(  52) = (   1.4517744   2.3810259  18.6668870  )
        53           H1  tau(  53) = (   5.6745199   4.1349376  18.4206214  )
        54           H1  tau(  54) = (   5.6587021   2.5696541  18.0151127  )
        55           O1  tau(  55) = (   3.1972372   0.0910451  18.1323504  )
        56           H1  tau(  56) = (   2.2667176   0.1080423  18.4377142  )

     number of k points=    10  Fermi-Dirac smearing, width (Ry)=  0.0073
                       cart. coord. in units 2pi/alat
        k(    1) = (   0.0000000   0.0000000   0.0000000), wk =   0.1250000
        k(    2) = (   0.0000000   0.0419351   0.0000000), wk =   0.2500000
        k(    3) = (   0.0000000  -0.0838702   0.0000000), wk =   0.1250000
        k(    4) = (   0.0379955   0.0000049   0.0000000), wk =   0.2500000
        k(    5) = (   0.0379955   0.0419400   0.0000000), wk =   0.2500000
        k(    6) = (   0.0379955  -0.0838652   0.0000000), wk =   0.2500000
        k(    7) = (   0.0379955  -0.0419301   0.0000000), wk =   0.2500000
        k(    8) = (  -0.0759910  -0.0000099   0.0000000), wk =   0.1250000
        k(    9) = (  -0.0759910   0.0419252   0.0000000), wk =   0.2500000
        k(   10) = (  -0.0759910  -0.0838800   0.0000000), wk =   0.1250000

     Initial potential from superposition of free atoms

     starting charge  382.99914, renormalised to  399.00000

     negative rho (up, down):  1.588E-02 0.000E+00

     %%%%%%%%%%%%%%%%%%%%%%%%%%%%%%%%%%%%%%%%%%%%%%%%%%%%%%%%%%%%%%%%%%%%%%%%
     %                                                                      %
     % You are using vdW-DF, which was implemented by the Thonhauser group. %
     % Please cite the following two papers that made this development      %
     % possible and the two reviews that describe the various versions:     %
     %                                                                      %
     %   T. Thonhauser et al., PRL 115, 136402 (2015).                      %
     %   T. Thonhauser et al., PRB 76, 125112 (2007).                       %
     %   K. Berland et al., Rep. Prog. Phys. 78, 066501 (2015).             %
     %   D.C. Langreth et al., J. Phys.: Condens. Matter 21, 084203 (2009). %
     %                                                                      %
     %                                                                      %
     % If you are calculating the stress with vdW-DF, please also cite:     %
     %                                                                      %
     %   R. Sabatini et al., J. Phys.: Condens. Matter 24, 424209 (2012).   %
     %                                                                      %
     %%%%%%%%%%%%%%%%%%%%%%%%%%%%%%%%%%%%%%%%%%%%%%%%%%%%%%%%%%%%%%%%%%%%%%%%

     Adding external electric field

     Computed dipole along edir(3) :
        Dipole              -10.6962 Ry au,        -27.1870 Debye
        Dipole field         -0.0202 Ry au,

        Potential amp.        1.8711 Ry
        Total length         46.3494 bohr

     Starting wfcs are  302 atomic wfcs
  @ DRIVER MODE: Message from server: STATUS
  @ DRIVER MODE: Message from server: POSDATA
  @ DRIVER MODE: Reading and sharing cell
  @ DRIVER MODE: Reading and sharing positions
  @ DRIVER MODE: Received positions

     Self-consistent Calculation

     iteration #  1     ecut=    29.40 Ry     beta= 0.05
     Davidson diagonalization with overlap
     c_bands:  3 eigenvalues not converged
     c_bands:  2 eigenvalues not converged
     c_bands:  2 eigenvalues not converged
     c_bands:  5 eigenvalues not converged
     c_bands:  2 eigenvalues not converged
     c_bands:  5 eigenvalues not converged
     c_bands:  4 eigenvalues not converged
     c_bands:  3 eigenvalues not converged
     ethr =  1.00E-05,  avg # of iterations = 21.6

[...]

     total energy              =   -2438.26427567 Ry
     estimated scf accuracy    <    5770.52167062 Ry

     iteration #  2     ecut=    29.40 Ry     beta= 0.05
     Davidson diagonalization with overlap
     ethr =  1.00E-02,  avg # of iterations = 23.5

[...]

     iteration # 74     ecut=    29.40 Ry     beta= 0.05
     Davidson diagonalization with overlap
     c_bands:  2 eigenvalues not converged
     ethr =  6.07E-11,  avg # of iterations = 16.2

[...]

     total energy              =   -2955.26278854 Ry
     estimated scf accuracy    <       0.00000015 Ry

     iteration # 83     ecut=    29.40 Ry     beta= 0.05
     Davidson diagonalization with overlap
     ethr =  2.21E-11,  avg # of iterations = 11.1

     negative rho (up, down):  1.647E-02 0.000E+00

     Adding external electric field

     Computed dipole along edir(3) :
        Dipole                0.9753 Ry au,          2.4788 Debye
        Dipole field          0.0018 Ry au,

        Potential amp.       -0.1706 Ry
        Total length         46.3494 bohr

     End of self-consistent calculation

          k = 0.0000 0.0000 0.0000 ( 18029 PWs)   bands (ev):

   -55.6810 -55.6367 -55.6026 -55.5128 -55.5020 -55.4665 -55.4659 -55.4637
   -55.4318 -55.4184 -55.3677 -55.2726 -55.2275 -55.2124 -54.6127 -54.5787
   -32.1221 -32.0186 -32.0125 -31.9881 -31.9688 -31.9549 -31.9275 -31.9016
   -31.8925 -31.8827 -31.8826 -31.7899 -31.7894 -31.7747 -31.7492 -31.7456
   -31.7440 -31.7427 -31.7425 -31.7056 -31.6943 -31.6650 -31.6615 -31.6559
   -31.6504 -31.6443 -31.6360 -31.6060 -31.6045 -31.5982 -31.5929 -31.5897
   -31.5788 -31.5637 -31.5490 -31.5239 -31.4640 -31.4553 -31.4463 -31.4232
   -31.4190 -31.4143 -31.0189 -30.9322 -30.9098 -30.8364 -30.7500 -30.6382
   -16.4615 -16.2920 -16.1460 -15.9784 -15.8392 -15.8106 -15.7688 -15.5991
   -15.5062 -15.4426 -15.2427 -15.2213 -15.1754 -15.1640 -15.1588 -15.1360
   -15.1262 -15.0814 -15.0628 -15.0593 -15.0495 -15.0319 -14.9955 -14.9531
   -14.9098 -14.8889 -14.7765 -14.7201 -14.6795 -14.4680 -14.4017 -13.1112
   -12.9948  -9.9886  -6.0194  -4.5884  -4.0374  -3.7619  -3.6447  -3.5468
    -3.5356  -3.4157  -3.4062  -3.1657  -3.0423  -2.9837  -2.9049  -2.7827
    -2.7510  -2.6788  -2.6391  -2.5880  -2.5688  -2.5323  -2.4921  -2.4484
    -2.4233  -2.3954  -2.3621  -2.3061  -2.2945  -2.1964  -2.1818  -2.1592
    -2.0534  -2.0127  -1.9723  -1.9544  -1.9493  -1.9303  -1.8916  -1.8852
    -1.8654  -1.7873  -1.7181  -1.6718  -1.6376  -1.6097  -1.3315  -1.2466
    -1.2028  -1.1881  -1.0844  -1.0605  -1.0323  -1.0187  -0.9823  -0.9651
    -0.8536  -0.8363  -0.7686  -0.7188  -0.7046  -0.6670  -0.5478  -0.5113
    -0.4598  -0.4205  -0.3702  -0.3526  -0.3479  -0.2531  -0.2265  -0.1919
    -0.0832  -0.0658  -0.0041   0.0811   0.0911   0.1422   0.1661   0.2261
     0.2305   0.2850   0.3149   0.3370   0.3908   0.4228   0.4589   0.4921
     0.5094   0.6117   0.6867   0.6996   0.7989   0.8706   0.9245   1.0287
     1.0964   1.3603   1.4138   1.4377   1.6058   1.9812   2.0266   3.4449
     3.5939   3.6095   3.6846   3.6969   3.7739   3.9345   3.9592   4.0947
     4.1967

[...]

          k = 0.0380-0.0419 0.0000 ( 17876 PWs)   bands (ev):

[...]

          k =-0.0760-0.0000 0.0000 ( 17886 PWs)   bands (ev):

[...]

          k =-0.0760-0.0839 0.0000 ( 17948 PWs)   bands (ev):

   -55.6800 -55.6199 -55.6193 -55.5116 -55.4908 -55.4748 -55.4674 -55.4495
   -55.4477 -55.4121 -55.3741 -55.2678 -55.2285 -55.2171 -54.5962 -54.5951
   -31.9515 -31.9439 -31.9376 -31.9371 -31.9302 -31.9132 -31.9126 -31.8948
   -31.8519 -31.8109 -31.7929 -31.7802 -31.7762 -31.7746 -31.7530 -31.7435
   -31.7398 -31.7391 -31.7289 -31.7251 -31.7176 -31.7165 -31.7016 -31.6777
   -31.6715 -31.6673 -31.6580 -31.6475 -31.6328 -31.6313 -31.6292 -31.6238
   -31.6222 -31.5969 -31.5962 -31.5551 -31.5306 -31.4962 -31.4684 -31.4634
   -31.4487 -31.4184 -30.9229 -30.9221 -30.8324 -30.8310 -30.7936 -30.7928
   -16.4226 -15.9395 -15.8582 -15.7446 -15.6217 -15.6084 -15.4972 -15.4143
   -15.4108 -15.3798 -15.3495 -15.3212 -15.3122 -15.2949 -15.2480 -15.2048
   -15.1695 -15.1418 -15.1398 -15.0940 -15.0869 -15.0754 -15.0630 -15.0407
   -15.0068 -14.9571 -14.9427 -14.9041 -14.7660 -14.6921 -14.5902 -13.0969
   -13.0964  -9.9906  -5.9993  -4.5861  -3.9979  -3.7233  -3.0565  -2.9599
    -2.8482  -2.7239  -2.7157  -2.7006  -2.6426  -2.6118  -2.5856  -2.5443
    -2.4870  -2.4678  -2.4469  -2.4302  -2.4086  -2.3905  -2.3818  -2.3766
    -2.3400  -2.3225  -2.3141  -2.2730  -2.2653  -2.2493  -2.2286  -2.2114
    -2.1807  -2.1764  -2.1468  -2.0958  -2.0458  -1.9720  -1.8793  -1.7981
    -1.7869  -1.7685  -1.7189  -1.7123  -1.6668  -1.6590  -1.6342  -1.5482
    -1.4364  -1.3861  -1.2755  -1.2556  -1.2288  -1.1900  -1.1364  -1.1223
    -1.0768  -1.0461  -0.9854  -0.8856  -0.8550  -0.7992  -0.6864  -0.6492
    -0.6106  -0.5906  -0.5785  -0.5535  -0.5368  -0.4971  -0.4685  -0.4211
    -0.3815  -0.3473  -0.3203  -0.2946  -0.2480  -0.1465  -0.0523  -0.0142
     0.0873   0.1335   0.1759   0.2074   0.2690   0.4038   0.4303   0.5270
     0.5410   0.5702   0.6718   0.6820   0.7835   0.8071   0.8455   0.8864
     0.9111   0.9326   0.9519   1.7755   1.7840   1.8470   1.8471   3.7378
     3.9306   3.9454   3.9617   4.0064   4.0138   4.0405   4.0463   4.1130
     4.1245

     the Fermi energy is     3.4839 ev

!    total energy              =   -2955.26279767 Ry
     estimated scf accuracy    <       0.00000004 Ry
     smearing contrib. (-TS)   =      -0.01952358 Ry
     internal energy E=F+TS    =   -2955.24327409 Ry

     The total energy is F=E-TS. E is the sum of the following terms:
     one-electron contribution =  -23741.47891649 Ry
     hartree contribution      =   11962.85615958 Ry
     xc contribution           =    -489.72880240 Ry
     ewald contribution        =    9313.10649033 Ry
     electric field correction =       0.00179488 Ry

     convergence has been achieved in  83 iterations

     Forces acting on atoms (cartesian axes, Ry/au):

     atom    1 type  1   force =     0.00009653   -0.00029345    0.09410722
     atom    2 type  1   force =    -0.00004055    0.00043141   -0.17542547
     atom    3 type  2   force =     0.00003973   -0.00033198   -0.02109906
     atom    4 type  2   force =     0.00002367   -0.00197736    0.05462414
     atom    5 type  2   force =    -0.00673568   -0.00245334    0.00301488
     atom    6 type  2   force =     0.00833977   -0.00187716    0.00243579
     atom    7 type  1   force =    -0.00017528   -0.00404821    0.00897345
     atom    8 type  1   force =     0.00031590    0.00082441    0.00312243
     atom    9 type  2   force =    -0.00058130    0.00058278   -0.00019071
     atom   10 type  2   force =    -0.00139095    0.00173686   -0.00926191
     atom   11 type  2   force =     0.00003593   -0.00015432    0.00038568
     atom   12 type  2   force =    -0.00005195   -0.00010979   -0.00029612
     atom   13 type  1   force =    -0.00048983   -0.00026108    0.00004880
     atom   14 type  1   force =     0.00000662   -0.00034880   -0.00002905
     atom   15 type  2   force =    -0.00031260   -0.00000997   -0.00011739
     atom   16 type  2   force =     0.00031851   -0.00054565   -0.00044405
     atom   17 type  2   force =     0.00052630   -0.00011435   -0.00077024
     atom   18 type  2   force =    -0.00056718    0.00019399   -0.00017721
     atom   19 type  1   force =     0.00048702   -0.00061112    0.00070989
     atom   20 type  1   force =     0.00051955    0.00041929    0.00027306
     atom   21 type  2   force =     0.00007653    0.00004581    0.10322977
     atom   22 type  2   force =    -0.00042243    0.00036236    0.00043715
     atom   23 type  2   force =    -0.07190183   -0.00018526   -0.02720782
     atom   24 type  2   force =     0.07183202    0.00025282   -0.02724971
     atom   25 type  1   force =     0.00002848   -0.00023883    0.09377625
     atom   26 type  1   force =    -0.00006179   -0.00132829   -0.17560652
     atom   27 type  2   force =     0.00015574   -0.00011853   -0.01986662
     atom   28 type  2   force =     0.00006824   -0.00032018    0.04990340
     atom   29 type  2   force =    -0.00612798    0.00232054    0.00252115
     atom   30 type  2   force =     0.00761972    0.00268574    0.00197073
     atom   31 type  1   force =     0.00002621    0.00839770   -0.00275225
     atom   32 type  1   force =     0.00011634   -0.00236021    0.00259766
     atom   33 type  2   force =     0.00005040   -0.00001671   -0.00006057
     atom   34 type  2   force =    -0.00211706   -0.00249259   -0.01003444
     atom   35 type  2   force =    -0.00014078   -0.00002423    0.00054297
     atom   36 type  2   force =    -0.00007699    0.00006717   -0.00006842
     atom   37 type  1   force =     0.00016842   -0.00008260   -0.00024154
     atom   38 type  1   force =     0.00005807   -0.00015986    0.00025759
     atom   39 type  2   force =    -0.00013313    0.00007261   -0.00027226
     atom   40 type  2   force =     0.00017153   -0.00025029   -0.00009221
     atom   41 type  2   force =    -0.00029982   -0.00077084    0.00064173
     atom   42 type  2   force =     0.00043770    0.00000972   -0.00022362
     atom   43 type  1   force =    -0.00096171   -0.00062105    0.00047357
     atom   44 type  1   force =     0.00041941    0.00034244   -0.00032804
     atom   45 type  2   force =     0.00006797   -0.00007059    0.10302411
     atom   46 type  2   force =    -0.07192040   -0.00004533   -0.02723788
     atom   47 type  2   force =     0.07188472    0.00039161   -0.02728846
     atom   48 type  3   force =    -0.00009492    0.00033439    0.00031216
     atom   49 type  4   force =     0.00059850    0.00037193    0.00049927
     atom   50 type  5   force =     0.00051792    0.00083274   -0.00015937
     atom   51 type  5   force =    -0.00007999    0.00071054    0.00014083
     atom   52 type  5   force =     0.00032951   -0.00017101   -0.00068031
     atom   53 type  5   force =    -0.00036480    0.00053223   -0.00069879
     atom   54 type  5   force =     0.00032340    0.00000159    0.00000122
     atom   55 type  2   force =    -0.01704253    0.00067667    0.00607285
     atom   56 type  5   force =     0.01643111   -0.00020438   -0.00621770

     Total force =     0.363043     Total SCF correction =     0.000442
  @ DRIVER MODE: Message from server: STATUS
  @ DRIVER MODE: Message from server: GETFORCE
  @ DRIVER MODE: Returning v,forces,stress,ensemble

     Writing output data file ./calc.save/
  @ DRIVER MODE: Message from server: EXIT
  @ DRIVE MODE: Exiting

     General routines

     Parallel routines

   This run was terminated on:   7:15:29  24Sep2021

   JOB DONE.