     Program PWSCF v.6.7GPU starts on 23Aug2021 at 15:41:47

     R & G space division:  proc/nbgrp/npool/nimage =       6
     Reading input from /storage/home/hcoda1/3/ntian30/research/carbon/CH_vib/ads_slab/CHN2_a/out_0006/pw.inp
Warning: card &CELL ignored
Warning: card   CELL_DYNAMICS='IPI', ignored
Warning: card / ignored

     Current dimensions of program PWSCF are:
     Max number of different atomic species (ntypx) = 10
     Max number of k-points (npk) =  40000
     Max angular momentum in pseudopotentials (lmaxx) =  3
     Presently no symmetry can be used with electric field

     Message from routine cell_base_init:
     DEPRECATED: use true lattice parameter, not A to a.u. conversion factor

     IMPORTANT: XC functional enforced from input :
     Exchange-correlation= BEEF-VDW
                           (   1   4  43  14   2   0   0)
     Any further DFT definition will be discarded
     Please, verify this is what you really want

  @ DRIVER MODE: Connecting to
 qe_1139763_2632791.sched-torque.pace.gatech.educl3osq44_scratch
  using UNIX socket
  @ DRIVER MODE: Message from server: STATUS
  @ DRIVER MODE: Message from server: INIT
  @ DRIVER MODE: Receiving replica           0          -1
  @ DRIVER MODE: Receiving encoded integer          25
  @ DRIVER MODE:  SCF:  T  FORCE:  T  STRESS:  F  VC:  F  ENSEMBLE:  F
  @ DRIVER MODE:  SCF:  T  FORCE:  T  STRESS:  F  VC:  F  ENSEMBLE:  F

     Using Slab Decomposition

     bravais-lattice index     =            0
     lattice parameter (alat)  =       1.8897  a.u.
     unit-cell volume          =    6658.9804 (a.u.)^3
     number of atoms/cell      =           51
     number of atomic types    =            5
     number of electrons       =       393.00
     number of Kohn-Sham states=          206
     kinetic-energy cutoff     =      29.3995  Ry
     charge density cutoff     =     293.9946  Ry
     scf convergence threshold =      7.3E-08
     mixing beta               =       0.0500
     number of iterations used =            8  plain     mixing
     Exchange-correlation= BEEF-VDW
                           (   1   4  43  14   2   0   0)

     celldm(1)=   1.889726  celldm(2)=   0.000000  celldm(3)=   0.000000
     celldm(4)=   0.000000  celldm(5)=   0.000000  celldm(6)=   0.000000

     crystal axes: (cart. coord. in units of alat)
               a(1) = (   6.579727   0.000000   0.000000 )
               a(2) = (  -0.000775   5.961596   0.000000 )
               a(3) = (   0.000000   0.000000  25.155947 )

     reciprocal axes: (cart. coord. in units 2 pi/alat)
               b(1) = (  0.151982  0.000020  0.000000 )
               b(2) = (  0.000000  0.167740  0.000000 )
               b(3) = (  0.000000  0.000000  0.039752 )

     PseudoPot. # 1 for Ti read from file:
     /storage/coda1/p-amedford6/0/shared/rich_project_chbe-medford/medford-share/data/pseudos_module/espresso/nninc/pbe/van/Ti.UPF
     MD5 check sum: 8e4df49b7f0d34bbd5052bf3f5ea0213
     Pseudo is Ultrasoft, Zval = 12.0
     Generated by new atomic code, or converted to UPF format
     Using radial grid of  851 points,  6 beta functions with:
                l(1) =   0
                l(2) =   0
                l(3) =   1
                l(4) =   1
                l(5) =   2
                l(6) =   2
     Q(r) pseudized with  8 coefficients,  rinner =    1.000   1.000   1.000
                                                       1.000   1.000

     PseudoPot. # 2 for O  read from file:
     /storage/coda1/p-amedford6/0/shared/rich_project_chbe-medford/medford-share/data/pseudos_module/espresso/nninc/pbe/van/O.UPF
     MD5 check sum: 78c19812648e8988a0fe644b0f25305e
     Pseudo is Ultrasoft, Zval =  6.0
     Generated by new atomic code, or converted to UPF format
     Using radial grid of  737 points,  4 beta functions with:
                l(1) =   0
                l(2) =   0
                l(3) =   1
                l(4) =   1
     Q(r) pseudized with  8 coefficients,  rinner =    0.800   0.800   0.800

     PseudoPot. # 3 for N  read from file:
     /storage/coda1/p-amedford6/0/shared/rich_project_chbe-medford/medford-share/data/pseudos_module/espresso/nninc/pbe/van/N.UPF
     MD5 check sum: 90d10febe142ad51ac9d5be1deb811c4
     Pseudo is Ultrasoft, Zval =  5.0
     Generated by new atomic code, or converted to UPF format
     Using radial grid of  729 points,  4 beta functions with:
                l(1) =   0
                l(2) =   0
                l(3) =   1
                l(4) =   1
     Q(r) pseudized with  8 coefficients,  rinner =    0.800   0.800   0.800

     PseudoPot. # 4 for C  read from file:
     /storage/coda1/p-amedford6/0/shared/rich_project_chbe-medford/medford-share/data/pseudos_module/espresso/nninc/pbe/van/C.UPF
     MD5 check sum: 1a69bf6b8db32088f5b2163dbdb77a27
     Pseudo is Ultrasoft, Zval =  4.0
     Generated by new atomic code, or converted to UPF format
     Using radial grid of  721 points,  4 beta functions with:
                l(1) =   0
                l(2) =   0
                l(3) =   1
                l(4) =   1
     Q(r) pseudized with  8 coefficients,  rinner =    0.800   0.800   0.800

     PseudoPot. # 5 for H  read from file:
     /storage/coda1/p-amedford6/0/shared/rich_project_chbe-medford/medford-share/data/pseudos_module/espresso/nninc/pbe/van/H.UPF
     MD5 check sum: b5ee9d7bfd3a09ee7748110bda690ff7
     Pseudo is Ultrasoft, Zval =  1.0
     Generated by new atomic code, or converted to UPF format
     Using radial grid of  615 points,  1 beta functions with:
                l(1) =   0
     Q(r) pseudized with  8 coefficients,  rinner =    0.800

     atomic species   valence    mass     pseudopotential
        Ti1           12.00    47.86700     Ti( 1.00)
        O1             6.00    15.99900     O ( 1.00)
        N1             5.00    14.00700     N ( 1.00)
        C1             4.00    12.01100     C ( 1.00)
        H1             1.00     1.00800     H ( 1.00)

     No symmetry found

   Cartesian axes

     site n.     atom                  positions (alat units)
         1           Ti1 tau(   1) = (   0.0004258   2.9801865   6.0000000  )
         2           Ti1 tau(   2) = (   3.2906075   1.4906267   6.0002472  )
         3           O1  tau(   3) = (   0.0006271   0.0005054   7.9858123  )
         4           O1  tau(   4) = (   3.2906025   0.0005020   7.3038282  )
         5           O1  tau(   5) = (   4.5942328   1.4918067   9.2879030  )
         6           O1  tau(   6) = (   1.9868534   1.4903216   9.2879459  )
         7           Ti1 tau(   7) = (   3.2907910   2.8959150   9.1758416  )
         8           Ti1 tau(   8) = (   0.0015273   1.4827037   9.2680791  )
         9           O1  tau(   9) = (   3.3035207   5.9473585  11.3310231  )
        10           O1  tau(  10) = (   0.0116148   5.9584955  10.6183126  )
        11           O1  tau(  11) = (   1.3208475   1.4758257  12.6111770  )
        12           O1  tau(  12) = (   5.3082752   1.4698866  12.6250687  )
        13           Ti1 tau(  13) = (   6.5356446   2.9641997  12.6185077  )
        14           Ti1 tau(  14) = (   3.2189969   1.4721334  12.4835407  )
        15           O1  tau(  15) = (   0.0393797   5.9575543  14.6615593  )
        16           O1  tau(  16) = (   3.2985004   5.9511915  13.9168519  )
        17           O1  tau(  17) = (   4.5692420   1.4945533  16.0479082  )
        18           O1  tau(  18) = (   2.0930108   1.4957509  16.0624375  )
        19           Ti1 tau(  19) = (   3.3255584   2.9801015  15.7018593  )
        20           Ti1 tau(  20) = (   6.5669960   1.4976744  15.8335939  )
        21           O1  tau(  21) = (   3.2904802   0.0005063   4.7018136  )
        22           O1  tau(  22) = (   0.0392190   0.0140749  17.2134629  )
        23           O1  tau(  23) = (   1.3043587   1.4918075   6.0039043  )
        24           O1  tau(  24) = (   5.2767064   1.4903225   6.0039473  )
        25           Ti1 tau(  25) = (   0.0000382   5.9609847   6.0000000  )
        26           Ti1 tau(  26) = (   3.2902200   4.4714249   6.0002472  )
        27           O1  tau(  27) = (   0.0002396   2.9813036   7.9858123  )
        28           O1  tau(  28) = (   3.2902150   2.9813002   7.3038282  )
        29           O1  tau(  29) = (   4.5938453   4.4726049   9.2879030  )
        30           O1  tau(  30) = (   1.9864658   4.4711199   9.2879459  )
        31           Ti1 tau(  31) = (   3.2891106   5.8743827   9.1763621  )
        32           Ti1 tau(  32) = (   0.0006254   4.4649316   9.2693709  )
        33           O1  tau(  33) = (   3.3031456   2.9698018  11.3313920  )
        34           O1  tau(  34) = (   0.0092240   2.9805883  10.6323155  )
        35           O1  tau(  35) = (   1.3161540   4.4602657  12.6201046  )
        36           O1  tau(  36) = (   5.3094940   4.4638127  12.6365964  )
        37           Ti1 tau(  37) = (   6.5345696   5.9399333  12.5489351  )
        38           Ti1 tau(  38) = (   3.2177077   4.4523588  12.4826418  )
        39           O1  tau(  39) = (   0.0172592   2.9259015  14.6604509  )
        40           O1  tau(  40) = (   3.3090452   2.9742471  13.9045505  )
        41           O1  tau(  41) = (   4.5663562   4.4668710  16.0744231  )
        42           O1  tau(  42) = (   2.0880155   4.4652721  16.0825153  )
        43           Ti1 tau(  43) = (   3.2840513   5.9573583  15.7162584  )
        44           Ti1 tau(  44) = (   0.0037803   4.6334615  16.1183230  )
        45           O1  tau(  45) = (   3.2900926   2.9813045   4.7018136  )
        46           O1  tau(  46) = (   1.3039711   4.4726057   6.0039043  )
        47           O1  tau(  47) = (   5.2763189   4.4711207   6.0039473  )
        48           N1  tau(  48) = (   0.6403421   2.7964730  18.4794378  )
        49           C1  tau(  49) = (   1.0548146   2.6213466  19.5673862  )
        50           H1  tau(  50) = (   1.9720372   2.4638087  20.0927579  )
        51           N1  tau(  51) = (   0.0785678   2.9476959  17.3929364  )

     number of k points=    10  Fermi-Dirac smearing, width (Ry)=  0.0073
                       cart. coord. in units 2pi/alat
        k(    1) = (   0.0000000   0.0000000   0.0000000), wk =   0.1250000
        k(    2) = (   0.0000000   0.0419351   0.0000000), wk =   0.2500000
        k(    3) = (   0.0000000  -0.0838702   0.0000000), wk =   0.1250000
        k(    4) = (   0.0379955   0.0000049   0.0000000), wk =   0.2500000
        k(    5) = (   0.0379955   0.0419400   0.0000000), wk =   0.2500000
        k(    6) = (   0.0379955  -0.0838652   0.0000000), wk =   0.2500000
        k(    7) = (   0.0379955  -0.0419301   0.0000000), wk =   0.2500000
        k(    8) = (  -0.0759910  -0.0000099   0.0000000), wk =   0.1250000
        k(    9) = (  -0.0759910   0.0419252   0.0000000), wk =   0.2500000
        k(   10) = (  -0.0759910  -0.0838800   0.0000000), wk =   0.1250000

     Initial potential from superposition of free atoms

     starting charge  376.99918, renormalised to  393.00000

     negative rho (up, down):  1.612E-02 0.000E+00

     %%%%%%%%%%%%%%%%%%%%%%%%%%%%%%%%%%%%%%%%%%%%%%%%%%%%%%%%%%%%%%%%%%%%%%%%
     %                                                                      %
     % You are using vdW-DF, which was implemented by the Thonhauser group. %
     % Please cite the following two papers that made this development      %
     % possible and the two reviews that describe the various versions:     %
     %                                                                      %
     %   T. Thonhauser et al., PRL 115, 136402 (2015).                      %
     %   T. Thonhauser et al., PRB 76, 125112 (2007).                       %
     %   K. Berland et al., Rep. Prog. Phys. 78, 066501 (2015).             %
     %   D.C. Langreth et al., J. Phys.: Condens. Matter 21, 084203 (2009). %
     %                                                                      %
     %                                                                      %
     % If you are calculating the stress with vdW-DF, please also cite:     %
     %                                                                      %
     %   R. Sabatini et al., J. Phys.: Condens. Matter 24, 424209 (2012).   %
     %                                                                      %
     %%%%%%%%%%%%%%%%%%%%%%%%%%%%%%%%%%%%%%%%%%%%%%%%%%%%%%%%%%%%%%%%%%%%%%%%

     Adding external electric field

     Computed dipole along edir(3) :
        Dipole               -7.3765 Ry au,        -18.7493 Debye
        Dipole field         -0.0139 Ry au,

        Potential amp.        1.2904 Ry
        Total length         46.3494 bohr

     Starting wfcs are  297 atomic wfcs
  @ DRIVER MODE: Message from server: STATUS
  @ DRIVER MODE: Message from server: POSDATA
  @ DRIVER MODE: Reading and sharing cell
  @ DRIVER MODE: Reading and sharing positions
  @ DRIVER MODE: Received positions

     Self-consistent Calculation

     iteration #  1     ecut=    29.40 Ry     beta= 0.05
     Davidson diagonalization with overlap
     c_bands:  1 eigenvalues not converged
     c_bands:  1 eigenvalues not converged
     c_bands:  1 eigenvalues not converged
     c_bands:  1 eigenvalues not converged
     ethr =  1.00E-05,  avg # of iterations = 18.4

[...]

     total energy              =   -2707.95127932 Ry
     estimated scf accuracy    <    2533.82129347 Ry

[...]

     iteration #  3     ecut=    29.40 Ry     beta= 0.05
     Davidson diagonalization with overlap
     ethr =  1.00E-02,  avg # of iterations = 16.5

[...]

     iteration # 76     ecut=    29.40 Ry     beta= 0.05
     Davidson diagonalization with overlap
     c_bands:  1 eigenvalues not converged
     ethr =  6.39E-11,  avg # of iterations = 10.1

[...]

     total energy              =   -2936.63832127 Ry
     estimated scf accuracy    <       0.00000008 Ry

     iteration # 78     ecut=    29.40 Ry     beta= 0.05
     Davidson diagonalization with overlap
     ethr =  2.07E-11,  avg # of iterations =  6.2

     negative rho (up, down):  1.644E-02 0.000E+00

     Adding external electric field

     Computed dipole along edir(3) :
        Dipole                0.6892 Ry au,          1.7518 Debye
        Dipole field          0.0013 Ry au,

        Potential amp.       -0.1206 Ry
        Total length         46.3494 bohr

     End of self-consistent calculation

          k = 0.0000 0.0000 0.0000 ( 18029 PWs)   bands (ev):

   -55.9357 -55.9304 -55.9016 -55.8944 -55.7982 -55.7940 -55.7631 -55.7579
   -55.7460 -55.7121 -55.7119 -55.6783 -55.4906 -55.2692 -54.9143 -54.8803
   -32.4846 -32.4185 -32.2973 -32.2551 -32.2451 -32.2378 -32.2283 -32.2028
   -32.1787 -32.1556 -32.1326 -32.1247 -32.1100 -32.0878 -32.0820 -32.0700
   -32.0404 -32.0338 -32.0288 -32.0037 -31.9997 -31.9927 -31.9721 -31.9525
   -31.9430 -31.9354 -31.9353 -31.9331 -31.9236 -31.9139 -31.9099 -31.8872
   -31.8770 -31.8652 -31.8624 -31.8530 -31.8243 -31.7191 -31.7092 -31.5404
   -31.5044 -31.4880 -31.3215 -31.2331 -31.2107 -31.1382 -31.0517 -30.9406
   -19.2257 -16.6842 -16.4141 -16.1812 -16.0906 -16.0663 -15.9457 -15.7815
   -15.6626 -15.6067 -15.5060 -15.5011 -15.4728 -15.4406 -15.4208 -15.4082
   -15.3835 -15.3799 -15.3567 -15.3430 -15.2979 -15.2771 -15.2611 -15.1675
   -15.1135 -15.0712 -15.0361 -15.0114 -14.9955 -14.5409 -14.0602 -13.4167
   -13.3003  -6.8073  -5.2292  -4.2640  -4.0568  -4.0396  -3.8998  -3.8428
    -3.7938  -3.6901  -3.5530  -3.4871  -3.1761  -3.1200  -3.1050  -3.0891
    -3.0572  -2.8436  -2.7895  -2.7515  -2.7247  -2.7145  -2.7060  -2.7003
    -2.6841  -2.6562  -2.5501  -2.4792  -2.4053  -2.3959  -2.3380  -2.3347
    -2.2487  -2.2257  -2.2034  -2.1816  -2.1773  -2.1669  -2.1403  -2.1189
    -1.9937  -1.9226  -1.8117  -1.7432  -1.7081  -1.5450  -1.5304  -1.4004
    -1.3967  -1.3647  -1.3290  -1.3109  -1.2370  -1.1384  -1.1035  -1.0877
    -1.0435  -0.9584  -0.9118  -0.8313  -0.7856  -0.7640  -0.7087  -0.6995
    -0.6916  -0.6472  -0.4987  -0.4170  -0.3638  -0.3503  -0.3156  -0.2426
    -0.2167  -0.1342  -0.0912  -0.0662  -0.0598  -0.0029   0.0369   0.0504
     0.0640   0.0728   0.0832   0.2617   0.3100   0.3353   0.3883   0.4085
     0.5876   0.6174   0.7185   0.8067   1.0342   1.1078   1.1866   1.2545
     1.2998   1.4853   1.6790   1.7247   3.1951   3.2850   3.3265   3.3314
     3.4371   3.5031   3.6500   3.6715   3.6960   3.7387

[...]

          k = 0.0380-0.0419 0.0000 ( 17876 PWs)   bands (ev):

[...]

          k =-0.0760-0.0000 0.0000 ( 17886 PWs)   bands (ev):

[...]

          k =-0.0760-0.0839 0.0000 ( 17948 PWs)   bands (ev):

   -55.9190 -55.9181 -55.9130 -55.9115 -55.7843 -55.7811 -55.7769 -55.7707
   -55.7297 -55.7278 -55.6967 -55.6938 -55.4894 -55.2703 -54.8973 -54.8972
   -32.2880 -32.2870 -32.2341 -32.2335 -32.2141 -32.2133 -32.1882 -32.1868
   -32.1428 -32.1384 -32.1175 -32.1146 -32.0677 -32.0646 -32.0621 -32.0559
   -32.0502 -32.0427 -32.0385 -32.0376 -32.0352 -32.0322 -32.0004 -31.9903
   -31.9892 -31.9774 -31.9716 -31.9608 -31.9305 -31.9298 -31.9277 -31.9252
   -31.9112 -31.9096 -31.9064 -31.9037 -31.8641 -31.7215 -31.7063 -31.6093
   -31.5136 -31.5048 -31.2235 -31.2234 -31.1343 -31.1341 -31.0950 -31.0950
   -19.2230 -16.1163 -16.0942 -15.8906 -15.8552 -15.8497 -15.8375 -15.7272
   -15.6497 -15.6317 -15.6295 -15.5590 -15.5322 -15.5134 -15.4761 -15.4709
   -15.4572 -15.4537 -15.4230 -15.4004 -15.3935 -15.3760 -15.3680 -15.2905
   -15.2551 -15.2506 -15.2299 -15.1190 -14.9802 -14.7206 -14.0668 -13.4021
   -13.4020  -6.8066  -5.1984  -4.2337  -4.0302  -3.4062  -3.3812  -3.1318
    -3.0948  -3.0866  -3.0305  -2.8586  -2.8422  -2.8271  -2.8014  -2.7702
    -2.7645  -2.7582  -2.7443  -2.7257  -2.6908  -2.6577  -2.6325  -2.6096
    -2.6050  -2.5952  -2.5650  -2.5514  -2.5272  -2.5071  -2.4843  -2.4684
    -2.4544  -2.4438  -2.2648  -2.1784  -2.1421  -2.0783  -2.0691  -2.0449
    -2.0015  -1.9929  -1.9736  -1.9277  -1.7929  -1.6800  -1.6386  -1.6203
    -1.5429  -1.5053  -1.4312  -1.3677  -1.3273  -1.3191  -1.2705  -1.2077
    -1.1603  -1.1430  -1.0848  -1.0518  -1.0048  -0.9866  -0.9376  -0.8974
    -0.8932  -0.8181  -0.7642  -0.7484  -0.7070  -0.7025  -0.6638  -0.6086
    -0.5916  -0.5584  -0.4406  -0.4158  -0.3077  -0.2252  -0.1813   0.0248
     0.0982   0.1356   0.1898   0.2556   0.3360   0.3586   0.3714   0.3816
     0.4329   0.4821   0.5911   0.6021   0.6370   0.7610   1.1671   1.3953
     1.4716   1.4722   1.5444   1.5447   3.4971   3.5144   3.5367   3.5517
     3.7049   3.7100   3.7314   3.7322   3.8595   3.8744

     the Fermi energy is     3.1972 ev

!    total energy              =   -2936.63832957 Ry
     estimated scf accuracy    <       0.00000005 Ry
     smearing contrib. (-TS)   =      -0.02149511 Ry
     internal energy E=F+TS    =   -2936.61683446 Ry

     The total energy is F=E-TS. E is the sum of the following terms:
     one-electron contribution =  -24410.44632121 Ry
     hartree contribution      =   12290.74375667 Ry
     xc contribution           =    -483.59348304 Ry
     ewald contribution        =    9666.67831669 Ry
     electric field correction =       0.00089642 Ry

     convergence has been achieved in  78 iterations

     Forces acting on atoms (cartesian axes, Ry/au):

     atom    1 type  1   force =     0.00000607   -0.00025502    0.09650076
     atom    2 type  1   force =     0.00006663   -0.00047680   -0.17539693
     atom    3 type  2   force =     0.00017530   -0.00006292   -0.02448711
     atom    4 type  2   force =     0.00003457   -0.00142476    0.05285797
     atom    5 type  2   force =    -0.01164736   -0.00077687    0.00292288
     atom    6 type  2   force =     0.01352239   -0.00029196    0.00323627
     atom    7 type  1   force =     0.00094061    0.00041132   -0.01151332
     atom    8 type  1   force =    -0.00000199    0.00992568    0.02613445
     atom    9 type  2   force =    -0.00030665    0.00021435    0.00023741
     atom   10 type  2   force =    -0.00267288    0.00000392   -0.01398172
     atom   11 type  2   force =     0.00069097    0.00022217    0.00032071
     atom   12 type  2   force =    -0.00058410    0.00000381   -0.00002160
     atom   13 type  1   force =     0.00035648   -0.00030789    0.00035076
     atom   14 type  1   force =    -0.00059550   -0.00056344   -0.00049829
     atom   15 type  2   force =    -0.00011211   -0.00012636    0.00058771
     atom   16 type  2   force =     0.00023042   -0.00011084   -0.00031705
     atom   17 type  2   force =    -0.00006387    0.00005515   -0.00021949
     atom   18 type  2   force =    -0.00006010    0.00015846   -0.00022397
     atom   19 type  1   force =    -0.00052144   -0.00002869   -0.00088621
     atom   20 type  1   force =     0.00067513    0.00066053    0.00106758
     atom   21 type  2   force =     0.00005720    0.00001918    0.10326086
     atom   22 type  2   force =     0.00019024   -0.00036128    0.00004804
     atom   23 type  2   force =    -0.07145765   -0.00007473   -0.02762678
     atom   24 type  2   force =     0.07143432    0.00039313   -0.02770592
     atom   25 type  1   force =     0.00025376   -0.00023938    0.09596991
     atom   26 type  1   force =     0.00010174   -0.00027601   -0.17569195
     atom   27 type  2   force =     0.00020179   -0.00016837   -0.02352346
     atom   28 type  2   force =     0.00004880   -0.00120669    0.05300892
     atom   29 type  2   force =    -0.01181786   -0.00001979    0.00276111
     atom   30 type  2   force =     0.01359516    0.00035628    0.00305663
     atom   31 type  1   force =     0.00086190    0.00349916   -0.01213900
     atom   32 type  1   force =     0.00012007   -0.01160691    0.02660697
     atom   33 type  2   force =    -0.00009583    0.00007350   -0.00035059
     atom   34 type  2   force =    -0.00274445   -0.00024567   -0.02147549
     atom   35 type  2   force =     0.00042864   -0.00003542    0.00029430
     atom   36 type  2   force =    -0.00034343   -0.00023134   -0.00021899
     atom   37 type  1   force =     0.00046185   -0.00077032   -0.00041268
     atom   38 type  1   force =    -0.00059210    0.00095160    0.00011101
     atom   39 type  2   force =    -0.00032490   -0.00021816    0.00079737
     atom   40 type  2   force =     0.00010037    0.00020147    0.00004544
     atom   41 type  2   force =    -0.00007776    0.00032759   -0.00010376
     atom   42 type  2   force =     0.00028338    0.00029376   -0.00008243
     atom   43 type  1   force =    -0.00003982    0.00055768   -0.00096289
     atom   44 type  1   force =     0.00051252    0.00021439   -0.00007569
     atom   45 type  2   force =     0.00006179    0.00002092    0.10323444
     atom   46 type  2   force =    -0.07149949   -0.00000218   -0.02765281
     atom   47 type  2   force =     0.07144512    0.00037678   -0.02770909
     atom   48 type  3   force =    -0.02127926    0.00732991   -0.04870497
     atom   49 type  4   force =     0.01376391   -0.00476963    0.02899015
     atom   50 type  5   force =    -0.00210710    0.00111432    0.00131982
     atom   51 type  3   force =     0.00832453   -0.00273358    0.01826072

     Total force =     0.373303     Total SCF correction =     0.000427
  @ DRIVER MODE: Message from server: STATUS
  @ DRIVER MODE: Message from server: GETFORCE
  @ DRIVER MODE: Returning v,forces,stress,ensemble

     Writing output data file ./calc.save/
  @ DRIVER MODE: Message from server: EXIT
  @ DRIVE MODE: Exiting

     General routines

     Parallel routines

   This run was terminated on:  16:13:44  23Aug2021

   JOB DONE.