     Program PWSCF v.6.7GPU starts on 24Sep2021 at 11:20:29

     R & G space division:  proc/nbgrp/npool/nimage =       8
     Reading input from /storage/home/hcoda1/3/ntian30/research/carbon/CxH_vib/H2O_calc/ads_slab/CH3NNHHHHO_a/out_0059/pw.inp
Warning: card &CELL ignored
Warning: card   CELL_DYNAMICS='IPI', ignored
Warning: card / ignored

     Current dimensions of program PWSCF are:
     Max number of different atomic species (ntypx) = 10
     Max number of k-points (npk) =  40000
     Max angular momentum in pseudopotentials (lmaxx) =  3
     Presently no symmetry can be used with electric field

     Message from routine cell_base_init:
     DEPRECATED: use true lattice parameter, not A to a.u. conversion factor

     IMPORTANT: XC functional enforced from input :
     Exchange-correlation= BEEF-VDW
                           (   1   4  43  14   2   0   0)
     Any further DFT definition will be discarded
     Please, verify this is what you really want

  @ DRIVER MODE: Connecting to
 qe_1139763_2947308.sched-torque.pace.gatech.edud89w7osy_scratch
  using UNIX socket
  @ DRIVER MODE: Message from server: STATUS
  @ DRIVER MODE: Message from server: INIT
  @ DRIVER MODE: Receiving replica           0          -1
  @ DRIVER MODE: Receiving encoded integer          25
  @ DRIVER MODE:  SCF:  T  FORCE:  T  STRESS:  F  VC:  F  ENSEMBLE:  F
  @ DRIVER MODE:  SCF:  T  FORCE:  T  STRESS:  F  VC:  F  ENSEMBLE:  F

     Using Slab Decomposition

     bravais-lattice index     =            0
     lattice parameter (alat)  =       1.8897  a.u.
     unit-cell volume          =    6658.9804 (a.u.)^3
     number of atoms/cell      =           58
     number of atomic types    =            5
     number of electrons       =       405.00
     number of Kohn-Sham states=          212
     kinetic-energy cutoff     =      29.3995  Ry
     charge density cutoff     =     293.9946  Ry
     scf convergence threshold =      7.3E-08
     mixing beta               =       0.0500
     number of iterations used =            8  plain     mixing
     Exchange-correlation= BEEF-VDW
                           (   1   4  43  14   2   0   0)

     celldm(1)=   1.889726  celldm(2)=   0.000000  celldm(3)=   0.000000
     celldm(4)=   0.000000  celldm(5)=   0.000000  celldm(6)=   0.000000

     crystal axes: (cart. coord. in units of alat)
               a(1) = (   6.579727   0.000000   0.000000 )
               a(2) = (  -0.000775   5.961596   0.000000 )
               a(3) = (   0.000000   0.000000  25.155947 )

     reciprocal axes: (cart. coord. in units 2 pi/alat)
               b(1) = (  0.151982  0.000020  0.000000 )
               b(2) = (  0.000000  0.167740  0.000000 )
               b(3) = (  0.000000  0.000000  0.039752 )

     PseudoPot. # 1 for Ti read from file:
     /storage/coda1/p-amedford6/0/shared/rich_project_chbe-medford/medford-share/data/pseudos_module/espresso/nninc/pbe/van/Ti.UPF
     MD5 check sum: 8e4df49b7f0d34bbd5052bf3f5ea0213
     Pseudo is Ultrasoft, Zval = 12.0
     Generated by new atomic code, or converted to UPF format
     Using radial grid of  851 points,  6 beta functions with:
                l(1) =   0
                l(2) =   0
                l(3) =   1
                l(4) =   1
                l(5) =   2
                l(6) =   2
     Q(r) pseudized with  8 coefficients,  rinner =    1.000   1.000   1.000
                                                       1.000   1.000

     PseudoPot. # 2 for O  read from file:
     /storage/coda1/p-amedford6/0/shared/rich_project_chbe-medford/medford-share/data/pseudos_module/espresso/nninc/pbe/van/O.UPF
     MD5 check sum: 78c19812648e8988a0fe644b0f25305e
     Pseudo is Ultrasoft, Zval =  6.0
     Generated by new atomic code, or converted to UPF format
     Using radial grid of  737 points,  4 beta functions with:
                l(1) =   0
                l(2) =   0
                l(3) =   1
                l(4) =   1
     Q(r) pseudized with  8 coefficients,  rinner =    0.800   0.800   0.800

     PseudoPot. # 3 for N  read from file:
     /storage/coda1/p-amedford6/0/shared/rich_project_chbe-medford/medford-share/data/pseudos_module/espresso/nninc/pbe/van/N.UPF
     MD5 check sum: 90d10febe142ad51ac9d5be1deb811c4
     Pseudo is Ultrasoft, Zval =  5.0
     Generated by new atomic code, or converted to UPF format
     Using radial grid of  729 points,  4 beta functions with:
                l(1) =   0
                l(2) =   0
                l(3) =   1
                l(4) =   1
     Q(r) pseudized with  8 coefficients,  rinner =    0.800   0.800   0.800

     PseudoPot. # 4 for C  read from file:
     /storage/coda1/p-amedford6/0/shared/rich_project_chbe-medford/medford-share/data/pseudos_module/espresso/nninc/pbe/van/C.UPF
     MD5 check sum: 1a69bf6b8db32088f5b2163dbdb77a27
     Pseudo is Ultrasoft, Zval =  4.0
     Generated by new atomic code, or converted to UPF format
     Using radial grid of  721 points,  4 beta functions with:
                l(1) =   0
                l(2) =   0
                l(3) =   1
                l(4) =   1
     Q(r) pseudized with  8 coefficients,  rinner =    0.800   0.800   0.800

     PseudoPot. # 5 for H  read from file:
     /storage/coda1/p-amedford6/0/shared/rich_project_chbe-medford/medford-share/data/pseudos_module/espresso/nninc/pbe/van/H.UPF
     MD5 check sum: b5ee9d7bfd3a09ee7748110bda690ff7
     Pseudo is Ultrasoft, Zval =  1.0
     Generated by new atomic code, or converted to UPF format
     Using radial grid of  615 points,  1 beta functions with:
                l(1) =   0
     Q(r) pseudized with  8 coefficients,  rinner =    0.800

     atomic species   valence    mass     pseudopotential
        Ti1           12.00    47.86700     Ti( 1.00)
        O1             6.00    15.99900     O ( 1.00)
        N1             5.00    14.00700     N ( 1.00)
        C1             4.00    12.01100     C ( 1.00)
        H1             1.00     1.00800     H ( 1.00)

     No symmetry found

   Cartesian axes

     site n.     atom                  positions (alat units)
         1           Ti1 tau(   1) = (   0.0004258   2.9801865   6.0000000  )
         2           Ti1 tau(   2) = (   3.2906075   1.4906267   6.0002472  )
         3           O1  tau(   3) = (   0.0006271   0.0005054   7.9858123  )
         4           O1  tau(   4) = (   3.2906025   0.0005020   7.3038282  )
         5           O1  tau(   5) = (   4.5942328   1.4918067   9.2879030  )
         6           O1  tau(   6) = (   1.9868534   1.4903216   9.2879459  )
         7           Ti1 tau(   7) = (   3.2907910   2.8959150   9.1758416  )
         8           Ti1 tau(   8) = (   0.0015273   1.4827037   9.2680791  )
         9           O1  tau(   9) = (   3.3066316   0.0080679  11.3583267  )
        10           O1  tau(  10) = (   0.0116148   5.9584955  10.6183126  )
        11           O1  tau(  11) = (   1.3000076   1.5005770  12.6434233  )
        12           O1  tau(  12) = (   5.3281586   1.4930334  12.6431679  )
        13           Ti1 tau(  13) = (   0.0126194   3.0144704  12.5166071  )
        14           Ti1 tau(  14) = (   3.3185830   1.5708444  12.4374219  )
        15           O1  tau(  15) = (   0.0449490   0.0685618  14.6579901  )
        16           O1  tau(  16) = (   3.3164028   5.8986079  13.9921319  )
        17           O1  tau(  17) = (   4.5763498   1.4919541  16.1892649  )
        18           O1  tau(  18) = (   2.0390356   1.5007807  16.1677599  )
        19           Ti1 tau(  19) = (   3.3152479   2.9236451  15.6986563  )
        20           Ti1 tau(  20) = (   0.0808212   1.4292116  16.0039943  )
        21           O1  tau(  21) = (   3.2904802   0.0005063   4.7018136  )
        22           O1  tau(  22) = (   0.0303022   5.8046116  17.1736243  )
        23           O1  tau(  23) = (   1.3043587   1.4918075   6.0039043  )
        24           O1  tau(  24) = (   5.2767064   1.4903225   6.0039473  )
        25           Ti1 tau(  25) = (   0.0000382   5.9609847   6.0000000  )
        26           Ti1 tau(  26) = (   3.2902200   4.4714249   6.0002472  )
        27           O1  tau(  27) = (   0.0002396   2.9813036   7.9858123  )
        28           O1  tau(  28) = (   3.2902150   2.9813002   7.3038282  )
        29           O1  tau(  29) = (   4.5938453   4.4726049   9.2879030  )
        30           O1  tau(  30) = (   1.9864658   4.4711199   9.2879459  )
        31           Ti1 tau(  31) = (   3.2891106   5.8743827   9.1763621  )
        32           Ti1 tau(  32) = (   0.0006254   4.4649316   9.2693709  )
        33           O1  tau(  33) = (   3.3101163   2.9547251  11.3177968  )
        34           O1  tau(  34) = (   0.0092240   2.9805883  10.6323155  )
        35           O1  tau(  35) = (   1.2917786   4.4638488  12.6831265  )
        36           O1  tau(  36) = (   5.3332004   4.4701953  12.6833355  )
        37           Ti1 tau(  37) = (   0.0360484   0.0435164  12.5022323  )
        38           Ti1 tau(  38) = (   3.3166134   4.6596848  12.7231989  )
        39           O1  tau(  39) = (   6.5734590   2.9070644  14.8960501  )
        40           O1  tau(  40) = (   3.3256711   2.9499323  13.9293234  )
        41           O1  tau(  41) = (   4.5718193   4.3849529  16.1598725  )
        42           O1  tau(  42) = (   2.0293811   4.3548050  16.0908550  )
        43           Ti1 tau(  43) = (   3.3839698   5.9011270  16.3477160  )
        44           Ti1 tau(  44) = (   0.0762916   4.6312412  15.8077656  )
        45           O1  tau(  45) = (   3.2900926   2.9813045   4.7018136  )
        46           O1  tau(  46) = (   1.3039711   4.4726057   6.0039043  )
        47           O1  tau(  47) = (   5.2763189   4.4711207   6.0039473  )
        48           N1  tau(  48) = (   1.0338470   3.0145746  18.8549854  )
        49           N1  tau(  49) = (   6.4614719   2.5758313  18.0922931  )
        50           C1  tau(  50) = (   0.6385090   3.7489381  20.0602371  )
        51           H1  tau(  51) = (   6.5128770   4.5633600  19.8465500  )
        52           H1  tau(  52) = (   0.1876125   3.0656416  20.7809517  )
        53           H1  tau(  53) = (   1.5398112   4.1767214  20.4987412  )
        54           H1  tau(  54) = (   5.7034478   3.2665398  18.1448723  )
        55           H1  tau(  55) = (   6.1095767   1.7263867  18.5341855  )
        56           H1  tau(  56) = (   1.5400177   3.6533120  18.2466354  )
        57           O1  tau(  57) = (   3.2295176   5.8880611  18.1842677  )
        58           H1  tau(  58) = (   2.6769533   0.6239085  18.5854980  )

     number of k points=    10  Fermi-Dirac smearing, width (Ry)=  0.0073
                       cart. coord. in units 2pi/alat
        k(    1) = (   0.0000000   0.0000000   0.0000000), wk =   0.1250000
        k(    2) = (   0.0000000   0.0419351   0.0000000), wk =   0.2500000
        k(    3) = (   0.0000000  -0.0838702   0.0000000), wk =   0.1250000
        k(    4) = (   0.0379955   0.0000049   0.0000000), wk =   0.2500000
        k(    5) = (   0.0379955   0.0419400   0.0000000), wk =   0.2500000
        k(    6) = (   0.0379955  -0.0838652   0.0000000), wk =   0.2500000
        k(    7) = (   0.0379955  -0.0419301   0.0000000), wk =   0.2500000
        k(    8) = (  -0.0759910  -0.0000099   0.0000000), wk =   0.1250000
        k(    9) = (  -0.0759910   0.0419252   0.0000000), wk =   0.2500000
        k(   10) = (  -0.0759910  -0.0838800   0.0000000), wk =   0.1250000

     Initial potential from superposition of free atoms

     starting charge  388.99913, renormalised to  405.00000

     negative rho (up, down):  1.325E-02 0.000E+00

     %%%%%%%%%%%%%%%%%%%%%%%%%%%%%%%%%%%%%%%%%%%%%%%%%%%%%%%%%%%%%%%%%%%%%%%%
     %                                                                      %
     % You are using vdW-DF, which was implemented by the Thonhauser group. %
     % Please cite the following two papers that made this development      %
     % possible and the two reviews that describe the various versions:     %
     %                                                                      %
     %   T. Thonhauser et al., PRL 115, 136402 (2015).                      %
     %   T. Thonhauser et al., PRB 76, 125112 (2007).                       %
     %   K. Berland et al., Rep. Prog. Phys. 78, 066501 (2015).             %
     %   D.C. Langreth et al., J. Phys.: Condens. Matter 21, 084203 (2009). %
     %                                                                      %
     %                                                                      %
     % If you are calculating the stress with vdW-DF, please also cite:     %
     %                                                                      %
     %   R. Sabatini et al., J. Phys.: Condens. Matter 24, 424209 (2012).   %
     %                                                                      %
     %%%%%%%%%%%%%%%%%%%%%%%%%%%%%%%%%%%%%%%%%%%%%%%%%%%%%%%%%%%%%%%%%%%%%%%%

     Adding external electric field

     Computed dipole along edir(3) :
        Dipole              -14.7605 Ry au,        -37.5174 Debye
        Dipole field         -0.0279 Ry au,

        Potential amp.        2.5821 Ry
        Total length         46.3494 bohr

     Starting wfcs are  307 atomic wfcs
  @ DRIVER MODE: Message from server: STATUS
  @ DRIVER MODE: Message from server: POSDATA
  @ DRIVER MODE: Reading and sharing cell
  @ DRIVER MODE: Reading and sharing positions
  @ DRIVER MODE: Received positions

     Self-consistent Calculation

     iteration #  1     ecut=    29.40 Ry     beta= 0.05
     Davidson diagonalization with overlap
     c_bands:  4 eigenvalues not converged
     c_bands:  4 eigenvalues not converged
     c_bands:  2 eigenvalues not converged
     c_bands:  3 eigenvalues not converged
     c_bands:  3 eigenvalues not converged
     c_bands:  3 eigenvalues not converged
     ethr =  1.00E-05,  avg # of iterations = 23.3

[...]

     total energy              =   -2204.23990061 Ry
     estimated scf accuracy    <    8785.45087842 Ry

     iteration #  2     ecut=    29.40 Ry     beta= 0.05
     Davidson diagonalization with overlap
     ethr =  1.00E-02,  avg # of iterations = 29.5

[...]

     iteration # 48     ecut=    29.40 Ry     beta= 0.05
     Davidson diagonalization with overlap
     c_bands:  1 eigenvalues not converged
     ethr =  1.44E-08,  avg # of iterations = 13.2

[...]

     total energy              =   -2976.49813077 Ry
     estimated scf accuracy    <       0.00000032 Ry

     iteration # 63     ecut=    29.40 Ry     beta= 0.05
     Davidson diagonalization with overlap
     ethr =  7.95E-11,  avg # of iterations =  8.4

     negative rho (up, down):  1.443E-02 0.000E+00

     Adding external electric field

     Computed dipole along edir(3) :
        Dipole                1.0090 Ry au,          2.5646 Debye
        Dipole field          0.0019 Ry au,

        Potential amp.       -0.1765 Ry
        Total length         46.3494 bohr

     End of self-consistent calculation

          k = 0.0000 0.0000 0.0000 ( 18029 PWs)   bands (ev):

   -55.5666 -55.4867 -55.4526 -55.3547 -55.3306 -55.3146 -55.3013 -55.2941
   -55.2808 -55.2511 -55.2074 -55.0852 -55.0780 -54.9969 -54.4556 -54.4216
   -31.9712 -31.9036 -31.8688 -31.8182 -31.8166 -31.8011 -31.7861 -31.7776
   -31.7376 -31.7326 -31.7152 -31.6393 -31.6174 -31.5948 -31.5931 -31.5912
   -31.5868 -31.5747 -31.5718 -31.5443 -31.5381 -31.5125 -31.5120 -31.5005
   -31.4861 -31.4740 -31.4662 -31.4526 -31.4447 -31.4419 -31.4322 -31.4263
   -31.4225 -31.4031 -31.3612 -31.3592 -31.2921 -31.2817 -31.2714 -31.2466
   -31.2097 -31.2024 -30.8613 -30.7758 -30.7533 -30.6790 -30.5926 -30.4807
   -17.5923 -16.4158 -16.1282 -15.9661 -15.7499 -15.6646 -15.6357 -15.4432
   -15.3376 -15.2847 -15.1011 -15.0526 -15.0214 -15.0115 -14.9950 -14.9724
   -14.9525 -14.9142 -14.9058 -14.8956 -14.8900 -14.8513 -14.8289 -14.7785
   -14.7568 -14.6928 -14.6209 -14.5532 -14.5059 -14.2495 -14.2263 -12.9800
   -12.9541 -12.8379  -9.4780  -6.1616  -5.2146  -4.6510  -4.0081  -3.4929
    -3.3917  -3.3764  -3.3247  -3.2581  -3.1780  -2.9839  -2.8755  -2.8254
    -2.7209  -2.6136  -2.5600  -2.5030  -2.4849  -2.4195  -2.3856  -2.3766
    -2.3682  -2.2710  -2.2639  -2.2365  -2.2015  -2.1439  -2.1284  -2.0526
    -2.0140  -2.0069  -1.8814  -1.8690  -1.8025  -1.7980  -1.7919  -1.7585
    -1.7372  -1.7233  -1.6938  -1.6107  -1.5592  -1.4868  -1.4646  -1.4336
    -1.1835  -1.0821  -1.0461  -1.0196  -0.9193  -0.9084  -0.9003  -0.8867
    -0.8726  -0.8302  -0.7803  -0.6942  -0.5924  -0.5712  -0.5539  -0.5088
    -0.4466  -0.3621  -0.2940  -0.2599  -0.2219  -0.2080  -0.1474  -0.0663
    -0.0506  -0.0371   0.0654   0.0852   0.1694   0.2187   0.2396   0.2851
     0.3213   0.3577   0.4169   0.4538   0.4841   0.4901   0.5219   0.5675
     0.6235   0.6532   0.6812   0.7614   0.8191   0.8649   0.8919   1.0586
     1.0864   1.1332   1.1905   1.2764   1.5206   1.5708   1.6100   1.7652
     2.1371   2.1823   3.5979   3.7490   3.7642   3.8345   3.8589   3.9498
     4.0873   4.1564   4.2881   4.2969

[...]

          k = 0.0380-0.0419 0.0000 ( 17876 PWs)   bands (ev):

[...]

          k =-0.0760-0.0000 0.0000 ( 17886 PWs)   bands (ev):

[...]

          k =-0.0760-0.0839 0.0000 ( 17948 PWs)   bands (ev):

   -55.5658 -55.4696 -55.4695 -55.3535 -55.3175 -55.3071 -55.3020 -55.2977
   -55.2973 -55.2432 -55.2154 -55.0820 -55.0791 -55.0000 -54.4388 -54.4384
   -31.8509 -31.8018 -31.7932 -31.7865 -31.7865 -31.7691 -31.7631 -31.7629
   -31.6943 -31.6380 -31.6300 -31.6225 -31.6177 -31.6057 -31.5898 -31.5896
   -31.5895 -31.5874 -31.5727 -31.5629 -31.5551 -31.5481 -31.5253 -31.5069
   -31.5054 -31.5003 -31.4930 -31.4899 -31.4796 -31.4704 -31.4690 -31.4621
   -31.4569 -31.4383 -31.4325 -31.3551 -31.3474 -31.3291 -31.2940 -31.2858
   -31.2518 -31.2058 -30.7662 -30.7659 -30.6744 -30.6740 -30.6360 -30.6356
   -17.5863 -16.4026 -15.7377 -15.5578 -15.4615 -15.4551 -15.3241 -15.2589
   -15.2497 -15.2153 -15.1967 -15.1823 -15.1488 -15.1315 -15.0930 -15.0386
   -15.0055 -14.9827 -14.9711 -14.9341 -14.9216 -14.8996 -14.8922 -14.8836
   -14.8252 -14.7932 -14.7841 -14.7551 -14.5579 -14.5415 -14.3584 -12.9815
   -12.9398 -12.9397  -9.4755  -6.1470  -5.2163  -4.6610  -4.0045  -3.1866
    -2.9112  -2.7667  -2.6906  -2.5575  -2.5474  -2.5050  -2.4891  -2.4376
    -2.4283  -2.3871  -2.3323  -2.3184  -2.2735  -2.2692  -2.2382  -2.2257
    -2.2149  -2.2054  -2.1808  -2.1605  -2.1516  -2.1113  -2.1064  -2.0913
    -2.0721  -2.0545  -2.0269  -2.0161  -1.9759  -1.9387  -1.8771  -1.7988
    -1.7123  -1.6289  -1.6182  -1.6073  -1.5611  -1.5544  -1.5079  -1.4983
    -1.4517  -1.3996  -1.2861  -1.1678  -1.1252  -1.0945  -1.0626  -1.0327
    -0.9777  -0.9544  -0.9186  -0.8750  -0.8507  -0.7162  -0.7059  -0.6437
    -0.5591  -0.5253  -0.4443  -0.4306  -0.4169  -0.4015  -0.3785  -0.3667
    -0.3331  -0.3186  -0.2115  -0.1903  -0.1843  -0.1621  -0.1203  -0.0092
     0.0600   0.1467   0.2501   0.2991   0.3273   0.3600   0.4562   0.5794
     0.6033   0.6616   0.7012   0.7438   0.8091   0.8320   0.8780   0.9616
     1.0177   1.0506   1.0764   1.0814   1.1333   1.1467   1.9338   1.9423
     2.0025   2.0028   3.8114   4.0881   4.1131   4.1294   4.1667   4.1710
     4.1923   4.2069   4.2735   4.2889

     the Fermi energy is     3.6349 ev

!    total energy              =   -2976.49820103 Ry
     estimated scf accuracy    <       0.00000006 Ry
     smearing contrib. (-TS)   =      -0.01952415 Ry
     internal energy E=F+TS    =   -2976.47867689 Ry

     The total energy is F=E-TS. E is the sum of the following terms:
     one-electron contribution =  -23037.87358351 Ry
     hartree contribution      =   11615.40212306 Ry
     xc contribution           =    -495.71213355 Ry
     ewald contribution        =    8941.70299596 Ry
     electric field correction =       0.00192115 Ry

     convergence has been achieved in  63 iterations

     Forces acting on atoms (cartesian axes, Ry/au):

     atom    1 type  1   force =     0.00001577   -0.00023186    0.09406400
     atom    2 type  1   force =    -0.00016363    0.00025099   -0.17515937
     atom    3 type  2   force =     0.00007604   -0.00016515   -0.02115916
     atom    4 type  2   force =     0.00000466   -0.00104250    0.05354191
     atom    5 type  2   force =    -0.00454410   -0.00322980    0.00115146
     atom    6 type  2   force =     0.00660549   -0.00242893    0.00161729
     atom    7 type  1   force =     0.00037943    0.00457510    0.01036508
     atom    8 type  1   force =    -0.00055965    0.00198383    0.00311344
     atom    9 type  2   force =     0.00010499   -0.00048465   -0.00050312
     atom   10 type  2   force =    -0.00030794   -0.00004361   -0.01127749
     atom   11 type  2   force =    -0.00025863    0.00046476    0.00005813
     atom   12 type  2   force =    -0.00024212    0.00068062    0.00009758
     atom   13 type  1   force =     0.00061412   -0.00065731    0.00016358
     atom   14 type  1   force =    -0.00036144    0.00011998    0.00021284
     atom   15 type  2   force =    -0.00015847    0.00011576    0.00066357
     atom   16 type  2   force =     0.00002550   -0.00005193    0.00015023
     atom   17 type  2   force =    -0.00008915    0.00059158    0.00012169
     atom   18 type  2   force =    -0.00026041    0.00039174    0.00018405
     atom   19 type  1   force =    -0.00002394    0.00054238   -0.00054602
     atom   20 type  1   force =     0.00001237   -0.00012095   -0.00057432
     atom   21 type  2   force =     0.00003269   -0.00001557    0.10311101
     atom   22 type  2   force =    -0.00005852   -0.00011048    0.00007024
     atom   23 type  2   force =    -0.07213297   -0.00021514   -0.02726490
     atom   24 type  2   force =     0.07203885    0.00023053   -0.02734456
     atom   25 type  1   force =     0.00006806   -0.00034614    0.09404556
     atom   26 type  1   force =    -0.00000309   -0.00128828   -0.17517812
     atom   27 type  2   force =     0.00015700   -0.00021312   -0.01993412
     atom   28 type  2   force =     0.00008876   -0.00111327    0.04906314
     atom   29 type  2   force =    -0.00668032    0.00152351    0.00212834
     atom   30 type  2   force =     0.00855214    0.00170289    0.00250027
     atom   31 type  1   force =     0.00049774   -0.00019512    0.00053444
     atom   32 type  1   force =    -0.00020159   -0.00145899    0.00351576
     atom   33 type  2   force =    -0.00007738   -0.00000667   -0.00003148
     atom   34 type  2   force =    -0.00088531    0.00246402   -0.01148199
     atom   35 type  2   force =     0.00000511   -0.00044291    0.00050047
     atom   36 type  2   force =    -0.00049790   -0.00042004    0.00035376
     atom   37 type  1   force =     0.00035447    0.00027452   -0.00004897
     atom   38 type  1   force =    -0.00037550    0.00028959    0.00039068
     atom   39 type  2   force =    -0.00049747    0.00044816    0.00059907
     atom   40 type  2   force =    -0.00002532   -0.00008256   -0.00002413
     atom   41 type  2   force =    -0.00005802   -0.00066908    0.00019101
     atom   42 type  2   force =    -0.00051595   -0.00052622   -0.00027024
     atom   43 type  1   force =     0.00038478   -0.00032156   -0.00554175
     atom   44 type  1   force =    -0.00021143    0.00006776   -0.00027785
     atom   45 type  2   force =     0.00002091   -0.00001469    0.10296588
     atom   46 type  2   force =    -0.07214031   -0.00008701   -0.02726274
     atom   47 type  2   force =     0.07199769    0.00035329   -0.02730393
     atom   48 type  3   force =     0.00045476   -0.00056177   -0.00015801
     atom   49 type  3   force =    -0.00070719    0.00013558    0.00029526
     atom   50 type  4   force =     0.00034965   -0.00028370    0.00010738
     atom   51 type  5   force =    -0.00030720    0.00025336    0.00002179
     atom   52 type  5   force =    -0.00009746   -0.00079734    0.00004137
     atom   53 type  5   force =     0.00023064   -0.00051238    0.00008439
     atom   54 type  5   force =     0.00022894    0.00023906   -0.00065277
     atom   55 type  5   force =    -0.00010690    0.00029461    0.00032932
     atom   56 type  5   force =     0.00030710    0.00018102   -0.00053719
     atom   57 type  2   force =    -0.00514930    0.00604574    0.00985864
     atom   58 type  5   force =     0.00409093   -0.00608164   -0.00368042

     Total force =     0.362065     Total SCF correction =     0.000660
  @ DRIVER MODE: Message from server: STATUS
  @ DRIVER MODE: Message from server: GETFORCE
  @ DRIVER MODE: Returning v,forces,stress,ensemble

     Writing output data file ./calc.save/
  @ DRIVER MODE: Message from server: EXIT
  @ DRIVE MODE: Exiting

     General routines

     Parallel routines

   This run was terminated on:  11:47:13  24Sep2021

   JOB DONE.