     Program PWSCF v.6.7GPU starts on 16Jul2021 at 11:58:18

     R & G space division:  proc/nbgrp/npool/nimage =      16
     Reading input from /storage/home/hcoda1/3/ntian30/research/carbon/15Jul_vib/ads_slab/CH3NNHH_a/out_0029/pw.inp
Warning: card &CELL ignored
Warning: card   CELL_DYNAMICS='IPI', ignored
Warning: card / ignored

     Current dimensions of program PWSCF are:
     Max number of different atomic species (ntypx) = 10
     Max number of k-points (npk) =  40000
     Max angular momentum in pseudopotentials (lmaxx) =  3
     Presently no symmetry can be used with electric field

     Message from routine cell_base_init:
     DEPRECATED: use true lattice parameter, not A to a.u. conversion factor

     IMPORTANT: XC functional enforced from input :
     Exchange-correlation= BEEF-VDW
                           (   1   4  43  14   2   0   0)
     Any further DFT definition will be discarded
     Please, verify this is what you really want

  @ DRIVER MODE: Connecting to
 qe_1139763_2351651.sched-torque.pace.gatech.edurg8n39xg_scratch
  using UNIX socket
  @ DRIVER MODE: Message from server: STATUS
  @ DRIVER MODE: Message from server: INIT
  @ DRIVER MODE: Receiving replica           0          -1
  @ DRIVER MODE: Receiving encoded integer          25
  @ DRIVER MODE:  SCF:  T  FORCE:  T  STRESS:  F  VC:  F  ENSEMBLE:  F
  @ DRIVER MODE:  SCF:  T  FORCE:  T  STRESS:  F  VC:  F  ENSEMBLE:  F

     Using Slab Decomposition

     bravais-lattice index     =            0
     lattice parameter (alat)  =       1.8897  a.u.
     unit-cell volume          =    6658.9804 (a.u.)^3
     number of atoms/cell      =           55
     number of atomic types    =            5
     number of electrons       =       397.00
     number of Kohn-Sham states=          208
     kinetic-energy cutoff     =      29.3995  Ry
     charge density cutoff     =     293.9946  Ry
     scf convergence threshold =      7.3E-08
     mixing beta               =       0.0500
     number of iterations used =            8  plain     mixing
     Exchange-correlation= BEEF-VDW
                           (   1   4  43  14   2   0   0)

     celldm(1)=   1.889726  celldm(2)=   0.000000  celldm(3)=   0.000000
     celldm(4)=   0.000000  celldm(5)=   0.000000  celldm(6)=   0.000000

     crystal axes: (cart. coord. in units of alat)
               a(1) = (   6.579727   0.000000   0.000000 )
               a(2) = (  -0.000775   5.961596   0.000000 )
               a(3) = (   0.000000   0.000000  25.155947 )

     reciprocal axes: (cart. coord. in units 2 pi/alat)
               b(1) = (  0.151982  0.000020  0.000000 )
               b(2) = (  0.000000  0.167740  0.000000 )
               b(3) = (  0.000000  0.000000  0.039752 )

     PseudoPot. # 1 for Ti read from file:
     /storage/coda1/p-amedford6/0/shared/rich_project_chbe-medford/medford-share/data/pseudos_module/espresso/nninc/pbe/van/Ti.UPF
     MD5 check sum: 8e4df49b7f0d34bbd5052bf3f5ea0213
     Pseudo is Ultrasoft, Zval = 12.0
     Generated by new atomic code, or converted to UPF format
     Using radial grid of  851 points,  6 beta functions with:
                l(1) =   0
                l(2) =   0
                l(3) =   1
                l(4) =   1
                l(5) =   2
                l(6) =   2
     Q(r) pseudized with  8 coefficients,  rinner =    1.000   1.000   1.000
                                                       1.000   1.000

     PseudoPot. # 2 for O  read from file:
     /storage/coda1/p-amedford6/0/shared/rich_project_chbe-medford/medford-share/data/pseudos_module/espresso/nninc/pbe/van/O.UPF
     MD5 check sum: 78c19812648e8988a0fe644b0f25305e
     Pseudo is Ultrasoft, Zval =  6.0
     Generated by new atomic code, or converted to UPF format
     Using radial grid of  737 points,  4 beta functions with:
                l(1) =   0
                l(2) =   0
                l(3) =   1
                l(4) =   1
     Q(r) pseudized with  8 coefficients,  rinner =    0.800   0.800   0.800

     PseudoPot. # 3 for N  read from file:
     /storage/coda1/p-amedford6/0/shared/rich_project_chbe-medford/medford-share/data/pseudos_module/espresso/nninc/pbe/van/N.UPF
     MD5 check sum: 90d10febe142ad51ac9d5be1deb811c4
     Pseudo is Ultrasoft, Zval =  5.0
     Generated by new atomic code, or converted to UPF format
     Using radial grid of  729 points,  4 beta functions with:
                l(1) =   0
                l(2) =   0
                l(3) =   1
                l(4) =   1
     Q(r) pseudized with  8 coefficients,  rinner =    0.800   0.800   0.800

     PseudoPot. # 4 for C  read from file:
     /storage/coda1/p-amedford6/0/shared/rich_project_chbe-medford/medford-share/data/pseudos_module/espresso/nninc/pbe/van/C.UPF
     MD5 check sum: 1a69bf6b8db32088f5b2163dbdb77a27
     Pseudo is Ultrasoft, Zval =  4.0
     Generated by new atomic code, or converted to UPF format
     Using radial grid of  721 points,  4 beta functions with:
                l(1) =   0
                l(2) =   0
                l(3) =   1
                l(4) =   1
     Q(r) pseudized with  8 coefficients,  rinner =    0.800   0.800   0.800

     PseudoPot. # 5 for H  read from file:
     /storage/coda1/p-amedford6/0/shared/rich_project_chbe-medford/medford-share/data/pseudos_module/espresso/nninc/pbe/van/H.UPF
     MD5 check sum: b5ee9d7bfd3a09ee7748110bda690ff7
     Pseudo is Ultrasoft, Zval =  1.0
     Generated by new atomic code, or converted to UPF format
     Using radial grid of  615 points,  1 beta functions with:
                l(1) =   0
     Q(r) pseudized with  8 coefficients,  rinner =    0.800

     atomic species   valence    mass     pseudopotential
        Ti1           12.00    47.86700     Ti( 1.00)
        O1             6.00    15.99900     O ( 1.00)
        N1             5.00    14.00700     N ( 1.00)
        C1             4.00    12.01100     C ( 1.00)
        H1             1.00     1.00800     H ( 1.00)

     Starting magnetic structure
     atomic species   magnetization
        Ti1          0.000
        O1           0.000
        N1           0.000
        C1           0.025
        H1           0.000

     No symmetry found

   Cartesian axes

     site n.     atom                  positions (alat units)
         1           Ti1 tau(   1) = (   0.0004258   2.9801865   6.0000000  )
         2           Ti1 tau(   2) = (   3.2906075   1.4906267   6.0002472  )
         3           O1  tau(   3) = (   0.0006271   0.0005054   7.9858123  )
         4           O1  tau(   4) = (   3.2906025   0.0005020   7.3038282  )
         5           O1  tau(   5) = (   4.5942328   1.4918067   9.2879030  )
         6           O1  tau(   6) = (   1.9868534   1.4903216   9.2879459  )
         7           Ti1 tau(   7) = (   3.2907910   2.8959150   9.1758416  )
         8           Ti1 tau(   8) = (   0.0015273   1.4827037   9.2680791  )
         9           O1  tau(   9) = (   3.3020592   5.9599881  11.3075072  )
        10           O1  tau(  10) = (   0.0116148   5.9584955  10.6183126  )
        11           O1  tau(  11) = (   1.3218652   1.4872367  12.6142461  )
        12           O1  tau(  12) = (   5.3149618   1.4866655  12.6283206  )
        13           Ti1 tau(  13) = (   6.5343381   3.0098038  12.6530281  )
        14           Ti1 tau(  14) = (   3.2132235   1.4912063  12.4551521  )
        15           O1  tau(  15) = (   0.0515422   5.9562953  14.6829507  )
        16           O1  tau(  16) = (   3.3088797   0.0214154  13.8770011  )
        17           O1  tau(  17) = (   4.5726725   1.5412406  16.1224456  )
        18           O1  tau(  18) = (   2.0900022   1.5114086  15.9969863  )
        19           Ti1 tau(  19) = (   3.3311046   3.0200058  15.6476981  )
        20           Ti1 tau(  20) = (   0.0790784   1.4105808  15.8036947  )
        21           O1  tau(  21) = (   3.2904802   0.0005063   4.7018136  )
        22           O1  tau(  22) = (   0.0613336   0.0214447  17.2555488  )
        23           O1  tau(  23) = (   1.3043587   1.4918075   6.0039043  )
        24           O1  tau(  24) = (   5.2767064   1.4903225   6.0039473  )
        25           Ti1 tau(  25) = (   0.0000382   5.9609847   6.0000000  )
        26           Ti1 tau(  26) = (   3.2902200   4.4714249   6.0002472  )
        27           O1  tau(  27) = (   0.0002396   2.9813036   7.9858123  )
        28           O1  tau(  28) = (   3.2902150   2.9813002   7.3038282  )
        29           O1  tau(  29) = (   4.5938453   4.4726049   9.2879030  )
        30           O1  tau(  30) = (   1.9864658   4.4711199   9.2879459  )
        31           Ti1 tau(  31) = (   3.2891106   5.8743827   9.1763621  )
        32           Ti1 tau(  32) = (   0.0006254   4.4649316   9.2693709  )
        33           O1  tau(  33) = (   3.3026341   2.9893090  11.3092672  )
        34           O1  tau(  34) = (   0.0092240   2.9805883  10.6323155  )
        35           O1  tau(  35) = (   1.3182942   4.4670451  12.6271195  )
        36           O1  tau(  36) = (   5.3124783   4.4780259  12.6376329  )
        37           Ti1 tau(  37) = (   6.5365500   0.0194685  12.5464133  )
        38           Ti1 tau(  38) = (   3.2155898   4.4753301  12.4613306  )
        39           O1  tau(  39) = (   0.0167368   2.9407051  14.7244952  )
        40           O1  tau(  40) = (   3.3149560   2.9822459  13.8616979  )
        41           O1  tau(  41) = (   4.5706274   4.5128733  15.9228735  )
        42           O1  tau(  42) = (   2.1262058   4.4922812  16.0793225  )
        43           Ti1 tau(  43) = (   3.3222298   0.0210159  15.6751784  )
        44           Ti1 tau(  44) = (   6.5499002   4.5104744  16.2959303  )
        45           O1  tau(  45) = (   3.2900926   2.9813045   4.7018136  )
        46           O1  tau(  46) = (   1.3039711   4.4726057   6.0039043  )
        47           O1  tau(  47) = (   5.2763189   4.4711207   6.0039473  )
        48           N1  tau(  48) = (   0.3735289   2.9861087  17.6038306  )
        49           C1  tau(  49) = (   1.3580301   2.7301661  18.6431808  )
        50           H1  tau(  50) = (   1.5128655   3.6233449  19.2641712  )
        51           H1  tau(  51) = (   1.0354786   1.8978442  19.2795547  )
        52           H1  tau(  52) = (   2.3065860   2.4473273  18.1887077  )
        53           N1  tau(  53) = (   5.7326324   3.4596218  18.1373629  )
        54           H1  tau(  54) = (   5.8436824   4.0267099  18.9748678  )
        55           H1  tau(  55) = (   5.0375616   2.7244768  18.2555579  )

     number of k points=    10  Fermi-Dirac smearing, width (Ry)=  0.0073
                       cart. coord. in units 2pi/alat
        k(    1) = (   0.0000000   0.0000000   0.0000000), wk =   0.0625000
        k(    2) = (   0.0000000   0.0419351   0.0000000), wk =   0.1250000
        k(    3) = (   0.0000000  -0.0838702   0.0000000), wk =   0.0625000
        k(    4) = (   0.0379955   0.0000049   0.0000000), wk =   0.1250000
        k(    5) = (   0.0379955   0.0419400   0.0000000), wk =   0.1250000
        k(    6) = (   0.0379955  -0.0838652   0.0000000), wk =   0.1250000
[...]
     %                                                                      %
     % You are using vdW-DF, which was implemented by the Thonhauser group. %
     % Please cite the following two papers that made this development      %
     % possible and the two reviews that describe the various versions:     %
     %                                                                      %
     %   T. Thonhauser et al., PRL 115, 136402 (2015).                      %
     %   T. Thonhauser et al., PRB 76, 125112 (2007).                       %
     %   K. Berland et al., Rep. Prog. Phys. 78, 066501 (2015).             %
     %   D.C. Langreth et al., J. Phys.: Condens. Matter 21, 084203 (2009). %
     %                                                                      %
     %                                                                      %
     % If you are calculating the stress with vdW-DF, please also cite:     %
     %                                                                      %
     %   R. Sabatini et al., J. Phys.: Condens. Matter 24, 424209 (2012).   %
     %                                                                      %
     %%%%%%%%%%%%%%%%%%%%%%%%%%%%%%%%%%%%%%%%%%%%%%%%%%%%%%%%%%%%%%%%%%%%%%%%

     Adding external electric field

     Computed dipole along edir(3) :
        Dipole               -9.2574 Ry au,        -23.5299 Debye
        Dipole field         -0.0175 Ry au,

        Potential amp.        1.6194 Ry
        Total length         46.3494 bohr

[...]

     Starting wfcs are  301 atomic wfcs
  @ DRIVER MODE: Message from server: STATUS
  @ DRIVER MODE: Message from server: POSDATA
  @ DRIVER MODE: Reading and sharing cell
  @ DRIVER MODE: Reading and sharing positions
  @ DRIVER MODE: Received positions

     Self-consistent Calculation

     iteration #  1     ecut=    29.40 Ry     beta= 0.05
     Davidson diagonalization with overlap
     c_bands:  1 eigenvalues not converged
     c_bands:  2 eigenvalues not converged
     c_bands:  1 eigenvalues not converged
     c_bands:  2 eigenvalues not converged
     c_bands:  2 eigenvalues not converged
     c_bands:  2 eigenvalues not converged
     c_bands:  2 eigenvalues not converged
     c_bands:  1 eigenvalues not converged
     c_bands:  4 eigenvalues not converged
     c_bands:  1 eigenvalues not converged
     c_bands:  2 eigenvalues not converged
     c_bands:  1 eigenvalues not converged
     c_bands:  2 eigenvalues not converged
     c_bands:  2 eigenvalues not converged
     c_bands:  2 eigenvalues not converged
     c_bands:  2 eigenvalues not converged
     c_bands:  1 eigenvalues not converged
     c_bands:  4 eigenvalues not converged
     ethr =  1.00E-05,  avg # of iterations = 19.8

[...]

     total energy              =   -2525.30803309 Ry
     estimated scf accuracy    <    4616.13506461 Ry

     total magnetization       =     0.00 Bohr mag/cell
     absolute magnetization    =     0.03 Bohr mag/cell

     iteration #  2     ecut=    29.40 Ry     beta= 0.05
     Davidson diagonalization with overlap
     ethr =  1.00E-02,  avg # of iterations = 23.6

[...]

     iteration # 81     ecut=    29.40 Ry     beta= 0.05
     Davidson diagonalization with overlap
     c_bands:  1 eigenvalues not converged
     ethr =  1.89E-11,  avg # of iterations = 14.8

[...]

     total energy              =   -2941.63806276 Ry
     estimated scf accuracy    <       0.00000010 Ry

[...]

     iteration # 82     ecut=    29.40 Ry     beta= 0.05
     Davidson diagonalization with overlap
     ethr =  1.89E-11,  avg # of iterations =  8.0

     negative rho (up, down):  8.395E-03 8.394E-03

[...]

     Adding external electric field

     Computed dipole along edir(3) :
        Dipole                1.1477 Ry au,          2.9173 Debye
        Dipole field          0.0022 Ry au,

        Potential amp.       -0.2008 Ry
        Total length         46.3494 bohr

     Magnetic moment per site  (integrated on atomic sphere of radius R)
     atom   1 (R=0.726)  charge=  7.9409  magn= -0.0126
     atom   2 (R=0.726)  charge=  7.9244  magn= -0.0005
     atom   3 (R=0.726)  charge=  4.9319  magn=  0.0010
     atom   4 (R=0.726)  charge=  4.9681  magn=  0.0001
     atom   5 (R=0.726)  charge=  4.9368  magn=  0.0001
     atom   6 (R=0.726)  charge=  4.9376  magn=  0.0001
     atom   7 (R=0.726)  charge=  7.9229  magn= -0.0004
     atom   8 (R=0.726)  charge=  7.9151  magn= -0.0035
     atom   9 (R=0.726)  charge=  4.9562  magn= -0.0000
     atom  10 (R=0.726)  charge=  4.9310  magn=  0.0002
     atom  11 (R=0.726)  charge=  4.9388  magn= -0.0000
     atom  12 (R=0.726)  charge=  4.9369  magn=  0.0000
     atom  13 (R=0.726)  charge=  7.9088  magn= -0.0006
     atom  14 (R=0.726)  charge=  7.9273  magn= -0.0000
     atom  15 (R=0.726)  charge=  4.9165  magn= -0.0000
     atom  16 (R=0.726)  charge=  4.9542  magn= -0.0000
     atom  17 (R=0.726)  charge=  4.9068  magn= -0.0000
     atom  18 (R=0.726)  charge=  4.9388  magn= -0.0000
     atom  19 (R=0.726)  charge=  7.9528  magn=  0.0001
     atom  20 (R=0.726)  charge=  7.9411  magn= -0.0001
     atom  21 (R=0.726)  charge=  4.8211  magn=  0.0003
     atom  22 (R=0.726)  charge=  4.9007  magn= -0.0001
     atom  23 (R=0.726)  charge=  4.9281  magn=  0.0015
     atom  24 (R=0.726)  charge=  4.9282  magn=  0.0015
     atom  25 (R=0.726)  charge=  7.9408  magn= -0.0126
     atom  26 (R=0.726)  charge=  7.9244  magn= -0.0005
     atom  27 (R=0.726)  charge=  4.9306  magn=  0.0010
     atom  28 (R=0.726)  charge=  4.9683  magn=  0.0001
     atom  29 (R=0.726)  charge=  4.9375  magn=  0.0001
     atom  30 (R=0.726)  charge=  4.9383  magn=  0.0001
     atom  31 (R=0.726)  charge=  7.9236  magn= -0.0004
     atom  32 (R=0.726)  charge=  7.9153  magn= -0.0035
     atom  33 (R=0.726)  charge=  4.9540  magn= -0.0000
     atom  34 (R=0.726)  charge=  4.9049  magn=  0.0003
     atom  35 (R=0.726)  charge=  4.9378  magn=  0.0000
     atom  36 (R=0.726)  charge=  4.9369  magn=  0.0000
     atom  37 (R=0.726)  charge=  7.9159  magn= -0.0007
     atom  38 (R=0.726)  charge=  7.9271  magn= -0.0000
     atom  39 (R=0.726)  charge=  4.9089  magn= -0.0000
     atom  40 (R=0.726)  charge=  4.9620  magn= -0.0000
     atom  41 (R=0.726)  charge=  4.9464  magn= -0.0000
     atom  42 (R=0.726)  charge=  4.9157  magn= -0.0000
     atom  43 (R=0.726)  charge=  7.9490  magn=  0.0001
     atom  44 (R=0.726)  charge=  7.9599  magn=  0.0001
     atom  45 (R=0.726)  charge=  4.8212  magn=  0.0003
     atom  46 (R=0.726)  charge=  4.9281  magn=  0.0015
     atom  47 (R=0.726)  charge=  4.9282  magn=  0.0015
     atom  48 (R=0.420)  charge=  1.3152  magn= -0.0000
     atom  49 (R=0.449)  charge=  0.8486  magn=  0.0000
     atom  50 (R=0.420)  charge=  0.4415  magn= -0.0000
     atom  51 (R=0.420)  charge=  0.4405  magn= -0.0000
     atom  52 (R=0.420)  charge=  0.4461  magn= -0.0000
     atom  53 (R=0.420)  charge=  1.3378  magn= -0.0000
     atom  54 (R=0.420)  charge=  0.4533  magn=  0.0000
     atom  55 (R=0.420)  charge=  0.4498  magn= -0.0000

     End of self-consistent calculation

 ------ SPIN UP ------------

          k = 0.0000 0.0000 0.0000 ( 18029 PWs)   bands (ev):

   -55.5744 -55.5584 -55.5365 -55.5243 -55.4604 -55.4234 -55.4230 -55.3878
   -55.3674 -55.3333 -55.3264 -55.2926 -55.0313 -54.8745 -54.5370 -54.5030
   -32.1363 -32.0464 -31.9585 -31.8919 -31.8880 -31.8662 -31.8493 -31.8189
   -31.8054 -31.7997 -31.7844 -31.7591 -31.7546 -31.7262 -31.7155 -31.7081
   -31.6682 -31.6600 -31.6580 -31.6474 -31.6465 -31.6129 -31.6126 -31.5954
   -31.5702 -31.5676 -31.5644 -31.5560 -31.5556 -31.5300 -31.5048 -31.5015
   -31.4947 -31.4920 -31.4806 -31.4706 -31.4398 -31.3055 -31.2563 -31.1546
   -31.1272 -31.0356 -30.9434 -30.8562 -30.8339 -30.7601 -30.6737 -30.5627
   -17.5809 -16.3615 -16.0489 -15.8347 -15.7260 -15.7225 -15.6381 -15.4169
   -15.2954 -15.2812 -15.1657 -15.1619 -15.1028 -15.0606 -15.0533 -15.0468
   -15.0138 -15.0022 -14.9847 -14.9484 -14.9156 -14.8974 -14.8742 -14.7724
   -14.7056 -14.6999 -14.6818 -14.6170 -14.5692 -14.2090 -13.0392 -12.9230
   -12.5348  -9.1914  -6.3446  -5.0851  -4.1878  -3.7398  -3.5502  -3.4729
    -3.4380  -3.3705  -3.3482  -3.1804  -3.1726  -2.7938  -2.7745  -2.7565
    -2.7352  -2.7319  -2.4628  -2.4099  -2.3951  -2.3916  -2.3737  -2.3568
    -2.3359  -2.3254  -2.2979  -2.2866  -2.1539  -2.1101  -2.0312  -2.0050
    -1.9895  -1.8775  -1.8529  -1.8328  -1.8211  -1.8076  -1.7785  -1.7717
    -1.7498  -1.6415  -1.5322  -1.4527  -1.4124  -1.3604  -1.3388  -1.1630
    -1.1097  -1.0508  -1.0271  -1.0026  -0.9877  -0.9540  -0.8798  -0.8553
    -0.7128  -0.6740  -0.6204  -0.5943  -0.5655  -0.5096  -0.4760  -0.4458
    -0.3503  -0.3378  -0.3270  -0.3142  -0.2581  -0.0664  -0.0181   0.0010
     0.0161   0.1154   0.1548   0.1799   0.2137   0.2700   0.2988   0.3633
     0.3919   0.4119   0.4226   0.4516   0.4681   0.6001   0.6259   0.6561
     0.7175   0.7711   0.8469   0.9593   1.0415   1.0984   1.1999   1.4181
     1.4855   1.5695   1.6789   1.7107   2.0547   2.1002   3.5719   3.6694
     3.6956   3.7110   3.8164   3.8673   4.0182   4.0281   4.0665   4.0949

[...]

          k =-0.0760-0.0000 0.0000 ( 17886 PWs)   bands (ev):

[...]

 ------ SPIN DOWN ----------

[...]

          k = 0.0380-0.0419 0.0000 ( 17876 PWs)   bands (ev):

[...]

          k =-0.0760-0.0839 0.0000 ( 17948 PWs)   bands (ev):

   -55.5655 -55.5645 -55.5606 -55.5497 -55.4499 -55.4352 -55.4090 -55.4015
   -55.3582 -55.3549 -55.3121 -55.3085 -55.0299 -54.8754 -54.5207 -54.5206
   -31.9420 -31.9315 -31.8721 -31.8714 -31.8617 -31.8607 -31.8438 -31.8272
   -31.8024 -31.7884 -31.7679 -31.7483 -31.7229 -31.7123 -31.7068 -31.6875
   -31.6862 -31.6827 -31.6810 -31.6709 -31.6663 -31.6533 -31.6498 -31.6473
   -31.6273 -31.6131 -31.6029 -31.6022 -31.5546 -31.5524 -31.5449 -31.5426
   -31.5370 -31.5334 -31.5271 -31.5252 -31.4112 -31.3164 -31.2580 -31.2158
   -31.1324 -31.0465 -30.8476 -30.8476 -30.7566 -30.7564 -30.7178 -30.7177
   -17.5690 -15.8215 -15.7815 -15.5264 -15.5173 -15.5148 -15.4743 -15.3510
   -15.3025 -15.2764 -15.2652 -15.2464 -15.2384 -15.1371 -15.1226 -15.1068
   -15.0957 -15.0697 -15.0262 -15.0211 -15.0128 -15.0024 -14.9909 -14.9248
   -14.8724 -14.8685 -14.7549 -14.6631 -14.5228 -14.4341 -13.0245 -13.0243
   -12.5540  -9.1527  -6.3036  -5.1132  -4.1206  -3.4187  -3.1220  -3.0745
    -2.7865  -2.7671  -2.7520  -2.6384  -2.5189  -2.5098  -2.4838  -2.4621
    -2.4277  -2.4150  -2.4046  -2.3966  -2.3787  -2.3605  -2.3496  -2.3100
    -2.2417  -2.2337  -2.2250  -2.2171  -2.2002  -2.1766  -2.1657  -2.1387
    -2.1143  -2.0791  -2.0200  -1.9894  -1.8399  -1.7961  -1.7342  -1.6959
    -1.6873  -1.6583  -1.6245  -1.6171  -1.5062  -1.4921  -1.4586  -1.3283
    -1.2674  -1.2594  -1.2269  -1.1395  -1.1009  -0.9718  -0.9586  -0.9215
    -0.8657  -0.8582  -0.8212  -0.7832  -0.7321  -0.6798  -0.6366  -0.6135
    -0.5958  -0.5234  -0.5229  -0.4763  -0.4200  -0.3496  -0.3270  -0.3195
    -0.2863  -0.2428  -0.1961  -0.1327  -0.0573  -0.0375  -0.0231   0.0759
     0.1491   0.3682   0.4154   0.5120   0.5344   0.5621   0.6218   0.6714
     0.7408   0.7562   0.7840   0.8573   0.8796   0.9713   0.9826   0.9998
     1.1773   1.6466   1.8509   1.8518   1.9198   1.9203   3.8574   3.8734
     3.8977   3.9213   4.0762   4.0796   4.0953   4.0979   4.2188   4.2500

     the Fermi energy is     3.5637 ev

!    total energy              =   -2941.63806869 Ry
     estimated scf accuracy    <       0.00000004 Ry
     smearing contrib. (-TS)   =      -0.02170062 Ry
     internal energy E=F+TS    =   -2941.61636807 Ry

     The total energy is F=E-TS. E is the sum of the following terms:
     one-electron contribution =  -24388.57800366 Ry
     hartree contribution      =   12286.24711399 Ry
     xc contribution           =    -486.93866894 Ry
     ewald contribution        =    9647.65070461 Ry
     electric field correction =       0.00248593 Ry

     total magnetization       =    -0.05 Bohr mag/cell
     absolute magnetization    =     0.07 Bohr mag/cell

     convergence has been achieved in  82 iterations

     Forces acting on atoms (cartesian axes, Ry/au):

     atom    1 type  1   force =    -0.00001148   -0.00019438    0.09683322
     atom    2 type  1   force =     0.00009150   -0.00069277   -0.17462941
     atom    3 type  2   force =     0.00018181   -0.00006020   -0.02509232
     atom    4 type  2   force =     0.00000800   -0.00124836    0.05118951
     atom    5 type  2   force =    -0.01126041   -0.00080236    0.00228258
     atom    6 type  2   force =     0.01310271   -0.00035229    0.00272796
     atom    7 type  1   force =     0.00100326    0.00021568   -0.01341062
     atom    8 type  1   force =    -0.00010116    0.01533303    0.02825723
     atom    9 type  2   force =    -0.00007179   -0.00001282    0.00009452
     atom   10 type  2   force =    -0.00234049    0.00080740   -0.01057752
     atom   11 type  2   force =     0.00035417    0.00005708   -0.00001818
     atom   12 type  2   force =    -0.00043537   -0.00006562    0.00025113
     atom   13 type  1   force =     0.00015133   -0.00018367   -0.00006023
     atom   14 type  1   force =     0.00010317   -0.00022268    0.00003041
     atom   15 type  2   force =    -0.00004560    0.00019887   -0.00011516
     atom   16 type  2   force =    -0.00019912    0.00003760   -0.00019309
     atom   17 type  2   force =    -0.00012685    0.00007306   -0.00007013
     atom   18 type  2   force =    -0.00018469   -0.00000908   -0.00025612
     atom   19 type  1   force =    -0.00024409    0.00029610    0.00001327
     atom   20 type  1   force =    -0.00000051   -0.00050103    0.00017887
     atom   21 type  2   force =     0.00003673   -0.00009130    0.10301488
     atom   22 type  2   force =    -0.00006258    0.00037885    0.00048610
     atom   23 type  2   force =    -0.07179295   -0.00021063   -0.02779659
     atom   24 type  2   force =     0.07175262    0.00024549   -0.02785997
     atom   25 type  1   force =     0.00003362   -0.00025762    0.09643424
     atom   26 type  1   force =    -0.00000803   -0.00029613   -0.17488963
     atom   27 type  2   force =     0.00019242   -0.00025479   -0.02395301
     atom   28 type  2   force =     0.00005320   -0.00100631    0.05146214
     atom   29 type  2   force =    -0.01128923    0.00078542    0.00169717
     atom   30 type  2   force =     0.01298060    0.00111323    0.00209641
     atom   31 type  1   force =     0.00103638    0.00256817   -0.01543207
     atom   32 type  1   force =     0.00005693   -0.01663876    0.02913801
     atom   33 type  2   force =     0.00011729    0.00002750   -0.00011772
     atom   34 type  2   force =    -0.00271177    0.00093468   -0.01868117
     atom   35 type  2   force =     0.00017434   -0.00007319   -0.00009337
     atom   36 type  2   force =    -0.00038182   -0.00007179    0.00012860
     atom   37 type  1   force =    -0.00011385   -0.00019409    0.00014441
     atom   38 type  1   force =     0.00007717    0.00008829   -0.00006081
     atom   39 type  2   force =    -0.00002942    0.00044499   -0.00000685
     atom   40 type  2   force =    -0.00037969    0.00014688   -0.00013966
     atom   41 type  2   force =     0.00010157   -0.00001351   -0.00014060
     atom   42 type  2   force =     0.00000707    0.00022172   -0.00002887
     atom   43 type  1   force =     0.00019510   -0.00005435   -0.00012879
     atom   44 type  1   force =    -0.00028484   -0.00047368   -0.00031736
     atom   45 type  2   force =     0.00005370   -0.00011072    0.10301240
     atom   46 type  2   force =    -0.07181905   -0.00015994   -0.02781713
     atom   47 type  2   force =     0.07176030    0.00022553   -0.02786062
     atom   48 type  3   force =    -0.00159306    0.00005574    0.00100044
     atom   49 type  4   force =     0.00403490   -0.00131633   -0.00358426
     atom   50 type  5   force =     0.00019436    0.00001257   -0.00012021
     atom   51 type  5   force =     0.00010377   -0.00027656   -0.00051097
     atom   52 type  5   force =    -0.00317853    0.00087782    0.00409030
     atom   53 type  3   force =     0.00061280    0.00048258   -0.00015163
     atom   54 type  5   force =     0.00034949   -0.00011132    0.00109198
     atom   55 type  5   force =    -0.00025395    0.00032799   -0.00154170

     Total force =     0.367307     Total SCF correction =     0.000334
  @ DRIVER MODE: Message from server: STATUS
  @ DRIVER MODE: Message from server: GETFORCE
  @ DRIVER MODE: Returning v,forces,stress,ensemble

     Writing output data file ./calc.save/
  @ DRIVER MODE: Message from server: EXIT
  @ DRIVE MODE: Exiting

     General routines

     Parallel routines

   This run was terminated on:  12:34:58  16Jul2021

   JOB DONE.