     Program PWSCF v.6.7GPU starts on 22Sep2021 at 22:38:58

     R & G space division:  proc/nbgrp/npool/nimage =      10
     Reading input from /storage/home/hcoda1/3/ntian30/research/carbon/CxH_vib/H2O_calc/ads_slab/CH3OHO_a/out_0020/pw.inp
Warning: card &CELL ignored
Warning: card   CELL_DYNAMICS='IPI', ignored
Warning: card / ignored

     Current dimensions of program PWSCF are:
     Max number of different atomic species (ntypx) = 10
     Max number of k-points (npk) =  40000
     Max angular momentum in pseudopotentials (lmaxx) =  3
     Presently no symmetry can be used with electric field

     Message from routine cell_base_init:
     DEPRECATED: use true lattice parameter, not A to a.u. conversion factor

     IMPORTANT: XC functional enforced from input :
     Exchange-correlation= BEEF-VDW
                           (   1   4  43  14   2   0   0)
     Any further DFT definition will be discarded
     Please, verify this is what you really want

  @ DRIVER MODE: Connecting to
 qe_1139763_2937320.sched-torque.pace.gatech.edu_381q00o_scratch
  using UNIX socket
  @ DRIVER MODE: Message from server: STATUS
  @ DRIVER MODE: Message from server: INIT
  @ DRIVER MODE: Receiving replica           0          -1
  @ DRIVER MODE: Receiving encoded integer          25
  @ DRIVER MODE:  SCF:  T  FORCE:  T  STRESS:  F  VC:  F  ENSEMBLE:  F
  @ DRIVER MODE:  SCF:  T  FORCE:  T  STRESS:  F  VC:  F  ENSEMBLE:  F

     Using Slab Decomposition

     bravais-lattice index     =            0
     lattice parameter (alat)  =       1.8897  a.u.
     unit-cell volume          =    6658.9804 (a.u.)^3
     number of atoms/cell      =           54
     number of atomic types    =            4
     number of electrons       =       398.00
     number of Kohn-Sham states=          209
     kinetic-energy cutoff     =      29.3995  Ry
     charge density cutoff     =     293.9946  Ry
     scf convergence threshold =      7.3E-08
     mixing beta               =       0.0500
     number of iterations used =            8  plain     mixing
     Exchange-correlation= BEEF-VDW
                           (   1   4  43  14   2   0   0)

     celldm(1)=   1.889726  celldm(2)=   0.000000  celldm(3)=   0.000000
     celldm(4)=   0.000000  celldm(5)=   0.000000  celldm(6)=   0.000000

     crystal axes: (cart. coord. in units of alat)
               a(1) = (   6.579727   0.000000   0.000000 )
               a(2) = (  -0.000775   5.961596   0.000000 )
               a(3) = (   0.000000   0.000000  25.155947 )

     reciprocal axes: (cart. coord. in units 2 pi/alat)
               b(1) = (  0.151982  0.000020  0.000000 )
               b(2) = (  0.000000  0.167740  0.000000 )
               b(3) = (  0.000000  0.000000  0.039752 )

     PseudoPot. # 1 for Ti read from file:
     /storage/coda1/p-amedford6/0/shared/rich_project_chbe-medford/medford-share/data/pseudos_module/espresso/nninc/pbe/van/Ti.UPF
     MD5 check sum: 8e4df49b7f0d34bbd5052bf3f5ea0213
     Pseudo is Ultrasoft, Zval = 12.0
     Generated by new atomic code, or converted to UPF format
     Using radial grid of  851 points,  6 beta functions with:
                l(1) =   0
                l(2) =   0
                l(3) =   1
                l(4) =   1
                l(5) =   2
                l(6) =   2
     Q(r) pseudized with  8 coefficients,  rinner =    1.000   1.000   1.000
                                                       1.000   1.000

     PseudoPot. # 2 for O  read from file:
     /storage/coda1/p-amedford6/0/shared/rich_project_chbe-medford/medford-share/data/pseudos_module/espresso/nninc/pbe/van/O.UPF
     MD5 check sum: 78c19812648e8988a0fe644b0f25305e
     Pseudo is Ultrasoft, Zval =  6.0
     Generated by new atomic code, or converted to UPF format
     Using radial grid of  737 points,  4 beta functions with:
                l(1) =   0
                l(2) =   0
                l(3) =   1
                l(4) =   1
     Q(r) pseudized with  8 coefficients,  rinner =    0.800   0.800   0.800

     PseudoPot. # 3 for C  read from file:
     /storage/coda1/p-amedford6/0/shared/rich_project_chbe-medford/medford-share/data/pseudos_module/espresso/nninc/pbe/van/C.UPF
     MD5 check sum: 1a69bf6b8db32088f5b2163dbdb77a27
     Pseudo is Ultrasoft, Zval =  4.0
     Generated by new atomic code, or converted to UPF format
     Using radial grid of  721 points,  4 beta functions with:
                l(1) =   0
                l(2) =   0
                l(3) =   1
                l(4) =   1
     Q(r) pseudized with  8 coefficients,  rinner =    0.800   0.800   0.800

     PseudoPot. # 4 for H  read from file:
     /storage/coda1/p-amedford6/0/shared/rich_project_chbe-medford/medford-share/data/pseudos_module/espresso/nninc/pbe/van/H.UPF
     MD5 check sum: b5ee9d7bfd3a09ee7748110bda690ff7
     Pseudo is Ultrasoft, Zval =  1.0
     Generated by new atomic code, or converted to UPF format
     Using radial grid of  615 points,  1 beta functions with:
                l(1) =   0
     Q(r) pseudized with  8 coefficients,  rinner =    0.800

     atomic species   valence    mass     pseudopotential
        Ti1           12.00    47.86700     Ti( 1.00)
        O1             6.00    15.99900     O ( 1.00)
        C1             4.00    12.01100     C ( 1.00)
        H1             1.00     1.00800     H ( 1.00)

     No symmetry found

   Cartesian axes

     site n.     atom                  positions (alat units)
         1           Ti1 tau(   1) = (   0.0004258   2.9801865   6.0000000  )
         2           Ti1 tau(   2) = (   3.2906075   1.4906267   6.0002472  )
         3           O1  tau(   3) = (   0.0006271   0.0005054   7.9858123  )
         4           O1  tau(   4) = (   3.2906025   0.0005020   7.3038282  )
         5           O1  tau(   5) = (   4.5942328   1.4918067   9.2879030  )
         6           O1  tau(   6) = (   1.9868534   1.4903216   9.2879459  )
         7           Ti1 tau(   7) = (   3.2957662   3.1068914   9.2181075  )
         8           Ti1 tau(   8) = (   0.0157633   1.6119101   9.3474628  )
         9           O1  tau(   9) = (   3.3075722   0.0245345  11.3221904  )
        10           O1  tau(  10) = (   0.0080709   0.0223756  10.5933645  )
        11           O1  tau(  11) = (   1.2996580   1.5014007  12.6293879  )
        12           O1  tau(  12) = (   5.3220639   1.4985920  12.6296061  )
        13           Ti1 tau(  13) = (   0.0338638   3.0995910  12.8036746  )
        14           Ti1 tau(  14) = (   3.3037623   1.5692239  12.4279754  )
        15           O1  tau(  15) = (   0.0261714   0.0103614  14.6808343  )
        16           O1  tau(  16) = (   3.3158872   5.9294016  13.9235834  )
        17           O1  tau(  17) = (   4.5845781   1.5190771  16.0542726  )
        18           O1  tau(  18) = (   2.0543804   1.5366111  16.0227792  )
        19           Ti1 tau(  19) = (   3.3281905   2.9581697  15.6655982  )
        20           Ti1 tau(  20) = (   0.0947853   1.4300879  15.9722461  )
        21           O1  tau(  21) = (   3.2904802   0.0005063   4.7018136  )
        22           O1  tau(  22) = (   0.0746355   0.0166105  17.2029963  )
        23           O1  tau(  23) = (   1.3043587   1.4918075   6.0039043  )
        24           O1  tau(  24) = (   5.2767064   1.4903225   6.0039473  )
        25           Ti1 tau(  25) = (   0.0000382   5.9609847   6.0000000  )
        26           Ti1 tau(  26) = (   3.2902200   4.4714249   6.0002472  )
        27           O1  tau(  27) = (   0.0002396   2.9813036   7.9858123  )
        28           O1  tau(  28) = (   3.2902150   2.9813002   7.3038282  )
        29           O1  tau(  29) = (   4.5938453   4.4726049   9.2879030  )
        30           O1  tau(  30) = (   1.9864658   4.4711199   9.2879459  )
        31           Ti1 tau(  31) = (   3.3049890   0.1224192   9.1815931  )
        32           Ti1 tau(  32) = (   0.0115838   4.5621182   9.3618056  )
        33           O1  tau(  33) = (   3.3056077   2.9569042  11.2892548  )
        34           O1  tau(  34) = (   0.0073068   3.0072357  10.5542745  )
        35           O1  tau(  35) = (   1.3032543   4.4799722  12.6367586  )
        36           O1  tau(  36) = (   5.3275811   4.4862388  12.6364370  )
        37           Ti1 tau(  37) = (   0.0060541   0.1153383  12.6179110  )
        38           Ti1 tau(  38) = (   3.3135592   4.6638430  12.6816895  )
        39           O1  tau(  39) = (   0.0323206   2.9919573  14.6814448  )
        40           O1  tau(  40) = (   3.3290587   2.9835885  13.8850256  )
        41           O1  tau(  41) = (   4.5809508   4.4372854  16.0867525  )
        42           O1  tau(  42) = (   2.0525355   4.4234120  16.0327814  )
        43           Ti1 tau(  43) = (   3.4083040   5.9395600  16.2643712  )
        44           Ti1 tau(  44) = (   0.1061243   4.5568233  16.0547075  )
        45           O1  tau(  45) = (   3.2900926   2.9813045   4.7018136  )
        46           O1  tau(  46) = (   1.3039711   4.4726057   6.0039043  )
        47           O1  tau(  47) = (   5.2763189   4.4711207   6.0039473  )
        48           C1  tau(  48) = (   6.0247352   2.9430639  18.6208924  )
        49           O1  tau(  49) = (   0.0129984   2.9830681  17.3098104  )
        50           H1  tau(  50) = (   4.9427965   2.8012130  18.5644550  )
        51           H1  tau(  51) = (   6.4667215   2.1053551  19.1708771  )
        52           H1  tau(  52) = (   6.2362830   3.8810018  19.1352789  )
        53           O1  tau(  53) = (   3.2195589   0.0134334  18.0862892  )
        54           H1  tau(  54) = (   2.3313237   0.1261415  18.4590370  )

     number of k points=    10  Fermi-Dirac smearing, width (Ry)=  0.0073
                       cart. coord. in units 2pi/alat
        k(    1) = (   0.0000000   0.0000000   0.0000000), wk =   0.1250000
        k(    2) = (   0.0000000   0.0419351   0.0000000), wk =   0.2500000
        k(    3) = (   0.0000000  -0.0838702   0.0000000), wk =   0.1250000
        k(    4) = (   0.0379955   0.0000049   0.0000000), wk =   0.2500000
        k(    5) = (   0.0379955   0.0419400   0.0000000), wk =   0.2500000
        k(    6) = (   0.0379955  -0.0838652   0.0000000), wk =   0.2500000
        k(    7) = (   0.0379955  -0.0419301   0.0000000), wk =   0.2500000
        k(    8) = (  -0.0759910  -0.0000099   0.0000000), wk =   0.1250000
        k(    9) = (  -0.0759910   0.0419252   0.0000000), wk =   0.2500000
        k(   10) = (  -0.0759910  -0.0838800   0.0000000), wk =   0.1250000

     Initial potential from superposition of free atoms

     starting charge  381.99917, renormalised to  398.00000

     negative rho (up, down):  1.724E-02 0.000E+00

     %%%%%%%%%%%%%%%%%%%%%%%%%%%%%%%%%%%%%%%%%%%%%%%%%%%%%%%%%%%%%%%%%%%%%%%%
     %                                                                      %
     % You are using vdW-DF, which was implemented by the Thonhauser group. %
     % Please cite the following two papers that made this development      %
     % possible and the two reviews that describe the various versions:     %
     %                                                                      %
     %   T. Thonhauser et al., PRL 115, 136402 (2015).                      %
     %   T. Thonhauser et al., PRB 76, 125112 (2007).                       %
     %   K. Berland et al., Rep. Prog. Phys. 78, 066501 (2015).             %
     %   D.C. Langreth et al., J. Phys.: Condens. Matter 21, 084203 (2009). %
     %                                                                      %
     %                                                                      %
     % If you are calculating the stress with vdW-DF, please also cite:     %
     %                                                                      %
     %   R. Sabatini et al., J. Phys.: Condens. Matter 24, 424209 (2012).   %
     %                                                                      %
     %%%%%%%%%%%%%%%%%%%%%%%%%%%%%%%%%%%%%%%%%%%%%%%%%%%%%%%%%%%%%%%%%%%%%%%%

     Adding external electric field

     Computed dipole along edir(3) :
        Dipole               -8.3452 Ry au,        -21.2113 Debye
        Dipole field         -0.0157 Ry au,

        Potential amp.        1.4599 Ry
        Total length         46.3494 bohr

     Starting wfcs are  300 atomic wfcs
  @ DRIVER MODE: Message from server: STATUS
  @ DRIVER MODE: Message from server: POSDATA
  @ DRIVER MODE: Reading and sharing cell
  @ DRIVER MODE: Reading and sharing positions
  @ DRIVER MODE: Received positions

     Self-consistent Calculation

     iteration #  1     ecut=    29.40 Ry     beta= 0.05
     Davidson diagonalization with overlap
     c_bands:  1 eigenvalues not converged
     c_bands:  1 eigenvalues not converged
     c_bands:  1 eigenvalues not converged
     c_bands:  1 eigenvalues not converged
     c_bands:  1 eigenvalues not converged
     ethr =  1.00E-05,  avg # of iterations = 18.4

[...]

     total energy              =   -2612.83348661 Ry
     estimated scf accuracy    <    3892.83882965 Ry

     iteration #  2     ecut=    29.40 Ry     beta= 0.05
     Davidson diagonalization with overlap
     ethr =  1.00E-02,  avg # of iterations = 22.7

[...]

     iteration # 46     ecut=    29.40 Ry     beta= 0.05
     Davidson diagonalization with overlap
     c_bands:  1 eigenvalues not converged
     ethr =  1.04E-07,  avg # of iterations =  5.6

[...]

     total energy              =   -2965.10860716 Ry
     estimated scf accuracy    <       0.00000052 Ry

     iteration # 59     ecut=    29.40 Ry     beta= 0.05
     Davidson diagonalization with overlap
     ethr =  9.87E-11,  avg # of iterations =  4.8

     negative rho (up, down):  1.731E-02 0.000E+00

     Adding external electric field

     Computed dipole along edir(3) :
        Dipole                0.5360 Ry au,          1.3625 Debye
        Dipole field          0.0010 Ry au,

        Potential amp.       -0.0938 Ry
        Total length         46.3494 bohr

     End of self-consistent calculation

          k = 0.0000 0.0000 0.0000 ( 18029 PWs)   bands (ev):

   -56.4421 -56.3954 -55.8701 -55.8383 -55.8288 -55.8169 -55.7731 -55.7361
   -55.7113 -55.6981 -55.6593 -55.6171 -55.6134 -55.4668 -55.0453 -55.0114
   -32.8546 -32.7071 -32.6576 -32.6216 -32.5271 -32.4811 -32.3616 -32.3155
   -32.3091 -32.1945 -32.1569 -32.1340 -32.1319 -32.1114 -32.1058 -32.0694
   -32.0662 -32.0518 -32.0345 -32.0291 -32.0168 -31.9791 -31.9681 -31.9515
   -31.9436 -31.9309 -31.9283 -31.9178 -31.9160 -31.9050 -31.9000 -31.8878
   -31.8630 -31.8616 -31.8561 -31.8225 -31.8111 -31.8103 -31.7811 -31.7226
   -31.6920 -31.6730 -31.4395 -31.3862 -31.3618 -31.2563 -31.1714 -31.0608
   -17.6024 -16.6294 -16.5868 -16.4417 -16.2039 -16.0573 -15.9760 -15.7564
   -15.7539 -15.6346 -15.6233 -15.5886 -15.4508 -15.4382 -15.4311 -15.3761
   -15.3603 -15.3493 -15.3434 -15.3362 -15.3231 -15.2749 -15.2619 -15.2101
   -15.1516 -15.0849 -15.0555 -15.0119 -14.9926 -14.9570 -14.7264 -13.5478
   -13.4395  -9.3402  -4.3284  -4.2465  -4.1218  -4.0253  -3.8815  -3.7798
    -3.7533  -3.6718  -3.5779  -3.4685  -3.2697  -3.1075  -3.0510  -3.0143
    -2.9812  -2.9277  -2.8728  -2.8142  -2.7688  -2.7401  -2.7111  -2.6438
    -2.6285  -2.6166  -2.5886  -2.5803  -2.5444  -2.5111  -2.5008  -2.3687
    -2.3393  -2.3021  -2.2965  -2.2374  -2.2181  -2.1933  -2.1872  -2.1363
    -2.0432  -1.9626  -1.9271  -1.8874  -1.6970  -1.6424  -1.5722  -1.5068
    -1.4283  -1.3813  -1.3618  -1.3397  -1.2683  -1.2403  -1.1288  -1.1066
    -1.0607  -0.9973  -0.9938  -0.9544  -0.8950  -0.8681  -0.8062  -0.7735
    -0.7478  -0.6044  -0.5791  -0.5512  -0.5088  -0.5003  -0.4012  -0.3373
    -0.2891  -0.2692  -0.2218  -0.1876  -0.1488  -0.1016  -0.0842  -0.0573
     0.0313   0.0574   0.0817   0.1254   0.1613   0.1843   0.2041   0.2970
     0.3444   0.3623   0.3782   0.5342   0.5727   0.5892   0.7181   0.7292
     0.9023   0.9710   1.0087   1.1881   1.2342   1.5210   1.5632   2.8596
     3.0178   3.2889   3.4360   3.5043   3.5434   3.5971   3.6143   3.7555
     3.7953

[...]

          k = 0.0380-0.0419 0.0000 ( 17876 PWs)   bands (ev):

[...]

          k =-0.0760-0.0000 0.0000 ( 17886 PWs)   bands (ev):

[...]

          k =-0.0760-0.0839 0.0000 ( 17948 PWs)   bands (ev):

   -56.4350 -56.4023 -55.8682 -55.8326 -55.8278 -55.8129 -55.7781 -55.7399
   -55.7130 -55.6995 -55.6508 -55.6255 -55.6115 -55.4686 -55.0285 -55.0281
   -32.7025 -32.6854 -32.6617 -32.6576 -32.5868 -32.5590 -32.2495 -32.1858
   -32.1593 -32.1278 -32.1048 -32.1011 -32.0904 -32.0757 -32.0684 -32.0537
   -32.0492 -32.0414 -32.0359 -32.0283 -32.0282 -32.0203 -31.9983 -31.9972
   -31.9948 -31.9797 -31.9682 -31.9535 -31.9450 -31.9387 -31.9180 -31.9049
   -31.9016 -31.8884 -31.8751 -31.8607 -31.8602 -31.8263 -31.8155 -31.7963
   -31.7248 -31.6766 -31.3750 -31.3748 -31.2550 -31.2534 -31.2137 -31.2128
   -17.5646 -16.6015 -15.9840 -15.9043 -15.9001 -15.8887 -15.8621 -15.8200
   -15.7427 -15.7358 -15.6648 -15.5981 -15.5647 -15.5198 -15.4973 -15.4854
   -15.4482 -15.4436 -15.3860 -15.3425 -15.3260 -15.3148 -15.2950 -15.2516
   -15.2459 -15.2432 -15.2196 -15.2040 -15.1538 -15.0536 -14.8669 -13.5439
   -13.5426  -9.3405  -4.2579  -4.1672  -3.9617  -3.7494  -3.2162  -3.1398
    -3.0656  -3.0577  -2.9829  -2.9232  -2.9084  -2.8639  -2.8568  -2.8246
    -2.7532  -2.7428  -2.7299  -2.7195  -2.7121  -2.7034  -2.6806  -2.6356
    -2.6224  -2.6152  -2.5996  -2.5907  -2.5790  -2.5753  -2.5489  -2.5095
    -2.4394  -2.3800  -2.2554  -2.2478  -2.2130  -2.1965  -2.1555  -2.1435
    -2.0895  -1.9976  -1.9854  -1.9827  -1.8933  -1.8374  -1.6243  -1.6094
    -1.5923  -1.5254  -1.4534  -1.3863  -1.3630  -1.3399  -1.3073  -1.2845
    -1.2357  -1.1864  -1.1515  -1.1151  -1.0990  -1.0603  -1.0079  -0.9546
    -0.9069  -0.9029  -0.8599  -0.8125  -0.7809  -0.7017  -0.6956  -0.6724
    -0.6491  -0.6086  -0.5245  -0.4726  -0.4296  -0.3355  -0.2930  -0.2602
    -0.1198  -0.0615  -0.0243   0.0517   0.0943   0.1957   0.2204   0.2973
     0.3094   0.3386   0.3630   0.4372   0.5054   0.5615   0.6033   0.6472
     0.6588   0.7082   0.7705   1.3650   1.3656   1.3729   1.3805   3.4049
     3.4297   3.4374   3.4673   3.6938   3.7114   3.7835   3.8129   3.8302
     3.8834

     the Fermi energy is     2.2692 ev

!    total energy              =   -2965.10865429 Ry
     estimated scf accuracy    <       0.00000007 Ry
     smearing contrib. (-TS)   =      -0.00015934 Ry
     internal energy E=F+TS    =   -2965.10849495 Ry

     The total energy is F=E-TS. E is the sum of the following terms:
     one-electron contribution =  -24222.96855302 Ry
     hartree contribution      =   12200.78923429 Ry
     xc contribution           =    -490.02617998 Ry
     ewald contribution        =    9547.09646150 Ry
     electric field correction =       0.00054224 Ry

     convergence has been achieved in  59 iterations

     Forces acting on atoms (cartesian axes, Ry/au):

     atom    1 type  1   force =    -0.00002055    0.00003514    0.13238458
     atom    2 type  1   force =    -0.00019301    0.00779001   -0.15735613
     atom    3 type  2   force =     0.00008501   -0.00480936   -0.05216936
     atom    4 type  2   force =     0.00035838    0.00109127    0.04043438
     atom    5 type  2   force =    -0.00611355   -0.00278459   -0.00017666
     atom    6 type  2   force =     0.00840227   -0.00338413    0.00080363
     atom    7 type  1   force =    -0.00003051   -0.00015186   -0.00002135
     atom    8 type  1   force =     0.00021188   -0.00056646    0.00040365
     atom    9 type  2   force =    -0.00004442    0.00021241   -0.00002072
     atom   10 type  2   force =    -0.00014465   -0.00037761   -0.00014162
     atom   11 type  2   force =     0.00042302    0.00026699   -0.00017989
     atom   12 type  2   force =    -0.00025555    0.00016327   -0.00004483
     atom   13 type  1   force =    -0.00068608    0.00048672   -0.00027453
     atom   14 type  1   force =     0.00007417   -0.00033764   -0.00022129
     atom   15 type  2   force =    -0.00021537    0.00003960   -0.00078440
     atom   16 type  2   force =    -0.00033033    0.00011893    0.00005852
     atom   17 type  2   force =     0.00007284    0.00000897    0.00001214
     atom   18 type  2   force =    -0.00064984    0.00017678   -0.00015072
     atom   19 type  1   force =     0.00002545   -0.00041793   -0.00021264
     atom   20 type  1   force =    -0.00006462   -0.00018011    0.00015028
     atom   21 type  2   force =    -0.00002210    0.00001947    0.09912485
     atom   22 type  2   force =     0.00003534    0.00012061    0.00012982
     atom   23 type  2   force =    -0.08092343    0.00049316   -0.03408540
     atom   24 type  2   force =     0.08072338    0.00095856   -0.03414780
     atom   25 type  1   force =    -0.00001434   -0.00026937    0.14099885
     atom   26 type  1   force =    -0.00013008   -0.00647481   -0.15700873
     atom   27 type  2   force =     0.00016255    0.00109036   -0.05216949
     atom   28 type  2   force =     0.00018812    0.00033688    0.04176790
     atom   29 type  2   force =    -0.00753124    0.00512282    0.00203389
     atom   30 type  2   force =     0.00860354    0.00382946    0.00273682
     atom   31 type  1   force =    -0.00002964    0.00016696    0.00000571
     atom   32 type  1   force =     0.00030630   -0.00005515   -0.00050918
     atom   33 type  2   force =    -0.00005827    0.00038340    0.00023281
     atom   34 type  2   force =    -0.00011836    0.00019401    0.00040855
     atom   35 type  2   force =    -0.00051320   -0.00035091   -0.00006646
     atom   36 type  2   force =     0.00049802   -0.00044201    0.00016680
     atom   37 type  1   force =    -0.00055764   -0.00029152   -0.00009926
     atom   38 type  1   force =     0.00001509   -0.00000550   -0.00043305
     atom   39 type  2   force =    -0.00001597   -0.00014291   -0.00024860
     atom   40 type  2   force =    -0.00014064   -0.00014870   -0.00033282
     atom   41 type  2   force =    -0.00008199    0.00012655   -0.00038635
     atom   42 type  2   force =    -0.00002965    0.00033681   -0.00018747
     atom   43 type  1   force =    -0.00022050    0.00035671   -0.00016233
     atom   44 type  1   force =     0.00000239   -0.00047683    0.00026150
     atom   45 type  2   force =    -0.00002964    0.00012633    0.09868256
     atom   46 type  2   force =    -0.08088254   -0.00164656   -0.03408344
     atom   47 type  2   force =     0.08069103   -0.00117477   -0.03415035
     atom   48 type  3   force =     0.00340043   -0.00277124    0.00188703
     atom   49 type  2   force =    -0.00014339    0.00074726   -0.00134182
     atom   50 type  4   force =     0.00003233   -0.00074158    0.00048161
     atom   51 type  4   force =    -0.00346294    0.00326766   -0.00170932
     atom   52 type  4   force =    -0.00020328    0.00064039    0.00012246
     atom   53 type  2   force =     0.00032037   -0.00028423   -0.00128317
     atom   54 type  4   force =    -0.00077459   -0.00042172    0.00087087

     Total force =     0.382736     Total SCF correction =     0.000849
  @ DRIVER MODE: Message from server: STATUS
  @ DRIVER MODE: Message from server: GETFORCE
  @ DRIVER MODE: Returning v,forces,stress,ensemble

     Writing output data file ./calc.save/
  @ DRIVER MODE: Message from server: EXIT
  @ DRIVE MODE: Exiting

     General routines

     Parallel routines

   This run was terminated on:  22:56:18  22Sep2021

   JOB DONE.