     Program PWSCF v.6.7GPU starts on 23Sep2021 at  2: 7: 1

     R & G space division:  proc/nbgrp/npool/nimage =      10
     Reading input from /storage/home/hcoda1/3/ntian30/research/carbon/CxH_vib/H2O_calc/ads_slab/CHON2HO_d/out_0030/pw.inp
Warning: card &CELL ignored
Warning: card   CELL_DYNAMICS='IPI', ignored
Warning: card / ignored

     Current dimensions of program PWSCF are:
     Max number of different atomic species (ntypx) = 10
     Max number of k-points (npk) =  40000
     Max angular momentum in pseudopotentials (lmaxx) =  3
     Presently no symmetry can be used with electric field

     Message from routine cell_base_init:
     DEPRECATED: use true lattice parameter, not A to a.u. conversion factor

     IMPORTANT: XC functional enforced from input :
     Exchange-correlation= BEEF-VDW
                           (   1   4  43  14   2   0   0)
     Any further DFT definition will be discarded
     Please, verify this is what you really want

  @ DRIVER MODE: Connecting to
 qe_1139763_2937317.sched-torque.pace.gatech.edueqcttxm7_scratch
  using UNIX socket
  @ DRIVER MODE: Message from server: STATUS
  @ DRIVER MODE: Message from server: INIT
  @ DRIVER MODE: Receiving replica           0          -1
  @ DRIVER MODE: Receiving encoded integer          25
  @ DRIVER MODE:  SCF:  T  FORCE:  T  STRESS:  F  VC:  F  ENSEMBLE:  F
  @ DRIVER MODE:  SCF:  T  FORCE:  T  STRESS:  F  VC:  F  ENSEMBLE:  F

     Using Slab Decomposition

     bravais-lattice index     =            0
     lattice parameter (alat)  =       1.8897  a.u.
     unit-cell volume          =    6658.9804 (a.u.)^3
     number of atoms/cell      =           54
     number of atomic types    =            5
     number of electrons       =       406.00
     number of Kohn-Sham states=          213
     kinetic-energy cutoff     =      29.3995  Ry
     charge density cutoff     =     293.9946  Ry
     scf convergence threshold =      7.3E-08
     mixing beta               =       0.0500
     number of iterations used =            8  plain     mixing
     Exchange-correlation= BEEF-VDW
                           (   1   4  43  14   2   0   0)

     celldm(1)=   1.889726  celldm(2)=   0.000000  celldm(3)=   0.000000
     celldm(4)=   0.000000  celldm(5)=   0.000000  celldm(6)=   0.000000

     crystal axes: (cart. coord. in units of alat)
               a(1) = (   6.579727   0.000000   0.000000 )
               a(2) = (  -0.000775   5.961596   0.000000 )
               a(3) = (   0.000000   0.000000  25.155947 )

     reciprocal axes: (cart. coord. in units 2 pi/alat)
               b(1) = (  0.151982  0.000020  0.000000 )
               b(2) = (  0.000000  0.167740  0.000000 )
               b(3) = (  0.000000  0.000000  0.039752 )

     PseudoPot. # 1 for O  read from file:
     /storage/coda1/p-amedford6/0/shared/rich_project_chbe-medford/medford-share/data/pseudos_module/espresso/nninc/pbe/van/O.UPF
     MD5 check sum: 78c19812648e8988a0fe644b0f25305e
     Pseudo is Ultrasoft, Zval =  6.0
     Generated by new atomic code, or converted to UPF format
     Using radial grid of  737 points,  4 beta functions with:
                l(1) =   0
                l(2) =   0
                l(3) =   1
                l(4) =   1
     Q(r) pseudized with  8 coefficients,  rinner =    0.800   0.800   0.800

     PseudoPot. # 2 for Ti read from file:
     /storage/coda1/p-amedford6/0/shared/rich_project_chbe-medford/medford-share/data/pseudos_module/espresso/nninc/pbe/van/Ti.UPF
     MD5 check sum: 8e4df49b7f0d34bbd5052bf3f5ea0213
     Pseudo is Ultrasoft, Zval = 12.0
     Generated by new atomic code, or converted to UPF format
     Using radial grid of  851 points,  6 beta functions with:
                l(1) =   0
                l(2) =   0
                l(3) =   1
                l(4) =   1
                l(5) =   2
                l(6) =   2
     Q(r) pseudized with  8 coefficients,  rinner =    1.000   1.000   1.000
                                                       1.000   1.000

     PseudoPot. # 3 for C  read from file:
     /storage/coda1/p-amedford6/0/shared/rich_project_chbe-medford/medford-share/data/pseudos_module/espresso/nninc/pbe/van/C.UPF
     MD5 check sum: 1a69bf6b8db32088f5b2163dbdb77a27
     Pseudo is Ultrasoft, Zval =  4.0
     Generated by new atomic code, or converted to UPF format
     Using radial grid of  721 points,  4 beta functions with:
                l(1) =   0
                l(2) =   0
                l(3) =   1
                l(4) =   1
     Q(r) pseudized with  8 coefficients,  rinner =    0.800   0.800   0.800

     PseudoPot. # 4 for H  read from file:
     /storage/coda1/p-amedford6/0/shared/rich_project_chbe-medford/medford-share/data/pseudos_module/espresso/nninc/pbe/van/H.UPF
     MD5 check sum: b5ee9d7bfd3a09ee7748110bda690ff7
     Pseudo is Ultrasoft, Zval =  1.0
     Generated by new atomic code, or converted to UPF format
     Using radial grid of  615 points,  1 beta functions with:
                l(1) =   0
     Q(r) pseudized with  8 coefficients,  rinner =    0.800

     PseudoPot. # 5 for N  read from file:
     /storage/coda1/p-amedford6/0/shared/rich_project_chbe-medford/medford-share/data/pseudos_module/espresso/nninc/pbe/van/N.UPF
     MD5 check sum: 90d10febe142ad51ac9d5be1deb811c4
     Pseudo is Ultrasoft, Zval =  5.0
     Generated by new atomic code, or converted to UPF format
     Using radial grid of  729 points,  4 beta functions with:
                l(1) =   0
                l(2) =   0
                l(3) =   1
                l(4) =   1
     Q(r) pseudized with  8 coefficients,  rinner =    0.800   0.800   0.800

     atomic species   valence    mass     pseudopotential
        O1             6.00    15.99900     O ( 1.00)
        Ti1           12.00    47.86700     Ti( 1.00)
        C1             4.00    12.01100     C ( 1.00)
        H1             1.00     1.00800     H ( 1.00)
        N1             5.00    14.00700     N ( 1.00)

     No symmetry found

   Cartesian axes

     site n.     atom                  positions (alat units)
         1           O1  tau(   1) = (   3.2904802   0.0005063   4.7018136  )
         2           O1  tau(   2) = (   3.2900926   2.9813045   4.7018136  )
         3           Ti1 tau(   3) = (   0.0004258   2.9801865   6.0000000  )
         4           Ti1 tau(   4) = (   0.0000382   5.9609847   6.0000000  )
         5           Ti1 tau(   5) = (   3.2906075   1.4906267   6.0002472  )
         6           Ti1 tau(   6) = (   3.2902200   4.4714249   6.0002472  )
         7           O1  tau(   7) = (   1.3043587   1.4918075   6.0039043  )
         8           O1  tau(   8) = (   1.3039711   4.4726057   6.0039043  )
         9           O1  tau(   9) = (   5.2767064   1.4903225   6.0039473  )
        10           O1  tau(  10) = (   5.2763189   4.4711207   6.0039473  )
        11           O1  tau(  11) = (   3.2906025   0.0005020   7.3038282  )
        12           O1  tau(  12) = (   3.2902150   2.9813002   7.3038282  )
        13           O1  tau(  13) = (   0.0006271   0.0005054   7.9858123  )
        14           O1  tau(  14) = (   0.0002396   2.9813036   7.9858123  )
        15           Ti1 tau(  15) = (   3.2350752   0.0608747   9.1773017  )
        16           Ti1 tau(  16) = (   3.2297482   3.0449837   9.2258248  )
        17           Ti1 tau(  17) = (   6.5035314   4.4790947   9.3419400  )
        18           O1  tau(  18) = (   4.5942328   1.4918067   9.2879030  )
        19           O1  tau(  19) = (   4.5938453   4.4726049   9.2879030  )
        20           O1  tau(  20) = (   1.9868534   1.4903216   9.2879459  )
        21           O1  tau(  21) = (   1.9864658   4.4711199   9.2879459  )
        22           Ti1 tau(  22) = (   6.5047199   1.5482117   9.3251357  )
        23           O1  tau(  23) = (   6.5709586   2.9893791  10.5365161  )
        24           O1  tau(  24) = (   6.5791863   0.0068326  10.5847705  )
        25           O1  tau(  25) = (   3.2737170   2.9471243  11.2864913  )
        26           O1  tau(  26) = (   3.2757665   0.0160177  11.3056520  )
        27           Ti1 tau(  27) = (   3.3024496   1.5456137  12.4328335  )
        28           Ti1 tau(  28) = (   0.0381823   0.0558990  12.5328616  )
        29           Ti1 tau(  29) = (   3.2867454   4.6490159  12.6676011  )
        30           O1  tau(  30) = (   1.2579511   1.4933188  12.6274103  )
        31           O1  tau(  31) = (   5.2930440   1.4968169  12.6131059  )
        32           O1  tau(  32) = (   1.2503383   4.4760527  12.6363980  )
        33           O1  tau(  33) = (   5.2887019   4.4660859  12.6249461  )
        34           Ti1 tau(  34) = (   6.5320965   3.0346479  12.8073368  )
        35           O1  tau(  35) = (   3.2762579   2.9735537  13.8874883  )
        36           O1  tau(  36) = (   3.2793791   5.9387796  13.8789893  )
        37           O1  tau(  37) = (   6.5412754   2.9812497  14.6926498  )
        38           O1  tau(  38) = (   6.5531526   0.0082392  14.6823945  )
        39           Ti1 tau(  39) = (   3.2668636   2.9663550  15.6683660  )
        40           Ti1 tau(  40) = (   3.2982107   5.9440960  16.3508785  )
        41           Ti1 tau(  41) = (   0.0141158   4.5598071  15.9269461  )
        42           O1  tau(  42) = (   4.5124726   4.4172202  16.0573870  )
        43           O1  tau(  43) = (   1.9821766   4.4208814  16.0404589  )
        44           O1  tau(  44) = (   4.4954461   1.5000296  16.1066544  )
        45           O1  tau(  45) = (   1.9782815   1.5221889  16.0619205  )
        46           Ti1 tau(  46) = (   0.0269324   1.3869748  16.0447141  )
        47           O1  tau(  47) = (   6.5379229   5.9414530  17.1901000  )
        48           O1  tau(  48) = (   6.5175113   2.9840192  17.3772383  )
        49           C1  tau(  49) = (   5.9742390   3.1768082  18.5865123  )
        50           H1  tau(  50) = (   5.8341806   4.1706531  18.9840957  )
        51           N1  tau(  51) = (   5.5886240   2.1683037  19.3003467  )
        52           N1  tau(  52) = (   5.2398892   1.2394158  19.9070451  )
        53           O1  tau(  53) = (   3.2183551   5.8834210  18.1446619  )
        54           H1  tau(  54) = (   3.7026433   0.4006729  18.8445816  )

     number of k points=    10  Fermi-Dirac smearing, width (Ry)=  0.0073
                       cart. coord. in units 2pi/alat
        k(    1) = (   0.0000000   0.0000000   0.0000000), wk =   0.1250000
        k(    2) = (   0.0000000   0.0419351   0.0000000), wk =   0.2500000
        k(    3) = (   0.0000000  -0.0838702   0.0000000), wk =   0.1250000
        k(    4) = (   0.0379955   0.0000049   0.0000000), wk =   0.2500000
        k(    5) = (   0.0379955   0.0419400   0.0000000), wk =   0.2500000
        k(    6) = (   0.0379955  -0.0838652   0.0000000), wk =   0.2500000
        k(    7) = (   0.0379955  -0.0419301   0.0000000), wk =   0.2500000
        k(    8) = (  -0.0759910  -0.0000099   0.0000000), wk =   0.1250000
        k(    9) = (  -0.0759910   0.0419252   0.0000000), wk =   0.2500000
        k(   10) = (  -0.0759910  -0.0838800   0.0000000), wk =   0.1250000

     Initial potential from superposition of free atoms

     starting charge  389.99917, renormalised to  406.00000

     negative rho (up, down):  1.657E-02 0.000E+00

     %%%%%%%%%%%%%%%%%%%%%%%%%%%%%%%%%%%%%%%%%%%%%%%%%%%%%%%%%%%%%%%%%%%%%%%%
     %                                                                      %
     % You are using vdW-DF, which was implemented by the Thonhauser group. %
     % Please cite the following two papers that made this development      %
     % possible and the two reviews that describe the various versions:     %
     %                                                                      %
     %   T. Thonhauser et al., PRL 115, 136402 (2015).                      %
     %   T. Thonhauser et al., PRB 76, 125112 (2007).                       %
     %   K. Berland et al., Rep. Prog. Phys. 78, 066501 (2015).             %
     %   D.C. Langreth et al., J. Phys.: Condens. Matter 21, 084203 (2009). %
     %                                                                      %
     %                                                                      %
     % If you are calculating the stress with vdW-DF, please also cite:     %
     %                                                                      %
     %   R. Sabatini et al., J. Phys.: Condens. Matter 24, 424209 (2012).   %
     %                                                                      %
     %%%%%%%%%%%%%%%%%%%%%%%%%%%%%%%%%%%%%%%%%%%%%%%%%%%%%%%%%%%%%%%%%%%%%%%%

     Adding external electric field

     Computed dipole along edir(3) :
        Dipole              -13.7826 Ry au,        -35.0318 Debye
        Dipole field         -0.0260 Ry au,

        Potential amp.        2.4111 Ry
        Total length         46.3494 bohr

     Starting wfcs are  306 atomic wfcs
  @ DRIVER MODE: Message from server: STATUS
  @ DRIVER MODE: Message from server: POSDATA
  @ DRIVER MODE: Reading and sharing cell
  @ DRIVER MODE: Reading and sharing positions
  @ DRIVER MODE: Received positions

     Self-consistent Calculation

     iteration #  1     ecut=    29.40 Ry     beta= 0.05
     Davidson diagonalization with overlap
     c_bands:  1 eigenvalues not converged
     c_bands:  1 eigenvalues not converged
     c_bands:  5 eigenvalues not converged
     c_bands:  5 eigenvalues not converged
     ethr =  1.00E-05,  avg # of iterations = 30.9

[...]

     total energy              =   -2308.91329485 Ry
     estimated scf accuracy    <    7885.45657704 Ry

     iteration #  2     ecut=    29.40 Ry     beta= 0.05
     Davidson diagonalization with overlap
     ethr =  1.00E-02,  avg # of iterations = 25.5

[...]

     iteration # 52     ecut=    29.40 Ry     beta= 0.05
     Davidson diagonalization with overlap
     c_bands:  1 eigenvalues not converged
     ethr =  7.68E-08,  avg # of iterations =  7.1

[...]

     total energy              =   -3002.64630469 Ry
     estimated scf accuracy    <       0.00000015 Ry

     iteration # 75     ecut=    29.40 Ry     beta= 0.05
     Davidson diagonalization with overlap
     ethr =  3.78E-11,  avg # of iterations =  4.1

     negative rho (up, down):  1.645E-02 0.000E+00

     Adding external electric field

     Computed dipole along edir(3) :
        Dipole                0.4066 Ry au,          1.0336 Debye
        Dipole field          0.0008 Ry au,

        Potential amp.       -0.0711 Ry
        Total length         46.3494 bohr

     End of self-consistent calculation

          k = 0.0000 0.0000 0.0000 ( 18029 PWs)   bands (ev):

   -56.2563 -56.1995 -55.7689 -55.7142 -55.7105 -55.6942 -55.6629 -55.6551
   -55.6266 -55.6167 -55.5759 -55.5582 -55.4939 -55.3229 -54.9070 -54.8731
   -32.6712 -32.5323 -32.4669 -32.4264 -32.3279 -32.2959 -32.2505 -32.2213
   -32.2055 -32.1035 -32.0702 -32.0100 -32.0061 -31.9989 -31.9870 -31.9661
   -31.9580 -31.9535 -31.9329 -31.9242 -31.8727 -31.8685 -31.8646 -31.8614
   -31.8587 -31.8418 -31.8389 -31.8211 -31.8183 -31.8140 -31.8069 -31.7766
   -31.7746 -31.7739 -31.7478 -31.7358 -31.7295 -31.7236 -31.6956 -31.5828
   -31.5414 -31.5331 -31.3036 -31.2449 -31.2207 -31.1201 -31.0349 -30.9237
   -20.4622 -18.6761 -16.5074 -16.4693 -16.3129 -16.1072 -15.9476 -15.8750
   -15.6835 -15.5957 -15.5366 -15.5067 -15.4742 -15.3930 -15.3584 -15.3064
   -15.2613 -15.2465 -15.2227 -15.2059 -15.1941 -15.1920 -15.1887 -15.1589
   -15.1175 -15.0199 -14.9521 -14.9150 -14.8956 -14.8859 -14.8455 -14.5369
   -13.5256 -13.4090 -13.2994  -6.9456  -5.8831  -4.8951  -4.3436  -3.9646
    -3.7897  -3.6972  -3.6326  -3.5693  -3.5330  -3.3434  -3.2731  -3.1532
    -3.0312  -2.9491  -2.8771  -2.8581  -2.8351  -2.7964  -2.7375  -2.7040
    -2.6731  -2.6424  -2.5851  -2.5455  -2.5176  -2.4862  -2.4725  -2.4356
    -2.4168  -2.4119  -2.2712  -2.2248  -2.1818  -2.1758  -2.1514  -2.1301
    -2.1071  -2.0735  -2.0610  -2.0093  -1.9329  -1.8473  -1.8314  -1.7471
    -1.7148  -1.5408  -1.4785  -1.4037  -1.3728  -1.2077  -1.1805  -1.1729
    -1.1510  -1.1304  -1.0068  -0.9749  -0.9394  -0.9283  -0.8925  -0.8705
    -0.8454  -0.7393  -0.6747  -0.6349  -0.6200  -0.5545  -0.4577  -0.3866
    -0.3580  -0.3255  -0.2927  -0.1889  -0.1576  -0.1163  -0.1086  -0.0470
    -0.0134   0.0096   0.0664   0.0934   0.1470   0.1618   0.1815   0.2209
     0.2308   0.2769   0.3452   0.4092   0.5060   0.5262   0.5512   0.5883
     0.6687   0.7432   0.8238   1.0052   1.1109   1.1510   1.3151   1.3611
     1.6616   1.7092   2.5241   3.0344   3.1864   3.4494   3.5015   3.5370
     3.5780   3.6335   3.7639   3.8745   3.9307

[...]

          k = 0.0380-0.0419 0.0000 ( 17876 PWs)   bands (ev):

[...]

          k =-0.0760-0.0000 0.0000 ( 17886 PWs)   bands (ev):

[...]

          k =-0.0760-0.0839 0.0000 ( 17948 PWs)   bands (ev):

   -56.2507 -56.2049 -55.7664 -55.7128 -55.7028 -55.6898 -55.6703 -55.6575
   -55.6311 -55.6076 -55.5850 -55.5592 -55.4922 -55.3245 -54.8902 -54.8897
   -32.5288 -32.5068 -32.4694 -32.4678 -32.3946 -32.3566 -32.1541 -32.0708
   -32.0616 -32.0244 -32.0162 -31.9833 -31.9829 -31.9783 -31.9556 -31.9500
   -31.9411 -31.9357 -31.9347 -31.9253 -31.9127 -31.9090 -31.8843 -31.8803
   -31.8777 -31.8713 -31.8709 -31.8650 -31.8468 -31.8418 -31.8269 -31.8241
   -31.8206 -31.8106 -31.8033 -31.7785 -31.7626 -31.7284 -31.6993 -31.6569
   -31.5816 -31.5357 -31.2338 -31.2336 -31.1192 -31.1170 -31.0769 -31.0758
   -20.4606 -18.6645 -16.4853 -15.8356 -15.8259 -15.7938 -15.7537 -15.7064
   -15.6926 -15.6250 -15.6158 -15.5879 -15.5076 -15.4444 -15.3905 -15.3669
   -15.3634 -15.3406 -15.3126 -15.2724 -15.2507 -15.2417 -15.2318 -15.1764
   -15.1546 -15.1522 -15.1257 -15.1049 -15.0804 -15.0377 -14.9009 -14.6952
   -13.5329 -13.4038 -13.4020  -6.9173  -5.8982  -4.8937  -4.3329  -3.6106
    -3.2557  -3.0922  -3.0644  -2.9829  -2.9274  -2.8288  -2.8079  -2.7890
    -2.7763  -2.7625  -2.7372  -2.7076  -2.6585  -2.6301  -2.5955  -2.5846
    -2.5770  -2.5571  -2.5489  -2.5179  -2.5018  -2.4840  -2.4656  -2.4478
    -2.4336  -2.4195  -2.3482  -2.3160  -2.2811  -2.1161  -2.1034  -2.1006
    -2.0745  -2.0570  -2.0475  -1.9867  -1.9246  -1.9151  -1.8637  -1.8487
    -1.7657  -1.7039  -1.5412  -1.5034  -1.4766  -1.4000  -1.3414  -1.3080
    -1.2854  -1.2523  -1.2192  -1.2095  -1.1668  -1.1156  -1.0370  -1.0143
    -0.9645  -0.9565  -0.9472  -0.8645  -0.7927  -0.7764  -0.7313  -0.7125
    -0.6885  -0.6505  -0.5961  -0.5619  -0.5487  -0.5358  -0.4391  -0.3883
    -0.3343  -0.2325  -0.1954  -0.1362  -0.0253   0.0588   0.0706   0.1684
     0.2101   0.3091   0.3474   0.4005   0.4390   0.4659   0.4958   0.6127
     0.6316   0.6777   0.7556   0.7727   0.8008   0.8510   1.4998   1.5073
     1.5177   1.5193   2.4440   3.5565   3.5843   3.6029   3.6417   3.8392
     3.8698   3.8870   3.9164   3.9343   3.9865

     the Fermi energy is     2.8363 ev

!    total energy              =   -3002.64631744 Ry
     estimated scf accuracy    <       0.00000006 Ry
     smearing contrib. (-TS)   =      -0.00425496 Ry
     internal energy E=F+TS    =   -3002.64206249 Ry

     The total energy is F=E-TS. E is the sum of the following terms:
     one-electron contribution =  -23367.97455629 Ry
     hartree contribution      =   11777.80444633 Ry
     xc contribution           =    -498.78052803 Ry
     ewald contribution        =    9086.30826344 Ry
     electric field correction =       0.00031206 Ry

     convergence has been achieved in  75 iterations

     Forces acting on atoms (cartesian axes, Ry/au):

     atom    1 type  1   force =     0.00016583    0.00010324    0.09957967
     atom    2 type  1   force =     0.00014714    0.00020977    0.09908486
     atom    3 type  2   force =     0.00019411    0.00033776    0.12392452
     atom    4 type  2   force =     0.00043876    0.00004240    0.13849293
     atom    5 type  2   force =    -0.00009615    0.00965058   -0.15998432
     atom    6 type  2   force =     0.00009796   -0.00873679   -0.15976500
     atom    7 type  1   force =    -0.07910371    0.00145916   -0.03322704
     atom    8 type  1   force =    -0.07913421   -0.00181661   -0.03326548
     atom    9 type  1   force =     0.07905961    0.00178898   -0.03330571
     atom   10 type  1   force =     0.07908824   -0.00146858   -0.03328388
     atom   11 type  1   force =    -0.00114222    0.00062808    0.04292233
     atom   12 type  1   force =    -0.00115168    0.00003384    0.04558177
     atom   13 type  1   force =    -0.00039520   -0.00173878   -0.05063950
     atom   14 type  1   force =    -0.00085913    0.00123277   -0.04784403
     atom   15 type  2   force =    -0.00033675   -0.00004734    0.00009770
     atom   16 type  2   force =    -0.00033120    0.00005602   -0.00016881
     atom   17 type  2   force =     0.00023446   -0.00038954   -0.00016837
     atom   18 type  1   force =    -0.01155148   -0.00689839   -0.00023479
     atom   19 type  1   force =    -0.01368064    0.00098295    0.00212055
     atom   20 type  1   force =     0.01284499   -0.00248638   -0.00225335
     atom   21 type  1   force =     0.01410044    0.00576441    0.00037433
     atom   22 type  2   force =     0.00031401    0.00005322    0.00025931
     atom   23 type  1   force =    -0.00010102   -0.00009080   -0.00006699
     atom   24 type  1   force =    -0.00025613   -0.00000065    0.00036531
     atom   25 type  1   force =     0.00023301    0.00033548   -0.00018540
     atom   26 type  1   force =     0.00034948    0.00011584   -0.00035283
     atom   27 type  2   force =    -0.00031187   -0.00043051    0.00036996
     atom   28 type  2   force =     0.00052317   -0.00029528   -0.00002593
     atom   29 type  2   force =    -0.00015901    0.00024839    0.00021358
     atom   30 type  1   force =    -0.00033417   -0.00035402   -0.00025246
     atom   31 type  1   force =     0.00049706   -0.00004096    0.00011894
     atom   32 type  1   force =    -0.00030571    0.00039595    0.00000130
     atom   33 type  1   force =     0.00024282    0.00033992    0.00010272
     atom   34 type  2   force =     0.00041517    0.00017380   -0.00029653
     atom   35 type  1   force =     0.00005567   -0.00011579   -0.00045178
     atom   36 type  1   force =     0.00007843   -0.00003926    0.00026762
     atom   37 type  1   force =    -0.00000574   -0.00022040    0.00054969
     atom   38 type  1   force =     0.00004711    0.00046789   -0.00008685
     atom   39 type  2   force =     0.00004348    0.00036920    0.00041624
     atom   40 type  2   force =    -0.00011513   -0.00019492   -0.00018728
     atom   41 type  2   force =    -0.00023709    0.00048924   -0.00011279
     atom   42 type  1   force =     0.00028510    0.00014253   -0.00011309
     atom   43 type  1   force =    -0.00045678    0.00010680   -0.00014404
     atom   44 type  1   force =     0.00046062    0.00001561    0.00043768
     atom   45 type  1   force =    -0.00074591    0.00004370    0.00036842
     atom   46 type  2   force =    -0.00010194    0.00012828   -0.00011379
     atom   47 type  1   force =     0.00001735    0.00020240    0.00001002
     atom   48 type  1   force =     0.00024179    0.00041592   -0.00027591
     atom   49 type  3   force =     0.00021739   -0.00127642   -0.00053646
     atom   50 type  4   force =    -0.00019016    0.00047298    0.00058094
     atom   51 type  5   force =    -0.00574077   -0.01488810    0.01110508
     atom   52 type  5   force =     0.00599877    0.01478922   -0.01080203
     atom   53 type  1   force =     0.00058218    0.00041236    0.00055358
     atom   54 type  4   force =    -0.00013035   -0.00047916    0.00024539

     Total force =     0.381246     Total SCF correction =     0.000745
  @ DRIVER MODE: Message from server: STATUS
  @ DRIVER MODE: Message from server: GETFORCE
  @ DRIVER MODE: Returning v,forces,stress,ensemble

     Writing output data file ./calc.save/
  @ DRIVER MODE: Message from server: EXIT
  @ DRIVE MODE: Exiting

     General routines

     Parallel routines

   This run was terminated on:   2:28:21  23Sep2021

   JOB DONE.