     Program PWSCF v.6.7GPU starts on 23Sep2021 at 16:43:12

     R & G space division:  proc/nbgrp/npool/nimage =       8
     Reading input from /storage/home/hcoda1/3/ntian30/research/carbon/CxH_vib/H2O_calc/ads_slab/CH3OHHO_e/out_0047/pw.inp
Warning: card &CELL ignored
Warning: card   CELL_DYNAMICS='IPI', ignored
Warning: card / ignored

     Current dimensions of program PWSCF are:
     Max number of different atomic species (ntypx) = 10
     Max number of k-points (npk) =  40000
     Max angular momentum in pseudopotentials (lmaxx) =  3
     Presently no symmetry can be used with electric field

     Message from routine cell_base_init:
     DEPRECATED: use true lattice parameter, not A to a.u. conversion factor

     IMPORTANT: XC functional enforced from input :
     Exchange-correlation= BEEF-VDW
                           (   1   4  43  14   2   0   0)
     Any further DFT definition will be discarded
     Please, verify this is what you really want

  @ DRIVER MODE: Connecting to
 qe_1139763_2941008.sched-torque.pace.gatech.eduoxt7djsy_scratch
  using UNIX socket
  @ DRIVER MODE: Message from server: STATUS
  @ DRIVER MODE: Message from server: INIT
  @ DRIVER MODE: Receiving replica           0          -1
  @ DRIVER MODE: Receiving encoded integer          25
  @ DRIVER MODE:  SCF:  T  FORCE:  T  STRESS:  F  VC:  F  ENSEMBLE:  F
  @ DRIVER MODE:  SCF:  T  FORCE:  T  STRESS:  F  VC:  F  ENSEMBLE:  F

     Using Slab Decomposition

     bravais-lattice index     =            0
     lattice parameter (alat)  =       1.8897  a.u.
     unit-cell volume          =    6658.9804 (a.u.)^3
     number of atoms/cell      =           55
     number of atomic types    =            4
     number of electrons       =       399.00
     number of Kohn-Sham states=          209
     kinetic-energy cutoff     =      29.3995  Ry
     charge density cutoff     =     293.9946  Ry
     scf convergence threshold =      7.3E-08
     mixing beta               =       0.0500
     number of iterations used =            8  plain     mixing
     Exchange-correlation= BEEF-VDW
                           (   1   4  43  14   2   0   0)

     celldm(1)=   1.889726  celldm(2)=   0.000000  celldm(3)=   0.000000
     celldm(4)=   0.000000  celldm(5)=   0.000000  celldm(6)=   0.000000

     crystal axes: (cart. coord. in units of alat)
               a(1) = (   6.579727   0.000000   0.000000 )
               a(2) = (  -0.000775   5.961596   0.000000 )
               a(3) = (   0.000000   0.000000  25.155947 )

     reciprocal axes: (cart. coord. in units 2 pi/alat)
               b(1) = (  0.151982  0.000020  0.000000 )
               b(2) = (  0.000000  0.167740  0.000000 )
               b(3) = (  0.000000  0.000000  0.039752 )

     PseudoPot. # 1 for Ti read from file:
     /storage/coda1/p-amedford6/0/shared/rich_project_chbe-medford/medford-share/data/pseudos_module/espresso/nninc/pbe/van/Ti.UPF
     MD5 check sum: 8e4df49b7f0d34bbd5052bf3f5ea0213
     Pseudo is Ultrasoft, Zval = 12.0
     Generated by new atomic code, or converted to UPF format
     Using radial grid of  851 points,  6 beta functions with:
                l(1) =   0
                l(2) =   0
                l(3) =   1
                l(4) =   1
                l(5) =   2
                l(6) =   2
     Q(r) pseudized with  8 coefficients,  rinner =    1.000   1.000   1.000
                                                       1.000   1.000

     PseudoPot. # 2 for O  read from file:
     /storage/coda1/p-amedford6/0/shared/rich_project_chbe-medford/medford-share/data/pseudos_module/espresso/nninc/pbe/van/O.UPF
     MD5 check sum: 78c19812648e8988a0fe644b0f25305e
     Pseudo is Ultrasoft, Zval =  6.0
     Generated by new atomic code, or converted to UPF format
     Using radial grid of  737 points,  4 beta functions with:
                l(1) =   0
                l(2) =   0
                l(3) =   1
                l(4) =   1
     Q(r) pseudized with  8 coefficients,  rinner =    0.800   0.800   0.800

     PseudoPot. # 3 for C  read from file:
     /storage/coda1/p-amedford6/0/shared/rich_project_chbe-medford/medford-share/data/pseudos_module/espresso/nninc/pbe/van/C.UPF
     MD5 check sum: 1a69bf6b8db32088f5b2163dbdb77a27
     Pseudo is Ultrasoft, Zval =  4.0
     Generated by new atomic code, or converted to UPF format
     Using radial grid of  721 points,  4 beta functions with:
                l(1) =   0
                l(2) =   0
                l(3) =   1
                l(4) =   1
     Q(r) pseudized with  8 coefficients,  rinner =    0.800   0.800   0.800

     PseudoPot. # 4 for H  read from file:
     /storage/coda1/p-amedford6/0/shared/rich_project_chbe-medford/medford-share/data/pseudos_module/espresso/nninc/pbe/van/H.UPF
     MD5 check sum: b5ee9d7bfd3a09ee7748110bda690ff7
     Pseudo is Ultrasoft, Zval =  1.0
     Generated by new atomic code, or converted to UPF format
     Using radial grid of  615 points,  1 beta functions with:
                l(1) =   0
     Q(r) pseudized with  8 coefficients,  rinner =    0.800

     atomic species   valence    mass     pseudopotential
        Ti1           12.00    47.86700     Ti( 1.00)
        O1             6.00    15.99900     O ( 1.00)
        C1             4.00    12.01100     C ( 1.00)
        H1             1.00     1.00800     H ( 1.00)

     No symmetry found

   Cartesian axes

     site n.     atom                  positions (alat units)
         1           Ti1 tau(   1) = (   0.0004258   2.9801865   6.0000000  )
         2           Ti1 tau(   2) = (   3.2906075   1.4906267   6.0002472  )
         3           O1  tau(   3) = (   0.0006271   0.0005054   7.9858123  )
         4           O1  tau(   4) = (   3.2906025   0.0005020   7.3038282  )
         5           O1  tau(   5) = (   4.5942328   1.4918067   9.2879030  )
         6           O1  tau(   6) = (   1.9868534   1.4903216   9.2879459  )
         7           Ti1 tau(   7) = (   3.3364693   3.0244086   9.1899460  )
         8           Ti1 tau(   8) = (   0.0614121   1.5180315   9.2736979  )
         9           O1  tau(   9) = (   3.3192415   0.0109611  11.3574448  )
        10           O1  tau(  10) = (   0.0135824   0.0030625  10.5923660  )
        11           O1  tau(  11) = (   1.3113730   1.4888140  12.6397483  )
        12           O1  tau(  12) = (   5.3365169   1.4868518  12.6422516  )
        13           Ti1 tau(  13) = (   0.0249591   3.0356721  12.5595363  )
        14           Ti1 tau(  14) = (   3.3216347   1.5719315  12.4302660  )
        15           O1  tau(  15) = (   0.0475996   5.9320359  14.6592625  )
        16           O1  tau(  16) = (   3.3253441   5.8716044  14.0084122  )
        17           O1  tau(  17) = (   4.6294077   1.4993822  16.1384749  )
        18           O1  tau(  18) = (   2.0712093   1.5368213  16.0656395  )
        19           Ti1 tau(  19) = (   3.3420502   2.9337026  15.6791356  )
        20           Ti1 tau(  20) = (   0.0819182   1.3209985  15.9439250  )
        21           O1  tau(  21) = (   3.2904802   0.0005063   4.7018136  )
        22           O1  tau(  22) = (   0.1121901   0.0005398  17.1797988  )
        23           O1  tau(  23) = (   1.3043587   1.4918075   6.0039043  )
        24           O1  tau(  24) = (   5.2767064   1.4903225   6.0039473  )
        25           Ti1 tau(  25) = (   0.0000382   5.9609847   6.0000000  )
        26           Ti1 tau(  26) = (   3.2902200   4.4714249   6.0002472  )
        27           O1  tau(  27) = (   0.0002396   2.9813036   7.9858123  )
        28           O1  tau(  28) = (   3.2902150   2.9813002   7.3038282  )
        29           O1  tau(  29) = (   4.5938453   4.4726049   9.2879030  )
        30           O1  tau(  30) = (   1.9864658   4.4711199   9.2879459  )
        31           Ti1 tau(  31) = (   3.3365859   0.0383882   9.1683042  )
        32           Ti1 tau(  32) = (   0.0607984   4.4756772   9.2727477  )
        33           O1  tau(  33) = (   3.3154497   2.9528697  11.3100477  )
        34           O1  tau(  34) = (   0.0130381   2.9821538  10.6068333  )
        35           O1  tau(  35) = (   1.3079814   4.4632751  12.6339740  )
        36           O1  tau(  36) = (   5.3374838   4.4678533  12.6371107  )
        37           Ti1 tau(  37) = (   0.0367351   0.0553833  12.4739561  )
        38           Ti1 tau(  38) = (   3.3178111   4.6524667  12.7070490  )
        39           O1  tau(  39) = (   0.0226182   2.9861015  14.7894940  )
        40           O1  tau(  40) = (   3.3464301   2.9603322  13.9061577  )
        41           O1  tau(  41) = (   4.6320376   4.4053937  16.1659747  )
        42           O1  tau(  42) = (   2.0651706   4.3480327  16.1155179  )
        43           Ti1 tau(  43) = (   3.4032537   5.9185344  16.2710929  )
        44           Ti1 tau(  44) = (   0.0646745   4.5145260  15.8553686  )
        45           O1  tau(  45) = (   3.2900926   2.9813045   4.7018136  )
        46           O1  tau(  46) = (   1.3039711   4.4726057   6.0039043  )
        47           O1  tau(  47) = (   5.2763189   4.4711207   6.0039473  )
        48           C1  tau(  48) = (   5.9353497   3.0583042  18.8699169  )
        49           O1  tau(  49) = (   0.1856485   3.0014673  17.6677584  )
        50           H1  tau(  50) = (   4.9577780   2.6849493  18.5881267  )
        51           H1  tau(  51) = (   1.1185258   3.1466834  17.9024234  )
        52           H1  tau(  52) = (   6.3707541   2.4080388  19.6265123  )
        53           H1  tau(  53) = (   5.8722695   4.0904670  19.2075282  )
        54           O1  tau(  54) = (   3.1419305   5.9539177  18.1124628  )
        55           H1  tau(  55) = (   2.2021640   0.0520986  18.3390109  )

     number of k points=    10  Fermi-Dirac smearing, width (Ry)=  0.0073
                       cart. coord. in units 2pi/alat
        k(    1) = (   0.0000000   0.0000000   0.0000000), wk =   0.1250000
        k(    2) = (   0.0000000   0.0419351   0.0000000), wk =   0.2500000
        k(    3) = (   0.0000000  -0.0838702   0.0000000), wk =   0.1250000
        k(    4) = (   0.0379955   0.0000049   0.0000000), wk =   0.2500000
        k(    5) = (   0.0379955   0.0419400   0.0000000), wk =   0.2500000
        k(    6) = (   0.0379955  -0.0838652   0.0000000), wk =   0.2500000
        k(    7) = (   0.0379955  -0.0419301   0.0000000), wk =   0.2500000
        k(    8) = (  -0.0759910  -0.0000099   0.0000000), wk =   0.1250000
        k(    9) = (  -0.0759910   0.0419252   0.0000000), wk =   0.2500000
        k(   10) = (  -0.0759910  -0.0838800   0.0000000), wk =   0.1250000

     Initial potential from superposition of free atoms

     starting charge  382.99916, renormalised to  399.00000

     negative rho (up, down):  1.653E-02 0.000E+00

     %%%%%%%%%%%%%%%%%%%%%%%%%%%%%%%%%%%%%%%%%%%%%%%%%%%%%%%%%%%%%%%%%%%%%%%%
     %                                                                      %
     % You are using vdW-DF, which was implemented by the Thonhauser group. %
     % Please cite the following two papers that made this development      %
     % possible and the two reviews that describe the various versions:     %
     %                                                                      %
     %   T. Thonhauser et al., PRL 115, 136402 (2015).                      %
     %   T. Thonhauser et al., PRB 76, 125112 (2007).                       %
     %   K. Berland et al., Rep. Prog. Phys. 78, 066501 (2015).             %
     %   D.C. Langreth et al., J. Phys.: Condens. Matter 21, 084203 (2009). %
     %                                                                      %
     %                                                                      %
     % If you are calculating the stress with vdW-DF, please also cite:     %
     %                                                                      %
     %   R. Sabatini et al., J. Phys.: Condens. Matter 24, 424209 (2012).   %
     %                                                                      %
     %%%%%%%%%%%%%%%%%%%%%%%%%%%%%%%%%%%%%%%%%%%%%%%%%%%%%%%%%%%%%%%%%%%%%%%%

     Adding external electric field

     Computed dipole along edir(3) :
        Dipole              -10.2314 Ry au,        -26.0056 Debye
        Dipole field         -0.0193 Ry au,

        Potential amp.        1.7898 Ry
        Total length         46.3494 bohr

     Starting wfcs are  301 atomic wfcs
  @ DRIVER MODE: Message from server: STATUS
  @ DRIVER MODE: Message from server: POSDATA
  @ DRIVER MODE: Reading and sharing cell
  @ DRIVER MODE: Reading and sharing positions
  @ DRIVER MODE: Received positions

     Self-consistent Calculation

     iteration #  1     ecut=    29.40 Ry     beta= 0.05
     Davidson diagonalization with overlap
     c_bands:  3 eigenvalues not converged
     c_bands:  3 eigenvalues not converged
     c_bands:  4 eigenvalues not converged
     c_bands:  1 eigenvalues not converged
     c_bands:  5 eigenvalues not converged
     c_bands:  5 eigenvalues not converged
     c_bands:  4 eigenvalues not converged
     c_bands:  4 eigenvalues not converged
     c_bands:  4 eigenvalues not converged
     ethr =  1.00E-05,  avg # of iterations = 21.1

[...]

     total energy              =   -2463.84890184 Ry
     estimated scf accuracy    <    5598.05901102 Ry

     iteration #  2     ecut=    29.40 Ry     beta= 0.05
     Davidson diagonalization with overlap
     ethr =  1.00E-02,  avg # of iterations = 25.1

[...]

     iteration # 55     ecut=    29.40 Ry     beta= 0.05
     Davidson diagonalization with overlap
     c_bands:  1 eigenvalues not converged
     ethr =  4.45E-08,  avg # of iterations = 12.4

[...]

     total energy              =   -2966.27812471 Ry
     estimated scf accuracy    <       0.00000009 Ry

     iteration # 71     ecut=    29.40 Ry     beta= 0.05
     Davidson diagonalization with overlap
     ethr =  2.38E-11,  avg # of iterations = 10.5

     negative rho (up, down):  1.671E-02 0.000E+00

     Adding external electric field

     Computed dipole along edir(3) :
        Dipole                1.0406 Ry au,          2.6450 Debye
        Dipole field          0.0020 Ry au,

        Potential amp.       -0.1820 Ry
        Total length         46.3494 bohr

     End of self-consistent calculation

          k = 0.0000 0.0000 0.0000 ( 18029 PWs)   bands (ev):

   -55.7028 -55.6343 -55.5994 -55.5198 -55.4964 -55.4688 -55.4368 -55.4299
   -55.4256 -55.4128 -55.4004 -55.3732 -55.2868 -55.2146 -54.5925 -54.5585
   -32.1133 -32.0957 -32.0142 -32.0043 -31.9599 -31.9522 -31.9243 -31.9211
   -31.8947 -31.8780 -31.8688 -31.7962 -31.7935 -31.7878 -31.7603 -31.7425
   -31.7354 -31.7237 -31.7137 -31.7008 -31.6969 -31.6929 -31.6486 -31.6480
   -31.6465 -31.6388 -31.6341 -31.6270 -31.6147 -31.5993 -31.5939 -31.5841
   -31.5780 -31.5630 -31.5584 -31.5491 -31.5389 -31.5149 -31.4755 -31.4587
   -31.4264 -31.4191 -30.9986 -30.9127 -30.8902 -30.8156 -30.7293 -30.6176
   -20.0621 -16.5331 -16.2876 -16.1080 -15.9065 -15.8428 -15.7844 -15.5960
   -15.5206 -15.3798 -15.2349 -15.2228 -15.1690 -15.1679 -15.1589 -15.1357
   -15.1050 -15.0607 -15.0515 -15.0453 -15.0397 -14.9842 -14.9424 -14.9345
   -14.9277 -14.8867 -14.7585 -14.7181 -14.6620 -14.4906 -14.4487 -13.0921
   -12.9760 -10.9288  -6.7700  -4.9661  -4.7694  -4.0099  -3.6391  -3.5385
    -3.5208  -3.4582  -3.4020  -3.1896  -3.0686  -3.0178  -2.9053  -2.7787
    -2.7397  -2.6823  -2.6596  -2.5679  -2.5461  -2.5157  -2.4910  -2.4336
    -2.4039  -2.3955  -2.3833  -2.3115  -2.3019  -2.1712  -2.1675  -2.0948
    -2.0263  -2.0052  -1.9864  -1.9681  -1.9367  -1.9359  -1.8900  -1.8695
    -1.8478  -1.8145  -1.7441  -1.7227  -1.6625  -1.6227  -1.3881  -1.2275
    -1.2048  -1.1351  -1.1170  -1.0849  -1.0485  -1.0335  -1.0281  -0.9891
    -0.9727  -0.8652  -0.7679  -0.7560  -0.6961  -0.6573  -0.6551  -0.5211
    -0.4741  -0.3993  -0.3735  -0.3488  -0.3258  -0.2329  -0.1900  -0.1721
    -0.1092  -0.0800   0.0324   0.0723   0.0901   0.1287   0.1845   0.2524
     0.2825   0.3194   0.3272   0.3595   0.4085   0.4334   0.4661   0.4925
     0.5320   0.6366   0.6759   0.6912   0.8356   0.8359   0.9238   1.0516
     1.0994   1.3806   1.4327   1.4708   1.6256   2.0003   2.0465   3.4846
     3.6014   3.6122   3.6305   3.7010   3.7913   3.9468   3.9750   4.0461
     4.1406

[...]

          k = 0.0380-0.0419 0.0000 ( 17876 PWs)   bands (ev):

[...]

          k =-0.0760-0.0000 0.0000 ( 17886 PWs)   bands (ev):

[...]

          k =-0.0760-0.0839 0.0000 ( 17948 PWs)   bands (ev):

   -55.7020 -55.6208 -55.6129 -55.5129 -55.4916 -55.4754 -55.4306 -55.4302
   -55.4242 -55.4125 -55.4036 -55.3826 -55.2829 -55.2184 -54.5757 -54.5752
   -32.0150 -31.9549 -31.9457 -31.9325 -31.9248 -31.9205 -31.9170 -31.9031
   -31.8358 -31.8350 -31.7993 -31.7696 -31.7649 -31.7573 -31.7413 -31.7406
   -31.7356 -31.7327 -31.7301 -31.7200 -31.7171 -31.7148 -31.7026 -31.7011
   -31.6740 -31.6712 -31.6382 -31.6329 -31.6322 -31.6314 -31.6212 -31.6175
   -31.6108 -31.6089 -31.6018 -31.6008 -31.5989 -31.5619 -31.5423 -31.4798
   -31.4656 -31.4231 -30.9030 -30.9028 -30.8123 -30.8108 -30.7726 -30.7717
   -20.0584 -16.5094 -15.9027 -15.7587 -15.5962 -15.5779 -15.5003 -15.4047
   -15.3882 -15.3590 -15.3498 -15.3293 -15.3036 -15.3016 -15.2540 -15.1982
   -15.1564 -15.1334 -15.1290 -15.0830 -15.0737 -15.0701 -15.0145 -15.0017
   -14.9925 -14.9540 -14.8941 -14.8655 -14.7873 -14.7606 -14.6056 -13.0783
   -13.0776 -10.9310  -6.7711  -4.9473  -4.7620  -3.9721  -3.0526  -2.9792
    -2.9033  -2.8191  -2.7380  -2.6804  -2.6298  -2.6111  -2.5679  -2.5476
    -2.4773  -2.4434  -2.4358  -2.4144  -2.4121  -2.3855  -2.3697  -2.3575
    -2.3345  -2.3046  -2.2905  -2.2766  -2.2580  -2.2376  -2.2166  -2.1973
    -2.1846  -2.1738  -2.1541  -2.0470  -2.0230  -1.9866  -1.8326  -1.8210
    -1.7561  -1.7235  -1.6931  -1.6878  -1.6550  -1.6470  -1.6042  -1.4945
    -1.4663  -1.4195  -1.3613  -1.2712  -1.2663  -1.2194  -1.1667  -1.1272
    -1.0980  -1.0509  -1.0479  -1.0027  -0.8611  -0.8345  -0.7960  -0.6717
    -0.5996  -0.5842  -0.5702  -0.5533  -0.5271  -0.4802  -0.4744  -0.4181
    -0.3969  -0.3247  -0.3233  -0.2982  -0.2737  -0.1670  -0.0525   0.0390
     0.0735   0.1301   0.1699   0.2025   0.2834   0.3594   0.4430   0.5290
     0.5553   0.5662   0.6875   0.7141   0.7651   0.8183   0.8343   0.8940
     0.9269   0.9698   0.9980   1.7937   1.8071   1.8629   1.8677   3.6728
     3.9218   3.9738   3.9919   4.0047   4.0382   4.0581   4.1050   4.1226
     4.1483

     the Fermi energy is     3.4981 ev

!    total energy              =   -2966.27815147 Ry
     estimated scf accuracy    <       0.00000005 Ry
     smearing contrib. (-TS)   =      -0.02072853 Ry
     internal energy E=F+TS    =   -2966.25742294 Ry

     The total energy is F=E-TS. E is the sum of the following terms:
     one-electron contribution =  -24039.43606340 Ry
     hartree contribution      =   12112.20389449 Ry
     xc contribution           =    -490.94654111 Ry
     ewald contribution        =    9451.91924345 Ry
     electric field correction =       0.00204362 Ry

     convergence has been achieved in  71 iterations

     Forces acting on atoms (cartesian axes, Ry/au):

     atom    1 type  1   force =    -0.00039596    0.00004868    0.09456240
     atom    2 type  1   force =    -0.00032333    0.00499234   -0.17464004
     atom    3 type  2   force =     0.00082396   -0.00023585   -0.02593496
     atom    4 type  2   force =     0.00125421    0.00074987    0.05284448
     atom    5 type  2   force =    -0.01097278   -0.00285215    0.00048656
     atom    6 type  2   force =     0.01163845   -0.00410057    0.00186409
     atom    7 type  1   force =     0.00052134    0.00038915   -0.00013387
     atom    8 type  1   force =    -0.00045121    0.00020385    0.00077650
     atom    9 type  2   force =    -0.00044518    0.00028808   -0.00026842
     atom   10 type  2   force =     0.00031717   -0.00035277   -0.00045651
     atom   11 type  2   force =     0.00060880    0.00031752   -0.00022951
     atom   12 type  2   force =    -0.00037618   -0.00046344   -0.00038259
     atom   13 type  1   force =    -0.00130073   -0.00079347    0.00032483
     atom   14 type  1   force =     0.00028834    0.00007540    0.00057923
     atom   15 type  2   force =     0.00048972    0.00068413    0.00018464
     atom   16 type  2   force =    -0.00049571    0.00050248    0.00044561
     atom   17 type  2   force =     0.00006342    0.00031254    0.00005451
     atom   18 type  2   force =    -0.00031266   -0.00007054    0.00041751
     atom   19 type  1   force =    -0.00034227    0.00114688   -0.00021295
     atom   20 type  1   force =    -0.00024178   -0.00019519   -0.00074006
     atom   21 type  2   force =    -0.00001396    0.00005361    0.10309298
     atom   22 type  2   force =    -0.00026907   -0.00058988   -0.00044958
     atom   23 type  2   force =    -0.07206726    0.00005031   -0.02790005
     atom   24 type  2   force =     0.07192435    0.00054041   -0.02800436
     atom   25 type  1   force =    -0.00043870    0.00000408    0.10115242
     atom   26 type  1   force =    -0.00006417   -0.00460660   -0.17490339
     atom   27 type  2   force =     0.00089794    0.00114392   -0.02442659
     atom   28 type  2   force =     0.00113634    0.00014958    0.05241157
     atom   29 type  2   force =    -0.01185903    0.00305893    0.00195495
     atom   30 type  2   force =     0.01325951    0.00115918    0.00309040
     atom   31 type  1   force =     0.00058467    0.00003005   -0.00053629
     atom   32 type  1   force =    -0.00036520    0.00069861    0.00048207
     atom   33 type  2   force =    -0.00020244    0.00092263    0.00016336
     atom   34 type  2   force =     0.00013948   -0.00012968   -0.00096429
     atom   35 type  2   force =     0.00033158    0.00007175    0.00053850
     atom   36 type  2   force =     0.00010290    0.00016001    0.00047523
     atom   37 type  1   force =    -0.00146343   -0.00059959    0.00031070
     atom   38 type  1   force =     0.00078085   -0.00021931   -0.00008618
     atom   39 type  2   force =     0.00045906   -0.00021326    0.00122309
     atom   40 type  2   force =    -0.00011202    0.00034066    0.00054305
     atom   41 type  2   force =    -0.00051574    0.00004196   -0.00068232
     atom   42 type  2   force =    -0.00005250   -0.00014419   -0.00051655
     atom   43 type  1   force =     0.00044805   -0.00033514   -0.00095005
     atom   44 type  1   force =    -0.00029176   -0.00052446   -0.00118349
     atom   45 type  2   force =    -0.00001375    0.00012994    0.10266907
     atom   46 type  2   force =    -0.07203694   -0.00056419   -0.02788187
     atom   47 type  2   force =     0.07188874   -0.00007421   -0.02796290
     atom   48 type  3   force =     0.00006234   -0.00094778   -0.00122314
     atom   49 type  2   force =    -0.00072114   -0.00042864   -0.00099592
     atom   50 type  4   force =     0.00011648   -0.00011823   -0.00004270
     atom   51 type  4   force =    -0.00009699   -0.00011483   -0.00026488
     atom   52 type  4   force =    -0.00006150    0.00000675   -0.00001660
     atom   53 type  4   force =    -0.00079823    0.00055347   -0.00004998
     atom   54 type  2   force =     0.00535753   -0.00020047   -0.00087801
     atom   55 type  4   force =    -0.00639363    0.00004768    0.00227031

     Total force =     0.364515     Total SCF correction =     0.000418
  @ DRIVER MODE: Message from server: STATUS
  @ DRIVER MODE: Message from server: GETFORCE
  @ DRIVER MODE: Returning v,forces,stress,ensemble

     Writing output data file ./calc.save/
  @ DRIVER MODE: Message from server: EXIT
  @ DRIVE MODE: Exiting

     General routines

     Parallel routines

   This run was terminated on:  17: 8:29  23Sep2021

   JOB DONE.