     Program PWSCF v.6.7GPU starts on 22Sep2021 at 20:25:10

     R & G space division:  proc/nbgrp/npool/nimage =      10
     Reading input from /storage/home/hcoda1/3/ntian30/research/carbon/CxH_vib/H2O_calc/ads_slab/CHNHNHHO_b/out_0013/pw.inp
Warning: card &CELL ignored
Warning: card   CELL_DYNAMICS='IPI', ignored
Warning: card / ignored

     Current dimensions of program PWSCF are:
     Max number of different atomic species (ntypx) = 10
     Max number of k-points (npk) =  40000
     Max angular momentum in pseudopotentials (lmaxx) =  3
     Presently no symmetry can be used with electric field

     Message from routine cell_base_init:
     DEPRECATED: use true lattice parameter, not A to a.u. conversion factor

     IMPORTANT: XC functional enforced from input :
     Exchange-correlation= BEEF-VDW
                           (   1   4  43  14   2   0   0)
     Any further DFT definition will be discarded
     Please, verify this is what you really want

  @ DRIVER MODE: Connecting to
 qe_1139763_2937316.sched-torque.pace.gatech.eduh2ri2f29_scratch
  using UNIX socket
  @ DRIVER MODE: Message from server: STATUS
  @ DRIVER MODE: Message from server: INIT
  @ DRIVER MODE: Receiving replica           0          -1
  @ DRIVER MODE: Receiving encoded integer          25
  @ DRIVER MODE:  SCF:  T  FORCE:  T  STRESS:  F  VC:  F  ENSEMBLE:  F
  @ DRIVER MODE:  SCF:  T  FORCE:  T  STRESS:  F  VC:  F  ENSEMBLE:  F

     Using Slab Decomposition

     bravais-lattice index     =            0
     lattice parameter (alat)  =       1.8897  a.u.
     unit-cell volume          =    6658.9804 (a.u.)^3
     number of atoms/cell      =           55
     number of atomic types    =            5
     number of electrons       =       402.00
     number of Kohn-Sham states=          211
     kinetic-energy cutoff     =      29.3995  Ry
     charge density cutoff     =     293.9946  Ry
     scf convergence threshold =      7.3E-08
     mixing beta               =       0.0500
     number of iterations used =            8  plain     mixing
     Exchange-correlation= BEEF-VDW
                           (   1   4  43  14   2   0   0)

     celldm(1)=   1.889726  celldm(2)=   0.000000  celldm(3)=   0.000000
     celldm(4)=   0.000000  celldm(5)=   0.000000  celldm(6)=   0.000000

     crystal axes: (cart. coord. in units of alat)
               a(1) = (   6.579727   0.000000   0.000000 )
               a(2) = (  -0.000775   5.961596   0.000000 )
               a(3) = (   0.000000   0.000000  25.155947 )

     reciprocal axes: (cart. coord. in units 2 pi/alat)
               b(1) = (  0.151982  0.000020  0.000000 )
               b(2) = (  0.000000  0.167740  0.000000 )
               b(3) = (  0.000000  0.000000  0.039752 )

     PseudoPot. # 1 for Ti read from file:
     /storage/coda1/p-amedford6/0/shared/rich_project_chbe-medford/medford-share/data/pseudos_module/espresso/nninc/pbe/van/Ti.UPF
     MD5 check sum: 8e4df49b7f0d34bbd5052bf3f5ea0213
     Pseudo is Ultrasoft, Zval = 12.0
     Generated by new atomic code, or converted to UPF format
     Using radial grid of  851 points,  6 beta functions with:
                l(1) =   0
                l(2) =   0
                l(3) =   1
                l(4) =   1
                l(5) =   2
                l(6) =   2
     Q(r) pseudized with  8 coefficients,  rinner =    1.000   1.000   1.000
                                                       1.000   1.000

     PseudoPot. # 2 for O  read from file:
     /storage/coda1/p-amedford6/0/shared/rich_project_chbe-medford/medford-share/data/pseudos_module/espresso/nninc/pbe/van/O.UPF
     MD5 check sum: 78c19812648e8988a0fe644b0f25305e
     Pseudo is Ultrasoft, Zval =  6.0
     Generated by new atomic code, or converted to UPF format
     Using radial grid of  737 points,  4 beta functions with:
                l(1) =   0
                l(2) =   0
                l(3) =   1
                l(4) =   1
     Q(r) pseudized with  8 coefficients,  rinner =    0.800   0.800   0.800

     PseudoPot. # 3 for N  read from file:
     /storage/coda1/p-amedford6/0/shared/rich_project_chbe-medford/medford-share/data/pseudos_module/espresso/nninc/pbe/van/N.UPF
     MD5 check sum: 90d10febe142ad51ac9d5be1deb811c4
     Pseudo is Ultrasoft, Zval =  5.0
     Generated by new atomic code, or converted to UPF format
     Using radial grid of  729 points,  4 beta functions with:
                l(1) =   0
                l(2) =   0
                l(3) =   1
                l(4) =   1
     Q(r) pseudized with  8 coefficients,  rinner =    0.800   0.800   0.800

     PseudoPot. # 4 for C  read from file:
     /storage/coda1/p-amedford6/0/shared/rich_project_chbe-medford/medford-share/data/pseudos_module/espresso/nninc/pbe/van/C.UPF
     MD5 check sum: 1a69bf6b8db32088f5b2163dbdb77a27
     Pseudo is Ultrasoft, Zval =  4.0
     Generated by new atomic code, or converted to UPF format
     Using radial grid of  721 points,  4 beta functions with:
                l(1) =   0
                l(2) =   0
                l(3) =   1
                l(4) =   1
     Q(r) pseudized with  8 coefficients,  rinner =    0.800   0.800   0.800

     PseudoPot. # 5 for H  read from file:
     /storage/coda1/p-amedford6/0/shared/rich_project_chbe-medford/medford-share/data/pseudos_module/espresso/nninc/pbe/van/H.UPF
     MD5 check sum: b5ee9d7bfd3a09ee7748110bda690ff7
     Pseudo is Ultrasoft, Zval =  1.0
     Generated by new atomic code, or converted to UPF format
     Using radial grid of  615 points,  1 beta functions with:
                l(1) =   0
     Q(r) pseudized with  8 coefficients,  rinner =    0.800

     atomic species   valence    mass     pseudopotential
        Ti1           12.00    47.86700     Ti( 1.00)
        O1             6.00    15.99900     O ( 1.00)
        N1             5.00    14.00700     N ( 1.00)
        C1             4.00    12.01100     C ( 1.00)
        H1             1.00     1.00800     H ( 1.00)

     No symmetry found

   Cartesian axes

     site n.     atom                  positions (alat units)
         1           Ti1 tau(   1) = (   0.0004258   2.9801865   6.0000000  )
         2           Ti1 tau(   2) = (   3.2906075   1.4906267   6.0002472  )
         3           O1  tau(   3) = (   0.0006271   0.0005054   7.9858123  )
         4           O1  tau(   4) = (   3.2906025   0.0005020   7.3038282  )
         5           O1  tau(   5) = (   4.5942328   1.4918067   9.2879030  )
         6           O1  tau(   6) = (   1.9868534   1.4903216   9.2879459  )
         7           Ti1 tau(   7) = (   3.2907910   2.8959150   9.1758416  )
         8           Ti1 tau(   8) = (   0.0015273   1.4827037   9.2680791  )
         9           O1  tau(   9) = (   3.2644249   0.0086278  11.2869930  )
        10           O1  tau(  10) = (   0.0116148   5.9584955  10.6183126  )
        11           O1  tau(  11) = (   1.2700591   1.4733127  12.6309263  )
        12           O1  tau(  12) = (   5.2751843   1.4954020  12.5848179  )
        13           Ti1 tau(  13) = (   6.5455424   3.1153876  12.7101385  )
        14           Ti1 tau(  14) = (   3.2833704   1.6184148  12.4736748  )
        15           O1  tau(  15) = (   6.4599305   0.0050319  14.6091115  )
        16           O1  tau(  16) = (   3.3300269   5.9263713  13.9180617  )
        17           O1  tau(  17) = (   4.5165145   1.5716339  16.0125648  )
        18           O1  tau(  18) = (   1.9127028   1.4417528  15.8564018  )
        19           Ti1 tau(  19) = (   3.2288969   3.0847727  15.7886749  )
        20           Ti1 tau(  20) = (   6.4478006   1.4606891  15.8161894  )
        21           O1  tau(  21) = (   3.2904802   0.0005063   4.7018136  )
        22           O1  tau(  22) = (   6.4882405   0.0114324  17.1415363  )
        23           O1  tau(  23) = (   1.3043587   1.4918075   6.0039043  )
        24           O1  tau(  24) = (   5.2767064   1.4903225   6.0039473  )
        25           Ti1 tau(  25) = (   0.0000382   5.9609847   6.0000000  )
        26           Ti1 tau(  26) = (   3.2902200   4.4714249   6.0002472  )
        27           O1  tau(  27) = (   0.0002396   2.9813036   7.9858123  )
        28           O1  tau(  28) = (   3.2902150   2.9813002   7.3038282  )
        29           O1  tau(  29) = (   4.5938453   4.4726049   9.2879030  )
        30           O1  tau(  30) = (   1.9864658   4.4711199   9.2879459  )
        31           Ti1 tau(  31) = (   3.2891106   5.8743827   9.1763621  )
        32           Ti1 tau(  32) = (   0.0006254   4.4649316   9.2693709  )
        33           O1  tau(  33) = (   3.2692249   2.9538419  11.2423542  )
        34           O1  tau(  34) = (   0.0092240   2.9805883  10.6323155  )
        35           O1  tau(  35) = (   1.2565178   4.4877289  12.6449601  )
        36           O1  tau(  36) = (   5.2732762   4.4628510  12.5929129  )
        37           Ti1 tau(  37) = (   6.5734634   0.1294159  12.5697125  )
        38           Ti1 tau(  38) = (   3.2704022   4.6437612  12.6513646  )
        39           O1  tau(  39) = (   6.5063912   2.9643141  14.6466205  )
        40           O1  tau(  40) = (   3.2471416   2.9787476  13.8564769  )
        41           O1  tau(  41) = (   4.5405411   4.3625105  16.0593999  )
        42           O1  tau(  42) = (   1.9254132   4.5167653  15.8604027  )
        43           Ti1 tau(  43) = (   3.1528194   0.1083906  16.0566338  )
        44           Ti1 tau(  44) = (   6.5270785   4.6226534  15.9816197  )
        45           O1  tau(  45) = (   3.2900926   2.9813045   4.7018136  )
        46           O1  tau(  46) = (   1.3039711   4.4726057   6.0039043  )
        47           O1  tau(  47) = (   5.2763189   4.4711207   6.0039473  )
        48           N1  tau(  48) = (   1.2829970   2.9130689  18.3045482  )
        49           N1  tau(  49) = (   0.1654257   2.9641015  17.4510142  )
        50           C1  tau(  50) = (   2.5160228   2.9473648  17.9488278  )
        51           H1  tau(  51) = (   3.1619500   2.8785295  18.8336233  )
        52           H1  tau(  52) = (   1.0209804   2.8219014  19.2831343  )
        53           H1  tau(  53) = (   5.9303595   2.9248499  18.0583253  )
        54           O1  tau(  54) = (   3.2854906   0.0173217  17.9285145  )
        55           H1  tau(  55) = (   4.1908827   5.7946650  18.2246816  )

     number of k points=    10  Fermi-Dirac smearing, width (Ry)=  0.0073
                       cart. coord. in units 2pi/alat
        k(    1) = (   0.0000000   0.0000000   0.0000000), wk =   0.1250000
        k(    2) = (   0.0000000   0.0419351   0.0000000), wk =   0.2500000
        k(    3) = (   0.0000000  -0.0838702   0.0000000), wk =   0.1250000
        k(    4) = (   0.0379955   0.0000049   0.0000000), wk =   0.2500000
        k(    5) = (   0.0379955   0.0419400   0.0000000), wk =   0.2500000
        k(    6) = (   0.0379955  -0.0838652   0.0000000), wk =   0.2500000
        k(    7) = (   0.0379955  -0.0419301   0.0000000), wk =   0.2500000
        k(    8) = (  -0.0759910  -0.0000099   0.0000000), wk =   0.1250000
        k(    9) = (  -0.0759910   0.0419252   0.0000000), wk =   0.2500000
        k(   10) = (  -0.0759910  -0.0838800   0.0000000), wk =   0.1250000

     Initial potential from superposition of free atoms

     starting charge  385.99915, renormalised to  402.00000

     negative rho (up, down):  1.798E-02 0.000E+00

     %%%%%%%%%%%%%%%%%%%%%%%%%%%%%%%%%%%%%%%%%%%%%%%%%%%%%%%%%%%%%%%%%%%%%%%%
     %                                                                      %
     % You are using vdW-DF, which was implemented by the Thonhauser group. %
     % Please cite the following two papers that made this development      %
     % possible and the two reviews that describe the various versions:     %
     %                                                                      %
     %   T. Thonhauser et al., PRL 115, 136402 (2015).                      %
     %   T. Thonhauser et al., PRB 76, 125112 (2007).                       %
     %   K. Berland et al., Rep. Prog. Phys. 78, 066501 (2015).             %
     %   D.C. Langreth et al., J. Phys.: Condens. Matter 21, 084203 (2009). %
     %                                                                      %
     %                                                                      %
     % If you are calculating the stress with vdW-DF, please also cite:     %
     %                                                                      %
     %   R. Sabatini et al., J. Phys.: Condens. Matter 24, 424209 (2012).   %
     %                                                                      %
     %%%%%%%%%%%%%%%%%%%%%%%%%%%%%%%%%%%%%%%%%%%%%%%%%%%%%%%%%%%%%%%%%%%%%%%%

     Adding external electric field

     Computed dipole along edir(3) :
        Dipole              -10.6951 Ry au,        -27.1842 Debye
        Dipole field         -0.0202 Ry au,

        Potential amp.        1.8709 Ry
        Total length         46.3494 bohr

     Starting wfcs are  304 atomic wfcs
  @ DRIVER MODE: Message from server: STATUS
  @ DRIVER MODE: Message from server: POSDATA
  @ DRIVER MODE: Reading and sharing cell
  @ DRIVER MODE: Reading and sharing positions
  @ DRIVER MODE: Received positions

     Self-consistent Calculation

     iteration #  1     ecut=    29.40 Ry     beta= 0.05
     Davidson diagonalization with overlap
     c_bands:  2 eigenvalues not converged
     c_bands:  4 eigenvalues not converged
     c_bands:  4 eigenvalues not converged
     c_bands:  3 eigenvalues not converged
     c_bands:  3 eigenvalues not converged
     c_bands:  3 eigenvalues not converged
     c_bands:  2 eigenvalues not converged
     c_bands:  4 eigenvalues not converged
     c_bands:  4 eigenvalues not converged
     ethr =  1.00E-05,  avg # of iterations = 21.8

[...]

     total energy              =   -2417.67953979 Ry
     estimated scf accuracy    <    6191.85641491 Ry

     iteration #  2     ecut=    29.40 Ry     beta= 0.05
     Davidson diagonalization with overlap
     ethr =  1.00E-02,  avg # of iterations = 25.2

[...]

     iteration # 28     ecut=    29.40 Ry     beta= 0.05
     Davidson diagonalization with overlap
     c_bands:  1 eigenvalues not converged
     c_bands:  1 eigenvalues not converged
     c_bands:  1 eigenvalues not converged
     ethr =  3.71E-06,  avg # of iterations = 16.0

[...]

     total energy              =   -2972.68713732 Ry
     estimated scf accuracy    <       0.00000015 Ry

     iteration # 53     ecut=    29.40 Ry     beta= 0.05
     Davidson diagonalization with overlap
     ethr =  3.80E-11,  avg # of iterations =  4.9

     negative rho (up, down):  1.822E-02 0.000E+00

     Adding external electric field

     Computed dipole along edir(3) :
        Dipole                0.6959 Ry au,          1.7688 Debye
        Dipole field          0.0013 Ry au,

        Potential amp.       -0.1217 Ry
        Total length         46.3494 bohr

     End of self-consistent calculation

          k = 0.0000 0.0000 0.0000 ( 18029 PWs)   bands (ev):

   -56.6053 -56.5718 -55.7174 -55.6837 -55.4140 -55.3701 -55.1418 -55.1079
   -54.9711 -54.9623 -54.9315 -54.8924 -54.8128 -54.7851 -54.7814 -54.7090
   -33.0236 -32.8776 -32.8496 -32.7835 -32.6933 -32.6507 -32.2060 -31.9399
   -31.9021 -31.9005 -31.8642 -31.8528 -31.8277 -31.6430 -31.6336 -31.6060
   -31.5712 -31.5266 -31.5133 -31.4902 -31.4663 -31.4657 -31.4479 -31.3785
   -31.3444 -31.2871 -31.2747 -31.2652 -31.2317 -31.2277 -31.1768 -31.1638
   -31.1535 -31.1125 -31.1073 -31.0939 -31.0687 -31.0612 -31.0601 -31.0226
   -31.0079 -31.0051 -30.9971 -30.9854 -30.9424 -30.9215 -30.9163 -30.9020
   -18.1143 -16.7058 -16.1522 -15.9181 -15.7955 -15.7782 -15.7686 -15.7524
   -15.5603 -15.5090 -15.4062 -15.3281 -15.3057 -15.0718 -15.0471 -14.9746
   -14.8428 -14.8082 -14.7246 -14.6981 -14.6889 -14.6083 -14.5942 -14.5084
   -14.4580 -14.4408 -14.3534 -14.2455 -14.1912 -14.0801 -14.0357 -13.6396
   -13.5331 -13.0022  -8.2796  -6.7761  -4.2797  -3.8339  -3.6176  -3.4596
    -3.2986  -3.2702  -3.1165  -3.0915  -3.0667  -3.0111  -2.9521  -2.9362
    -2.8632  -2.8436  -2.7416  -2.7084  -2.6576  -2.6388  -2.4084  -2.3505
    -2.3137  -2.3123  -2.2083  -2.1326  -2.1102  -2.1051  -2.0364  -1.9664
    -1.9088  -1.8624  -1.8444  -1.8236  -1.7989  -1.7006  -1.6147  -1.6020
    -1.5961  -1.5532  -1.4414  -1.4136  -1.3918  -1.3304  -1.2659  -1.2016
    -1.1728  -1.1501  -1.0512  -1.0394  -0.9395  -0.9099  -0.8746  -0.8190
    -0.7406  -0.7145  -0.5945  -0.5838  -0.4767  -0.4682  -0.4419  -0.4363
    -0.3367  -0.2548  -0.2027  -0.1525  -0.1264  -0.1051  -0.0463  -0.0400
    -0.0028   0.0327   0.1087   0.2009   0.2626   0.2989   0.3414   0.4968
     0.5389   0.5685   0.5828   0.6714   0.7139   0.7366   0.7704   0.8480
     0.8760   0.8791   0.9771   1.0155   1.0565   1.0796   1.1384   1.1751
     1.2039   1.3815   1.4136   1.4339   1.4555   1.5306   1.7647   1.7994
     1.9375   2.6892   2.8626   3.1321   3.2882   3.6543   3.6749   3.6933
     3.6944   3.9723   4.1423

[...]

          k = 0.0380-0.0419 0.0000 ( 17876 PWs)   bands (ev):

[...]

          k =-0.0760-0.0000 0.0000 ( 17886 PWs)   bands (ev):

[...]

          k =-0.0760-0.0839 0.0000 ( 17948 PWs)   bands (ev):

   -56.5887 -56.5882 -55.7022 -55.6987 -55.4059 -55.3781 -55.1248 -55.1248
   -54.9693 -54.9579 -54.9298 -54.8967 -54.8100 -54.7863 -54.7834 -54.7116
   -32.8636 -32.8632 -32.8413 -32.8404 -32.7370 -32.7370 -32.0288 -32.0246
   -31.8995 -31.8917 -31.8760 -31.8750 -31.7188 -31.6973 -31.6308 -31.6228
   -31.6046 -31.5995 -31.4788 -31.4787 -31.3846 -31.3439 -31.3436 -31.3054
   -31.3049 -31.2903 -31.2696 -31.2450 -31.2217 -31.2072 -31.1946 -31.1881
   -31.1717 -31.1460 -31.1443 -31.1320 -31.1179 -31.0992 -31.0785 -31.0616
   -31.0495 -31.0396 -31.0248 -31.0141 -31.0082 -30.9610 -30.9213 -30.9103
   -18.1095 -16.0706 -16.0675 -16.0158 -16.0151 -15.7680 -15.7606 -15.7014
   -15.4576 -15.4523 -15.2649 -15.1521 -15.1300 -15.0718 -15.0679 -14.9361
   -14.9162 -14.8979 -14.8099 -14.7599 -14.7266 -14.7048 -14.6410 -14.5713
   -14.4611 -14.4428 -14.4286 -14.3931 -14.3375 -14.2437 -14.2057 -13.6380
   -13.6371 -13.0228  -8.2724  -6.6954  -3.9854  -3.3048  -3.1340  -3.1330
    -3.1326  -3.1113  -2.9295  -2.8961  -2.8835  -2.7135  -2.6197  -2.6141
    -2.6108  -2.4732  -2.4411  -2.4302  -2.4157  -2.3989  -2.3267  -2.3124
    -2.3083  -2.2733  -2.2510  -2.0966  -2.0886  -2.0395  -1.9714  -1.9617
    -1.9393  -1.9058  -1.8413  -1.8030  -1.7982  -1.7808  -1.7633  -1.7435
    -1.6984  -1.6463  -1.4450  -1.3993  -1.3823  -1.3622  -1.3181  -1.3088
    -1.2897  -1.2313  -1.1944  -1.1847  -1.1602  -1.1322  -1.0577  -1.0392
    -0.9947  -0.8619  -0.8137  -0.7861  -0.7502  -0.6562  -0.6172  -0.5889
    -0.5567  -0.4696  -0.4128  -0.3787  -0.3009  -0.2633  -0.2185  -0.1920
    -0.1688  -0.1238  -0.1041   0.0039   0.0592   0.0905   0.1128   0.1986
     0.3280   0.3444   0.3977   0.4473   0.5394   0.5780   0.6564   0.6985
     0.7812   0.8585   0.9296   1.0796   1.1158   1.1714   1.2392   1.2557
     1.2575   1.2863   1.2987   1.3406   1.3624   1.4452   1.5234   1.6891
     1.6948   3.2841   3.2855   3.3432   3.3467   3.6520   3.6582   3.7609
     3.7680   4.0787   4.1289

     the Fermi energy is     2.3676 ev

!    total energy              =   -2972.68724505 Ry
     estimated scf accuracy    <       0.00000005 Ry
     smearing contrib. (-TS)   =      -0.00153422 Ry
     internal energy E=F+TS    =   -2972.68571082 Ry

     The total energy is F=E-TS. E is the sum of the following terms:
     one-electron contribution =  -24519.79539595 Ry
     hartree contribution      =   12356.20199445 Ry
     xc contribution           =    -493.20004696 Ry
     ewald contribution        =    9684.10682375 Ry
     electric field correction =       0.00091388 Ry

     convergence has been achieved in  53 iterations

     Forces acting on atoms (cartesian axes, Ry/au):

     atom    1 type  1   force =     0.00015504   -0.00061770    0.12521483
     atom    2 type  1   force =     0.00002888    0.00002770   -0.15412540
     atom    3 type  2   force =    -0.00003253   -0.00028249   -0.06547296
     atom    4 type  2   force =    -0.00011766    0.00074271    0.01449580
     atom    5 type  2   force =     0.00022304   -0.00325579   -0.01520234
     atom    6 type  2   force =     0.00028537   -0.00242053   -0.01816307
     atom    7 type  1   force =    -0.00129595   -0.00080952    0.06314299
     atom    8 type  1   force =     0.00165395    0.01846331    0.09183147
     atom    9 type  2   force =     0.00017909   -0.00018623   -0.00004321
     atom   10 type  2   force =    -0.00308065    0.00126428   -0.06785188
     atom   11 type  2   force =    -0.00034565   -0.00020195   -0.00022060
     atom   12 type  2   force =    -0.00030686    0.00043930    0.00015468
     atom   13 type  1   force =     0.00102552    0.00023868   -0.00005635
     atom   14 type  1   force =    -0.00051703    0.00053680   -0.00065236
     atom   15 type  2   force =    -0.00006815    0.00065445    0.00011776
     atom   16 type  2   force =     0.00007832    0.00018438   -0.00022229
     atom   17 type  2   force =    -0.00044750    0.00032195   -0.00002096
     atom   18 type  2   force =     0.00087263   -0.00086083   -0.00008301
     atom   19 type  1   force =    -0.00091441   -0.00045473    0.00009127
     atom   20 type  1   force =     0.00071704   -0.00029177   -0.00012056
     atom   21 type  2   force =     0.00007886    0.00004987    0.09748472
     atom   22 type  2   force =    -0.00020700    0.00024379    0.00046854
     atom   23 type  2   force =    -0.08327232    0.00001016   -0.03313019
     atom   24 type  2   force =     0.08318246    0.00045594   -0.03315500
     atom   25 type  1   force =     0.00014888   -0.00036668    0.12542512
     atom   26 type  1   force =    -0.00001915   -0.00122690   -0.15382374
     atom   27 type  2   force =    -0.00002485   -0.00014687   -0.06356115
     atom   28 type  2   force =     0.00000027    0.00071186    0.01025247
     atom   29 type  2   force =    -0.00228934    0.00251235   -0.01349469
     atom   30 type  2   force =     0.00267384    0.00282702   -0.01637395
     atom   31 type  1   force =    -0.00126654   -0.00141864    0.06106882
     atom   32 type  1   force =     0.00157786   -0.01943383    0.09387203
     atom   33 type  2   force =     0.00026113   -0.00001067   -0.00014830
     atom   34 type  2   force =    -0.00076252    0.00124465   -0.07927770
     atom   35 type  2   force =     0.00029822   -0.00003176    0.00008803
     atom   36 type  2   force =    -0.00054845    0.00016116    0.00040645
     atom   37 type  1   force =     0.00095076    0.00011160    0.00034737
     atom   38 type  1   force =    -0.00056084   -0.00021025   -0.00009601
     atom   39 type  2   force =     0.00033127    0.00012293   -0.00003565
     atom   40 type  2   force =    -0.00018839    0.00016844    0.00073488
     atom   41 type  2   force =    -0.00036866   -0.00015227   -0.00027787
     atom   42 type  2   force =     0.00051741    0.00000858    0.00007821
     atom   43 type  1   force =    -0.00106368   -0.00042621   -0.00056763
     atom   44 type  1   force =     0.00038395    0.00073556   -0.00012518
     atom   45 type  2   force =     0.00007227    0.00006185    0.09733822
     atom   46 type  2   force =    -0.08321261   -0.00003699   -0.03311489
     atom   47 type  2   force =     0.08315749    0.00037845   -0.03312047
     atom   48 type  3   force =    -0.01657317   -0.00069781    0.00528357
     atom   49 type  3   force =    -0.00159086   -0.00004385   -0.00020250
     atom   50 type  4   force =     0.02539570   -0.00011527    0.00019785
     atom   51 type  5   force =    -0.00455754    0.00021462   -0.00587890
     atom   52 type  5   force =    -0.00055164   -0.00016139   -0.00020037
     atom   53 type  5   force =    -0.00037054   -0.00025360    0.00024271
     atom   54 type  2   force =     0.00005983    0.00044274    0.00060583
     atom   55 type  5   force =     0.00024544    0.00077937   -0.00012443

     Total force =     0.420954     Total SCF correction =     0.000767
  @ DRIVER MODE: Message from server: STATUS
  @ DRIVER MODE: Message from server: GETFORCE
  @ DRIVER MODE: Returning v,forces,stress,ensemble

     Writing output data file ./calc.save/
  @ DRIVER MODE: Message from server: EXIT
  @ DRIVE MODE: Exiting

     General routines

     Parallel routines

   This run was terminated on:  20:41:34  22Sep2021

   JOB DONE.