     Program PWSCF v.6.7GPU starts on 16Sep2021 at  9:22:17

     R & G space division:  proc/nbgrp/npool/nimage =      10
     Reading input from /storage/home/hcoda1/3/ntian30/research/carbon/CxH_vib/H2O_calc/ads_slab/CH3NNH3H2O_a/out_0050/pw.inp
Warning: card &CELL ignored
Warning: card   CELL_DYNAMICS='IPI', ignored
Warning: card / ignored

     Current dimensions of program PWSCF are:
     Max number of different atomic species (ntypx) = 10
     Max number of k-points (npk) =  40000
     Max angular momentum in pseudopotentials (lmaxx) =  3
     Presently no symmetry can be used with electric field

     Message from routine cell_base_init:
     DEPRECATED: use true lattice parameter, not A to a.u. conversion factor

     IMPORTANT: XC functional enforced from input :
     Exchange-correlation= BEEF-VDW
                           (   1   4  43  14   2   0   0)
     Any further DFT definition will be discarded
     Please, verify this is what you really want

  @ DRIVER MODE: Connecting to
 qe_1139763_2852621.sched-torque.pace.gatech.eduo93ofsae_scratch
  using UNIX socket
  @ DRIVER MODE: Message from server: STATUS
  @ DRIVER MODE: Message from server: INIT
  @ DRIVER MODE: Receiving replica           0          -1
  @ DRIVER MODE: Receiving encoded integer          25
  @ DRIVER MODE:  SCF:  T  FORCE:  T  STRESS:  F  VC:  F  ENSEMBLE:  F
  @ DRIVER MODE:  SCF:  T  FORCE:  T  STRESS:  F  VC:  F  ENSEMBLE:  F

     Using Slab Decomposition

     bravais-lattice index     =            0
     lattice parameter (alat)  =       1.8897  a.u.
     unit-cell volume          =    6658.9804 (a.u.)^3
     number of atoms/cell      =           59
     number of atomic types    =            5
     number of electrons       =       406.00
     number of Kohn-Sham states=          213
     kinetic-energy cutoff     =      29.3995  Ry
     charge density cutoff     =     293.9946  Ry
     scf convergence threshold =      7.3E-08
     mixing beta               =       0.0500
     number of iterations used =            8  plain     mixing
     Exchange-correlation= BEEF-VDW
                           (   1   4  43  14   2   0   0)

     celldm(1)=   1.889726  celldm(2)=   0.000000  celldm(3)=   0.000000
     celldm(4)=   0.000000  celldm(5)=   0.000000  celldm(6)=   0.000000

     crystal axes: (cart. coord. in units of alat)
               a(1) = (   6.579727   0.000000   0.000000 )
               a(2) = (  -0.000775   5.961596   0.000000 )
               a(3) = (   0.000000   0.000000  25.155947 )

     reciprocal axes: (cart. coord. in units 2 pi/alat)
               b(1) = (  0.151982  0.000020  0.000000 )
               b(2) = (  0.000000  0.167740  0.000000 )
               b(3) = (  0.000000  0.000000  0.039752 )

     PseudoPot. # 1 for Ti read from file:
     /storage/coda1/p-amedford6/0/shared/rich_project_chbe-medford/medford-share/data/pseudos_module/espresso/nninc/pbe/van/Ti.UPF
     MD5 check sum: 8e4df49b7f0d34bbd5052bf3f5ea0213
     Pseudo is Ultrasoft, Zval = 12.0
     Generated by new atomic code, or converted to UPF format
     Using radial grid of  851 points,  6 beta functions with:
                l(1) =   0
                l(2) =   0
                l(3) =   1
                l(4) =   1
                l(5) =   2
                l(6) =   2
     Q(r) pseudized with  8 coefficients,  rinner =    1.000   1.000   1.000
                                                       1.000   1.000

     PseudoPot. # 2 for O  read from file:
     /storage/coda1/p-amedford6/0/shared/rich_project_chbe-medford/medford-share/data/pseudos_module/espresso/nninc/pbe/van/O.UPF
     MD5 check sum: 78c19812648e8988a0fe644b0f25305e
     Pseudo is Ultrasoft, Zval =  6.0
     Generated by new atomic code, or converted to UPF format
     Using radial grid of  737 points,  4 beta functions with:
                l(1) =   0
                l(2) =   0
                l(3) =   1
                l(4) =   1
     Q(r) pseudized with  8 coefficients,  rinner =    0.800   0.800   0.800

     PseudoPot. # 3 for N  read from file:
     /storage/coda1/p-amedford6/0/shared/rich_project_chbe-medford/medford-share/data/pseudos_module/espresso/nninc/pbe/van/N.UPF
     MD5 check sum: 90d10febe142ad51ac9d5be1deb811c4
     Pseudo is Ultrasoft, Zval =  5.0
     Generated by new atomic code, or converted to UPF format
     Using radial grid of  729 points,  4 beta functions with:
                l(1) =   0
                l(2) =   0
                l(3) =   1
                l(4) =   1
     Q(r) pseudized with  8 coefficients,  rinner =    0.800   0.800   0.800

     PseudoPot. # 4 for C  read from file:
     /storage/coda1/p-amedford6/0/shared/rich_project_chbe-medford/medford-share/data/pseudos_module/espresso/nninc/pbe/van/C.UPF
     MD5 check sum: 1a69bf6b8db32088f5b2163dbdb77a27
     Pseudo is Ultrasoft, Zval =  4.0
     Generated by new atomic code, or converted to UPF format
     Using radial grid of  721 points,  4 beta functions with:
                l(1) =   0
                l(2) =   0
                l(3) =   1
                l(4) =   1
     Q(r) pseudized with  8 coefficients,  rinner =    0.800   0.800   0.800

     PseudoPot. # 5 for H  read from file:
     /storage/coda1/p-amedford6/0/shared/rich_project_chbe-medford/medford-share/data/pseudos_module/espresso/nninc/pbe/van/H.UPF
     MD5 check sum: b5ee9d7bfd3a09ee7748110bda690ff7
     Pseudo is Ultrasoft, Zval =  1.0
     Generated by new atomic code, or converted to UPF format
     Using radial grid of  615 points,  1 beta functions with:
                l(1) =   0
     Q(r) pseudized with  8 coefficients,  rinner =    0.800

     atomic species   valence    mass     pseudopotential
        Ti1           12.00    47.86700     Ti( 1.00)
        O1             6.00    15.99900     O ( 1.00)
        N1             5.00    14.00700     N ( 1.00)
        C1             4.00    12.01100     C ( 1.00)
        H1             1.00     1.00800     H ( 1.00)

     No symmetry found

   Cartesian axes

     site n.     atom                  positions (alat units)
         1           Ti1 tau(   1) = (   0.0004258   2.9801865   6.0000000  )
         2           Ti1 tau(   2) = (   3.2906075   1.4906267   6.0002472  )
         3           O1  tau(   3) = (   0.0006271   0.0005054   7.9858123  )
         4           O1  tau(   4) = (   3.2906025   0.0005020   7.3038282  )
         5           O1  tau(   5) = (   4.5942328   1.4918067   9.2879030  )
         6           O1  tau(   6) = (   1.9868534   1.4903216   9.2879459  )
         7           Ti1 tau(   7) = (   3.2907910   2.8959150   9.1758416  )
         8           Ti1 tau(   8) = (   0.0015273   1.4827037   9.2680791  )
         9           O1  tau(   9) = (   3.2954490   0.0159868  11.2922163  )
        10           O1  tau(  10) = (   0.0116148   5.9584955  10.6183126  )
        11           O1  tau(  11) = (   1.3242731   1.5050266  12.6143764  )
        12           O1  tau(  12) = (   5.3073597   1.5103589  12.6267567  )
        13           Ti1 tau(  13) = (   6.4831477   3.0011104  12.7364612  )
        14           Ti1 tau(  14) = (   3.1751638   1.4975352  12.4748964  )
        15           O1  tau(  15) = (   0.0212859   5.9607631  14.5987152  )
        16           O1  tau(  16) = (   3.3058086   0.0238703  13.8910224  )
        17           O1  tau(  17) = (   4.5539421   1.5574750  15.9960573  )
        18           O1  tau(  18) = (   2.0731809   1.5597727  15.9888445  )
        19           Ti1 tau(  19) = (   3.3176354   3.0289328  15.6523405  )
        20           Ti1 tau(  20) = (   0.0198791   1.6227889  16.0606591  )
        21           O1  tau(  21) = (   3.2904802   0.0005063   4.7018136  )
        22           O1  tau(  22) = (   0.0290054   0.0533443  17.2129705  )
        23           O1  tau(  23) = (   1.3043587   1.4918075   6.0039043  )
        24           O1  tau(  24) = (   5.2767064   1.4903225   6.0039473  )
        25           Ti1 tau(  25) = (   0.0000382   5.9609847   6.0000000  )
        26           Ti1 tau(  26) = (   3.2902200   4.4714249   6.0002472  )
        27           O1  tau(  27) = (   0.0002396   2.9813036   7.9858123  )
        28           O1  tau(  28) = (   3.2902150   2.9813002   7.3038282  )
        29           O1  tau(  29) = (   4.5938453   4.4726049   9.2879030  )
        30           O1  tau(  30) = (   1.9864658   4.4711199   9.2879459  )
        31           Ti1 tau(  31) = (   3.2891106   5.8743827   9.1763621  )
        32           Ti1 tau(  32) = (   0.0006254   4.4649316   9.2693709  )
        33           O1  tau(  33) = (   3.2918316   2.9938763  11.2915017  )
        34           O1  tau(  34) = (   0.0092240   2.9805883  10.6323155  )
        35           O1  tau(  35) = (   1.3226278   4.4784642  12.6110361  )
        36           O1  tau(  36) = (   5.3078083   4.4770455  12.6250823  )
        37           Ti1 tau(  37) = (   6.5141033   0.0190828  12.7620745  )
        38           Ti1 tau(  38) = (   3.1722404   4.4939287  12.4712879  )
        39           O1  tau(  39) = (   0.0035410   2.9850241  14.6487316  )
        40           O1  tau(  40) = (   3.3118331   3.0109266  13.8519036  )
        41           O1  tau(  41) = (   4.5522870   4.5059159  16.0259181  )
        42           O1  tau(  42) = (   2.0778134   4.5048723  16.0185459  )
        43           Ti1 tau(  43) = (   3.3116469   0.0596163  15.7453941  )
        44           Ti1 tau(  44) = (   0.0183239   4.5967015  16.1059876  )
        45           O1  tau(  45) = (   3.2900926   2.9813045   4.7018136  )
        46           O1  tau(  46) = (   1.3039711   4.4726057   6.0039043  )
        47           O1  tau(  47) = (   5.2763189   4.4711207   6.0039473  )
        48           N1  tau(  48) = (   0.0600715   3.0265251  17.3188267  )
        49           N1  tau(  49) = (   6.2826239   2.5295367  22.6224490  )
        50           C1  tau(  50) = (   0.2859397   3.0149959  18.7399364  )
        51           H1  tau(  51) = (   0.1411154   4.0060466  19.1894648  )
        52           H1  tau(  52) = (   6.1913215   2.3105648  19.2421896  )
        53           H1  tau(  53) = (   1.3125146   2.6868920  18.9691123  )
        54           H1  tau(  54) = (   6.1000088   3.2491606  23.3142794  )
        55           H1  tau(  55) = (   0.1456284   1.7586669  23.1118534  )
        56           H1  tau(  56) = (   0.4074265   2.9048463  21.9856970  )
        57           O1  tau(  57) = (   3.2908421   0.1144680  18.1630233  )
        58           H1  tau(  58) = (   4.0679411   5.5688996  18.4486002  )
        59           H1  tau(  59) = (   2.5060966   5.5711546  18.4327789  )

     number of k points=    10  Fermi-Dirac smearing, width (Ry)=  0.0073
                       cart. coord. in units 2pi/alat
        k(    1) = (   0.0000000   0.0000000   0.0000000), wk =   0.1250000
        k(    2) = (   0.0000000   0.0419351   0.0000000), wk =   0.2500000
        k(    3) = (   0.0000000  -0.0838702   0.0000000), wk =   0.1250000
        k(    4) = (   0.0379955   0.0000049   0.0000000), wk =   0.2500000
        k(    5) = (   0.0379955   0.0419400   0.0000000), wk =   0.2500000
        k(    6) = (   0.0379955  -0.0838652   0.0000000), wk =   0.2500000
        k(    7) = (   0.0379955  -0.0419301   0.0000000), wk =   0.2500000
        k(    8) = (  -0.0759910  -0.0000099   0.0000000), wk =   0.1250000
        k(    9) = (  -0.0759910   0.0419252   0.0000000), wk =   0.2500000
        k(   10) = (  -0.0759910  -0.0838800   0.0000000), wk =   0.1250000

     Initial potential from superposition of free atoms

     starting charge  389.99912, renormalised to  406.00000

     negative rho (up, down):  6.914E-03 0.000E+00

     %%%%%%%%%%%%%%%%%%%%%%%%%%%%%%%%%%%%%%%%%%%%%%%%%%%%%%%%%%%%%%%%%%%%%%%%
     %                                                                      %
     % You are using vdW-DF, which was implemented by the Thonhauser group. %
     % Please cite the following two papers that made this development      %
     % possible and the two reviews that describe the various versions:     %
     %                                                                      %
     %   T. Thonhauser et al., PRL 115, 136402 (2015).                      %
     %   T. Thonhauser et al., PRB 76, 125112 (2007).                       %
     %   K. Berland et al., Rep. Prog. Phys. 78, 066501 (2015).             %
     %   D.C. Langreth et al., J. Phys.: Condens. Matter 21, 084203 (2009). %
     %                                                                      %
     %                                                                      %
     % If you are calculating the stress with vdW-DF, please also cite:     %
     %                                                                      %
     %   R. Sabatini et al., J. Phys.: Condens. Matter 24, 424209 (2012).   %
     %                                                                      %
     %%%%%%%%%%%%%%%%%%%%%%%%%%%%%%%%%%%%%%%%%%%%%%%%%%%%%%%%%%%%%%%%%%%%%%%%

     Adding external electric field

     Computed dipole along edir(3) :
        Dipole              -16.2336 Ry au,        -41.2616 Debye
        Dipole field         -0.0306 Ry au,

        Potential amp.        2.8398 Ry
        Total length         46.3494 bohr

     Starting wfcs are  308 atomic wfcs
  @ DRIVER MODE: Message from server: STATUS
  @ DRIVER MODE: Message from server: POSDATA
  @ DRIVER MODE: Reading and sharing cell
  @ DRIVER MODE: Reading and sharing positions
  @ DRIVER MODE: Received positions

     Self-consistent Calculation

     iteration #  1     ecut=    29.40 Ry     beta= 0.05
     Davidson diagonalization with overlap
     c_bands:  2 eigenvalues not converged
     c_bands:  3 eigenvalues not converged
     c_bands:  5 eigenvalues not converged
     c_bands:  3 eigenvalues not converged
     c_bands:  3 eigenvalues not converged
     c_bands:  3 eigenvalues not converged
     c_bands:  1 eigenvalues not converged
     c_bands:  5 eigenvalues not converged
     c_bands:  3 eigenvalues not converged
     ethr =  1.00E-05,  avg # of iterations = 20.6

[...]

     total energy              =   -2253.49019678 Ry
     estimated scf accuracy    <    8262.96195969 Ry

     iteration #  2     ecut=    29.40 Ry     beta= 0.05
     Davidson diagonalization with overlap
     ethr =  1.00E-02,  avg # of iterations = 28.0

[...]

     iteration # 59     ecut=    29.40 Ry     beta= 0.05
     Davidson diagonalization with overlap
     c_bands:  1 eigenvalues not converged
     ethr =  3.15E-11,  avg # of iterations =  7.4

[...]

     total energy              =   -2977.74430153 Ry
     estimated scf accuracy    <       0.00000008 Ry

     iteration # 63     ecut=    29.40 Ry     beta= 0.05
     Davidson diagonalization with overlap
     ethr =  2.00E-11,  avg # of iterations =  5.0

     negative rho (up, down):  8.777E-03 0.000E+00

     Adding external electric field

     Computed dipole along edir(3) :
        Dipole                0.7660 Ry au,          1.9470 Debye
        Dipole field          0.0014 Ry au,

        Potential amp.       -0.1340 Ry
        Total length         46.3494 bohr

     End of self-consistent calculation

          k = 0.0000 0.0000 0.0000 ( 18029 PWs)   bands (ev):

   -56.2611 -56.2275 -55.3784 -55.3444 -55.3358 -55.3009 -55.1533 -55.1180
   -55.0311 -54.9110 -54.8925 -54.8909 -54.8771 -54.8060 -54.3901 -54.3403
   -32.6878 -32.5354 -32.5073 -32.4374 -32.3464 -32.3140 -31.8461 -31.8181
   -31.6886 -31.6440 -31.5953 -31.5772 -31.5473 -31.5379 -31.5091 -31.5040
   -31.4853 -31.4792 -31.4567 -31.4423 -31.4292 -31.3798 -31.3697 -31.3310
   -31.3185 -31.3020 -31.2928 -31.2795 -31.2554 -31.2544 -31.2505 -31.2263
   -31.1313 -31.1210 -31.0807 -31.0704 -31.0428 -31.0378 -31.0288 -31.0102
   -30.9795 -30.9270 -30.9047 -30.6337 -30.6115 -30.5803 -30.5594 -30.4505
   -18.4458 -16.4170 -15.9507 -15.7074 -15.6179 -15.5346 -15.4959 -15.4519
   -15.2996 -15.2323 -15.2097 -15.2092 -15.1385 -14.9903 -14.9431 -14.8452
   -14.7515 -14.6166 -14.5996 -14.5663 -14.5485 -14.5156 -14.5085 -14.4568
   -14.2935 -14.2578 -14.2097 -14.1466 -14.0613 -14.0228 -13.8362 -13.4094
   -13.2997 -12.6428  -7.4488  -6.2362  -4.1104  -4.0426  -3.9843  -3.4503
    -3.1811  -3.1535  -3.0250  -3.0202  -2.9748  -2.8349  -2.8271  -2.7535
    -2.7297  -2.6925  -2.6163  -2.5832  -2.5342  -2.4447  -2.4322  -2.4122
    -2.3984  -2.3831  -2.2614  -2.2199  -2.1677  -2.0640  -1.9559  -1.9128
    -1.8858  -1.8419  -1.8038  -1.7567  -1.7446  -1.7297  -1.7231  -1.6119
    -1.4978  -1.4649  -1.4499  -1.4038  -1.3855  -1.3767  -1.3547  -1.2696
    -1.1601  -1.0665  -0.9993  -0.9871  -0.9196  -0.9115  -0.8524  -0.7366
    -0.6758  -0.6713  -0.6554  -0.5518  -0.5250  -0.4537  -0.3908  -0.3328
    -0.2782  -0.2155  -0.1653  -0.1428  -0.1299  -0.0308   0.0407   0.0641
     0.1153   0.1247   0.1336   0.1543   0.2509   0.2867   0.3605   0.4050
     0.4413   0.4855   0.5686   0.6187   0.6865   0.7363   0.7592   0.8208
     0.8742   0.9297   1.0249   1.0654   1.0791   1.0874   1.1107   1.1710
     1.1848   1.2610   1.3441   1.3592   1.4318   1.5002   1.6608   1.6999
     1.9501   2.0213   2.6479   3.0160   3.1773   3.4725   3.6623   3.7998
     3.9952   4.0057   4.0128   4.2389   4.2630

[...]

          k = 0.0380-0.0419 0.0000 ( 17876 PWs)   bands (ev):

[...]

          k =-0.0760-0.0000 0.0000 ( 17886 PWs)   bands (ev):

[...]

          k =-0.0760-0.0839 0.0000 ( 17948 PWs)   bands (ev):

   -56.2444 -56.2440 -55.3634 -55.3590 -55.3233 -55.3136 -55.1367 -55.1344
   -55.0288 -54.8940 -54.8939 -54.8930 -54.8889 -54.8096 -54.3830 -54.3473
   -32.5213 -32.5209 -32.5048 -32.5046 -32.3906 -32.3902 -31.6698 -31.6639
   -31.6539 -31.6465 -31.5701 -31.5551 -31.5533 -31.5491 -31.5428 -31.5412
   -31.5352 -31.5266 -31.4947 -31.4783 -31.3822 -31.3801 -31.3465 -31.3407
   -31.3214 -31.2851 -31.2469 -31.2394 -31.2393 -31.2383 -31.2140 -31.1918
   -31.1490 -31.1188 -31.1187 -31.1150 -31.0920 -31.0797 -31.0796 -31.0647
   -31.0477 -31.0123 -30.7654 -30.7026 -30.6093 -30.5850 -30.5673 -30.5210
   -18.4450 -15.7676 -15.7657 -15.7305 -15.7298 -15.4628 -15.4595 -15.3660
   -15.3607 -15.2262 -15.1092 -15.0076 -14.9948 -14.9594 -14.9322 -14.8202
   -14.7994 -14.7902 -14.7801 -14.6686 -14.6484 -14.6031 -14.5919 -14.5756
   -14.5655 -14.2716 -14.2584 -14.1555 -14.1317 -14.0221 -13.9894 -13.4032
   -13.4032 -12.6614  -7.4425  -6.2286  -4.1206  -4.0441  -2.8641  -2.8569
    -2.8209  -2.8024  -2.8016  -2.7427  -2.6371  -2.5975  -2.5957  -2.5944
    -2.5132  -2.4458  -2.4379  -2.3664  -2.3336  -2.3143  -2.2562  -2.2453
    -2.1801  -2.1538  -2.1456  -2.1290  -2.1056  -2.1043  -2.0082  -1.9454
    -1.8936  -1.8901  -1.8228  -1.8047  -1.7407  -1.7199  -1.7084  -1.6767
    -1.6351  -1.6122  -1.5805  -1.5466  -1.5056  -1.4460  -1.2794  -1.2703
    -1.2609  -1.2394  -1.1143  -1.1076  -1.0763  -1.0462  -1.0404  -0.9665
    -0.9169  -0.8817  -0.8244  -0.7407  -0.7182  -0.6163  -0.5653  -0.5191
    -0.4630  -0.3568  -0.3393  -0.3287  -0.3193  -0.2891  -0.2228  -0.1936
    -0.1780  -0.0574  -0.0379   0.0153   0.0363   0.0926   0.1189   0.1833
     0.2104   0.2820   0.2937   0.3328   0.4069   0.4881   0.5224   0.5704
     0.5751   0.8513   0.9251   1.0519   1.0589   1.1230   1.1817   1.2531
     1.3127   1.3451   1.3719   1.4950   1.4993   1.5086   1.5091   1.5806
     1.5856   1.9278   2.5251   3.5919   3.5922   3.6588   3.6595   3.9801
     3.9864   4.0934   4.1037   4.2645   4.2795

     the Fermi energy is     2.8440 ev

!    total energy              =   -2977.74434951 Ry
     estimated scf accuracy    <       0.00000007 Ry
     smearing contrib. (-TS)   =      -0.00445521 Ry
     internal energy E=F+TS    =   -2977.73989429 Ry

     The total energy is F=E-TS. E is the sum of the following terms:
     one-electron contribution =  -22875.91090289 Ry
     hartree contribution      =   11535.67749147 Ry
     xc contribution           =    -496.32126135 Ry
     ewald contribution        =    8858.81367117 Ry
     electric field correction =       0.00110731 Ry

     convergence has been achieved in  63 iterations

     Forces acting on atoms (cartesian axes, Ry/au):

     atom    1 type  1   force =    -0.00003780   -0.00047034    0.12451763
     atom    2 type  1   force =    -0.00008267   -0.00048379   -0.15978249
     atom    3 type  2   force =     0.00019220   -0.00024374   -0.06790817
     atom    4 type  2   force =    -0.00000590   -0.00011498    0.02622281
     atom    5 type  2   force =    -0.01449062    0.00181805   -0.00989918
     atom    6 type  2   force =     0.01627122    0.00224122   -0.01024734
     atom    7 type  1   force =     0.00071881   -0.00386925    0.02889686
     atom    8 type  1   force =    -0.00034482   -0.00439847    0.10954254
     atom    9 type  2   force =     0.00023737   -0.00029325   -0.00051594
     atom   10 type  2   force =    -0.00231238    0.00256678   -0.07334512
     atom   11 type  2   force =    -0.00002498   -0.00033931    0.00000141
     atom   12 type  2   force =    -0.00015154   -0.00082960    0.00002171
     atom   13 type  1   force =     0.00107082   -0.00041072    0.00011992
     atom   14 type  1   force =    -0.00065541    0.00064156   -0.00010458
     atom   15 type  2   force =    -0.00028763   -0.00038765   -0.00074938
     atom   16 type  2   force =    -0.00002006   -0.00011294    0.00068189
     atom   17 type  2   force =     0.00016698   -0.00091408   -0.00021171
     atom   18 type  2   force =     0.00049100   -0.00052662    0.00011701
     atom   19 type  1   force =    -0.00114641   -0.00009482   -0.00096206
     atom   20 type  1   force =     0.00080938   -0.00014667   -0.00045323
     atom   21 type  2   force =     0.00004755   -0.00003739    0.09944699
     atom   22 type  2   force =     0.00002784   -0.00022600   -0.00040652
     atom   23 type  2   force =    -0.07968505   -0.00005834   -0.03250492
     atom   24 type  2   force =     0.07952946    0.00038005   -0.03255404
     atom   25 type  1   force =    -0.00000957   -0.00057024    0.12416410
     atom   26 type  1   force =    -0.00008285   -0.00061913   -0.15992673
     atom   27 type  2   force =     0.00030055   -0.00036429   -0.06696393
     atom   28 type  2   force =    -0.00001936    0.00014909    0.02514008
     atom   29 type  2   force =    -0.01511241    0.00192719   -0.00983969
     atom   30 type  2   force =     0.01678933    0.00242727   -0.01015330
     atom   31 type  1   force =     0.00074244   -0.00074671    0.02407192
     atom   32 type  1   force =    -0.00027390    0.00204664    0.11017191
     atom   33 type  2   force =     0.00007612    0.00029258    0.00057899
     atom   34 type  2   force =    -0.00193337    0.00199930   -0.07165916
     atom   35 type  2   force =    -0.00001755    0.00034415   -0.00001270
     atom   36 type  2   force =    -0.00052993    0.00061332   -0.00005717
     atom   37 type  1   force =     0.00119585    0.00042649    0.00030551
     atom   38 type  1   force =    -0.00055809   -0.00088425   -0.00021551
     atom   39 type  2   force =    -0.00027273   -0.00015017    0.00088588
     atom   40 type  2   force =     0.00017366   -0.00013088    0.00024182
     atom   41 type  2   force =     0.00103625    0.00015983    0.00015894
     atom   42 type  2   force =    -0.00049567   -0.00023125    0.00053098
     atom   43 type  1   force =    -0.00159826    0.00001418   -0.00032860
     atom   44 type  1   force =     0.00091441   -0.00013622   -0.00039618
     atom   45 type  2   force =     0.00002300   -0.00004830    0.09941079
     atom   46 type  2   force =    -0.07969836    0.00000355   -0.03251806
     atom   47 type  2   force =     0.07955282    0.00043649   -0.03254663
     atom   48 type  3   force =    -0.00086453   -0.00075955   -0.00045015
     atom   49 type  3   force =     0.00743296    0.00282139   -0.00610361
     atom   50 type  4   force =    -0.00027048   -0.00010153    0.00005359
     atom   51 type  5   force =    -0.00021342    0.00038036    0.00028678
     atom   52 type  5   force =    -0.00005702   -0.00052729    0.00074043
     atom   53 type  5   force =     0.00053169   -0.00015413    0.00020675
     atom   54 type  5   force =     0.00039576    0.00002061   -0.00058700
     atom   55 type  5   force =    -0.00027032   -0.00001248    0.00032068
     atom   56 type  5   force =    -0.00752077   -0.00287395    0.00496338
     atom   57 type  2   force =     0.00158950   -0.00047503   -0.00038294
     atom   58 type  5   force =    -0.00047488    0.00090338    0.00002239
     atom   59 type  5   force =    -0.00079823    0.00012991   -0.00003768

     Total force =     0.423741     Total SCF correction =     0.000654
  @ DRIVER MODE: Message from server: STATUS
  @ DRIVER MODE: Message from server: GETFORCE
  @ DRIVER MODE: Returning v,forces,stress,ensemble

     Writing output data file ./calc.save/
  @ DRIVER MODE: Message from server: EXIT
  @ DRIVE MODE: Exiting

     General routines

     Parallel routines

   This run was terminated on:   9:40: 3  16Sep2021

   JOB DONE.