     Program PWSCF v.6.7GPU starts on  9Sep2021 at  4:16:49

     R & G space division:  proc/nbgrp/npool/nimage =      10
     Reading input from /storage/home/hcoda1/3/ntian30/research/carbon/CxH_vib/CH3_calc/ads_slab/CH3OH_e/out_0020/pw.inp
Warning: card &CELL ignored
Warning: card   CELL_DYNAMICS='IPI', ignored
Warning: card / ignored

     Current dimensions of program PWSCF are:
     Max number of different atomic species (ntypx) = 10
     Max number of k-points (npk) =  40000
     Max angular momentum in pseudopotentials (lmaxx) =  3
     Presently no symmetry can be used with electric field

     Message from routine cell_base_init:
     DEPRECATED: use true lattice parameter, not A to a.u. conversion factor

     IMPORTANT: XC functional enforced from input :
     Exchange-correlation= BEEF-VDW
                           (   1   4  43  14   2   0   0)
     Any further DFT definition will be discarded
     Please, verify this is what you really want

  @ DRIVER MODE: Connecting to
 qe_1139763_2767404.sched-torque.pace.gatech.edu3a2jp748_scratch
  using UNIX socket
  @ DRIVER MODE: Message from server: STATUS
  @ DRIVER MODE: Message from server: INIT
  @ DRIVER MODE: Receiving replica           0          -1
  @ DRIVER MODE: Receiving encoded integer          25
  @ DRIVER MODE:  SCF:  T  FORCE:  T  STRESS:  F  VC:  F  ENSEMBLE:  F
  @ DRIVER MODE:  SCF:  T  FORCE:  T  STRESS:  F  VC:  F  ENSEMBLE:  F

     Using Slab Decomposition

     bravais-lattice index     =            0
     lattice parameter (alat)  =       1.8897  a.u.
     unit-cell volume          =    6658.9804 (a.u.)^3
     number of atoms/cell      =           53
     number of atomic types    =            4
     number of electrons       =       392.00
     number of Kohn-Sham states=          206
     kinetic-energy cutoff     =      29.3995  Ry
     charge density cutoff     =     293.9946  Ry
     scf convergence threshold =      7.3E-08
     mixing beta               =       0.0500
     number of iterations used =            8  plain     mixing
     Exchange-correlation= BEEF-VDW
                           (   1   4  43  14   2   0   0)

     celldm(1)=   1.889726  celldm(2)=   0.000000  celldm(3)=   0.000000
     celldm(4)=   0.000000  celldm(5)=   0.000000  celldm(6)=   0.000000

     crystal axes: (cart. coord. in units of alat)
               a(1) = (   6.579727   0.000000   0.000000 )
               a(2) = (  -0.000775   5.961596   0.000000 )
               a(3) = (   0.000000   0.000000  25.155947 )

     reciprocal axes: (cart. coord. in units 2 pi/alat)
               b(1) = (  0.151982  0.000020  0.000000 )
               b(2) = (  0.000000  0.167740  0.000000 )
               b(3) = (  0.000000  0.000000  0.039752 )

     PseudoPot. # 1 for Ti read from file:
     /storage/coda1/p-amedford6/0/shared/rich_project_chbe-medford/medford-share/data/pseudos_module/espresso/nninc/pbe/van/Ti.UPF
     MD5 check sum: 8e4df49b7f0d34bbd5052bf3f5ea0213
     Pseudo is Ultrasoft, Zval = 12.0
     Generated by new atomic code, or converted to UPF format
     Using radial grid of  851 points,  6 beta functions with:
                l(1) =   0
                l(2) =   0
                l(3) =   1
                l(4) =   1
                l(5) =   2
                l(6) =   2
     Q(r) pseudized with  8 coefficients,  rinner =    1.000   1.000   1.000
                                                       1.000   1.000

     PseudoPot. # 2 for O  read from file:
     /storage/coda1/p-amedford6/0/shared/rich_project_chbe-medford/medford-share/data/pseudos_module/espresso/nninc/pbe/van/O.UPF
     MD5 check sum: 78c19812648e8988a0fe644b0f25305e
     Pseudo is Ultrasoft, Zval =  6.0
     Generated by new atomic code, or converted to UPF format
     Using radial grid of  737 points,  4 beta functions with:
                l(1) =   0
                l(2) =   0
                l(3) =   1
                l(4) =   1
     Q(r) pseudized with  8 coefficients,  rinner =    0.800   0.800   0.800

     PseudoPot. # 3 for C  read from file:
     /storage/coda1/p-amedford6/0/shared/rich_project_chbe-medford/medford-share/data/pseudos_module/espresso/nninc/pbe/van/C.UPF
     MD5 check sum: 1a69bf6b8db32088f5b2163dbdb77a27
     Pseudo is Ultrasoft, Zval =  4.0
     Generated by new atomic code, or converted to UPF format
     Using radial grid of  721 points,  4 beta functions with:
                l(1) =   0
                l(2) =   0
                l(3) =   1
                l(4) =   1
     Q(r) pseudized with  8 coefficients,  rinner =    0.800   0.800   0.800

     PseudoPot. # 4 for H  read from file:
     /storage/coda1/p-amedford6/0/shared/rich_project_chbe-medford/medford-share/data/pseudos_module/espresso/nninc/pbe/van/H.UPF
     MD5 check sum: b5ee9d7bfd3a09ee7748110bda690ff7
     Pseudo is Ultrasoft, Zval =  1.0
     Generated by new atomic code, or converted to UPF format
     Using radial grid of  615 points,  1 beta functions with:
                l(1) =   0
     Q(r) pseudized with  8 coefficients,  rinner =    0.800

     atomic species   valence    mass     pseudopotential
        Ti1           12.00    47.86700     Ti( 1.00)
        O1             6.00    15.99900     O ( 1.00)
        C1             4.00    12.01100     C ( 1.00)
        H1             1.00     1.00800     H ( 1.00)

     No symmetry found

   Cartesian axes

     site n.     atom                  positions (alat units)
         1           Ti1 tau(   1) = (   0.0004258   2.9801865   6.0000000  )
         2           Ti1 tau(   2) = (   3.2906075   1.4906267   6.0002472  )
         3           O1  tau(   3) = (   0.0006271   0.0005054   7.9858123  )
         4           O1  tau(   4) = (   3.2906025   0.0005020   7.3038282  )
         5           O1  tau(   5) = (   4.5942328   1.4918067   9.2879030  )
         6           O1  tau(   6) = (   1.9868534   1.4903216   9.2879459  )
         7           Ti1 tau(   7) = (   3.3184627   3.0104606   9.1553648  )
         8           Ti1 tau(   8) = (   0.0346466   1.5145919   9.2725854  )
         9           O1  tau(   9) = (   3.3323670   0.0074739  11.3628161  )
        10           O1  tau(  10) = (   0.0072146   0.0022432  10.6032180  )
        11           O1  tau(  11) = (   1.3334854   1.5010653  12.6312402  )
        12           O1  tau(  12) = (   5.3322653   1.4967215  12.6661074  )
        13           Ti1 tau(  13) = (   0.0399007   3.0049294  12.5399032  )
        14           Ti1 tau(  14) = (   3.3257882   1.5006484  12.5017209  )
        15           O1  tau(  15) = (   0.0958175   0.0109015  14.6781201  )
        16           O1  tau(  16) = (   3.3209445   0.0065530  13.9947117  )
        17           O1  tau(  17) = (   4.6470289   1.5235192  16.1521327  )
        18           O1  tau(  18) = (   2.1274687   1.5288575  16.1863263  )
        19           Ti1 tau(  19) = (   3.3866828   2.9872137  15.7186651  )
        20           Ti1 tau(  20) = (   0.0851359   1.3433488  15.9962781  )
        21           O1  tau(  21) = (   3.2904802   0.0005063   4.7018136  )
        22           O1  tau(  22) = (   0.0861787   0.0156205  17.2101336  )
        23           O1  tau(  23) = (   1.3043587   1.4918075   6.0039043  )
        24           O1  tau(  24) = (   5.2767064   1.4903225   6.0039473  )
        25           Ti1 tau(  25) = (   0.0000382   5.9609847   6.0000000  )
        26           Ti1 tau(  26) = (   3.2902200   4.4714249   6.0002472  )
        27           O1  tau(  27) = (   0.0002396   2.9813036   7.9858123  )
        28           O1  tau(  28) = (   3.2902150   2.9813002   7.3038282  )
        29           O1  tau(  29) = (   4.5938453   4.4726049   9.2879030  )
        30           O1  tau(  30) = (   1.9864658   4.4711199   9.2879459  )
        31           Ti1 tau(  31) = (   3.3160408   0.0312979   9.1533790  )
        32           Ti1 tau(  32) = (   0.0342031   4.4824714   9.2635914  )
        33           O1  tau(  33) = (   3.3296961   2.9874083  11.3532073  )
        34           O1  tau(  34) = (   0.0071558   2.9827229  10.6249429  )
        35           O1  tau(  35) = (   1.3339759   4.4780823  12.6303471  )
        36           O1  tau(  36) = (   5.3316377   4.4803543  12.6653953  )
        37           Ti1 tau(  37) = (   0.0318003   0.0267859  12.4824326  )
        38           Ti1 tau(  38) = (   3.3243002   4.4792164  12.4996646  )
        39           O1  tau(  39) = (   0.1017966   3.0039049  14.8467192  )
        40           O1  tau(  40) = (   3.3365867   2.9884115  13.9371009  )
        41           O1  tau(  41) = (   4.6519449   4.4651455  16.1366910  )
        42           O1  tau(  42) = (   2.1329502   4.4467914  16.2189938  )
        43           Ti1 tau(  43) = (   3.3530478   0.0116223  15.7847896  )
        44           Ti1 tau(  44) = (   0.0420906   4.5503417  15.8661587  )
        45           O1  tau(  45) = (   3.2900926   2.9813045   4.7018136  )
        46           O1  tau(  46) = (   1.3039711   4.4726057   6.0039043  )
        47           O1  tau(  47) = (   5.2763189   4.4711207   6.0039473  )
        48           C1  tau(  48) = (   6.0571888   3.1179766  18.9039971  )
        49           O1  tau(  49) = (   0.2335693   3.0433622  17.6694830  )
        50           H1  tau(  50) = (   5.0284728   2.8969007  18.6408099  )
        51           H1  tau(  51) = (   1.1857692   3.2348548  17.8288520  )
        52           H1  tau(  52) = (   6.4315421   2.3664480  19.5988381  )
        53           H1  tau(  53) = (   6.1352977   4.1238860  19.3131673  )

     number of k points=    10  Fermi-Dirac smearing, width (Ry)=  0.0073
                       cart. coord. in units 2pi/alat
        k(    1) = (   0.0000000   0.0000000   0.0000000), wk =   0.1250000
        k(    2) = (   0.0000000   0.0419351   0.0000000), wk =   0.2500000
        k(    3) = (   0.0000000  -0.0838702   0.0000000), wk =   0.1250000
        k(    4) = (   0.0379955   0.0000049   0.0000000), wk =   0.2500000
        k(    5) = (   0.0379955   0.0419400   0.0000000), wk =   0.2500000
        k(    6) = (   0.0379955  -0.0838652   0.0000000), wk =   0.2500000
        k(    7) = (   0.0379955  -0.0419301   0.0000000), wk =   0.2500000
        k(    8) = (  -0.0759910  -0.0000099   0.0000000), wk =   0.1250000
        k(    9) = (  -0.0759910   0.0419252   0.0000000), wk =   0.2500000
        k(   10) = (  -0.0759910  -0.0838800   0.0000000), wk =   0.1250000

     Initial potential from superposition of free atoms

     starting charge  375.99917, renormalised to  392.00000

     negative rho (up, down):  1.694E-02 0.000E+00

     %%%%%%%%%%%%%%%%%%%%%%%%%%%%%%%%%%%%%%%%%%%%%%%%%%%%%%%%%%%%%%%%%%%%%%%%
     %                                                                      %
     % You are using vdW-DF, which was implemented by the Thonhauser group. %
     % Please cite the following two papers that made this development      %
     % possible and the two reviews that describe the various versions:     %
     %                                                                      %
     %   T. Thonhauser et al., PRL 115, 136402 (2015).                      %
     %   T. Thonhauser et al., PRB 76, 125112 (2007).                       %
     %   K. Berland et al., Rep. Prog. Phys. 78, 066501 (2015).             %
     %   D.C. Langreth et al., J. Phys.: Condens. Matter 21, 084203 (2009). %
     %                                                                      %
     %                                                                      %
     % If you are calculating the stress with vdW-DF, please also cite:     %
     %                                                                      %
     %   R. Sabatini et al., J. Phys.: Condens. Matter 24, 424209 (2012).   %
     %                                                                      %
     %%%%%%%%%%%%%%%%%%%%%%%%%%%%%%%%%%%%%%%%%%%%%%%%%%%%%%%%%%%%%%%%%%%%%%%%

     Adding external electric field

     Computed dipole along edir(3) :
        Dipole               -7.1856 Ry au,        -18.2640 Debye
        Dipole field         -0.0136 Ry au,

        Potential amp.        1.2570 Ry
        Total length         46.3494 bohr

     Starting wfcs are  296 atomic wfcs
  @ DRIVER MODE: Message from server: STATUS
  @ DRIVER MODE: Message from server: POSDATA
  @ DRIVER MODE: Reading and sharing cell
  @ DRIVER MODE: Reading and sharing positions
  @ DRIVER MODE: Received positions

     Self-consistent Calculation

     iteration #  1     ecut=    29.40 Ry     beta= 0.05
     Davidson diagonalization with overlap
     c_bands:  1 eigenvalues not converged
     c_bands:  1 eigenvalues not converged
     c_bands:  2 eigenvalues not converged
     c_bands:  1 eigenvalues not converged
     c_bands:  1 eigenvalues not converged
     c_bands:  1 eigenvalues not converged
     ethr =  1.00E-05,  avg # of iterations = 19.1

[...]

     total energy              =   -2696.74928336 Ry
     estimated scf accuracy    <    2609.03607374 Ry

[...]

     iteration #  3     ecut=    29.40 Ry     beta= 0.05
     Davidson diagonalization with overlap
     ethr =  1.00E-02,  avg # of iterations = 14.8

[...]

     iteration # 46     ecut=    29.40 Ry     beta= 0.05
     Davidson diagonalization with overlap
     c_bands:  1 eigenvalues not converged
     ethr =  1.62E-07,  avg # of iterations = 11.4

[...]

     total energy              =   -2932.64516364 Ry
     estimated scf accuracy    <       0.00000008 Ry

     iteration # 63     ecut=    29.40 Ry     beta= 0.05
     Davidson diagonalization with overlap
     ethr =  1.97E-11,  avg # of iterations = 11.6

     negative rho (up, down):  1.737E-02 0.000E+00

     Adding external electric field

     Computed dipole along edir(3) :
        Dipole                1.3721 Ry au,          3.4876 Debye
        Dipole field          0.0026 Ry au,

        Potential amp.       -0.2400 Ry
        Total length         46.3494 bohr

     End of self-consistent calculation

          k = 0.0000 0.0000 0.0000 ( 18029 PWs)   bands (ev):

   -55.4015 -55.3694 -55.3653 -55.3350 -55.2956 -55.2899 -55.2880 -55.2441
   -55.2282 -55.2268 -55.1938 -55.1860 -55.1820 -55.1519 -54.4598 -54.4257
   -31.9771 -31.9079 -31.8645 -31.7748 -31.7290 -31.7056 -31.6982 -31.6971
   -31.6584 -31.6576 -31.6131 -31.6120 -31.6087 -31.6011 -31.5795 -31.5579
   -31.5534 -31.5361 -31.5310 -31.5235 -31.5205 -31.5102 -31.4863 -31.4857
   -31.4853 -31.4657 -31.4600 -31.4571 -31.4268 -31.4199 -31.4116 -31.3920
   -31.3900 -31.3898 -31.3700 -31.3644 -31.3554 -31.3440 -31.3299 -31.3226
   -31.3118 -31.2977 -30.8718 -30.7694 -30.7478 -30.6883 -30.6020 -30.4907
   -20.1999 -16.2490 -15.9823 -15.8473 -15.7430 -15.6208 -15.4926 -15.4807
   -15.3483 -15.2212 -15.1548 -15.1329 -15.0973 -15.0803 -15.0476 -15.0425
   -15.0276 -14.9564 -14.9301 -14.9111 -14.8851 -14.8812 -14.8436 -14.8332
   -14.7919 -14.7852 -14.6392 -14.5600 -14.4990 -14.2592 -12.9604 -12.8409
   -11.2172  -6.9671  -5.2052  -5.0548  -3.5838  -3.4124  -3.3591  -3.3330
    -3.3273  -3.1956  -3.0860  -3.0366  -2.8297  -2.7025  -2.6678  -2.6586
    -2.6247  -2.5852  -2.4707  -2.3814  -2.3556  -2.3424  -2.2960  -2.2893
    -2.2726  -2.2189  -2.1972  -2.1776  -2.1720  -2.0112  -1.9457  -1.8962
    -1.8852  -1.8393  -1.8015  -1.7418  -1.7384  -1.7232  -1.6857  -1.6815
    -1.6596  -1.6284  -1.6138  -1.4411  -1.3925  -1.3650  -1.2700  -1.1775
    -1.0868  -0.9918  -0.9748  -0.9606  -0.9155  -0.8483  -0.8396  -0.8065
    -0.7682  -0.6481  -0.5805  -0.5338  -0.4806  -0.4032  -0.4028  -0.3432
    -0.2058  -0.1915  -0.1824  -0.1677  -0.0647   0.0152   0.0277   0.0871
     0.1368   0.1596   0.2324   0.2521   0.3167   0.3403   0.4060   0.4225
     0.5097   0.5309   0.5449   0.5648   0.5828   0.6743   0.7010   0.7474
     0.7546   0.9095   1.0383   1.1610   1.1750   1.4555   1.5467   1.5664
     1.7255   2.1524   2.2072   3.6963   3.7606   3.8091   3.8177   3.8288
     3.9067   4.1854   4.1923   4.1977   4.2128   4.2221

[...]

          k = 0.0380-0.0419 0.0000 ( 17876 PWs)   bands (ev):

[...]

          k =-0.0760-0.0000 0.0000 ( 17886 PWs)   bands (ev):

[...]

          k =-0.0760-0.0839 0.0000 ( 17948 PWs)   bands (ev):

   -55.3842 -55.3823 -55.3540 -55.3503 -55.2894 -55.2863 -55.2823 -55.2518
   -55.2318 -55.2129 -55.2087 -55.1847 -55.1712 -55.1668 -54.4427 -54.4426
   -31.8260 -31.7801 -31.7786 -31.7050 -31.6812 -31.6776 -31.6649 -31.6473
   -31.6401 -31.6201 -31.6067 -31.6026 -31.5975 -31.5785 -31.5514 -31.5410
   -31.5326 -31.5291 -31.5291 -31.5262 -31.5247 -31.5214 -31.5132 -31.4865
   -31.4799 -31.4767 -31.4742 -31.4736 -31.4720 -31.4705 -31.4663 -31.4517
   -31.4431 -31.4370 -31.4237 -31.4132 -31.4116 -31.3933 -31.3887 -31.3720
   -31.3590 -31.3548 -30.7604 -30.7603 -30.6846 -30.6844 -30.6452 -30.6451
   -20.1963 -15.7769 -15.6863 -15.6115 -15.4223 -15.4110 -15.4020 -15.3955
   -15.2830 -15.2544 -15.2226 -15.1820 -15.1657 -15.1619 -15.1453 -15.1380
   -15.0003 -14.9966 -14.9914 -14.9900 -14.9192 -14.9144 -14.8998 -14.8852
   -14.8469 -14.8423 -14.8266 -14.8207 -14.7196 -14.5765 -12.9422 -12.9415
   -11.2189  -6.9676  -5.1948  -5.0448  -3.0956  -2.9640  -2.8825  -2.8722
    -2.6364  -2.6296  -2.5897  -2.5286  -2.4775  -2.4261  -2.4007  -2.3976
    -2.3199  -2.3160  -2.3092  -2.3037  -2.2712  -2.2675  -2.2246  -2.2005
    -2.1768  -2.1224  -2.1052  -2.0950  -2.0717  -2.0671  -2.0582  -2.0332
    -2.0284  -2.0098  -1.9415  -1.8620  -1.7895  -1.7736  -1.7385  -1.6260
    -1.6156  -1.5745  -1.5389  -1.4953  -1.4752  -1.4504  -1.4015  -1.3516
    -1.2492  -1.1965  -1.1888  -1.1483  -1.0797  -1.0344  -1.0017  -0.9527
    -0.9037  -0.8715  -0.8302  -0.7634  -0.7127  -0.6232  -0.6172  -0.5736
    -0.4333  -0.4279  -0.4025  -0.3919  -0.3891  -0.3033  -0.2894  -0.2440
    -0.1981  -0.1440  -0.1194  -0.1112   0.0852   0.0945   0.1793   0.2729
     0.2817   0.4368   0.4520   0.5193   0.5908   0.6346   0.6747   0.7381
     0.8380   0.8695   0.8927   0.9865   1.0282   1.0337   1.0605   1.9183
     1.9194   2.0214   2.0243   3.8381   3.9102   3.9428   4.0142   4.0742
     4.2051   4.2177   4.2480   4.2539   4.3303   4.3446

     the Fermi energy is     3.7512 ev

!    total energy              =   -2932.64519813 Ry
     estimated scf accuracy    <       0.00000007 Ry
     smearing contrib. (-TS)   =      -0.03689894 Ry
     internal energy E=F+TS    =   -2932.60829919 Ry

     The total energy is F=E-TS. E is the sum of the following terms:
     one-electron contribution =  -24389.24318225 Ry
     hartree contribution      =   12284.38943823 Ry
     xc contribution           =    -483.00923524 Ry
     ewald contribution        =    9655.25112710 Ry
     electric field correction =       0.00355297 Ry

     convergence has been achieved in  63 iterations

     Forces acting on atoms (cartesian axes, Ry/au):

     atom    1 type  1   force =    -0.00034190   -0.00015032    0.09278620
     atom    2 type  1   force =    -0.00024209    0.00065869   -0.18342253
     atom    3 type  2   force =     0.00047495    0.00086355   -0.02412169
     atom    4 type  2   force =     0.00075588    0.00051846    0.04950622
     atom    5 type  2   force =    -0.01310217    0.00029528    0.00325446
     atom    6 type  2   force =     0.01563127   -0.00028490    0.00544620
     atom    7 type  1   force =     0.00018624    0.00090252   -0.00000100
     atom    8 type  1   force =    -0.00021612   -0.00026437   -0.00039725
     atom    9 type  2   force =    -0.00006008    0.00023331   -0.00022738
     atom   10 type  2   force =     0.00013910    0.00048583    0.00161847
     atom   11 type  2   force =     0.00000158   -0.00046752    0.00002945
     atom   12 type  2   force =    -0.00056407    0.00040134   -0.00027861
     atom   13 type  1   force =     0.00101555   -0.00065272    0.00010964
     atom   14 type  1   force =    -0.00081036    0.00093648    0.00066416
     atom   15 type  2   force =    -0.00063620   -0.00024513   -0.00029312
     atom   16 type  2   force =     0.00064142   -0.00024572   -0.00042380
     atom   17 type  2   force =    -0.00069114    0.00004674    0.00090899
     atom   18 type  2   force =    -0.00039157   -0.00017784    0.00018769
     atom   19 type  1   force =     0.00003078   -0.00093693   -0.00004509
     atom   20 type  1   force =    -0.00045248    0.00024528    0.00009698
     atom   21 type  2   force =    -0.00005469    0.00001277    0.10498290
     atom   22 type  2   force =    -0.00019416   -0.00130304    0.00090517
     atom   23 type  2   force =    -0.06793735   -0.00004140   -0.02679325
     atom   24 type  2   force =     0.06771748    0.00040008   -0.02688548
     atom   25 type  1   force =    -0.00037939    0.00013350    0.09636843
     atom   26 type  1   force =    -0.00022064   -0.00046623   -0.18355304
     atom   27 type  2   force =     0.00041980    0.00058707   -0.02276454
     atom   28 type  2   force =     0.00079359    0.00033075    0.04921245
     atom   29 type  2   force =    -0.01324228    0.00067937    0.00321968
     atom   30 type  2   force =     0.01571085    0.00023672    0.00536970
     atom   31 type  1   force =     0.00029397   -0.00138430   -0.00016699
     atom   32 type  1   force =    -0.00005515   -0.00014289    0.00030245
     atom   33 type  2   force =     0.00033497   -0.00009945    0.00078215
     atom   34 type  2   force =     0.00036229    0.00036116    0.00035923
     atom   35 type  2   force =    -0.00035441    0.00005245    0.00013263
     atom   36 type  2   force =    -0.00026478    0.00028630    0.00001112
     atom   37 type  1   force =     0.00136283   -0.00001910   -0.00050884
     atom   38 type  1   force =    -0.00076576   -0.00077795    0.00092181
     atom   39 type  2   force =    -0.00064595    0.00021161   -0.00060740
     atom   40 type  2   force =    -0.00063155    0.00037404   -0.00011830
     atom   41 type  2   force =    -0.00069249   -0.00007706    0.00070070
     atom   42 type  2   force =    -0.00074744   -0.00035878    0.00036209
     atom   43 type  1   force =    -0.00025817    0.00105533    0.00033693
     atom   44 type  1   force =     0.00025738    0.00006250    0.00094501
     atom   45 type  2   force =    -0.00005525    0.00002981    0.10494793
     atom   46 type  2   force =    -0.06789995   -0.00057508   -0.02681338
     atom   47 type  2   force =     0.06766959   -0.00010160   -0.02688548
     atom   48 type  3   force =     0.00061977   -0.00085315   -0.00041558
     atom   49 type  2   force =     0.01529477    0.00230280    0.00199705
     atom   50 type  4   force =    -0.00007240   -0.00021544    0.00085569
     atom   51 type  4   force =    -0.01684627   -0.00329997   -0.00226191
     atom   52 type  4   force =    -0.00060607    0.00033516   -0.00015677
     atom   53 type  4   force =    -0.00028174    0.00010200   -0.00018018

     Total force =     0.368795     Total SCF correction =     0.000702
  @ DRIVER MODE: Message from server: STATUS
  @ DRIVER MODE: Message from server: GETFORCE
  @ DRIVER MODE: Returning v,forces,stress,ensemble

     Writing output data file ./calc.save/
  @ DRIVER MODE: Message from server: EXIT
  @ DRIVE MODE: Exiting

     General routines

     Parallel routines

   This run was terminated on:   4:35:10   9Sep2021

   JOB DONE.