     Program PWSCF v.6.7GPU starts on 16Jul2021 at 19:35:57

     R & G space division:  proc/nbgrp/npool/nimage =      16
     Reading input from /storage/home/hcoda1/3/ntian30/research/carbon/15Jul_vib/ads_slab/CH3NNHHH_a/out_0033/pw.inp
Warning: card &CELL ignored
Warning: card   CELL_DYNAMICS='IPI', ignored
Warning: card / ignored

     Current dimensions of program PWSCF are:
     Max number of different atomic species (ntypx) = 10
     Max number of k-points (npk) =  40000
     Max angular momentum in pseudopotentials (lmaxx) =  3
     Presently no symmetry can be used with electric field

     Message from routine cell_base_init:
     DEPRECATED: use true lattice parameter, not A to a.u. conversion factor

     IMPORTANT: XC functional enforced from input :
     Exchange-correlation= BEEF-VDW
                           (   1   4  43  14   2   0   0)
     Any further DFT definition will be discarded
     Please, verify this is what you really want

  @ DRIVER MODE: Connecting to
 qe_1139763_2351652.sched-torque.pace.gatech.edu0l6ctq64_scratch
  using UNIX socket
  @ DRIVER MODE: Message from server: STATUS
  @ DRIVER MODE: Message from server: INIT
  @ DRIVER MODE: Receiving replica           0          -1
  @ DRIVER MODE: Receiving encoded integer          25
  @ DRIVER MODE:  SCF:  T  FORCE:  T  STRESS:  F  VC:  F  ENSEMBLE:  F
  @ DRIVER MODE:  SCF:  T  FORCE:  T  STRESS:  F  VC:  F  ENSEMBLE:  F

     Using Slab Decomposition

     bravais-lattice index     =            0
     lattice parameter (alat)  =       1.8897  a.u.
     unit-cell volume          =    6658.9804 (a.u.)^3
     number of atoms/cell      =           56
     number of atomic types    =            5
     number of electrons       =       398.00
     number of Kohn-Sham states=          209
     kinetic-energy cutoff     =      29.3995  Ry
     charge density cutoff     =     293.9946  Ry
     scf convergence threshold =      7.3E-08
     mixing beta               =       0.0500
     number of iterations used =            8  plain     mixing
     Exchange-correlation= BEEF-VDW
                           (   1   4  43  14   2   0   0)

     celldm(1)=   1.889726  celldm(2)=   0.000000  celldm(3)=   0.000000
     celldm(4)=   0.000000  celldm(5)=   0.000000  celldm(6)=   0.000000

     crystal axes: (cart. coord. in units of alat)
               a(1) = (   6.579727   0.000000   0.000000 )
               a(2) = (  -0.000775   5.961596   0.000000 )
               a(3) = (   0.000000   0.000000  25.155947 )

     reciprocal axes: (cart. coord. in units 2 pi/alat)
               b(1) = (  0.151982  0.000020  0.000000 )
               b(2) = (  0.000000  0.167740  0.000000 )
               b(3) = (  0.000000  0.000000  0.039752 )

     PseudoPot. # 1 for Ti read from file:
     /storage/coda1/p-amedford6/0/shared/rich_project_chbe-medford/medford-share/data/pseudos_module/espresso/nninc/pbe/van/Ti.UPF
     MD5 check sum: 8e4df49b7f0d34bbd5052bf3f5ea0213
     Pseudo is Ultrasoft, Zval = 12.0
     Generated by new atomic code, or converted to UPF format
     Using radial grid of  851 points,  6 beta functions with:
                l(1) =   0
                l(2) =   0
                l(3) =   1
                l(4) =   1
                l(5) =   2
                l(6) =   2
     Q(r) pseudized with  8 coefficients,  rinner =    1.000   1.000   1.000
                                                       1.000   1.000

     PseudoPot. # 2 for O  read from file:
     /storage/coda1/p-amedford6/0/shared/rich_project_chbe-medford/medford-share/data/pseudos_module/espresso/nninc/pbe/van/O.UPF
     MD5 check sum: 78c19812648e8988a0fe644b0f25305e
     Pseudo is Ultrasoft, Zval =  6.0
     Generated by new atomic code, or converted to UPF format
     Using radial grid of  737 points,  4 beta functions with:
                l(1) =   0
                l(2) =   0
                l(3) =   1
                l(4) =   1
     Q(r) pseudized with  8 coefficients,  rinner =    0.800   0.800   0.800

     PseudoPot. # 3 for N  read from file:
     /storage/coda1/p-amedford6/0/shared/rich_project_chbe-medford/medford-share/data/pseudos_module/espresso/nninc/pbe/van/N.UPF
     MD5 check sum: 90d10febe142ad51ac9d5be1deb811c4
     Pseudo is Ultrasoft, Zval =  5.0
     Generated by new atomic code, or converted to UPF format
     Using radial grid of  729 points,  4 beta functions with:
                l(1) =   0
                l(2) =   0
                l(3) =   1
                l(4) =   1
     Q(r) pseudized with  8 coefficients,  rinner =    0.800   0.800   0.800

     PseudoPot. # 4 for C  read from file:
     /storage/coda1/p-amedford6/0/shared/rich_project_chbe-medford/medford-share/data/pseudos_module/espresso/nninc/pbe/van/C.UPF
     MD5 check sum: 1a69bf6b8db32088f5b2163dbdb77a27
     Pseudo is Ultrasoft, Zval =  4.0
     Generated by new atomic code, or converted to UPF format
     Using radial grid of  721 points,  4 beta functions with:
                l(1) =   0
                l(2) =   0
                l(3) =   1
                l(4) =   1
     Q(r) pseudized with  8 coefficients,  rinner =    0.800   0.800   0.800

     PseudoPot. # 5 for H  read from file:
     /storage/coda1/p-amedford6/0/shared/rich_project_chbe-medford/medford-share/data/pseudos_module/espresso/nninc/pbe/van/H.UPF
     MD5 check sum: b5ee9d7bfd3a09ee7748110bda690ff7
     Pseudo is Ultrasoft, Zval =  1.0
     Generated by new atomic code, or converted to UPF format
     Using radial grid of  615 points,  1 beta functions with:
                l(1) =   0
     Q(r) pseudized with  8 coefficients,  rinner =    0.800

     atomic species   valence    mass     pseudopotential
        Ti1           12.00    47.86700     Ti( 1.00)
        O1             6.00    15.99900     O ( 1.00)
        N1             5.00    14.00700     N ( 1.00)
        C1             4.00    12.01100     C ( 1.00)
        H1             1.00     1.00800     H ( 1.00)

     Starting magnetic structure
     atomic species   magnetization
        Ti1          0.000
        O1           0.000
        N1           0.000
        C1           0.025
        H1           0.000

     No symmetry found

   Cartesian axes

     site n.     atom                  positions (alat units)
         1           Ti1 tau(   1) = (   0.0004258   2.9801865   6.0000000  )
         2           Ti1 tau(   2) = (   3.2906075   1.4906267   6.0002472  )
         3           O1  tau(   3) = (   0.0006271   0.0005054   7.9858123  )
         4           O1  tau(   4) = (   3.2906025   0.0005020   7.3038282  )
         5           O1  tau(   5) = (   4.5942328   1.4918067   9.2879030  )
         6           O1  tau(   6) = (   1.9868534   1.4903216   9.2879459  )
         7           Ti1 tau(   7) = (   3.2907910   2.8959150   9.1758416  )
         8           Ti1 tau(   8) = (   0.0015273   1.4827037   9.2680791  )
         9           O1  tau(   9) = (   3.2969863   5.9453513  11.3493076  )
        10           O1  tau(  10) = (   0.0116148   5.9584955  10.6183126  )
        11           O1  tau(  11) = (   1.3059050   1.4736943  12.6642453  )
        12           O1  tau(  12) = (   5.3003793   1.4775083  12.6459419  )
        13           Ti1 tau(  13) = (   0.0167275   2.9625105  12.5508078  )
        14           Ti1 tau(  14) = (   3.3131340   1.4712512  12.4909780  )
        15           O1  tau(  15) = (   6.5517612   5.9325698  14.7566896  )
        16           O1  tau(  16) = (   3.3302114   5.9429442  13.9823395  )
        17           O1  tau(  17) = (   4.5243935   1.5056208  16.2316672  )
        18           O1  tau(  18) = (   2.0170937   1.4633510  16.1378485  )
        19           Ti1 tau(  19) = (   3.2500237   2.9242626  15.6920970  )
        20           Ti1 tau(  20) = (   6.5441017   1.2779805  16.1516014  )
        21           O1  tau(  21) = (   3.2904802   0.0005063   4.7018136  )
        22           O1  tau(  22) = (   6.5540411   5.9581837  17.3465722  )
        23           O1  tau(  23) = (   1.3043587   1.4918075   6.0039043  )
        24           O1  tau(  24) = (   5.2767064   1.4903225   6.0039473  )
        25           Ti1 tau(  25) = (   0.0000382   5.9609847   6.0000000  )
        26           Ti1 tau(  26) = (   3.2902200   4.4714249   6.0002472  )
        27           O1  tau(  27) = (   0.0002396   2.9813036   7.9858123  )
        28           O1  tau(  28) = (   3.2902150   2.9813002   7.3038282  )
        29           O1  tau(  29) = (   4.5938453   4.4726049   9.2879030  )
        30           O1  tau(  30) = (   1.9864658   4.4711199   9.2879459  )
        31           Ti1 tau(  31) = (   3.2891106   5.8743827   9.1763621  )
        32           Ti1 tau(  32) = (   0.0006254   4.4649316   9.2693709  )
        33           O1  tau(  33) = (   3.2962403   2.9651072  11.3429128  )
        34           O1  tau(  34) = (   0.0092240   2.9805883  10.6323155  )
        35           O1  tau(  35) = (   1.3076126   4.4641214  12.6643835  )
        36           O1  tau(  36) = (   5.2981430   4.4591552  12.6429889  )
        37           Ti1 tau(  37) = (   0.0194730   5.9489450  12.5196332  )
        38           Ti1 tau(  38) = (   3.3150505   4.4522436  12.4946186  )
        39           O1  tau(  39) = (   6.5702761   2.9869041  14.8038460  )
        40           O1  tau(  40) = (   3.3119818   2.9576719  13.9204832  )
        41           O1  tau(  41) = (   4.5223198   4.3950437  16.2490866  )
        42           O1  tau(  42) = (   2.0356696   4.4339808  16.1311045  )
        43           Ti1 tau(  43) = (   3.3057863   5.9493229  15.7677403  )
        44           Ti1 tau(  44) = (   0.0958844   4.4293496  15.8701971  )
        45           O1  tau(  45) = (   3.2900926   2.9813045   4.7018136  )
        46           O1  tau(  46) = (   1.3039711   4.4726057   6.0039043  )
        47           O1  tau(  47) = (   5.2763189   4.4711207   6.0039473  )
        48           N1  tau(  48) = (   0.0620580   3.0375546  17.6897758  )
        49           C1  tau(  49) = (   1.1116374   2.9693208  18.6984743  )
        50           H1  tau(  50) = (   1.2951007   3.9532040  19.1583453  )
        51           H1  tau(  51) = (   0.8627774   2.2426413  19.4871689  )
        52           H1  tau(  52) = (   2.0263963   2.6228967  18.2308865  )
        53           N1  tau(  53) = (   5.4279256   3.3644730  18.4033390  )
        54           H1  tau(  54) = (   5.6103604   4.1199394  19.0852601  )
        55           H1  tau(  55) = (   4.7934260   3.8076565  17.6395878  )
        56           H1  tau(  56) = (   5.0090149   2.5598412  18.8678436  )

     number of k points=    10  Fermi-Dirac smearing, width (Ry)=  0.0073
                       cart. coord. in units 2pi/alat
        k(    1) = (   0.0000000   0.0000000   0.0000000), wk =   0.0625000
        k(    2) = (   0.0000000   0.0419351   0.0000000), wk =   0.1250000
        k(    3) = (   0.0000000  -0.0838702   0.0000000), wk =   0.0625000
        k(    4) = (   0.0379955   0.0000049   0.0000000), wk =   0.1250000
        k(    5) = (   0.0379955   0.0419400   0.0000000), wk =   0.1250000
[...]
     % Please cite the following two papers that made this development      %
     % possible and the two reviews that describe the various versions:     %
     %                                                                      %
     %   T. Thonhauser et al., PRL 115, 136402 (2015).                      %
     %   T. Thonhauser et al., PRB 76, 125112 (2007).                       %
     %   K. Berland et al., Rep. Prog. Phys. 78, 066501 (2015).             %
     %   D.C. Langreth et al., J. Phys.: Condens. Matter 21, 084203 (2009). %
     %                                                                      %
     %                                                                      %
     % If you are calculating the stress with vdW-DF, please also cite:     %
     %                                                                      %
     %   R. Sabatini et al., J. Phys.: Condens. Matter 24, 424209 (2012).   %
     %                                                                      %
     %%%%%%%%%%%%%%%%%%%%%%%%%%%%%%%%%%%%%%%%%%%%%%%%%%%%%%%%%%%%%%%%%%%%%%%%

     Adding external electric field

     Computed dipole along edir(3) :
        Dipole              -10.5729 Ry au,        -26.8736 Debye
        Dipole field         -0.0200 Ry au,

        Potential amp.        1.8496 Ry
        Total length         46.3494 bohr

[...]

     Starting wfcs are  302 atomic wfcs
  @ DRIVER MODE: Message from server: STATUS
  @ DRIVER MODE: Message from server: POSDATA
  @ DRIVER MODE: Reading and sharing cell
  @ DRIVER MODE: Reading and sharing positions
  @ DRIVER MODE: Received positions

     Self-consistent Calculation

     iteration #  1     ecut=    29.40 Ry     beta= 0.05
     Davidson diagonalization with overlap
     c_bands:  4 eigenvalues not converged
     c_bands:  3 eigenvalues not converged
     c_bands:  1 eigenvalues not converged
     c_bands:  4 eigenvalues not converged
     c_bands:  5 eigenvalues not converged
     c_bands:  5 eigenvalues not converged
     c_bands:  1 eigenvalues not converged
     c_bands:  5 eigenvalues not converged
     c_bands:  3 eigenvalues not converged
     c_bands:  4 eigenvalues not converged
     c_bands:  2 eigenvalues not converged
     c_bands:  1 eigenvalues not converged
     c_bands:  4 eigenvalues not converged
     c_bands:  5 eigenvalues not converged
     c_bands:  5 eigenvalues not converged
     c_bands:  5 eigenvalues not converged
     c_bands:  3 eigenvalues not converged
     ethr =  1.00E-05,  avg # of iterations = 20.0

[...]

     total energy              =   -2443.28086970 Ry
     estimated scf accuracy    <    5586.06504124 Ry

     total magnetization       =     0.00 Bohr mag/cell
     absolute magnetization    =     0.01 Bohr mag/cell

     iteration #  2     ecut=    29.40 Ry     beta= 0.05
     Davidson diagonalization with overlap
     ethr =  1.00E-02,  avg # of iterations = 24.7

[...]

     iteration # 89     ecut=    29.40 Ry     beta= 0.05
     Davidson diagonalization with overlap
     c_bands:  1 eigenvalues not converged
     c_bands:  1 eigenvalues not converged
     ethr =  2.66E-11,  avg # of iterations = 12.1

[...]

     total energy              =   -2942.82531013 Ry
     estimated scf accuracy    <       0.00000012 Ry

[...]

     iteration # 90     ecut=    29.40 Ry     beta= 0.05
     Davidson diagonalization with overlap
     ethr =  2.66E-11,  avg # of iterations =  8.6

     negative rho (up, down):  7.290E-03 7.296E-03

[...]

     Adding external electric field

     Computed dipole along edir(3) :
        Dipole                1.6182 Ry au,          4.1131 Debye
        Dipole field          0.0031 Ry au,

        Potential amp.       -0.2831 Ry
        Total length         46.3494 bohr

     Magnetic moment per site  (integrated on atomic sphere of radius R)
     atom   1 (R=0.723)  charge=  7.9140  magn= -0.0101
     atom   2 (R=0.723)  charge=  7.8964  magn= -0.0003
     atom   3 (R=0.633)  charge=  4.2080  magn=  0.0009
     atom   4 (R=0.633)  charge=  4.2373  magn=  0.0000
     atom   5 (R=0.633)  charge=  4.2138  magn=  0.0001
     atom   6 (R=0.633)  charge=  4.2139  magn=  0.0001
     atom   7 (R=0.723)  charge=  7.8964  magn= -0.0004
     atom   8 (R=0.723)  charge=  7.8945  magn= -0.0050
     atom   9 (R=0.633)  charge=  4.2238  magn= -0.0000
     atom  10 (R=0.633)  charge=  4.2125  magn=  0.0003
     atom  11 (R=0.633)  charge=  4.2093  magn=  0.0000
     atom  12 (R=0.633)  charge=  4.2112  magn=  0.0000
     atom  13 (R=0.723)  charge=  7.8927  magn= -0.0009
     atom  14 (R=0.723)  charge=  7.9040  magn=  0.0000
     atom  15 (R=0.633)  charge=  4.2098  magn=  0.0000
     atom  16 (R=0.633)  charge=  4.2161  magn= -0.0001
     atom  17 (R=0.633)  charge=  4.2035  magn= -0.0000
     atom  18 (R=0.633)  charge=  4.2034  magn= -0.0000
     atom  19 (R=0.723)  charge=  7.9505  magn=  0.0002
     atom  20 (R=0.723)  charge=  7.9298  magn= -0.0000
     atom  21 (R=0.633)  charge=  4.1284  magn=  0.0001
     atom  22 (R=0.633)  charge=  4.1764  magn= -0.0000
     atom  23 (R=0.633)  charge=  4.2073  magn=  0.0010
     atom  24 (R=0.633)  charge=  4.2074  magn=  0.0010
     atom  25 (R=0.723)  charge=  7.9141  magn= -0.0101
     atom  26 (R=0.723)  charge=  7.8964  magn= -0.0003
     atom  27 (R=0.633)  charge=  4.2076  magn=  0.0009
     atom  28 (R=0.633)  charge=  4.2375  magn=  0.0000
     atom  29 (R=0.633)  charge=  4.2143  magn=  0.0001
     atom  30 (R=0.633)  charge=  4.2144  magn=  0.0001
     atom  31 (R=0.723)  charge=  7.8969  magn= -0.0004
     atom  32 (R=0.723)  charge=  7.8947  magn= -0.0049
     atom  33 (R=0.633)  charge=  4.2222  magn= -0.0000
     atom  34 (R=0.633)  charge=  4.2053  magn=  0.0003
     atom  35 (R=0.633)  charge=  4.2090  magn=  0.0000
     atom  36 (R=0.633)  charge=  4.2115  magn=  0.0000
     atom  37 (R=0.723)  charge=  7.8964  magn= -0.0009
     atom  38 (R=0.723)  charge=  7.9034  magn=  0.0000
     atom  39 (R=0.633)  charge=  4.1925  magn=  0.0000
     atom  40 (R=0.633)  charge=  4.2343  magn= -0.0000
     atom  41 (R=0.633)  charge=  4.2023  magn= -0.0000
     atom  42 (R=0.633)  charge=  4.2135  magn= -0.0000
     atom  43 (R=0.723)  charge=  7.9399  magn=  0.0002
     atom  44 (R=0.723)  charge=  7.9262  magn= -0.0001
     atom  45 (R=0.633)  charge=  4.1284  magn=  0.0001
     atom  46 (R=0.633)  charge=  4.2073  magn=  0.0010
     atom  47 (R=0.633)  charge=  4.2074  magn=  0.0010
     atom  48 (R=0.420)  charge=  1.3124  magn= -0.0000
     atom  49 (R=0.447)  charge=  0.8385  magn=  0.0000
     atom  50 (R=0.420)  charge=  0.4420  magn= -0.0000
     atom  51 (R=0.420)  charge=  0.4433  magn= -0.0000
     atom  52 (R=0.420)  charge=  0.4485  magn= -0.0000
     atom  53 (R=0.420)  charge=  1.3485  magn=  0.0000
     atom  54 (R=0.420)  charge=  0.4394  magn=  0.0000
     atom  55 (R=0.420)  charge=  0.3895  magn=  0.0000
     atom  56 (R=0.420)  charge=  0.4513  magn=  0.0000

     End of self-consistent calculation

 ------ SPIN UP ------------

          k = 0.0000 0.0000 0.0000 ( 18029 PWs)   bands (ev):

   -55.1349 -55.0982 -55.0866 -55.0525 -55.0165 -55.0018 -54.9784 -54.9355
   -54.9196 -54.9153 -54.9006 -54.8864 -54.8573 -54.7856 -54.1078 -54.0738
   -31.7146 -31.5816 -31.5033 -31.4717 -31.4260 -31.4236 -31.4212 -31.3944
   -31.3907 -31.3750 -31.3594 -31.3442 -31.3305 -31.3123 -31.2946 -31.2694
   -31.2515 -31.2393 -31.2353 -31.2335 -31.2031 -31.2003 -31.1938 -31.1670
   -31.1456 -31.1415 -31.1386 -31.1320 -31.1288 -31.1202 -31.1161 -31.1124
   -31.0931 -31.0855 -31.0813 -31.0514 -31.0487 -31.0392 -31.0283 -31.0281
   -31.0170 -30.9754 -30.5164 -30.4239 -30.4019 -30.3327 -30.2459 -30.1352
   -18.9429 -15.9992 -15.7453 -15.6093 -15.3742 -15.3223 -15.2657 -15.0617
   -15.0568 -14.9861 -14.9706 -14.9217 -14.9021 -14.8345 -14.7502 -14.7307
   -14.6617 -14.6596 -14.6301 -14.6199 -14.6179 -14.5553 -14.5457 -14.5159
   -14.5032 -14.4780 -14.3595 -14.2752 -14.2169 -13.9674 -13.5945 -12.6104
   -12.4933  -9.7550  -7.7482  -7.1663  -5.4632  -3.8182  -3.3362  -3.2697
    -3.1625  -3.1322  -3.0552  -3.0253  -2.8405  -2.8205  -2.4784  -2.4426
    -2.3925  -2.3744  -2.3540  -2.3356  -2.1686  -2.1419  -2.0691  -2.0362
    -2.0173  -1.9767  -1.9602  -1.9494  -1.9162  -1.9109  -1.9015  -1.6945
    -1.6378  -1.5426  -1.5205  -1.4994  -1.4612  -1.4263  -1.4160  -1.4134
    -1.4076  -1.3942  -1.3824  -1.3012  -1.2436  -1.1622  -1.1536  -1.1174
    -1.0136  -0.9700  -0.7669  -0.7523  -0.7064  -0.6641  -0.6012  -0.5811
    -0.5131  -0.4826  -0.4639  -0.3422  -0.3136  -0.2742  -0.2464  -0.1779
    -0.1492  -0.1025  -0.0197   0.0526   0.0884   0.1065   0.1652   0.2948
     0.3070   0.3362   0.3974   0.4615   0.5010   0.5219   0.5400   0.5774
     0.6274   0.7529   0.7975   0.8175   0.8216   0.8552   0.8779   0.9295
     0.9537   1.0146   1.0201   1.1377   1.2070   1.4330   1.4679   1.4947
     1.8271   1.8501   1.9148   2.1007   2.4886   2.5362   3.9744   4.0325
     4.0872   4.1151   4.1267   4.2150   4.2483   4.4327   4.4601   4.4668
     4.4706

[...]

          k =-0.0760-0.0000 0.0000 ( 17886 PWs)   bands (ev):

[...]

 ------ SPIN DOWN ----------

[...]

          k = 0.0380-0.0419 0.0000 ( 17876 PWs)   bands (ev):

[...]

          k =-0.0760-0.0839 0.0000 ( 17948 PWs)   bands (ev):

   -55.1190 -55.1131 -55.0881 -55.0880 -55.0073 -54.9979 -54.9904 -54.9204
   -54.9184 -54.9163 -54.9127 -54.9112 -54.8537 -54.7893 -54.0911 -54.0910
   -31.5180 -31.5151 -31.4383 -31.4164 -31.4044 -31.4044 -31.3817 -31.3815
   -31.3457 -31.3396 -31.3368 -31.3365 -31.3038 -31.2672 -31.2611 -31.2566
   -31.2557 -31.2520 -31.2516 -31.2458 -31.2118 -31.2111 -31.2091 -31.2090
   -31.2086 -31.2038 -31.1841 -31.1831 -31.1550 -31.1503 -31.1350 -31.1309
   -31.1307 -31.1302 -31.1274 -31.1184 -31.0954 -31.0935 -31.0901 -31.0655
   -31.0399 -31.0223 -30.4151 -30.4150 -30.3290 -30.3288 -30.2897 -30.2897
   -18.9381 -15.5064 -15.3967 -15.2900 -15.2233 -15.1803 -15.1293 -15.1113
   -15.1001 -15.0558 -15.0263 -14.9568 -14.8921 -14.8387 -14.8377 -14.8036
   -14.7253 -14.7115 -14.7039 -14.6937 -14.6367 -14.6300 -14.5985 -14.5772
   -14.5741 -14.5450 -14.4710 -14.4686 -14.3829 -14.1762 -13.6306 -12.5951
   -12.5949  -9.7230  -7.7468  -7.1102  -5.4664  -3.8405  -3.4266  -2.7545
    -2.6435  -2.4334  -2.4071  -2.3470  -2.3272  -2.2431  -2.1820  -2.1597
    -2.1364  -2.1024  -2.0993  -2.0756  -2.0535  -1.9997  -1.9714  -1.9593
    -1.9535  -1.9386  -1.9260  -1.9061  -1.8495  -1.8394  -1.8319  -1.7894
    -1.7783  -1.7466  -1.7404  -1.7014  -1.6848  -1.6106  -1.5161  -1.4919
    -1.4335  -1.3319  -1.3172  -1.3116  -1.2193  -1.2101  -1.1805  -1.1495
    -1.0951  -0.9963  -0.9413  -0.8644  -0.8611  -0.8320  -0.7438  -0.6809
    -0.6471  -0.6379  -0.5992  -0.5410  -0.5183  -0.4842  -0.4018  -0.3599
    -0.3330  -0.2992  -0.2041  -0.1427  -0.1197  -0.0872  -0.0837   0.0046
     0.0381   0.0747   0.0954   0.1340   0.1609   0.2230   0.2471   0.3574
     0.4255   0.4568   0.5757   0.6006   0.6642   0.7968   0.8683   0.9086
     0.9612   1.0195   1.0470   1.1783   1.1855   1.2028   1.3036   1.3439
     1.3508   1.3637   2.2733   2.2744   2.3558   2.3560   4.1015   4.1881
     4.2316   4.2690   4.3759   4.4819   4.5005   4.5444   4.5450   4.6196
     4.6251

     the Fermi energy is     4.0222 ev

!    total energy              =   -2942.82531305 Ry
     estimated scf accuracy    <       0.00000004 Ry
     smearing contrib. (-TS)   =      -0.03683114 Ry
     internal energy E=F+TS    =   -2942.78848191 Ry

     The total energy is F=E-TS. E is the sum of the following terms:
     one-electron contribution =  -23972.28762209 Ry
     hartree contribution      =   12081.72409820 Ry
     xc contribution           =    -487.77306894 Ry
     ewald contribution        =    9435.54316911 Ry
     electric field correction =       0.00494181 Ry

     total magnetization       =    -0.04 Bohr mag/cell
     absolute magnetization    =     0.06 Bohr mag/cell

     convergence has been achieved in  90 iterations

     Forces acting on atoms (cartesian axes, Ry/au):

     atom    1 type  1   force =     0.00015255   -0.00022367    0.09431880
     atom    2 type  1   force =    -0.00009727   -0.00033485   -0.17739887
     atom    3 type  2   force =     0.00005490   -0.00016555   -0.02134750
     atom    4 type  2   force =    -0.00001503   -0.00172548    0.05658082
     atom    5 type  2   force =    -0.01054629   -0.00127509    0.00623744
     atom    6 type  2   force =     0.01221314   -0.00074274    0.00570877
     atom    7 type  1   force =    -0.00032565    0.00172972   -0.01617738
     atom    8 type  1   force =    -0.00011179    0.00438181    0.00559598
     atom    9 type  2   force =     0.00001006   -0.00004398   -0.00004516
     atom   10 type  2   force =    -0.00074460   -0.00022340   -0.00045082
     atom   11 type  2   force =     0.00034831    0.00012755   -0.00018570
     atom   12 type  2   force =    -0.00051955    0.00000323   -0.00012386
     atom   13 type  1   force =     0.00003876   -0.00036010    0.00013566
     atom   14 type  1   force =     0.00056191    0.00010859   -0.00034621
     atom   15 type  2   force =    -0.00039704    0.00013123   -0.00023282
     atom   16 type  2   force =    -0.00032205    0.00017496   -0.00001065
     atom   17 type  2   force =    -0.00015401    0.00005559    0.00039965
     atom   18 type  2   force =     0.00018687    0.00030071   -0.00011496
     atom   19 type  1   force =     0.00006406   -0.00010369    0.00004105
     atom   20 type  1   force =     0.00024884    0.00056745   -0.00046901
     atom   21 type  2   force =     0.00003671    0.00004275    0.10363817
     atom   22 type  2   force =    -0.00009139   -0.00082946   -0.00026050
     atom   23 type  2   force =    -0.07082969   -0.00009825   -0.02719941
     atom   24 type  2   force =     0.07069355    0.00034252   -0.02722930
     atom   25 type  1   force =    -0.00009736   -0.00019408    0.09373065
     atom   26 type  1   force =    -0.00015404   -0.00031903   -0.17733250
     atom   27 type  2   force =     0.00008594   -0.00035155   -0.02044743
     atom   28 type  2   force =     0.00003164   -0.00144078    0.05588970
     atom   29 type  2   force =    -0.01090926   -0.00073491    0.00608675
     atom   30 type  2   force =     0.01245984   -0.00029202    0.00556540
     atom   31 type  1   force =    -0.00017750    0.00462868   -0.01721232
     atom   32 type  1   force =    -0.00004040   -0.00480655    0.00558069
     atom   33 type  2   force =     0.00005669    0.00012374    0.00027272
     atom   34 type  2   force =     0.00005610   -0.00085144   -0.00298372
     atom   35 type  2   force =     0.00023459    0.00003038    0.00008082
     atom   36 type  2   force =    -0.00043063    0.00015704   -0.00005958
     atom   37 type  1   force =    -0.00013257   -0.00010291   -0.00017498
     atom   38 type  1   force =     0.00043200   -0.00029173    0.00034751
     atom   39 type  2   force =    -0.00046885    0.00013024    0.00071017
     atom   40 type  2   force =    -0.00011231    0.00020196   -0.00016778
     atom   41 type  2   force =     0.00054533    0.00013062    0.00128008
     atom   42 type  2   force =    -0.00012303    0.00018549    0.00001218
     atom   43 type  1   force =    -0.00053026    0.00077403   -0.00006271
     atom   44 type  1   force =    -0.00023584    0.00038903   -0.00006784
     atom   45 type  2   force =     0.00002555    0.00001134    0.10364711
     atom   46 type  2   force =    -0.07082809   -0.00003712   -0.02719683
     atom   47 type  2   force =     0.07069638    0.00037817   -0.02720393
     atom   48 type  3   force =     0.00090341   -0.00351865   -0.00009584
     atom   49 type  4   force =     0.00007587   -0.00019494   -0.00068592
     atom   50 type  5   force =    -0.00011590    0.00012521    0.00007645
     atom   51 type  5   force =    -0.00019187   -0.00023881   -0.00009243
     atom   52 type  5   force =    -0.00025520    0.00002422    0.00017133
     atom   53 type  3   force =     0.00366534    0.02506035    0.00032827
     atom   54 type  5   force =    -0.00191387   -0.00794188   -0.00566966
     atom   55 type  5   force =     0.00101776   -0.00278534    0.00029930
     atom   56 type  5   force =    -0.00402480   -0.01008865    0.00431015

     Total force =     0.366823     Total SCF correction =     0.000374
  @ DRIVER MODE: Message from server: STATUS
  @ DRIVER MODE: Message from server: GETFORCE
  @ DRIVER MODE: Returning v,forces,stress,ensemble

     Writing output data file ./calc.save/
  @ DRIVER MODE: Message from server: EXIT
  @ DRIVE MODE: Exiting

     General routines

     Parallel routines

   This run was terminated on:  20:15:25  16Jul2021

   JOB DONE.