     Program PWSCF v.6.7GPU starts on  2Aug2021 at 20:42:20

     R & G space division:  proc/nbgrp/npool/nimage =      16
     Reading input from /storage/home/hcoda1/3/ntian30/research/carbon/02Aug_vib_paired/ads_slab/CH3N2H_a/out_0032/pw.inp
Warning: card &CELL ignored
Warning: card   CELL_DYNAMICS='IPI', ignored
Warning: card / ignored

     Current dimensions of program PWSCF are:
     Max number of different atomic species (ntypx) = 10
     Max number of k-points (npk) =  40000
     Max angular momentum in pseudopotentials (lmaxx) =  3
     Presently no symmetry can be used with electric field

     Message from routine cell_base_init:
     DEPRECATED: use true lattice parameter, not A to a.u. conversion factor

     IMPORTANT: XC functional enforced from input :
     Exchange-correlation= BEEF-VDW
                           (   1   4  43  14   2   0   0)
     Any further DFT definition will be discarded
     Please, verify this is what you really want

  @ DRIVER MODE: Connecting to
 qe_1139763_2482535.sched-torque.pace.gatech.edu59jnvjjr_scratch
  using UNIX socket
  @ DRIVER MODE: Message from server: STATUS
  @ DRIVER MODE: Message from server: INIT
  @ DRIVER MODE: Receiving replica           0          -1
  @ DRIVER MODE: Receiving encoded integer          25
  @ DRIVER MODE:  SCF:  T  FORCE:  T  STRESS:  F  VC:  F  ENSEMBLE:  F
  @ DRIVER MODE:  SCF:  T  FORCE:  T  STRESS:  F  VC:  F  ENSEMBLE:  F

     Using Slab Decomposition

     bravais-lattice index     =            0
     lattice parameter (alat)  =       1.8897  a.u.
     unit-cell volume          =    6658.9804 (a.u.)^3
     number of atoms/cell      =           54
     number of atomic types    =            5
     number of electrons       =       396.00
     number of Kohn-Sham states=          208
     kinetic-energy cutoff     =      29.3995  Ry
     charge density cutoff     =     293.9946  Ry
     scf convergence threshold =      7.3E-08
     mixing beta               =       0.0500
     number of iterations used =            8  plain     mixing
     Exchange-correlation= BEEF-VDW
                           (   1   4  43  14   2   0   0)

     celldm(1)=   1.889726  celldm(2)=   0.000000  celldm(3)=   0.000000
     celldm(4)=   0.000000  celldm(5)=   0.000000  celldm(6)=   0.000000

     crystal axes: (cart. coord. in units of alat)
               a(1) = (   6.579727   0.000000   0.000000 )
               a(2) = (  -0.000775   5.961596   0.000000 )
               a(3) = (   0.000000   0.000000  25.155947 )

     reciprocal axes: (cart. coord. in units 2 pi/alat)
               b(1) = (  0.151982  0.000020  0.000000 )
               b(2) = (  0.000000  0.167740  0.000000 )
               b(3) = (  0.000000  0.000000  0.039752 )

     PseudoPot. # 1 for Ti read from file:
     /storage/coda1/p-amedford6/0/shared/rich_project_chbe-medford/medford-share/data/pseudos_module/espresso/nninc/pbe/van/Ti.UPF
     MD5 check sum: 8e4df49b7f0d34bbd5052bf3f5ea0213
     Pseudo is Ultrasoft, Zval = 12.0
     Generated by new atomic code, or converted to UPF format
     Using radial grid of  851 points,  6 beta functions with:
                l(1) =   0
                l(2) =   0
                l(3) =   1
                l(4) =   1
                l(5) =   2
                l(6) =   2
     Q(r) pseudized with  8 coefficients,  rinner =    1.000   1.000   1.000
                                                       1.000   1.000

     PseudoPot. # 2 for O  read from file:
     /storage/coda1/p-amedford6/0/shared/rich_project_chbe-medford/medford-share/data/pseudos_module/espresso/nninc/pbe/van/O.UPF
     MD5 check sum: 78c19812648e8988a0fe644b0f25305e
     Pseudo is Ultrasoft, Zval =  6.0
     Generated by new atomic code, or converted to UPF format
     Using radial grid of  737 points,  4 beta functions with:
                l(1) =   0
                l(2) =   0
                l(3) =   1
                l(4) =   1
     Q(r) pseudized with  8 coefficients,  rinner =    0.800   0.800   0.800

     PseudoPot. # 3 for N  read from file:
     /storage/coda1/p-amedford6/0/shared/rich_project_chbe-medford/medford-share/data/pseudos_module/espresso/nninc/pbe/van/N.UPF
     MD5 check sum: 90d10febe142ad51ac9d5be1deb811c4
     Pseudo is Ultrasoft, Zval =  5.0
     Generated by new atomic code, or converted to UPF format
     Using radial grid of  729 points,  4 beta functions with:
                l(1) =   0
                l(2) =   0
                l(3) =   1
                l(4) =   1
     Q(r) pseudized with  8 coefficients,  rinner =    0.800   0.800   0.800

     PseudoPot. # 4 for C  read from file:
     /storage/coda1/p-amedford6/0/shared/rich_project_chbe-medford/medford-share/data/pseudos_module/espresso/nninc/pbe/van/C.UPF
     MD5 check sum: 1a69bf6b8db32088f5b2163dbdb77a27
     Pseudo is Ultrasoft, Zval =  4.0
     Generated by new atomic code, or converted to UPF format
     Using radial grid of  721 points,  4 beta functions with:
                l(1) =   0
                l(2) =   0
                l(3) =   1
                l(4) =   1
     Q(r) pseudized with  8 coefficients,  rinner =    0.800   0.800   0.800

     PseudoPot. # 5 for H  read from file:
     /storage/coda1/p-amedford6/0/shared/rich_project_chbe-medford/medford-share/data/pseudos_module/espresso/nninc/pbe/van/H.UPF
     MD5 check sum: b5ee9d7bfd3a09ee7748110bda690ff7
     Pseudo is Ultrasoft, Zval =  1.0
     Generated by new atomic code, or converted to UPF format
     Using radial grid of  615 points,  1 beta functions with:
                l(1) =   0
     Q(r) pseudized with  8 coefficients,  rinner =    0.800

     atomic species   valence    mass     pseudopotential
        Ti1           12.00    47.86700     Ti( 1.00)
        O1             6.00    15.99900     O ( 1.00)
        N1             5.00    14.00700     N ( 1.00)
        C1             4.00    12.01100     C ( 1.00)
        H1             1.00     1.00800     H ( 1.00)

     No symmetry found

   Cartesian axes

     site n.     atom                  positions (alat units)
         1           Ti1 tau(   1) = (   0.0004258   2.9801865   6.0000000  )
         2           Ti1 tau(   2) = (   3.2906075   1.4906267   6.0002472  )
         3           O1  tau(   3) = (   0.0006271   0.0005054   7.9858123  )
         4           O1  tau(   4) = (   3.2906025   0.0005020   7.3038282  )
         5           O1  tau(   5) = (   4.5942328   1.4918067   9.2879030  )
         6           O1  tau(   6) = (   1.9868534   1.4903216   9.2879459  )
         7           Ti1 tau(   7) = (   3.2907910   2.8959150   9.1758416  )
         8           Ti1 tau(   8) = (   0.0015273   1.4827037   9.2680791  )
         9           O1  tau(   9) = (   3.3106937   0.0084137  11.2927479  )
        10           O1  tau(  10) = (   0.0116148   5.9584955  10.6183126  )
        11           O1  tau(  11) = (   1.3255326   1.5151957  12.5859258  )
        12           O1  tau(  12) = (   5.3246634   1.4871208  12.6441624  )
        13           Ti1 tau(  13) = (   6.5358624   2.9940264  12.7507449  )
        14           Ti1 tau(  14) = (   3.1828407   1.5032771  12.4528579  )
        15           O1  tau(  15) = (   0.1336207   0.0073438  14.6266748  )
        16           O1  tau(  16) = (   3.2550344   0.0288700  13.8306396  )
        17           O1  tau(  17) = (   4.6334483   1.5013943  15.9792279  )
        18           O1  tau(  18) = (   2.1409664   1.5470880  15.9954950  )
        19           Ti1 tau(  19) = (   3.4798582   3.0305884  15.6593850  )
        20           Ti1 tau(  20) = (   0.1386493   1.3724552  15.8613965  )
        21           O1  tau(  21) = (   3.2904802   0.0005063   4.7018136  )
        22           O1  tau(  22) = (   0.1429122   0.0333940  17.1908172  )
        23           O1  tau(  23) = (   1.3043587   1.4918075   6.0039043  )
        24           O1  tau(  24) = (   5.2767064   1.4903225   6.0039473  )
        25           Ti1 tau(  25) = (   0.0000382   5.9609847   6.0000000  )
        26           Ti1 tau(  26) = (   3.2902200   4.4714249   6.0002472  )
        27           O1  tau(  27) = (   0.0002396   2.9813036   7.9858123  )
        28           O1  tau(  28) = (   3.2902150   2.9813002   7.3038282  )
        29           O1  tau(  29) = (   4.5938453   4.4726049   9.2879030  )
        30           O1  tau(  30) = (   1.9864658   4.4711199   9.2879459  )
        31           Ti1 tau(  31) = (   3.2891106   5.8743827   9.1763621  )
        32           Ti1 tau(  32) = (   0.0006254   4.4649316   9.2693709  )
        33           O1  tau(  33) = (   3.3137399   2.9960163  11.2943833  )
        34           O1  tau(  34) = (   0.0092240   2.9805883  10.6323155  )
        35           O1  tau(  35) = (   1.3234708   4.4688006  12.5930975  )
        36           O1  tau(  36) = (   5.3222282   4.4932535  12.6449723  )
        37           Ti1 tau(  37) = (   6.5041614   0.0053836  12.5833808  )
        38           Ti1 tau(  38) = (   3.1843229   4.4812189  12.4522442  )
        39           O1  tau(  39) = (   0.0584892   2.9792810  14.6723703  )
        40           O1  tau(  40) = (   3.3232524   2.9928384  13.8523860  )
        41           O1  tau(  41) = (   4.6237859   4.5837569  15.7472905  )
        42           O1  tau(  42) = (   2.1882403   4.4693611  16.1038286  )
        43           Ti1 tau(  43) = (   3.3015484   0.0242660  15.6383815  )
        44           Ti1 tau(  44) = (   0.0181797   4.4930750  16.1931172  )
        45           O1  tau(  45) = (   3.2900926   2.9813045   4.7018136  )
        46           O1  tau(  46) = (   1.3039711   4.4726057   6.0039043  )
        47           O1  tau(  47) = (   5.2763189   4.4711207   6.0039473  )
        48           N1  tau(  48) = (   0.2677213   2.8760844  17.5655548  )
        49           C1  tau(  49) = (   1.2271684   2.7639891  18.6598760  )
        50           H1  tau(  50) = (   1.2930054   3.7106696  19.2072709  )
        51           H1  tau(  51) = (   0.8976878   1.9730418  19.3402421  )
        52           H1  tau(  52) = (   2.2102292   2.4972526  18.2850250  )
        53           N1  tau(  53) = (   5.6832178   3.4927010  17.8452151  )
        54           H1  tau(  54) = (   5.7345573   4.0058295  18.7343860  )

     number of k points=    10  Fermi-Dirac smearing, width (Ry)=  0.0073
                       cart. coord. in units 2pi/alat
        k(    1) = (   0.0000000   0.0000000   0.0000000), wk =   0.1250000
        k(    2) = (   0.0000000   0.0419351   0.0000000), wk =   0.2500000
        k(    3) = (   0.0000000  -0.0838702   0.0000000), wk =   0.1250000
        k(    4) = (   0.0379955   0.0000049   0.0000000), wk =   0.2500000
        k(    5) = (   0.0379955   0.0419400   0.0000000), wk =   0.2500000
        k(    6) = (   0.0379955  -0.0838652   0.0000000), wk =   0.2500000
        k(    7) = (   0.0379955  -0.0419301   0.0000000), wk =   0.2500000
        k(    8) = (  -0.0759910  -0.0000099   0.0000000), wk =   0.1250000
        k(    9) = (  -0.0759910   0.0419252   0.0000000), wk =   0.2500000
        k(   10) = (  -0.0759910  -0.0838800   0.0000000), wk =   0.1250000

     Initial potential from superposition of free atoms

     starting charge  379.99915, renormalised to  396.00000

     negative rho (up, down):  1.686E-02 0.000E+00

     %%%%%%%%%%%%%%%%%%%%%%%%%%%%%%%%%%%%%%%%%%%%%%%%%%%%%%%%%%%%%%%%%%%%%%%%
     %                                                                      %
     % You are using vdW-DF, which was implemented by the Thonhauser group. %
     % Please cite the following two papers that made this development      %
     % possible and the two reviews that describe the various versions:     %
     %                                                                      %
     %   T. Thonhauser et al., PRL 115, 136402 (2015).                      %
     %   T. Thonhauser et al., PRB 76, 125112 (2007).                       %
     %   K. Berland et al., Rep. Prog. Phys. 78, 066501 (2015).             %
     %   D.C. Langreth et al., J. Phys.: Condens. Matter 21, 084203 (2009). %
     %                                                                      %
     %                                                                      %
     % If you are calculating the stress with vdW-DF, please also cite:     %
     %                                                                      %
     %   R. Sabatini et al., J. Phys.: Condens. Matter 24, 424209 (2012).   %
     %                                                                      %
     %%%%%%%%%%%%%%%%%%%%%%%%%%%%%%%%%%%%%%%%%%%%%%%%%%%%%%%%%%%%%%%%%%%%%%%%

     Adding external electric field

     Computed dipole along edir(3) :
        Dipole               -8.2222 Ry au,        -20.8988 Debye
        Dipole field         -0.0155 Ry au,

        Potential amp.        1.4384 Ry
        Total length         46.3494 bohr

     Starting wfcs are  300 atomic wfcs
  @ DRIVER MODE: Message from server: STATUS
  @ DRIVER MODE: Message from server: POSDATA
  @ DRIVER MODE: Reading and sharing cell
  @ DRIVER MODE: Reading and sharing positions
  @ DRIVER MODE: Received positions

     Self-consistent Calculation

     iteration #  1     ecut=    29.40 Ry     beta= 0.05
     Davidson diagonalization with overlap
     c_bands:  1 eigenvalues not converged
     c_bands:  1 eigenvalues not converged
     c_bands:  1 eigenvalues not converged
     c_bands:  1 eigenvalues not converged
     c_bands:  4 eigenvalues not converged
     c_bands:  1 eigenvalues not converged
     c_bands:  5 eigenvalues not converged
     c_bands:  1 eigenvalues not converged
     c_bands:  1 eigenvalues not converged
     ethr =  1.00E-05,  avg # of iterations = 20.0

[...]

     total energy              =   -2607.31449533 Ry
     estimated scf accuracy    <    3677.94703862 Ry

[...]

     iteration #  3     ecut=    29.40 Ry     beta= 0.05
     Davidson diagonalization with overlap
     ethr =  1.00E-02,  avg # of iterations = 14.0

[...]

     iteration # 45     ecut=    29.40 Ry     beta= 0.05
     Davidson diagonalization with overlap
     c_bands:  2 eigenvalues not converged
     ethr =  8.82E-07,  avg # of iterations = 14.8

[...]

     total energy              =   -2940.35209718 Ry
     estimated scf accuracy    <       0.00000010 Ry

     iteration # 69     ecut=    29.40 Ry     beta= 0.05
     Davidson diagonalization with overlap
     ethr =  2.49E-11,  avg # of iterations =  7.1

     negative rho (up, down):  1.746E-02 0.000E+00

     Adding external electric field

     Computed dipole along edir(3) :
        Dipole                0.7507 Ry au,          1.9080 Debye
        Dipole field          0.0014 Ry au,

        Potential amp.       -0.1313 Ry
        Total length         46.3494 bohr

     End of self-consistent calculation

          k = 0.0000 0.0000 0.0000 ( 18029 PWs)   bands (ev):

   -56.0102 -55.9762 -55.7973 -55.7585 -55.7132 -55.6788 -55.6567 -55.6284
   -55.6225 -55.5937 -55.5753 -55.4962 -55.2403 -54.9074 -54.8733 -54.7893
   -32.4771 -32.3396 -32.3043 -32.2810 -32.1801 -32.1651 -32.1595 -32.1180
   -32.0999 -32.0927 -32.0711 -32.0383 -32.0211 -31.9757 -31.9663 -31.9643
   -31.9303 -31.9242 -31.9192 -31.8846 -31.8801 -31.8643 -31.8536 -31.8521
   -31.8307 -31.8288 -31.8182 -31.8177 -31.8077 -31.8012 -31.7882 -31.7825
   -31.7694 -31.7412 -31.6924 -31.6646 -31.6168 -31.4672 -31.4640 -31.3109
   -31.2315 -31.2085 -31.2072 -31.1282 -31.0422 -30.9963 -30.9309 -30.9126
   -17.4247 -16.5521 -16.3586 -16.0689 -15.9203 -15.9088 -15.7834 -15.6825
   -15.6023 -15.5019 -15.4548 -15.3954 -15.3822 -15.3623 -15.3045 -15.2778
   -15.2405 -15.2191 -15.1828 -15.1696 -15.1306 -15.0958 -15.0793 -15.0527
   -14.9799 -14.9120 -14.8937 -14.7492 -14.5999 -14.4545 -13.4086 -13.2937
   -11.5665  -8.3713  -5.0649  -4.0400  -3.9379  -3.8737  -3.8633  -3.7666
    -3.6844  -3.4357  -3.4172  -3.3539  -3.0604  -3.0155  -2.9917  -2.9868
    -2.8905  -2.7466  -2.7169  -2.6579  -2.6531  -2.6300  -2.6146  -2.5954
    -2.5401  -2.4905  -2.4707  -2.4266  -2.2856  -2.2695  -2.2604  -2.2390
    -2.1699  -2.1592  -2.0960  -2.0748  -2.0539  -2.0325  -2.0003  -1.8694
    -1.8360  -1.7722  -1.6931  -1.5970  -1.5158  -1.4848  -1.4055  -1.3742
    -1.3615  -1.2616  -1.2497  -1.1754  -1.1370  -1.0706  -1.0435  -1.0010
    -0.8898  -0.8692  -0.8108  -0.7537  -0.7016  -0.6934  -0.6477  -0.6235
    -0.6217  -0.6076  -0.5934  -0.4040  -0.3663  -0.2256  -0.1788  -0.1558
    -0.1138  -0.0936  -0.0348  -0.0066  -0.0046   0.0397   0.0574   0.0985
     0.1518   0.1657   0.1937   0.2832   0.3147   0.3718   0.4987   0.5149
     0.5999   0.6704   0.7694   0.7912   0.8400   0.9680   1.0704   1.0865
     1.1149   1.3201   1.4202   1.6790   1.7215   3.0369   3.1827   3.2778
     3.3857   3.5055   3.5769   3.6205   3.7901   3.8232   3.8675   3.9371

[...]

          k = 0.0380-0.0419 0.0000 ( 17876 PWs)   bands (ev):

[...]

          k =-0.0760-0.0000 0.0000 ( 17886 PWs)   bands (ev):

[...]

          k =-0.0760-0.0839 0.0000 ( 17948 PWs)   bands (ev):

   -55.9942 -55.9921 -55.7851 -55.7705 -55.6996 -55.6922 -55.6410 -55.6382
   -55.6151 -55.6071 -55.5714 -55.5000 -55.2397 -54.8904 -54.8902 -54.7898
   -32.2935 -32.2925 -32.2901 -32.2884 -32.1470 -32.1350 -32.1171 -32.1149
   -32.0438 -32.0312 -32.0203 -32.0120 -32.0081 -32.0039 -31.9597 -31.9542
   -31.9488 -31.9368 -31.9120 -31.8910 -31.8789 -31.8764 -31.8742 -31.8731
   -31.8693 -31.8650 -31.8462 -31.8449 -31.8371 -31.8297 -31.8246 -31.8095
   -31.7974 -31.7880 -31.7645 -31.7065 -31.6065 -31.4696 -31.4634 -31.2574
   -31.2214 -31.2212 -31.1242 -31.1240 -31.0853 -31.0852 -31.0084 -30.9167
   -17.4074 -15.9708 -15.9420 -15.8292 -15.8096 -15.7248 -15.7111 -15.5950
   -15.5879 -15.5763 -15.5099 -15.4614 -15.4512 -15.3762 -15.3456 -15.3350
   -15.3070 -15.2972 -15.2912 -15.2810 -15.2748 -15.1904 -15.1859 -15.1806
   -15.1141 -15.0838 -14.9043 -14.8602 -14.6664 -14.6097 -13.3962 -13.3958
   -11.5698  -8.3516  -5.0714  -3.9445  -3.8656  -3.2730  -3.2367  -3.0163
    -2.9933  -2.9727  -2.9397  -2.7570  -2.7440  -2.7354  -2.7197  -2.7075
    -2.6710  -2.6522  -2.6401  -2.5733  -2.5655  -2.5407  -2.5350  -2.5275
    -2.5084  -2.4929  -2.4859  -2.4657  -2.4569  -2.4123  -2.3580  -2.3334
    -2.2871  -2.1922  -2.0880  -2.0352  -2.0179  -2.0107  -1.9888  -1.9794
    -1.9429  -1.9299  -1.8428  -1.6689  -1.6195  -1.5533  -1.5472  -1.5423
    -1.4832  -1.4231  -1.3983  -1.3133  -1.2421  -1.1862  -1.1592  -1.1312
    -1.1011  -1.0322  -0.9671  -0.9480  -0.9349  -0.9013  -0.8952  -0.8832
    -0.8061  -0.7265  -0.6814  -0.6492  -0.6261  -0.6103  -0.5942  -0.5747
    -0.4740  -0.3971  -0.3501  -0.3064  -0.2691  -0.2222  -0.1043  -0.0879
     0.0963   0.1739   0.2022   0.2754   0.3717   0.4018   0.4141   0.4708
     0.5468   0.6086   0.6424   0.6990   0.7181   0.7377   0.8048   1.0164
     1.0770   1.4888   1.4904   1.5397   1.5407   3.0027   3.6797   3.6889
     3.6924   3.7035   3.7217   3.7436   3.7947   3.8290   3.9356   3.9559

     the Fermi energy is     3.1475 ev

!    total energy              =   -2940.35211682 Ry
     estimated scf accuracy    <       0.00000004 Ry
     smearing contrib. (-TS)   =      -0.01881482 Ry
     internal energy E=F+TS    =   -2940.33330200 Ry

     The total energy is F=E-TS. E is the sum of the following terms:
     one-electron contribution =  -24662.16333530 Ry
     hartree contribution      =   12420.27606743 Ry
     xc contribution           =    -486.06214765 Ry
     ewald contribution        =    9787.61505010 Ry
     electric field correction =       0.00106341 Ry

     convergence has been achieved in  69 iterations

     Forces acting on atoms (cartesian axes, Ry/au):

     atom    1 type  1   force =     0.00026435   -0.00036317    0.10145679
     atom    2 type  1   force =     0.00003238   -0.00086601   -0.17143597
     atom    3 type  2   force =     0.00029054    0.00021759   -0.03316106
     atom    4 type  2   force =     0.00003117   -0.00079031    0.04487274
     atom    5 type  2   force =    -0.01196252   -0.00021127   -0.00228655
     atom    6 type  2   force =     0.01439441    0.00038055   -0.00108867
     atom    7 type  1   force =     0.00139748   -0.00128050   -0.00446765
     atom    8 type  1   force =    -0.00079062    0.02220209    0.05603436
     atom    9 type  2   force =     0.00002016   -0.00031698    0.00064167
     atom   10 type  2   force =    -0.00267378    0.00207144   -0.02565241
     atom   11 type  2   force =     0.00004353    0.00024324    0.00002542
     atom   12 type  2   force =     0.00005366    0.00075845    0.00009737
     atom   13 type  1   force =    -0.00006562    0.00013219   -0.00024421
     atom   14 type  1   force =     0.00029163    0.00028912   -0.00034077
     atom   15 type  2   force =     0.00014229   -0.00016230    0.00045469
     atom   16 type  2   force =    -0.00000094   -0.00014732    0.00121192
     atom   17 type  2   force =    -0.00002087   -0.00061848    0.00038917
     atom   18 type  2   force =     0.00051010   -0.00068696    0.00045387
     atom   19 type  1   force =    -0.00035627   -0.00053940   -0.00055896
     atom   20 type  1   force =     0.00008966   -0.00005836   -0.00117476
     atom   21 type  2   force =     0.00006700   -0.00001001    0.10211521
     atom   22 type  2   force =     0.00006601   -0.00015175    0.00080332
     atom   23 type  2   force =    -0.07325673   -0.00015958   -0.02887377
     atom   24 type  2   force =     0.07320998    0.00033230   -0.02892487
     atom   25 type  1   force =    -0.00029490   -0.00032302    0.10188930
     atom   26 type  1   force =     0.00002417   -0.00017181   -0.17142308
     atom   27 type  2   force =     0.00036356   -0.00022766   -0.03189006
     atom   28 type  2   force =     0.00009245   -0.00057249    0.04548559
     atom   29 type  2   force =    -0.01211058    0.00213174   -0.00283994
     atom   30 type  2   force =     0.01442151    0.00229178   -0.00158722
     atom   31 type  1   force =     0.00160350    0.00094310   -0.00579722
     atom   32 type  1   force =    -0.00058893   -0.02474911    0.05709272
     atom   33 type  2   force =     0.00014166    0.00035519    0.00080283
     atom   34 type  2   force =    -0.00421260    0.00212225   -0.04807491
     atom   35 type  2   force =     0.00063987   -0.00058959    0.00008732
     atom   36 type  2   force =    -0.00044138   -0.00076519    0.00021677
     atom   37 type  1   force =     0.00006953    0.00060605   -0.00053625
     atom   38 type  1   force =     0.00003332   -0.00014394   -0.00042574
     atom   39 type  2   force =     0.00019746   -0.00006752   -0.00025996
     atom   40 type  2   force =    -0.00004881   -0.00003015    0.00008418
     atom   41 type  2   force =     0.00025310    0.00019654    0.00060009
     atom   42 type  2   force =    -0.00000753    0.00032544    0.00089483
     atom   43 type  1   force =    -0.00036254   -0.00006429   -0.00032706
     atom   44 type  1   force =     0.00051777    0.00080268   -0.00139527
     atom   45 type  2   force =     0.00004589   -0.00005178    0.10217342
     atom   46 type  2   force =    -0.07327002   -0.00009271   -0.02885000
     atom   47 type  2   force =     0.07321916    0.00028491   -0.02888761
     atom   48 type  3   force =     0.00818212   -0.00317290    0.00128862
     atom   49 type  4   force =     0.00136324   -0.00115870   -0.00012510
     atom   50 type  5   force =    -0.00017662   -0.00017574   -0.00024930
     atom   51 type  5   force =    -0.00059606   -0.00048830    0.00046723
     atom   52 type  5   force =    -0.00016532   -0.00053191    0.00034261
     atom   53 type  3   force =    -0.01199534    0.00356520    0.00061264
     atom   54 type  5   force =     0.00132535   -0.00051261    0.00028371

     Total force =     0.377984     Total SCF correction =     0.000506
  @ DRIVER MODE: Message from server: STATUS
  @ DRIVER MODE: Message from server: GETFORCE
  @ DRIVER MODE: Returning v,forces,stress,ensemble

     Writing output data file ./calc.save/
  @ DRIVER MODE: Message from server: EXIT
  @ DRIVE MODE: Exiting

     General routines

     Parallel routines

   This run was terminated on:  20:57:53   2Aug2021

   JOB DONE.