     Program PWSCF v.6.7GPU starts on 11Sep2021 at  0: 8:55

     R & G space division:  proc/nbgrp/npool/nimage =      10
     Reading input from /storage/home/hcoda1/3/ntian30/research/carbon/CxH_vib/CH2_calc/ads_slab/CH2NHNH_b/out_0018/pw.inp
Warning: card &CELL ignored
Warning: card   CELL_DYNAMICS='IPI', ignored
Warning: card / ignored

     Current dimensions of program PWSCF are:
     Max number of different atomic species (ntypx) = 10
     Max number of k-points (npk) =  40000
     Max angular momentum in pseudopotentials (lmaxx) =  3
     Presently no symmetry can be used with electric field

     Message from routine cell_base_init:
     DEPRECATED: use true lattice parameter, not A to a.u. conversion factor

     IMPORTANT: XC functional enforced from input :
     Exchange-correlation= BEEF-VDW
                           (   1   4  43  14   2   0   0)
     Any further DFT definition will be discarded
     Please, verify this is what you really want

  @ DRIVER MODE: Connecting to
 qe_1139763_2792040.sched-torque.pace.gatech.edu6_32di5k_scratch
  using UNIX socket
  @ DRIVER MODE: Message from server: STATUS
  @ DRIVER MODE: Message from server: INIT
  @ DRIVER MODE: Receiving replica           0          -1
  @ DRIVER MODE: Receiving encoded integer          25
  @ DRIVER MODE:  SCF:  T  FORCE:  T  STRESS:  F  VC:  F  ENSEMBLE:  F
  @ DRIVER MODE:  SCF:  T  FORCE:  T  STRESS:  F  VC:  F  ENSEMBLE:  F

     Using Slab Decomposition

     bravais-lattice index     =            0
     lattice parameter (alat)  =       1.8897  a.u.
     unit-cell volume          =    6658.9804 (a.u.)^3
     number of atoms/cell      =           54
     number of atomic types    =            5
     number of electrons       =       396.00
     number of Kohn-Sham states=          208
     kinetic-energy cutoff     =      29.3995  Ry
     charge density cutoff     =     293.9946  Ry
     scf convergence threshold =      7.3E-08
     mixing beta               =       0.0500
     number of iterations used =            8  plain     mixing
     Exchange-correlation= BEEF-VDW
                           (   1   4  43  14   2   0   0)

     celldm(1)=   1.889726  celldm(2)=   0.000000  celldm(3)=   0.000000
     celldm(4)=   0.000000  celldm(5)=   0.000000  celldm(6)=   0.000000

     crystal axes: (cart. coord. in units of alat)
               a(1) = (   6.579727   0.000000   0.000000 )
               a(2) = (  -0.000775   5.961596   0.000000 )
               a(3) = (   0.000000   0.000000  25.155947 )

     reciprocal axes: (cart. coord. in units 2 pi/alat)
               b(1) = (  0.151982  0.000020  0.000000 )
               b(2) = (  0.000000  0.167740  0.000000 )
               b(3) = (  0.000000  0.000000  0.039752 )

     PseudoPot. # 1 for Ti read from file:
     /storage/coda1/p-amedford6/0/shared/rich_project_chbe-medford/medford-share/data/pseudos_module/espresso/nninc/pbe/van/Ti.UPF
     MD5 check sum: 8e4df49b7f0d34bbd5052bf3f5ea0213
     Pseudo is Ultrasoft, Zval = 12.0
     Generated by new atomic code, or converted to UPF format
     Using radial grid of  851 points,  6 beta functions with:
                l(1) =   0
                l(2) =   0
                l(3) =   1
                l(4) =   1
                l(5) =   2
                l(6) =   2
     Q(r) pseudized with  8 coefficients,  rinner =    1.000   1.000   1.000
                                                       1.000   1.000

     PseudoPot. # 2 for O  read from file:
     /storage/coda1/p-amedford6/0/shared/rich_project_chbe-medford/medford-share/data/pseudos_module/espresso/nninc/pbe/van/O.UPF
     MD5 check sum: 78c19812648e8988a0fe644b0f25305e
     Pseudo is Ultrasoft, Zval =  6.0
     Generated by new atomic code, or converted to UPF format
     Using radial grid of  737 points,  4 beta functions with:
                l(1) =   0
                l(2) =   0
                l(3) =   1
                l(4) =   1
     Q(r) pseudized with  8 coefficients,  rinner =    0.800   0.800   0.800

     PseudoPot. # 3 for N  read from file:
     /storage/coda1/p-amedford6/0/shared/rich_project_chbe-medford/medford-share/data/pseudos_module/espresso/nninc/pbe/van/N.UPF
     MD5 check sum: 90d10febe142ad51ac9d5be1deb811c4
     Pseudo is Ultrasoft, Zval =  5.0
     Generated by new atomic code, or converted to UPF format
     Using radial grid of  729 points,  4 beta functions with:
                l(1) =   0
                l(2) =   0
                l(3) =   1
                l(4) =   1
     Q(r) pseudized with  8 coefficients,  rinner =    0.800   0.800   0.800

     PseudoPot. # 4 for C  read from file:
     /storage/coda1/p-amedford6/0/shared/rich_project_chbe-medford/medford-share/data/pseudos_module/espresso/nninc/pbe/van/C.UPF
     MD5 check sum: 1a69bf6b8db32088f5b2163dbdb77a27
     Pseudo is Ultrasoft, Zval =  4.0
     Generated by new atomic code, or converted to UPF format
     Using radial grid of  721 points,  4 beta functions with:
                l(1) =   0
                l(2) =   0
                l(3) =   1
                l(4) =   1
     Q(r) pseudized with  8 coefficients,  rinner =    0.800   0.800   0.800

     PseudoPot. # 5 for H  read from file:
     /storage/coda1/p-amedford6/0/shared/rich_project_chbe-medford/medford-share/data/pseudos_module/espresso/nninc/pbe/van/H.UPF
     MD5 check sum: b5ee9d7bfd3a09ee7748110bda690ff7
     Pseudo is Ultrasoft, Zval =  1.0
     Generated by new atomic code, or converted to UPF format
     Using radial grid of  615 points,  1 beta functions with:
                l(1) =   0
     Q(r) pseudized with  8 coefficients,  rinner =    0.800

     atomic species   valence    mass     pseudopotential
        Ti1           12.00    47.86700     Ti( 1.00)
        O1             6.00    15.99900     O ( 1.00)
        N1             5.00    14.00700     N ( 1.00)
        C1             4.00    12.01100     C ( 1.00)
        H1             1.00     1.00800     H ( 1.00)

     No symmetry found

   Cartesian axes

     site n.     atom                  positions (alat units)
         1           Ti1 tau(   1) = (   0.0004258   2.9801865   6.0000000  )
         2           Ti1 tau(   2) = (   3.2906075   1.4906267   6.0002472  )
         3           O1  tau(   3) = (   0.0006271   0.0005054   7.9858123  )
         4           O1  tau(   4) = (   3.2906025   0.0005020   7.3038282  )
         5           O1  tau(   5) = (   4.5942328   1.4918067   9.2879030  )
         6           O1  tau(   6) = (   1.9868534   1.4903216   9.2879459  )
         7           Ti1 tau(   7) = (   3.2907910   2.8959150   9.1758416  )
         8           Ti1 tau(   8) = (   0.0015273   1.4827037   9.2680791  )
         9           O1  tau(   9) = (   3.3006942   5.9534781  11.3553798  )
        10           O1  tau(  10) = (   0.0116148   5.9584955  10.6183126  )
        11           O1  tau(  11) = (   1.3049435   1.4862809  12.6371303  )
        12           O1  tau(  12) = (   5.2939446   1.4839232  12.6419886  )
        13           Ti1 tau(  13) = (   0.0297220   2.9630369  12.5573518  )
        14           Ti1 tau(  14) = (   3.3261824   1.4838644  12.4981318  )
        15           O1  tau(  15) = (   0.0289408   0.0313188  14.6920809  )
        16           O1  tau(  16) = (   3.2926898   0.0103323  13.9875539  )
        17           O1  tau(  17) = (   4.5688264   1.5151599  16.1499861  )
        18           O1  tau(  18) = (   2.0666082   1.5432664  16.2461230  )
        19           Ti1 tau(  19) = (   3.3290317   3.0025141  15.7092439  )
        20           Ti1 tau(  20) = (   6.5420716   1.4859973  15.9011789  )
        21           O1  tau(  21) = (   3.2904802   0.0005063   4.7018136  )
        22           O1  tau(  22) = (   0.0300787   5.9197746  17.2397460  )
        23           O1  tau(  23) = (   1.3043587   1.4918075   6.0039043  )
        24           O1  tau(  24) = (   5.2767064   1.4903225   6.0039473  )
        25           Ti1 tau(  25) = (   0.0000382   5.9609847   6.0000000  )
        26           Ti1 tau(  26) = (   3.2902200   4.4714249   6.0002472  )
        27           O1  tau(  27) = (   0.0002396   2.9813036   7.9858123  )
        28           O1  tau(  28) = (   3.2902150   2.9813002   7.3038282  )
        29           O1  tau(  29) = (   4.5938453   4.4726049   9.2879030  )
        30           O1  tau(  30) = (   1.9864658   4.4711199   9.2879459  )
        31           Ti1 tau(  31) = (   3.2891106   5.8743827   9.1763621  )
        32           Ti1 tau(  32) = (   0.0006254   4.4649316   9.2693709  )
        33           O1  tau(  33) = (   3.3021489   2.9801797  11.3479352  )
        34           O1  tau(  34) = (   0.0092240   2.9805883  10.6323155  )
        35           O1  tau(  35) = (   1.3026635   4.4666190  12.6547599  )
        36           O1  tau(  36) = (   5.2965037   4.4700493  12.6603964  )
        37           Ti1 tau(  37) = (   0.0280624   5.9437424  12.5124334  )
        38           Ti1 tau(  38) = (   3.3252324   4.4624078  12.5019987  )
        39           O1  tau(  39) = (   0.0181394   2.9416354  14.7876853  )
        40           O1  tau(  40) = (   3.2997337   2.9731399  13.9284607  )
        41           O1  tau(  41) = (   4.5639665   4.4616582  16.1522005  )
        42           O1  tau(  42) = (   2.0594857   4.4554260  16.1407723  )
        43           Ti1 tau(  43) = (   3.2991394   0.0041700  15.7772358  )
        44           Ti1 tau(  44) = (   0.0501841   4.6507117  16.0116611  )
        45           O1  tau(  45) = (   3.2900926   2.9813045   4.7018136  )
        46           O1  tau(  46) = (   1.3039711   4.4726057   6.0039043  )
        47           O1  tau(  47) = (   5.2763189   4.4711207   6.0039473  )
        48           N1  tau(  48) = (   1.0195810   2.7978639  18.4834737  )
        49           N1  tau(  49) = (   6.5530482   2.9315443  17.6565599  )
        50           C1  tau(  50) = (   1.1739936   3.1992704  19.7258448  )
        51           H1  tau(  51) = (   2.1028141   2.9667422  20.2081369  )
        52           H1  tau(  52) = (   0.3908697   3.7596525  20.2009034  )
        53           H1  tau(  53) = (   1.7673082   2.2798185  17.9998463  )
        54           H1  tau(  54) = (   5.7337981   3.2184162  18.1887256  )

     number of k points=    10  Fermi-Dirac smearing, width (Ry)=  0.0073
                       cart. coord. in units 2pi/alat
        k(    1) = (   0.0000000   0.0000000   0.0000000), wk =   0.1250000
        k(    2) = (   0.0000000   0.0419351   0.0000000), wk =   0.2500000
        k(    3) = (   0.0000000  -0.0838702   0.0000000), wk =   0.1250000
        k(    4) = (   0.0379955   0.0000049   0.0000000), wk =   0.2500000
        k(    5) = (   0.0379955   0.0419400   0.0000000), wk =   0.2500000
        k(    6) = (   0.0379955  -0.0838652   0.0000000), wk =   0.2500000
        k(    7) = (   0.0379955  -0.0419301   0.0000000), wk =   0.2500000
        k(    8) = (  -0.0759910  -0.0000099   0.0000000), wk =   0.1250000
        k(    9) = (  -0.0759910   0.0419252   0.0000000), wk =   0.2500000
        k(   10) = (  -0.0759910  -0.0838800   0.0000000), wk =   0.1250000

     Initial potential from superposition of free atoms

     starting charge  379.99915, renormalised to  396.00000

     negative rho (up, down):  1.483E-02 0.000E+00

     %%%%%%%%%%%%%%%%%%%%%%%%%%%%%%%%%%%%%%%%%%%%%%%%%%%%%%%%%%%%%%%%%%%%%%%%
     %                                                                      %
     % You are using vdW-DF, which was implemented by the Thonhauser group. %
     % Please cite the following two papers that made this development      %
     % possible and the two reviews that describe the various versions:     %
     %                                                                      %
     %   T. Thonhauser et al., PRL 115, 136402 (2015).                      %
     %   T. Thonhauser et al., PRB 76, 125112 (2007).                       %
     %   K. Berland et al., Rep. Prog. Phys. 78, 066501 (2015).             %
     %   D.C. Langreth et al., J. Phys.: Condens. Matter 21, 084203 (2009). %
     %                                                                      %
     %                                                                      %
     % If you are calculating the stress with vdW-DF, please also cite:     %
     %                                                                      %
     %   R. Sabatini et al., J. Phys.: Condens. Matter 24, 424209 (2012).   %
     %                                                                      %
     %%%%%%%%%%%%%%%%%%%%%%%%%%%%%%%%%%%%%%%%%%%%%%%%%%%%%%%%%%%%%%%%%%%%%%%%

     Adding external electric field

     Computed dipole along edir(3) :
        Dipole               -9.8064 Ry au,        -24.9253 Debye
        Dipole field         -0.0185 Ry au,

        Potential amp.        1.7155 Ry
        Total length         46.3494 bohr

     Starting wfcs are  300 atomic wfcs
  @ DRIVER MODE: Message from server: STATUS
  @ DRIVER MODE: Message from server: POSDATA
  @ DRIVER MODE: Reading and sharing cell
  @ DRIVER MODE: Reading and sharing positions
  @ DRIVER MODE: Received positions

     Self-consistent Calculation

     iteration #  1     ecut=    29.40 Ry     beta= 0.05
     Davidson diagonalization with overlap
     c_bands:  1 eigenvalues not converged
     c_bands:  2 eigenvalues not converged
     c_bands:  1 eigenvalues not converged
     c_bands:  1 eigenvalues not converged
     c_bands:  2 eigenvalues not converged
     c_bands:  1 eigenvalues not converged
     c_bands:  1 eigenvalues not converged
     c_bands:  1 eigenvalues not converged
     c_bands:  3 eigenvalues not converged
     ethr =  1.00E-05,  avg # of iterations = 19.6

[...]

     total energy              =   -2534.50125034 Ry
     estimated scf accuracy    <    4524.11192447 Ry

     iteration #  2     ecut=    29.40 Ry     beta= 0.05
     Davidson diagonalization with overlap
     ethr =  1.00E-02,  avg # of iterations = 24.6

[...]

     iteration # 75     ecut=    29.40 Ry     beta= 0.05
     Davidson diagonalization with overlap
     c_bands:  1 eigenvalues not converged
     ethr =  2.37E-11,  avg # of iterations = 14.2

[...]

     total energy              =   -2940.35770798 Ry
     estimated scf accuracy    <       0.00000007 Ry

     iteration # 76     ecut=    29.40 Ry     beta= 0.05
     Davidson diagonalization with overlap
     ethr =  1.87E-11,  avg # of iterations = 11.2

     negative rho (up, down):  1.444E-02 0.000E+00

     Adding external electric field

     Computed dipole along edir(3) :
        Dipole                1.4477 Ry au,          3.6796 Debye
        Dipole field          0.0027 Ry au,

        Potential amp.       -0.2532 Ry
        Total length         46.3494 bohr

     End of self-consistent calculation

          k = 0.0000 0.0000 0.0000 ( 18029 PWs)   bands (ev):

   -55.2715 -55.2370 -55.2351 -55.2029 -55.1674 -55.1437 -55.1023 -55.0758
   -55.0752 -55.0648 -55.0625 -55.0401 -55.0296 -54.9204 -54.2488 -54.2148
   -31.8450 -31.7266 -31.6314 -31.6033 -31.5958 -31.5837 -31.5650 -31.5641
   -31.5297 -31.5270 -31.4832 -31.4816 -31.4798 -31.4479 -31.4278 -31.4080
   -31.4025 -31.3897 -31.3818 -31.3772 -31.3482 -31.3267 -31.3248 -31.3185
   -31.3059 -31.2961 -31.2940 -31.2776 -31.2735 -31.2700 -31.2585 -31.2482
   -31.2453 -31.2336 -31.2251 -31.2021 -31.1956 -31.1938 -31.1897 -31.1703
   -31.1453 -31.1037 -30.6574 -30.5653 -30.5431 -30.4739 -30.3872 -30.2762
   -19.4890 -16.1003 -15.8217 -15.6947 -15.5176 -15.4577 -15.3644 -15.2143
   -15.1649 -15.0501 -15.0161 -15.0063 -14.9774 -14.9419 -14.8715 -14.8000
   -14.7991 -14.7951 -14.7548 -14.7542 -14.7052 -14.6927 -14.6903 -14.6549
   -14.6408 -14.5945 -14.4842 -14.4116 -14.3552 -14.0324 -13.8228 -12.7517
   -12.6346 -10.2335  -7.0051  -6.6324  -4.2210  -4.1195  -3.4480  -3.2702
    -3.2514  -3.1850  -3.1661  -2.9927  -2.9169  -2.7458  -2.6203  -2.5331
    -2.4912  -2.4702  -2.4662  -2.2867  -2.2357  -2.1860  -2.1633  -2.1490
    -2.1199  -2.0840  -2.0679  -2.0331  -2.0252  -2.0087  -1.8349  -1.7544
    -1.7094  -1.6908  -1.6530  -1.5914  -1.5798  -1.5560  -1.5473  -1.5436
    -1.5181  -1.4862  -1.4689  -1.4308  -1.2973  -1.2520  -1.2174  -1.1304
    -1.0424  -0.8971  -0.8200  -0.8144  -0.7811  -0.7367  -0.6965  -0.6540
    -0.6444  -0.6120  -0.4682  -0.4230  -0.3576  -0.3291  -0.2929  -0.2439
    -0.2312  -0.0894  -0.0497  -0.0435  -0.0180   0.1074   0.1472   0.2022
     0.2320   0.2946   0.3396   0.4052   0.4210   0.4439   0.4907   0.5096
     0.6205   0.6722   0.6864   0.6953   0.7234   0.7910   0.8465   0.8663
     0.8886   0.9045   1.0741   1.1282   1.1960   1.3443   1.3565   1.6855
     1.7246   1.7735   1.9598   2.3477   2.3950   3.8334   3.9031   3.9627
     3.9818   3.9867   4.0679   4.1830   4.3062   4.3267   4.3325   4.3351

[...]

          k = 0.0380-0.0419 0.0000 ( 17876 PWs)   bands (ev):

[...]

          k =-0.0760-0.0000 0.0000 ( 17886 PWs)   bands (ev):

[...]

          k =-0.0760-0.0839 0.0000 ( 17948 PWs)   bands (ev):

   -55.2558 -55.2506 -55.2200 -55.2198 -55.1644 -55.1346 -55.1113 -55.0738
   -55.0678 -55.0589 -55.0553 -55.0468 -55.0461 -54.9222 -54.2318 -54.2317
   -31.6505 -31.6455 -31.5788 -31.5418 -31.5417 -31.5390 -31.5125 -31.5123
   -31.5099 -31.4791 -31.4773 -31.4694 -31.4665 -31.4257 -31.3973 -31.3936
   -31.3900 -31.3899 -31.3837 -31.3739 -31.3708 -31.3557 -31.3407 -31.3394
   -31.3391 -31.3362 -31.3350 -31.3071 -31.3035 -31.2928 -31.2904 -31.2888
   -31.2732 -31.2696 -31.2689 -31.2665 -31.2659 -31.2332 -31.2264 -31.2256
   -31.1794 -31.1500 -30.5558 -30.5558 -30.4700 -30.4698 -30.4306 -30.4306
   -19.4869 -15.5733 -15.4845 -15.4219 -15.2914 -15.2675 -15.2347 -15.2292
   -15.1592 -15.1248 -15.0651 -15.0313 -14.9928 -14.9744 -14.9719 -14.9494
   -14.8443 -14.8407 -14.8364 -14.8255 -14.7712 -14.7657 -14.7372 -14.7164
   -14.7130 -14.6591 -14.6106 -14.6083 -14.5196 -14.2719 -13.8332 -12.7362
   -12.7361 -10.2367  -6.9978  -6.6287  -4.2047  -4.1082  -2.8481  -2.7466
    -2.6533  -2.5768  -2.5005  -2.4580  -2.4349  -2.3025  -2.2595  -2.2476
    -2.2346  -2.2175  -2.1714  -2.1436  -2.1261  -2.1120  -2.0968  -2.0914
    -2.0735  -2.0537  -2.0391  -1.9803  -1.9702  -1.9523  -1.9275  -1.9071
    -1.8838  -1.8627  -1.8384  -1.8270  -1.7144  -1.6399  -1.6018  -1.5256
    -1.4722  -1.4538  -1.4464  -1.3558  -1.3209  -1.3087  -1.2960  -1.2243
    -1.1076  -1.0543  -0.9972  -0.9946  -0.9673  -0.8289  -0.8139  -0.7613
    -0.7396  -0.7195  -0.6823  -0.6423  -0.6139  -0.5278  -0.4839  -0.4528
    -0.4183  -0.2983  -0.2653  -0.2401  -0.2279  -0.2224  -0.1053  -0.0956
    -0.0695  -0.0408   0.0030   0.0245   0.0896   0.0999   0.2329   0.3111
     0.3838   0.4648   0.5653   0.6206   0.6947   0.7642   0.7650   0.8622
     0.9224   1.0013   1.0220   1.0429   1.0485   1.1672   1.2096   1.2150
     1.2527   2.1323   2.1333   2.2150   2.2152   4.0085   4.0182   4.0938
     4.1233   4.1575   4.2243   4.3470   4.3679   4.4082   4.4100   4.4923

     the Fermi energy is     3.8827 ev

!    total energy              =   -2940.35772443 Ry
     estimated scf accuracy    <       0.00000003 Ry
     smearing contrib. (-TS)   =      -0.03839846 Ry
     internal energy E=F+TS    =   -2940.31932597 Ry

     The total energy is F=E-TS. E is the sum of the following terms:
     one-electron contribution =  -23945.43425393 Ry
     hartree contribution      =   12065.23476889 Ry
     xc contribution           =    -486.09907411 Ry
     ewald contribution        =    9425.97527827 Ry
     electric field correction =       0.00395491 Ry

     convergence has been achieved in  76 iterations

     Forces acting on atoms (cartesian axes, Ry/au):

     atom    1 type  1   force =     0.00000300   -0.00025815    0.09435566
     atom    2 type  1   force =    -0.00016114   -0.00035510   -0.17720960
     atom    3 type  2   force =     0.00003813   -0.00014573   -0.02176755
     atom    4 type  2   force =    -0.00000486   -0.00173365    0.05673036
     atom    5 type  2   force =    -0.01090338   -0.00112758    0.00622212
     atom    6 type  2   force =     0.01266838   -0.00046408    0.00595829
     atom    7 type  1   force =    -0.00028830    0.00189961   -0.01477194
     atom    8 type  1   force =    -0.00006837    0.00584869    0.00724519
     atom    9 type  2   force =    -0.00014878   -0.00025908   -0.00002731
     atom   10 type  2   force =    -0.00135996    0.00012329   -0.00583855
     atom   11 type  2   force =    -0.00011817    0.00006268   -0.00008968
     atom   12 type  2   force =     0.00014292    0.00003226    0.00016531
     atom   13 type  1   force =     0.00011775    0.00010169    0.00031739
     atom   14 type  1   force =    -0.00004952    0.00001540    0.00027492
     atom   15 type  2   force =    -0.00028578    0.00023957   -0.00024100
     atom   16 type  2   force =     0.00002201    0.00023576   -0.00023053
     atom   17 type  2   force =     0.00017363    0.00018418   -0.00006443
     atom   18 type  2   force =     0.00040840   -0.00035198   -0.00020322
     atom   19 type  1   force =    -0.00052322   -0.00013060    0.00018996
     atom   20 type  1   force =    -0.00034512   -0.00000360    0.00043357
     atom   21 type  2   force =    -0.00000866   -0.00003742    0.10368908
     atom   22 type  2   force =     0.00018711    0.00019267   -0.00030167
     atom   23 type  2   force =    -0.07083042   -0.00013166   -0.02713802
     atom   24 type  2   force =     0.07068141    0.00029998   -0.02721928
     atom   25 type  1   force =     0.00002070   -0.00020131    0.09406890
     atom   26 type  1   force =    -0.00024932   -0.00046835   -0.17716891
     atom   27 type  2   force =     0.00009156   -0.00029182   -0.02082897
     atom   28 type  2   force =     0.00002729   -0.00141236    0.05610210
     atom   29 type  2   force =    -0.01101977   -0.00017493    0.00583990
     atom   30 type  2   force =     0.01267966    0.00014258    0.00559643
     atom   31 type  1   force =    -0.00016951    0.00465759   -0.01582989
     atom   32 type  1   force =    -0.00003098   -0.00691874    0.00712282
     atom   33 type  2   force =     0.00010620    0.00047875   -0.00010809
     atom   34 type  2   force =    -0.00097476    0.00064244   -0.00551362
     atom   35 type  2   force =     0.00059144    0.00025912   -0.00013868
     atom   36 type  2   force =    -0.00069327    0.00027019   -0.00023025
     atom   37 type  1   force =     0.00012888   -0.00022163    0.00014598
     atom   38 type  1   force =     0.00001995   -0.00020142   -0.00004197
     atom   39 type  2   force =     0.00075598   -0.00024597   -0.00027663
     atom   40 type  2   force =     0.00017253    0.00057232   -0.00001931
     atom   41 type  2   force =    -0.00036074   -0.00040242    0.00017910
     atom   42 type  2   force =     0.00050300    0.00020809   -0.00037521
     atom   43 type  1   force =    -0.00013929    0.00013300    0.00022773
     atom   44 type  1   force =    -0.00007472    0.00055124    0.00066824
     atom   45 type  2   force =    -0.00000393   -0.00006035    0.10367538
     atom   46 type  2   force =    -0.07084568   -0.00007660   -0.02711358
     atom   47 type  2   force =     0.07067357    0.00035984   -0.02717717
     atom   48 type  3   force =     0.00262479    0.00399422    0.01690449
     atom   49 type  3   force =    -0.00004818    0.00044197    0.00040468
     atom   50 type  4   force =    -0.00405392   -0.00745932   -0.02451851
     atom   51 type  5   force =     0.00400157   -0.00084508    0.00369963
     atom   52 type  5   force =    -0.00320267    0.00221062    0.00348680
     atom   53 type  5   force =     0.00040598   -0.00020777    0.00150055
     atom   54 type  5   force =    -0.00028340    0.00002897   -0.00076101

     Total force =     0.367151     Total SCF correction =     0.000510
  @ DRIVER MODE: Message from server: STATUS
  @ DRIVER MODE: Message from server: GETFORCE
  @ DRIVER MODE: Returning v,forces,stress,ensemble

     Writing output data file ./calc.save/
  @ DRIVER MODE: Message from server: EXIT
  @ DRIVE MODE: Exiting

     General routines

     Parallel routines

   This run was terminated on:   0:30:10  11Sep2021

   JOB DONE.