     Program PWSCF v.6.7GPU starts on 28Sep2021 at  8: 6:36

     R & G space division:  proc/nbgrp/npool/nimage =       8
     Reading input from /storage/home/hcoda1/3/ntian30/research/carbon/CxH_vib/H2O_calc/ads_slab/CHNHO_a/out_0026/pw.inp
Warning: card &CELL ignored
Warning: card   CELL_DYNAMICS='IPI', ignored
Warning: card / ignored

     Current dimensions of program PWSCF are:
     Max number of different atomic species (ntypx) = 10
     Max number of k-points (npk) =  40000
     Max angular momentum in pseudopotentials (lmaxx) =  3
     Presently no symmetry can be used with electric field

     Message from routine cell_base_init:
     DEPRECATED: use true lattice parameter, not A to a.u. conversion factor

     IMPORTANT: XC functional enforced from input :
     Exchange-correlation= BEEF-VDW
                           (   1   4  43  14   2   0   0)
     Any further DFT definition will be discarded
     Please, verify this is what you really want

  @ DRIVER MODE: Connecting to
 qe_1139763_3003541.sched-torque.pace.gatech.edu8pwrfw6y_scratch
  using UNIX socket
  @ DRIVER MODE: Message from server: STATUS
  @ DRIVER MODE: Message from server: INIT
  @ DRIVER MODE: Receiving replica           0          -1
  @ DRIVER MODE: Receiving encoded integer          25
  @ DRIVER MODE:  SCF:  T  FORCE:  T  STRESS:  F  VC:  F  ENSEMBLE:  F
  @ DRIVER MODE:  SCF:  T  FORCE:  T  STRESS:  F  VC:  F  ENSEMBLE:  F

     Using Slab Decomposition

     bravais-lattice index     =            0
     lattice parameter (alat)  =       1.8897  a.u.
     unit-cell volume          =    6658.9804 (a.u.)^3
     number of atoms/cell      =           52
     number of atomic types    =            5
     number of electrons       =       395.00
     number of Kohn-Sham states=          207
     kinetic-energy cutoff     =      29.3995  Ry
     charge density cutoff     =     293.9946  Ry
     scf convergence threshold =      7.3E-08
     mixing beta               =       0.0500
     number of iterations used =            8  plain     mixing
     Exchange-correlation= BEEF-VDW
                           (   1   4  43  14   2   0   0)

     celldm(1)=   1.889726  celldm(2)=   0.000000  celldm(3)=   0.000000
     celldm(4)=   0.000000  celldm(5)=   0.000000  celldm(6)=   0.000000

     crystal axes: (cart. coord. in units of alat)
               a(1) = (   6.579727   0.000000   0.000000 )
               a(2) = (  -0.000775   5.961596   0.000000 )
               a(3) = (   0.000000   0.000000  25.155947 )

     reciprocal axes: (cart. coord. in units 2 pi/alat)
               b(1) = (  0.151982  0.000020  0.000000 )
               b(2) = (  0.000000  0.167740  0.000000 )
               b(3) = (  0.000000  0.000000  0.039752 )

     PseudoPot. # 1 for Ti read from file:
     /storage/coda1/p-amedford6/0/shared/rich_project_chbe-medford/medford-share/data/pseudos_module/espresso/nninc/pbe/van/Ti.UPF
     MD5 check sum: 8e4df49b7f0d34bbd5052bf3f5ea0213
     Pseudo is Ultrasoft, Zval = 12.0
     Generated by new atomic code, or converted to UPF format
     Using radial grid of  851 points,  6 beta functions with:
                l(1) =   0
                l(2) =   0
                l(3) =   1
                l(4) =   1
                l(5) =   2
                l(6) =   2
     Q(r) pseudized with  8 coefficients,  rinner =    1.000   1.000   1.000
                                                       1.000   1.000

     PseudoPot. # 2 for O  read from file:
     /storage/coda1/p-amedford6/0/shared/rich_project_chbe-medford/medford-share/data/pseudos_module/espresso/nninc/pbe/van/O.UPF
     MD5 check sum: 78c19812648e8988a0fe644b0f25305e
     Pseudo is Ultrasoft, Zval =  6.0
     Generated by new atomic code, or converted to UPF format
     Using radial grid of  737 points,  4 beta functions with:
                l(1) =   0
                l(2) =   0
                l(3) =   1
                l(4) =   1
     Q(r) pseudized with  8 coefficients,  rinner =    0.800   0.800   0.800

     PseudoPot. # 3 for N  read from file:
     /storage/coda1/p-amedford6/0/shared/rich_project_chbe-medford/medford-share/data/pseudos_module/espresso/nninc/pbe/van/N.UPF
     MD5 check sum: 90d10febe142ad51ac9d5be1deb811c4
     Pseudo is Ultrasoft, Zval =  5.0
     Generated by new atomic code, or converted to UPF format
     Using radial grid of  729 points,  4 beta functions with:
                l(1) =   0
                l(2) =   0
                l(3) =   1
                l(4) =   1
     Q(r) pseudized with  8 coefficients,  rinner =    0.800   0.800   0.800

     PseudoPot. # 4 for C  read from file:
     /storage/coda1/p-amedford6/0/shared/rich_project_chbe-medford/medford-share/data/pseudos_module/espresso/nninc/pbe/van/C.UPF
     MD5 check sum: 1a69bf6b8db32088f5b2163dbdb77a27
     Pseudo is Ultrasoft, Zval =  4.0
     Generated by new atomic code, or converted to UPF format
     Using radial grid of  721 points,  4 beta functions with:
                l(1) =   0
                l(2) =   0
                l(3) =   1
                l(4) =   1
     Q(r) pseudized with  8 coefficients,  rinner =    0.800   0.800   0.800

     PseudoPot. # 5 for H  read from file:
     /storage/coda1/p-amedford6/0/shared/rich_project_chbe-medford/medford-share/data/pseudos_module/espresso/nninc/pbe/van/H.UPF
     MD5 check sum: b5ee9d7bfd3a09ee7748110bda690ff7
     Pseudo is Ultrasoft, Zval =  1.0
     Generated by new atomic code, or converted to UPF format
     Using radial grid of  615 points,  1 beta functions with:
                l(1) =   0
     Q(r) pseudized with  8 coefficients,  rinner =    0.800

     atomic species   valence    mass     pseudopotential
        Ti1           12.00    47.86700     Ti( 1.00)
        O1             6.00    15.99900     O ( 1.00)
        N1             5.00    14.00700     N ( 1.00)
        C1             4.00    12.01100     C ( 1.00)
        H1             1.00     1.00800     H ( 1.00)

     No symmetry found

   Cartesian axes

     site n.     atom                  positions (alat units)
         1           Ti1 tau(   1) = (   0.0004258   2.9801865   6.0000000  )
         2           Ti1 tau(   2) = (   3.2906075   1.4906267   6.0002472  )
         3           O1  tau(   3) = (   0.0006271   0.0005054   7.9858123  )
         4           O1  tau(   4) = (   3.2906025   0.0005020   7.3038282  )
         5           O1  tau(   5) = (   4.5942328   1.4918067   9.2879030  )
         6           O1  tau(   6) = (   1.9868534   1.4903216   9.2879459  )
         7           Ti1 tau(   7) = (   3.2907910   2.8959150   9.1758416  )
         8           Ti1 tau(   8) = (   0.0015273   1.4827037   9.2680791  )
         9           O1  tau(   9) = (   3.2959632   0.0395795  11.3506057  )
        10           O1  tau(  10) = (   0.0116148   5.9584955  10.6183126  )
        11           O1  tau(  11) = (   1.2788542   1.5152540  12.6826201  )
        12           O1  tau(  12) = (   5.3118026   1.5181145  12.6771052  )
        13           Ti1 tau(  13) = (   6.5565567   2.9614743  12.5245697  )
        14           Ti1 tau(  14) = (   3.2956814   1.5864178  12.4516600  )
        15           O1  tau(  15) = (   0.0252471   5.9065102  14.6673769  )
        16           O1  tau(  16) = (   3.3061784   5.9134112  13.9760755  )
        17           O1  tau(  17) = (   4.5493393   1.5513651  16.1111979  )
        18           O1  tau(  18) = (   2.0154464   1.5530992  16.0877549  )
        19           Ti1 tau(  19) = (   3.2773477   2.9896638  15.7021987  )
        20           Ti1 tau(  20) = (   0.0480268   1.3694702  15.7882682  )
        21           O1  tau(  21) = (   3.2904802   0.0005063   4.7018136  )
        22           O1  tau(  22) = (   6.5727385   0.1062933  17.1740559  )
        23           O1  tau(  23) = (   1.3043587   1.4918075   6.0039043  )
        24           O1  tau(  24) = (   5.2767064   1.4903225   6.0039473  )
        25           Ti1 tau(  25) = (   0.0000382   5.9609847   6.0000000  )
        26           Ti1 tau(  26) = (   3.2902200   4.4714249   6.0002472  )
        27           O1  tau(  27) = (   0.0002396   2.9813036   7.9858123  )
        28           O1  tau(  28) = (   3.2902150   2.9813002   7.3038282  )
        29           O1  tau(  29) = (   4.5938453   4.4726049   9.2879030  )
        30           O1  tau(  30) = (   1.9864658   4.4711199   9.2879459  )
        31           Ti1 tau(  31) = (   3.2891106   5.8743827   9.1763621  )
        32           Ti1 tau(  32) = (   0.0006254   4.4649316   9.2693709  )
        33           O1  tau(  33) = (   3.2965180   2.9598593  11.3174316  )
        34           O1  tau(  34) = (   0.0092240   2.9805883  10.6323155  )
        35           O1  tau(  35) = (   1.2824442   4.4846720  12.6503842  )
        36           O1  tau(  36) = (   5.3188658   4.4853930  12.6478368  )
        37           Ti1 tau(  37) = (   0.0485215   5.9261111  12.5025588  )
        38           Ti1 tau(  38) = (   3.3111372   4.6778342  12.7091208  )
        39           O1  tau(  39) = (   6.5585416   3.0335453  14.9077256  )
        40           O1  tau(  40) = (   3.2962521   3.0064119  13.9315977  )
        41           O1  tau(  41) = (   4.5433468   4.4479239  16.1972702  )
        42           O1  tau(  42) = (   2.0131479   4.4365031  16.1967174  )
        43           Ti1 tau(  43) = (   3.3705753   0.0290894  16.3529554  )
        44           Ti1 tau(  44) = (   0.0540424   4.5922997  16.0496824  )
        45           O1  tau(  45) = (   3.2900926   2.9813045   4.7018136  )
        46           O1  tau(  46) = (   1.3039711   4.4726057   6.0039043  )
        47           O1  tau(  47) = (   5.2763189   4.4711207   6.0039473  )
        48           N1  tau(  48) = (   6.5754701   3.2032128  17.9785674  )
        49           C1  tau(  49) = (   6.5468619   2.3444050  18.7439128  )
        50           H1  tau(  50) = (   6.5191205   1.5204410  19.4189644  )
        51           O1  tau(  51) = (   3.3183073   0.1146119  18.2142577  )
        52           H1  tau(  52) = (   3.2786675   5.2273609  18.6755658  )

     number of k points=    10  Fermi-Dirac smearing, width (Ry)=  0.0073
                       cart. coord. in units 2pi/alat
        k(    1) = (   0.0000000   0.0000000   0.0000000), wk =   0.1250000
        k(    2) = (   0.0000000   0.0419351   0.0000000), wk =   0.2500000
        k(    3) = (   0.0000000  -0.0838702   0.0000000), wk =   0.1250000
        k(    4) = (   0.0379955   0.0000049   0.0000000), wk =   0.2500000
        k(    5) = (   0.0379955   0.0419400   0.0000000), wk =   0.2500000
        k(    6) = (   0.0379955  -0.0838652   0.0000000), wk =   0.2500000
        k(    7) = (   0.0379955  -0.0419301   0.0000000), wk =   0.2500000
        k(    8) = (  -0.0759910  -0.0000099   0.0000000), wk =   0.1250000
        k(    9) = (  -0.0759910   0.0419252   0.0000000), wk =   0.2500000
        k(   10) = (  -0.0759910  -0.0838800   0.0000000), wk =   0.1250000

     Initial potential from superposition of free atoms

     starting charge  378.99918, renormalised to  395.00000

     negative rho (up, down):  1.718E-02 0.000E+00

     %%%%%%%%%%%%%%%%%%%%%%%%%%%%%%%%%%%%%%%%%%%%%%%%%%%%%%%%%%%%%%%%%%%%%%%%
     %                                                                      %
     % You are using vdW-DF, which was implemented by the Thonhauser group. %
     % Please cite the following two papers that made this development      %
     % possible and the two reviews that describe the various versions:     %
     %                                                                      %
     %   T. Thonhauser et al., PRL 115, 136402 (2015).                      %
     %   T. Thonhauser et al., PRB 76, 125112 (2007).                       %
     %   K. Berland et al., Rep. Prog. Phys. 78, 066501 (2015).             %
     %   D.C. Langreth et al., J. Phys.: Condens. Matter 21, 084203 (2009). %
     %                                                                      %
     %                                                                      %
     % If you are calculating the stress with vdW-DF, please also cite:     %
     %                                                                      %
     %   R. Sabatini et al., J. Phys.: Condens. Matter 24, 424209 (2012).   %
     %                                                                      %
     %%%%%%%%%%%%%%%%%%%%%%%%%%%%%%%%%%%%%%%%%%%%%%%%%%%%%%%%%%%%%%%%%%%%%%%%

     Adding external electric field

     Computed dipole along edir(3) :
        Dipole               -8.1496 Ry au,        -20.7143 Debye
        Dipole field         -0.0154 Ry au,

        Potential amp.        1.4257 Ry
        Total length         46.3494 bohr

     Starting wfcs are  298 atomic wfcs
  @ DRIVER MODE: Message from server: STATUS
  @ DRIVER MODE: Message from server: POSDATA
  @ DRIVER MODE: Reading and sharing cell
  @ DRIVER MODE: Reading and sharing positions
  @ DRIVER MODE: Received positions

     Self-consistent Calculation

     iteration #  1     ecut=    29.40 Ry     beta= 0.05
     Davidson diagonalization with overlap
     c_bands:  1 eigenvalues not converged
     c_bands:  2 eigenvalues not converged
     c_bands:  2 eigenvalues not converged
     c_bands:  3 eigenvalues not converged
     c_bands:  3 eigenvalues not converged
     c_bands:  1 eigenvalues not converged
     c_bands:  1 eigenvalues not converged
     ethr =  1.00E-05,  avg # of iterations = 19.3

[...]

     total energy              =   -2615.11973250 Ry
     estimated scf accuracy    <    3704.54323131 Ry

     iteration #  2     ecut=    29.40 Ry     beta= 0.05
     Davidson diagonalization with overlap
     ethr =  1.00E-02,  avg # of iterations = 22.4

[...]

     iteration # 46     ecut=    29.40 Ry     beta= 0.05
     Davidson diagonalization with overlap
     c_bands:  1 eigenvalues not converged
     c_bands:  1 eigenvalues not converged
     ethr =  8.99E-07,  avg # of iterations = 14.4

[...]

     total energy              =   -2950.24121133 Ry
     estimated scf accuracy    <       0.00000007 Ry

     iteration # 69     ecut=    29.40 Ry     beta= 0.05
     Davidson diagonalization with overlap
     ethr =  1.89E-11,  avg # of iterations =  6.7

     negative rho (up, down):  1.736E-02 0.000E+00

     Adding external electric field

     Computed dipole along edir(3) :
        Dipole                1.2376 Ry au,          3.1456 Debye
        Dipole field          0.0023 Ry au,

        Potential amp.       -0.2165 Ry
        Total length         46.3494 bohr

     End of self-consistent calculation

          k = 0.0000 0.0000 0.0000 ( 18029 PWs)   bands (ev):

   -55.6685 -55.6174 -55.5834 -55.4460 -55.4420 -55.4412 -55.4094 -55.4088
   -55.4087 -55.3683 -55.3252 -55.2882 -55.2059 -55.0973 -54.5805 -54.5465
   -32.1011 -32.0170 -32.0130 -31.9457 -31.9334 -31.9085 -31.8913 -31.8814
   -31.8632 -31.8551 -31.8193 -31.7699 -31.7294 -31.7232 -31.7144 -31.7080
   -31.6976 -31.6911 -31.6750 -31.6536 -31.6497 -31.6409 -31.6379 -31.6211
   -31.6182 -31.5905 -31.5903 -31.5866 -31.5701 -31.5654 -31.5579 -31.5431
   -31.5414 -31.5213 -31.4901 -31.4787 -31.4757 -31.4195 -31.3995 -31.3487
   -31.3166 -31.3077 -30.9859 -30.9011 -30.8786 -30.8036 -30.7173 -30.6054
   -17.2621 -16.5980 -16.2427 -16.0794 -15.8605 -15.7801 -15.7485 -15.5622
   -15.4504 -15.4020 -15.1915 -15.1487 -15.1319 -15.1143 -15.0906 -15.0863
   -15.0714 -15.0321 -15.0319 -15.0149 -14.9955 -14.9611 -14.9445 -14.8955
   -14.8166 -14.8091 -14.7469 -14.6724 -14.6262 -14.3547 -14.3328 -13.0787
   -12.9625  -8.7390  -4.4755  -4.1524  -3.5981  -3.5149  -3.4865  -3.4409
    -3.3678  -3.2704  -3.0989  -3.0906  -2.9785  -2.9217  -2.8146  -2.7156
    -2.6453  -2.5989  -2.5413  -2.5083  -2.4713  -2.4281  -2.3916  -2.3516
    -2.3252  -2.3159  -2.2571  -2.2283  -2.1308  -2.1241  -2.0863  -1.9935
    -1.9761  -1.9289  -1.9214  -1.9177  -1.8639  -1.8488  -1.8322  -1.7978
    -1.6774  -1.6530  -1.6472  -1.5880  -1.5239  -1.2130  -1.2033  -1.1440
    -1.0680  -1.0367  -1.0104  -0.9923  -0.9312  -0.8933  -0.8786  -0.8616
    -0.7876  -0.6929  -0.6604  -0.6121  -0.4589  -0.4522  -0.3980  -0.3785
    -0.3517  -0.3124  -0.2599  -0.1909  -0.1640  -0.1401  -0.0094   0.0128
     0.0590   0.0717   0.1175   0.1663   0.2007   0.2672   0.3179   0.3393
     0.3568   0.3678   0.4004   0.4203   0.5122   0.5448   0.5945   0.6594
     0.7186   0.7359   0.7886   0.9465   1.0419   1.0699   1.1803   1.3993
     1.4462   1.4986   1.6422   2.0118   2.0566   3.4717   3.6210   3.6380
     3.7274   3.7390   3.8246   3.9590   4.0531   4.1629   4.1748

[...]

          k = 0.0380-0.0419 0.0000 ( 17876 PWs)   bands (ev):

[...]

          k =-0.0760-0.0000 0.0000 ( 17886 PWs)   bands (ev):

[...]

          k =-0.0760-0.0839 0.0000 ( 17948 PWs)   bands (ev):

   -55.6678 -55.6004 -55.6002 -55.4397 -55.4310 -55.4266 -55.4249 -55.4224
   -55.4095 -55.3602 -55.3333 -55.2901 -55.2033 -55.0997 -54.5635 -54.5633
   -31.9560 -31.9438 -31.9165 -31.9164 -31.8941 -31.8938 -31.8935 -31.8697
   -31.7994 -31.7570 -31.7553 -31.7479 -31.7350 -31.7204 -31.7201 -31.7077
   -31.7023 -31.6996 -31.6938 -31.6711 -31.6707 -31.6577 -31.6431 -31.6282
   -31.6265 -31.6237 -31.6153 -31.6060 -31.6048 -31.5982 -31.5952 -31.5799
   -31.5733 -31.5565 -31.5495 -31.5068 -31.4944 -31.4683 -31.4371 -31.4034
   -31.3546 -31.3122 -30.8914 -30.8912 -30.7990 -30.7986 -30.7606 -30.7603
   -17.2549 -16.5893 -15.8704 -15.6500 -15.5804 -15.5752 -15.4402 -15.3701
   -15.3475 -15.3182 -15.3020 -15.2657 -15.2413 -15.2260 -15.1825 -15.1592
   -15.1256 -15.1074 -15.0925 -15.0535 -15.0430 -15.0175 -15.0083 -14.9920
   -14.9349 -14.9131 -14.9041 -14.7715 -14.7366 -14.6643 -14.4730 -13.0645
   -13.0644  -8.7368  -4.4560  -4.1653  -3.3020  -3.1071  -3.0215  -2.8620
    -2.7958  -2.6737  -2.6493  -2.6131  -2.5463  -2.5297  -2.4992  -2.4542
    -2.3942  -2.3726  -2.3671  -2.3424  -2.3321  -2.3014  -2.2860  -2.2759
    -2.2708  -2.2449  -2.2299  -2.2174  -2.1922  -2.1620  -2.1595  -2.1430
    -2.1267  -2.0531  -1.9890  -1.9408  -1.8162  -1.7619  -1.7510  -1.7368
    -1.7218  -1.6841  -1.6775  -1.6388  -1.6133  -1.5017  -1.4217  -1.3783
    -1.3072  -1.1970  -1.1776  -1.1687  -1.1059  -1.0739  -1.0397  -1.0379
    -0.9326  -0.9021  -0.8166  -0.7626  -0.7271  -0.6629  -0.5711  -0.5561
    -0.5464  -0.5238  -0.5038  -0.4880  -0.4616  -0.4240  -0.3425  -0.3052
    -0.3004  -0.2996  -0.2484  -0.1736  -0.1103   0.0761   0.1640   0.1718
     0.2197   0.2574   0.4511   0.4859   0.5146   0.5285   0.5763   0.6287
     0.6925   0.7088   0.7567   0.8219   0.9122   0.9382   0.9709   0.9818
     1.0284   1.8104   1.8181   1.8770   1.8770   3.6416   3.9478   3.9867
     4.0050   4.0131   4.0516   4.0553   4.0749   4.1528   4.1626

     the Fermi energy is     3.5055 ev

!    total energy              =   -2950.24123185 Ry
     estimated scf accuracy    <       0.00000003 Ry
     smearing contrib. (-TS)   =      -0.01957412 Ry
     internal energy E=F+TS    =   -2950.22165774 Ry

     The total energy is F=E-TS. E is the sum of the following terms:
     one-electron contribution =  -23960.77652420 Ry
     hartree contribution      =   12071.36903600 Ry
     xc contribution           =    -486.32622406 Ry
     ewald contribution        =    9425.50916414 Ry
     electric field correction =       0.00289039 Ry

     convergence has been achieved in  69 iterations

     Forces acting on atoms (cartesian axes, Ry/au):

     atom    1 type  1   force =     0.00006992   -0.00023209    0.09445236
     atom    2 type  1   force =     0.00000579    0.00017818   -0.17484370
     atom    3 type  2   force =     0.00002695   -0.00043378   -0.02142995
     atom    4 type  2   force =     0.00004127   -0.00079996    0.05274128
     atom    5 type  2   force =    -0.00430813   -0.00229323    0.00044178
     atom    6 type  2   force =     0.00597200   -0.00164272    0.00007427
     atom    7 type  1   force =    -0.00012294    0.00326280    0.01150318
     atom    8 type  1   force =     0.00014008    0.00254488    0.00476780
     atom    9 type  2   force =    -0.00017555    0.00026856   -0.00021825
     atom   10 type  2   force =    -0.00077608    0.00345450   -0.01162080
     atom   11 type  2   force =     0.00053238   -0.00039934    0.00028253
     atom   12 type  2   force =    -0.00002751   -0.00024433    0.00011900
     atom   13 type  1   force =    -0.00102408   -0.00038421    0.00001600
     atom   14 type  1   force =     0.00081345    0.00052412   -0.00015890
     atom   15 type  2   force =     0.00021396   -0.00010493   -0.00063107
     atom   16 type  2   force =    -0.00032109   -0.00073012    0.00084393
     atom   17 type  2   force =     0.00079744    0.00018340   -0.00066560
     atom   18 type  2   force =    -0.00034630   -0.00023067    0.00025577
     atom   19 type  1   force =     0.00052652    0.00083384    0.00023989
     atom   20 type  1   force =     0.00002859   -0.00028625   -0.00022811
     atom   21 type  2   force =     0.00008709    0.00000485    0.10299461
     atom   22 type  2   force =     0.00004189    0.00081716   -0.00019851
     atom   23 type  2   force =    -0.07227043   -0.00016695   -0.02736788
     atom   24 type  2   force =     0.07224631    0.00024464   -0.02741734
     atom   25 type  1   force =     0.00014345   -0.00024666    0.09437602
     atom   26 type  1   force =    -0.00008625   -0.00124903   -0.17482353
     atom   27 type  2   force =     0.00020622   -0.00006428   -0.02022014
     atom   28 type  2   force =     0.00009441   -0.00096098    0.04854019
     atom   29 type  2   force =    -0.00684456    0.00193242    0.00270238
     atom   30 type  2   force =     0.00839478    0.00226770    0.00216526
     atom   31 type  1   force =     0.00004616    0.00104719    0.00137436
     atom   32 type  1   force =     0.00009970   -0.00336470    0.00511962
     atom   33 type  2   force =    -0.00015887   -0.00022894    0.00013580
     atom   34 type  2   force =    -0.00192636   -0.00084161   -0.01109280
     atom   35 type  2   force =     0.00067668   -0.00019533    0.00001931
     atom   36 type  2   force =    -0.00005149    0.00011091    0.00001831
     atom   37 type  1   force =    -0.00124476   -0.00010792   -0.00037192
     atom   38 type  1   force =     0.00067811    0.00013066    0.00067469
     atom   39 type  2   force =     0.00024511   -0.00078973    0.00006070
     atom   40 type  2   force =    -0.00035589   -0.00013852    0.00022385
     atom   41 type  2   force =    -0.00088764   -0.00039454    0.00030430
     atom   42 type  2   force =     0.00034646   -0.00059348   -0.00028167
     atom   43 type  1   force =     0.00017086   -0.00010710   -0.00002170
     atom   44 type  1   force =    -0.00072908   -0.00035089    0.00001736
     atom   45 type  2   force =     0.00008276    0.00003999    0.10284478
     atom   46 type  2   force =    -0.07220534   -0.00008911   -0.02729924
     atom   47 type  2   force =     0.07220398    0.00036986   -0.02735070
     atom   48 type  3   force =     0.00000248    0.00031829   -0.00085961
     atom   49 type  4   force =    -0.00007441   -0.00064783    0.00052587
     atom   50 type  5   force =    -0.00027660    0.00027438    0.00001041
     atom   51 type  2   force =    -0.00016434    0.00149231   -0.00173955
     atom   52 type  5   force =    -0.00055710   -0.00198144    0.00099541

     Total force =     0.361573     Total SCF correction =     0.000560
  @ DRIVER MODE: Message from server: STATUS
  @ DRIVER MODE: Message from server: GETFORCE
  @ DRIVER MODE: Returning v,forces,stress,ensemble

     Writing output data file ./calc.save/
  @ DRIVER MODE: Message from server: EXIT
  @ DRIVE MODE: Exiting

     General routines

     Parallel routines

   This run was terminated on:   8:30: 9  28Sep2021

   JOB DONE.