     Program PWSCF v.6.7GPU starts on 23Sep2021 at  5:34:31

     R & G space division:  proc/nbgrp/npool/nimage =       8
     Reading input from /storage/home/hcoda1/3/ntian30/research/carbon/CxH_vib/H2O_calc/ads_slab/CH2OHHO_a/out_0021/pw.inp
Warning: card &CELL ignored
Warning: card   CELL_DYNAMICS='IPI', ignored
Warning: card / ignored

     Current dimensions of program PWSCF are:
     Max number of different atomic species (ntypx) = 10
     Max number of k-points (npk) =  40000
     Max angular momentum in pseudopotentials (lmaxx) =  3
     Presently no symmetry can be used with electric field

     Message from routine cell_base_init:
     DEPRECATED: use true lattice parameter, not A to a.u. conversion factor

     IMPORTANT: XC functional enforced from input :
     Exchange-correlation= BEEF-VDW
                           (   1   4  43  14   2   0   0)
     Any further DFT definition will be discarded
     Please, verify this is what you really want

  @ DRIVER MODE: Connecting to
 qe_1139763_2941013.sched-torque.pace.gatech.edum_8iklrk_scratch
  using UNIX socket
  @ DRIVER MODE: Message from server: STATUS
  @ DRIVER MODE: Message from server: INIT
  @ DRIVER MODE: Receiving replica           0          -1
  @ DRIVER MODE: Receiving encoded integer          25
  @ DRIVER MODE:  SCF:  T  FORCE:  T  STRESS:  F  VC:  F  ENSEMBLE:  F
  @ DRIVER MODE:  SCF:  T  FORCE:  T  STRESS:  F  VC:  F  ENSEMBLE:  F

     Using Slab Decomposition

     bravais-lattice index     =            0
     lattice parameter (alat)  =       1.8897  a.u.
     unit-cell volume          =    6658.9804 (a.u.)^3
     number of atoms/cell      =           54
     number of atomic types    =            4
     number of electrons       =       398.00
     number of Kohn-Sham states=          209
     kinetic-energy cutoff     =      29.3995  Ry
     charge density cutoff     =     293.9946  Ry
     scf convergence threshold =      7.3E-08
     mixing beta               =       0.0500
     number of iterations used =            8  plain     mixing
     Exchange-correlation= BEEF-VDW
                           (   1   4  43  14   2   0   0)

     celldm(1)=   1.889726  celldm(2)=   0.000000  celldm(3)=   0.000000
     celldm(4)=   0.000000  celldm(5)=   0.000000  celldm(6)=   0.000000

     crystal axes: (cart. coord. in units of alat)
               a(1) = (   6.579727   0.000000   0.000000 )
               a(2) = (  -0.000775   5.961596   0.000000 )
               a(3) = (   0.000000   0.000000  25.155947 )

     reciprocal axes: (cart. coord. in units 2 pi/alat)
               b(1) = (  0.151982  0.000020  0.000000 )
               b(2) = (  0.000000  0.167740  0.000000 )
               b(3) = (  0.000000  0.000000  0.039752 )

     PseudoPot. # 1 for Ti read from file:
     /storage/coda1/p-amedford6/0/shared/rich_project_chbe-medford/medford-share/data/pseudos_module/espresso/nninc/pbe/van/Ti.UPF
     MD5 check sum: 8e4df49b7f0d34bbd5052bf3f5ea0213
     Pseudo is Ultrasoft, Zval = 12.0
     Generated by new atomic code, or converted to UPF format
     Using radial grid of  851 points,  6 beta functions with:
                l(1) =   0
                l(2) =   0
                l(3) =   1
                l(4) =   1
                l(5) =   2
                l(6) =   2
     Q(r) pseudized with  8 coefficients,  rinner =    1.000   1.000   1.000
                                                       1.000   1.000

     PseudoPot. # 2 for O  read from file:
     /storage/coda1/p-amedford6/0/shared/rich_project_chbe-medford/medford-share/data/pseudos_module/espresso/nninc/pbe/van/O.UPF
     MD5 check sum: 78c19812648e8988a0fe644b0f25305e
     Pseudo is Ultrasoft, Zval =  6.0
     Generated by new atomic code, or converted to UPF format
     Using radial grid of  737 points,  4 beta functions with:
                l(1) =   0
                l(2) =   0
                l(3) =   1
                l(4) =   1
     Q(r) pseudized with  8 coefficients,  rinner =    0.800   0.800   0.800

     PseudoPot. # 3 for C  read from file:
     /storage/coda1/p-amedford6/0/shared/rich_project_chbe-medford/medford-share/data/pseudos_module/espresso/nninc/pbe/van/C.UPF
     MD5 check sum: 1a69bf6b8db32088f5b2163dbdb77a27
     Pseudo is Ultrasoft, Zval =  4.0
     Generated by new atomic code, or converted to UPF format
     Using radial grid of  721 points,  4 beta functions with:
                l(1) =   0
                l(2) =   0
                l(3) =   1
                l(4) =   1
     Q(r) pseudized with  8 coefficients,  rinner =    0.800   0.800   0.800

     PseudoPot. # 4 for H  read from file:
     /storage/coda1/p-amedford6/0/shared/rich_project_chbe-medford/medford-share/data/pseudos_module/espresso/nninc/pbe/van/H.UPF
     MD5 check sum: b5ee9d7bfd3a09ee7748110bda690ff7
     Pseudo is Ultrasoft, Zval =  1.0
     Generated by new atomic code, or converted to UPF format
     Using radial grid of  615 points,  1 beta functions with:
                l(1) =   0
     Q(r) pseudized with  8 coefficients,  rinner =    0.800

     atomic species   valence    mass     pseudopotential
        Ti1           12.00    47.86700     Ti( 1.00)
        O1             6.00    15.99900     O ( 1.00)
        C1             4.00    12.01100     C ( 1.00)
        H1             1.00     1.00800     H ( 1.00)

     No symmetry found

   Cartesian axes

     site n.     atom                  positions (alat units)
         1           Ti1 tau(   1) = (   0.0004258   2.9801865   6.0000000  )
         2           Ti1 tau(   2) = (   3.2906075   1.4906267   6.0002472  )
         3           O1  tau(   3) = (   0.0006271   0.0005054   7.9858123  )
         4           O1  tau(   4) = (   3.2906025   0.0005020   7.3038282  )
         5           O1  tau(   5) = (   4.5942328   1.4918067   9.2879030  )
         6           O1  tau(   6) = (   1.9868534   1.4903216   9.2879459  )
         7           Ti1 tau(   7) = (   3.2053781   3.0281819   9.2289109  )
         8           Ti1 tau(   8) = (   6.4789090   1.5422439   9.3246958  )
         9           O1  tau(   9) = (   3.3131828   0.0076525  11.3143355  )
        10           O1  tau(  10) = (   0.0036331   0.0073455  10.5537702  )
        11           O1  tau(  11) = (   1.2849538   1.5262321  12.5678262  )
        12           O1  tau(  12) = (   5.3289628   1.4687457  12.6164477  )
        13           Ti1 tau(  13) = (   0.0494698   3.0469090  12.7547230  )
        14           Ti1 tau(  14) = (   3.2845375   1.6334081  12.5308488  )
        15           O1  tau(  15) = (   0.1943872   0.0117586  14.6058021  )
        16           O1  tau(  16) = (   3.1943342   5.9422946  13.9142442  )
        17           O1  tau(  17) = (   4.6623408   1.4089460  15.7678261  )
        18           O1  tau(  18) = (   2.0428328   1.6351894  16.0888801  )
        19           Ti1 tau(  19) = (   3.4388860   2.9458104  15.8736401  )
        20           Ti1 tau(  20) = (   0.1295272   1.3814375  15.8666627  )
        21           O1  tau(  21) = (   3.2904802   0.0005063   4.7018136  )
        22           O1  tau(  22) = (   0.0846747   0.0144810  17.1090220  )
        23           O1  tau(  23) = (   1.3043587   1.4918075   6.0039043  )
        24           O1  tau(  24) = (   5.2767064   1.4903225   6.0039473  )
        25           Ti1 tau(  25) = (   0.0000382   5.9609847   6.0000000  )
        26           Ti1 tau(  26) = (   3.2902200   4.4714249   6.0002472  )
        27           O1  tau(  27) = (   0.0002396   2.9813036   7.9858123  )
        28           O1  tau(  28) = (   3.2902150   2.9813002   7.3038282  )
        29           O1  tau(  29) = (   4.5938453   4.4726049   9.2879030  )
        30           O1  tau(  30) = (   1.9864658   4.4711199   9.2879459  )
        31           Ti1 tau(  31) = (   3.2224821   0.0470802   9.2230333  )
        32           Ti1 tau(  32) = (   6.4759698   4.4664252   9.3127940  )
        33           O1  tau(  33) = (   3.3094535   2.9663607  11.2852029  )
        34           O1  tau(  34) = (   6.5591786   2.9896559  10.5312464  )
        35           O1  tau(  35) = (   1.2916819   4.4480478  12.5709280  )
        36           O1  tau(  36) = (   5.3369627   4.5124161  12.6303246  )
        37           Ti1 tau(  37) = (   6.5569224   0.0640291  12.4639877  )
        38           Ti1 tau(  38) = (   3.2972653   4.6387695  12.6472152  )
        39           O1  tau(  39) = (   0.0654804   2.9943531  14.6628162  )
        40           O1  tau(  40) = (   3.3673531   2.9793459  13.8791815  )
        41           O1  tau(  41) = (   4.6654837   4.5585741  15.7845026  )
        42           O1  tau(  42) = (   2.0434307   4.3527116  16.0649513  )
        43           Ti1 tau(  43) = (   3.4443475   5.9291804  16.0141943  )
        44           Ti1 tau(  44) = (   0.1552736   4.5966999  15.8683145  )
        45           O1  tau(  45) = (   3.2900926   2.9813045   4.7018136  )
        46           O1  tau(  46) = (   1.3039711   4.4726057   6.0039043  )
        47           O1  tau(  47) = (   5.2763189   4.4711207   6.0039473  )
        48           C1  tau(  48) = (   4.6056898   2.9812133  17.8228851  )
        49           O1  tau(  49) = (   6.0966523   2.9907575  17.4046881  )
        50           H1  tau(  50) = (   0.0599730   2.9907033  18.2108262  )
        51           H1  tau(  51) = (   4.4920754   2.0632530  18.4117920  )
        52           H1  tau(  52) = (   4.4771298   3.8877196  18.4106030  )
        53           O1  tau(  53) = (   3.3127961   5.9530928  17.8757943  )
        54           H1  tau(  54) = (   2.4287022   0.1083392  18.2542858  )

     number of k points=    10  Fermi-Dirac smearing, width (Ry)=  0.0073
                       cart. coord. in units 2pi/alat
        k(    1) = (   0.0000000   0.0000000   0.0000000), wk =   0.1250000
        k(    2) = (   0.0000000   0.0419351   0.0000000), wk =   0.2500000
        k(    3) = (   0.0000000  -0.0838702   0.0000000), wk =   0.1250000
        k(    4) = (   0.0379955   0.0000049   0.0000000), wk =   0.2500000
        k(    5) = (   0.0379955   0.0419400   0.0000000), wk =   0.2500000
        k(    6) = (   0.0379955  -0.0838652   0.0000000), wk =   0.2500000
        k(    7) = (   0.0379955  -0.0419301   0.0000000), wk =   0.2500000
        k(    8) = (  -0.0759910  -0.0000099   0.0000000), wk =   0.1250000
        k(    9) = (  -0.0759910   0.0419252   0.0000000), wk =   0.2500000
        k(   10) = (  -0.0759910  -0.0838800   0.0000000), wk =   0.1250000

     Initial potential from superposition of free atoms

     starting charge  381.99917, renormalised to  398.00000

     negative rho (up, down):  1.911E-02 0.000E+00

     %%%%%%%%%%%%%%%%%%%%%%%%%%%%%%%%%%%%%%%%%%%%%%%%%%%%%%%%%%%%%%%%%%%%%%%%
     %                                                                      %
     % You are using vdW-DF, which was implemented by the Thonhauser group. %
     % Please cite the following two papers that made this development      %
     % possible and the two reviews that describe the various versions:     %
     %                                                                      %
     %   T. Thonhauser et al., PRL 115, 136402 (2015).                      %
     %   T. Thonhauser et al., PRB 76, 125112 (2007).                       %
     %   K. Berland et al., Rep. Prog. Phys. 78, 066501 (2015).             %
     %   D.C. Langreth et al., J. Phys.: Condens. Matter 21, 084203 (2009). %
     %                                                                      %
     %                                                                      %
     % If you are calculating the stress with vdW-DF, please also cite:     %
     %                                                                      %
     %   R. Sabatini et al., J. Phys.: Condens. Matter 24, 424209 (2012).   %
     %                                                                      %
     %%%%%%%%%%%%%%%%%%%%%%%%%%%%%%%%%%%%%%%%%%%%%%%%%%%%%%%%%%%%%%%%%%%%%%%%

     Adding external electric field

     Computed dipole along edir(3) :
        Dipole               -7.9392 Ry au,        -20.1794 Debye
        Dipole field         -0.0150 Ry au,

        Potential amp.        1.3888 Ry
        Total length         46.3494 bohr

     Starting wfcs are  300 atomic wfcs
  @ DRIVER MODE: Message from server: STATUS
  @ DRIVER MODE: Message from server: POSDATA
  @ DRIVER MODE: Reading and sharing cell
  @ DRIVER MODE: Reading and sharing positions
  @ DRIVER MODE: Received positions

     Self-consistent Calculation

     iteration #  1     ecut=    29.40 Ry     beta= 0.05
     Davidson diagonalization with overlap
     c_bands:  1 eigenvalues not converged
     c_bands:  2 eigenvalues not converged
     c_bands:  2 eigenvalues not converged
     c_bands:  1 eigenvalues not converged
     c_bands:  1 eigenvalues not converged
     c_bands:  1 eigenvalues not converged
     ethr =  1.00E-05,  avg # of iterations = 18.8

[...]

     total energy              =   -2649.47852163 Ry
     estimated scf accuracy    <    3500.86618879 Ry

[...]

     iteration #  3     ecut=    29.40 Ry     beta= 0.05
     Davidson diagonalization with overlap
     ethr =  1.00E-02,  avg # of iterations = 13.8

[...]

     iteration # 39     ecut=    29.40 Ry     beta= 0.05
     Davidson diagonalization with overlap
     c_bands:  1 eigenvalues not converged
     ethr =  3.07E-07,  avg # of iterations =  7.4

[...]

     total energy              =   -2964.91874142 Ry
     estimated scf accuracy    <       0.00000022 Ry

     iteration # 71     ecut=    29.40 Ry     beta= 0.05
     Davidson diagonalization with overlap
     ethr =  2.66E-11,  avg # of iterations =  5.0

     negative rho (up, down):  1.874E-02 0.000E+00

     Adding external electric field

     Computed dipole along edir(3) :
        Dipole                0.6437 Ry au,          1.6360 Debye
        Dipole field          0.0012 Ry au,

        Potential amp.       -0.1126 Ry
        Total length         46.3494 bohr

     End of self-consistent calculation

          k = 0.0000 0.0000 0.0000 ( 18029 PWs)   bands (ev):

   -56.4312 -56.3664 -55.7978 -55.7960 -55.7497 -55.7455 -55.7423 -55.7016
   -55.6946 -55.6470 -55.4598 -55.4443 -55.3804 -55.3620 -54.9570 -54.9231
   -32.8336 -32.7069 -32.6301 -32.6022 -32.5003 -32.4583 -32.4115 -32.3224
   -32.2153 -32.1834 -32.1051 -32.0619 -32.0413 -32.0051 -32.0038 -31.9955
   -31.9762 -31.9615 -31.9565 -31.9453 -31.9406 -31.9366 -31.9242 -31.9066
   -31.8938 -31.8918 -31.8735 -31.8641 -31.8520 -31.8340 -31.8241 -31.7992
   -31.7608 -31.7045 -31.6618 -31.6479 -31.6239 -31.5936 -31.5910 -31.5607
   -31.5498 -31.4201 -31.3497 -31.3040 -31.2795 -31.1655 -31.0794 -30.9705
   -19.3236 -16.5891 -16.4381 -16.3084 -16.1719 -15.9571 -15.9281 -15.8250
   -15.7238 -15.6825 -15.6015 -15.5727 -15.4347 -15.3850 -15.3568 -15.3356
   -15.3157 -15.2966 -15.2821 -15.2442 -15.2288 -15.1948 -15.1415 -15.0758
   -15.0545 -15.0024 -14.9707 -14.9542 -14.8700 -14.8055 -14.7248 -13.4642
   -13.3583  -9.1442  -6.1856  -4.0871  -3.9810  -3.9244  -3.8823  -3.7849
    -3.7198  -3.6855  -3.6186  -3.3069  -3.1752  -3.0810  -3.0265  -3.0032
    -2.9280  -2.9268  -2.9128  -2.7947  -2.7356  -2.7098  -2.6483  -2.6311
    -2.5882  -2.5531  -2.5488  -2.5345  -2.4923  -2.4522  -2.4123  -2.3928
    -2.3471  -2.2642  -2.2459  -2.1686  -2.1342  -2.1125  -2.0252  -1.9602
    -1.9504  -1.9133  -1.8897  -1.7820  -1.6062  -1.5197  -1.4623  -1.4078
    -1.3864  -1.3188  -1.3095  -1.2494  -1.1927  -1.1694  -1.1653  -1.0494
    -0.9968  -0.9642  -0.9181  -0.8837  -0.8192  -0.7721  -0.7556  -0.7260
    -0.7119  -0.6045  -0.5174  -0.4977  -0.4691  -0.4355  -0.3150  -0.2677
    -0.2355  -0.2085  -0.1918  -0.1508  -0.1068  -0.0387   0.0065   0.0623
     0.1009   0.1720   0.1822   0.2205   0.2556   0.2917   0.3556   0.3704
     0.4744   0.5032   0.5595   0.5962   0.7411   0.7696   0.9287   0.9909
     1.0537   1.1482   1.2743   1.3364   1.5841   1.6235   1.7847   2.8838
     3.0467   3.3143   3.3590   3.4943   3.5643   3.6222   3.7642   3.7916
     3.8454

[...]

          k = 0.0380-0.0419 0.0000 ( 17876 PWs)   bands (ev):

[...]

          k =-0.0760-0.0000 0.0000 ( 17886 PWs)   bands (ev):

[...]

          k =-0.0760-0.0839 0.0000 ( 17948 PWs)   bands (ev):

   -56.4265 -56.3710 -55.7900 -55.7896 -55.7572 -55.7485 -55.7382 -55.7088
   -55.6874 -55.6542 -55.4568 -55.4395 -55.3852 -55.3649 -54.9402 -54.9397
   -32.7039 -32.6726 -32.6322 -32.6268 -32.5737 -32.5260 -32.3338 -32.1615
   -32.1073 -32.0739 -32.0535 -32.0355 -32.0350 -32.0223 -32.0149 -32.0131
   -31.9977 -31.9821 -31.9765 -31.9569 -31.9558 -31.9531 -31.9499 -31.9372
   -31.9243 -31.9039 -31.8932 -31.8840 -31.8676 -31.8385 -31.7880 -31.7680
   -31.7583 -31.7230 -31.7157 -31.6821 -31.6626 -31.6495 -31.6354 -31.6035
   -31.5969 -31.4210 -31.2927 -31.2924 -31.1635 -31.1630 -31.1227 -31.1223
   -19.3161 -16.2427 -16.1290 -15.9406 -15.9050 -15.8286 -15.8269 -15.7776
   -15.7379 -15.6410 -15.5859 -15.5675 -15.4955 -15.4712 -15.4539 -15.4280
   -15.3778 -15.3526 -15.3291 -15.3180 -15.2741 -15.2501 -15.2461 -15.1990
   -15.1460 -15.1199 -15.1019 -15.0504 -14.9945 -14.9356 -14.8828 -13.4656
   -13.4598  -9.1523  -6.1673  -4.0887  -3.6630  -3.6292  -3.3385  -3.1557
    -2.9764  -2.9647  -2.9510  -2.9432  -2.8744  -2.8676  -2.8192  -2.7786
    -2.7231  -2.7028  -2.6755  -2.6703  -2.6641  -2.6228  -2.6122  -2.5861
    -2.5593  -2.5540  -2.5110  -2.5040  -2.4840  -2.4368  -2.4229  -2.3900
    -2.3604  -2.3338  -2.2813  -2.2245  -2.2053  -2.1920  -2.0650  -1.9958
    -1.9915  -1.9157  -1.9016  -1.8729  -1.8333  -1.7576  -1.6958  -1.6565
    -1.5247  -1.5049  -1.4489  -1.4108  -1.3369  -1.3254  -1.2417  -1.2125
    -1.1674  -1.1394  -1.1059  -1.0854  -1.0652  -1.0614  -0.9382  -0.9065
    -0.8510  -0.8384  -0.8066  -0.7738  -0.7499  -0.6939  -0.6252  -0.6168
    -0.5673  -0.5205  -0.4536  -0.4149  -0.3343  -0.2769  -0.2372  -0.1705
    -0.0642   0.0569   0.0958   0.2001   0.2974   0.3050   0.3710   0.4199
     0.4470   0.4922   0.5777   0.5883   0.6552   0.6667   0.7001   0.7577
     0.8067   0.8764   1.4242   1.4401   1.4617   1.4645   1.7228   3.4274
     3.4542   3.4742   3.5169   3.6627   3.7563   3.7830   3.8493   3.8945
     3.9201

     the Fermi energy is     2.4074 ev

!    total energy              =   -2964.91875724 Ry
     estimated scf accuracy    <       0.00000006 Ry
     smearing contrib. (-TS)   =      -0.00044129 Ry
     internal energy E=F+TS    =   -2964.91831596 Ry

     The total energy is F=E-TS. E is the sum of the following terms:
     one-electron contribution =  -24900.63322301 Ry
     hartree contribution      =   12540.68599171 Ry
     xc contribution           =    -490.06266353 Ry
     ewald contribution        =    9885.09079703 Ry
     electric field correction =       0.00078184 Ry

     convergence has been achieved in  71 iterations

     Forces acting on atoms (cartesian axes, Ry/au):

     atom    1 type  1   force =     0.00010056   -0.00023219    0.12242511
     atom    2 type  1   force =     0.00010543    0.00183881   -0.15179236
     atom    3 type  2   force =    -0.00068159   -0.00092062   -0.05774884
     atom    4 type  2   force =    -0.00119358    0.00052168    0.04764946
     atom    5 type  2   force =    -0.01072083   -0.00519242   -0.00143630
     atom    6 type  2   force =     0.01359644    0.00025411   -0.00014317
     atom    7 type  1   force =    -0.00026940    0.00014494    0.00007745
     atom    8 type  1   force =     0.00040156   -0.00013183   -0.00038733
     atom    9 type  2   force =     0.00001315   -0.00023896    0.00041558
     atom   10 type  2   force =    -0.00012413   -0.00005492    0.00013287
     atom   11 type  2   force =    -0.00046029   -0.00026822    0.00026637
     atom   12 type  2   force =     0.00017579    0.00008086   -0.00000467
     atom   13 type  1   force =     0.00040469   -0.00011210   -0.00003118
     atom   14 type  1   force =    -0.00010673   -0.00027707   -0.00000284
     atom   15 type  2   force =    -0.00030046   -0.00015793   -0.00023957
     atom   16 type  2   force =     0.00019089    0.00007014   -0.00008737
     atom   17 type  2   force =    -0.00020038   -0.00013258    0.00000042
     atom   18 type  2   force =    -0.00002832   -0.00024050    0.00010068
     atom   19 type  1   force =    -0.00038231   -0.00000295   -0.00013636
     atom   20 type  1   force =    -0.00013605    0.00010037   -0.00047794
     atom   21 type  2   force =     0.00026947    0.00012904    0.09729641
     atom   22 type  2   force =    -0.00033301   -0.00032263   -0.00021766
     atom   23 type  2   force =    -0.08312478    0.00238654   -0.03358034
     atom   24 type  2   force =     0.08317398    0.00267539   -0.03364518
     atom   25 type  1   force =     0.00042498    0.00037925    0.13900006
     atom   26 type  1   force =     0.00005248   -0.00119423   -0.15162152
     atom   27 type  2   force =    -0.00069772    0.00143442   -0.05288811
     atom   28 type  2   force =    -0.00117771    0.00017368    0.04595878
     atom   29 type  2   force =    -0.01133026    0.00058667   -0.00073283
     atom   30 type  2   force =     0.01406213    0.00412927    0.00077291
     atom   31 type  1   force =    -0.00050324   -0.00017290    0.00015318
     atom   32 type  1   force =     0.00035554   -0.00004910   -0.00016385
     atom   33 type  2   force =    -0.00024506    0.00011554    0.00008873
     atom   34 type  2   force =     0.00013395    0.00008609    0.00012502
     atom   35 type  2   force =    -0.00019702    0.00054680    0.00034834
     atom   36 type  2   force =     0.00022395   -0.00000714   -0.00016613
     atom   37 type  1   force =    -0.00062839    0.00028641    0.00024960
     atom   38 type  1   force =    -0.00032887   -0.00040797   -0.00019389
     atom   39 type  2   force =     0.00004999   -0.00010587    0.00031224
     atom   40 type  2   force =    -0.00027089   -0.00008674    0.00030989
     atom   41 type  2   force =    -0.00007925   -0.00040293    0.00003580
     atom   42 type  2   force =    -0.00034062   -0.00019467    0.00029601
     atom   43 type  1   force =    -0.00012825   -0.00001622   -0.00041466
     atom   44 type  1   force =    -0.00012662   -0.00006277    0.00004779
     atom   45 type  2   force =     0.00023352    0.00013446    0.09737322
     atom   46 type  2   force =    -0.08304580   -0.00265103   -0.03359596
     atom   47 type  2   force =     0.08308122   -0.00230486   -0.03370057
     atom   48 type  3   force =    -0.00077198   -0.00877782    0.00426596
     atom   49 type  2   force =     0.00008141    0.00021278   -0.00025774
     atom   50 type  4   force =     0.00026335    0.00005968   -0.00023919
     atom   51 type  4   force =     0.00083950    0.00907854   -0.00445523
     atom   52 type  4   force =    -0.00024999   -0.00055369    0.00043181
     atom   53 type  2   force =    -0.00069096    0.00046414    0.00082354
     atom   54 type  4   force =     0.00064049   -0.00061675   -0.00059644

     Total force =     0.377983     Total SCF correction =     0.000684
  @ DRIVER MODE: Message from server: STATUS
  @ DRIVER MODE: Message from server: GETFORCE
  @ DRIVER MODE: Returning v,forces,stress,ensemble

     Writing output data file ./calc.save/
  @ DRIVER MODE: Message from server: EXIT
  @ DRIVE MODE: Exiting

     General routines

     Parallel routines

   This run was terminated on:   5:57:48  23Sep2021

   JOB DONE.