     Program PWSCF v.6.7GPU starts on  9Sep2021 at  6:14:13

     R & G space division:  proc/nbgrp/npool/nimage =      10
     Reading input from /storage/home/hcoda1/3/ntian30/research/carbon/CxH_vib/CH3_calc/ads_slab/CH3NNHHH_a/out_0025/pw.inp
Warning: card &CELL ignored
Warning: card   CELL_DYNAMICS='IPI', ignored
Warning: card / ignored

     Current dimensions of program PWSCF are:
     Max number of different atomic species (ntypx) = 10
     Max number of k-points (npk) =  40000
     Max angular momentum in pseudopotentials (lmaxx) =  3
     Presently no symmetry can be used with electric field

     Message from routine cell_base_init:
     DEPRECATED: use true lattice parameter, not A to a.u. conversion factor

     IMPORTANT: XC functional enforced from input :
     Exchange-correlation= BEEF-VDW
                           (   1   4  43  14   2   0   0)
     Any further DFT definition will be discarded
     Please, verify this is what you really want

  @ DRIVER MODE: Connecting to
 qe_1139763_2767399.sched-torque.pace.gatech.edu37jy8vuc_scratch
  using UNIX socket
  @ DRIVER MODE: Message from server: STATUS
  @ DRIVER MODE: Message from server: INIT
  @ DRIVER MODE: Receiving replica           0          -1
  @ DRIVER MODE: Receiving encoded integer          25
  @ DRIVER MODE:  SCF:  T  FORCE:  T  STRESS:  F  VC:  F  ENSEMBLE:  F
  @ DRIVER MODE:  SCF:  T  FORCE:  T  STRESS:  F  VC:  F  ENSEMBLE:  F

     Using Slab Decomposition

     bravais-lattice index     =            0
     lattice parameter (alat)  =       1.8897  a.u.
     unit-cell volume          =    6658.9804 (a.u.)^3
     number of atoms/cell      =           56
     number of atomic types    =            5
     number of electrons       =       398.00
     number of Kohn-Sham states=          209
     kinetic-energy cutoff     =      29.3995  Ry
     charge density cutoff     =     293.9946  Ry
     scf convergence threshold =      7.3E-08
     mixing beta               =       0.0500
     number of iterations used =            8  plain     mixing
     Exchange-correlation= BEEF-VDW
                           (   1   4  43  14   2   0   0)

     celldm(1)=   1.889726  celldm(2)=   0.000000  celldm(3)=   0.000000
     celldm(4)=   0.000000  celldm(5)=   0.000000  celldm(6)=   0.000000

     crystal axes: (cart. coord. in units of alat)
               a(1) = (   6.579727   0.000000   0.000000 )
               a(2) = (  -0.000775   5.961596   0.000000 )
               a(3) = (   0.000000   0.000000  25.155947 )

     reciprocal axes: (cart. coord. in units 2 pi/alat)
               b(1) = (  0.151982  0.000020  0.000000 )
               b(2) = (  0.000000  0.167740  0.000000 )
               b(3) = (  0.000000  0.000000  0.039752 )

     PseudoPot. # 1 for Ti read from file:
     /storage/coda1/p-amedford6/0/shared/rich_project_chbe-medford/medford-share/data/pseudos_module/espresso/nninc/pbe/van/Ti.UPF
     MD5 check sum: 8e4df49b7f0d34bbd5052bf3f5ea0213
     Pseudo is Ultrasoft, Zval = 12.0
     Generated by new atomic code, or converted to UPF format
     Using radial grid of  851 points,  6 beta functions with:
                l(1) =   0
                l(2) =   0
                l(3) =   1
                l(4) =   1
                l(5) =   2
                l(6) =   2
     Q(r) pseudized with  8 coefficients,  rinner =    1.000   1.000   1.000
                                                       1.000   1.000

     PseudoPot. # 2 for O  read from file:
     /storage/coda1/p-amedford6/0/shared/rich_project_chbe-medford/medford-share/data/pseudos_module/espresso/nninc/pbe/van/O.UPF
     MD5 check sum: 78c19812648e8988a0fe644b0f25305e
     Pseudo is Ultrasoft, Zval =  6.0
     Generated by new atomic code, or converted to UPF format
     Using radial grid of  737 points,  4 beta functions with:
                l(1) =   0
                l(2) =   0
                l(3) =   1
                l(4) =   1
     Q(r) pseudized with  8 coefficients,  rinner =    0.800   0.800   0.800

     PseudoPot. # 3 for N  read from file:
     /storage/coda1/p-amedford6/0/shared/rich_project_chbe-medford/medford-share/data/pseudos_module/espresso/nninc/pbe/van/N.UPF
     MD5 check sum: 90d10febe142ad51ac9d5be1deb811c4
     Pseudo is Ultrasoft, Zval =  5.0
     Generated by new atomic code, or converted to UPF format
     Using radial grid of  729 points,  4 beta functions with:
                l(1) =   0
                l(2) =   0
                l(3) =   1
                l(4) =   1
     Q(r) pseudized with  8 coefficients,  rinner =    0.800   0.800   0.800

     PseudoPot. # 4 for C  read from file:
     /storage/coda1/p-amedford6/0/shared/rich_project_chbe-medford/medford-share/data/pseudos_module/espresso/nninc/pbe/van/C.UPF
     MD5 check sum: 1a69bf6b8db32088f5b2163dbdb77a27
     Pseudo is Ultrasoft, Zval =  4.0
     Generated by new atomic code, or converted to UPF format
     Using radial grid of  721 points,  4 beta functions with:
                l(1) =   0
                l(2) =   0
                l(3) =   1
                l(4) =   1
     Q(r) pseudized with  8 coefficients,  rinner =    0.800   0.800   0.800

     PseudoPot. # 5 for H  read from file:
     /storage/coda1/p-amedford6/0/shared/rich_project_chbe-medford/medford-share/data/pseudos_module/espresso/nninc/pbe/van/H.UPF
     MD5 check sum: b5ee9d7bfd3a09ee7748110bda690ff7
     Pseudo is Ultrasoft, Zval =  1.0
     Generated by new atomic code, or converted to UPF format
     Using radial grid of  615 points,  1 beta functions with:
                l(1) =   0
     Q(r) pseudized with  8 coefficients,  rinner =    0.800

     atomic species   valence    mass     pseudopotential
        Ti1           12.00    47.86700     Ti( 1.00)
        O1             6.00    15.99900     O ( 1.00)
        N1             5.00    14.00700     N ( 1.00)
        C1             4.00    12.01100     C ( 1.00)
        H1             1.00     1.00800     H ( 1.00)

     No symmetry found

   Cartesian axes

     site n.     atom                  positions (alat units)
         1           Ti1 tau(   1) = (   0.0004258   2.9801865   6.0000000  )
         2           Ti1 tau(   2) = (   3.2906075   1.4906267   6.0002472  )
         3           O1  tau(   3) = (   0.0006271   0.0005054   7.9858123  )
         4           O1  tau(   4) = (   3.2906025   0.0005020   7.3038282  )
         5           O1  tau(   5) = (   4.5942328   1.4918067   9.2879030  )
         6           O1  tau(   6) = (   1.9868534   1.4903216   9.2879459  )
         7           Ti1 tau(   7) = (   3.2907910   2.8959150   9.1758416  )
         8           Ti1 tau(   8) = (   0.0015273   1.4827037   9.2680791  )
         9           O1  tau(   9) = (   3.3120675   0.0079458  11.3762204  )
        10           O1  tau(  10) = (   0.0116148   5.9584955  10.6183126  )
        11           O1  tau(  11) = (   1.3148726   1.5133626  12.6447579  )
        12           O1  tau(  12) = (   5.3140862   1.5122126  12.6508301  )
        13           Ti1 tau(  13) = (   0.0289753   2.9995974  12.5105963  )
        14           Ti1 tau(  14) = (   3.3300932   1.5144954  12.5190352  )
        15           O1  tau(  15) = (   0.0303621   0.0967028  14.6836000  )
        16           O1  tau(  16) = (   3.3188409   0.0235386  14.0025835  )
        17           O1  tau(  17) = (   4.5661268   1.5053193  16.2317874  )
        18           O1  tau(  18) = (   2.0488868   1.5039614  16.2002260  )
        19           Ti1 tau(  19) = (   3.3211226   2.9745325  15.7560014  )
        20           Ti1 tau(  20) = (   0.0641794   1.4487855  16.0607878  )
        21           O1  tau(  21) = (   3.2904802   0.0005063   4.7018136  )
        22           O1  tau(  22) = (   0.0207051   5.8381987  17.2232637  )
        23           O1  tau(  23) = (   1.3043587   1.4918075   6.0039043  )
        24           O1  tau(  24) = (   5.2767064   1.4903225   6.0039473  )
        25           Ti1 tau(  25) = (   0.0000382   5.9609847   6.0000000  )
        26           Ti1 tau(  26) = (   3.2902200   4.4714249   6.0002472  )
        27           O1  tau(  27) = (   0.0002396   2.9813036   7.9858123  )
        28           O1  tau(  28) = (   3.2902150   2.9813002   7.3038282  )
        29           O1  tau(  29) = (   4.5938453   4.4726049   9.2879030  )
        30           O1  tau(  30) = (   1.9864658   4.4711199   9.2879459  )
        31           Ti1 tau(  31) = (   3.2891106   5.8743827   9.1763621  )
        32           Ti1 tau(  32) = (   0.0006254   4.4649316   9.2693709  )
        33           O1  tau(  33) = (   3.3137607   3.0039157  11.3695003  )
        34           O1  tau(  34) = (   0.0092240   2.9805883  10.6323155  )
        35           O1  tau(  35) = (   1.3103219   4.4840529  12.6837359  )
        36           O1  tau(  36) = (   5.3166572   4.4842854  12.6901167  )
        37           Ti1 tau(  37) = (   0.0376818   0.0300362  12.4998423  )
        38           Ti1 tau(  38) = (   3.3279277   4.4933691  12.5326681  )
        39           O1  tau(  39) = (   0.0236785   2.9473731  14.9547601  )
        40           O1  tau(  40) = (   3.3158584   2.9778716  13.9675922  )
        41           O1  tau(  41) = (   4.5769684   4.4551829  16.1482216  )
        42           O1  tau(  42) = (   2.0574928   4.4544973  16.1629196  )
        43           Ti1 tau(  43) = (   3.3270828   0.0048838  15.7999907  )
        44           Ti1 tau(  44) = (   0.0216784   4.6657176  15.8371636  )
        45           O1  tau(  45) = (   3.2900926   2.9813045   4.7018136  )
        46           O1  tau(  46) = (   1.3039711   4.4726057   6.0039043  )
        47           O1  tau(  47) = (   5.2763189   4.4711207   6.0039473  )
        48           N1  tau(  48) = (   1.0300599   3.1028741  18.8625222  )
        49           N1  tau(  49) = (   6.4529598   2.6395754  18.1308714  )
        50           C1  tau(  50) = (   0.6566364   3.8075245  20.0867497  )
        51           H1  tau(  51) = (   6.5334193   4.6337433  19.9095685  )
        52           H1  tau(  52) = (   0.2027083   3.1054723  20.7945791  )
        53           H1  tau(  53) = (   1.5644534   4.2160081  20.5287796  )
        54           H1  tau(  54) = (   5.6912064   3.3271340  18.1715891  )
        55           H1  tau(  55) = (   6.1153184   1.7991689  18.5966666  )
        56           H1  tau(  56) = (   1.4989484   3.7555826  18.2384742  )

     number of k points=    10  Fermi-Dirac smearing, width (Ry)=  0.0073
                       cart. coord. in units 2pi/alat
        k(    1) = (   0.0000000   0.0000000   0.0000000), wk =   0.1250000
        k(    2) = (   0.0000000   0.0419351   0.0000000), wk =   0.2500000
        k(    3) = (   0.0000000  -0.0838702   0.0000000), wk =   0.1250000
        k(    4) = (   0.0379955   0.0000049   0.0000000), wk =   0.2500000
        k(    5) = (   0.0379955   0.0419400   0.0000000), wk =   0.2500000
        k(    6) = (   0.0379955  -0.0838652   0.0000000), wk =   0.2500000
        k(    7) = (   0.0379955  -0.0419301   0.0000000), wk =   0.2500000
        k(    8) = (  -0.0759910  -0.0000099   0.0000000), wk =   0.1250000
        k(    9) = (  -0.0759910   0.0419252   0.0000000), wk =   0.2500000
        k(   10) = (  -0.0759910  -0.0838800   0.0000000), wk =   0.1250000

     Initial potential from superposition of free atoms

     starting charge  381.99914, renormalised to  398.00000

     negative rho (up, down):  1.340E-02 0.000E+00

     %%%%%%%%%%%%%%%%%%%%%%%%%%%%%%%%%%%%%%%%%%%%%%%%%%%%%%%%%%%%%%%%%%%%%%%%
     %                                                                      %
     % You are using vdW-DF, which was implemented by the Thonhauser group. %
     % Please cite the following two papers that made this development      %
     % possible and the two reviews that describe the various versions:     %
     %                                                                      %
     %   T. Thonhauser et al., PRL 115, 136402 (2015).                      %
     %   T. Thonhauser et al., PRB 76, 125112 (2007).                       %
     %   K. Berland et al., Rep. Prog. Phys. 78, 066501 (2015).             %
     %   D.C. Langreth et al., J. Phys.: Condens. Matter 21, 084203 (2009). %
     %                                                                      %
     %                                                                      %
     % If you are calculating the stress with vdW-DF, please also cite:     %
     %                                                                      %
     %   R. Sabatini et al., J. Phys.: Condens. Matter 24, 424209 (2012).   %
     %                                                                      %
     %%%%%%%%%%%%%%%%%%%%%%%%%%%%%%%%%%%%%%%%%%%%%%%%%%%%%%%%%%%%%%%%%%%%%%%%

     Adding external electric field

     Computed dipole along edir(3) :
        Dipole              -11.7464 Ry au,        -29.8564 Debye
        Dipole field         -0.0222 Ry au,

        Potential amp.        2.0549 Ry
        Total length         46.3494 bohr

     Starting wfcs are  302 atomic wfcs
  @ DRIVER MODE: Message from server: STATUS
  @ DRIVER MODE: Message from server: POSDATA
  @ DRIVER MODE: Reading and sharing cell
  @ DRIVER MODE: Reading and sharing positions
  @ DRIVER MODE: Received positions

     Self-consistent Calculation

     iteration #  1     ecut=    29.40 Ry     beta= 0.05
     Davidson diagonalization with overlap
     c_bands:  1 eigenvalues not converged
     c_bands:  1 eigenvalues not converged
     c_bands:  1 eigenvalues not converged
     c_bands:  3 eigenvalues not converged
     c_bands:  3 eigenvalues not converged
     c_bands:  3 eigenvalues not converged
     c_bands:  4 eigenvalues not converged
     c_bands:  2 eigenvalues not converged
     ethr =  1.00E-05,  avg # of iterations = 21.6

[...]

     total energy              =   -2428.09826172 Ry
     estimated scf accuracy    <    5789.74326249 Ry

     iteration #  2     ecut=    29.40 Ry     beta= 0.05
     Davidson diagonalization with overlap
     ethr =  1.00E-02,  avg # of iterations = 22.2

[...]

     iteration # 62     ecut=    29.40 Ry     beta= 0.05
     Davidson diagonalization with overlap
     c_bands:  1 eigenvalues not converged
     ethr =  3.34E-09,  avg # of iterations = 12.7

[...]

     total energy              =   -2942.85973669 Ry
     estimated scf accuracy    <       0.00000012 Ry

     iteration # 74     ecut=    29.40 Ry     beta= 0.05
     Davidson diagonalization with overlap
     ethr =  3.07E-11,  avg # of iterations = 13.7

     negative rho (up, down):  1.464E-02 0.000E+00

     Adding external electric field

     Computed dipole along edir(3) :
        Dipole                1.2204 Ry au,          3.1019 Debye
        Dipole field          0.0023 Ry au,

        Potential amp.       -0.2135 Ry
        Total length         46.3494 bohr

     End of self-consistent calculation

          k = 0.0000 0.0000 0.0000 ( 18029 PWs)   bands (ev):

   -55.3495 -55.3126 -55.3017 -55.2708 -55.2676 -55.2334 -55.2263 -55.1910
   -55.1699 -55.1460 -55.1354 -55.1334 -55.0998 -55.0275 -54.3316 -54.2976
   -31.9180 -31.8024 -31.7943 -31.7149 -31.6652 -31.6592 -31.6525 -31.6391
   -31.5909 -31.5903 -31.5591 -31.5537 -31.5467 -31.5308 -31.5195 -31.5120
   -31.5048 -31.4896 -31.4869 -31.4671 -31.4542 -31.4464 -31.4196 -31.4156
   -31.4044 -31.4020 -31.4008 -31.3726 -31.3589 -31.3568 -31.3519 -31.3323
   -31.3292 -31.3210 -31.3199 -31.3177 -31.2836 -31.2695 -31.2618 -31.2447
   -31.2339 -31.2093 -30.7411 -30.6467 -30.6246 -30.5573 -30.4706 -30.3597
   -17.7997 -16.1858 -15.9181 -15.7781 -15.6683 -15.5494 -15.4308 -15.4113
   -15.2792 -15.1964 -15.0763 -15.0534 -15.0270 -15.0079 -14.9955 -14.9806
   -14.8951 -14.8890 -14.8716 -14.8443 -14.8379 -14.7952 -14.7878 -14.7482
   -14.7267 -14.7253 -14.5968 -14.5091 -14.4374 -14.2009 -13.1774 -12.8342
   -12.7168  -9.7246  -6.3720  -5.3943  -4.8870  -3.5329  -3.4825  -3.3695
    -3.2785  -3.2645  -3.2426  -3.1062  -2.9530  -2.7828  -2.7701  -2.7611
    -2.6396  -2.5619  -2.5556  -2.5308  -2.3794  -2.3578  -2.3068  -2.2414
    -2.2137  -2.1657  -2.1548  -2.1336  -2.1142  -2.0943  -2.0860  -1.9721
    -1.9212  -1.8285  -1.7726  -1.7453  -1.7096  -1.6818  -1.6666  -1.6394
    -1.6313  -1.5888  -1.5618  -1.5399  -1.4888  -1.3767  -1.2678  -1.2377
    -1.1402  -0.9881  -0.9551  -0.9420  -0.9307  -0.8540  -0.8369  -0.7888
    -0.7360  -0.7280  -0.6971  -0.5863  -0.5278  -0.4628  -0.3963  -0.3845
    -0.3378  -0.2760  -0.1636  -0.1394  -0.1169  -0.0918   0.0019   0.0414
     0.0864   0.1612   0.1805   0.1940   0.3009   0.3086   0.3887   0.4008
     0.4464   0.5329   0.5672   0.5895   0.5933   0.6068   0.6368   0.7039
     0.7281   0.7545   0.8296   0.9534   1.0256   1.1855   1.2486   1.2620
     1.5918   1.5960   1.6911   1.8750   2.2673   2.3155   3.7478   3.8173
     3.8922   3.8989   3.9108   3.9845   4.2218   4.2380   4.2504   4.2566
     4.2914

[...]

          k = 0.0380-0.0419 0.0000 ( 17876 PWs)   bands (ev):

[...]

          k =-0.0760-0.0000 0.0000 ( 17886 PWs)   bands (ev):

[...]

          k =-0.0760-0.0839 0.0000 ( 17948 PWs)   bands (ev):

   -55.3353 -55.3266 -55.2847 -55.2845 -55.2693 -55.2301 -55.2128 -55.2045
   -55.1543 -55.1505 -55.1494 -55.1169 -55.1166 -55.0288 -54.3145 -54.3145
   -31.7252 -31.7225 -31.7187 -31.6350 -31.6094 -31.6093 -31.6066 -31.5761
   -31.5761 -31.5579 -31.5506 -31.5481 -31.5421 -31.5122 -31.5054 -31.4872
   -31.4870 -31.4829 -31.4797 -31.4743 -31.4713 -31.4705 -31.4334 -31.4284
   -31.4262 -31.4215 -31.4174 -31.4060 -31.4044 -31.4042 -31.3974 -31.3879
   -31.3836 -31.3674 -31.3639 -31.3480 -31.3473 -31.3378 -31.2978 -31.2976
   -31.2872 -31.2386 -30.6373 -30.6373 -30.5536 -30.5535 -30.5140 -30.5139
   -17.7950 -15.7091 -15.5972 -15.5509 -15.3778 -15.3555 -15.3330 -15.3182
   -15.1902 -15.1718 -15.1439 -15.1174 -15.0924 -15.0649 -15.0536 -15.0487
   -14.9662 -14.9543 -14.9468 -14.9307 -14.8628 -14.8599 -14.8556 -14.8497
   -14.7990 -14.7965 -14.7157 -14.7026 -14.7012 -14.5031 -13.1783 -12.8182
   -12.8182  -9.7210  -6.3595  -5.3940  -4.8928  -3.4482  -2.8658  -2.8304
    -2.8068  -2.7913  -2.5933  -2.5553  -2.5183  -2.5059  -2.4067  -2.3646
    -2.3469  -2.3396  -2.2692  -2.2659  -2.2350  -2.2050  -2.1840  -2.1669
    -2.1531  -2.1312  -2.1064  -2.0770  -2.0710  -2.0557  -2.0018  -1.9992
    -1.9834  -1.9614  -1.9439  -1.9229  -1.9063  -1.8496  -1.7274  -1.7172
    -1.6631  -1.5567  -1.5521  -1.4720  -1.4668  -1.4228  -1.3949  -1.3829
    -1.3556  -1.1755  -1.1219  -1.0957  -1.0882  -1.0763  -0.9678  -0.9337
    -0.8756  -0.8599  -0.8338  -0.7360  -0.6854  -0.6810  -0.5995  -0.5679
    -0.5288  -0.4872  -0.3861  -0.3564  -0.3366  -0.3075  -0.3041  -0.2506
    -0.2452  -0.1684  -0.1206  -0.0846  -0.0702  -0.0391   0.1603   0.1700
     0.1883   0.3352   0.3580   0.4982   0.5421   0.5841   0.6448   0.6965
     0.7624   0.8031   0.9301   0.9577   0.9586   1.0289   1.0495   1.0557
     1.1069   1.1088   2.0476   2.0483   2.1354   2.1357   3.8908   3.9954
     4.0102   4.0556   4.1654   4.2393   4.2624   4.2893   4.3321   4.3350
     4.3992

     the Fermi energy is     3.8106 ev

!    total energy              =   -2942.85974971 Ry
     estimated scf accuracy    <       0.00000004 Ry
     smearing contrib. (-TS)   =      -0.03701610 Ry
     internal energy E=F+TS    =   -2942.82273360 Ry

     The total energy is F=E-TS. E is the sum of the following terms:
     one-electron contribution =  -23389.43085991 Ry
     hartree contribution      =   11787.25136920 Ry
     xc contribution           =    -487.75323308 Ry
     ewald contribution        =    9147.10717966 Ry
     electric field correction =       0.00281053 Ry

     convergence has been achieved in  74 iterations

     Forces acting on atoms (cartesian axes, Ry/au):

     atom    1 type  1   force =     0.00000387   -0.00025520    0.09307976
     atom    2 type  1   force =    -0.00014380   -0.00043148   -0.17826467
     atom    3 type  2   force =     0.00007504   -0.00008967   -0.02025658
     atom    4 type  2   force =     0.00001604   -0.00186687    0.05881969
     atom    5 type  2   force =    -0.01020456   -0.00054475    0.00773583
     atom    6 type  2   force =     0.01225656    0.00007327    0.00819481
     atom    7 type  1   force =     0.00038776    0.00327941   -0.01425307
     atom    8 type  1   force =    -0.00045687    0.00045530   -0.00455726
     atom    9 type  2   force =    -0.00002623   -0.00061707   -0.00037415
     atom   10 type  2   force =    -0.00059727    0.00091178   -0.00142922
     atom   11 type  2   force =    -0.00036683   -0.00012237    0.00023052
     atom   12 type  2   force =     0.00005771   -0.00006836    0.00003833
     atom   13 type  1   force =     0.00005212   -0.00032232    0.00017775
     atom   14 type  1   force =    -0.00036351    0.00013337    0.00041876
     atom   15 type  2   force =    -0.00015735    0.00080468    0.00022489
     atom   16 type  2   force =    -0.00008776   -0.00018553    0.00030337
     atom   17 type  2   force =    -0.00045272    0.00005327    0.00043333
     atom   18 type  2   force =     0.00014312   -0.00020281   -0.00007321
     atom   19 type  1   force =     0.00034760    0.00027732    0.00091044
     atom   20 type  1   force =    -0.00062174   -0.00071211    0.00032789
     atom   21 type  2   force =     0.00000195   -0.00010337    0.10394019
     atom   22 type  2   force =    -0.00018843    0.00002605   -0.00062394
     atom   23 type  2   force =    -0.07035035   -0.00022871   -0.02687572
     atom   24 type  2   force =     0.07024763    0.00019727   -0.02695691
     atom   25 type  1   force =     0.00002136   -0.00026764    0.09274482
     atom   26 type  1   force =    -0.00012280   -0.00044914   -0.17829991
     atom   27 type  2   force =     0.00013957   -0.00032800   -0.01928082
     atom   28 type  2   force =     0.00008236   -0.00154947    0.05821322
     atom   29 type  2   force =    -0.01021042   -0.00033002    0.00695497
     atom   30 type  2   force =     0.01216132   -0.00008756    0.00748869
     atom   31 type  1   force =     0.00040170    0.00495947   -0.01539335
     atom   32 type  1   force =    -0.00037521   -0.00033352   -0.00466444
     atom   33 type  2   force =    -0.00021899   -0.00047826    0.00015242
     atom   34 type  2   force =    -0.00014098    0.00364160   -0.00061608
     atom   35 type  2   force =     0.00004304   -0.00056205    0.00031754
     atom   36 type  2   force =    -0.00019920   -0.00052943   -0.00003238
     atom   37 type  1   force =    -0.00026087   -0.00049400    0.00049143
     atom   38 type  1   force =    -0.00019464   -0.00090108    0.00045467
     atom   39 type  2   force =    -0.00047730   -0.00053057    0.00051454
     atom   40 type  2   force =     0.00001482   -0.00048765   -0.00043400
     atom   41 type  2   force =    -0.00079866   -0.00012017   -0.00010865
     atom   42 type  2   force =     0.00030255   -0.00026378   -0.00028788
     atom   43 type  1   force =     0.00005665   -0.00030775   -0.00004926
     atom   44 type  1   force =    -0.00007904   -0.00063867    0.00072866
     atom   45 type  2   force =     0.00000977   -0.00014430    0.10391089
     atom   46 type  2   force =    -0.07039913   -0.00017833   -0.02689248
     atom   47 type  2   force =     0.07026266    0.00026111   -0.02696195
     atom   48 type  3   force =     0.00043840    0.00142047   -0.00010929
     atom   49 type  3   force =     0.00021501    0.00108262   -0.00027147
     atom   50 type  4   force =    -0.00516820   -0.00242585    0.00232872
     atom   51 type  5   force =    -0.00021346    0.00057100   -0.00039653
     atom   52 type  5   force =     0.00376367    0.00254436   -0.00243928
     atom   53 type  5   force =     0.00066055   -0.00038995    0.00157194
     atom   54 type  5   force =     0.00001902   -0.00053060   -0.00041003
     atom   55 type  5   force =     0.00054445   -0.00176871   -0.00030017
     atom   56 type  5   force =     0.00015002   -0.00084519   -0.00009531

     Total force =     0.366211     Total SCF correction =     0.000463
  @ DRIVER MODE: Message from server: STATUS
  @ DRIVER MODE: Message from server: GETFORCE
  @ DRIVER MODE: Returning v,forces,stress,ensemble

     Writing output data file ./calc.save/
  @ DRIVER MODE: Message from server: EXIT
  @ DRIVE MODE: Exiting

     General routines

     Parallel routines

   This run was terminated on:   6:33:48   9Sep2021

   JOB DONE.