     Program PWSCF v.6.7GPU starts on  8Sep2021 at 23: 7:34

     R & G space division:  proc/nbgrp/npool/nimage =      10
     Reading input from /storage/home/hcoda1/3/ntian30/research/carbon/CxH_vib/CH_calc/ads_slab/CHN_a/out_0004/pw.inp
Warning: card &CELL ignored
Warning: card   CELL_DYNAMICS='IPI', ignored
Warning: card / ignored

     Current dimensions of program PWSCF are:
     Max number of different atomic species (ntypx) = 10
     Max number of k-points (npk) =  40000
     Max angular momentum in pseudopotentials (lmaxx) =  3
     Presently no symmetry can be used with electric field

     Message from routine cell_base_init:
     DEPRECATED: use true lattice parameter, not A to a.u. conversion factor

     IMPORTANT: XC functional enforced from input :
     Exchange-correlation= BEEF-VDW
                           (   1   4  43  14   2   0   0)
     Any further DFT definition will be discarded
     Please, verify this is what you really want

  @ DRIVER MODE: Connecting to
 qe_1139763_2767383.sched-torque.pace.gatech.eduktg1je1g_scratch
  using UNIX socket
  @ DRIVER MODE: Message from server: STATUS
  @ DRIVER MODE: Message from server: INIT
  @ DRIVER MODE: Receiving replica           0          -1
  @ DRIVER MODE: Receiving encoded integer          25
  @ DRIVER MODE:  SCF:  T  FORCE:  T  STRESS:  F  VC:  F  ENSEMBLE:  F
  @ DRIVER MODE:  SCF:  T  FORCE:  T  STRESS:  F  VC:  F  ENSEMBLE:  F

     Using Slab Decomposition

     bravais-lattice index     =            0
     lattice parameter (alat)  =       1.8897  a.u.
     unit-cell volume          =    6658.9804 (a.u.)^3
     number of atoms/cell      =           50
     number of atomic types    =            5
     number of electrons       =       388.00
     number of Kohn-Sham states=          204
     kinetic-energy cutoff     =      29.3995  Ry
     charge density cutoff     =     293.9946  Ry
     scf convergence threshold =      7.3E-08
     mixing beta               =       0.0500
     number of iterations used =            8  plain     mixing
     Exchange-correlation= BEEF-VDW
                           (   1   4  43  14   2   0   0)

     celldm(1)=   1.889726  celldm(2)=   0.000000  celldm(3)=   0.000000
     celldm(4)=   0.000000  celldm(5)=   0.000000  celldm(6)=   0.000000

     crystal axes: (cart. coord. in units of alat)
               a(1) = (   6.579727   0.000000   0.000000 )
               a(2) = (  -0.000775   5.961596   0.000000 )
               a(3) = (   0.000000   0.000000  25.155947 )

     reciprocal axes: (cart. coord. in units 2 pi/alat)
               b(1) = (  0.151982  0.000020  0.000000 )
               b(2) = (  0.000000  0.167740  0.000000 )
               b(3) = (  0.000000  0.000000  0.039752 )

     PseudoPot. # 1 for Ti read from file:
     /storage/coda1/p-amedford6/0/shared/rich_project_chbe-medford/medford-share/data/pseudos_module/espresso/nninc/pbe/van/Ti.UPF
     MD5 check sum: 8e4df49b7f0d34bbd5052bf3f5ea0213
     Pseudo is Ultrasoft, Zval = 12.0
     Generated by new atomic code, or converted to UPF format
     Using radial grid of  851 points,  6 beta functions with:
                l(1) =   0
                l(2) =   0
                l(3) =   1
                l(4) =   1
                l(5) =   2
                l(6) =   2
     Q(r) pseudized with  8 coefficients,  rinner =    1.000   1.000   1.000
                                                       1.000   1.000

     PseudoPot. # 2 for O  read from file:
     /storage/coda1/p-amedford6/0/shared/rich_project_chbe-medford/medford-share/data/pseudos_module/espresso/nninc/pbe/van/O.UPF
     MD5 check sum: 78c19812648e8988a0fe644b0f25305e
     Pseudo is Ultrasoft, Zval =  6.0
     Generated by new atomic code, or converted to UPF format
     Using radial grid of  737 points,  4 beta functions with:
                l(1) =   0
                l(2) =   0
                l(3) =   1
                l(4) =   1
     Q(r) pseudized with  8 coefficients,  rinner =    0.800   0.800   0.800

     PseudoPot. # 3 for N  read from file:
     /storage/coda1/p-amedford6/0/shared/rich_project_chbe-medford/medford-share/data/pseudos_module/espresso/nninc/pbe/van/N.UPF
     MD5 check sum: 90d10febe142ad51ac9d5be1deb811c4
     Pseudo is Ultrasoft, Zval =  5.0
     Generated by new atomic code, or converted to UPF format
     Using radial grid of  729 points,  4 beta functions with:
                l(1) =   0
                l(2) =   0
                l(3) =   1
                l(4) =   1
     Q(r) pseudized with  8 coefficients,  rinner =    0.800   0.800   0.800

     PseudoPot. # 4 for C  read from file:
     /storage/coda1/p-amedford6/0/shared/rich_project_chbe-medford/medford-share/data/pseudos_module/espresso/nninc/pbe/van/C.UPF
     MD5 check sum: 1a69bf6b8db32088f5b2163dbdb77a27
     Pseudo is Ultrasoft, Zval =  4.0
     Generated by new atomic code, or converted to UPF format
     Using radial grid of  721 points,  4 beta functions with:
                l(1) =   0
                l(2) =   0
                l(3) =   1
                l(4) =   1
     Q(r) pseudized with  8 coefficients,  rinner =    0.800   0.800   0.800

     PseudoPot. # 5 for H  read from file:
     /storage/coda1/p-amedford6/0/shared/rich_project_chbe-medford/medford-share/data/pseudos_module/espresso/nninc/pbe/van/H.UPF
     MD5 check sum: b5ee9d7bfd3a09ee7748110bda690ff7
     Pseudo is Ultrasoft, Zval =  1.0
     Generated by new atomic code, or converted to UPF format
     Using radial grid of  615 points,  1 beta functions with:
                l(1) =   0
     Q(r) pseudized with  8 coefficients,  rinner =    0.800

     atomic species   valence    mass     pseudopotential
        Ti1           12.00    47.86700     Ti( 1.00)
        O1             6.00    15.99900     O ( 1.00)
        N1             5.00    14.00700     N ( 1.00)
        C1             4.00    12.01100     C ( 1.00)
        H1             1.00     1.00800     H ( 1.00)

     No symmetry found

   Cartesian axes

     site n.     atom                  positions (alat units)
         1           Ti1 tau(   1) = (   0.0004258   2.9801865   6.0000000  )
         2           Ti1 tau(   2) = (   3.2906075   1.4906267   6.0002472  )
         3           O1  tau(   3) = (   0.0006271   0.0005054   7.9858123  )
         4           O1  tau(   4) = (   3.2906025   0.0005020   7.3038282  )
         5           O1  tau(   5) = (   4.5942328   1.4918067   9.2879030  )
         6           O1  tau(   6) = (   1.9868534   1.4903216   9.2879459  )
         7           Ti1 tau(   7) = (   3.2907910   2.8959150   9.1758416  )
         8           Ti1 tau(   8) = (   0.0015273   1.4827037   9.2680791  )
         9           O1  tau(   9) = (   3.3014052   0.0114069  11.3737528  )
        10           O1  tau(  10) = (   0.0116148   5.9584955  10.6183126  )
        11           O1  tau(  11) = (   1.3012034   1.4994444  12.6801950  )
        12           O1  tau(  12) = (   5.3042999   1.4981222  12.6788946  )
        13           Ti1 tau(  13) = (   0.0222102   2.9879630  12.5217794  )
        14           Ti1 tau(  14) = (   3.3166014   1.4969944  12.5290657  )
        15           O1  tau(  15) = (   0.0131148   5.9114811  14.6787674  )
        16           O1  tau(  16) = (   3.3052116   5.9585997  13.9918696  )
        17           O1  tau(  17) = (   4.5573354   1.5165695  16.1403462  )
        18           O1  tau(  18) = (   2.0429717   1.5180214  16.1331141  )
        19           Ti1 tau(  19) = (   3.3061463   3.0045039  15.7576854  )
        20           Ti1 tau(  20) = (   0.0190008   1.3629876  15.8180984  )
        21           O1  tau(  21) = (   3.2904802   0.0005063   4.7018136  )
        22           O1  tau(  22) = (   0.0120025   0.1123878  17.2186474  )
        23           O1  tau(  23) = (   1.3043587   1.4918075   6.0039043  )
        24           O1  tau(  24) = (   5.2767064   1.4903225   6.0039473  )
        25           Ti1 tau(  25) = (   0.0000382   5.9609847   6.0000000  )
        26           Ti1 tau(  26) = (   3.2902200   4.4714249   6.0002472  )
        27           O1  tau(  27) = (   0.0002396   2.9813036   7.9858123  )
        28           O1  tau(  28) = (   3.2902150   2.9813002   7.3038282  )
        29           O1  tau(  29) = (   4.5938453   4.4726049   9.2879030  )
        30           O1  tau(  30) = (   1.9864658   4.4711199   9.2879459  )
        31           Ti1 tau(  31) = (   3.2891106   5.8743827   9.1763621  )
        32           Ti1 tau(  32) = (   0.0006254   4.4649316   9.2693709  )
        33           O1  tau(  33) = (   3.3015003   2.9799855  11.3692792  )
        34           O1  tau(  34) = (   0.0092240   2.9805883  10.6323155  )
        35           O1  tau(  35) = (   1.3024855   4.4701597  12.6493271  )
        36           O1  tau(  36) = (   5.3029933   4.4710749  12.6473438  )
        37           Ti1 tau(  37) = (   0.0213219   5.9581237  12.5009821  )
        38           Ti1 tau(  38) = (   3.3165689   4.4756321  12.5216884  )
        39           O1  tau(  39) = (   0.0062450   3.0260372  14.9395602  )
        40           O1  tau(  40) = (   3.3068494   3.0035608  13.9656762  )
        41           O1  tau(  41) = (   4.5532872   4.4785133  16.2063021  )
        42           O1  tau(  42) = (   2.0453360   4.4758230  16.1992630  )
        43           Ti1 tau(  43) = (   3.3068391   0.0190840  15.7907057  )
        44           Ti1 tau(  44) = (   0.0173475   4.5946531  16.0781683  )
        45           O1  tau(  45) = (   3.2900926   2.9813045   4.7018136  )
        46           O1  tau(  46) = (   1.3039711   4.4726057   6.0039043  )
        47           O1  tau(  47) = (   5.2763189   4.4711207   6.0039473  )
        48           N1  tau(  48) = (   0.0050225   3.2346995  17.9653954  )
        49           C1  tau(  49) = (   6.5749124   2.4458835  18.8135322  )
        50           H1  tau(  50) = (   6.5624368   1.6931146  19.5645906  )

     number of k points=    10  Fermi-Dirac smearing, width (Ry)=  0.0073
                       cart. coord. in units 2pi/alat
        k(    1) = (   0.0000000   0.0000000   0.0000000), wk =   0.1250000
        k(    2) = (   0.0000000   0.0419351   0.0000000), wk =   0.2500000
        k(    3) = (   0.0000000  -0.0838702   0.0000000), wk =   0.1250000
        k(    4) = (   0.0379955   0.0000049   0.0000000), wk =   0.2500000
        k(    5) = (   0.0379955   0.0419400   0.0000000), wk =   0.2500000
        k(    6) = (   0.0379955  -0.0838652   0.0000000), wk =   0.2500000
        k(    7) = (   0.0379955  -0.0419301   0.0000000), wk =   0.2500000
        k(    8) = (  -0.0759910  -0.0000099   0.0000000), wk =   0.1250000
        k(    9) = (  -0.0759910   0.0419252   0.0000000), wk =   0.2500000
        k(   10) = (  -0.0759910  -0.0838800   0.0000000), wk =   0.1250000

     Initial potential from superposition of free atoms

     starting charge  371.99919, renormalised to  388.00000

     negative rho (up, down):  1.809E-02 0.000E+00

     %%%%%%%%%%%%%%%%%%%%%%%%%%%%%%%%%%%%%%%%%%%%%%%%%%%%%%%%%%%%%%%%%%%%%%%%
     %                                                                      %
     % You are using vdW-DF, which was implemented by the Thonhauser group. %
     % Please cite the following two papers that made this development      %
     % possible and the two reviews that describe the various versions:     %
     %                                                                      %
     %   T. Thonhauser et al., PRL 115, 136402 (2015).                      %
     %   T. Thonhauser et al., PRB 76, 125112 (2007).                       %
     %   K. Berland et al., Rep. Prog. Phys. 78, 066501 (2015).             %
     %   D.C. Langreth et al., J. Phys.: Condens. Matter 21, 084203 (2009). %
     %                                                                      %
     %                                                                      %
     % If you are calculating the stress with vdW-DF, please also cite:     %
     %                                                                      %
     %   R. Sabatini et al., J. Phys.: Condens. Matter 24, 424209 (2012).   %
     %                                                                      %
     %%%%%%%%%%%%%%%%%%%%%%%%%%%%%%%%%%%%%%%%%%%%%%%%%%%%%%%%%%%%%%%%%%%%%%%%

     Adding external electric field

     Computed dipole along edir(3) :
        Dipole               -4.8585 Ry au,        -12.3490 Debye
        Dipole field         -0.0092 Ry au,

        Potential amp.        0.8499 Ry
        Total length         46.3494 bohr

     Starting wfcs are  293 atomic wfcs
  @ DRIVER MODE: Message from server: STATUS
  @ DRIVER MODE: Message from server: POSDATA
  @ DRIVER MODE: Reading and sharing cell
  @ DRIVER MODE: Reading and sharing positions
  @ DRIVER MODE: Received positions

     Self-consistent Calculation

     iteration #  1     ecut=    29.40 Ry     beta= 0.05
     Davidson diagonalization with overlap
     c_bands:  5 eigenvalues not converged
     c_bands:  5 eigenvalues not converged
     c_bands:  4 eigenvalues not converged
     c_bands:  5 eigenvalues not converged
     c_bands:  3 eigenvalues not converged
     c_bands:  5 eigenvalues not converged
     c_bands:  4 eigenvalues not converged
     c_bands:  3 eigenvalues not converged
     c_bands:  1 eigenvalues not converged
     ethr =  1.00E-05,  avg # of iterations = 20.0

[...]

     total energy              =   -2846.11444192 Ry
     estimated scf accuracy    <     790.52205648 Ry

     iteration #  2     ecut=    29.40 Ry     beta= 0.05
     Davidson diagonalization with overlap
     ethr =  1.00E-02,  avg # of iterations = 15.5

[...]

     iteration # 68     ecut=    29.40 Ry     beta= 0.05
     Davidson diagonalization with overlap
     c_bands:  2 eigenvalues not converged
     ethr =  4.36E-11,  avg # of iterations = 13.7

[...]

     total energy              =   -2916.61461596 Ry
     estimated scf accuracy    <       0.00000008 Ry

     iteration # 69     ecut=    29.40 Ry     beta= 0.05
     Davidson diagonalization with overlap
     ethr =  1.97E-11,  avg # of iterations =  5.3

     negative rho (up, down):  1.829E-02 0.000E+00

     Adding external electric field

     Computed dipole along edir(3) :
        Dipole                1.5063 Ry au,          3.8287 Debye
        Dipole field          0.0028 Ry au,

        Potential amp.       -0.2635 Ry
        Total length         46.3494 bohr

     End of self-consistent calculation

          k = 0.0000 0.0000 0.0000 ( 18029 PWs)   bands (ev):

   -55.4520 -55.4160 -55.4082 -55.3741 -55.3305 -55.3268 -55.2908 -55.2704
   -55.2562 -55.2481 -55.2379 -55.2360 -55.2043 -55.1421 -54.4344 -54.4003
   -32.0184 -31.9001 -31.8495 -31.8154 -31.7610 -31.7597 -31.7542 -31.7424
   -31.6975 -31.6832 -31.6607 -31.6531 -31.6465 -31.6223 -31.6057 -31.5925
   -31.5887 -31.5734 -31.5686 -31.5605 -31.5397 -31.5294 -31.5215 -31.5063
   -31.5008 -31.4768 -31.4727 -31.4654 -31.4577 -31.4543 -31.4468 -31.4358
   -31.4300 -31.4217 -31.4188 -31.4165 -31.3843 -31.3688 -31.3662 -31.3492
   -31.3485 -31.2622 -30.8437 -30.7498 -30.7277 -30.6600 -30.5733 -30.4624
   -17.3366 -16.2678 -15.9991 -15.8454 -15.7410 -15.6465 -15.5111 -15.4929
   -15.3681 -15.2777 -15.1558 -15.1017 -15.0827 -15.0629 -15.0550 -15.0382
   -14.9931 -14.9886 -14.9575 -14.9460 -14.9232 -14.8859 -14.8803 -14.8470
   -14.8279 -14.7547 -14.6827 -14.6066 -14.5404 -14.2332 -12.9371 -12.8197
    -9.0592  -4.6829  -3.6107  -3.4735  -3.4637  -3.3633  -3.3463  -3.2603
    -3.2021  -3.1946  -3.0310  -2.8514  -2.7886  -2.7151  -2.6519  -2.6398
    -2.6108  -2.4511  -2.4132  -2.3628  -2.3094  -2.2846  -2.2583  -2.2353
    -2.1994  -2.1821  -2.1766  -2.1695  -2.0145  -1.9400  -1.9097  -1.8593
    -1.8431  -1.7913  -1.7694  -1.7370  -1.7334  -1.7266  -1.6757  -1.6584
    -1.6241  -1.5253  -1.4708  -1.3355  -1.2936  -1.1505  -1.0887  -1.0256
    -1.0132  -0.9347  -0.8946  -0.8862  -0.8327  -0.8012  -0.7873  -0.6642
    -0.5614  -0.5150  -0.4585  -0.4293  -0.3815  -0.3456  -0.2538  -0.2313
    -0.2148  -0.2034  -0.0601  -0.0344   0.0496   0.0736   0.1058   0.1068
     0.2151   0.2282   0.3022   0.3509   0.3820   0.4412   0.4913   0.4944
     0.5168   0.5400   0.5494   0.6420   0.6619   0.6751   0.7454   0.8907
     1.1244   1.1626   1.1762   1.4948   1.5075   1.5881   1.7725   2.1641
     2.2122   3.6462   3.7183   3.7880   3.7969   3.8365   3.8831   4.1132
     4.1273   4.1473   4.1535   4.1881

[...]

          k = 0.0380-0.0419 0.0000 ( 17876 PWs)   bands (ev):

[...]

          k =-0.0760-0.0000 0.0000 ( 17886 PWs)   bands (ev):

[...]

          k =-0.0760-0.0839 0.0000 ( 17948 PWs)   bands (ev):

   -55.4355 -55.4323 -55.3913 -55.3909 -55.3267 -55.3142 -55.3034 -55.2543
   -55.2533 -55.2518 -55.2517 -55.2214 -55.2211 -55.1449 -54.4174 -54.4171
   -31.8233 -31.8208 -31.7732 -31.7267 -31.7154 -31.7150 -31.7029 -31.6830
   -31.6827 -31.6597 -31.6503 -31.6474 -31.6374 -31.5949 -31.5874 -31.5840
   -31.5817 -31.5780 -31.5767 -31.5703 -31.5386 -31.5356 -31.5285 -31.5276
   -31.5176 -31.5109 -31.5107 -31.5097 -31.4963 -31.4871 -31.4845 -31.4814
   -31.4677 -31.4648 -31.4513 -31.4491 -31.4451 -31.4406 -31.4017 -31.4014
   -31.3539 -31.3519 -30.7405 -30.7402 -30.6563 -30.6561 -30.6168 -30.6166
   -17.3306 -15.7805 -15.6723 -15.6398 -15.4585 -15.4479 -15.4114 -15.3995
   -15.2562 -15.2110 -15.2064 -15.1939 -15.1485 -15.1436 -15.1426 -15.1160
   -15.0479 -15.0417 -15.0370 -15.0207 -14.9648 -14.9534 -14.9504 -14.9335
   -14.9021 -14.8981 -14.8040 -14.8008 -14.6907 -14.5886 -12.9213 -12.9211
    -9.0567  -4.6697  -3.3721  -3.2160  -2.9422  -2.9059  -2.9016  -2.6688
    -2.6410  -2.6095  -2.5643  -2.4931  -2.4458  -2.4214  -2.4205  -2.3527
    -2.3038  -2.2965  -2.2887  -2.2714  -2.2628  -2.2433  -2.2086  -2.1764
    -2.1666  -2.1367  -2.1203  -2.1027  -2.0842  -2.0484  -2.0354  -2.0104
    -2.0054  -1.9003  -1.8787  -1.7968  -1.7548  -1.7229  -1.6540  -1.6483
    -1.5453  -1.5415  -1.4889  -1.4773  -1.4349  -1.3301  -1.2445  -1.1946
    -1.1901  -1.1808  -1.0741  -1.0124  -0.9828  -0.9494  -0.9245  -0.8411
    -0.7851  -0.7655  -0.7234  -0.6407  -0.6350  -0.5718  -0.4704  -0.4282
    -0.4125  -0.4074  -0.3837  -0.3337  -0.3224  -0.2603  -0.2173  -0.1823
    -0.1715  -0.1257   0.0848   0.0887   0.1359   0.2472   0.2908   0.4370
     0.5140   0.5329   0.6081   0.6442   0.6667   0.7340   0.8422   0.8593
     0.8750   0.9437   0.9830   1.0068   1.0163   1.9452   1.9458   2.0321
     2.0322   3.7666   3.8826   3.9153   3.9636   4.0076   4.0615   4.1663
     4.1870   4.2296   4.2309   4.3027

     the Fermi energy is     3.7057 ev

!    total energy              =   -2916.61463598 Ry
     estimated scf accuracy    <       0.00000006 Ry
     smearing contrib. (-TS)   =      -0.03748299 Ry
     internal energy E=F+TS    =   -2916.57715299 Ry

     The total energy is F=E-TS. E is the sum of the following terms:
     one-electron contribution =  -24444.44092052 Ry
     hartree contribution      =   12309.63192738 Ry
     xc contribution           =    -478.35858424 Ry
     ewald contribution        =    9696.58614236 Ry
     electric field correction =       0.00428203 Ry

     convergence has been achieved in  69 iterations

     Forces acting on atoms (cartesian axes, Ry/au):

     atom    1 type  1   force =    -0.00000077   -0.00030218    0.09342424
     atom    2 type  1   force =    -0.00017677   -0.00047032   -0.17792914
     atom    3 type  2   force =     0.00002286   -0.00034358   -0.02063083
     atom    4 type  2   force =    -0.00003618   -0.00186899    0.05838958
     atom    5 type  2   force =    -0.01036089   -0.00073931    0.00709167
     atom    6 type  2   force =     0.01202525   -0.00014036    0.00686214
     atom    7 type  1   force =    -0.00011269    0.00192130   -0.01366596
     atom    8 type  1   force =    -0.00009759    0.00177010   -0.00206710
     atom    9 type  2   force =    -0.00004734   -0.00045068   -0.00036565
     atom   10 type  2   force =    -0.00120145    0.00258328   -0.00301980
     atom   11 type  2   force =    -0.00067869   -0.00012293    0.00009423
     atom   12 type  2   force =     0.00051630   -0.00008180   -0.00009893
     atom   13 type  1   force =    -0.00006918   -0.00003195    0.00015074
     atom   14 type  1   force =    -0.00002313   -0.00004446    0.00031430
     atom   15 type  2   force =    -0.00010868    0.00048892   -0.00016790
     atom   16 type  2   force =    -0.00002797   -0.00010757   -0.00025957
     atom   17 type  2   force =     0.00053955    0.00000805   -0.00022772
     atom   18 type  2   force =    -0.00009565   -0.00000741    0.00014966
     atom   19 type  1   force =    -0.00027261    0.00048081    0.00052114
     atom   20 type  1   force =    -0.00014049    0.00022102    0.00063893
     atom   21 type  2   force =    -0.00002297   -0.00012534    0.10391096
     atom   22 type  2   force =    -0.00007348    0.00084280    0.00001970
     atom   23 type  2   force =    -0.07052470   -0.00021084   -0.02694814
     atom   24 type  2   force =     0.07030941    0.00022996   -0.02699784
     atom   25 type  1   force =     0.00000884   -0.00033584    0.09301112
     atom   26 type  1   force =    -0.00019125   -0.00053823   -0.17814286
     atom   27 type  2   force =     0.00006131   -0.00023797   -0.01963943
     atom   28 type  2   force =     0.00001311   -0.00164086    0.05785586
     atom   29 type  2   force =    -0.01086350   -0.00057172    0.00758599
     atom   30 type  2   force =     0.01239008   -0.00022445    0.00733062
     atom   31 type  1   force =    -0.00003914    0.00594210   -0.01474600
     atom   32 type  1   force =    -0.00012321   -0.00213698   -0.00201728
     atom   33 type  2   force =     0.00002030   -0.00005775   -0.00032878
     atom   34 type  2   force =    -0.00064631   -0.00100132   -0.00065441
     atom   35 type  2   force =    -0.00013407   -0.00007445    0.00009752
     atom   36 type  2   force =    -0.00006119   -0.00001367    0.00017416
     atom   37 type  1   force =     0.00022054   -0.00076770    0.00020469
     atom   38 type  1   force =    -0.00005021   -0.00009415    0.00027478
     atom   39 type  2   force =     0.00011597   -0.00045730    0.00000812
     atom   40 type  2   force =    -0.00021848   -0.00012347   -0.00054706
     atom   41 type  2   force =     0.00008770   -0.00008203   -0.00065703
     atom   42 type  2   force =     0.00033042    0.00014134   -0.00024372
     atom   43 type  1   force =    -0.00014588   -0.00015879    0.00038446
     atom   44 type  1   force =     0.00009164    0.00014216    0.00079484
     atom   45 type  2   force =    -0.00002373   -0.00014827    0.10387596
     atom   46 type  2   force =    -0.07050190   -0.00018136   -0.02693368
     atom   47 type  2   force =     0.07029742    0.00024782   -0.02698916
     atom   48 type  3   force =     0.00001409   -0.02116028    0.02225769
     atom   49 type  4   force =    -0.00003696    0.02150540   -0.02204940
     atom   50 type  5   force =     0.00004224   -0.00147072   -0.00009571

     Total force =     0.368492     Total SCF correction =     0.000515
  @ DRIVER MODE: Message from server: STATUS
  @ DRIVER MODE: Message from server: GETFORCE
  @ DRIVER MODE: Returning v,forces,stress,ensemble

     Writing output data file ./calc.save/
  @ DRIVER MODE: Message from server: EXIT
  @ DRIVE MODE: Exiting

     General routines

     Parallel routines

   This run was terminated on:  23:24:41   8Sep2021

   JOB DONE.