     Program PWSCF v.6.7GPU starts on 11Sep2021 at  1:18:37

     R & G space division:  proc/nbgrp/npool/nimage =      10
     Reading input from /storage/home/hcoda1/3/ntian30/research/carbon/CxH_vib/CH2_calc/ads_slab/CH2O_c/out_0021/pw.inp
Warning: card &CELL ignored
Warning: card   CELL_DYNAMICS='IPI', ignored
Warning: card / ignored

     Current dimensions of program PWSCF are:
     Max number of different atomic species (ntypx) = 10
     Max number of k-points (npk) =  40000
     Max angular momentum in pseudopotentials (lmaxx) =  3
     Presently no symmetry can be used with electric field

     Message from routine cell_base_init:
     DEPRECATED: use true lattice parameter, not A to a.u. conversion factor

     IMPORTANT: XC functional enforced from input :
     Exchange-correlation= BEEF-VDW
                           (   1   4  43  14   2   0   0)
     Any further DFT definition will be discarded
     Please, verify this is what you really want

  @ DRIVER MODE: Connecting to
 qe_1139763_2792043.sched-torque.pace.gatech.edufv0mnxhi_scratch
  using UNIX socket
  @ DRIVER MODE: Message from server: STATUS
  @ DRIVER MODE: Message from server: INIT
  @ DRIVER MODE: Receiving replica           0          -1
  @ DRIVER MODE: Receiving encoded integer          25
  @ DRIVER MODE:  SCF:  T  FORCE:  T  STRESS:  F  VC:  F  ENSEMBLE:  F
  @ DRIVER MODE:  SCF:  T  FORCE:  T  STRESS:  F  VC:  F  ENSEMBLE:  F

     Using Slab Decomposition

     bravais-lattice index     =            0
     lattice parameter (alat)  =       1.8897  a.u.
     unit-cell volume          =    6658.9804 (a.u.)^3
     number of atoms/cell      =           51
     number of atomic types    =            4
     number of electrons       =       390.00
     number of Kohn-Sham states=          205
     kinetic-energy cutoff     =      29.3995  Ry
     charge density cutoff     =     293.9946  Ry
     scf convergence threshold =      7.3E-08
     mixing beta               =       0.0500
     number of iterations used =            8  plain     mixing
     Exchange-correlation= BEEF-VDW
                           (   1   4  43  14   2   0   0)

     celldm(1)=   1.889726  celldm(2)=   0.000000  celldm(3)=   0.000000
     celldm(4)=   0.000000  celldm(5)=   0.000000  celldm(6)=   0.000000

     crystal axes: (cart. coord. in units of alat)
               a(1) = (   6.579727   0.000000   0.000000 )
               a(2) = (  -0.000775   5.961596   0.000000 )
               a(3) = (   0.000000   0.000000  25.155947 )

     reciprocal axes: (cart. coord. in units 2 pi/alat)
               b(1) = (  0.151982  0.000020  0.000000 )
               b(2) = (  0.000000  0.167740  0.000000 )
               b(3) = (  0.000000  0.000000  0.039752 )

     PseudoPot. # 1 for O  read from file:
     /storage/coda1/p-amedford6/0/shared/rich_project_chbe-medford/medford-share/data/pseudos_module/espresso/nninc/pbe/van/O.UPF
     MD5 check sum: 78c19812648e8988a0fe644b0f25305e
     Pseudo is Ultrasoft, Zval =  6.0
     Generated by new atomic code, or converted to UPF format
     Using radial grid of  737 points,  4 beta functions with:
                l(1) =   0
                l(2) =   0
                l(3) =   1
                l(4) =   1
     Q(r) pseudized with  8 coefficients,  rinner =    0.800   0.800   0.800

     PseudoPot. # 2 for Ti read from file:
     /storage/coda1/p-amedford6/0/shared/rich_project_chbe-medford/medford-share/data/pseudos_module/espresso/nninc/pbe/van/Ti.UPF
     MD5 check sum: 8e4df49b7f0d34bbd5052bf3f5ea0213
     Pseudo is Ultrasoft, Zval = 12.0
     Generated by new atomic code, or converted to UPF format
     Using radial grid of  851 points,  6 beta functions with:
                l(1) =   0
                l(2) =   0
                l(3) =   1
                l(4) =   1
                l(5) =   2
                l(6) =   2
     Q(r) pseudized with  8 coefficients,  rinner =    1.000   1.000   1.000
                                                       1.000   1.000

     PseudoPot. # 3 for C  read from file:
     /storage/coda1/p-amedford6/0/shared/rich_project_chbe-medford/medford-share/data/pseudos_module/espresso/nninc/pbe/van/C.UPF
     MD5 check sum: 1a69bf6b8db32088f5b2163dbdb77a27
     Pseudo is Ultrasoft, Zval =  4.0
     Generated by new atomic code, or converted to UPF format
     Using radial grid of  721 points,  4 beta functions with:
                l(1) =   0
                l(2) =   0
                l(3) =   1
                l(4) =   1
     Q(r) pseudized with  8 coefficients,  rinner =    0.800   0.800   0.800

     PseudoPot. # 4 for H  read from file:
     /storage/coda1/p-amedford6/0/shared/rich_project_chbe-medford/medford-share/data/pseudos_module/espresso/nninc/pbe/van/H.UPF
     MD5 check sum: b5ee9d7bfd3a09ee7748110bda690ff7
     Pseudo is Ultrasoft, Zval =  1.0
     Generated by new atomic code, or converted to UPF format
     Using radial grid of  615 points,  1 beta functions with:
                l(1) =   0
     Q(r) pseudized with  8 coefficients,  rinner =    0.800

     atomic species   valence    mass     pseudopotential
        O1             6.00    15.99900     O ( 1.00)
        Ti1           12.00    47.86700     Ti( 1.00)
        C1             4.00    12.01100     C ( 1.00)
        H1             1.00     1.00800     H ( 1.00)

     No symmetry found

   Cartesian axes

     site n.     atom                  positions (alat units)
         1           O1  tau(   1) = (   3.2904802   0.0005063   4.7018136  )
         2           O1  tau(   2) = (   3.2900926   2.9813045   4.7018136  )
         3           Ti1 tau(   3) = (   0.0004258   2.9801865   6.0000000  )
         4           Ti1 tau(   4) = (   0.0000382   5.9609847   6.0000000  )
         5           Ti1 tau(   5) = (   3.2906075   1.4906267   6.0002472  )
         6           Ti1 tau(   6) = (   3.2902200   4.4714249   6.0002472  )
         7           O1  tau(   7) = (   1.3043587   1.4918075   6.0039043  )
         8           O1  tau(   8) = (   1.3039711   4.4726057   6.0039043  )
         9           O1  tau(   9) = (   5.2767064   1.4903225   6.0039473  )
        10           O1  tau(  10) = (   5.2763189   4.4711207   6.0039473  )
        11           O1  tau(  11) = (   3.2906025   0.0005020   7.3038282  )
        12           O1  tau(  12) = (   3.2902150   2.9813002   7.3038282  )
        13           O1  tau(  13) = (   0.0006271   0.0005054   7.9858123  )
        14           O1  tau(  14) = (   0.0002396   2.9813036   7.9858123  )
        15           Ti1 tau(  15) = (   3.3026304   0.0558743   9.1529855  )
        16           Ti1 tau(  16) = (   3.3164045   3.0327615   9.1572159  )
        17           Ti1 tau(  17) = (   0.0278175   4.5359734   9.2551557  )
        18           Ti1 tau(  18) = (   0.0245227   1.6138560   9.3625275  )
        19           O1  tau(  19) = (   4.5942328   1.4918067   9.2879030  )
        20           O1  tau(  20) = (   4.5938453   4.4726049   9.2879030  )
        21           O1  tau(  21) = (   1.9868534   1.4903216   9.2879459  )
        22           O1  tau(  22) = (   1.9864658   4.4711199   9.2879459  )
        23           O1  tau(  23) = (   0.0082563   0.0105963  10.6032901  )
        24           O1  tau(  24) = (   0.0079484   2.9900140  10.5841352  )
        25           O1  tau(  25) = (   3.3038251   2.9929121  11.3473413  )
        26           O1  tau(  26) = (   3.3033308   0.0102956  11.3494618  )
        27           Ti1 tau(  27) = (   0.0317432   0.0173395  12.5007832  )
        28           Ti1 tau(  28) = (   3.3306627   4.4867663  12.4909107  )
        29           Ti1 tau(  29) = (   3.3307827   1.5098530  12.4883691  )
        30           Ti1 tau(  30) = (   0.0330478   2.9976760  12.7859357  )
        31           O1  tau(  31) = (   1.3012438   4.4818129  12.6408784  )
        32           O1  tau(  32) = (   1.3024292   1.5014896  12.6394904  )
        33           O1  tau(  33) = (   5.3013637   4.4812751  12.6442516  )
        34           O1  tau(  34) = (   5.3009141   1.5012301  12.6421300  )
        35           O1  tau(  35) = (   3.3022887   2.9886358  13.9251823  )
        36           O1  tau(  36) = (   3.3062039   0.0095056  13.9482717  )
        37           O1  tau(  37) = (   0.0260699   0.0177473  14.6866479  )
        38           O1  tau(  38) = (   0.0273203   2.9953000  14.7270975  )
        39           Ti1 tau(  39) = (   3.3120190   2.9903054  15.7171600  )
        40           Ti1 tau(  40) = (   3.3230935   0.0106652  15.7391692  )
        41           Ti1 tau(  41) = (   0.0328368   4.5824378  15.9539421  )
        42           Ti1 tau(  42) = (   0.0326753   1.3890416  16.0019494  )
        43           O1  tau(  43) = (   4.5622593   4.4711273  16.0916796  )
        44           O1  tau(  44) = (   4.5612194   1.5125715  16.1009491  )
        45           O1  tau(  45) = (   2.0595944   1.5153445  16.1103626  )
        46           O1  tau(  46) = (   2.0577381   4.4687033  16.1006481  )
        47           O1  tau(  47) = (   0.0167757   0.0040543  17.2075325  )
        48           O1  tau(  48) = (   6.5679879   3.0050237  17.4360139  )
        49           C1  tau(  49) = (   6.3840651   3.0748419  18.6981053  )
        50           H1  tau(  50) = (   6.3009919   4.0539401  19.1613311  )
        51           H1  tau(  51) = (   6.3054763   2.1476074  19.2739789  )

     number of k points=    10  Fermi-Dirac smearing, width (Ry)=  0.0073
                       cart. coord. in units 2pi/alat
        k(    1) = (   0.0000000   0.0000000   0.0000000), wk =   0.1250000
        k(    2) = (   0.0000000   0.0419351   0.0000000), wk =   0.2500000
        k(    3) = (   0.0000000  -0.0838702   0.0000000), wk =   0.1250000
        k(    4) = (   0.0379955   0.0000049   0.0000000), wk =   0.2500000
        k(    5) = (   0.0379955   0.0419400   0.0000000), wk =   0.2500000
        k(    6) = (   0.0379955  -0.0838652   0.0000000), wk =   0.2500000
        k(    7) = (   0.0379955  -0.0419301   0.0000000), wk =   0.2500000
        k(    8) = (  -0.0759910  -0.0000099   0.0000000), wk =   0.1250000
        k(    9) = (  -0.0759910   0.0419252   0.0000000), wk =   0.2500000
        k(   10) = (  -0.0759910  -0.0838800   0.0000000), wk =   0.1250000

     Initial potential from superposition of free atoms

     starting charge  373.99919, renormalised to  390.00000

     negative rho (up, down):  1.844E-02 0.000E+00

     %%%%%%%%%%%%%%%%%%%%%%%%%%%%%%%%%%%%%%%%%%%%%%%%%%%%%%%%%%%%%%%%%%%%%%%%
     %                                                                      %
     % You are using vdW-DF, which was implemented by the Thonhauser group. %
     % Please cite the following two papers that made this development      %
     % possible and the two reviews that describe the various versions:     %
     %                                                                      %
     %   T. Thonhauser et al., PRL 115, 136402 (2015).                      %
     %   T. Thonhauser et al., PRB 76, 125112 (2007).                       %
     %   K. Berland et al., Rep. Prog. Phys. 78, 066501 (2015).             %
     %   D.C. Langreth et al., J. Phys.: Condens. Matter 21, 084203 (2009). %
     %                                                                      %
     %                                                                      %
     % If you are calculating the stress with vdW-DF, please also cite:     %
     %                                                                      %
     %   R. Sabatini et al., J. Phys.: Condens. Matter 24, 424209 (2012).   %
     %                                                                      %
     %%%%%%%%%%%%%%%%%%%%%%%%%%%%%%%%%%%%%%%%%%%%%%%%%%%%%%%%%%%%%%%%%%%%%%%%

     Adding external electric field

     Computed dipole along edir(3) :
        Dipole               -5.1802 Ry au,        -13.1669 Debye
        Dipole field         -0.0098 Ry au,

        Potential amp.        0.9062 Ry
        Total length         46.3494 bohr

     Starting wfcs are  294 atomic wfcs
  @ DRIVER MODE: Message from server: STATUS
  @ DRIVER MODE: Message from server: POSDATA
  @ DRIVER MODE: Reading and sharing cell
  @ DRIVER MODE: Reading and sharing positions
  @ DRIVER MODE: Received positions

     Self-consistent Calculation

     iteration #  1     ecut=    29.40 Ry     beta= 0.05
     Davidson diagonalization with overlap
     c_bands:  5 eigenvalues not converged
     c_bands:  3 eigenvalues not converged
     c_bands:  2 eigenvalues not converged
     c_bands:  1 eigenvalues not converged
     c_bands:  2 eigenvalues not converged
     c_bands:  2 eigenvalues not converged
     c_bands:  3 eigenvalues not converged
     c_bands:  2 eigenvalues not converged
     ethr =  1.00E-05,  avg # of iterations = 21.8

[...]

     total energy              =   -2822.99552720 Ry
     estimated scf accuracy    <    1182.22636937 Ry

     iteration #  2     ecut=    29.40 Ry     beta= 0.05
     Davidson diagonalization with overlap
     ethr =  1.00E-02,  avg # of iterations = 16.8

[...]

     iteration # 62     ecut=    29.40 Ry     beta= 0.05
     Davidson diagonalization with overlap
     ethr =  3.83E-11,  avg # of iterations =  3.2

[...]

     total energy              =   -2930.16719394 Ry
     estimated scf accuracy    <       0.00000020 Ry

     iteration # 63     ecut=    29.40 Ry     beta= 0.05
     Davidson diagonalization with overlap
     c_bands:  1 eigenvalues not converged
     ethr =  3.83E-11,  avg # of iterations = 12.0

     negative rho (up, down):  1.726E-02 0.000E+00

     Adding external electric field

     Computed dipole along edir(3) :
        Dipole                0.9329 Ry au,          2.3713 Debye
        Dipole field          0.0018 Ry au,

        Potential amp.       -0.1632 Ry
        Total length         46.3494 bohr

     End of self-consistent calculation

          k = 0.0000 0.0000 0.0000 ( 18029 PWs)   bands (ev):

   -55.8207 -55.8094 -55.7844 -55.7732 -55.7113 -55.6970 -55.6744 -55.6021
   -55.6008 -55.5899 -55.5795 -55.5563 -55.5248 -55.4867 -54.8470 -54.8129
   -32.3791 -32.2932 -32.1877 -32.1712 -32.1268 -32.1223 -32.1154 -32.0966
   -32.0693 -32.0521 -32.0500 -32.0237 -31.9939 -31.9910 -31.9793 -31.9577
   -31.9416 -31.9409 -31.9314 -31.9150 -31.8927 -31.8863 -31.8839 -31.8722
   -31.8632 -31.8457 -31.8442 -31.8207 -31.8156 -31.8149 -31.7897 -31.7621
   -31.7564 -31.7342 -31.7333 -31.7304 -31.7089 -31.7086 -31.6948 -31.6779
   -31.6756 -31.6750 -31.2572 -31.1593 -31.1371 -31.0737 -30.9877 -30.8765
   -19.8435 -16.5907 -16.2968 -16.1506 -16.0165 -15.9674 -15.8521 -15.6946
   -15.6157 -15.5495 -15.4938 -15.4413 -15.4040 -15.4027 -15.3733 -15.3600
   -15.3542 -15.3468 -15.2725 -15.2705 -15.2360 -15.2183 -15.2074 -15.1184
   -15.0577 -14.9974 -14.9511 -14.8929 -14.8395 -14.8261 -13.3480 -13.2296
    -9.2765  -5.5298  -5.5095  -3.9398  -3.7631  -3.7238  -3.7083  -3.6513
    -3.5312  -3.4233  -3.3962  -3.1059  -3.0183  -2.9883  -2.9776  -2.9649
    -2.8229  -2.7793  -2.6652  -2.6623  -2.6507  -2.6460  -2.6259  -2.5905
    -2.5833  -2.5392  -2.5166  -2.4078  -2.3676  -2.2581  -2.2444  -2.2150
    -2.1563  -2.1312  -2.1005  -2.0873  -2.0578  -2.0538  -2.0514  -2.0066
    -1.9060  -1.8180  -1.7501  -1.6687  -1.6303  -1.5381  -1.3792  -1.3097
    -1.2688  -1.2338  -1.1844  -1.1653  -1.1351  -1.1131  -1.0896  -1.0804
    -0.9841  -0.8720  -0.8618  -0.7633  -0.7028  -0.6850  -0.6696  -0.5784
    -0.5597  -0.5491  -0.4558  -0.3140  -0.3043  -0.3001  -0.1815  -0.1505
    -0.1274  -0.0826  -0.0577  -0.0231   0.0076   0.0624   0.1070   0.1175
     0.1643   0.1821   0.2075   0.3088   0.3612   0.3730   0.4269   0.4640
     0.6452   0.6658   0.8071   0.8728   1.0791   1.1773   1.2327   1.3461
     1.7650   1.8228   3.3447   3.3761   3.4011   3.4508   3.4968   3.5390
     3.5918   3.7870   3.8044   3.8133   3.8379

[...]

          k = 0.0380-0.0419 0.0000 ( 17876 PWs)   bands (ev):

[...]

          k =-0.0760-0.0000 0.0000 ( 17886 PWs)   bands (ev):

[...]

          k =-0.0760-0.0839 0.0000 ( 17948 PWs)   bands (ev):

   -55.8089 -55.7961 -55.7915 -55.7908 -55.7015 -55.6937 -55.6841 -55.6051
   -55.5974 -55.5758 -55.5733 -55.5708 -55.5310 -55.4892 -54.8305 -54.8293
   -32.1805 -32.1802 -32.1166 -32.1032 -32.1017 -32.0964 -32.0820 -32.0768
   -32.0624 -32.0332 -32.0252 -32.0108 -31.9942 -31.9574 -31.9464 -31.9377
   -31.9362 -31.9332 -31.9251 -31.9215 -31.9042 -31.9015 -31.8981 -31.8971
   -31.8941 -31.8911 -31.8791 -31.8564 -31.8290 -31.8281 -31.8274 -31.8055
   -31.8007 -31.7832 -31.7802 -31.7738 -31.7708 -31.7700 -31.7431 -31.7165
   -31.7092 -31.6844 -31.1505 -31.1490 -31.0706 -31.0696 -31.0313 -31.0302
   -19.8357 -16.0227 -15.9922 -15.8755 -15.7624 -15.7495 -15.7069 -15.6639
   -15.6160 -15.5576 -15.5547 -15.5066 -15.4875 -15.4835 -15.4388 -15.4061
   -15.3579 -15.3519 -15.3408 -15.3397 -15.2860 -15.2824 -15.2358 -15.2284
   -15.2077 -15.1687 -15.1653 -15.0950 -15.0610 -15.0047 -13.3319 -13.3297
    -9.2774  -5.5145  -5.4843  -3.5576  -3.3114  -3.2780  -3.1082  -2.9801
    -2.9704  -2.9120  -2.8280  -2.7907  -2.7459  -2.6962  -2.6930  -2.6710
    -2.6588  -2.6448  -2.6409  -2.6328  -2.5873  -2.5675  -2.5260  -2.4822
    -2.4744  -2.4610  -2.4551  -2.4151  -2.3992  -2.3875  -2.3803  -2.3745
    -2.3034  -2.2272  -2.1557  -2.0805  -2.0277  -2.0077  -1.9765  -1.9418
    -1.9070  -1.8897  -1.8728  -1.7487  -1.7258  -1.5774  -1.5615  -1.5386
    -1.5298  -1.4759  -1.4690  -1.3481  -1.2711  -1.2651  -1.1938  -1.1755
    -1.1469  -1.0983  -1.0759  -0.9961  -0.9537  -0.9110  -0.8570  -0.7964
    -0.7846  -0.7186  -0.7083  -0.6275  -0.6070  -0.5856  -0.5809  -0.5104
    -0.4764  -0.3971  -0.3861  -0.3632  -0.2627  -0.1977  -0.1923   0.0028
     0.1745   0.1794   0.1992   0.2988   0.3294   0.3724   0.4281   0.4439
     0.5306   0.5852   0.6762   0.6963   0.7051   0.7859   1.5360   1.5370
     1.6282   1.6387   3.2990   3.5636   3.6006   3.6046   3.6651   3.8183
     3.8214   3.8385   3.8478   3.9726   3.9802

     the Fermi energy is     3.3298 ev

!    total energy              =   -2930.16722521 Ry
     estimated scf accuracy    <       0.00000005 Ry
     smearing contrib. (-TS)   =      -0.03343464 Ry
     internal energy E=F+TS    =   -2930.13379057 Ry

     The total energy is F=E-TS. E is the sum of the following terms:
     one-electron contribution =  -24668.07326878 Ry
     hartree contribution      =   12419.49092685 Ry
     xc contribution           =    -481.26300092 Ry
     ewald contribution        =    9799.70990975 Ry
     electric field correction =       0.00164254 Ry

     convergence has been achieved in  63 iterations

     Forces acting on atoms (cartesian axes, Ry/au):

     atom    1 type  1   force =    -0.00009924    0.00005152    0.10424581
     atom    2 type  1   force =    -0.00009349    0.00005202    0.10430684
     atom    3 type  2   force =    -0.00025225   -0.00195891    0.10278778
     atom    4 type  2   force =    -0.00015026    0.00159908    0.11370548
     atom    5 type  2   force =    -0.00032814    0.00058577   -0.18043043
     atom    6 type  2   force =    -0.00019679   -0.00014065   -0.18078686
     atom    7 type  1   force =    -0.06895793    0.00062665   -0.02908336
     atom    8 type  1   force =    -0.06848053   -0.00120672   -0.02912230
     atom    9 type  1   force =     0.06859280    0.00111536   -0.02916238
     atom   10 type  1   force =     0.06821145   -0.00080846   -0.02920973
     atom   11 type  1   force =     0.00037591    0.00051320    0.04561404
     atom   12 type  1   force =     0.00056733    0.00076114    0.04714314
     atom   13 type  1   force =     0.00028291   -0.00577046   -0.03303468
     atom   14 type  1   force =     0.00033360    0.00397940   -0.02580694
     atom   15 type  2   force =     0.00002880   -0.00028437    0.00026162
     atom   16 type  2   force =     0.00013418    0.00012838   -0.00008566
     atom   17 type  2   force =    -0.00021879   -0.00067100    0.00129170
     atom   18 type  2   force =    -0.00028529   -0.00036321    0.00066562
     atom   19 type  1   force =    -0.01793459    0.00014989    0.00393628
     atom   20 type  1   force =    -0.01645176    0.00130610    0.00320991
     atom   21 type  1   force =     0.01957244   -0.00097802    0.00433051
     atom   22 type  1   force =     0.01783408    0.00103220    0.00344184
     atom   23 type  1   force =    -0.00014211   -0.00026354    0.00012014
     atom   24 type  1   force =    -0.00022519    0.00003845    0.00000673
     atom   25 type  1   force =    -0.00002906   -0.00010963   -0.00088271
     atom   26 type  1   force =    -0.00011192    0.00023619   -0.00016239
     atom   27 type  2   force =    -0.00004932   -0.00075937   -0.00093523
     atom   28 type  2   force =     0.00014416    0.00067479    0.00010056
     atom   29 type  2   force =     0.00009575   -0.00087909    0.00047044
     atom   30 type  2   force =    -0.00024867    0.00136349   -0.00048807
     atom   31 type  1   force =    -0.00020057   -0.00033640    0.00040303
     atom   32 type  1   force =    -0.00024555    0.00035819    0.00001034
     atom   33 type  1   force =     0.00000019   -0.00038500    0.00050869
     atom   34 type  1   force =     0.00020209    0.00043298    0.00022477
     atom   35 type  1   force =     0.00014724   -0.00005021   -0.00137726
     atom   36 type  1   force =    -0.00006824    0.00032214   -0.00012723
     atom   37 type  1   force =    -0.00074488    0.00010557    0.00045889
     atom   38 type  1   force =     0.00006081   -0.00022911   -0.00056912
     atom   39 type  2   force =    -0.00078363    0.00065171    0.00128913
     atom   40 type  2   force =    -0.00105423   -0.00006416    0.00040941
     atom   41 type  2   force =     0.00062850   -0.00089443   -0.00075908
     atom   42 type  2   force =     0.00068556    0.00103486   -0.00077700
     atom   43 type  1   force =    -0.00032582    0.00021455    0.00057197
     atom   44 type  1   force =     0.00054571    0.00015097    0.00054269
     atom   45 type  1   force =    -0.00063061   -0.00004157    0.00040891
     atom   46 type  1   force =     0.00017362    0.00015399    0.00056945
     atom   47 type  1   force =    -0.00043847    0.00079851    0.00155864
     atom   48 type  1   force =    -0.00052276    0.00037220    0.00131250
     atom   49 type  3   force =    -0.00075386   -0.01003923    0.00346932
     atom   50 type  4   force =     0.00041645   -0.00130331    0.00062096
     atom   51 type  4   force =     0.00099036    0.00872757   -0.00519671

     Total force =     0.374706     Total SCF correction =     0.000780
  @ DRIVER MODE: Message from server: STATUS
  @ DRIVER MODE: Message from server: GETFORCE
  @ DRIVER MODE: Returning v,forces,stress,ensemble

     Writing output data file ./calc.save/
  @ DRIVER MODE: Message from server: EXIT
  @ DRIVE MODE: Exiting

     General routines

     Parallel routines

   This run was terminated on:   1:34:59  11Sep2021

   JOB DONE.