     Program PWSCF v.6.7GPU starts on  2Aug2021 at 17:34:58

     R & G space division:  proc/nbgrp/npool/nimage =      16
     Reading input from /storage/home/hcoda1/3/ntian30/research/carbon/02Aug_vib_paired/ads_slab/CH3N2_b/out_0017/pw.inp
Warning: card &CELL ignored
Warning: card   CELL_DYNAMICS='IPI', ignored
Warning: card / ignored

     Current dimensions of program PWSCF are:
     Max number of different atomic species (ntypx) = 10
     Max number of k-points (npk) =  40000
     Max angular momentum in pseudopotentials (lmaxx) =  3
     Presently no symmetry can be used with electric field

     Message from routine cell_base_init:
     DEPRECATED: use true lattice parameter, not A to a.u. conversion factor

     IMPORTANT: XC functional enforced from input :
     Exchange-correlation= BEEF-VDW
                           (   1   4  43  14   2   0   0)
     Any further DFT definition will be discarded
     Please, verify this is what you really want

  @ DRIVER MODE: Connecting to
 qe_1139763_2482536.sched-torque.pace.gatech.edudeihymv1_scratch
  using UNIX socket
  @ DRIVER MODE: Message from server: STATUS
  @ DRIVER MODE: Message from server: INIT
  @ DRIVER MODE: Receiving replica           0          -1
  @ DRIVER MODE: Receiving encoded integer          25
  @ DRIVER MODE:  SCF:  T  FORCE:  T  STRESS:  F  VC:  F  ENSEMBLE:  F
  @ DRIVER MODE:  SCF:  T  FORCE:  T  STRESS:  F  VC:  F  ENSEMBLE:  F

     Using Slab Decomposition

     bravais-lattice index     =            0
     lattice parameter (alat)  =       1.8897  a.u.
     unit-cell volume          =    6658.9804 (a.u.)^3
     number of atoms/cell      =           53
     number of atomic types    =            5
     number of electrons       =       395.00
     number of Kohn-Sham states=          207
     kinetic-energy cutoff     =      29.3995  Ry
     charge density cutoff     =     293.9946  Ry
     scf convergence threshold =      7.3E-08
     mixing beta               =       0.0500
     number of iterations used =            8  plain     mixing
     Exchange-correlation= BEEF-VDW
                           (   1   4  43  14   2   0   0)

     celldm(1)=   1.889726  celldm(2)=   0.000000  celldm(3)=   0.000000
     celldm(4)=   0.000000  celldm(5)=   0.000000  celldm(6)=   0.000000

     crystal axes: (cart. coord. in units of alat)
               a(1) = (   6.579727   0.000000   0.000000 )
               a(2) = (  -0.000775   5.961596   0.000000 )
               a(3) = (   0.000000   0.000000  25.155947 )

     reciprocal axes: (cart. coord. in units 2 pi/alat)
               b(1) = (  0.151982  0.000020  0.000000 )
               b(2) = (  0.000000  0.167740  0.000000 )
               b(3) = (  0.000000  0.000000  0.039752 )

     PseudoPot. # 1 for Ti read from file:
     /storage/coda1/p-amedford6/0/shared/rich_project_chbe-medford/medford-share/data/pseudos_module/espresso/nninc/pbe/van/Ti.UPF
     MD5 check sum: 8e4df49b7f0d34bbd5052bf3f5ea0213
     Pseudo is Ultrasoft, Zval = 12.0
     Generated by new atomic code, or converted to UPF format
     Using radial grid of  851 points,  6 beta functions with:
                l(1) =   0
                l(2) =   0
                l(3) =   1
                l(4) =   1
                l(5) =   2
                l(6) =   2
     Q(r) pseudized with  8 coefficients,  rinner =    1.000   1.000   1.000
                                                       1.000   1.000

     PseudoPot. # 2 for O  read from file:
     /storage/coda1/p-amedford6/0/shared/rich_project_chbe-medford/medford-share/data/pseudos_module/espresso/nninc/pbe/van/O.UPF
     MD5 check sum: 78c19812648e8988a0fe644b0f25305e
     Pseudo is Ultrasoft, Zval =  6.0
     Generated by new atomic code, or converted to UPF format
     Using radial grid of  737 points,  4 beta functions with:
                l(1) =   0
                l(2) =   0
                l(3) =   1
                l(4) =   1
     Q(r) pseudized with  8 coefficients,  rinner =    0.800   0.800   0.800

     PseudoPot. # 3 for N  read from file:
     /storage/coda1/p-amedford6/0/shared/rich_project_chbe-medford/medford-share/data/pseudos_module/espresso/nninc/pbe/van/N.UPF
     MD5 check sum: 90d10febe142ad51ac9d5be1deb811c4
     Pseudo is Ultrasoft, Zval =  5.0
     Generated by new atomic code, or converted to UPF format
     Using radial grid of  729 points,  4 beta functions with:
                l(1) =   0
                l(2) =   0
                l(3) =   1
                l(4) =   1
     Q(r) pseudized with  8 coefficients,  rinner =    0.800   0.800   0.800

     PseudoPot. # 4 for C  read from file:
     /storage/coda1/p-amedford6/0/shared/rich_project_chbe-medford/medford-share/data/pseudos_module/espresso/nninc/pbe/van/C.UPF
     MD5 check sum: 1a69bf6b8db32088f5b2163dbdb77a27
     Pseudo is Ultrasoft, Zval =  4.0
     Generated by new atomic code, or converted to UPF format
     Using radial grid of  721 points,  4 beta functions with:
                l(1) =   0
                l(2) =   0
                l(3) =   1
                l(4) =   1
     Q(r) pseudized with  8 coefficients,  rinner =    0.800   0.800   0.800

     PseudoPot. # 5 for H  read from file:
     /storage/coda1/p-amedford6/0/shared/rich_project_chbe-medford/medford-share/data/pseudos_module/espresso/nninc/pbe/van/H.UPF
     MD5 check sum: b5ee9d7bfd3a09ee7748110bda690ff7
     Pseudo is Ultrasoft, Zval =  1.0
     Generated by new atomic code, or converted to UPF format
     Using radial grid of  615 points,  1 beta functions with:
                l(1) =   0
     Q(r) pseudized with  8 coefficients,  rinner =    0.800

     atomic species   valence    mass     pseudopotential
        Ti1           12.00    47.86700     Ti( 1.00)
        O1             6.00    15.99900     O ( 1.00)
        N1             5.00    14.00700     N ( 1.00)
        C1             4.00    12.01100     C ( 1.00)
        H1             1.00     1.00800     H ( 1.00)

     No symmetry found

   Cartesian axes

     site n.     atom                  positions (alat units)
         1           Ti1 tau(   1) = (   0.0004258   2.9801865   6.0000000  )
         2           Ti1 tau(   2) = (   3.2906075   1.4906267   6.0002472  )
         3           O1  tau(   3) = (   0.0006271   0.0005054   7.9858123  )
         4           O1  tau(   4) = (   3.2906025   0.0005020   7.3038282  )
         5           O1  tau(   5) = (   4.5942328   1.4918067   9.2879030  )
         6           O1  tau(   6) = (   1.9868534   1.4903216   9.2879459  )
         7           Ti1 tau(   7) = (   3.2907910   2.8959150   9.1758416  )
         8           Ti1 tau(   8) = (   0.0015273   1.4827037   9.2680791  )
         9           O1  tau(   9) = (   3.3037365   0.0094216  11.3222111  )
        10           O1  tau(  10) = (   0.0116148   5.9584955  10.6183126  )
        11           O1  tau(  11) = (   1.3152514   1.5075076  12.6320051  )
        12           O1  tau(  12) = (   5.3186361   1.4995162  12.6508707  )
        13           Ti1 tau(  13) = (   6.5540705   2.9956815  12.5884341  )
        14           Ti1 tau(  14) = (   3.2234832   1.4927074  12.4921739  )
        15           O1  tau(  15) = (   0.0610261   5.9052480  14.6017706  )
        16           O1  tau(  16) = (   3.2936532   0.0132264  13.8830087  )
        17           O1  tau(  17) = (   4.5722397   1.5061520  16.0138922  )
        18           O1  tau(  18) = (   2.0767725   1.5295127  16.0808449  )
        19           Ti1 tau(  19) = (   3.3650854   3.0251465  15.6907462  )
        20           Ti1 tau(  20) = (   0.0387768   1.3037779  15.7216176  )
        21           O1  tau(  21) = (   3.2904802   0.0005063   4.7018136  )
        22           O1  tau(  22) = (   0.0189486   0.1070799  17.1824039  )
        23           O1  tau(  23) = (   1.3043587   1.4918075   6.0039043  )
        24           O1  tau(  24) = (   5.2767064   1.4903225   6.0039473  )
        25           Ti1 tau(  25) = (   0.0000382   5.9609847   6.0000000  )
        26           Ti1 tau(  26) = (   3.2902200   4.4714249   6.0002472  )
        27           O1  tau(  27) = (   0.0002396   2.9813036   7.9858123  )
        28           O1  tau(  28) = (   3.2902150   2.9813002   7.3038282  )
        29           O1  tau(  29) = (   4.5938453   4.4726049   9.2879030  )
        30           O1  tau(  30) = (   1.9864658   4.4711199   9.2879459  )
        31           Ti1 tau(  31) = (   3.2891106   5.8743827   9.1763621  )
        32           Ti1 tau(  32) = (   0.0006254   4.4649316   9.2693709  )
        33           O1  tau(  33) = (   3.3043114   2.9829305  11.3227053  )
        34           O1  tau(  34) = (   0.0092240   2.9805883  10.6323155  )
        35           O1  tau(  35) = (   1.3131995   4.4620516  12.6081187  )
        36           O1  tau(  36) = (   5.3117129   4.4692194  12.6284301  )
        37           Ti1 tau(  37) = (   6.5303063   5.9583428  12.5400172  )
        38           Ti1 tau(  38) = (   3.2255477   4.4746212  12.4748647  )
        39           O1  tau(  39) = (   0.0377805   3.0059521  14.8845374  )
        40           O1  tau(  40) = (   3.3120027   2.9986483  13.8863452  )
        41           O1  tau(  41) = (   4.5434534   4.5277214  16.0148975  )
        42           O1  tau(  42) = (   2.1165747   4.4940517  16.0783766  )
        43           Ti1 tau(  43) = (   3.3042555   0.0241951  15.7004812  )
        44           Ti1 tau(  44) = (   0.0495666   4.4505358  16.3362958  )
        45           O1  tau(  45) = (   3.2900926   2.9813045   4.7018136  )
        46           O1  tau(  46) = (   1.3039711   4.4726057   6.0039043  )
        47           O1  tau(  47) = (   5.2763189   4.4711207   6.0039473  )
        48           N1  tau(  48) = (   0.5348212   3.4288502  18.0689430  )
        49           C1  tau(  49) = (   1.3556880   3.0079929  19.2215664  )
        50           H1  tau(  50) = (   1.4862090   3.8900195  19.8396782  )
        51           H1  tau(  51) = (   0.8469181   2.2141957  19.7647163  )
        52           H1  tau(  52) = (   2.3296892   2.6851793  18.8624704  )
        53           N1  tau(  53) = (   5.9145885   3.2636146  17.9655992  )

     number of k points=    10  Fermi-Dirac smearing, width (Ry)=  0.0073
                       cart. coord. in units 2pi/alat
        k(    1) = (   0.0000000   0.0000000   0.0000000), wk =   0.1250000
        k(    2) = (   0.0000000   0.0419351   0.0000000), wk =   0.2500000
        k(    3) = (   0.0000000  -0.0838702   0.0000000), wk =   0.1250000
        k(    4) = (   0.0379955   0.0000049   0.0000000), wk =   0.2500000
        k(    5) = (   0.0379955   0.0419400   0.0000000), wk =   0.2500000
        k(    6) = (   0.0379955  -0.0838652   0.0000000), wk =   0.2500000
        k(    7) = (   0.0379955  -0.0419301   0.0000000), wk =   0.2500000
        k(    8) = (  -0.0759910  -0.0000099   0.0000000), wk =   0.1250000
        k(    9) = (  -0.0759910   0.0419252   0.0000000), wk =   0.2500000
        k(   10) = (  -0.0759910  -0.0838800   0.0000000), wk =   0.1250000

     Initial potential from superposition of free atoms

     starting charge  378.99916, renormalised to  395.00000

     negative rho (up, down):  1.611E-02 0.000E+00

     %%%%%%%%%%%%%%%%%%%%%%%%%%%%%%%%%%%%%%%%%%%%%%%%%%%%%%%%%%%%%%%%%%%%%%%%
     %                                                                      %
     % You are using vdW-DF, which was implemented by the Thonhauser group. %
     % Please cite the following two papers that made this development      %
     % possible and the two reviews that describe the various versions:     %
     %                                                                      %
     %   T. Thonhauser et al., PRL 115, 136402 (2015).                      %
     %   T. Thonhauser et al., PRB 76, 125112 (2007).                       %
     %   K. Berland et al., Rep. Prog. Phys. 78, 066501 (2015).             %
     %   D.C. Langreth et al., J. Phys.: Condens. Matter 21, 084203 (2009). %
     %                                                                      %
     %                                                                      %
     % If you are calculating the stress with vdW-DF, please also cite:     %
     %                                                                      %
     %   R. Sabatini et al., J. Phys.: Condens. Matter 24, 424209 (2012).   %
     %                                                                      %
     %%%%%%%%%%%%%%%%%%%%%%%%%%%%%%%%%%%%%%%%%%%%%%%%%%%%%%%%%%%%%%%%%%%%%%%%

     Adding external electric field

     Computed dipole along edir(3) :
        Dipole               -8.5778 Ry au,        -21.8026 Debye
        Dipole field         -0.0162 Ry au,

        Potential amp.        1.5006 Ry
        Total length         46.3494 bohr

     Starting wfcs are  299 atomic wfcs
  @ DRIVER MODE: Message from server: STATUS
  @ DRIVER MODE: Message from server: POSDATA
  @ DRIVER MODE: Reading and sharing cell
  @ DRIVER MODE: Reading and sharing positions
  @ DRIVER MODE: Received positions

     Self-consistent Calculation

     iteration #  1     ecut=    29.40 Ry     beta= 0.05
     Davidson diagonalization with overlap
     c_bands:  2 eigenvalues not converged
     c_bands:  2 eigenvalues not converged
     c_bands:  1 eigenvalues not converged
     c_bands:  3 eigenvalues not converged
     c_bands:  1 eigenvalues not converged
     c_bands:  2 eigenvalues not converged
     c_bands:  2 eigenvalues not converged
     c_bands:  2 eigenvalues not converged
     ethr =  1.00E-05,  avg # of iterations = 19.2

[...]

     total energy              =   -2599.38798592 Ry
     estimated scf accuracy    <    3763.22741416 Ry

     iteration #  2     ecut=    29.40 Ry     beta= 0.05
     Davidson diagonalization with overlap
     ethr =  1.00E-02,  avg # of iterations = 22.3

[...]

     iteration # 71     ecut=    29.40 Ry     beta= 0.05
     Davidson diagonalization with overlap
     c_bands:  1 eigenvalues not converged
     ethr =  9.00E-11,  avg # of iterations = 10.0

[...]

     total energy              =   -2939.12539035 Ry
     estimated scf accuracy    <       0.00000008 Ry

     iteration # 73     ecut=    29.40 Ry     beta= 0.05
     Davidson diagonalization with overlap
     ethr =  2.10E-11,  avg # of iterations = 10.0

     negative rho (up, down):  1.619E-02 0.000E+00

     Adding external electric field

     Computed dipole along edir(3) :
        Dipole                0.9115 Ry au,          2.3169 Debye
        Dipole field          0.0017 Ry au,

        Potential amp.       -0.1595 Ry
        Total length         46.3494 bohr

     End of self-consistent calculation

          k = 0.0000 0.0000 0.0000 ( 18029 PWs)   bands (ev):

   -55.7763 -55.7703 -55.7422 -55.7343 -55.6839 -55.6355 -55.5969 -55.5629
   -55.5558 -55.5222 -55.5201 -55.4470 -54.9566 -54.8078 -54.7563 -54.7223
   -32.3191 -32.2603 -32.1752 -32.0964 -32.0685 -32.0567 -32.0478 -32.0216
   -32.0062 -31.9707 -31.9406 -31.9286 -31.9222 -31.9053 -31.8833 -31.8822
   -31.8792 -31.8787 -31.8657 -31.8356 -31.8334 -31.8221 -31.8009 -31.7923
   -31.7893 -31.7828 -31.7816 -31.7558 -31.7416 -31.7367 -31.7260 -31.7110
   -31.7072 -31.6697 -31.6367 -31.5644 -31.4930 -31.3386 -31.1679 -31.1632
   -31.1057 -31.0753 -31.0668 -31.0529 -30.9803 -30.9137 -30.8938 -30.7824
   -19.4393 -16.5177 -16.2529 -15.9676 -15.9158 -15.8416 -15.7482 -15.6251
   -15.5295 -15.4109 -15.3721 -15.3159 -15.3086 -15.2642 -15.2372 -15.2332
   -15.2070 -15.1987 -15.1346 -15.1271 -15.0766 -15.0649 -15.0169 -14.9820
   -14.9704 -14.9153 -14.8465 -14.8054 -14.6862 -14.1608 -13.2579 -13.1414
   -12.3201  -7.2607  -4.9408  -4.7995  -3.9001  -3.7576  -3.7042  -3.6856
    -3.6410  -3.4405  -3.3523  -3.2844  -3.0447  -2.9533  -2.9287  -2.9181
    -2.8689  -2.7119  -2.6702  -2.6049  -2.5891  -2.5628  -2.5409  -2.5326
    -2.4979  -2.4871  -2.4645  -2.4288  -2.3271  -2.2135  -2.1843  -2.1067
    -2.0910  -2.0755  -2.0451  -2.0352  -2.0255  -2.0158  -1.9977  -1.9598
    -1.8958  -1.8524  -1.7874  -1.7029  -1.5615  -1.5398  -1.4613  -1.3856
    -1.3059  -1.2633  -1.2415  -1.2131  -1.1733  -1.0935  -1.0675  -0.9215
    -0.8245  -0.7914  -0.7743  -0.7320  -0.6958  -0.5936  -0.5719  -0.5428
    -0.5337  -0.5060  -0.4322  -0.3759  -0.2439  -0.2132  -0.2093  -0.1716
    -0.1008  -0.0471   0.0065   0.0555   0.0635   0.0993   0.1594   0.1845
     0.1893   0.2321   0.2744   0.3492   0.3754   0.4495   0.4536   0.5176
     0.5614   0.6431   0.7507   0.8730   1.0163   1.1532   1.1979   1.2669
     1.3622   1.4587   1.8371   1.8826   2.1434   3.3371   3.4444   3.4677
     3.4800   3.5867   3.7953   3.8177   3.8668   3.8871   3.8952

[...]

          k = 0.0380-0.0419 0.0000 ( 17876 PWs)   bands (ev):

[...]

          k =-0.0760-0.0000 0.0000 ( 17886 PWs)   bands (ev):

[...]

          k =-0.0760-0.0839 0.0000 ( 17948 PWs)   bands (ev):

   -55.7593 -55.7591 -55.7529 -55.7514 -55.6768 -55.6427 -55.5799 -55.5795
   -55.5393 -55.5388 -55.5156 -55.4513 -54.9553 -54.8090 -54.7394 -54.7391
   -32.1227 -32.1191 -32.0756 -32.0755 -32.0540 -32.0539 -32.0202 -32.0053
   -31.9990 -31.9903 -31.9215 -31.9163 -31.9055 -31.8992 -31.8826 -31.8804
   -31.8798 -31.8784 -31.8781 -31.8728 -31.8545 -31.8519 -31.8506 -31.8142
   -31.7848 -31.7830 -31.7813 -31.7687 -31.7685 -31.7593 -31.7583 -31.7564
   -31.7552 -31.7369 -31.7124 -31.6614 -31.4401 -31.3209 -31.1698 -31.1596
   -31.0840 -31.0657 -31.0655 -30.9761 -30.9758 -30.9372 -30.9370 -30.9167
   -19.4372 -15.9182 -15.9120 -15.7506 -15.7161 -15.6504 -15.6416 -15.5739
   -15.5068 -15.4620 -15.4570 -15.3419 -15.3398 -15.3253 -15.3035 -15.2494
   -15.2331 -15.2318 -15.2283 -15.2205 -15.2088 -15.1813 -15.1506 -15.1000
   -15.0949 -15.0742 -15.0639 -14.9425 -14.5326 -14.4710 -13.2433 -13.2432
   -12.3226  -7.2475  -4.9424  -4.7977  -3.6289  -3.2074  -3.1910  -3.0033
    -2.9198  -2.9086  -2.8933  -2.7408  -2.7288  -2.7119  -2.6541  -2.6472
    -2.6376  -2.6009  -2.5848  -2.5609  -2.5209  -2.5153  -2.4684  -2.4657
    -2.4498  -2.4411  -2.4091  -2.4042  -2.3900  -2.3758  -2.3378  -2.2818
    -2.2433  -2.2161  -2.1878  -2.0915  -2.0306  -1.9948  -1.9276  -1.9190
    -1.8681  -1.8434  -1.8289  -1.7622  -1.6920  -1.6624  -1.5783  -1.4867
    -1.4684  -1.4530  -1.3343  -1.3204  -1.2457  -1.2219  -1.1380  -1.1210
    -1.0814  -0.9707  -0.9473  -0.9161  -0.8813  -0.8375  -0.7738  -0.7370
    -0.7350  -0.6864  -0.6421  -0.5860  -0.5247  -0.5128  -0.4975  -0.4887
    -0.4252  -0.3915  -0.3695  -0.2872  -0.2720  -0.1903  -0.0465  -0.0137
     0.1437   0.1929   0.3019   0.3294   0.4203   0.4419   0.5359   0.5391
     0.5721   0.7011   0.7199   0.7375   0.7536   0.7734   0.7974   0.9363
     1.6312   1.6313   1.7028   1.7028   2.0811   3.6701   3.7071   3.7574
     3.7792   3.8833   3.8883   3.8909   3.8986   4.0201   4.0213

     the Fermi energy is     3.3506 ev

!    total energy              =   -2939.12540899 Ry
     estimated scf accuracy    <       0.00000004 Ry
     smearing contrib. (-TS)   =      -0.02052596 Ry
     internal energy E=F+TS    =   -2939.10488303 Ry

     The total energy is F=E-TS. E is the sum of the following terms:
     one-electron contribution =  -24213.81601118 Ry
     hartree contribution      =   12195.64929475 Ry
     xc contribution           =    -485.20329894 Ry
     ewald contribution        =    9564.26356437 Ry
     electric field correction =       0.00156797 Ry

     convergence has been achieved in  73 iterations

     Forces acting on atoms (cartesian axes, Ry/au):

     atom    1 type  1   force =     0.00010261   -0.00019853    0.09586163
     atom    2 type  1   force =     0.00006112   -0.00061380   -0.17549503
     atom    3 type  2   force =     0.00017424   -0.00019481   -0.02305627
     atom    4 type  2   force =     0.00004153   -0.00128879    0.05262358
     atom    5 type  2   force =    -0.00977489   -0.00031674    0.00253117
     atom    6 type  2   force =     0.01166029    0.00022329    0.00291230
     atom    7 type  1   force =     0.00088587    0.00001465   -0.00991093
     atom    8 type  1   force =    -0.00000357    0.00532105    0.01817990
     atom    9 type  2   force =    -0.00001651   -0.00029010   -0.00011131
     atom   10 type  2   force =    -0.00253708    0.00216375   -0.01348912
     atom   11 type  2   force =    -0.00097504    0.00010826    0.00017118
     atom   12 type  2   force =     0.00038684   -0.00025506    0.00048732
     atom   13 type  1   force =     0.00010945   -0.00008870    0.00051992
     atom   14 type  1   force =    -0.00004120   -0.00016814   -0.00016897
     atom   15 type  2   force =    -0.00059514    0.00023544    0.00043623
     atom   16 type  2   force =    -0.00043637    0.00007819    0.00020110
     atom   17 type  2   force =    -0.00015046   -0.00008904   -0.00031767
     atom   18 type  2   force =     0.00028129    0.00021596    0.00008019
     atom   19 type  1   force =    -0.00059489   -0.00057578    0.00071819
     atom   20 type  1   force =    -0.00027733    0.00038063   -0.00073334
     atom   21 type  2   force =     0.00007424   -0.00006664    0.10321208
     atom   22 type  2   force =     0.00010182   -0.00004291   -0.00039278
     atom   23 type  2   force =    -0.07154504   -0.00019214   -0.02754064
     atom   24 type  2   force =     0.07152484    0.00030911   -0.02759774
     atom   25 type  1   force =     0.00013144   -0.00028916    0.09518234
     atom   26 type  1   force =     0.00009899   -0.00047306   -0.17563923
     atom   27 type  2   force =     0.00015654   -0.00011988   -0.02180120
     atom   28 type  2   force =     0.00008296   -0.00105784    0.05249490
     atom   29 type  2   force =    -0.01015603    0.00023455    0.00290771
     atom   30 type  2   force =     0.01197375    0.00052103    0.00328328
     atom   31 type  1   force =     0.00089406    0.00415622   -0.01178256
     atom   32 type  1   force =     0.00011940   -0.00634190    0.01831231
     atom   33 type  2   force =     0.00016316    0.00041913   -0.00011119
     atom   34 type  2   force =    -0.00308574   -0.00010344   -0.00867342
     atom   35 type  2   force =    -0.00020753    0.00006709    0.00000505
     atom   36 type  2   force =    -0.00004107    0.00028006   -0.00006740
     atom   37 type  1   force =     0.00045512   -0.00094070    0.00019587
     atom   38 type  1   force =    -0.00032268    0.00008161    0.00032125
     atom   39 type  2   force =     0.00011133   -0.00027041    0.00053109
     atom   40 type  2   force =    -0.00008490    0.00026527    0.00016253
     atom   41 type  2   force =     0.00001043   -0.00014391   -0.00018946
     atom   42 type  2   force =    -0.00044372    0.00013464   -0.00039300
     atom   43 type  1   force =     0.00023925    0.00050081    0.00009793
     atom   44 type  1   force =    -0.00021835   -0.00079961   -0.00087173
     atom   45 type  2   force =     0.00008013   -0.00005946    0.10316136
     atom   46 type  2   force =    -0.07156020   -0.00009913   -0.02753192
     atom   47 type  2   force =     0.07154503    0.00025300   -0.02759844
     atom   48 type  3   force =     0.00020545   -0.00133996   -0.00003511
     atom   49 type  4   force =    -0.00025706   -0.00443926   -0.00543012
     atom   50 type  5   force =     0.00118411    0.00529276    0.00525448
     atom   51 type  5   force =    -0.00076065    0.00021691    0.00034339
     atom   52 type  5   force =     0.00020143   -0.00112596   -0.00083212
     atom   53 type  3   force =     0.00102873    0.00051143   -0.00041758

     Total force =     0.364889     Total SCF correction =     0.000536
  @ DRIVER MODE: Message from server: STATUS
  @ DRIVER MODE: Message from server: GETFORCE
  @ DRIVER MODE: Returning v,forces,stress,ensemble

     Writing output data file ./calc.save/
  @ DRIVER MODE: Message from server: EXIT
  @ DRIVE MODE: Exiting

     General routines

     Parallel routines

   This run was terminated on:  17:54:29   2Aug2021

   JOB DONE.