     Program PWSCF v.6.7GPU starts on 16Sep2021 at  6:18:59

     R & G space division:  proc/nbgrp/npool/nimage =      10
     Reading input from /storage/home/hcoda1/3/ntian30/research/carbon/CxH_vib/H2O_calc/ads_slab/CHNNHHH2O_a/out_0046/pw.inp
Warning: card &CELL ignored
Warning: card   CELL_DYNAMICS='IPI', ignored
Warning: card / ignored

     Current dimensions of program PWSCF are:
     Max number of different atomic species (ntypx) = 10
     Max number of k-points (npk) =  40000
     Max angular momentum in pseudopotentials (lmaxx) =  3
     Presently no symmetry can be used with electric field

     Message from routine cell_base_init:
     DEPRECATED: use true lattice parameter, not A to a.u. conversion factor

     IMPORTANT: XC functional enforced from input :
     Exchange-correlation= BEEF-VDW
                           (   1   4  43  14   2   0   0)
     Any further DFT definition will be discarded
     Please, verify this is what you really want

  @ DRIVER MODE: Connecting to
 qe_1139763_2852630.sched-torque.pace.gatech.edunnyj09ty_scratch
  using UNIX socket
  @ DRIVER MODE: Message from server: STATUS
  @ DRIVER MODE: Message from server: INIT
  @ DRIVER MODE: Receiving replica           0          -1
  @ DRIVER MODE: Receiving encoded integer          25
  @ DRIVER MODE:  SCF:  T  FORCE:  T  STRESS:  F  VC:  F  ENSEMBLE:  F
  @ DRIVER MODE:  SCF:  T  FORCE:  T  STRESS:  F  VC:  F  ENSEMBLE:  F

     Using Slab Decomposition

     bravais-lattice index     =            0
     lattice parameter (alat)  =       1.8897  a.u.
     unit-cell volume          =    6658.9804 (a.u.)^3
     number of atoms/cell      =           56
     number of atomic types    =            5
     number of electrons       =       403.00
     number of Kohn-Sham states=          211
     kinetic-energy cutoff     =      29.3995  Ry
     charge density cutoff     =     293.9946  Ry
     scf convergence threshold =      7.3E-08
     mixing beta               =       0.0500
     number of iterations used =            8  plain     mixing
     Exchange-correlation= BEEF-VDW
                           (   1   4  43  14   2   0   0)

     celldm(1)=   1.889726  celldm(2)=   0.000000  celldm(3)=   0.000000
     celldm(4)=   0.000000  celldm(5)=   0.000000  celldm(6)=   0.000000

     crystal axes: (cart. coord. in units of alat)
               a(1) = (   6.579727   0.000000   0.000000 )
               a(2) = (  -0.000775   5.961596   0.000000 )
               a(3) = (   0.000000   0.000000  25.155947 )

     reciprocal axes: (cart. coord. in units 2 pi/alat)
               b(1) = (  0.151982  0.000020  0.000000 )
               b(2) = (  0.000000  0.167740  0.000000 )
               b(3) = (  0.000000  0.000000  0.039752 )

     PseudoPot. # 1 for Ti read from file:
     /storage/coda1/p-amedford6/0/shared/rich_project_chbe-medford/medford-share/data/pseudos_module/espresso/nninc/pbe/van/Ti.UPF
     MD5 check sum: 8e4df49b7f0d34bbd5052bf3f5ea0213
     Pseudo is Ultrasoft, Zval = 12.0
     Generated by new atomic code, or converted to UPF format
     Using radial grid of  851 points,  6 beta functions with:
                l(1) =   0
                l(2) =   0
                l(3) =   1
                l(4) =   1
                l(5) =   2
                l(6) =   2
     Q(r) pseudized with  8 coefficients,  rinner =    1.000   1.000   1.000
                                                       1.000   1.000

     PseudoPot. # 2 for O  read from file:
     /storage/coda1/p-amedford6/0/shared/rich_project_chbe-medford/medford-share/data/pseudos_module/espresso/nninc/pbe/van/O.UPF
     MD5 check sum: 78c19812648e8988a0fe644b0f25305e
     Pseudo is Ultrasoft, Zval =  6.0
     Generated by new atomic code, or converted to UPF format
     Using radial grid of  737 points,  4 beta functions with:
                l(1) =   0
                l(2) =   0
                l(3) =   1
                l(4) =   1
     Q(r) pseudized with  8 coefficients,  rinner =    0.800   0.800   0.800

     PseudoPot. # 3 for N  read from file:
     /storage/coda1/p-amedford6/0/shared/rich_project_chbe-medford/medford-share/data/pseudos_module/espresso/nninc/pbe/van/N.UPF
     MD5 check sum: 90d10febe142ad51ac9d5be1deb811c4
     Pseudo is Ultrasoft, Zval =  5.0
     Generated by new atomic code, or converted to UPF format
     Using radial grid of  729 points,  4 beta functions with:
                l(1) =   0
                l(2) =   0
                l(3) =   1
                l(4) =   1
     Q(r) pseudized with  8 coefficients,  rinner =    0.800   0.800   0.800

     PseudoPot. # 4 for C  read from file:
     /storage/coda1/p-amedford6/0/shared/rich_project_chbe-medford/medford-share/data/pseudos_module/espresso/nninc/pbe/van/C.UPF
     MD5 check sum: 1a69bf6b8db32088f5b2163dbdb77a27
     Pseudo is Ultrasoft, Zval =  4.0
     Generated by new atomic code, or converted to UPF format
     Using radial grid of  721 points,  4 beta functions with:
                l(1) =   0
                l(2) =   0
                l(3) =   1
                l(4) =   1
     Q(r) pseudized with  8 coefficients,  rinner =    0.800   0.800   0.800

     PseudoPot. # 5 for H  read from file:
     /storage/coda1/p-amedford6/0/shared/rich_project_chbe-medford/medford-share/data/pseudos_module/espresso/nninc/pbe/van/H.UPF
     MD5 check sum: b5ee9d7bfd3a09ee7748110bda690ff7
     Pseudo is Ultrasoft, Zval =  1.0
     Generated by new atomic code, or converted to UPF format
     Using radial grid of  615 points,  1 beta functions with:
                l(1) =   0
     Q(r) pseudized with  8 coefficients,  rinner =    0.800

     atomic species   valence    mass     pseudopotential
        Ti1           12.00    47.86700     Ti( 1.00)
        O1             6.00    15.99900     O ( 1.00)
        N1             5.00    14.00700     N ( 1.00)
        C1             4.00    12.01100     C ( 1.00)
        H1             1.00     1.00800     H ( 1.00)

     No symmetry found

   Cartesian axes

     site n.     atom                  positions (alat units)
         1           Ti1 tau(   1) = (   0.0004258   2.9801865   6.0000000  )
         2           Ti1 tau(   2) = (   3.2906075   1.4906267   6.0002472  )
         3           O1  tau(   3) = (   0.0006271   0.0005054   7.9858123  )
         4           O1  tau(   4) = (   3.2906025   0.0005020   7.3038282  )
         5           O1  tau(   5) = (   4.5942328   1.4918067   9.2879030  )
         6           O1  tau(   6) = (   1.9868534   1.4903216   9.2879459  )
         7           Ti1 tau(   7) = (   3.2907910   2.8959150   9.1758416  )
         8           Ti1 tau(   8) = (   0.0015273   1.4827037   9.2680791  )
         9           O1  tau(   9) = (   3.3295752   5.9394884  11.3365386  )
        10           O1  tau(  10) = (   0.0116148   5.9584955  10.6183126  )
        11           O1  tau(  11) = (   1.3416459   1.4853116  12.6004455  )
        12           O1  tau(  12) = (   5.3426426   1.4786053  12.6369034  )
        13           Ti1 tau(  13) = (   0.0116414   2.9353973  12.6160321  )
        14           Ti1 tau(  14) = (   3.2634613   1.4579052  12.5012998  )
        15           O1  tau(  15) = (   0.1064876   0.0498873  14.6156690  )
        16           O1  tau(  16) = (   3.3207907   0.0021492  13.9347054  )
        17           O1  tau(  17) = (   4.6463059   1.4619937  15.9920056  )
        18           O1  tau(  18) = (   2.1466462   1.4989335  16.1123926  )
        19           Ti1 tau(  19) = (   3.4306617   2.9592634  15.6863987  )
        20           Ti1 tau(  20) = (   0.1411245   1.4409179  16.1562347  )
        21           O1  tau(  21) = (   3.2904802   0.0005063   4.7018136  )
        22           O1  tau(  22) = (   0.1093408   5.8617090  17.1288626  )
        23           O1  tau(  23) = (   1.3043587   1.4918075   6.0039043  )
        24           O1  tau(  24) = (   5.2767064   1.4903225   6.0039473  )
        25           Ti1 tau(  25) = (   0.0000382   5.9609847   6.0000000  )
        26           Ti1 tau(  26) = (   3.2902200   4.4714249   6.0002472  )
        27           O1  tau(  27) = (   0.0002396   2.9813036   7.9858123  )
        28           O1  tau(  28) = (   3.2902150   2.9813002   7.3038282  )
        29           O1  tau(  29) = (   4.5938453   4.4726049   9.2879030  )
        30           O1  tau(  30) = (   1.9864658   4.4711199   9.2879459  )
        31           Ti1 tau(  31) = (   3.2891106   5.8743827   9.1763621  )
        32           Ti1 tau(  32) = (   0.0006254   4.4649316   9.2693709  )
        33           O1  tau(  33) = (   3.3252478   2.9725824  11.3426849  )
        34           O1  tau(  34) = (   0.0092240   2.9805883  10.6323155  )
        35           O1  tau(  35) = (   1.3395427   4.4601989  12.6346899  )
        36           O1  tau(  36) = (   5.3460148   4.4586474  12.6692756  )
        37           Ti1 tau(  37) = (   6.5637397   5.9322234  12.5160321  )
        38           Ti1 tau(  38) = (   3.2635149   4.4558096  12.5102435  )
        39           O1  tau(  39) = (   0.1109093   2.9345503  14.7784033  )
        40           O1  tau(  40) = (   3.3425673   2.9461413  13.8942005  )
        41           O1  tau(  41) = (   4.6672108   4.4449251  15.9191901  )
        42           O1  tau(  42) = (   2.1284166   4.4082335  15.9970045  )
        43           Ti1 tau(  43) = (   3.3925976   5.9399099  15.7906296  )
        44           Ti1 tau(  44) = (   0.1175887   4.6074924  15.7225956  )
        45           O1  tau(  45) = (   3.2900926   2.9813045   4.7018136  )
        46           O1  tau(  46) = (   1.3039711   4.4726057   6.0039043  )
        47           O1  tau(  47) = (   5.2763189   4.4711207   6.0039473  )
        48           N1  tau(  48) = (   6.3322197   2.6896666  17.8857888  )
        49           C1  tau(  49) = (   0.7408832   3.1023054  18.6049742  )
        50           H1  tau(  50) = (   1.6825283   2.9574642  18.0630083  )
        51           N1  tau(  51) = (   5.0062801   2.8267163  18.4728511  )
        52           H1  tau(  52) = (   5.1803530   3.0494745  19.4549233  )
        53           H1  tau(  53) = (   4.5789568   1.9025856  18.4370215  )
        54           O1  tau(  54) = (   3.4803961   5.7297960  18.1507158  )
        55           H1  tau(  55) = (   4.0125945   4.9367423  18.3304466  )
        56           H1  tau(  56) = (   2.5980622   5.5532332  18.5227279  )

     number of k points=    10  Fermi-Dirac smearing, width (Ry)=  0.0073
                       cart. coord. in units 2pi/alat
        k(    1) = (   0.0000000   0.0000000   0.0000000), wk =   0.1250000
        k(    2) = (   0.0000000   0.0419351   0.0000000), wk =   0.2500000
        k(    3) = (   0.0000000  -0.0838702   0.0000000), wk =   0.1250000
        k(    4) = (   0.0379955   0.0000049   0.0000000), wk =   0.2500000
        k(    5) = (   0.0379955   0.0419400   0.0000000), wk =   0.2500000
        k(    6) = (   0.0379955  -0.0838652   0.0000000), wk =   0.2500000
        k(    7) = (   0.0379955  -0.0419301   0.0000000), wk =   0.2500000
        k(    8) = (  -0.0759910  -0.0000099   0.0000000), wk =   0.1250000
        k(    9) = (  -0.0759910   0.0419252   0.0000000), wk =   0.2500000
        k(   10) = (  -0.0759910  -0.0838800   0.0000000), wk =   0.1250000

     Initial potential from superposition of free atoms

     starting charge  386.99914, renormalised to  403.00000

     negative rho (up, down):  1.683E-02 0.000E+00

     %%%%%%%%%%%%%%%%%%%%%%%%%%%%%%%%%%%%%%%%%%%%%%%%%%%%%%%%%%%%%%%%%%%%%%%%
     %                                                                      %
     % You are using vdW-DF, which was implemented by the Thonhauser group. %
     % Please cite the following two papers that made this development      %
     % possible and the two reviews that describe the various versions:     %
     %                                                                      %
     %   T. Thonhauser et al., PRL 115, 136402 (2015).                      %
     %   T. Thonhauser et al., PRB 76, 125112 (2007).                       %
     %   K. Berland et al., Rep. Prog. Phys. 78, 066501 (2015).             %
     %   D.C. Langreth et al., J. Phys.: Condens. Matter 21, 084203 (2009). %
     %                                                                      %
     %                                                                      %
     % If you are calculating the stress with vdW-DF, please also cite:     %
     %                                                                      %
     %   R. Sabatini et al., J. Phys.: Condens. Matter 24, 424209 (2012).   %
     %                                                                      %
     %%%%%%%%%%%%%%%%%%%%%%%%%%%%%%%%%%%%%%%%%%%%%%%%%%%%%%%%%%%%%%%%%%%%%%%%

     Adding external electric field

     Computed dipole along edir(3) :
        Dipole              -12.6658 Ry au,        -32.1932 Debye
        Dipole field         -0.0239 Ry au,

        Potential amp.        2.2157 Ry
        Total length         46.3494 bohr

     Starting wfcs are  305 atomic wfcs
  @ DRIVER MODE: Message from server: STATUS
  @ DRIVER MODE: Message from server: POSDATA
  @ DRIVER MODE: Reading and sharing cell
  @ DRIVER MODE: Reading and sharing positions
  @ DRIVER MODE: Received positions

     Self-consistent Calculation

     iteration #  1     ecut=    29.40 Ry     beta= 0.05
     Davidson diagonalization with overlap
     c_bands:  3 eigenvalues not converged
     c_bands:  2 eigenvalues not converged
     c_bands:  5 eigenvalues not converged
     c_bands:  1 eigenvalues not converged
     c_bands:  4 eigenvalues not converged
     c_bands:  1 eigenvalues not converged
     c_bands:  2 eigenvalues not converged
     ethr =  1.00E-05,  avg # of iterations = 26.8

[...]

     total energy              =   -2339.23935079 Ry
     estimated scf accuracy    <    7193.27093384 Ry

     iteration #  2     ecut=    29.40 Ry     beta= 0.05
     Davidson diagonalization with overlap
     ethr =  1.00E-02,  avg # of iterations = 23.8

[...]

     iteration # 66     ecut=    29.40 Ry     beta= 0.05
     Davidson diagonalization with overlap
     c_bands:  1 eigenvalues not converged
     ethr =  1.02E-10,  avg # of iterations = 12.5

[...]

     total energy              =   -2973.87559913 Ry
     estimated scf accuracy    <       0.00000008 Ry

     iteration # 69     ecut=    29.40 Ry     beta= 0.05
     Davidson diagonalization with overlap
     ethr =  1.96E-11,  avg # of iterations = 11.5

     negative rho (up, down):  1.574E-02 0.000E+00

     Adding external electric field

     Computed dipole along edir(3) :
        Dipole                0.4436 Ry au,          1.1276 Debye
        Dipole field          0.0008 Ry au,

        Potential amp.       -0.0776 Ry
        Total length         46.3494 bohr

     End of self-consistent calculation

          k = 0.0000 0.0000 0.0000 ( 18029 PWs)   bands (ev):

   -55.9066 -55.8726 -55.8705 -55.8330 -55.7919 -55.7901 -55.7344 -55.7236
   -55.6968 -55.6896 -55.6892 -55.6557 -55.4666 -55.3786 -54.8892 -54.8551
   -32.4114 -32.3908 -32.2778 -32.2337 -32.2236 -32.1986 -32.1799 -32.1608
   -32.1511 -32.1087 -32.0605 -32.0591 -32.0448 -32.0352 -32.0249 -32.0233
   -32.0126 -32.0082 -32.0046 -31.9937 -31.9867 -31.9723 -31.9640 -31.9304
   -31.9211 -31.9178 -31.9159 -31.9107 -31.8875 -31.8868 -31.8793 -31.8664
   -31.8566 -31.8434 -31.8360 -31.8293 -31.8019 -31.7586 -31.6964 -31.6346
   -31.5924 -31.5206 -31.2964 -31.2077 -31.1853 -31.1132 -31.0267 -30.9155
   -18.8963 -17.1782 -16.6210 -16.3846 -16.1480 -16.0689 -16.0437 -15.8142
   -15.7190 -15.6634 -15.5669 -15.5050 -15.4763 -15.4464 -15.4233 -15.4022
   -15.3613 -15.3492 -15.3294 -15.3285 -15.3017 -15.2927 -15.2553 -15.2496
   -15.2023 -15.0790 -15.0453 -15.0397 -15.0101 -14.9720 -14.5301 -13.3910
   -13.2745 -12.8262  -7.1184  -6.6225  -5.4923  -4.0015  -3.8671  -3.8590
    -3.8154  -3.7505  -3.6021  -3.5728  -3.3741  -3.2464  -3.1754  -3.0944
    -3.0779  -3.0394  -3.0135  -2.9099  -2.8238  -2.7887  -2.7204  -2.7049
    -2.6799  -2.6719  -2.6426  -2.6188  -2.5335  -2.5151  -2.4750  -2.4412
    -2.3256  -2.3070  -2.2504  -2.2220  -2.2147  -2.1958  -2.1720  -2.1625
    -2.1478  -2.1362  -2.0773  -2.0499  -1.9667  -1.9009  -1.8374  -1.7020
    -1.5628  -1.5205  -1.5081  -1.4085  -1.3820  -1.3469  -1.3283  -1.3037
    -1.2923  -1.1649  -1.0864  -1.0230  -1.0162  -0.9454  -0.8526  -0.7928
    -0.7366  -0.6777  -0.6716  -0.6511  -0.6460  -0.6114  -0.5392  -0.4021
    -0.3643  -0.3241  -0.2916  -0.2029  -0.1947  -0.1489  -0.1174  -0.0971
    -0.0636   0.0148   0.0267   0.0575   0.0789   0.1001   0.1230   0.1811
     0.3096   0.3315   0.3502   0.4074   0.4434   0.6032   0.7439   0.7868
     0.8892   1.0625   1.1337   1.1625   1.2250   1.3252   1.7047   1.7505
     2.7643   3.2094   3.3130   3.3470   3.3544   3.4553   3.4801   3.6711
     3.7154   3.7518   3.7843

[...]

          k = 0.0380-0.0419 0.0000 ( 17876 PWs)   bands (ev):

[...]

          k =-0.0760-0.0000 0.0000 ( 17886 PWs)   bands (ev):

[...]

          k =-0.0760-0.0839 0.0000 ( 17948 PWs)   bands (ev):

   -55.8900 -55.8891 -55.8572 -55.8460 -55.7886 -55.7842 -55.7403 -55.7083
   -55.7043 -55.6999 -55.6729 -55.6723 -55.4638 -55.3812 -54.8722 -54.8720
   -32.2279 -32.2063 -32.2059 -32.2058 -32.1844 -32.1838 -32.1264 -32.1186
   -32.0982 -32.0909 -32.0883 -32.0360 -32.0350 -32.0275 -32.0231 -32.0222
   -32.0167 -32.0129 -32.0108 -32.0095 -32.0083 -32.0060 -31.9937 -31.9904
   -31.9736 -31.9519 -31.9506 -31.9108 -31.9088 -31.9017 -31.9013 -31.8985
   -31.8922 -31.8888 -31.8881 -31.8824 -31.8795 -31.7748 -31.6946 -31.6410
   -31.5962 -31.5872 -31.1981 -31.1980 -31.1092 -31.1090 -31.0700 -31.0699
   -18.8941 -17.1694 -16.0478 -15.9626 -15.9244 -15.8352 -15.7894 -15.7557
   -15.6963 -15.6232 -15.5848 -15.5797 -15.5539 -15.4957 -15.4810 -15.4528
   -15.4352 -15.4235 -15.4192 -15.3668 -15.3606 -15.3516 -15.3471 -15.3338
   -15.3312 -15.3058 -15.2308 -15.2279 -15.1055 -14.8955 -14.8710 -13.3764
   -13.3761 -12.8421  -7.0791  -6.6118  -5.4306  -3.6765  -3.3927  -3.3277
    -3.2244  -3.1144  -3.0132  -3.0058  -2.9695  -2.9252  -2.8548  -2.8298
    -2.7742  -2.7537  -2.7397  -2.7232  -2.7188  -2.7080  -2.6749  -2.6518
    -2.5959  -2.5909  -2.5836  -2.5754  -2.5632  -2.5556  -2.5341  -2.5274
    -2.5014  -2.4748  -2.4363  -2.4053  -2.3227  -2.2462  -2.1691  -2.1206
    -2.0899  -2.0575  -2.0510  -2.0070  -1.9876  -1.9757  -1.9587  -1.8942
    -1.7940  -1.6749  -1.6186  -1.5949  -1.5469  -1.5106  -1.4871  -1.3821
    -1.3301  -1.3157  -1.2151  -1.1931  -1.1688  -1.1144  -1.0492  -1.0345
    -0.9917  -0.9485  -0.9059  -0.8653  -0.8600  -0.8101  -0.7654  -0.7390
    -0.6560  -0.6462  -0.6027  -0.5918  -0.5796  -0.5415  -0.4961  -0.4143
    -0.3179  -0.2726  -0.2211  -0.0678   0.0055   0.1413   0.1939   0.2592
     0.2758   0.3753   0.4037   0.4059   0.4873   0.5309   0.5876   0.6195
     0.6245   0.6370   0.8020   1.1106   1.4972   1.4982   1.5702   1.5707
     2.7212   3.5424   3.5999   3.6133   3.6395   3.7257   3.7493   3.7596
     3.7613   3.8804   3.8964

     the Fermi energy is     3.2220 ev

!    total energy              =   -2973.87562260 Ry
     estimated scf accuracy    <       0.00000004 Ry
     smearing contrib. (-TS)   =      -0.02179487 Ry
     internal energy E=F+TS    =   -2973.85382772 Ry

     The total energy is F=E-TS. E is the sum of the following terms:
     one-electron contribution =  -24185.23144427 Ry
     hartree contribution      =   12184.16668418 Ry
     xc contribution           =    -494.00720796 Ry
     ewald contribution        =    9521.21776894 Ry
     electric field correction =       0.00037138 Ry

     convergence has been achieved in  69 iterations

     Forces acting on atoms (cartesian axes, Ry/au):

     atom    1 type  1   force =     0.00016140   -0.00030494    0.09557066
     atom    2 type  1   force =     0.00004545   -0.00045052   -0.17579958
     atom    3 type  2   force =     0.00023138    0.00002101   -0.02351563
     atom    4 type  2   force =     0.00008571   -0.00152557    0.05312576
     atom    5 type  2   force =    -0.01025188   -0.00137169    0.00262375
     atom    6 type  2   force =     0.01292041   -0.00102046    0.00440529
     atom    7 type  1   force =     0.00139921    0.00128889   -0.00565217
     atom    8 type  1   force =    -0.00059715    0.01374263    0.01965904
     atom    9 type  2   force =     0.00024220   -0.00056193    0.00102124
     atom   10 type  2   force =    -0.00153766   -0.00072245   -0.01579927
     atom   11 type  2   force =    -0.00105181    0.00026400   -0.00021822
     atom   12 type  2   force =     0.00039579    0.00000394    0.00013979
     atom   13 type  1   force =     0.00055640    0.00084049    0.00028509
     atom   14 type  1   force =    -0.00021726   -0.00005559    0.00044325
     atom   15 type  2   force =    -0.00036061   -0.00002051   -0.00038565
     atom   16 type  2   force =     0.00000964   -0.00085573   -0.00035716
     atom   17 type  2   force =    -0.00062371   -0.00024710   -0.00025961
     atom   18 type  2   force =     0.00017519   -0.00031278   -0.00043720
     atom   19 type  1   force =     0.00073955   -0.00059953   -0.00089093
     atom   20 type  1   force =    -0.00067086   -0.00069449   -0.00044568
     atom   21 type  2   force =     0.00007290    0.00001783    0.10318764
     atom   22 type  2   force =    -0.00009358    0.00118199    0.00053877
     atom   23 type  2   force =    -0.07147985   -0.00007743   -0.02757725
     atom   24 type  2   force =     0.07144651    0.00038186   -0.02763241
     atom   25 type  1   force =     0.00009571   -0.00026391    0.09538681
     atom   26 type  1   force =     0.00004318   -0.00022865   -0.17587335
     atom   27 type  2   force =     0.00024751   -0.00036492   -0.02227330
     atom   28 type  2   force =     0.00008109   -0.00121877    0.05317633
     atom   29 type  2   force =    -0.01029466    0.00029792    0.00173484
     atom   30 type  2   force =     0.01288347    0.00085691    0.00359414
     atom   31 type  1   force =     0.00161601    0.00306572   -0.01050221
     atom   32 type  1   force =    -0.00067479   -0.01565000    0.01963618
     atom   33 type  2   force =     0.00053584    0.00064612    0.00017477
     atom   34 type  2   force =    -0.00085252    0.00099859   -0.01348055
     atom   35 type  2   force =     0.00110279    0.00005113   -0.00044244
     atom   36 type  2   force =    -0.00120540    0.00013201   -0.00020625
     atom   37 type  1   force =    -0.00030751   -0.00044750    0.00006617
     atom   38 type  1   force =    -0.00090821    0.00036440   -0.00039858
     atom   39 type  2   force =    -0.00046405   -0.00050623    0.00017176
     atom   40 type  2   force =     0.00009855    0.00096699    0.00014266
     atom   41 type  2   force =    -0.00117817    0.00051910    0.00060353
     atom   42 type  2   force =     0.00106739   -0.00020830    0.00053472
     atom   43 type  1   force =    -0.00019824    0.00095868   -0.00066443
     atom   44 type  1   force =    -0.00046443    0.00050589   -0.00162930
     atom   45 type  2   force =     0.00007370    0.00001126    0.10319300
     atom   46 type  2   force =    -0.07147672   -0.00004156   -0.02757419
     atom   47 type  2   force =     0.07144470    0.00038372   -0.02761297
     atom   48 type  3   force =    -0.00006755    0.00031680    0.00049906
     atom   49 type  4   force =     0.00007419   -0.00016421   -0.00064870
     atom   50 type  5   force =    -0.00106895   -0.00042522    0.00042662
     atom   51 type  3   force =     0.00055499    0.00001742   -0.00170848
     atom   52 type  5   force =    -0.00024765   -0.00011386    0.00089082
     atom   53 type  5   force =    -0.00061938   -0.00101772    0.00140992
     atom   54 type  2   force =    -0.00908423    0.01187216   -0.00163679
     atom   55 type  5   force =     0.00681724   -0.01045345    0.00214154
     atom   56 type  5   force =     0.00077874    0.00021754   -0.00116085

     Total force =     0.366549     Total SCF correction =     0.000444
  @ DRIVER MODE: Message from server: STATUS
  @ DRIVER MODE: Message from server: GETFORCE
  @ DRIVER MODE: Returning v,forces,stress,ensemble

     Writing output data file ./calc.save/
  @ DRIVER MODE: Message from server: EXIT
  @ DRIVE MODE: Exiting

     General routines

     Parallel routines

   This run was terminated on:   6:37:43  16Sep2021

   JOB DONE.