     Program PWSCF v.6.7GPU starts on 15Sep2021 at  4: 7:41

     R & G space division:  proc/nbgrp/npool/nimage =      10
     Reading input from /storage/home/hcoda1/3/ntian30/research/carbon/CxH_vib/CH2_calc/ads_slab/CH2OHN2_a/out_0042/pw.inp
Warning: card &CELL ignored
Warning: card   CELL_DYNAMICS='IPI', ignored
Warning: card / ignored

     Current dimensions of program PWSCF are:
     Max number of different atomic species (ntypx) = 10
     Max number of k-points (npk) =  40000
     Max angular momentum in pseudopotentials (lmaxx) =  3
     Presently no symmetry can be used with electric field

     Message from routine cell_base_init:
     DEPRECATED: use true lattice parameter, not A to a.u. conversion factor

     IMPORTANT: XC functional enforced from input :
     Exchange-correlation= BEEF-VDW
                           (   1   4  43  14   2   0   0)
     Any further DFT definition will be discarded
     Please, verify this is what you really want

  @ DRIVER MODE: Connecting to
 qe_1139763_2840440.sched-torque.pace.gatech.edupt104gfy_scratch
  using UNIX socket
  @ DRIVER MODE: Message from server: STATUS
  @ DRIVER MODE: Message from server: INIT
  @ DRIVER MODE: Receiving replica           0          -1
  @ DRIVER MODE: Receiving encoded integer          25
  @ DRIVER MODE:  SCF:  T  FORCE:  T  STRESS:  F  VC:  F  ENSEMBLE:  F
  @ DRIVER MODE:  SCF:  T  FORCE:  T  STRESS:  F  VC:  F  ENSEMBLE:  F

     Using Slab Decomposition

     bravais-lattice index     =            0
     lattice parameter (alat)  =       1.8897  a.u.
     unit-cell volume          =    6658.9804 (a.u.)^3
     number of atoms/cell      =           54
     number of atomic types    =            5
     number of electrons       =       401.00
     number of Kohn-Sham states=          210
     kinetic-energy cutoff     =      29.3995  Ry
     charge density cutoff     =     293.9946  Ry
     scf convergence threshold =      7.3E-08
     mixing beta               =       0.0500
     number of iterations used =            8  plain     mixing
     Exchange-correlation= BEEF-VDW
                           (   1   4  43  14   2   0   0)

     celldm(1)=   1.889726  celldm(2)=   0.000000  celldm(3)=   0.000000
     celldm(4)=   0.000000  celldm(5)=   0.000000  celldm(6)=   0.000000

     crystal axes: (cart. coord. in units of alat)
               a(1) = (   6.579727   0.000000   0.000000 )
               a(2) = (  -0.000775   5.961596   0.000000 )
               a(3) = (   0.000000   0.000000  25.155947 )

     reciprocal axes: (cart. coord. in units 2 pi/alat)
               b(1) = (  0.151982  0.000020  0.000000 )
               b(2) = (  0.000000  0.167740  0.000000 )
               b(3) = (  0.000000  0.000000  0.039752 )

     PseudoPot. # 1 for C  read from file:
     /storage/coda1/p-amedford6/0/shared/rich_project_chbe-medford/medford-share/data/pseudos_module/espresso/nninc/pbe/van/C.UPF
     MD5 check sum: 1a69bf6b8db32088f5b2163dbdb77a27
     Pseudo is Ultrasoft, Zval =  4.0
     Generated by new atomic code, or converted to UPF format
     Using radial grid of  721 points,  4 beta functions with:
                l(1) =   0
                l(2) =   0
                l(3) =   1
                l(4) =   1
     Q(r) pseudized with  8 coefficients,  rinner =    0.800   0.800   0.800

     PseudoPot. # 2 for H  read from file:
     /storage/coda1/p-amedford6/0/shared/rich_project_chbe-medford/medford-share/data/pseudos_module/espresso/nninc/pbe/van/H.UPF
     MD5 check sum: b5ee9d7bfd3a09ee7748110bda690ff7
     Pseudo is Ultrasoft, Zval =  1.0
     Generated by new atomic code, or converted to UPF format
     Using radial grid of  615 points,  1 beta functions with:
                l(1) =   0
     Q(r) pseudized with  8 coefficients,  rinner =    0.800

     PseudoPot. # 3 for O  read from file:
     /storage/coda1/p-amedford6/0/shared/rich_project_chbe-medford/medford-share/data/pseudos_module/espresso/nninc/pbe/van/O.UPF
     MD5 check sum: 78c19812648e8988a0fe644b0f25305e
     Pseudo is Ultrasoft, Zval =  6.0
     Generated by new atomic code, or converted to UPF format
     Using radial grid of  737 points,  4 beta functions with:
                l(1) =   0
                l(2) =   0
                l(3) =   1
                l(4) =   1
     Q(r) pseudized with  8 coefficients,  rinner =    0.800   0.800   0.800

     PseudoPot. # 4 for Ti read from file:
     /storage/coda1/p-amedford6/0/shared/rich_project_chbe-medford/medford-share/data/pseudos_module/espresso/nninc/pbe/van/Ti.UPF
     MD5 check sum: 8e4df49b7f0d34bbd5052bf3f5ea0213
     Pseudo is Ultrasoft, Zval = 12.0
     Generated by new atomic code, or converted to UPF format
     Using radial grid of  851 points,  6 beta functions with:
                l(1) =   0
                l(2) =   0
                l(3) =   1
                l(4) =   1
                l(5) =   2
                l(6) =   2
     Q(r) pseudized with  8 coefficients,  rinner =    1.000   1.000   1.000
                                                       1.000   1.000

     PseudoPot. # 5 for N  read from file:
     /storage/coda1/p-amedford6/0/shared/rich_project_chbe-medford/medford-share/data/pseudos_module/espresso/nninc/pbe/van/N.UPF
     MD5 check sum: 90d10febe142ad51ac9d5be1deb811c4
     Pseudo is Ultrasoft, Zval =  5.0
     Generated by new atomic code, or converted to UPF format
     Using radial grid of  729 points,  4 beta functions with:
                l(1) =   0
                l(2) =   0
                l(3) =   1
                l(4) =   1
     Q(r) pseudized with  8 coefficients,  rinner =    0.800   0.800   0.800

     atomic species   valence    mass     pseudopotential
        C1             4.00    12.01100     C ( 1.00)
        H1             1.00     1.00800     H ( 1.00)
        O1             6.00    15.99900     O ( 1.00)
        Ti1           12.00    47.86700     Ti( 1.00)
        N1             5.00    14.00700     N ( 1.00)

     No symmetry found

   Cartesian axes

     site n.     atom                  positions (alat units)
         1           C1  tau(   1) = (   5.1764158   1.5385028  19.8564928  )
         2           H1  tau(   2) = (   4.2418317   1.4168958  19.3325039  )
         3           H1  tau(   3) = (   6.1328006   2.9100337  18.2018079  )
         4           H1  tau(   4) = (   6.0297582   0.9181690  19.6386741  )
         5           O1  tau(   5) = (   0.0006271   0.0005054   7.9858123  )
         6           O1  tau(   6) = (   3.2906025   0.0005020   7.3038282  )
         7           O1  tau(   7) = (   4.5942328   1.4918067   9.2879030  )
         8           O1  tau(   8) = (   1.9868534   1.4903216   9.2879459  )
         9           O1  tau(   9) = (   3.2696825   0.0177092  11.3460806  )
        10           O1  tau(  10) = (   6.5743896   0.0111799  10.6115589  )
        11           O1  tau(  11) = (   1.2770957   1.5070501  12.6511825  )
        12           O1  tau(  12) = (   5.2749141   1.5057152  12.6378801  )
        13           O1  tau(  13) = (   6.5263050   0.0247340  14.7317399  )
        14           O1  tau(  14) = (   3.2747511   0.0213673  13.9312909  )
        15           O1  tau(  15) = (   4.4933390   1.5239927  16.1070736  )
        16           O1  tau(  16) = (   2.0026543   1.5217075  16.0711130  )
        17           O1  tau(  17) = (   3.2904802   0.0005063   4.7018136  )
        18           O1  tau(  18) = (   6.5469758   0.0421337  17.2556835  )
        19           O1  tau(  19) = (   1.3043587   1.4918075   6.0039043  )
        20           O1  tau(  20) = (   5.2767064   1.4903225   6.0039473  )
        21           O1  tau(  21) = (   0.0002396   2.9813036   7.9858123  )
        22           O1  tau(  22) = (   3.2902150   2.9813002   7.3038282  )
        23           O1  tau(  23) = (   4.5938453   4.4726049   9.2879030  )
        24           O1  tau(  24) = (   1.9864658   4.4711199   9.2879459  )
        25           O1  tau(  25) = (   3.2722311   3.0011533  11.3472759  )
        26           O1  tau(  26) = (   6.5787409   2.9955660  10.5677177  )
        27           O1  tau(  27) = (   1.2755865   4.4883074  12.6550720  )
        28           O1  tau(  28) = (   5.2773609   4.4903743  12.6413705  )
        29           O1  tau(  29) = (   6.5451067   2.9841024  14.7029789  )
        30           O1  tau(  30) = (   3.2773495   3.0062142  13.9304278  )
        31           O1  tau(  31) = (   4.4941242   4.5002890  16.1165364  )
        32           O1  tau(  32) = (   2.0016379   4.5015838  16.0818063  )
        33           O1  tau(  33) = (   3.2900926   2.9813045   4.7018136  )
        34           O1  tau(  34) = (   1.3039711   4.4726057   6.0039043  )
        35           O1  tau(  35) = (   5.2763189   4.4711207   6.0039473  )
        36           O1  tau(  36) = (   6.5536212   3.0044252  17.3297899  )
        37           Ti1 tau(  37) = (   0.0004258   2.9801865   6.0000000  )
        38           Ti1 tau(  38) = (   3.2906075   1.4906267   6.0002472  )
        39           Ti1 tau(  39) = (   3.3348906   3.0327224   9.1579215  )
        40           Ti1 tau(  40) = (   0.0203972   1.6099837   9.3624797  )
        41           Ti1 tau(  41) = (   6.5380572   3.0081639  12.8251979  )
        42           Ti1 tau(  42) = (   3.2225065   1.5141752  12.4854623  )
        43           Ti1 tau(  43) = (   3.2525775   3.0161725  15.7233172  )
        44           Ti1 tau(  44) = (   6.5465844   1.4469101  15.9770741  )
        45           Ti1 tau(  45) = (   0.0000382   5.9609847   6.0000000  )
        46           Ti1 tau(  46) = (   3.2902200   4.4714249   6.0002472  )
        47           Ti1 tau(  47) = (   3.2831171   0.0558662   9.1532617  )
        48           Ti1 tau(  48) = (   0.0294011   4.5318189   9.2743274  )
        49           Ti1 tau(  49) = (   6.5160019   0.0223579  12.5245727  )
        50           Ti1 tau(  50) = (   3.2207252   4.4944464  12.4919313  )
        51           Ti1 tau(  51) = (   3.2545639   0.0336594  15.7221480  )
        52           Ti1 tau(  52) = (   6.5427997   4.6104004  16.1309301  )
        53           N1  tau(  53) = (   5.0796009   2.6163306  22.0446247  )
        54           N1  tau(  54) = (   5.1188049   2.0915644  21.0430699  )

     number of k points=    10  Fermi-Dirac smearing, width (Ry)=  0.0073
                       cart. coord. in units 2pi/alat
        k(    1) = (   0.0000000   0.0000000   0.0000000), wk =   0.1250000
        k(    2) = (   0.0000000   0.0419351   0.0000000), wk =   0.2500000
        k(    3) = (   0.0000000  -0.0838702   0.0000000), wk =   0.1250000
        k(    4) = (   0.0379955   0.0000049   0.0000000), wk =   0.2500000
        k(    5) = (   0.0379955   0.0419400   0.0000000), wk =   0.2500000
        k(    6) = (   0.0379955  -0.0838652   0.0000000), wk =   0.2500000
        k(    7) = (   0.0379955  -0.0419301   0.0000000), wk =   0.2500000
        k(    8) = (  -0.0759910  -0.0000099   0.0000000), wk =   0.1250000
        k(    9) = (  -0.0759910   0.0419252   0.0000000), wk =   0.2500000
        k(   10) = (  -0.0759910  -0.0838800   0.0000000), wk =   0.1250000

     Initial potential from superposition of free atoms

     starting charge  384.99916, renormalised to  401.00000

     negative rho (up, down):  1.196E-02 0.000E+00

     %%%%%%%%%%%%%%%%%%%%%%%%%%%%%%%%%%%%%%%%%%%%%%%%%%%%%%%%%%%%%%%%%%%%%%%%
     %                                                                      %
     % You are using vdW-DF, which was implemented by the Thonhauser group. %
     % Please cite the following two papers that made this development      %
     % possible and the two reviews that describe the various versions:     %
     %                                                                      %
     %   T. Thonhauser et al., PRL 115, 136402 (2015).                      %
     %   T. Thonhauser et al., PRB 76, 125112 (2007).                       %
     %   K. Berland et al., Rep. Prog. Phys. 78, 066501 (2015).             %
     %   D.C. Langreth et al., J. Phys.: Condens. Matter 21, 084203 (2009). %
     %                                                                      %
     %                                                                      %
     % If you are calculating the stress with vdW-DF, please also cite:     %
     %                                                                      %
     %   R. Sabatini et al., J. Phys.: Condens. Matter 24, 424209 (2012).   %
     %                                                                      %
     %%%%%%%%%%%%%%%%%%%%%%%%%%%%%%%%%%%%%%%%%%%%%%%%%%%%%%%%%%%%%%%%%%%%%%%%

     Adding external electric field

     Computed dipole along edir(3) :
        Dipole              -14.1001 Ry au,        -35.8390 Debye
        Dipole field         -0.0266 Ry au,

        Potential amp.        2.4666 Ry
        Total length         46.3494 bohr

     Starting wfcs are  303 atomic wfcs
  @ DRIVER MODE: Message from server: STATUS
  @ DRIVER MODE: Message from server: POSDATA
  @ DRIVER MODE: Reading and sharing cell
  @ DRIVER MODE: Reading and sharing positions
  @ DRIVER MODE: Received positions

     Self-consistent Calculation

     iteration #  1     ecut=    29.40 Ry     beta= 0.05
     Davidson diagonalization with overlap
     c_bands:  5 eigenvalues not converged
     c_bands:  4 eigenvalues not converged
     c_bands:  5 eigenvalues not converged
     c_bands:  2 eigenvalues not converged
     c_bands:  4 eigenvalues not converged
     c_bands:  4 eigenvalues not converged
     c_bands:  4 eigenvalues not converged
     c_bands:  4 eigenvalues not converged
     c_bands:  5 eigenvalues not converged
     ethr =  1.00E-05,  avg # of iterations = 22.0

[...]

     total energy              =   -2410.39971867 Ry
     estimated scf accuracy    <    6379.09011947 Ry

     iteration #  2     ecut=    29.40 Ry     beta= 0.05
     Davidson diagonalization with overlap
     ethr =  1.00E-02,  avg # of iterations = 24.4

[...]

     iteration # 50     ecut=    29.40 Ry     beta= 0.05
     Davidson diagonalization with overlap
     c_bands:  1 eigenvalues not converged
     ethr =  2.06E-09,  avg # of iterations = 13.9

[...]

     total energy              =   -2971.53761130 Ry
     estimated scf accuracy    <       0.00000033 Ry

     iteration # 70     ecut=    29.40 Ry     beta= 0.05
     Davidson diagonalization with overlap
     ethr =  5.44E-11,  avg # of iterations =  9.1

     negative rho (up, down):  1.326E-02 0.000E+00

     Adding external electric field

     Computed dipole along edir(3) :
        Dipole                0.4649 Ry au,          1.1817 Debye
        Dipole field          0.0009 Ry au,

        Potential amp.       -0.0813 Ry
        Total length         46.3494 bohr

     End of self-consistent calculation

          k = 0.0000 0.0000 0.0000 ( 18029 PWs)   bands (ev):

   -55.7519 -55.7390 -55.7148 -55.7027 -55.6596 -55.6385 -55.6128 -55.5797
   -55.5765 -55.5666 -55.5250 -55.5017 -55.4681 -55.4019 -54.7625 -54.7284
   -32.3032 -32.2189 -32.1857 -32.1004 -32.0711 -32.0534 -32.0437 -32.0202
   -31.9815 -31.9772 -31.9625 -31.9545 -31.9491 -31.9200 -31.9123 -31.9088
   -31.9047 -31.8831 -31.8753 -31.8478 -31.8411 -31.8180 -31.8170 -31.8111
   -31.7943 -31.7877 -31.7696 -31.7656 -31.7581 -31.7557 -31.7485 -31.7410
   -31.7293 -31.7259 -31.7210 -31.6823 -31.6812 -31.6467 -31.6239 -31.6079
   -31.5906 -31.5877 -31.1722 -31.0753 -31.0529 -30.9889 -30.9028 -30.7916
   -20.9183 -16.9847 -16.4874 -16.1933 -16.0266 -15.8993 -15.8706 -15.7698
   -15.5789 -15.4443 -15.4274 -15.3531 -15.3187 -15.3111 -15.2808 -15.2712
   -15.2650 -15.2549 -15.2076 -15.1829 -15.1675 -15.1527 -15.1265 -15.0748
   -15.0274 -14.9558 -14.9083 -14.8680 -14.8481 -14.7492 -14.7304 -13.8892
   -13.2630 -13.1448  -6.5395  -5.6146  -4.9743  -4.6019  -3.8510  -3.6748
    -3.6577  -3.6391  -3.5569  -3.5536  -3.3131  -3.2971  -2.9969  -2.9216
    -2.8914  -2.8879  -2.8739  -2.6969  -2.6568  -2.5946  -2.5775  -2.5747
    -2.5601  -2.5477  -2.5352  -2.5052  -2.4830  -2.4576  -2.4484  -2.3102
    -2.2818  -2.1640  -2.1441  -2.1331  -2.0753  -2.0513  -2.0177  -1.9962
    -1.9912  -1.9741  -1.9524  -1.9174  -1.8320  -1.8080  -1.6831  -1.5781
    -1.5415  -1.4478  -1.3012  -1.2279  -1.2084  -1.1771  -1.1510  -1.1360
    -1.0889  -1.0640  -1.0121  -0.9493  -0.9442  -0.8396  -0.7664  -0.7289
    -0.6515  -0.6316  -0.6134  -0.4941  -0.4731  -0.4618  -0.2893  -0.2286
    -0.2166  -0.2139  -0.0848  -0.0432  -0.0090   0.0043   0.0339   0.0647
     0.1103   0.1525   0.2114   0.2358   0.2466   0.2549   0.2781   0.3039
     0.4198   0.4359   0.4480   0.5650   0.5842   0.7736   0.7812   0.8982
     0.9984   1.1661   1.2620   1.3331   1.4331   1.7263   1.8509   1.9112
     3.4378   3.4688   3.5002   3.5175   3.5887   3.7118   3.8196   3.8752
     3.8963   3.9180

[...]

          k = 0.0380-0.0419 0.0000 ( 17876 PWs)   bands (ev):

[...]

          k =-0.0760-0.0000 0.0000 ( 17886 PWs)   bands (ev):

[...]

          k =-0.0760-0.0839 0.0000 ( 17948 PWs)   bands (ev):

   -55.7407 -55.7258 -55.7219 -55.7195 -55.6562 -55.6337 -55.6008 -55.5885
   -55.5845 -55.5698 -55.5222 -55.4857 -55.4841 -55.4043 -54.7460 -54.7448
   -32.1068 -32.1027 -32.0857 -32.0430 -32.0328 -32.0273 -32.0101 -32.0090
   -32.0024 -31.9658 -31.9413 -31.9337 -31.9314 -31.8970 -31.8921 -31.8837
   -31.8722 -31.8684 -31.8671 -31.8574 -31.8565 -31.8467 -31.8417 -31.8348
   -31.8314 -31.8094 -31.8046 -31.8003 -31.7931 -31.7929 -31.7890 -31.7702
   -31.7634 -31.7454 -31.7422 -31.7363 -31.7206 -31.7040 -31.6909 -31.6838
   -31.6323 -31.5971 -31.0663 -31.0649 -30.9856 -30.9847 -30.9464 -30.9454
   -20.9181 -16.9190 -15.9297 -15.9206 -15.6783 -15.6721 -15.6679 -15.5973
   -15.5132 -15.4920 -15.4703 -15.4660 -15.4163 -15.4027 -15.3908 -15.3276
   -15.2926 -15.2749 -15.2571 -15.2530 -15.1988 -15.1940 -15.1499 -15.1261
   -15.1079 -15.1024 -15.0777 -15.0734 -15.0342 -14.9730 -14.9046 -13.8891
   -13.2473 -13.2449  -6.5338  -5.6170  -4.9164  -4.5964  -3.5542  -3.2214
    -3.2106  -2.9446  -2.8959  -2.8828  -2.8010  -2.7388  -2.6734  -2.6368
    -2.6325  -2.6041  -2.5953  -2.5850  -2.5753  -2.5706  -2.5529  -2.5363
    -2.5153  -2.5035  -2.4467  -2.4252  -2.4001  -2.3806  -2.3729  -2.3621
    -2.3248  -2.3062  -2.2952  -2.2793  -2.2750  -2.1937  -2.0486  -2.0025
    -1.9076  -1.8874  -1.8782  -1.8353  -1.8136  -1.7967  -1.7820  -1.7326
    -1.7163  -1.5482  -1.4788  -1.4620  -1.4441  -1.4122  -1.3552  -1.2659
    -1.2353  -1.1616  -1.1543  -1.1119  -1.0528  -0.9777  -0.9558  -0.9156
    -0.8564  -0.8195  -0.7625  -0.7295  -0.7078  -0.7003  -0.6493  -0.5929
    -0.5545  -0.4942  -0.4680  -0.4048  -0.3649  -0.3285  -0.2721  -0.2459
    -0.2101  -0.1003   0.0068   0.1428   0.2051   0.2809   0.2945   0.3207
     0.3419   0.4592   0.4903   0.5182   0.5606   0.6479   0.7019   0.7715
     0.7912   0.8195   0.8761   1.6225   1.6238   1.7130   1.7237   1.7286
     3.6349   3.6710   3.6895   3.7385   3.8962   3.9009   3.9196   3.9275
     3.9798   4.0590

     the Fermi energy is     3.4037 ev

!    total energy              =   -2971.53763498 Ry
     estimated scf accuracy    <       0.00000005 Ry
     smearing contrib. (-TS)   =      -0.02329437 Ry
     internal energy E=F+TS    =   -2971.51434062 Ry

     The total energy is F=E-TS. E is the sum of the following terms:
     one-electron contribution =  -22750.38064789 Ry
     hartree contribution      =   11466.35024595 Ry
     xc contribution           =    -492.33696983 Ry
     ewald contribution        =    8804.85262327 Ry
     electric field correction =       0.00040788 Ry

     convergence has been achieved in  70 iterations

     Forces acting on atoms (cartesian axes, Ry/au):

     atom    1 type  1   force =    -0.00031734    0.00709578    0.01250485
     atom    2 type  2   force =    -0.00061866    0.00107782    0.00077292
     atom    3 type  2   force =    -0.00161036   -0.00084130   -0.00023599
     atom    4 type  2   force =     0.00057442   -0.00037837    0.00072356
     atom    5 type  3   force =     0.00034105   -0.00680540   -0.03337851
     atom    6 type  3   force =    -0.00002348    0.00055005    0.04534009
     atom    7 type  3   force =    -0.02047664    0.00052897    0.00452030
     atom    8 type  3   force =     0.01815566   -0.00160075    0.00414911
     atom    9 type  3   force =     0.00013289    0.00000651   -0.00008497
     atom   10 type  3   force =    -0.00004554   -0.00004924    0.00018749
     atom   11 type  3   force =     0.00023003   -0.00009690   -0.00030696
     atom   12 type  3   force =     0.00048614    0.00012263   -0.00015483
     atom   13 type  3   force =     0.00030715   -0.00020274   -0.00019430
     atom   14 type  3   force =     0.00035693    0.00021062   -0.00005731
     atom   15 type  3   force =    -0.00023886   -0.00014189    0.00034896
     atom   16 type  3   force =     0.00027764   -0.00010116    0.00009565
     atom   17 type  3   force =     0.00003367    0.00006161    0.10415921
     atom   18 type  3   force =    -0.00011238    0.00013022    0.00065520
     atom   19 type  3   force =    -0.06902492    0.00070296   -0.02967321
     atom   20 type  3   force =     0.06879644    0.00126908   -0.02966640
     atom   21 type  3   force =     0.00038451    0.00378717   -0.02830804
     atom   22 type  3   force =     0.00085620    0.00084646    0.04703459
     atom   23 type  3   force =    -0.01799705    0.00141199    0.00376206
     atom   24 type  3   force =     0.01769195    0.00227221    0.00329028
     atom   25 type  3   force =    -0.00016168   -0.00019347    0.00004998
     atom   26 type  3   force =     0.00016815   -0.00003384    0.00040705
     atom   27 type  3   force =    -0.00025406   -0.00014871    0.00025976
     atom   28 type  3   force =    -0.00001177   -0.00020976    0.00058874
     atom   29 type  3   force =     0.00008725   -0.00055782    0.00007032
     atom   30 type  3   force =    -0.00019720   -0.00034174    0.00037181
     atom   31 type  3   force =    -0.00035962   -0.00009722    0.00003360
     atom   32 type  3   force =    -0.00005597   -0.00019713   -0.00035289
     atom   33 type  3   force =     0.00004184    0.00003646    0.10423635
     atom   34 type  3   force =    -0.06860211   -0.00136014   -0.02970897
     atom   35 type  3   force =     0.06848409   -0.00098637   -0.02969014
     atom   36 type  3   force =     0.00122307    0.00057135   -0.00010843
     atom   37 type  4   force =    -0.00001455   -0.00158923    0.10637220
     atom   38 type  4   force =    -0.00016772    0.00074410   -0.17961647
     atom   39 type  4   force =    -0.00040679    0.00005682   -0.00011957
     atom   40 type  4   force =     0.00000911    0.00005185   -0.00009332
     atom   41 type  4   force =    -0.00004280    0.00055027   -0.00055727
     atom   42 type  4   force =    -0.00012321    0.00001729    0.00022113
     atom   43 type  4   force =    -0.00013545   -0.00022459   -0.00050212
     atom   44 type  4   force =     0.00054428    0.00056445   -0.00039220
     atom   45 type  4   force =    -0.00000449    0.00121732    0.11836501
     atom   46 type  4   force =    -0.00000801   -0.00035277   -0.17986294
     atom   47 type  4   force =     0.00035150    0.00005117   -0.00025328
     atom   48 type  4   force =    -0.00002878    0.00026281   -0.00035219
     atom   49 type  4   force =     0.00055143    0.00057786   -0.00003654
     atom   50 type  4   force =     0.00014741    0.00011757   -0.00079344
     atom   51 type  4   force =     0.00041641   -0.00078152   -0.00017087
     atom   52 type  4   force =     0.00086032   -0.00111377    0.00047797
     atom   53 type  5   force =    -0.00056806    0.01838296    0.03430089
     atom   54 type  5   force =     0.00009800   -0.02487055   -0.04862791

     Total force =     0.382764     Total SCF correction =     0.000469
  @ DRIVER MODE: Message from server: STATUS
  @ DRIVER MODE: Message from server: GETFORCE
  @ DRIVER MODE: Returning v,forces,stress,ensemble

     Writing output data file ./calc.save/
  @ DRIVER MODE: Message from server: EXIT
  @ DRIVE MODE: Exiting

     General routines

     Parallel routines

   This run was terminated on:   4:27:38  15Sep2021

   JOB DONE.