     Program PWSCF v.6.8 starts on 11Oct2021 at 21:53:37

     R & G space division:  proc/nbgrp/npool/nimage =       4

     Reading input from /storage/home/hcoda1/3/ntian30/research/carbon/ACS_sus_calc/ads_slab/N2H/ACS_sus_calc.log/pw.inp
Warning: card &CELL ignored
Warning: card   CELL_DYNAMICS='IPI', ignored
Warning: card / ignored

     Current dimensions of program PWSCF are:
     Max number of different atomic species (ntypx) = 10
     Max number of k-points (npk) =  40000
     Max angular momentum in pseudopotentials (lmaxx) =  4
     Presently no symmetry can be used with electric field

     Message from routine cell_base_init:
     DEPRECATED: use true lattice parameter, not A to a.u. conversion factor

     IMPORTANT: XC functional enforced from input :
     Exchange-correlation= BEEF-VDW
                           (   1   4  43  14   2   0   0)
     Any further DFT definition will be discarded
     Please, verify this is what you really want

  @ DRIVER MODE: Connecting to
 qe_1139763_3174296.sched-torque.pace.gatech.edu_ts0h6xj_scratch
  using UNIX socket
  @ DRIVER MODE: Message from server: STATUS
  @ DRIVER MODE: Message from server: INIT
  @ DRIVER MODE: Receiving replica           0          -1
  @ DRIVER MODE: Receiving encoded integer          25
  @ DRIVER MODE:  SCF:  T  FORCE:  T  STRESS:  F  VC:  F  ENSEMBLE:  F
  @ DRIVER MODE:  SCF:  T  FORCE:  T  STRESS:  F  VC:  F  ENSEMBLE:  F

     Using Slab Decomposition

     bravais-lattice index     =            0
     lattice parameter (alat)  =       1.8897  a.u.
     unit-cell volume          =    6658.9804 (a.u.)^3
     number of atoms/cell      =           50
     number of atomic types    =            4
     number of electrons       =       389.00
     number of Kohn-Sham states=          204
     kinetic-energy cutoff     =      29.3995  Ry
     charge density cutoff     =     293.9946  Ry
     scf convergence threshold =      7.3E-08
     mixing beta               =       0.0500
     number of iterations used =            8  plain     mixing
     Exchange-correlation= BEEF-VDW
                           (   1   4  43  14   2   0   0)

     celldm(1)=   1.889726  celldm(2)=   0.000000  celldm(3)=   0.000000
     celldm(4)=   0.000000  celldm(5)=   0.000000  celldm(6)=   0.000000

     crystal axes: (cart. coord. in units of alat)
               a(1) = (   6.579727   0.000000   0.000000 )
               a(2) = (  -0.000775   5.961596   0.000000 )
               a(3) = (   0.000000   0.000000  25.155947 )

     reciprocal axes: (cart. coord. in units 2 pi/alat)
               b(1) = (  0.151982  0.000020  0.000000 )
               b(2) = (  0.000000  0.167740  0.000000 )
               b(3) = (  0.000000  0.000000  0.039752 )

     PseudoPot. # 1 for Ti read from file:
     /storage/coda1/p-amedford6/0/shared/rich_project_chbe-medford/medford-share/data/pseudos_module/espresso/nninc/pbe/van/Ti.UPF
     MD5 check sum: 8e4df49b7f0d34bbd5052bf3f5ea0213
     Pseudo is Ultrasoft, Zval = 12.0
     Generated by new atomic code, or converted to UPF format
     Using radial grid of  851 points,  6 beta functions with:
                l(1) =   0
                l(2) =   0
                l(3) =   1
                l(4) =   1
                l(5) =   2
                l(6) =   2
     Q(r) pseudized with  8 coefficients,  rinner =    1.000   1.000   1.000
                                                       1.000   1.000

     PseudoPot. # 2 for O  read from file:
     /storage/coda1/p-amedford6/0/shared/rich_project_chbe-medford/medford-share/data/pseudos_module/espresso/nninc/pbe/van/O.UPF
     MD5 check sum: 78c19812648e8988a0fe644b0f25305e
     Pseudo is Ultrasoft, Zval =  6.0
     Generated by new atomic code, or converted to UPF format
     Using radial grid of  737 points,  4 beta functions with:
                l(1) =   0
                l(2) =   0
                l(3) =   1
                l(4) =   1
     Q(r) pseudized with  8 coefficients,  rinner =    0.800   0.800   0.800

     PseudoPot. # 3 for N  read from file:
     /storage/coda1/p-amedford6/0/shared/rich_project_chbe-medford/medford-share/data/pseudos_module/espresso/nninc/pbe/van/N.UPF
     MD5 check sum: 90d10febe142ad51ac9d5be1deb811c4
     Pseudo is Ultrasoft, Zval =  5.0
     Generated by new atomic code, or converted to UPF format
     Using radial grid of  729 points,  4 beta functions with:
                l(1) =   0
                l(2) =   0
                l(3) =   1
                l(4) =   1
     Q(r) pseudized with  8 coefficients,  rinner =    0.800   0.800   0.800

     PseudoPot. # 4 for H  read from file:
     /storage/coda1/p-amedford6/0/shared/rich_project_chbe-medford/medford-share/data/pseudos_module/espresso/nninc/pbe/van/H.UPF
     MD5 check sum: b5ee9d7bfd3a09ee7748110bda690ff7
     Pseudo is Ultrasoft, Zval =  1.0
     Generated by new atomic code, or converted to UPF format
     Using radial grid of  615 points,  1 beta functions with:
                l(1) =   0
     Q(r) pseudized with  8 coefficients,  rinner =    0.800

     atomic species   valence    mass     pseudopotential
        Ti1           12.00    47.86700     Ti( 1.00)
        O1             6.00    15.99900     O ( 1.00)
        N1             5.00    14.00700     N ( 1.00)
        H1             1.00     1.00800     H ( 1.00)

     No symmetry found

   Cartesian axes

     site n.     atom                  positions (alat units)
         1           Ti1 tau(   1) = (   0.0004258   2.9801865   6.0000000  )
         2           Ti1 tau(   2) = (   3.2906075   1.4906267   6.0002472  )
         3           O1  tau(   3) = (   0.0006271   0.0005054   7.9858123  )
         4           O1  tau(   4) = (   3.2906025   0.0005020   7.3038282  )
         5           O1  tau(   5) = (   4.5942328   1.4918067   9.2879030  )
         6           O1  tau(   6) = (   1.9868534   1.4903216   9.2879459  )
         7           Ti1 tau(   7) = (   3.2902212   3.0372777   9.1598921  )
         8           Ti1 tau(   8) = (   0.0015998   1.5808621   9.3513432  )
         9           O1  tau(   9) = (   3.2929667   0.0152227  11.3378484  )
        10           O1  tau(  10) = (   0.0012700   0.0099963  10.5953784  )
        11           O1  tau(  11) = (   1.2971374   1.5089889  12.6198674  )
        12           O1  tau(  12) = (   5.2863504   1.5082662  12.6201857  )
        13           Ti1 tau(  13) = (   0.0059715   3.0211728  12.7470892  )
        14           Ti1 tau(  14) = (   3.2986936   1.5093142  12.4845166  )
        15           O1  tau(  15) = (   0.0035683   0.0189564  14.6262194  )
        16           O1  tau(  16) = (   3.2910817   0.0185436  13.9421785  )
        17           O1  tau(  17) = (   4.5412766   1.5189425  16.0904920  )
        18           O1  tau(  18) = (   2.0413434   1.5177874  16.0864900  )
        19           Ti1 tau(  19) = (   3.2865177   2.9962270  15.7127977  )
        20           Ti1 tau(  20) = (   6.5702843   1.3477212  16.0055088  )
        21           O1  tau(  21) = (   3.2904802   0.0005063   4.7018136  )
        22           O1  tau(  22) = (   0.0014514   0.0378889  17.1945177  )
        23           O1  tau(  23) = (   1.3043587   1.4918075   6.0039043  )
        24           O1  tau(  24) = (   5.2767064   1.4903225   6.0039473  )
        25           Ti1 tau(  25) = (   0.0000382   5.9609847   6.0000000  )
        26           Ti1 tau(  26) = (   3.2902200   4.4714249   6.0002472  )
        27           O1  tau(  27) = (   0.0002396   2.9813036   7.9858123  )
        28           O1  tau(  28) = (   3.2902150   2.9813002   7.3038282  )
        29           O1  tau(  29) = (   4.5938453   4.4726049   9.2879030  )
        30           O1  tau(  30) = (   1.9864658   4.4711199   9.2879459  )
        31           Ti1 tau(  31) = (   3.2905692   0.0583984   9.1584685  )
        32           Ti1 tau(  32) = (   0.0012377   4.5275272   9.3035191  )
        33           O1  tau(  33) = (   3.2924315   2.9939117  11.3317478  )
        34           O1  tau(  34) = (   0.0007225   2.9932743  10.5742601  )
        35           O1  tau(  35) = (   1.2987097   4.4859476  12.6169519  )
        36           O1  tau(  36) = (   5.2839140   4.4857717  12.6174276  )
        37           Ti1 tau(  37) = (   0.0082927   0.0386017  12.5756724  )
        38           Ti1 tau(  38) = (   3.2981219   4.4862627  12.4798346  )
        39           O1  tau(  39) = (   0.0004249   3.0246010  14.6634064  )
        40           O1  tau(  40) = (   3.2913949   2.9954949  13.9137496  )
        41           O1  tau(  41) = (   4.5466017   4.4669359  16.0828803  )
        42           O1  tau(  42) = (   2.0380764   4.4690984  16.0794651  )
        43           Ti1 tau(  43) = (   3.2817738   0.0197594  15.7401776  )
        44           Ti1 tau(  44) = (   6.5702537   4.5002218  15.9517650  )
        45           O1  tau(  45) = (   3.2900926   2.9813045   4.7018136  )
        46           O1  tau(  46) = (   1.3039711   4.4726057   6.0039043  )
        47           O1  tau(  47) = (   5.2763189   4.4711207   6.0039473  )
        48           N1  tau(  48) = (   0.0703449   2.9935270  18.6666976  )
        49           N1  tau(  49) = (   0.0230570   3.0543978  17.4400403  )
        50           H1  tau(  50) = (   0.0878185   1.9938675  18.9935529  )

     number of k points=    10  Fermi-Dirac smearing, width (Ry)=  0.0073
                       cart. coord. in units 2pi/alat
        k(    1) = (   0.0000000   0.0000000   0.0000000), wk =   0.1250000
        k(    2) = (   0.0000000   0.0419351   0.0000000), wk =   0.2500000
        k(    3) = (   0.0000000  -0.0838702   0.0000000), wk =   0.1250000
        k(    4) = (   0.0379955   0.0000049   0.0000000), wk =   0.2500000
        k(    5) = (   0.0379955   0.0419400   0.0000000), wk =   0.2500000
        k(    6) = (   0.0379955  -0.0838652   0.0000000), wk =   0.2500000
        k(    7) = (   0.0379955  -0.0419301   0.0000000), wk =   0.2500000
        k(    8) = (  -0.0759910  -0.0000099   0.0000000), wk =   0.1250000
        k(    9) = (  -0.0759910   0.0419252   0.0000000), wk =   0.2500000
        k(   10) = (  -0.0759910  -0.0838800   0.0000000), wk =   0.1250000

     Initial potential from superposition of free atoms

     starting charge  372.99922, renormalised to  389.00000

     negative rho (up, down):  2.001E-02 0.000E+00

     %%%%%%%%%%%%%%%%%%%%%%%%%%%%%%%%%%%%%%%%%%%%%%%%%%%%%%%%%%%%%%%%%%%%%%%%
     %                                                                      %
     % You are using vdW-DF, which was implemented by the Thonhauser group. %
     % Please cite the following two papers that made this development      %
     % possible and the two reviews that describe the various versions:     %
     %                                                                      %
     %   T. Thonhauser et al., PRL 115, 136402 (2015).                      %
     %   T. Thonhauser et al., PRB 76, 125112 (2007).                       %
     %   K. Berland et al., Rep. Prog. Phys. 78, 066501 (2015).             %
     %   D.C. Langreth et al., J. Phys.: Condens. Matter 21, 084203 (2009). %
[...]
     atom    9 type  2   force =    -0.00020130   -0.00020295    0.00329395
     atom   10 type  2   force =     0.00019743   -0.00014179   -0.00142959
     atom   11 type  2   force =    -0.00090033    0.00004858    0.00025087
     atom   12 type  2   force =     0.00069301    0.00005381    0.00031256
     atom   13 type  1   force =    -0.00008160    0.00027503    0.00232946
     atom   14 type  1   force =     0.00053283    0.00063887   -0.00200398
     atom   15 type  2   force =     0.00022983   -0.00002588    0.00322478
     atom   16 type  2   force =    -0.00005596   -0.00076790    0.00205225
     atom   17 type  2   force =    -0.00284559   -0.00037452   -0.00064025
     atom   18 type  2   force =     0.00297640   -0.00066050   -0.00060334
     atom   19 type  1   force =     0.00063387    0.00037504   -0.00151514
     atom   20 type  1   force =    -0.00037843   -0.00275162   -0.00043707
     atom   21 type  2   force =     0.00003549    0.00007598    0.10377199
     atom   22 type  2   force =     0.00003369   -0.00042594   -0.00270384
     atom   23 type  2   force =    -0.06970514    0.00040914   -0.03042169
     atom   24 type  2   force =     0.06959092    0.00084453   -0.03047154
     atom   25 type  1   force =     0.00013954    0.00084603    0.12139963
     atom   26 type  1   force =    -0.00005467    0.00037421   -0.17794077
     atom   27 type  2   force =     0.00012876    0.00081134   -0.03117885
     atom   28 type  2   force =    -0.00005659    0.00068642    0.04588269
     atom   29 type  2   force =    -0.01872539    0.00036677    0.00320062
     atom   30 type  2   force =     0.01849677    0.00093396    0.00330416
     atom   31 type  1   force =     0.00055701    0.00042618   -0.00237398
     atom   32 type  1   force =    -0.00055122    0.00220440   -0.00058527
     atom   33 type  2   force =    -0.00012591    0.00021606    0.00411788
     atom   34 type  2   force =     0.00012435   -0.00059670   -0.00247006
     atom   35 type  2   force =    -0.00068912    0.00006720   -0.00006310
     atom   36 type  2   force =     0.00047058    0.00005943   -0.00003451
     atom   37 type  1   force =     0.00000616    0.00072614   -0.00077202
     atom   38 type  1   force =     0.00065275   -0.00018460   -0.00201665
     atom   39 type  2   force =     0.00019171    0.00145289   -0.00050544
     atom   40 type  2   force =    -0.00008944    0.00014943    0.00111639
     atom   41 type  2   force =    -0.00175096   -0.00010881    0.00018571
     atom   42 type  2   force =     0.00195009   -0.00005692    0.00012302
     atom   43 type  1   force =     0.00009069   -0.00004467   -0.00240664
     atom   44 type  1   force =    -0.00095586    0.00110564   -0.00023698
     atom   45 type  2   force =     0.00003949    0.00005326    0.10383425
     atom   46 type  2   force =    -0.06951509   -0.00108281   -0.03046591
     atom   47 type  2   force =     0.06940866   -0.00064308   -0.03051541
     atom   48 type  3   force =    -0.00019375   -0.00411613   -0.00536953
     atom   49 type  3   force =     0.00023045   -0.00122412    0.00787404
     atom   50 type  4   force =    -0.00060380    0.00523451   -0.00101230

     Total force =     0.379178     Total SCF correction =     0.000709
  @ DRIVER MODE: Message from server: STATUS
  @ DRIVER MODE: Message from server: GETFORCE
  @ DRIVER MODE: Returning v,forces,stress,ensemble

     Writing config to output data dir ./calc.save/
  @ DRIVER MODE: Message from server: STATUS
  @ DRIVER MODE: Message from server: INIT
  @ DRIVER MODE: Receiving replica           0           0
  @ DRIVER MODE: Receiving encoded integer          25
  @ DRIVER MODE:  SCF:  T  FORCE:  T  STRESS:  F  VC:  F  ENSEMBLE:  F
  @ DRIVER MODE:  SCF:  T  FORCE:  T  STRESS:  F  VC:  F  ENSEMBLE:  F
  @ DRIVER MODE: Message from server: STATUS
  @ DRIVER MODE: Message from server: POSDATA
  @ DRIVER MODE: Reading and sharing positions
  @ DRIVER MODE: Received positions
     NEW-OLD atomic charge density approx. for the potential

[...]

     Self-consistent Calculation

[...]

     iteration # 17     ecut=    29.40 Ry     beta= 0.05
     Davidson diagonalization with overlap
     c_bands:  1 eigenvalues not converged
     c_bands:  1 eigenvalues not converged
     ethr =  1.27E-10,  avg # of iterations = 16.3

[...]

     total energy              =   -2925.19967421 Ry
     estimated scf accuracy    <       0.00000017 Ry

     iteration # 21     ecut=    29.40 Ry     beta= 0.05
     Davidson diagonalization with overlap
     ethr =  4.31E-11,  avg # of iterations =  9.7

[...]

     End of self-consistent calculation

[...]

          k = 0.0380-0.0419 0.0000 ( 17876 PWs)   bands (ev):

[...]

          k =-0.0760-0.0839 0.0000 ( 17948 PWs)   bands (ev):

   -56.2429 -56.2325 -56.2040 -56.1995 -56.1311 -56.0827 -56.0545 -56.0276
   -55.9875 -55.9607 -55.9570 -55.9137 -55.7768 -55.6039 -55.2330 -55.2324
   -32.5892 -32.5850 -32.5388 -32.5308 -32.5283 -32.5144 -32.5126 -32.4701
   -32.4258 -32.4233 -32.4174 -32.4037 -32.3744 -32.3738 -32.3665 -32.3408
   -32.3340 -32.3300 -32.3240 -32.3221 -32.2903 -32.2895 -32.2824 -32.2773
   -32.2635 -32.2609 -32.2357 -32.2304 -32.2156 -32.2139 -32.1923 -32.1915
   -32.1664 -32.1643 -32.1585 -32.1336 -32.1023 -32.0425 -31.9344 -31.9097
   -31.8472 -31.8373 -31.5537 -31.5530 -31.4722 -31.4717 -31.4332 -31.4327
   -18.6957 -16.4008 -16.3696 -16.1481 -16.1287 -16.1263 -16.0499 -15.9516
   -15.9489 -15.9455 -15.9412 -15.8811 -15.8526 -15.8391 -15.7987 -15.7435
   -15.7352 -15.7251 -15.7242 -15.6748 -15.6739 -15.6195 -15.5588 -15.5464
   -15.5441 -15.5423 -15.5287 -15.4486 -15.4156 -15.1586 -13.7337 -13.7320
    -9.0904  -5.2489  -3.6983  -3.6591  -3.3802  -3.3701  -3.3621  -3.3365
    -3.2484  -3.1566  -3.1331  -3.0992  -3.0705  -3.0637  -3.0617  -3.0243
    -3.0185  -2.9817  -2.9684  -2.9508  -2.9338  -2.8885  -2.8633  -2.8531
    -2.8418  -2.8322  -2.8238  -2.7925  -2.7796  -2.7665  -2.7462  -2.7428
    -2.5879  -2.5317  -2.4504  -2.4500  -2.3391  -2.3300  -2.3220  -2.3119
    -2.2848  -2.2771  -2.2444  -2.1075  -2.0427  -1.9415  -1.9290  -1.9216
    -1.8291  -1.7737  -1.6498  -1.6046  -1.5872  -1.5408  -1.4778  -1.4707
    -1.4403  -1.4337  -1.3249  -1.3015  -1.2749  -1.1989  -1.1906  -1.1849
    -1.0868  -1.0536  -1.0135  -0.9787  -0.9477  -0.9058  -0.8516  -0.8076
    -0.7822  -0.7465  -0.7387  -0.6563  -0.5838  -0.5280  -0.2640  -0.2084
    -0.1953  -0.1272  -0.0331   0.0313   0.0480   0.0971   0.1538   0.2125
     0.2631   0.3216   0.3242   0.3686   0.4150   1.1379   1.1389   1.2288
     1.2352   2.1442   3.0840   3.1919   3.2029   3.2516   3.3257   3.4177
     3.4281   3.4290   3.4317   3.6092

     the Fermi energy is     2.9025 ev

!    total energy              =   -2925.19967626 Ry
     estimated scf accuracy    <       0.00000004 Ry
     smearing contrib. (-TS)   =      -0.02326794 Ry
     internal energy E=F+TS    =   -2925.17640832 Ry

     The total energy is F=E-TS. E is the sum of the following terms:
     one-electron contribution =  -24764.15644395 Ry
     hartree contribution      =   12463.21705125 Ry
     xc contribution           =    -479.96317611 Ry
     ewald contribution        =    9855.72589971 Ry
     electric field correction =       0.00026079 Ry

     convergence has been achieved in  21 iterations

     Forces acting on atoms (cartesian axes, Ry/au):

     atom    1 type  1   force =     0.00006912   -0.00095635    0.11384809
     atom    2 type  1   force =    -0.00009489    0.00026044   -0.17945300
     atom    3 type  2   force =    -0.00000035   -0.00523319   -0.03559713
     atom    4 type  2   force =     0.00003344    0.00060626    0.04441027
     atom    5 type  2   force =    -0.02018159   -0.00081694    0.00349561
     atom    6 type  2   force =     0.02026811   -0.00038721    0.00350674
     atom    7 type  1   force =    -0.00021632    0.00019722    0.00013082
     atom    8 type  1   force =     0.00022065    0.00178026   -0.00005465
     atom    9 type  2   force =    -0.00005981    0.00027597   -0.00033737
     atom   10 type  2   force =    -0.00000569    0.00012118    0.00033545
     atom   11 type  2   force =    -0.00019511   -0.00003009    0.00030081
     atom   12 type  2   force =    -0.00009229   -0.00005342    0.00030725
     atom   13 type  1   force =     0.00034070    0.00058110    0.00088071
     atom   14 type  1   force =     0.00031670   -0.00004789    0.00120138
     atom   15 type  2   force =     0.00010709   -0.00029075   -0.00055186
     atom   16 type  2   force =     0.00000885   -0.00040250   -0.00102638
     atom   17 type  2   force =     0.00119235   -0.00025892   -0.00048520
     atom   18 type  2   force =    -0.00077512   -0.00031529   -0.00048824
     atom   19 type  1   force =    -0.00016376    0.00001463    0.00054836
     atom   20 type  1   force =    -0.00013723   -0.00017232    0.00042132
     atom   21 type  2   force =     0.00003600    0.00008205    0.10412583
     atom   22 type  2   force =    -0.00003350   -0.00020814    0.00061005
     atom   23 type  2   force =    -0.06904394    0.00033797   -0.03031158
     atom   24 type  2   force =     0.06891442    0.00077379   -0.03035380
     atom   25 type  1   force =     0.00016349    0.00086799    0.12099742
     atom   26 type  1   force =    -0.00010366    0.00041209   -0.17939901
     atom   27 type  2   force =     0.00002476    0.00097108   -0.03232593
     atom   28 type  2   force =     0.00003851    0.00070537    0.04486366
     atom   29 type  2   force =    -0.01920435    0.00046071    0.00324486
     atom   30 type  2   force =     0.01933057    0.00087529    0.00324180
     atom   31 type  1   force =    -0.00045711    0.00026042    0.00024714
     atom   32 type  1   force =     0.00023245    0.00064952   -0.00092203
     atom   33 type  2   force =    -0.00001464   -0.00009077   -0.00064444
     atom   34 type  2   force =    -0.00005690    0.00026966   -0.00019649
     atom   35 type  2   force =    -0.00034570    0.00017669   -0.00005555
     atom   36 type  2   force =     0.00002801    0.00015948   -0.00005245
     atom   37 type  1   force =     0.00046569    0.00018442   -0.00140901
     atom   38 type  1   force =     0.00035250    0.00038859    0.00129292
     atom   39 type  2   force =     0.00006991   -0.00003797    0.00015610
     atom   40 type  2   force =     0.00000492    0.00003951   -0.00036978
     atom   41 type  2   force =     0.00088553   -0.00033712    0.00010047
     atom   42 type  2   force =    -0.00029683   -0.00031864    0.00000708
     atom   43 type  1   force =    -0.00060393   -0.00011634    0.00062265
     atom   44 type  1   force =    -0.00043272   -0.00019001    0.00100693
     atom   45 type  2   force =     0.00003970    0.00005800    0.10418111
     atom   46 type  2   force =    -0.06884411   -0.00102441   -0.03036020
     atom   47 type  2   force =     0.06872138   -0.00058362   -0.03040005
     atom   48 type  3   force =    -0.00004610   -0.00150283    0.00037987
     atom   49 type  3   force =    -0.00000627    0.00016703   -0.00019613
     atom   50 type  4   force =    -0.00045297    0.00169801    0.00052560

     Total force =     0.379889     Total SCF correction =     0.000775
  @ DRIVER MODE: Message from server: STATUS
  @ DRIVER MODE: Message from server: GETFORCE
  @ DRIVER MODE: Returning v,forces,stress,ensemble

     Writing config to output data dir ./calc.save/
  @ DRIVER MODE: Message from server: STATUS
  @ DRIVER MODE: Message from server: INIT
  @ DRIVER MODE: Receiving replica           0           0
  @ DRIVER MODE: Receiving encoded integer           2
  @ DRIVER MODE:  SCF:  T  FORCE:  T  STRESS:  F  VC:  F  ENSEMBLE:  F
  @ DRIVER MODE:  SCF:  F  FORCE:  F  STRESS:  F  VC:  F  ENSEMBLE:  T
  @ DRIVER MODE: Message from server: STATUS
  @ DRIVER MODE: Message from server: POSDATA
  @ DRIVER MODE: Reading and sharing positions
  @ DRIVER MODE: Received positions
     NEW-OLD atomic charge density approx. for the potential

[...]

     Adding external electric field

     Computed dipole along edir(3) :
        Dipole                0.3717 Ry au,          0.9449 Debye
        Dipole field          0.0007 Ry au,

        Potential amp.       -0.0650 Ry
        Total length         46.3494 bohr

  @ DRIVER MODE: BEEF-vdw

[...]

     negative rho (up, down):  1.932E-02 0.000E+00

     negative rho (up, down):  1.932E-02 0.000E+00
 BEEFens 2000 ensemble energies
             -0.344508710001924E+02
             -0.202269230508873E+01
             -0.709518052046426E+01
              0.239176345555915E+02
             -0.118363041487631E+02
             -0.915399204761749E+01
             -0.238773258116453E+02
             -0.499688074624172E+02
             -0.213251982997158E+02
             -0.224781967928417E+02
             -0.208985852546236E+02
              0.422860537109021E+01
              0.198696216874845E+01
             -0.105243856572412E+01
              0.170940711800554E+01
              0.263457242683339E+02
             -0.101334077082308E+02
             -0.717039263358139E+01
              0.116985947966874E+02
             -0.615249572920239E+02
              0.308618681744239E+02
             -0.132686422061688E+02
             -0.238408521569622E+01
             -0.555450559765198E+01
             -0.991554169250321E+00
             -0.210758034192393E+01
              0.477030215794570E+02
             -0.149686482228119E+02
             -0.396945057814764E+01
             -0.302003031590358E+02
              0.390196855565508E+02
             -0.431749706328550E+01
             -0.212306141265687E+02
              0.111534696878635E+02
             -0.204526147496881E+01
              0.129503637131973E+02
             -0.543969207702531E+00
              0.271590295314533E+01
              0.188323988930658E+02
             -0.542863040673217E+02
              0.302440607978105E+02
              0.808225732468897E+01
             -0.622312838711218E+01
             -0.173607421775212E+02
              0.686110430501770E+01
             -0.108766732660876E+02
              0.247403067539857E+02
              0.197689455616134E+02
             -0.127464490963966E+02
             -0.162854305915840E+02
             -0.172286334563799E+02
             -0.206609289074523E+02
              0.104825845188048E+02
             -0.269002020961595E+02
              0.823553753273558E+01
              0.343883832786667E+02
              0.396545386143727E+02
              0.184655299592277E+02
              0.822410976669948E+01
              0.172216451263296E+02
[...]
             -0.405521253509551E+02
              0.276384410357667E+01
             -0.146971590821609E+01
             -0.565177594640187E+01
              0.545300030577209E-01
             -0.361095663891383E+02
             -0.697948469738307E+01
              0.487056563344586E+01
              0.736545829322651E+01
              0.270561649112305E+02
             -0.236656439781216E+02
              0.308403613550661E+02
             -0.220903454898528E+02
              0.141937679819142E+02
              0.223593995947016E+02

 BEEF-vdW xc energy contributions
           1 :   -406.783490132534
           2 :    354.549080080368
           3 :   -270.138103695603
           4 :    181.867465754818
           5 :   -112.432224462062
           6 :    70.9375405474921
           7 :   -53.7115065230342
           8 :    50.7117044513253
           9 :   -52.4652479476984
          10 :    53.7276295330244
          11 :   -53.3014013878274
          12 :    51.7738946057854
          13 :   -49.5741764029904
          14 :    46.4496900704672
          15 :   -42.0507871289924
          16 :    36.6012218600668
          17 :   -31.0203926893157
          18 :    26.4714014277444
          19 :   -23.7672434839992
          20 :    23.0314769449321
          21 :   -23.7755244643762
          22 :    25.2352182716097
          23 :   -26.7070321858970
          24 :    27.6887188049207
          25 :   -27.8557534450027
          26 :    27.0157105413428
          27 :   -25.1417799683335
          28 :    22.4521489271143
          29 :   -19.4361344036307
          30 :    16.7382069015792
          31 :   -47.7090300200205
          32 :   -32.4067476470792
  @ DRIVER MODE: Message from server: STATUS
  @ DRIVER MODE: Message from server: GETFORCE
  @ DRIVER MODE: Returning v,forces,stress,ensemble
  @ DRIVE MODE: Returning Ensemble Energies

     Writing config to output data dir ./calc.save/
  @ DRIVER MODE: Message from server: EXIT
  @ DRIVE MODE: Exiting

     General routines

     Parallel routines

   This run was terminated on:   0:22:51  12Oct2021

   JOB DONE.