     Program PWSCF v.6.7GPU starts on 15Sep2021 at  0: 7:53

     R & G space division:  proc/nbgrp/npool/nimage =      10
     Reading input from /storage/home/hcoda1/3/ntian30/research/carbon/CxH_vib/CH_calc/ads_slab/CHOHN2_a/out_0031/pw.inp
Warning: card &CELL ignored
Warning: card   CELL_DYNAMICS='IPI', ignored
Warning: card / ignored

     Current dimensions of program PWSCF are:
     Max number of different atomic species (ntypx) = 10
     Max number of k-points (npk) =  40000
     Max angular momentum in pseudopotentials (lmaxx) =  3
     Presently no symmetry can be used with electric field

     Message from routine cell_base_init:
     DEPRECATED: use true lattice parameter, not A to a.u. conversion factor

     IMPORTANT: XC functional enforced from input :
     Exchange-correlation= BEEF-VDW
                           (   1   4  43  14   2   0   0)
     Any further DFT definition will be discarded
     Please, verify this is what you really want

  @ DRIVER MODE: Connecting to
 qe_1139763_2840439.sched-torque.pace.gatech.edu9ti2woss_scratch
  using UNIX socket
  @ DRIVER MODE: Message from server: STATUS
  @ DRIVER MODE: Message from server: INIT
  @ DRIVER MODE: Receiving replica           0          -1
  @ DRIVER MODE: Receiving encoded integer          25
  @ DRIVER MODE:  SCF:  T  FORCE:  T  STRESS:  F  VC:  F  ENSEMBLE:  F
  @ DRIVER MODE:  SCF:  T  FORCE:  T  STRESS:  F  VC:  F  ENSEMBLE:  F

     Using Slab Decomposition

     bravais-lattice index     =            0
     lattice parameter (alat)  =       1.8897  a.u.
     unit-cell volume          =    6658.9804 (a.u.)^3
     number of atoms/cell      =           53
     number of atomic types    =            5
     number of electrons       =       400.00
     number of Kohn-Sham states=          210
     kinetic-energy cutoff     =      29.3995  Ry
     charge density cutoff     =     293.9946  Ry
     scf convergence threshold =      7.3E-08
     mixing beta               =       0.0500
     number of iterations used =            8  plain     mixing
     Exchange-correlation= BEEF-VDW
                           (   1   4  43  14   2   0   0)

     celldm(1)=   1.889726  celldm(2)=   0.000000  celldm(3)=   0.000000
     celldm(4)=   0.000000  celldm(5)=   0.000000  celldm(6)=   0.000000

     crystal axes: (cart. coord. in units of alat)
               a(1) = (   6.579727   0.000000   0.000000 )
               a(2) = (  -0.000775   5.961596   0.000000 )
               a(3) = (   0.000000   0.000000  25.155947 )

     reciprocal axes: (cart. coord. in units 2 pi/alat)
               b(1) = (  0.151982  0.000020  0.000000 )
               b(2) = (  0.000000  0.167740  0.000000 )
               b(3) = (  0.000000  0.000000  0.039752 )

     PseudoPot. # 1 for C  read from file:
     /storage/coda1/p-amedford6/0/shared/rich_project_chbe-medford/medford-share/data/pseudos_module/espresso/nninc/pbe/van/C.UPF
     MD5 check sum: 1a69bf6b8db32088f5b2163dbdb77a27
     Pseudo is Ultrasoft, Zval =  4.0
     Generated by new atomic code, or converted to UPF format
     Using radial grid of  721 points,  4 beta functions with:
                l(1) =   0
                l(2) =   0
                l(3) =   1
                l(4) =   1
     Q(r) pseudized with  8 coefficients,  rinner =    0.800   0.800   0.800

     PseudoPot. # 2 for H  read from file:
     /storage/coda1/p-amedford6/0/shared/rich_project_chbe-medford/medford-share/data/pseudos_module/espresso/nninc/pbe/van/H.UPF
     MD5 check sum: b5ee9d7bfd3a09ee7748110bda690ff7
     Pseudo is Ultrasoft, Zval =  1.0
     Generated by new atomic code, or converted to UPF format
     Using radial grid of  615 points,  1 beta functions with:
                l(1) =   0
     Q(r) pseudized with  8 coefficients,  rinner =    0.800

     PseudoPot. # 3 for O  read from file:
     /storage/coda1/p-amedford6/0/shared/rich_project_chbe-medford/medford-share/data/pseudos_module/espresso/nninc/pbe/van/O.UPF
     MD5 check sum: 78c19812648e8988a0fe644b0f25305e
     Pseudo is Ultrasoft, Zval =  6.0
     Generated by new atomic code, or converted to UPF format
     Using radial grid of  737 points,  4 beta functions with:
                l(1) =   0
                l(2) =   0
                l(3) =   1
                l(4) =   1
     Q(r) pseudized with  8 coefficients,  rinner =    0.800   0.800   0.800

     PseudoPot. # 4 for Ti read from file:
     /storage/coda1/p-amedford6/0/shared/rich_project_chbe-medford/medford-share/data/pseudos_module/espresso/nninc/pbe/van/Ti.UPF
     MD5 check sum: 8e4df49b7f0d34bbd5052bf3f5ea0213
     Pseudo is Ultrasoft, Zval = 12.0
     Generated by new atomic code, or converted to UPF format
     Using radial grid of  851 points,  6 beta functions with:
                l(1) =   0
                l(2) =   0
                l(3) =   1
                l(4) =   1
                l(5) =   2
                l(6) =   2
     Q(r) pseudized with  8 coefficients,  rinner =    1.000   1.000   1.000
                                                       1.000   1.000

     PseudoPot. # 5 for N  read from file:
     /storage/coda1/p-amedford6/0/shared/rich_project_chbe-medford/medford-share/data/pseudos_module/espresso/nninc/pbe/van/N.UPF
     MD5 check sum: 90d10febe142ad51ac9d5be1deb811c4
     Pseudo is Ultrasoft, Zval =  5.0
     Generated by new atomic code, or converted to UPF format
     Using radial grid of  729 points,  4 beta functions with:
                l(1) =   0
                l(2) =   0
                l(3) =   1
                l(4) =   1
     Q(r) pseudized with  8 coefficients,  rinner =    0.800   0.800   0.800

     atomic species   valence    mass     pseudopotential
        C1             4.00    12.01100     C ( 1.00)
        H1             1.00     1.00800     H ( 1.00)
        O1             6.00    15.99900     O ( 1.00)
        Ti1           12.00    47.86700     Ti( 1.00)
        N1             5.00    14.00700     N ( 1.00)

     No symmetry found

   Cartesian axes

     site n.     atom                  positions (alat units)
         1           C1  tau(   1) = (   5.6818245   3.0934261  18.8613826  )
         2           H1  tau(   2) = (   0.9295697   3.0331078  18.1055300  )
         3           H1  tau(   3) = (   5.3049293   4.0639705  19.1352297  )
         4           O1  tau(   4) = (   3.2904802   0.0005063   4.7018136  )
         5           O1  tau(   5) = (   3.2900926   2.9813045   4.7018136  )
         6           O1  tau(   6) = (   1.3043587   1.4918075   6.0039043  )
         7           O1  tau(   7) = (   1.3039711   4.4726057   6.0039043  )
         8           O1  tau(   8) = (   5.2767064   1.4903225   6.0039473  )
         9           O1  tau(   9) = (   5.2763189   4.4711207   6.0039473  )
        10           O1  tau(  10) = (   3.2906025   0.0005020   7.3038282  )
        11           O1  tau(  11) = (   3.2902150   2.9813002   7.3038282  )
        12           O1  tau(  12) = (   0.0006271   0.0005054   7.9858123  )
        13           O1  tau(  13) = (   0.0002396   2.9813036   7.9858123  )
        14           O1  tau(  14) = (   4.5942328   1.4918067   9.2879030  )
        15           O1  tau(  15) = (   4.5938453   4.4726049   9.2879030  )
        16           O1  tau(  16) = (   1.9868534   1.4903216   9.2879459  )
        17           O1  tau(  17) = (   1.9864658   4.4711199   9.2879459  )
        18           O1  tau(  18) = (   6.5737290   0.0025997  10.6073112  )
        19           O1  tau(  19) = (   6.5745157   2.9846488  10.6292520  )
        20           O1  tau(  20) = (   3.2733922   2.9888808  11.3669225  )
        21           O1  tau(  21) = (   3.2734535   0.0083669  11.3733985  )
        22           O1  tau(  22) = (   1.2686495   4.4776606  12.6533150  )
        23           O1  tau(  23) = (   1.2691242   1.4995788  12.6525255  )
        24           O1  tau(  24) = (   5.2697113   4.4789153  12.6558726  )
        25           O1  tau(  25) = (   5.2698035   1.4991558  12.6558074  )
        26           O1  tau(  26) = (   3.2614338   2.9920807  13.9552461  )
        27           O1  tau(  27) = (   3.2541646   0.0113981  14.0020514  )
        28           O1  tau(  28) = (   6.5688946   0.0096870  14.6775192  )
        29           O1  tau(  29) = (   6.5667413   2.9928499  14.8718366  )
        30           O1  tau(  30) = (   4.5340645   4.4751187  16.1466513  )
        31           O1  tau(  31) = (   4.5349815   1.5188077  16.1513287  )
        32           O1  tau(  32) = (   2.0116004   1.5352794  16.1924295  )
        33           O1  tau(  33) = (   2.0125852   4.4566501  16.1924965  )
        34           O1  tau(  34) = (   6.5583959   0.0051910  17.1951124  )
        35           O1  tau(  35) = (   0.0128280   2.9917589  17.7791131  )
        36           Ti1 tau(  36) = (   0.0004258   2.9801865   6.0000000  )
        37           Ti1 tau(  37) = (   0.0000382   5.9609847   6.0000000  )
        38           Ti1 tau(  38) = (   3.2906075   1.4906267   6.0002472  )
        39           Ti1 tau(  39) = (   3.2902200   4.4714249   6.0002472  )
        40           Ti1 tau(  40) = (   3.3204229   0.0006979   9.1540291  )
        41           Ti1 tau(  41) = (   3.3226256   2.9815539   9.1563990  )
        42           Ti1 tau(  42) = (   0.0414996   4.4578595   9.2720048  )
        43           Ti1 tau(  43) = (   0.0419130   1.4910583   9.2667342  )
        44           Ti1 tau(  44) = (   6.5463313   0.0151476  12.4833176  )
        45           Ti1 tau(  45) = (   3.2510826   4.4792010  12.5152252  )
        46           Ti1 tau(  46) = (   3.2519543   1.5009035  12.5151888  )
        47           Ti1 tau(  47) = (   6.5510796   2.9946678  12.5453677  )
        48           Ti1 tau(  48) = (   3.2768179   2.9983465  15.7429562  )
        49           Ti1 tau(  49) = (   3.2517467   0.0179395  15.7976682  )
        50           Ti1 tau(  50) = (   6.5407926   4.5826425  15.9111250  )
        51           Ti1 tau(  51) = (   6.5448107   1.3670631  15.9596882  )
        52           N1  tau(  52) = (   4.6962475   1.0170953  19.6889386  )
        53           N1  tau(  53) = (   5.1379752   2.0001232  19.2934520  )

     number of k points=    10  Fermi-Dirac smearing, width (Ry)=  0.0073
                       cart. coord. in units 2pi/alat
        k(    1) = (   0.0000000   0.0000000   0.0000000), wk =   0.1250000
        k(    2) = (   0.0000000   0.0419351   0.0000000), wk =   0.2500000
        k(    3) = (   0.0000000  -0.0838702   0.0000000), wk =   0.1250000
        k(    4) = (   0.0379955   0.0000049   0.0000000), wk =   0.2500000
        k(    5) = (   0.0379955   0.0419400   0.0000000), wk =   0.2500000
        k(    6) = (   0.0379955  -0.0838652   0.0000000), wk =   0.2500000
        k(    7) = (   0.0379955  -0.0419301   0.0000000), wk =   0.2500000
        k(    8) = (  -0.0759910  -0.0000099   0.0000000), wk =   0.1250000
        k(    9) = (  -0.0759910   0.0419252   0.0000000), wk =   0.2500000
        k(   10) = (  -0.0759910  -0.0838800   0.0000000), wk =   0.1250000

     Initial potential from superposition of free atoms

     starting charge  383.99917, renormalised to  400.00000

     negative rho (up, down):  1.646E-02 0.000E+00

     %%%%%%%%%%%%%%%%%%%%%%%%%%%%%%%%%%%%%%%%%%%%%%%%%%%%%%%%%%%%%%%%%%%%%%%%
     %                                                                      %
     % You are using vdW-DF, which was implemented by the Thonhauser group. %
     % Please cite the following two papers that made this development      %
     % possible and the two reviews that describe the various versions:     %
     %                                                                      %
     %   T. Thonhauser et al., PRL 115, 136402 (2015).                      %
     %   T. Thonhauser et al., PRB 76, 125112 (2007).                       %
     %   K. Berland et al., Rep. Prog. Phys. 78, 066501 (2015).             %
     %   D.C. Langreth et al., J. Phys.: Condens. Matter 21, 084203 (2009). %
     %                                                                      %
     %                                                                      %
     % If you are calculating the stress with vdW-DF, please also cite:     %
     %                                                                      %
     %   R. Sabatini et al., J. Phys.: Condens. Matter 24, 424209 (2012).   %
     %                                                                      %
     %%%%%%%%%%%%%%%%%%%%%%%%%%%%%%%%%%%%%%%%%%%%%%%%%%%%%%%%%%%%%%%%%%%%%%%%

     Adding external electric field

     Computed dipole along edir(3) :
        Dipole              -12.5100 Ry au,        -31.7972 Debye
        Dipole field         -0.0236 Ry au,

        Potential amp.        2.1884 Ry
        Total length         46.3494 bohr

     Starting wfcs are  302 atomic wfcs
  @ DRIVER MODE: Message from server: STATUS
  @ DRIVER MODE: Message from server: POSDATA
  @ DRIVER MODE: Reading and sharing cell
  @ DRIVER MODE: Reading and sharing positions
  @ DRIVER MODE: Received positions

     Self-consistent Calculation

     iteration #  1     ecut=    29.40 Ry     beta= 0.05
     Davidson diagonalization with overlap
     c_bands:  3 eigenvalues not converged
     c_bands:  1 eigenvalues not converged
     c_bands:  4 eigenvalues not converged
     c_bands:  3 eigenvalues not converged
     c_bands:  5 eigenvalues not converged
     c_bands:  5 eigenvalues not converged
     c_bands:  1 eigenvalues not converged
     c_bands:  2 eigenvalues not converged
     c_bands:  1 eigenvalues not converged
     ethr =  1.00E-05,  avg # of iterations = 20.9

[...]

     total energy              =   -2397.09014324 Ry
     estimated scf accuracy    <    6493.72722357 Ry

     iteration #  2     ecut=    29.40 Ry     beta= 0.05
     Davidson diagonalization with overlap
     ethr =  1.00E-02,  avg # of iterations = 23.1

[...]

     iteration # 69     ecut=    29.40 Ry     beta= 0.05
     Davidson diagonalization with overlap
     c_bands:  1 eigenvalues not converged
     ethr =  3.19E-11,  avg # of iterations = 12.6

[...]

     total energy              =   -2970.16547391 Ry
     estimated scf accuracy    <       0.00000008 Ry

     iteration # 70     ecut=    29.40 Ry     beta= 0.05
     Davidson diagonalization with overlap
     ethr =  1.88E-11,  avg # of iterations =  5.6

     negative rho (up, down):  1.635E-02 0.000E+00

     Adding external electric field

     Computed dipole along edir(3) :
        Dipole                0.8336 Ry au,          2.1188 Debye
        Dipole field          0.0016 Ry au,

        Potential amp.       -0.1458 Ry
        Total length         46.3494 bohr

     End of self-consistent calculation

          k = 0.0000 0.0000 0.0000 ( 18029 PWs)   bands (ev):

   -55.5586 -55.5283 -55.5225 -55.4939 -55.4548 -55.4485 -55.4364 -55.4020
   -55.3966 -55.3832 -55.3623 -55.3544 -55.3415 -55.3076 -54.6214 -54.5874
   -32.1287 -32.0609 -32.0236 -31.9323 -31.8783 -31.8720 -31.8685 -31.8510
   -31.8166 -31.8073 -31.7709 -31.7698 -31.7631 -31.7440 -31.7344 -31.7122
   -31.7094 -31.6936 -31.6853 -31.6824 -31.6814 -31.6737 -31.6532 -31.6445
   -31.6437 -31.6252 -31.6240 -31.5965 -31.5889 -31.5856 -31.5699 -31.5475
   -31.5472 -31.5454 -31.5369 -31.5260 -31.5224 -31.4954 -31.4858 -31.4766
   -31.4661 -31.4521 -31.0337 -30.9307 -30.9091 -30.8500 -30.7637 -30.6526
   -21.1421 -20.3368 -16.3838 -16.1278 -15.9810 -15.8822 -15.7763 -15.6404
   -15.6041 -15.4975 -15.3676 -15.2848 -15.2308 -15.2209 -15.2063 -15.1954
   -15.1784 -15.1749 -15.1157 -15.0860 -15.0612 -15.0469 -15.0388 -15.0036
   -14.9481 -14.9414 -14.9281 -14.7877 -14.7198 -14.6601 -14.3585 -14.2390
   -13.1219 -13.0024  -8.5317  -6.7965  -5.6709  -4.5728  -4.0586  -3.7758
    -3.7145  -3.5662  -3.4915  -3.4734  -3.4273  -3.3033  -3.1515  -2.9904
    -2.9065  -2.8423  -2.8145  -2.7641  -2.7248  -2.6966  -2.5195  -2.5068
    -2.4768  -2.4504  -2.4330  -2.4267  -2.3983  -2.3289  -2.3083  -2.3009
    -2.2776  -2.1429  -2.1256  -2.0276  -1.9847  -1.9557  -1.8969  -1.8825
    -1.8775  -1.8478  -1.8268  -1.8130  -1.8088  -1.7708  -1.5859  -1.5851
    -1.4653  -1.4227  -1.3395  -1.2897  -1.1184  -1.1161  -1.0637  -1.0452
    -1.0038  -0.9639  -0.9601  -0.9168  -0.8021  -0.7169  -0.6691  -0.5980
    -0.5594  -0.4952  -0.4607  -0.3563  -0.3470  -0.3347  -0.3165  -0.1962
    -0.1292  -0.0905  -0.0580  -0.0125   0.0002   0.0993   0.1170   0.1983
     0.2056   0.2632   0.2659   0.3689   0.3871   0.3885   0.4140   0.4329
     0.5208   0.5913   0.5974   0.6121   0.7812   0.9698   0.9993   1.0415
     1.2920   1.3944   1.4048   1.5323   1.5638   1.9917   2.0471   3.5371
     3.6053   3.6446   3.6619   3.6766   3.7442   4.0008   4.0268   4.0449
     4.0590   4.0685

[...]

          k = 0.0380-0.0419 0.0000 ( 17876 PWs)   bands (ev):

[...]

          k =-0.0760-0.0000 0.0000 ( 17886 PWs)   bands (ev):

[...]

          k =-0.0760-0.0839 0.0000 ( 17948 PWs)   bands (ev):

   -55.5409 -55.5400 -55.5130 -55.5091 -55.4513 -55.4409 -55.4299 -55.4095
   -55.3901 -55.3804 -55.3782 -55.3573 -55.3255 -55.3237 -54.6043 -54.6043
   -31.9818 -31.9324 -31.9310 -31.8516 -31.8404 -31.8367 -31.8181 -31.8058
   -31.7982 -31.7778 -31.7613 -31.7591 -31.7544 -31.7146 -31.7127 -31.7027
   -31.6970 -31.6959 -31.6867 -31.6815 -31.6806 -31.6798 -31.6673 -31.6445
   -31.6417 -31.6408 -31.6385 -31.6357 -31.6319 -31.6297 -31.6271 -31.6016
   -31.5998 -31.5902 -31.5787 -31.5783 -31.5679 -31.5508 -31.5492 -31.5386
   -31.5117 -31.5089 -30.9217 -30.9216 -30.8464 -30.8463 -30.8069 -30.8068
   -21.1401 -20.3363 -15.9375 -15.7994 -15.7395 -15.5625 -15.5546 -15.5469
   -15.5228 -15.3833 -15.3706 -15.3573 -15.3197 -15.3094 -15.2922 -15.2824
   -15.2689 -15.1514 -15.1495 -15.1407 -15.1380 -15.0761 -15.0729 -15.0581
   -15.0416 -15.0018 -15.0011 -14.9881 -14.9842 -14.8200 -14.7227 -14.2465
   -13.1036 -13.1030  -8.5216  -6.8008  -5.6784  -4.5535  -4.0196  -3.6965
    -3.0770  -3.0337  -3.0015  -2.7766  -2.7611  -2.7221  -2.6880  -2.6313
    -2.5563  -2.5455  -2.5411  -2.4752  -2.4654  -2.4554  -2.4522  -2.4403
    -2.3856  -2.3841  -2.3454  -2.3406  -2.2954  -2.2667  -2.2554  -2.2321
    -2.2207  -2.2206  -2.2003  -2.1831  -2.1679  -2.1627  -2.0551  -2.0008
    -1.9170  -1.8906  -1.8017  -1.7848  -1.7701  -1.6927  -1.6571  -1.6344
    -1.5731  -1.5697  -1.4985  -1.3767  -1.3563  -1.3490  -1.2776  -1.2234
    -1.1905  -1.1458  -1.0957  -1.0395  -1.0255  -0.9391  -0.8869  -0.8684
    -0.7623  -0.7499  -0.6983  -0.5886  -0.5553  -0.5532  -0.5487  -0.5367
    -0.4598  -0.4423  -0.3934  -0.3525  -0.3036  -0.2787  -0.2588  -0.0593
    -0.0449   0.0251   0.1269   0.1640   0.3361   0.3570   0.3906   0.4630
     0.5082   0.5194   0.6027   0.7131   0.7176   0.7536   0.8285   0.8674
     0.8758   0.9143   1.4854   1.7565   1.7572   1.8608   1.8639   3.6879
     3.7751   3.7910   3.8240   3.8697   3.9600   4.0457   4.0628   4.0901
     4.0984   4.1721

     the Fermi energy is     3.5930 ev

!    total energy              =   -2970.16549480 Ry
     estimated scf accuracy    <       0.00000006 Ry
     smearing contrib. (-TS)   =      -0.03779562 Ry
     internal energy E=F+TS    =   -2970.12769918 Ry

     The total energy is F=E-TS. E is the sum of the following terms:
     one-electron contribution =  -23546.61916481 Ry
     hartree contribution      =   11865.11616267 Ry
     xc contribution           =    -491.70702963 Ry
     ewald contribution        =    9203.08102127 Ry
     electric field correction =       0.00131132 Ry

     convergence has been achieved in  70 iterations

     Forces acting on atoms (cartesian axes, Ry/au):

     atom    1 type  1   force =    -0.00285445   -0.00384630    0.00344629
     atom    2 type  2   force =     0.00057323   -0.00035981    0.00039475
     atom    3 type  2   force =    -0.00011389   -0.00050475   -0.00065916
     atom    4 type  3   force =     0.00006090   -0.00000282    0.10501708
     atom    5 type  3   force =     0.00004151    0.00002329    0.10500972
     atom    6 type  3   force =    -0.06776232   -0.00002937   -0.02684867
     atom    7 type  3   force =    -0.06780284   -0.00058521   -0.02688606
     atom    8 type  3   force =     0.06764015    0.00042120   -0.02690992
     atom    9 type  3   force =     0.06767397   -0.00015326   -0.02694208
     atom   10 type  3   force =     0.00071969    0.00002084    0.05052325
     atom   11 type  3   force =     0.00077348    0.00000933    0.05060296
     atom   12 type  3   force =     0.00060977   -0.00003923   -0.02310326
     atom   13 type  3   force =     0.00057099   -0.00016837   -0.02182583
     atom   14 type  3   force =    -0.01559391   -0.00017497    0.00501923
     atom   15 type  3   force =    -0.01565934    0.00007788    0.00498918
     atom   16 type  3   force =     0.01436585    0.00025846    0.00479583
     atom   17 type  3   force =     0.01444115    0.00058946    0.00480312
     atom   18 type  3   force =    -0.00007349    0.00000134   -0.00007069
     atom   19 type  3   force =    -0.00014127   -0.00000223   -0.00019880
     atom   20 type  3   force =    -0.00012232    0.00007792   -0.00006750
     atom   21 type  3   force =     0.00004321   -0.00012196    0.00012091
     atom   22 type  3   force =     0.00026254    0.00026028    0.00003365
     atom   23 type  3   force =     0.00000836    0.00004364    0.00007893
     atom   24 type  3   force =    -0.00017701    0.00012805    0.00021262
     atom   25 type  3   force =     0.00006980   -0.00012611    0.00010863
     atom   26 type  3   force =     0.00023350   -0.00014536    0.00005231
     atom   27 type  3   force =    -0.00009214    0.00018168   -0.00008706
     atom   28 type  3   force =    -0.00009190    0.00026375    0.00004397
     atom   29 type  3   force =     0.00031209   -0.00003380    0.00029725
     atom   30 type  3   force =     0.00021021   -0.00010977   -0.00024749
     atom   31 type  3   force =     0.00021451   -0.00005666    0.00019492
     atom   32 type  3   force =    -0.00000452   -0.00019219    0.00019105
     atom   33 type  3   force =    -0.00006154   -0.00012886   -0.00005861
     atom   34 type  3   force =    -0.00003757    0.00003053    0.00031736
     atom   35 type  3   force =    -0.00215559   -0.00080358   -0.00019485
     atom   36 type  4   force =    -0.00021299    0.00012947    0.09294183
     atom   37 type  4   force =    -0.00015586   -0.00012238    0.09679690
     atom   38 type  4   force =    -0.00010158    0.00037005   -0.18354898
     atom   39 type  4   force =    -0.00005805   -0.00058661   -0.18367792
     atom   40 type  4   force =     0.00000766    0.00004151    0.00017435
     atom   41 type  4   force =     0.00017839   -0.00001621    0.00008051
     atom   42 type  4   force =    -0.00036705    0.00012728   -0.00011819
     atom   43 type  4   force =    -0.00022533    0.00030298    0.00015372
     atom   44 type  4   force =     0.00018711    0.00015184    0.00029789
     atom   45 type  4   force =    -0.00007067    0.00002222    0.00021766
     atom   46 type  4   force =    -0.00011263    0.00009347    0.00020093
     atom   47 type  4   force =    -0.00008275   -0.00013818   -0.00020214
     atom   48 type  4   force =    -0.00005457   -0.00020445   -0.00035743
     atom   49 type  4   force =    -0.00012307   -0.00004926   -0.00012981
     atom   50 type  4   force =    -0.00009987   -0.00031572   -0.00050200
     atom   51 type  4   force =     0.00021229   -0.00038270   -0.00067849
     atom   52 type  5   force =    -0.00790412   -0.01247920    0.00359770
     atom   53 type  5   force =     0.01290227    0.01825284   -0.00739957

     Total force =     0.369710     Total SCF correction =     0.000712
  @ DRIVER MODE: Message from server: STATUS
  @ DRIVER MODE: Message from server: GETFORCE
  @ DRIVER MODE: Returning v,forces,stress,ensemble

     Writing output data file ./calc.save/
  @ DRIVER MODE: Message from server: EXIT
  @ DRIVE MODE: Exiting

     General routines

     Parallel routines

   This run was terminated on:   0:26:54  15Sep2021

   JOB DONE.