     Program PWSCF v.6.7GPU starts on 30Sep2021 at 14:45:40

     R & G space division:  proc/nbgrp/npool/nimage =       8
     Reading input from /storage/home/hcoda1/3/ntian30/research/carbon/CxH_vib/pristine/ads_slab/CHHNN_a/out_0002/pw.inp
Warning: card &CELL ignored
Warning: card   CELL_DYNAMICS='IPI', ignored
Warning: card / ignored

     Current dimensions of program PWSCF are:
     Max number of different atomic species (ntypx) = 10
     Max number of k-points (npk) =  40000
     Max angular momentum in pseudopotentials (lmaxx) =  3
     Presently no symmetry can be used with electric field

     Message from routine cell_base_init:
     DEPRECATED: use true lattice parameter, not A to a.u. conversion factor

     IMPORTANT: XC functional enforced from input :
     Exchange-correlation= BEEF-VDW
                           (   1   4  43  14   2   0   0)
     Any further DFT definition will be discarded
     Please, verify this is what you really want

  @ DRIVER MODE: Connecting to
 qe_1139763_3035467.sched-torque.pace.gatech.edu144anyo6_scratch
  using UNIX socket
  @ DRIVER MODE: Message from server: STATUS
  @ DRIVER MODE: Message from server: INIT
  @ DRIVER MODE: Receiving replica           0          -1
  @ DRIVER MODE: Receiving encoded integer          25
  @ DRIVER MODE:  SCF:  T  FORCE:  T  STRESS:  F  VC:  F  ENSEMBLE:  F
  @ DRIVER MODE:  SCF:  T  FORCE:  T  STRESS:  F  VC:  F  ENSEMBLE:  F

     Using Slab Decomposition

     bravais-lattice index     =            0
     lattice parameter (alat)  =       1.8897  a.u.
     unit-cell volume          =    6658.9804 (a.u.)^3
     number of atoms/cell      =           53
     number of atomic types    =            5
     number of electrons       =       400.00
     number of Kohn-Sham states=          210
     kinetic-energy cutoff     =      29.3995  Ry
     charge density cutoff     =     293.9946  Ry
     scf convergence threshold =      7.3E-08
     mixing beta               =       0.0500
     number of iterations used =            8  plain     mixing
     Exchange-correlation= BEEF-VDW
                           (   1   4  43  14   2   0   0)

     celldm(1)=   1.889726  celldm(2)=   0.000000  celldm(3)=   0.000000
     celldm(4)=   0.000000  celldm(5)=   0.000000  celldm(6)=   0.000000

     crystal axes: (cart. coord. in units of alat)
               a(1) = (   6.579727   0.000000   0.000000 )
               a(2) = (  -0.000775   5.961596   0.000000 )
               a(3) = (   0.000000   0.000000  25.155947 )

     reciprocal axes: (cart. coord. in units 2 pi/alat)
               b(1) = (  0.151982  0.000020  0.000000 )
               b(2) = (  0.000000  0.167740  0.000000 )
               b(3) = (  0.000000  0.000000  0.039752 )

     PseudoPot. # 1 for Ti read from file:
     /storage/coda1/p-amedford6/0/shared/rich_project_chbe-medford/medford-share/data/pseudos_module/espresso/nninc/pbe/van/Ti.UPF
     MD5 check sum: 8e4df49b7f0d34bbd5052bf3f5ea0213
     Pseudo is Ultrasoft, Zval = 12.0
     Generated by new atomic code, or converted to UPF format
     Using radial grid of  851 points,  6 beta functions with:
                l(1) =   0
                l(2) =   0
                l(3) =   1
                l(4) =   1
                l(5) =   2
                l(6) =   2
     Q(r) pseudized with  8 coefficients,  rinner =    1.000   1.000   1.000
                                                       1.000   1.000

     PseudoPot. # 2 for O  read from file:
     /storage/coda1/p-amedford6/0/shared/rich_project_chbe-medford/medford-share/data/pseudos_module/espresso/nninc/pbe/van/O.UPF
     MD5 check sum: 78c19812648e8988a0fe644b0f25305e
     Pseudo is Ultrasoft, Zval =  6.0
     Generated by new atomic code, or converted to UPF format
     Using radial grid of  737 points,  4 beta functions with:
                l(1) =   0
                l(2) =   0
                l(3) =   1
                l(4) =   1
     Q(r) pseudized with  8 coefficients,  rinner =    0.800   0.800   0.800

     PseudoPot. # 3 for N  read from file:
     /storage/coda1/p-amedford6/0/shared/rich_project_chbe-medford/medford-share/data/pseudos_module/espresso/nninc/pbe/van/N.UPF
     MD5 check sum: 90d10febe142ad51ac9d5be1deb811c4
     Pseudo is Ultrasoft, Zval =  5.0
     Generated by new atomic code, or converted to UPF format
     Using radial grid of  729 points,  4 beta functions with:
                l(1) =   0
                l(2) =   0
                l(3) =   1
                l(4) =   1
     Q(r) pseudized with  8 coefficients,  rinner =    0.800   0.800   0.800

     PseudoPot. # 4 for C  read from file:
     /storage/coda1/p-amedford6/0/shared/rich_project_chbe-medford/medford-share/data/pseudos_module/espresso/nninc/pbe/van/C.UPF
     MD5 check sum: 1a69bf6b8db32088f5b2163dbdb77a27
     Pseudo is Ultrasoft, Zval =  4.0
     Generated by new atomic code, or converted to UPF format
     Using radial grid of  721 points,  4 beta functions with:
                l(1) =   0
                l(2) =   0
                l(3) =   1
                l(4) =   1
     Q(r) pseudized with  8 coefficients,  rinner =    0.800   0.800   0.800

     PseudoPot. # 5 for H  read from file:
     /storage/coda1/p-amedford6/0/shared/rich_project_chbe-medford/medford-share/data/pseudos_module/espresso/nninc/pbe/van/H.UPF
     MD5 check sum: b5ee9d7bfd3a09ee7748110bda690ff7
     Pseudo is Ultrasoft, Zval =  1.0
     Generated by new atomic code, or converted to UPF format
     Using radial grid of  615 points,  1 beta functions with:
                l(1) =   0
     Q(r) pseudized with  8 coefficients,  rinner =    0.800

     atomic species   valence    mass     pseudopotential
        Ti1           12.00    47.86700     Ti( 1.00)
        O1             6.00    15.99900     O ( 1.00)
        N1             5.00    14.00700     N ( 1.00)
        C1             4.00    12.01100     C ( 1.00)
        H1             1.00     1.00800     H ( 1.00)

     No symmetry found

   Cartesian axes

     site n.     atom                  positions (alat units)
         1           Ti1 tau(   1) = (   0.0004258   2.9801865   6.0000000  )
         2           Ti1 tau(   2) = (   3.2906075   1.4906267   6.0002472  )
         3           O1  tau(   3) = (   0.0006271   0.0005054   7.9858123  )
         4           O1  tau(   4) = (   3.2906025   0.0005020   7.3038282  )
         5           O1  tau(   5) = (   4.5942328   1.4918067   9.2879030  )
         6           O1  tau(   6) = (   1.9868534   1.4903216   9.2879459  )
         7           Ti1 tau(   7) = (   3.2961651   2.9340025   9.1571600  )
         8           Ti1 tau(   8) = (   0.0257383   1.5005952   9.3383585  )
         9           O1  tau(   9) = (   3.3091981   5.9584344  11.3361002  )
        10           O1  tau(  10) = (   6.5780281   5.9600862  10.6016087  )
        11           O1  tau(  11) = (   1.3203574   1.4925043  12.6130903  )
        12           O1  tau(  12) = (   5.3210186   1.4819496  12.6412376  )
        13           Ti1 tau(  13) = (   6.5659556   2.9650791  12.8176139  )
        14           Ti1 tau(  14) = (   3.2164003   1.4877187  12.4769567  )
        15           O1  tau(  15) = (   0.0404395   5.9536100  14.6624943  )
        16           O1  tau(  16) = (   3.3074673   5.9584959  13.9062718  )
        17           O1  tau(  17) = (   4.5856532   1.4904827  16.0465219  )
        18           O1  tau(  18) = (   2.1034043   1.4884928  16.0442595  )
        19           Ti1 tau(  19) = (   3.2939248   2.9785878  15.7144947  )
        20           Ti1 tau(  20) = (   6.5451327   1.4142704  16.0395912  )
        21           O1  tau(  21) = (   3.2904802   0.0005063   4.7018136  )
        22           O1  tau(  22) = (   0.0457580   0.0044623  17.2034710  )
        23           O1  tau(  23) = (   1.3043587   1.4918075   6.0039043  )
        24           O1  tau(  24) = (   5.2767064   1.4903225   6.0039473  )
        25           Ti1 tau(  25) = (   0.0000382   5.9609847   6.0000000  )
        26           Ti1 tau(  26) = (   3.2902200   4.4714249   6.0002472  )
        27           O1  tau(  27) = (   0.0002396   2.9813036   7.9858123  )
        28           O1  tau(  28) = (   3.2902150   2.9813002   7.3038282  )
        29           O1  tau(  29) = (   4.5938453   4.4726049   9.2879030  )
        30           O1  tau(  30) = (   1.9864658   4.4711199   9.2879459  )
        31           Ti1 tau(  31) = (   3.3296195   5.9152860   9.1560537  )
        32           Ti1 tau(  32) = (   0.0304643   4.4420822   9.3322224  )
        33           O1  tau(  33) = (   3.3127198   2.9780151  11.3348310  )
        34           O1  tau(  34) = (   0.0025308   2.9791118  10.5479895  )
        35           O1  tau(  35) = (   1.3183054   4.4635934  12.6126975  )
        36           O1  tau(  36) = (   5.3202651   4.4673696  12.6407401  )
        37           Ti1 tau(  37) = (   6.5108624   5.9459213  12.5946634  )
        38           Ti1 tau(  38) = (   3.2137380   4.4666137  12.4775098  )
        39           O1  tau(  39) = (   0.0464109   2.9731917  14.6594554  )
        40           O1  tau(  40) = (   3.3098714   2.9789900  13.9126757  )
        41           O1  tau(  41) = (   4.5859750   4.4686661  16.0488133  )
        42           O1  tau(  42) = (   2.1005049   4.4706468  16.0453856  )
        43           Ti1 tau(  43) = (   3.2853703   5.9589473  15.7052640  )
        44           Ti1 tau(  44) = (   6.5509595   4.5658457  16.0514827  )
        45           O1  tau(  45) = (   3.2900926   2.9813045   4.7018136  )
        46           O1  tau(  46) = (   0.0949885   2.9744829  17.2486893  )
        47           O1  tau(  47) = (   1.3039711   4.4726057   6.0039043  )
        48           O1  tau(  48) = (   5.2763189   4.4711207   6.0039473  )
        49           N1  tau(  49) = (   0.3830515   3.1615268  19.4484725  )
        50           N1  tau(  50) = (   6.0186590   2.9946300  18.5893579  )
        51           C1  tau(  51) = (   0.0316377   3.3059097  20.7092049  )
        52           H1  tau(  52) = (   5.5749133   3.3461147  21.0318256  )
        53           H1  tau(  53) = (   0.8315635   3.3875449  21.4270997  )

     number of k points=    10  Fermi-Dirac smearing, width (Ry)=  0.0073
                       cart. coord. in units 2pi/alat
        k(    1) = (   0.0000000   0.0000000   0.0000000), wk =   0.1250000
        k(    2) = (   0.0000000   0.0419351   0.0000000), wk =   0.2500000
        k(    3) = (   0.0000000  -0.0838702   0.0000000), wk =   0.1250000
        k(    4) = (   0.0379955   0.0000049   0.0000000), wk =   0.2500000
        k(    5) = (   0.0379955   0.0419400   0.0000000), wk =   0.2500000
        k(    6) = (   0.0379955  -0.0838652   0.0000000), wk =   0.2500000
        k(    7) = (   0.0379955  -0.0419301   0.0000000), wk =   0.2500000
        k(    8) = (  -0.0759910  -0.0000099   0.0000000), wk =   0.1250000
        k(    9) = (  -0.0759910   0.0419252   0.0000000), wk =   0.2500000
        k(   10) = (  -0.0759910  -0.0838800   0.0000000), wk =   0.1250000

     Initial potential from superposition of free atoms

[...]
     MD5 check sum: 90d10febe142ad51ac9d5be1deb811c4
     Pseudo is Ultrasoft, Zval =  5.0
     Generated by new atomic code, or converted to UPF format
     Using radial grid of  729 points,  4 beta functions with:
                l(1) =   0
                l(2) =   0
                l(3) =   1
                l(4) =   1
     Q(r) pseudized with  8 coefficients,  rinner =    0.800   0.800   0.800

     PseudoPot. # 4 for C  read from file:
     /storage/coda1/p-amedford6/0/shared/rich_project_chbe-medford/medford-share/data/pseudos_module/espresso/nninc/pbe/van/C.UPF
     MD5 check sum: 1a69bf6b8db32088f5b2163dbdb77a27
     Pseudo is Ultrasoft, Zval =  4.0
     Generated by new atomic code, or converted to UPF format
     Using radial grid of  721 points,  4 beta functions with:
                l(1) =   0
                l(2) =   0
                l(3) =   1
                l(4) =   1
     Q(r) pseudized with  8 coefficients,  rinner =    0.800   0.800   0.800

     PseudoPot. # 5 for H  read from file:
     /storage/coda1/p-amedford6/0/shared/rich_project_chbe-medford/medford-share/data/pseudos_module/espresso/nninc/pbe/van/H.UPF
     MD5 check sum: b5ee9d7bfd3a09ee7748110bda690ff7
     Pseudo is Ultrasoft, Zval =  1.0
     Generated by new atomic code, or converted to UPF format
     Using radial grid of  615 points,  1 beta functions with:
                l(1) =   0
     Q(r) pseudized with  8 coefficients,  rinner =    0.800

     atomic species   valence    mass     pseudopotential
        Ti1           12.00    47.86700     Ti( 1.00)
        O1             6.00    15.99900     O ( 1.00)
        N1             5.00    14.00700     N ( 1.00)
        C1             4.00    12.01100     C ( 1.00)
        H1             1.00     1.00800     H ( 1.00)

     No symmetry found

   Cartesian axes

     site n.     atom                  positions (alat units)
         1           Ti1 tau(   1) = (   0.0004258   2.9801865   6.0000000  )
         2           Ti1 tau(   2) = (   3.2906075   1.4906267   6.0002472  )
         3           O1  tau(   3) = (   0.0006271   0.0005054   7.9858123  )
         4           O1  tau(   4) = (   3.2906025   0.0005020   7.3038282  )
         5           O1  tau(   5) = (   4.5942328   1.4918067   9.2879030  )
         6           O1  tau(   6) = (   1.9868534   1.4903216   9.2879459  )
         7           Ti1 tau(   7) = (   3.2961651   2.9340025   9.1571600  )
         8           Ti1 tau(   8) = (   0.0257383   1.5005952   9.3383585  )
         9           O1  tau(   9) = (   3.3091981   5.9584344  11.3361002  )
        10           O1  tau(  10) = (   6.5780281   5.9600862  10.6016087  )
        11           O1  tau(  11) = (   1.3203574   1.4925043  12.6130903  )
        12           O1  tau(  12) = (   5.3210186   1.4819496  12.6412376  )
        13           Ti1 tau(  13) = (   6.5659556   2.9650791  12.8176139  )
        14           Ti1 tau(  14) = (   3.2164003   1.4877187  12.4769567  )
        15           O1  tau(  15) = (   0.0404395   5.9536100  14.6624943  )
        16           O1  tau(  16) = (   3.3074673   5.9584959  13.9062718  )
        17           O1  tau(  17) = (   4.5856532   1.4904827  16.0465219  )
        18           O1  tau(  18) = (   2.1034043   1.4884928  16.0442595  )
        19           Ti1 tau(  19) = (   3.2939248   2.9785878  15.7144947  )
        20           Ti1 tau(  20) = (   6.5451327   1.4142704  16.0395912  )
        21           O1  tau(  21) = (   3.2904802   0.0005063   4.7018136  )
        22           O1  tau(  22) = (   0.0457580   0.0044623  17.2034710  )
        23           O1  tau(  23) = (   1.3043587   1.4918075   6.0039043  )
        24           O1  tau(  24) = (   5.2767064   1.4903225   6.0039473  )
        25           Ti1 tau(  25) = (   0.0000382   5.9609847   6.0000000  )
        26           Ti1 tau(  26) = (   3.2902200   4.4714249   6.0002472  )
        27           O1  tau(  27) = (   0.0002396   2.9813036   7.9858123  )
        28           O1  tau(  28) = (   3.2902150   2.9813002   7.3038282  )
        29           O1  tau(  29) = (   4.5938453   4.4726049   9.2879030  )
        30           O1  tau(  30) = (   1.9864658   4.4711199   9.2879459  )
        31           Ti1 tau(  31) = (   3.3296195   5.9152860   9.1560537  )
        32           Ti1 tau(  32) = (   0.0304643   4.4420822   9.3322224  )
        33           O1  tau(  33) = (   3.3127198   2.9780151  11.3348310  )
        34           O1  tau(  34) = (   0.0025308   2.9791118  10.5479895  )
        35           O1  tau(  35) = (   1.3183054   4.4635934  12.6126975  )
        36           O1  tau(  36) = (   5.3202651   4.4673696  12.6407401  )
        37           Ti1 tau(  37) = (   6.5108624   5.9459213  12.5946634  )
        38           Ti1 tau(  38) = (   3.2137380   4.4666137  12.4775098  )
        39           O1  tau(  39) = (   0.0464109   2.9731917  14.6594554  )
        40           O1  tau(  40) = (   3.3098714   2.9789900  13.9126757  )
        41           O1  tau(  41) = (   4.5859750   4.4686661  16.0488133  )
        42           O1  tau(  42) = (   2.1005049   4.4706468  16.0453856  )
        43           Ti1 tau(  43) = (   3.2853703   5.9589473  15.7052640  )
        44           Ti1 tau(  44) = (   6.5509595   4.5658457  16.0514827  )
        45           O1  tau(  45) = (   3.2900926   2.9813045   4.7018136  )
        46           O1  tau(  46) = (   0.0949885   2.9744829  17.2486893  )
        47           O1  tau(  47) = (   1.3039711   4.4726057   6.0039043  )
        48           O1  tau(  48) = (   5.2763189   4.4711207   6.0039473  )
        49           N1  tau(  49) = (   0.3730515   3.1615268  19.4484725  )
        50           N1  tau(  50) = (   6.0186590   2.9946300  18.5893579  )
        51           C1  tau(  51) = (   0.0316377   3.3059097  20.7092049  )
        52           H1  tau(  52) = (   5.5749133   3.3461147  21.0318256  )
        53           H1  tau(  53) = (   0.8315635   3.3875449  21.4370997  )

     number of k points=    10  Fermi-Dirac smearing, width (Ry)=  0.0073
                       cart. coord. in units 2pi/alat
        k(    1) = (   0.0000000   0.0000000   0.0000000), wk =   0.1250000
        k(    2) = (   0.0000000   0.0419351   0.0000000), wk =   0.2500000
        k(    3) = (   0.0000000  -0.0838702   0.0000000), wk =   0.1250000
        k(    4) = (   0.0379955   0.0000049   0.0000000), wk =   0.2500000
        k(    5) = (   0.0379955   0.0419400   0.0000000), wk =   0.2500000
        k(    6) = (   0.0379955  -0.0838652   0.0000000), wk =   0.2500000
        k(    7) = (   0.0379955  -0.0419301   0.0000000), wk =   0.2500000
        k(    8) = (  -0.0759910  -0.0000099   0.0000000), wk =   0.1250000
        k(    9) = (  -0.0759910   0.0419252   0.0000000), wk =   0.2500000
        k(   10) = (  -0.0759910  -0.0838800   0.0000000), wk =   0.1250000

     Initial potential from superposition of free atoms

     starting charge  383.99917, renormalised to  400.00000

[...]

     %%%%%%%%%%%%%%%%%%%%%%%%%%%%%%%%%%%%%%%%%%%%%%%%%%%%%%%%%%%%%%%%%%%%%%%%
     %                                                                      %
     % You are using vdW-DF, which was implemented by the Thonhauser group. %
     % Please cite the following two papers that made this development      %
     % possible and the two reviews that describe the various versions:     %
     %                                                                      %
     %   T. Thonhauser et al., PRL 115, 136402 (2015).                      %
     %   T. Thonhauser et al., PRB 76, 125112 (2007).                       %
     %   K. Berland et al., Rep. Prog. Phys. 78, 066501 (2015).             %
     %   D.C. Langreth et al., J. Phys.: Condens. Matter 21, 084203 (2009). %
     %                                                                      %
     %                                                                      %
     % If you are calculating the stress with vdW-DF, please also cite:     %
     %                                                                      %
     %   R. Sabatini et al., J. Phys.: Condens. Matter 24, 424209 (2012).   %
     %                                                                      %
     %%%%%%%%%%%%%%%%%%%%%%%%%%%%%%%%%%%%%%%%%%%%%%%%%%%%%%%%%%%%%%%%%%%%%%%%

[...]

     Starting wfcs are  302 atomic wfcs
  @ DRIVER MODE: Message from server: STATUS
  @ DRIVER MODE: Message from server: POSDATA
  @ DRIVER MODE: Reading and sharing cell
  @ DRIVER MODE: Reading and sharing positions
  @ DRIVER MODE: Received positions

     Self-consistent Calculation

[...]

     iteration # 54     ecut=    29.40 Ry     beta= 0.05
     Davidson diagonalization with overlap
     c_bands:  1 eigenvalues not converged
     ethr =  1.89E-07,  avg # of iterations = 14.7

[...]

     total energy              =   -2970.15578261 Ry
     estimated scf accuracy    <       0.00000008 Ry

     iteration # 73     ecut=    29.40 Ry     beta= 0.05
     Davidson diagonalization with overlap
     ethr =  2.09E-11,  avg # of iterations =  6.7

     negative rho (up, down):  1.338E-02 0.000E+00

     Adding external electric field

     Computed dipole along edir(3) :
        Dipole                0.4179 Ry au,          1.0622 Debye
        Dipole field          0.0008 Ry au,

        Potential amp.       -0.0731 Ry
        Total length         46.3494 bohr

     End of self-consistent calculation

[...]

          k = 0.0380-0.0419 0.0000 ( 17876 PWs)   bands (ev):

[...]

          k =-0.0760-0.0839 0.0000 ( 17948 PWs)   bands (ev):

   -56.0942 -56.0763 -56.0365 -56.0350 -55.9471 -55.9080 -55.9039 -55.8564
   -55.7868 -55.7769 -55.7738 -55.7668 -55.7543 -55.7258 -55.0527 -55.0527
   -32.4083 -32.4065 -32.3814 -32.3801 -32.3656 -32.3524 -32.3103 -32.3091
   -32.2913 -32.2455 -32.2403 -32.2390 -32.2285 -32.2153 -32.2143 -32.2049
   -32.1963 -32.1938 -32.1768 -32.1558 -32.1304 -32.1254 -32.1142 -32.1126
   -32.1054 -32.0947 -32.0868 -32.0745 -32.0624 -32.0390 -32.0281 -31.9924
   -31.9878 -31.9850 -31.9782 -31.9675 -31.9666 -31.9631 -31.9619 -31.9554
   -31.9462 -31.9356 -31.3744 -31.3743 -31.2910 -31.2909 -31.2522 -31.2521
   -19.0407 -16.2112 -16.2025 -16.1847 -15.9493 -15.9459 -15.9120 -15.8583
   -15.7622 -15.7608 -15.7539 -15.7414 -15.6766 -15.6678 -15.6623 -15.5912
   -15.5802 -15.5772 -15.5705 -15.5461 -15.4919 -15.4911 -15.3797 -15.3578
   -15.3550 -15.3481 -15.3294 -15.3213 -15.2559 -15.2018 -15.1964 -13.5542
   -13.5512 -10.9507  -6.4184  -4.8015  -3.6829  -3.5038  -3.4950  -3.4156
    -3.1875  -3.1785  -3.0616  -3.0503  -3.0019  -2.9565  -2.9161  -2.9050
    -2.8945  -2.8744  -2.8658  -2.8502  -2.8303  -2.8132  -2.7957  -2.7691
    -2.7220  -2.6899  -2.6737  -2.6510  -2.6429  -2.6333  -2.6048  -2.5965
    -2.5747  -2.5720  -2.5523  -2.4522  -2.3125  -2.2902  -2.2224  -2.1832
    -2.1568  -2.1268  -2.1213  -2.0891  -2.0760  -2.0501  -1.9261  -1.8577
    -1.7810  -1.7486  -1.7245  -1.6616  -1.5815  -1.4971  -1.4286  -1.4065
    -1.3565  -1.3115  -1.2920  -1.2642  -1.2203  -1.2078  -1.1556  -1.0832
    -1.0761  -1.0364  -1.0266  -1.0058  -0.9327  -0.9246  -0.8684  -0.8108
    -0.7968  -0.7106  -0.6558  -0.6326  -0.6202  -0.5602  -0.5417  -0.4738
    -0.3967  -0.3178  -0.0431  -0.0262   0.0277   0.0392   0.0731   0.1727
     0.2346   0.2517   0.3257   0.3501   0.4270   0.4762   0.5090   0.5137
     0.5940   0.6120   1.3206   1.3242   1.4068   1.4163   1.7425   2.9414
     3.3906   3.4202   3.4263   3.4476   3.5831   3.5905   3.6075   3.6158
     3.7542   3.7928

     the Fermi energy is     3.0584 ev

!    total energy              =   -2970.15580700 Ry
     estimated scf accuracy    <       0.00000004 Ry
     smearing contrib. (-TS)   =      -0.02345698 Ry
     internal energy E=F+TS    =   -2970.13235002 Ry

     The total energy is F=E-TS. E is the sum of the following terms:
     one-electron contribution =  -23559.17295313 Ry
     hartree contribution      =   11867.79428910 Ry
     xc contribution           =    -491.49219277 Ry
     ewald contribution        =    9212.73817723 Ry
     electric field correction =       0.00032955 Ry

     convergence has been achieved in  73 iterations

     Forces acting on atoms (cartesian axes, Ry/au):

     atom    1 type  1   force =    -0.00000956   -0.00028501    0.11746354
     atom    2 type  1   force =    -0.00002833   -0.00047327   -0.17835335
     atom    3 type  2   force =     0.00020277    0.00070501   -0.03806245
     atom    4 type  2   force =     0.00087747   -0.00060027    0.04408973
     atom    5 type  2   force =    -0.02136122   -0.00158901    0.00210510
     atom    6 type  2   force =     0.02128301    0.00124936    0.00430219
     atom    7 type  1   force =     0.00092171   -0.00016358   -0.00005051
     atom    8 type  1   force =     0.00006089   -0.00015092    0.00094355
     atom    9 type  2   force =    -0.00048687    0.00006519   -0.00043569
     atom   10 type  2   force =     0.00025215    0.00008180   -0.00105083
     atom   11 type  2   force =     0.00062012    0.00008931   -0.00004380
     atom   12 type  2   force =    -0.00028580    0.00039043   -0.00025359
     atom   13 type  1   force =    -0.00136853    0.00032670    0.00004411
     atom   14 type  1   force =     0.00115724    0.00020241   -0.00033882
     atom   15 type  2   force =    -0.00033992    0.00018512    0.00098593
     atom   16 type  2   force =    -0.00027796    0.00003340    0.00152188
     atom   17 type  2   force =     0.00005984   -0.00027724    0.00044312
     atom   18 type  2   force =    -0.00041432   -0.00043366    0.00024817
     atom   19 type  1   force =    -0.00030275    0.00019336    0.00049394
     atom   20 type  1   force =     0.00022259    0.00009441    0.00026170
     atom   21 type  2   force =    -0.00000759    0.00005157    0.10375181
     atom   22 type  2   force =    -0.00037250    0.00025694   -0.00096661
     atom   23 type  2   force =    -0.06936579    0.00107673   -0.03120400
     atom   24 type  2   force =     0.06912716    0.00148178   -0.03120203
     atom   25 type  1   force =    -0.00023166   -0.00019183    0.12921830
     atom   26 type  1   force =    -0.00004538   -0.00004974   -0.17842255
     atom   27 type  2   force =     0.00040873    0.00016017   -0.03706674
     atom   28 type  2   force =     0.00033264   -0.00056300    0.04505078
     atom   29 type  2   force =    -0.02054204    0.00077185    0.00199273
     atom   30 type  2   force =     0.02219404    0.00158630    0.00425188
     atom   31 type  1   force =     0.00022136   -0.00042622   -0.00059949
     atom   32 type  1   force =    -0.00009582   -0.00105876    0.00109444
     atom   33 type  2   force =    -0.00050170   -0.00016192    0.00079697
     atom   34 type  2   force =     0.00011057   -0.00009266   -0.00023484
     atom   35 type  2   force =     0.00071937   -0.00022498   -0.00014931
     atom   36 type  2   force =    -0.00019035   -0.00013389   -0.00040723
     atom   37 type  1   force =    -0.00081779   -0.00049608    0.00043428
     atom   38 type  1   force =     0.00123459   -0.00042771   -0.00029414
     atom   39 type  2   force =    -0.00030631   -0.00017387   -0.00093005
     atom   40 type  2   force =    -0.00030536   -0.00009918   -0.00021382
     atom   41 type  2   force =    -0.00013072    0.00052537    0.00031735
     atom   42 type  2   force =    -0.00020998    0.00057648    0.00022326
     atom   43 type  1   force =    -0.00013972   -0.00006548   -0.00070137
     atom   44 type  1   force =     0.00006297   -0.00018415    0.00006867
     atom   45 type  2   force =     0.00001384    0.00004934    0.10387520
     atom   46 type  2   force =     0.00002161   -0.00005130   -0.00023359
     atom   47 type  2   force =    -0.06933483   -0.00128691   -0.03116623
     atom   48 type  2   force =     0.06912181   -0.00082330   -0.03122052
     atom   49 type  3   force =     0.00167668    0.00049926    0.00097483
     atom   50 type  3   force =    -0.00159964   -0.00013112    0.00041995
     atom   51 type  4   force =     0.00422892    0.00080371    0.00591228
     atom   52 type  5   force =    -0.00058721   -0.00020655   -0.00064523
     atom   53 type  5   force =    -0.00547241   -0.00063440   -0.00703890

     Total force =     0.384198     Total SCF correction =     0.000472
  @ DRIVER MODE: Message from server: STATUS
  @ DRIVER MODE: Message from server: GETFORCE
  @ DRIVER MODE: Returning v,forces,stress,ensemble

     Writing output data file ./calc.save/
  @ DRIVER MODE: Message from server: EXIT
  @ DRIVE MODE: Exiting

     General routines

     Parallel routines

   This run was terminated on:  11:16:26   4Oct2021

   JOB DONE.