     Program PWSCF v.6.7GPU starts on 23Sep2021 at 17:49:42

     R & G space division:  proc/nbgrp/npool/nimage =       8
     Reading input from /storage/home/hcoda1/3/ntian30/research/carbon/CxH_vib/H2O_calc/ads_slab/CH2NHNH2HO_a/out_0016/pw.inp
Warning: card &CELL ignored
Warning: card   CELL_DYNAMICS='IPI', ignored
Warning: card / ignored

     Current dimensions of program PWSCF are:
     Max number of different atomic species (ntypx) = 10
     Max number of k-points (npk) =  40000
     Max angular momentum in pseudopotentials (lmaxx) =  3
     Presently no symmetry can be used with electric field

     Message from routine cell_base_init:
     DEPRECATED: use true lattice parameter, not A to a.u. conversion factor

     IMPORTANT: XC functional enforced from input :
     Exchange-correlation= BEEF-VDW
                           (   1   4  43  14   2   0   0)
     Any further DFT definition will be discarded
     Please, verify this is what you really want

  @ DRIVER MODE: Connecting to
 qe_1139763_2947313.sched-torque.pace.gatech.edutjcbybgs_scratch
  using UNIX socket
  @ DRIVER MODE: Message from server: STATUS
  @ DRIVER MODE: Message from server: INIT
  @ DRIVER MODE: Receiving replica           0          -1
  @ DRIVER MODE: Receiving encoded integer          25
  @ DRIVER MODE:  SCF:  T  FORCE:  T  STRESS:  F  VC:  F  ENSEMBLE:  F
  @ DRIVER MODE:  SCF:  T  FORCE:  T  STRESS:  F  VC:  F  ENSEMBLE:  F

     Using Slab Decomposition

     bravais-lattice index     =            0
     lattice parameter (alat)  =       1.8897  a.u.
     unit-cell volume          =    6658.9804 (a.u.)^3
     number of atoms/cell      =           57
     number of atomic types    =            5
     number of electrons       =       404.00
     number of Kohn-Sham states=          212
     kinetic-energy cutoff     =      29.3995  Ry
     charge density cutoff     =     293.9946  Ry
     scf convergence threshold =      7.3E-08
     mixing beta               =       0.0500
     number of iterations used =            8  plain     mixing
     Exchange-correlation= BEEF-VDW
                           (   1   4  43  14   2   0   0)

     celldm(1)=   1.889726  celldm(2)=   0.000000  celldm(3)=   0.000000
     celldm(4)=   0.000000  celldm(5)=   0.000000  celldm(6)=   0.000000

     crystal axes: (cart. coord. in units of alat)
               a(1) = (   6.579727   0.000000   0.000000 )
               a(2) = (  -0.000775   5.961596   0.000000 )
               a(3) = (   0.000000   0.000000  25.155947 )

     reciprocal axes: (cart. coord. in units 2 pi/alat)
               b(1) = (  0.151982  0.000020  0.000000 )
               b(2) = (  0.000000  0.167740  0.000000 )
               b(3) = (  0.000000  0.000000  0.039752 )

     PseudoPot. # 1 for Ti read from file:
     /storage/coda1/p-amedford6/0/shared/rich_project_chbe-medford/medford-share/data/pseudos_module/espresso/nninc/pbe/van/Ti.UPF
     MD5 check sum: 8e4df49b7f0d34bbd5052bf3f5ea0213
     Pseudo is Ultrasoft, Zval = 12.0
     Generated by new atomic code, or converted to UPF format
     Using radial grid of  851 points,  6 beta functions with:
                l(1) =   0
                l(2) =   0
                l(3) =   1
                l(4) =   1
                l(5) =   2
                l(6) =   2
     Q(r) pseudized with  8 coefficients,  rinner =    1.000   1.000   1.000
                                                       1.000   1.000

     PseudoPot. # 2 for O  read from file:
     /storage/coda1/p-amedford6/0/shared/rich_project_chbe-medford/medford-share/data/pseudos_module/espresso/nninc/pbe/van/O.UPF
     MD5 check sum: 78c19812648e8988a0fe644b0f25305e
     Pseudo is Ultrasoft, Zval =  6.0
     Generated by new atomic code, or converted to UPF format
     Using radial grid of  737 points,  4 beta functions with:
                l(1) =   0
                l(2) =   0
                l(3) =   1
                l(4) =   1
     Q(r) pseudized with  8 coefficients,  rinner =    0.800   0.800   0.800

     PseudoPot. # 3 for N  read from file:
     /storage/coda1/p-amedford6/0/shared/rich_project_chbe-medford/medford-share/data/pseudos_module/espresso/nninc/pbe/van/N.UPF
     MD5 check sum: 90d10febe142ad51ac9d5be1deb811c4
     Pseudo is Ultrasoft, Zval =  5.0
     Generated by new atomic code, or converted to UPF format
     Using radial grid of  729 points,  4 beta functions with:
                l(1) =   0
                l(2) =   0
                l(3) =   1
                l(4) =   1
     Q(r) pseudized with  8 coefficients,  rinner =    0.800   0.800   0.800

     PseudoPot. # 4 for C  read from file:
     /storage/coda1/p-amedford6/0/shared/rich_project_chbe-medford/medford-share/data/pseudos_module/espresso/nninc/pbe/van/C.UPF
     MD5 check sum: 1a69bf6b8db32088f5b2163dbdb77a27
     Pseudo is Ultrasoft, Zval =  4.0
     Generated by new atomic code, or converted to UPF format
     Using radial grid of  721 points,  4 beta functions with:
                l(1) =   0
                l(2) =   0
                l(3) =   1
                l(4) =   1
     Q(r) pseudized with  8 coefficients,  rinner =    0.800   0.800   0.800

     PseudoPot. # 5 for H  read from file:
     /storage/coda1/p-amedford6/0/shared/rich_project_chbe-medford/medford-share/data/pseudos_module/espresso/nninc/pbe/van/H.UPF
     MD5 check sum: b5ee9d7bfd3a09ee7748110bda690ff7
     Pseudo is Ultrasoft, Zval =  1.0
     Generated by new atomic code, or converted to UPF format
     Using radial grid of  615 points,  1 beta functions with:
                l(1) =   0
     Q(r) pseudized with  8 coefficients,  rinner =    0.800

     atomic species   valence    mass     pseudopotential
        Ti1           12.00    47.86700     Ti( 1.00)
        O1             6.00    15.99900     O ( 1.00)
        N1             5.00    14.00700     N ( 1.00)
        C1             4.00    12.01100     C ( 1.00)
        H1             1.00     1.00800     H ( 1.00)

     No symmetry found

   Cartesian axes

     site n.     atom                  positions (alat units)
         1           Ti1 tau(   1) = (   0.0004258   2.9801865   6.0000000  )
         2           Ti1 tau(   2) = (   3.2906075   1.4906267   6.0002472  )
         3           O1  tau(   3) = (   0.0006271   0.0005054   7.9858123  )
         4           O1  tau(   4) = (   3.2906025   0.0005020   7.3038282  )
         5           O1  tau(   5) = (   4.5942328   1.4918067   9.2879030  )
         6           O1  tau(   6) = (   1.9868534   1.4903216   9.2879459  )
         7           Ti1 tau(   7) = (   3.2907910   2.8959150   9.1758416  )
         8           Ti1 tau(   8) = (   0.0015273   1.4827037   9.2680791  )
         9           O1  tau(   9) = (   3.2769995   5.9424463  11.3879711  )
        10           O1  tau(  10) = (   0.0116148   5.9584955  10.6183126  )
        11           O1  tau(  11) = (   1.2559300   1.4809235  12.6914295  )
        12           O1  tau(  12) = (   5.2914439   1.4888754  12.6824943  )
        13           Ti1 tau(  13) = (   6.5693074   2.9549812  12.5071532  )
        14           Ti1 tau(  14) = (   3.2720578   1.2926143  12.7373905  )
        15           O1  tau(  15) = (   6.5263330   5.9075480  14.6758232  )
        16           O1  tau(  16) = (   3.2750150   0.0724425  14.0538047  )
        17           O1  tau(  17) = (   4.5404297   1.6145126  16.1214498  )
        18           O1  tau(  18) = (   1.9612862   1.5681812  16.1371236  )
        19           Ti1 tau(  19) = (   3.2615978   3.0295928  15.7214328  )
        20           Ti1 tau(  20) = (   6.4910920   1.3289874  15.8500745  )
        21           O1  tau(  21) = (   3.2904802   0.0005063   4.7018136  )
        22           O1  tau(  22) = (   6.5149858   0.1606772  17.2625446  )
        23           O1  tau(  23) = (   1.3043587   1.4918075   6.0039043  )
        24           O1  tau(  24) = (   5.2767064   1.4903225   6.0039473  )
        25           Ti1 tau(  25) = (   0.0000382   5.9609847   6.0000000  )
        26           Ti1 tau(  26) = (   3.2902200   4.4714249   6.0002472  )
        27           O1  tau(  27) = (   0.0002396   2.9813036   7.9858123  )
        28           O1  tau(  28) = (   3.2902150   2.9813002   7.3038282  )
        29           O1  tau(  29) = (   4.5938453   4.4726049   9.2879030  )
        30           O1  tau(  30) = (   1.9864658   4.4711199   9.2879459  )
        31           Ti1 tau(  31) = (   3.2891106   5.8743827   9.1763621  )
        32           Ti1 tau(  32) = (   0.0006254   4.4649316   9.2693709  )
        33           O1  tau(  33) = (   3.2749377   2.9871965  11.3337082  )
        34           O1  tau(  34) = (   0.0092240   2.9805883  10.6323155  )
        35           O1  tau(  35) = (   1.2597673   4.4587344  12.6634223  )
        36           O1  tau(  36) = (   5.2866262   4.4511231  12.6493885  )
        37           Ti1 tau(  37) = (   6.5604603   5.9292220  12.4937940  )
        38           Ti1 tau(  38) = (   3.2724722   4.3622713  12.4512132  )
        39           O1  tau(  39) = (   6.5737517   3.0258615  14.9025115  )
        40           O1  tau(  40) = (   3.2593133   3.0063273  13.9441864  )
        41           O1  tau(  41) = (   4.5441350   4.4310557  16.1689449  )
        42           O1  tau(  42) = (   1.9655774   4.4762250  16.2070539  )
        43           Ti1 tau(  43) = (   3.1776431   0.0563557  16.2565842  )
        44           Ti1 tau(  44) = (   6.5216753   4.5226504  15.9439936  )
        45           O1  tau(  45) = (   3.2900926   2.9813045   4.7018136  )
        46           O1  tau(  46) = (   1.3039711   4.4726057   6.0039043  )
        47           O1  tau(  47) = (   5.2763189   4.4711207   6.0039473  )
        48           N1  tau(  48) = (   0.8157702   2.5297039  18.7633901  )
        49           N1  tau(  49) = (   6.4302604   3.3580032  18.1334362  )
        50           C1  tau(  50) = (   1.9549655   3.0331469  19.2293773  )
        51           H1  tau(  51) = (   2.0901252   4.0892486  19.3254668  )
        52           H1  tau(  52) = (   2.7239663   2.3052050  19.4587972  )
        53           H1  tau(  53) = (   0.7490178   1.5515861  18.4517582  )
        54           H1  tau(  54) = (   6.4535031   4.2829477  18.5696568  )
        55           H1  tau(  55) = (   5.5068980   2.9516776  18.2836589  )
        56           O1  tau(  56) = (   3.3967406   0.0908776  18.1493316  )
        57           H1  tau(  57) = (   4.3453859   0.1513423  18.3540861  )

     number of k points=    10  Fermi-Dirac smearing, width (Ry)=  0.0073
                       cart. coord. in units 2pi/alat
        k(    1) = (   0.0000000   0.0000000   0.0000000), wk =   0.1250000
        k(    2) = (   0.0000000   0.0419351   0.0000000), wk =   0.2500000
        k(    3) = (   0.0000000  -0.0838702   0.0000000), wk =   0.1250000
        k(    4) = (   0.0379955   0.0000049   0.0000000), wk =   0.2500000
        k(    5) = (   0.0379955   0.0419400   0.0000000), wk =   0.2500000
        k(    6) = (   0.0379955  -0.0838652   0.0000000), wk =   0.2500000
        k(    7) = (   0.0379955  -0.0419301   0.0000000), wk =   0.2500000
        k(    8) = (  -0.0759910  -0.0000099   0.0000000), wk =   0.1250000
        k(    9) = (  -0.0759910   0.0419252   0.0000000), wk =   0.2500000
        k(   10) = (  -0.0759910  -0.0838800   0.0000000), wk =   0.1250000

     Initial potential from superposition of free atoms

     starting charge  387.99913, renormalised to  404.00000

     negative rho (up, down):  1.608E-02 0.000E+00

     %%%%%%%%%%%%%%%%%%%%%%%%%%%%%%%%%%%%%%%%%%%%%%%%%%%%%%%%%%%%%%%%%%%%%%%%
     %                                                                      %
     % You are using vdW-DF, which was implemented by the Thonhauser group. %
     % Please cite the following two papers that made this development      %
     % possible and the two reviews that describe the various versions:     %
     %                                                                      %
     %   T. Thonhauser et al., PRL 115, 136402 (2015).                      %
     %   T. Thonhauser et al., PRB 76, 125112 (2007).                       %
     %   K. Berland et al., Rep. Prog. Phys. 78, 066501 (2015).             %
     %   D.C. Langreth et al., J. Phys.: Condens. Matter 21, 084203 (2009). %
     %                                                                      %
     %                                                                      %
     % If you are calculating the stress with vdW-DF, please also cite:     %
     %                                                                      %
     %   R. Sabatini et al., J. Phys.: Condens. Matter 24, 424209 (2012).   %
     %                                                                      %
     %%%%%%%%%%%%%%%%%%%%%%%%%%%%%%%%%%%%%%%%%%%%%%%%%%%%%%%%%%%%%%%%%%%%%%%%

     Adding external electric field

     Computed dipole along edir(3) :
        Dipole              -13.8429 Ry au,        -35.1851 Debye
        Dipole field         -0.0261 Ry au,

        Potential amp.        2.4216 Ry
        Total length         46.3494 bohr

     Starting wfcs are  306 atomic wfcs
  @ DRIVER MODE: Message from server: STATUS
  @ DRIVER MODE: Message from server: POSDATA
  @ DRIVER MODE: Reading and sharing cell
  @ DRIVER MODE: Reading and sharing positions
  @ DRIVER MODE: Received positions

     Self-consistent Calculation

     iteration #  1     ecut=    29.40 Ry     beta= 0.05
     Davidson diagonalization with overlap
     c_bands:  1 eigenvalues not converged
     c_bands:  2 eigenvalues not converged
     c_bands:  1 eigenvalues not converged
     c_bands:  1 eigenvalues not converged
     c_bands:  1 eigenvalues not converged
     c_bands:  2 eigenvalues not converged
     c_bands:  5 eigenvalues not converged
     c_bands:  3 eigenvalues not converged
     ethr =  1.00E-05,  avg # of iterations = 32.8

[...]

     total energy              =   -2231.91009773 Ry
     estimated scf accuracy    <    8426.08657622 Ry

     iteration #  2     ecut=    29.40 Ry     beta= 0.05
     Davidson diagonalization with overlap
     ethr =  1.00E-02,  avg # of iterations = 28.8

[...]

     iteration # 60     ecut=    29.40 Ry     beta= 0.05
     Davidson diagonalization with overlap
     c_bands:  1 eigenvalues not converged
     ethr =  3.94E-08,  avg # of iterations = 11.6

[...]

     total energy              =   -2975.14988681 Ry
     estimated scf accuracy    <       0.00000044 Ry

     iteration # 75     ecut=    29.40 Ry     beta= 0.05
     Davidson diagonalization with overlap
     ethr =  5.21E-11,  avg # of iterations =  9.6

     negative rho (up, down):  1.525E-02 0.000E+00

     Adding external electric field

     Computed dipole along edir(3) :
        Dipole                1.1734 Ry au,          2.9825 Debye
        Dipole field          0.0022 Ry au,

        Potential amp.       -0.2053 Ry
        Total length         46.3494 bohr

     End of self-consistent calculation

          k = 0.0000 0.0000 0.0000 ( 18029 PWs)   bands (ev):

   -55.4206 -55.3390 -55.3050 -55.2343 -55.1961 -55.1856 -55.1702 -55.1694
   -55.1542 -55.1349 -55.1063 -55.0351 -55.0271 -55.0008 -54.3335 -54.2995
   -31.8270 -31.7766 -31.7473 -31.7201 -31.6732 -31.6728 -31.6379 -31.6288
   -31.6241 -31.6128 -31.5844 -31.5462 -31.5090 -31.4920 -31.4760 -31.4685
   -31.4517 -31.4487 -31.4475 -31.4133 -31.3966 -31.3850 -31.3794 -31.3760
   -31.3709 -31.3649 -31.3617 -31.3397 -31.3340 -31.3309 -31.3307 -31.3071
   -31.2990 -31.2954 -31.2834 -31.2590 -31.2406 -31.2371 -31.2149 -31.2047
   -31.2014 -31.1980 -30.7405 -30.6516 -30.6293 -30.5578 -30.4713 -30.3597
   -19.3511 -16.2703 -16.0538 -15.8882 -15.6730 -15.6263 -15.5368 -15.3745
   -15.2624 -15.1921 -15.0823 -15.0058 -14.9317 -14.8991 -14.8902 -14.8765
   -14.8711 -14.8201 -14.8111 -14.7974 -14.7866 -14.7767 -14.7528 -14.7356
   -14.7014 -14.6529 -14.5865 -14.4982 -14.4596 -14.4230 -14.2980 -14.2794
   -12.8323 -12.7155 -10.1890  -7.7921  -6.5632  -5.3625  -4.1836  -3.8023
    -3.6655  -3.3966  -3.2884  -3.2572  -3.1900  -3.1620  -2.9073  -2.8076
    -2.7890  -2.6527  -2.5341  -2.4874  -2.4266  -2.3562  -2.3248  -2.3016
    -2.2765  -2.2189  -2.1563  -2.1429  -2.1279  -2.0524  -2.0479  -1.9729
    -1.9243  -1.9120  -1.8069  -1.7333  -1.7031  -1.6901  -1.6783  -1.6621
    -1.6369  -1.6300  -1.6062  -1.5437  -1.4783  -1.4688  -1.4035  -1.3779
    -1.1048  -1.0399  -0.9766  -0.9469  -0.8697  -0.8250  -0.8139  -0.7888
    -0.7475  -0.7434  -0.7123  -0.6610  -0.5573  -0.5089  -0.4771  -0.4596
    -0.4069  -0.2932  -0.2725  -0.1618  -0.1332  -0.1249  -0.0876  -0.0390
     0.0025   0.0413   0.1050   0.1737   0.2243   0.2751   0.3073   0.3328
     0.3736   0.4097   0.4685   0.5460   0.5699   0.6143   0.6447   0.6648
     0.6743   0.7312   0.7482   0.8359   0.9169   0.9284   1.0283   1.0588
     1.1090   1.2928   1.3300   1.6288   1.6752   1.6931   1.8816   2.2627
     2.3091   3.7280   3.8531   3.8824   3.8927   3.9308   3.9647   4.0205
     4.2161   4.2268   4.3390   4.4643

[...]

          k = 0.0380-0.0419 0.0000 ( 17876 PWs)   bands (ev):

[...]

          k =-0.0760-0.0000 0.0000 ( 17886 PWs)   bands (ev):

[...]

          k =-0.0760-0.0839 0.0000 ( 17948 PWs)   bands (ev):

   -55.4197 -55.3221 -55.3218 -55.2230 -55.2073 -55.1832 -55.1711 -55.1519
   -55.1516 -55.1479 -55.1132 -55.0292 -55.0238 -55.0120 -54.3169 -54.3160
   -31.6889 -31.6784 -31.6602 -31.6423 -31.6421 -31.6248 -31.6143 -31.6140
   -31.5726 -31.5419 -31.5262 -31.5012 -31.4919 -31.4834 -31.4718 -31.4591
   -31.4577 -31.4520 -31.4490 -31.4419 -31.4416 -31.4321 -31.4162 -31.4083
   -31.4041 -31.3868 -31.3725 -31.3720 -31.3660 -31.3633 -31.3583 -31.3484
   -31.3340 -31.3301 -31.3288 -31.3251 -31.2902 -31.2896 -31.2509 -31.2440
   -31.2189 -31.2104 -30.6424 -30.6417 -30.5539 -30.5527 -30.5149 -30.5142
   -19.3465 -16.2407 -15.7584 -15.4900 -15.3654 -15.3535 -15.2320 -15.2148
   -15.1524 -15.1438 -15.1142 -15.1026 -15.0914 -15.0464 -15.0170 -14.9356
   -14.9197 -14.8792 -14.8758 -14.8300 -14.8278 -14.8259 -14.8044 -14.7827
   -14.7762 -14.7516 -14.6970 -14.6887 -14.6754 -14.5380 -14.4316 -14.4023
   -12.8174 -12.8169 -10.1605  -7.7582  -6.5547  -5.4443  -4.1439  -3.8192
    -3.6260  -2.8459  -2.7030  -2.6018  -2.4914  -2.4594  -2.4111  -2.3615
    -2.3484  -2.3168  -2.2434  -2.2166  -2.2012  -2.1653  -2.1636  -2.1409
    -2.1311  -2.1117  -2.0827  -2.0626  -2.0537  -2.0460  -2.0200  -2.0040
    -1.9905  -1.9649  -1.9371  -1.9161  -1.9031  -1.8949  -1.8435  -1.7381
    -1.6504  -1.5716  -1.5352  -1.5093  -1.4940  -1.4508  -1.4375  -1.4250
    -1.3904  -1.3664  -1.2304  -1.2092  -1.0693  -1.0171  -0.9829  -0.9364
    -0.8833  -0.8744  -0.8554  -0.8172  -0.7773  -0.6454  -0.6134  -0.5770
    -0.4986  -0.4485  -0.3615  -0.3475  -0.3224  -0.3062  -0.2706  -0.2498
    -0.2371  -0.2063  -0.1770  -0.0987  -0.0653  -0.0535  -0.0342   0.0649
     0.1651   0.2049   0.2686   0.3379   0.3790   0.4045   0.4333   0.6183
     0.6470   0.7907   0.7990   0.8035   0.9487   0.9494   0.9986   1.0478
     1.0766   1.1184   1.1477   1.1621   1.1971   2.0519   2.0602   2.1294
     2.1295   3.7644   3.9305   4.1536   4.1761   4.2341   4.2455   4.2764
     4.3021   4.3315   4.3719   4.3916

     the Fermi energy is     3.7778 ev

!    total energy              =   -2975.14990186 Ry
     estimated scf accuracy    <       0.00000007 Ry
     smearing contrib. (-TS)   =      -0.03326525 Ry
     internal energy E=F+TS    =   -2975.11663661 Ry

     The total energy is F=E-TS. E is the sum of the following terms:
     one-electron contribution =  -23379.63954598 Ry
     hartree contribution      =   11787.02859344 Ry
     xc contribution           =    -494.90058529 Ry
     ewald contribution        =    9112.39230294 Ry
     electric field correction =       0.00259828 Ry

     convergence has been achieved in  75 iterations

     Forces acting on atoms (cartesian axes, Ry/au):

     atom    1 type  1   force =     0.00028311   -0.00019472    0.09348413
     atom    2 type  1   force =    -0.00005646    0.00053411   -0.17634023
     atom    3 type  2   force =     0.00004345   -0.00029961   -0.02070358
     atom    4 type  2   force =     0.00001676   -0.00222444    0.05688412
     atom    5 type  2   force =    -0.00784970   -0.00263299    0.00513483
     atom    6 type  2   force =     0.00891481   -0.00211568    0.00325245
     atom    7 type  1   force =    -0.00078147   -0.00332500    0.00576828
     atom    8 type  1   force =     0.00086466    0.00107764   -0.00173895
     atom    9 type  2   force =    -0.00018673    0.00014436    0.00004419
     atom   10 type  2   force =    -0.00341925    0.00105473   -0.00644117
     atom   11 type  2   force =     0.00017504   -0.00013481    0.00030004
     atom   12 type  2   force =    -0.00010758   -0.00023031    0.00002519
     atom   13 type  1   force =     0.00000849   -0.00005183   -0.00018563
     atom   14 type  1   force =     0.00052769   -0.00038312   -0.00022522
     atom   15 type  2   force =    -0.00002217   -0.00098696   -0.00047958
     atom   16 type  2   force =     0.00021470    0.00063434    0.00079243
     atom   17 type  2   force =    -0.00132035    0.00033109   -0.00049620
     atom   18 type  2   force =     0.00140616   -0.00005640   -0.00082383
     atom   19 type  1   force =     0.00005088    0.00057111    0.00016479
     atom   20 type  1   force =     0.00054027    0.00023154   -0.00032770
     atom   21 type  2   force =     0.00011541    0.00005019    0.10359705
     atom   22 type  2   force =     0.00010771    0.00016020    0.00043660
     atom   23 type  2   force =    -0.07137812   -0.00017604   -0.02700404
     atom   24 type  2   force =     0.07137319    0.00027287   -0.02703611
     atom   25 type  1   force =     0.00007198   -0.00017555    0.09323106
     atom   26 type  1   force =     0.00007990   -0.00125892   -0.17654973
     atom   27 type  2   force =     0.00007649   -0.00014618   -0.01946747
     atom   28 type  2   force =     0.00001876   -0.00059963    0.05225083
     atom   29 type  2   force =    -0.00741624    0.00176855    0.00489597
     atom   30 type  2   force =     0.00834525    0.00235322    0.00299806
     atom   31 type  1   force =    -0.00097726    0.00885646   -0.00435355
     atom   32 type  1   force =     0.00094315   -0.00222842   -0.00239831
     atom   33 type  2   force =    -0.00022358   -0.00134517   -0.00065686
     atom   34 type  2   force =    -0.00214375   -0.00210074   -0.00765194
     atom   35 type  2   force =    -0.00002533    0.00016894    0.00025822
     atom   36 type  2   force =     0.00018670    0.00016195    0.00019769
     atom   37 type  1   force =     0.00003510   -0.00030529    0.00015534
     atom   38 type  1   force =     0.00035164    0.00047156    0.00020220
     atom   39 type  2   force =     0.00000081    0.00080693   -0.00024420
     atom   40 type  2   force =     0.00021349   -0.00016195    0.00037607
     atom   41 type  2   force =    -0.00049630   -0.00009287    0.00007442
     atom   42 type  2   force =     0.00086075   -0.00020029   -0.00003243
     atom   43 type  1   force =     0.00035812   -0.00059108    0.00018699
     atom   44 type  1   force =     0.00002698    0.00074213    0.00052559
     atom   45 type  2   force =     0.00009993   -0.00008866    0.10335147
     atom   46 type  2   force =    -0.07141951   -0.00002926   -0.02704055
     atom   47 type  2   force =     0.07139523    0.00038605   -0.02707126
     atom   48 type  3   force =     0.00299359    0.00659449    0.00198383
     atom   49 type  3   force =    -0.00066702    0.00005988   -0.00014105
     atom   50 type  4   force =     0.00088288   -0.02653658   -0.00128124
     atom   51 type  5   force =     0.00138035    0.01226762    0.00024940
     atom   52 type  5   force =    -0.00501880    0.00736418   -0.00133221
     atom   53 type  5   force =     0.00106561    0.00070611    0.00025861
     atom   54 type  5   force =    -0.00028747    0.00007108   -0.00034460
     atom   55 type  5   force =    -0.00011940    0.00059409    0.00046857
     atom   56 type  2   force =     0.00074602    0.00089945   -0.00045182
     atom   57 type  5   force =    -0.00085855   -0.00066238   -0.00072899

     Total force =     0.364498     Total SCF correction =     0.000504
  @ DRIVER MODE: Message from server: STATUS
  @ DRIVER MODE: Message from server: GETFORCE
  @ DRIVER MODE: Returning v,forces,stress,ensemble

     Writing output data file ./calc.save/
  @ DRIVER MODE: Message from server: EXIT
  @ DRIVE MODE: Exiting

     General routines

     Parallel routines

   This run was terminated on:  18:16:44  23Sep2021

   JOB DONE.