     Program PWSCF v.6.7GPU starts on  9Sep2021 at  3:52:24

     R & G space division:  proc/nbgrp/npool/nimage =      10
     Reading input from /storage/home/hcoda1/3/ntian30/research/carbon/CxH_vib/CH3_calc/ads_slab/CH3N2_c/out_0019/pw.inp
Warning: card &CELL ignored
Warning: card   CELL_DYNAMICS='IPI', ignored
Warning: card / ignored

     Current dimensions of program PWSCF are:
     Max number of different atomic species (ntypx) = 10
     Max number of k-points (npk) =  40000
     Max angular momentum in pseudopotentials (lmaxx) =  3
     Presently no symmetry can be used with electric field

     Message from routine cell_base_init:
     DEPRECATED: use true lattice parameter, not A to a.u. conversion factor

     IMPORTANT: XC functional enforced from input :
     Exchange-correlation= BEEF-VDW
                           (   1   4  43  14   2   0   0)
     Any further DFT definition will be discarded
     Please, verify this is what you really want

  @ DRIVER MODE: Connecting to
 qe_1139763_2767397.sched-torque.pace.gatech.eduwt6y6gen_scratch
  using UNIX socket
  @ DRIVER MODE: Message from server: STATUS
  @ DRIVER MODE: Message from server: INIT
  @ DRIVER MODE: Receiving replica           0          -1
  @ DRIVER MODE: Receiving encoded integer          25
  @ DRIVER MODE:  SCF:  T  FORCE:  T  STRESS:  F  VC:  F  ENSEMBLE:  F
  @ DRIVER MODE:  SCF:  T  FORCE:  T  STRESS:  F  VC:  F  ENSEMBLE:  F

     Using Slab Decomposition

     bravais-lattice index     =            0
     lattice parameter (alat)  =       1.8897  a.u.
     unit-cell volume          =    6658.9804 (a.u.)^3
     number of atoms/cell      =           53
     number of atomic types    =            5
     number of electrons       =       395.00
     number of Kohn-Sham states=          207
     kinetic-energy cutoff     =      29.3995  Ry
     charge density cutoff     =     293.9946  Ry
     scf convergence threshold =      7.3E-08
     mixing beta               =       0.0500
     number of iterations used =            8  plain     mixing
     Exchange-correlation= BEEF-VDW
                           (   1   4  43  14   2   0   0)

     celldm(1)=   1.889726  celldm(2)=   0.000000  celldm(3)=   0.000000
     celldm(4)=   0.000000  celldm(5)=   0.000000  celldm(6)=   0.000000

     crystal axes: (cart. coord. in units of alat)
               a(1) = (   6.579727   0.000000   0.000000 )
               a(2) = (  -0.000775   5.961596   0.000000 )
               a(3) = (   0.000000   0.000000  25.155947 )

     reciprocal axes: (cart. coord. in units 2 pi/alat)
               b(1) = (  0.151982  0.000020  0.000000 )
               b(2) = (  0.000000  0.167740  0.000000 )
               b(3) = (  0.000000  0.000000  0.039752 )

     PseudoPot. # 1 for Ti read from file:
     /storage/coda1/p-amedford6/0/shared/rich_project_chbe-medford/medford-share/data/pseudos_module/espresso/nninc/pbe/van/Ti.UPF
     MD5 check sum: 8e4df49b7f0d34bbd5052bf3f5ea0213
     Pseudo is Ultrasoft, Zval = 12.0
     Generated by new atomic code, or converted to UPF format
     Using radial grid of  851 points,  6 beta functions with:
                l(1) =   0
                l(2) =   0
                l(3) =   1
                l(4) =   1
                l(5) =   2
                l(6) =   2
     Q(r) pseudized with  8 coefficients,  rinner =    1.000   1.000   1.000
                                                       1.000   1.000

     PseudoPot. # 2 for O  read from file:
     /storage/coda1/p-amedford6/0/shared/rich_project_chbe-medford/medford-share/data/pseudos_module/espresso/nninc/pbe/van/O.UPF
     MD5 check sum: 78c19812648e8988a0fe644b0f25305e
     Pseudo is Ultrasoft, Zval =  6.0
     Generated by new atomic code, or converted to UPF format
     Using radial grid of  737 points,  4 beta functions with:
                l(1) =   0
                l(2) =   0
                l(3) =   1
                l(4) =   1
     Q(r) pseudized with  8 coefficients,  rinner =    0.800   0.800   0.800

     PseudoPot. # 3 for N  read from file:
     /storage/coda1/p-amedford6/0/shared/rich_project_chbe-medford/medford-share/data/pseudos_module/espresso/nninc/pbe/van/N.UPF
     MD5 check sum: 90d10febe142ad51ac9d5be1deb811c4
     Pseudo is Ultrasoft, Zval =  5.0
     Generated by new atomic code, or converted to UPF format
     Using radial grid of  729 points,  4 beta functions with:
                l(1) =   0
                l(2) =   0
                l(3) =   1
                l(4) =   1
     Q(r) pseudized with  8 coefficients,  rinner =    0.800   0.800   0.800

     PseudoPot. # 4 for C  read from file:
     /storage/coda1/p-amedford6/0/shared/rich_project_chbe-medford/medford-share/data/pseudos_module/espresso/nninc/pbe/van/C.UPF
     MD5 check sum: 1a69bf6b8db32088f5b2163dbdb77a27
     Pseudo is Ultrasoft, Zval =  4.0
     Generated by new atomic code, or converted to UPF format
     Using radial grid of  721 points,  4 beta functions with:
                l(1) =   0
                l(2) =   0
                l(3) =   1
                l(4) =   1
     Q(r) pseudized with  8 coefficients,  rinner =    0.800   0.800   0.800

     PseudoPot. # 5 for H  read from file:
     /storage/coda1/p-amedford6/0/shared/rich_project_chbe-medford/medford-share/data/pseudos_module/espresso/nninc/pbe/van/H.UPF
     MD5 check sum: b5ee9d7bfd3a09ee7748110bda690ff7
     Pseudo is Ultrasoft, Zval =  1.0
     Generated by new atomic code, or converted to UPF format
     Using radial grid of  615 points,  1 beta functions with:
                l(1) =   0
     Q(r) pseudized with  8 coefficients,  rinner =    0.800

     atomic species   valence    mass     pseudopotential
        Ti1           12.00    47.86700     Ti( 1.00)
        O1             6.00    15.99900     O ( 1.00)
        N1             5.00    14.00700     N ( 1.00)
        C1             4.00    12.01100     C ( 1.00)
        H1             1.00     1.00800     H ( 1.00)

     No symmetry found

   Cartesian axes

     site n.     atom                  positions (alat units)
         1           Ti1 tau(   1) = (   0.0004258   2.9801865   6.0000000  )
         2           Ti1 tau(   2) = (   3.2906075   1.4906267   6.0002472  )
         3           O1  tau(   3) = (   0.0006271   0.0005054   7.9858123  )
         4           O1  tau(   4) = (   3.2906025   0.0005020   7.3038282  )
         5           O1  tau(   5) = (   4.5942328   1.4918067   9.2879030  )
         6           O1  tau(   6) = (   1.9868534   1.4903216   9.2879459  )
         7           Ti1 tau(   7) = (   3.2907910   2.8959150   9.1758416  )
         8           Ti1 tau(   8) = (   0.0015273   1.4827037   9.2680791  )
         9           O1  tau(   9) = (   3.2868105   5.9447858  11.3346005  )
        10           O1  tau(  10) = (   0.0116148   5.9584955  10.6183126  )
        11           O1  tau(  11) = (   1.2897616   1.4699164  12.6258314  )
        12           O1  tau(  12) = (   5.2713851   1.4716199  12.6109895  )
        13           Ti1 tau(  13) = (   0.0629619   2.9460495  12.6207869  )
        14           Ti1 tau(  14) = (   3.3778125   1.4702366  12.4807322  )
        15           O1  tau(  15) = (   6.5741670   5.9392046  14.6271830  )
        16           O1  tau(  16) = (   3.2925211   5.9405975  13.9303826  )
        17           O1  tau(  17) = (   4.5331425   1.4971777  16.0590535  )
        18           O1  tau(  18) = (   2.0416154   1.4974824  16.0477615  )
        19           Ti1 tau(  19) = (   3.2901388   2.9722967  15.7036181  )
        20           Ti1 tau(  20) = (   6.5714728   1.5019933  15.8140906  )
        21           O1  tau(  21) = (   3.2904802   0.0005063   4.7018136  )
        22           O1  tau(  22) = (   6.5775371   0.0159386  17.1814867  )
        23           O1  tau(  23) = (   1.3043587   1.4918075   6.0039043  )
        24           O1  tau(  24) = (   5.2767064   1.4903225   6.0039473  )
        25           Ti1 tau(  25) = (   0.0000382   5.9609847   6.0000000  )
        26           Ti1 tau(  26) = (   3.2902200   4.4714249   6.0002472  )
        27           O1  tau(  27) = (   0.0002396   2.9813036   7.9858123  )
        28           O1  tau(  28) = (   3.2902150   2.9813002   7.3038282  )
        29           O1  tau(  29) = (   4.5938453   4.4726049   9.2879030  )
        30           O1  tau(  30) = (   1.9864658   4.4711199   9.2879459  )
        31           Ti1 tau(  31) = (   3.2891106   5.8743827   9.1763621  )
        32           Ti1 tau(  32) = (   0.0006254   4.4649316   9.2693709  )
        33           O1  tau(  33) = (   3.2909631   2.9655588  11.3316111  )
        34           O1  tau(  34) = (   0.0092240   2.9805883  10.6323155  )
        35           O1  tau(  35) = (   1.2884032   4.4536117  12.6269208  )
        36           O1  tau(  36) = (   5.2752684   4.4605011  12.6109535  )
        37           Ti1 tau(  37) = (   0.0626277   5.9200555  12.5524633  )
        38           Ti1 tau(  38) = (   3.3797810   4.4486816  12.4846537  )
        39           O1  tau(  39) = (   6.5720240   2.9440667  14.6479771  )
        40           O1  tau(  40) = (   3.2941106   2.9728877  13.9057494  )
        41           O1  tau(  41) = (   4.5311790   4.4530262  16.1020043  )
        42           O1  tau(  42) = (   2.0427069   4.4534008  16.0946336  )
        43           Ti1 tau(  43) = (   3.2818950   5.9508925  15.7274921  )
        44           Ti1 tau(  44) = (   6.5750914   4.6476268  16.0792144  )
        45           O1  tau(  45) = (   3.2900926   2.9813045   4.7018136  )
        46           O1  tau(  46) = (   1.3039711   4.4726057   6.0039043  )
        47           O1  tau(  47) = (   5.2763189   4.4711207   6.0039473  )
        48           N1  tau(  48) = (   0.0795740   2.6614725  18.6386781  )
        49           N1  tau(  49) = (   0.0132033   2.8794178  17.4383708  )
        50           C1  tau(  50) = (   0.1510961   3.8031638  19.5808395  )
        51           H1  tau(  51) = (   6.4601351   4.7592986  19.1328852  )
        52           H1  tau(  52) = (   6.0910372   3.5604803  20.4266230  )
        53           H1  tau(  53) = (   1.1812797   3.8285794  19.9476819  )

     number of k points=    10  Fermi-Dirac smearing, width (Ry)=  0.0073
                       cart. coord. in units 2pi/alat
        k(    1) = (   0.0000000   0.0000000   0.0000000), wk =   0.1250000
        k(    2) = (   0.0000000   0.0419351   0.0000000), wk =   0.2500000
        k(    3) = (   0.0000000  -0.0838702   0.0000000), wk =   0.1250000
        k(    4) = (   0.0379955   0.0000049   0.0000000), wk =   0.2500000
        k(    5) = (   0.0379955   0.0419400   0.0000000), wk =   0.2500000
        k(    6) = (   0.0379955  -0.0838652   0.0000000), wk =   0.2500000
        k(    7) = (   0.0379955  -0.0419301   0.0000000), wk =   0.2500000
        k(    8) = (  -0.0759910  -0.0000099   0.0000000), wk =   0.1250000
        k(    9) = (  -0.0759910   0.0419252   0.0000000), wk =   0.2500000
        k(   10) = (  -0.0759910  -0.0838800   0.0000000), wk =   0.1250000

     Initial potential from superposition of free atoms

     starting charge  378.99916, renormalised to  395.00000

     negative rho (up, down):  1.506E-02 0.000E+00

     %%%%%%%%%%%%%%%%%%%%%%%%%%%%%%%%%%%%%%%%%%%%%%%%%%%%%%%%%%%%%%%%%%%%%%%%
     %                                                                      %
     % You are using vdW-DF, which was implemented by the Thonhauser group. %
     % Please cite the following two papers that made this development      %
     % possible and the two reviews that describe the various versions:     %
     %                                                                      %
     %   T. Thonhauser et al., PRL 115, 136402 (2015).                      %
     %   T. Thonhauser et al., PRB 76, 125112 (2007).                       %
     %   K. Berland et al., Rep. Prog. Phys. 78, 066501 (2015).             %
     %   D.C. Langreth et al., J. Phys.: Condens. Matter 21, 084203 (2009). %
     %                                                                      %
     %                                                                      %
     % If you are calculating the stress with vdW-DF, please also cite:     %
     %                                                                      %
     %   R. Sabatini et al., J. Phys.: Condens. Matter 24, 424209 (2012).   %
     %                                                                      %
     %%%%%%%%%%%%%%%%%%%%%%%%%%%%%%%%%%%%%%%%%%%%%%%%%%%%%%%%%%%%%%%%%%%%%%%%

     Adding external electric field

     Computed dipole along edir(3) :
        Dipole               -8.8495 Ry au,        -22.4931 Debye
        Dipole field         -0.0167 Ry au,

        Potential amp.        1.5481 Ry
        Total length         46.3494 bohr

     Starting wfcs are  299 atomic wfcs
  @ DRIVER MODE: Message from server: STATUS
  @ DRIVER MODE: Message from server: POSDATA
  @ DRIVER MODE: Reading and sharing cell
  @ DRIVER MODE: Reading and sharing positions
  @ DRIVER MODE: Received positions

     Self-consistent Calculation

     iteration #  1     ecut=    29.40 Ry     beta= 0.05
     Davidson diagonalization with overlap
     c_bands:  1 eigenvalues not converged
     c_bands:  2 eigenvalues not converged
     c_bands:  1 eigenvalues not converged
     c_bands:  3 eigenvalues not converged
     c_bands:  3 eigenvalues not converged
     c_bands:  1 eigenvalues not converged
     ethr =  1.00E-05,  avg # of iterations = 18.9

[...]

     total energy              =   -2605.51101802 Ry
     estimated scf accuracy    <    3700.86832084 Ry

     iteration #  2     ecut=    29.40 Ry     beta= 0.05
     Davidson diagonalization with overlap
     ethr =  1.00E-02,  avg # of iterations = 22.0

[...]

     iteration # 68     ecut=    29.40 Ry     beta= 0.05
     Davidson diagonalization with overlap
     c_bands:  1 eigenvalues not converged
     ethr =  7.61E-09,  avg # of iterations = 12.5

[...]

     total energy              =   -2939.15476960 Ry
     estimated scf accuracy    <       0.00000009 Ry

     iteration # 79     ecut=    29.40 Ry     beta= 0.05
     Davidson diagonalization with overlap
     ethr =  2.25E-11,  avg # of iterations = 11.8

     negative rho (up, down):  1.565E-02 0.000E+00

     Adding external electric field

     Computed dipole along edir(3) :
        Dipole                0.7065 Ry au,          1.7958 Debye
        Dipole field          0.0013 Ry au,

        Potential amp.       -0.1236 Ry
        Total length         46.3494 bohr

     End of self-consistent calculation

          k = 0.0000 0.0000 0.0000 ( 18029 PWs)   bands (ev):

   -55.8949 -55.8804 -55.8608 -55.8444 -55.7957 -55.7302 -55.7042 -55.7036
   -55.6936 -55.6696 -55.6687 -55.6351 -55.2860 -55.0951 -54.8726 -54.8385
   -32.4346 -32.3771 -32.2302 -32.2277 -32.2022 -32.1992 -32.1879 -32.1593
   -32.1374 -32.1244 -32.1026 -32.0667 -32.0611 -32.0471 -32.0337 -32.0202
   -32.0177 -31.9989 -31.9850 -31.9521 -31.9442 -31.9398 -31.8989 -31.8938
   -31.8915 -31.8881 -31.8799 -31.8751 -31.8709 -31.8441 -31.8435 -31.8344
   -31.8332 -31.8216 -31.8101 -31.7809 -31.7777 -31.5662 -31.4594 -31.3573
   -31.3554 -31.3109 -31.2797 -31.1913 -31.1689 -31.0964 -31.0099 -30.8989
   -18.4506 -16.6329 -16.3679 -16.1391 -16.0453 -16.0132 -15.8952 -15.7327
   -15.6151 -15.5604 -15.4629 -15.4434 -15.4302 -15.3985 -15.3802 -15.3748
   -15.3409 -15.3368 -15.3181 -15.3030 -15.2548 -15.2311 -15.2093 -15.1099
   -15.0638 -15.0297 -15.0146 -14.9516 -14.9464 -14.4417 -13.3748 -13.2584
   -11.3595  -6.9254  -4.3442  -4.0027  -3.9011  -3.8546  -3.8474  -3.8003
    -3.7438  -3.6239  -3.4988  -3.4369  -3.1260  -3.0782  -3.0622  -3.0451
    -3.0073  -2.7998  -2.7484  -2.7083  -2.6838  -2.6765  -2.6655  -2.6579
    -2.6462  -2.6078  -2.5054  -2.4359  -2.4297  -2.3433  -2.2934  -2.2702
    -2.2067  -2.1869  -2.1651  -2.1424  -2.1308  -2.1100  -2.0898  -2.0788
    -1.9742  -1.8828  -1.7490  -1.6944  -1.6733  -1.6586  -1.6432  -1.5026
    -1.3697  -1.3378  -1.3282  -1.3199  -1.2864  -1.2747  -1.1918  -1.0628
    -1.0520  -1.0117  -0.9602  -0.9019  -0.8768  -0.7750  -0.7382  -0.6611
    -0.6561  -0.6391  -0.5861  -0.5350  -0.3762  -0.3346  -0.3082  -0.2862
    -0.2618  -0.1910  -0.1694  -0.0528  -0.0356  -0.0181   0.0421   0.0654
     0.0783   0.0883   0.1060   0.1240   0.1415   0.3086   0.3811   0.4336
     0.4569   0.5148   0.6398   0.7088   0.7638   0.8641   1.0754   1.1497
     1.2422   1.3418   1.7210   1.7667   2.6488   3.2444   3.3250   3.3741
     3.3887   3.4858   3.5195   3.6961   3.6971   3.7257   3.7956

[...]

          k = 0.0380-0.0419 0.0000 ( 17876 PWs)   bands (ev):

[...]

          k =-0.0760-0.0000 0.0000 ( 17886 PWs)   bands (ev):

[...]

          k =-0.0760-0.0839 0.0000 ( 17948 PWs)   bands (ev):

   -55.8785 -55.8771 -55.8626 -55.8621 -55.7922 -55.7182 -55.7074 -55.7057
   -55.6875 -55.6852 -55.6527 -55.6514 -55.2846 -55.0964 -54.8556 -54.8554
   -32.2392 -32.2373 -32.1928 -32.1918 -32.1738 -32.1726 -32.1696 -32.1342
   -32.0887 -32.0857 -32.0796 -32.0791 -32.0424 -32.0130 -32.0052 -32.0045
   -31.9982 -31.9980 -31.9975 -31.9967 -31.9932 -31.9915 -31.9890 -31.9379
   -31.9241 -31.9120 -31.9109 -31.8997 -31.8866 -31.8862 -31.8837 -31.8827
   -31.8671 -31.8664 -31.8572 -31.8545 -31.6946 -31.5679 -31.4676 -31.4144
   -31.3572 -31.3364 -31.1817 -31.1815 -31.0925 -31.0924 -31.0532 -31.0532
   -18.4464 -16.0686 -16.0427 -15.8425 -15.8094 -15.8055 -15.7910 -15.6822
   -15.5974 -15.5901 -15.5874 -15.5211 -15.4910 -15.4752 -15.4344 -15.4220
   -15.4145 -15.4030 -15.3927 -15.3556 -15.3482 -15.3309 -15.3235 -15.2395
   -15.2116 -15.2075 -15.1817 -15.0638 -14.9325 -14.6179 -13.3603 -13.3601
   -11.3572  -6.9370  -4.2534  -3.9086  -3.8292  -3.3581  -3.3293  -3.0889
    -3.0503  -3.0366  -2.9831  -2.8216  -2.7914  -2.7656  -2.7540  -2.7224
    -2.7171  -2.7050  -2.6998  -2.6799  -2.6387  -2.6179  -2.5999  -2.5818
    -2.5625  -2.5485  -2.5327  -2.5159  -2.5063  -2.4670  -2.4434  -2.4320
    -2.4133  -2.4015  -2.2449  -2.1221  -2.0877  -2.0331  -2.0229  -2.0014
    -1.9613  -1.9575  -1.9457  -1.8814  -1.8096  -1.6518  -1.6115  -1.5942
    -1.5770  -1.5554  -1.5003  -1.4601  -1.3729  -1.2987  -1.2749  -1.2703
    -1.2018  -1.1149  -1.1074  -1.0598  -1.0170  -1.0079  -0.9529  -0.8881
    -0.8573  -0.8530  -0.8003  -0.7306  -0.7135  -0.6633  -0.6565  -0.6120
    -0.5570  -0.5495  -0.5280  -0.4869  -0.4050  -0.3813  -0.2429  -0.1631
    -0.0405   0.0739   0.1681   0.1824   0.2623   0.3144   0.3981   0.4158
     0.4262   0.4352   0.4784   0.5617   0.6372   0.6519   0.6978   0.8188
     1.5134   1.5142   1.5863   1.5866   2.7059   3.4914   3.5360   3.5782
     3.6104   3.7169   3.7492   3.7728   3.7740   3.8020   3.9368

     the Fermi energy is     3.2395 ev

!    total energy              =   -2939.15478205 Ry
     estimated scf accuracy    <       0.00000007 Ry
     smearing contrib. (-TS)   =      -0.02245280 Ry
     internal energy E=F+TS    =   -2939.13232925 Ry

     The total energy is F=E-TS. E is the sum of the following terms:
     one-electron contribution =  -24176.16075510 Ry
     hartree contribution      =   12175.32950817 Ry
     xc contribution           =    -485.18264776 Ry
     ewald contribution        =    9546.88062347 Ry
     electric field correction =       0.00094197 Ry

     convergence has been achieved in  79 iterations

     Forces acting on atoms (cartesian axes, Ry/au):

     atom    1 type  1   force =     0.00012042   -0.00024371    0.09666680
     atom    2 type  1   force =    -0.00012268   -0.00049904   -0.17523997
     atom    3 type  2   force =     0.00000224   -0.00010324   -0.02499249
     atom    4 type  2   force =     0.00005302   -0.00150128    0.05300882
     atom    5 type  2   force =    -0.01214923   -0.00108553    0.00360844
     atom    6 type  2   force =     0.01370071   -0.00027827    0.00228294
     atom    7 type  1   force =    -0.00117287    0.00036586   -0.01149681
     atom    8 type  1   force =     0.00055966    0.00941327    0.02851816
     atom    9 type  2   force =     0.00019785    0.00053201   -0.00012955
     atom   10 type  2   force =    -0.00114650    0.00027864   -0.01823704
     atom   11 type  2   force =    -0.00012425   -0.00000007   -0.00013275
     atom   12 type  2   force =     0.00013723    0.00021403    0.00018519
     atom   13 type  1   force =     0.00008738   -0.00029760    0.00015148
     atom   14 type  1   force =     0.00021725    0.00016631    0.00020219
     atom   15 type  2   force =     0.00021736   -0.00006140   -0.00012208
     atom   16 type  2   force =    -0.00032871    0.00033831    0.00037846
     atom   17 type  2   force =    -0.00015604    0.00042162   -0.00014633
     atom   18 type  2   force =     0.00013563    0.00016777    0.00022189
     atom   19 type  1   force =    -0.00008527    0.00014999    0.00006838
     atom   20 type  1   force =    -0.00058230   -0.00025789    0.00020851
     atom   21 type  2   force =     0.00008752    0.00001464    0.10323024
     atom   22 type  2   force =    -0.00021153    0.00027553    0.00075165
     atom   23 type  2   force =    -0.07146865   -0.00008061   -0.02771686
     atom   24 type  2   force =     0.07143715    0.00033978   -0.02772576
     atom   25 type  1   force =     0.00006703   -0.00022219    0.09638457
     atom   26 type  1   force =    -0.00022575   -0.00026500   -0.17564502
     atom   27 type  2   force =     0.00006952   -0.00024795   -0.02399023
     atom   28 type  2   force =     0.00009594   -0.00126210    0.05287787
     atom   29 type  2   force =    -0.01239131    0.00003879    0.00352157
     atom   30 type  2   force =     0.01385770    0.00033123    0.00216643
     atom   31 type  1   force =    -0.00113724    0.00332761   -0.01191109
     atom   32 type  1   force =     0.00065089   -0.01117638    0.02912247
     atom   33 type  2   force =     0.00011026   -0.00020172   -0.00038782
     atom   34 type  2   force =    -0.00089574   -0.00093147   -0.02482793
     atom   35 type  2   force =    -0.00039432    0.00027322    0.00002298
     atom   36 type  2   force =     0.00072860    0.00029483    0.00034287
     atom   37 type  1   force =    -0.00001320   -0.00022795    0.00005770
     atom   38 type  1   force =    -0.00001420    0.00010158   -0.00000643
     atom   39 type  2   force =     0.00032814    0.00034429   -0.00044550
     atom   40 type  2   force =    -0.00030283    0.00010493    0.00016402
     atom   41 type  2   force =    -0.00044427    0.00052350    0.00013061
     atom   42 type  2   force =     0.00003962    0.00044711    0.00041904
     atom   43 type  1   force =    -0.00006879    0.00038419    0.00041601
     atom   44 type  1   force =    -0.00039607    0.00025148    0.00075136
     atom   45 type  2   force =     0.00008300   -0.00002717    0.10323713
     atom   46 type  2   force =    -0.07150210   -0.00002519   -0.02773347
     atom   47 type  2   force =     0.07146677    0.00039655   -0.02775623
     atom   48 type  3   force =     0.00052187   -0.00108898   -0.00039203
     atom   49 type  3   force =     0.00053464    0.00021231   -0.00018752
     atom   50 type  4   force =    -0.00073291    0.00264398   -0.00140874
     atom   51 type  5   force =     0.00254480   -0.00159494    0.00070180
     atom   52 type  5   force =    -0.00101317   -0.00149094    0.00129452
     atom   53 type  5   force =    -0.00097224    0.00081730   -0.00046245

     Total force =     0.368368     Total SCF correction =     0.000783
  @ DRIVER MODE: Message from server: STATUS
  @ DRIVER MODE: Message from server: GETFORCE
  @ DRIVER MODE: Returning v,forces,stress,ensemble

     Writing output data file ./calc.save/
  @ DRIVER MODE: Message from server: EXIT
  @ DRIVE MODE: Exiting

     General routines

     Parallel routines

   This run was terminated on:   4:12: 3   9Sep2021

   JOB DONE.