     Program PWSCF v.6.7GPU starts on 22Sep2021 at 19:41: 9

     R & G space division:  proc/nbgrp/npool/nimage =      10
     Reading input from /storage/home/hcoda1/3/ntian30/research/carbon/CxH_vib/H2O_calc/ads_slab/CH3NHHH2O_a/out_0012/pw.inp
Warning: card &CELL ignored
Warning: card   CELL_DYNAMICS='IPI', ignored
Warning: card / ignored

     Current dimensions of program PWSCF are:
     Max number of different atomic species (ntypx) = 10
     Max number of k-points (npk) =  40000
     Max angular momentum in pseudopotentials (lmaxx) =  3
     Presently no symmetry can be used with electric field

     Message from routine cell_base_init:
     DEPRECATED: use true lattice parameter, not A to a.u. conversion factor

     IMPORTANT: XC functional enforced from input :
     Exchange-correlation= BEEF-VDW
                           (   1   4  43  14   2   0   0)
     Any further DFT definition will be discarded
     Please, verify this is what you really want

  @ DRIVER MODE: Connecting to
 qe_1139763_2937309.sched-torque.pace.gatech.edufobfip0c_scratch
  using UNIX socket
  @ DRIVER MODE: Message from server: STATUS
  @ DRIVER MODE: Message from server: INIT
  @ DRIVER MODE: Receiving replica           0          -1
  @ DRIVER MODE: Receiving encoded integer          25
  @ DRIVER MODE:  SCF:  T  FORCE:  T  STRESS:  F  VC:  F  ENSEMBLE:  F
  @ DRIVER MODE:  SCF:  T  FORCE:  T  STRESS:  F  VC:  F  ENSEMBLE:  F

     Using Slab Decomposition

     bravais-lattice index     =            0
     lattice parameter (alat)  =       1.8897  a.u.
     unit-cell volume          =    6658.9804 (a.u.)^3
     number of atoms/cell      =           57
     number of atomic types    =            5
     number of electrons       =       400.00
     number of Kohn-Sham states=          210
     kinetic-energy cutoff     =      29.3995  Ry
     charge density cutoff     =     293.9946  Ry
     scf convergence threshold =      7.3E-08
     mixing beta               =       0.0500
     number of iterations used =            8  plain     mixing
     Exchange-correlation= BEEF-VDW
                           (   1   4  43  14   2   0   0)

     celldm(1)=   1.889726  celldm(2)=   0.000000  celldm(3)=   0.000000
     celldm(4)=   0.000000  celldm(5)=   0.000000  celldm(6)=   0.000000

     crystal axes: (cart. coord. in units of alat)
               a(1) = (   6.579727   0.000000   0.000000 )
               a(2) = (  -0.000775   5.961596   0.000000 )
               a(3) = (   0.000000   0.000000  25.155947 )

     reciprocal axes: (cart. coord. in units 2 pi/alat)
               b(1) = (  0.151982  0.000020  0.000000 )
               b(2) = (  0.000000  0.167740  0.000000 )
               b(3) = (  0.000000  0.000000  0.039752 )

     PseudoPot. # 1 for Ti read from file:
     /storage/coda1/p-amedford6/0/shared/rich_project_chbe-medford/medford-share/data/pseudos_module/espresso/nninc/pbe/van/Ti.UPF
     MD5 check sum: 8e4df49b7f0d34bbd5052bf3f5ea0213
     Pseudo is Ultrasoft, Zval = 12.0
     Generated by new atomic code, or converted to UPF format
     Using radial grid of  851 points,  6 beta functions with:
                l(1) =   0
                l(2) =   0
                l(3) =   1
                l(4) =   1
                l(5) =   2
                l(6) =   2
     Q(r) pseudized with  8 coefficients,  rinner =    1.000   1.000   1.000
                                                       1.000   1.000

     PseudoPot. # 2 for O  read from file:
     /storage/coda1/p-amedford6/0/shared/rich_project_chbe-medford/medford-share/data/pseudos_module/espresso/nninc/pbe/van/O.UPF
     MD5 check sum: 78c19812648e8988a0fe644b0f25305e
     Pseudo is Ultrasoft, Zval =  6.0
     Generated by new atomic code, or converted to UPF format
     Using radial grid of  737 points,  4 beta functions with:
                l(1) =   0
                l(2) =   0
                l(3) =   1
                l(4) =   1
     Q(r) pseudized with  8 coefficients,  rinner =    0.800   0.800   0.800

     PseudoPot. # 3 for N  read from file:
     /storage/coda1/p-amedford6/0/shared/rich_project_chbe-medford/medford-share/data/pseudos_module/espresso/nninc/pbe/van/N.UPF
     MD5 check sum: 90d10febe142ad51ac9d5be1deb811c4
     Pseudo is Ultrasoft, Zval =  5.0
     Generated by new atomic code, or converted to UPF format
     Using radial grid of  729 points,  4 beta functions with:
                l(1) =   0
                l(2) =   0
                l(3) =   1
                l(4) =   1
     Q(r) pseudized with  8 coefficients,  rinner =    0.800   0.800   0.800

     PseudoPot. # 4 for C  read from file:
     /storage/coda1/p-amedford6/0/shared/rich_project_chbe-medford/medford-share/data/pseudos_module/espresso/nninc/pbe/van/C.UPF
     MD5 check sum: 1a69bf6b8db32088f5b2163dbdb77a27
     Pseudo is Ultrasoft, Zval =  4.0
     Generated by new atomic code, or converted to UPF format
     Using radial grid of  721 points,  4 beta functions with:
                l(1) =   0
                l(2) =   0
                l(3) =   1
                l(4) =   1
     Q(r) pseudized with  8 coefficients,  rinner =    0.800   0.800   0.800

     PseudoPot. # 5 for H  read from file:
     /storage/coda1/p-amedford6/0/shared/rich_project_chbe-medford/medford-share/data/pseudos_module/espresso/nninc/pbe/van/H.UPF
     MD5 check sum: b5ee9d7bfd3a09ee7748110bda690ff7
     Pseudo is Ultrasoft, Zval =  1.0
     Generated by new atomic code, or converted to UPF format
     Using radial grid of  615 points,  1 beta functions with:
                l(1) =   0
     Q(r) pseudized with  8 coefficients,  rinner =    0.800

     atomic species   valence    mass     pseudopotential
        Ti1           12.00    47.86700     Ti( 1.00)
        O1             6.00    15.99900     O ( 1.00)
        N1             5.00    14.00700     N ( 1.00)
        C1             4.00    12.01100     C ( 1.00)
        H1             1.00     1.00800     H ( 1.00)

     No symmetry found

   Cartesian axes

     site n.     atom                  positions (alat units)
         1           Ti1 tau(   1) = (   0.0004258   2.9801865   6.0000000  )
         2           Ti1 tau(   2) = (   3.2906075   1.4906267   6.0002472  )
         3           O1  tau(   3) = (   0.0006271   0.0005054   7.9858123  )
         4           O1  tau(   4) = (   3.2906025   0.0005020   7.3038282  )
         5           O1  tau(   5) = (   4.5942328   1.4918067   9.2879030  )
         6           O1  tau(   6) = (   1.9868534   1.4903216   9.2879459  )
         7           Ti1 tau(   7) = (   3.2907910   2.8959150   9.1758416  )
         8           Ti1 tau(   8) = (   0.0015273   1.4827037   9.2680791  )
         9           O1  tau(   9) = (   3.2912042   0.0294118  11.3810798  )
        10           O1  tau(  10) = (   0.0116148   5.9584955  10.6183126  )
        11           O1  tau(  11) = (   1.2906363   1.5151137  12.6946382  )
        12           O1  tau(  12) = (   5.2977377   1.5118052  12.6897239  )
        13           Ti1 tau(  13) = (   0.0154927   3.0055723  12.5114375  )
        14           Ti1 tau(  14) = (   3.3120461   1.5076926  12.5412499  )
        15           O1  tau(  15) = (   0.0087391   5.9056098  14.6936070  )
        16           O1  tau(  16) = (   3.3000944   0.0090435  14.0218108  )
        17           O1  tau(  17) = (   4.5606481   1.5918460  16.0876707  )
        18           O1  tau(  18) = (   2.0070218   1.5857768  16.0794533  )
        19           Ti1 tau(  19) = (   3.2835068   3.0412122  15.7371975  )
        20           Ti1 tau(  20) = (   0.0166266   1.3536260  15.8406240  )
        21           O1  tau(  21) = (   3.2904802   0.0005063   4.7018136  )
        22           O1  tau(  22) = (   6.5628702   0.1917167  17.2472498  )
        23           O1  tau(  23) = (   1.3043587   1.4918075   6.0039043  )
        24           O1  tau(  24) = (   5.2767064   1.4903225   6.0039473  )
        25           Ti1 tau(  25) = (   0.0000382   5.9609847   6.0000000  )
        26           Ti1 tau(  26) = (   3.2902200   4.4714249   6.0002472  )
        27           O1  tau(  27) = (   0.0002396   2.9813036   7.9858123  )
        28           O1  tau(  28) = (   3.2902150   2.9813002   7.3038282  )
        29           O1  tau(  29) = (   4.5938453   4.4726049   9.2879030  )
        30           O1  tau(  30) = (   1.9864658   4.4711199   9.2879459  )
        31           Ti1 tau(  31) = (   3.2891106   5.8743827   9.1763621  )
        32           Ti1 tau(  32) = (   0.0006254   4.4649316   9.2693709  )
        33           O1  tau(  33) = (   3.2975917   2.9887808  11.3748511  )
        34           O1  tau(  34) = (   0.0092240   2.9805883  10.6323155  )
        35           O1  tau(  35) = (   1.2927870   4.4849180  12.6503915  )
        36           O1  tau(  36) = (   5.2959677   4.4879952  12.6460094  )
        37           Ti1 tau(  37) = (   0.0189062   0.0134437  12.4995343  )
        38           Ti1 tau(  38) = (   3.3131396   4.4925875  12.5257625  )
        39           O1  tau(  39) = (   6.5658147   3.0796170  14.9398047  )
        40           O1  tau(  40) = (   3.2912769   3.0351834  13.9531456  )
        41           O1  tau(  41) = (   4.5372935   4.5058929  16.2491503  )
        42           O1  tau(  42) = (   2.0060561   4.4992570  16.2466123  )
        43           Ti1 tau(  43) = (   3.3106529   0.0781036  15.8389635  )
        44           Ti1 tau(  44) = (   0.0259428   4.5566345  16.0434284  )
        45           O1  tau(  45) = (   3.2900926   2.9813045   4.7018136  )
        46           O1  tau(  46) = (   1.3039711   4.4726057   6.0039043  )
        47           O1  tau(  47) = (   5.2763189   4.4711207   6.0039473  )
        48           N1  tau(  48) = (   6.3514164   3.3085518  18.1544664  )
        49           C1  tau(  49) = (   0.8695967   3.1501053  19.1401808  )
        50           H1  tau(  50) = (   1.3785670   4.1052268  19.2416751  )
        51           H1  tau(  51) = (   0.5086663   2.8389580  20.1145987  )
        52           H1  tau(  52) = (   1.5779067   2.4119510  18.7640910  )
        53           H1  tau(  53) = (   5.7211048   4.0382881  18.4729098  )
        54           H1  tau(  54) = (   5.7931489   2.4557210  18.1309407  )
        55           O1  tau(  55) = (   3.2817172   0.3149129  18.3340421  )
        56           H1  tau(  56) = (   4.0380937   5.6864266  18.4726034  )
        57           H1  tau(  57) = (   2.4816286   5.7371253  18.4434621  )

     number of k points=    10  Fermi-Dirac smearing, width (Ry)=  0.0073
                       cart. coord. in units 2pi/alat
        k(    1) = (   0.0000000   0.0000000   0.0000000), wk =   0.1250000
        k(    2) = (   0.0000000   0.0419351   0.0000000), wk =   0.2500000
        k(    3) = (   0.0000000  -0.0838702   0.0000000), wk =   0.1250000
        k(    4) = (   0.0379955   0.0000049   0.0000000), wk =   0.2500000
        k(    5) = (   0.0379955   0.0419400   0.0000000), wk =   0.2500000
        k(    6) = (   0.0379955  -0.0838652   0.0000000), wk =   0.2500000
        k(    7) = (   0.0379955  -0.0419301   0.0000000), wk =   0.2500000
        k(    8) = (  -0.0759910  -0.0000099   0.0000000), wk =   0.1250000
        k(    9) = (  -0.0759910   0.0419252   0.0000000), wk =   0.2500000
        k(   10) = (  -0.0759910  -0.0838800   0.0000000), wk =   0.1250000

     Initial potential from superposition of free atoms

     starting charge  383.99913, renormalised to  400.00000

     negative rho (up, down):  1.554E-02 0.000E+00

     %%%%%%%%%%%%%%%%%%%%%%%%%%%%%%%%%%%%%%%%%%%%%%%%%%%%%%%%%%%%%%%%%%%%%%%%
     %                                                                      %
     % You are using vdW-DF, which was implemented by the Thonhauser group. %
     % Please cite the following two papers that made this development      %
     % possible and the two reviews that describe the various versions:     %
     %                                                                      %
     %   T. Thonhauser et al., PRL 115, 136402 (2015).                      %
     %   T. Thonhauser et al., PRB 76, 125112 (2007).                       %
     %   K. Berland et al., Rep. Prog. Phys. 78, 066501 (2015).             %
     %   D.C. Langreth et al., J. Phys.: Condens. Matter 21, 084203 (2009). %
     %                                                                      %
     %                                                                      %
     % If you are calculating the stress with vdW-DF, please also cite:     %
     %                                                                      %
     %   R. Sabatini et al., J. Phys.: Condens. Matter 24, 424209 (2012).   %
     %                                                                      %
     %%%%%%%%%%%%%%%%%%%%%%%%%%%%%%%%%%%%%%%%%%%%%%%%%%%%%%%%%%%%%%%%%%%%%%%%

     Adding external electric field

     Computed dipole along edir(3) :
        Dipole              -12.0889 Ry au,        -30.7269 Debye
        Dipole field         -0.0228 Ry au,

        Potential amp.        2.1148 Ry
        Total length         46.3494 bohr

     Starting wfcs are  303 atomic wfcs
  @ DRIVER MODE: Message from server: STATUS
  @ DRIVER MODE: Message from server: POSDATA
  @ DRIVER MODE: Reading and sharing cell
  @ DRIVER MODE: Reading and sharing positions
  @ DRIVER MODE: Received positions

     Self-consistent Calculation

     iteration #  1     ecut=    29.40 Ry     beta= 0.05
     Davidson diagonalization with overlap
     c_bands:  2 eigenvalues not converged
     c_bands:  2 eigenvalues not converged
     c_bands:  3 eigenvalues not converged
     c_bands:  4 eigenvalues not converged
     c_bands:  4 eigenvalues not converged
     c_bands:  1 eigenvalues not converged
     c_bands:  4 eigenvalues not converged
     c_bands:  4 eigenvalues not converged
     c_bands:  5 eigenvalues not converged
     ethr =  1.00E-05,  avg # of iterations = 22.0

[...]

     total energy              =   -2384.33481454 Ry
     estimated scf accuracy    <    6455.66253878 Ry

     iteration #  2     ecut=    29.40 Ry     beta= 0.05
     Davidson diagonalization with overlap
     ethr =  1.00E-02,  avg # of iterations = 26.2

[...]

     iteration # 65     ecut=    29.40 Ry     beta= 0.05
     Davidson diagonalization with overlap
     c_bands:  1 eigenvalues not converged
     ethr =  2.45E-10,  avg # of iterations = 13.6

[...]

     total energy              =   -2956.45469640 Ry
     estimated scf accuracy    <       0.00000008 Ry

     iteration # 74     ecut=    29.40 Ry     beta= 0.05
     Davidson diagonalization with overlap
     ethr =  1.96E-11,  avg # of iterations =  7.5

     negative rho (up, down):  1.590E-02 0.000E+00

     Adding external electric field

     Computed dipole along edir(3) :
        Dipole                1.4087 Ry au,          3.5805 Debye
        Dipole field          0.0027 Ry au,

        Potential amp.       -0.2464 Ry
        Total length         46.3494 bohr

     End of self-consistent calculation

          k = 0.0000 0.0000 0.0000 ( 18029 PWs)   bands (ev):

   -55.2135 -55.1762 -55.1706 -55.1452 -55.1365 -55.1162 -55.0947 -55.0597
   -55.0394 -55.0047 -55.0015 -54.9922 -54.9678 -54.9323 -54.2008 -54.1668
   -31.7769 -31.6873 -31.6631 -31.5834 -31.5282 -31.5231 -31.5146 -31.5070
   -31.4596 -31.4362 -31.4246 -31.4154 -31.4112 -31.4094 -31.3854 -31.3823
   -31.3599 -31.3587 -31.3514 -31.3360 -31.3232 -31.3154 -31.3001 -31.2909
   -31.2845 -31.2721 -31.2697 -31.2407 -31.2278 -31.2256 -31.2202 -31.2002
   -31.1974 -31.1897 -31.1855 -31.1686 -31.1526 -31.1383 -31.1306 -31.1296
   -31.1126 -31.1103 -30.6103 -30.5159 -30.4938 -30.4266 -30.3398 -30.2290
   -19.2337 -16.1278 -16.0158 -15.7723 -15.6307 -15.5374 -15.4172 -15.3020
   -15.2373 -15.1234 -15.0651 -14.9300 -14.9146 -14.9027 -14.8780 -14.8447
   -14.8061 -14.7582 -14.7570 -14.7334 -14.7128 -14.7042 -14.6623 -14.6550
   -14.6153 -14.5939 -14.5930 -14.4578 -14.3764 -14.3060 -14.1205 -12.7033
   -12.5858 -10.2870  -7.0281  -6.2503  -4.8231  -3.9318  -3.3999  -3.3403
    -3.2354  -3.1471  -3.1244  -3.1110  -2.9741  -2.8795  -2.7446  -2.6652
    -2.6325  -2.4958  -2.4224  -2.4112  -2.3786  -2.2634  -2.2111  -2.1846
    -2.1520  -2.0802  -2.0320  -2.0213  -2.0035  -1.9727  -1.9577  -1.9235
    -1.8698  -1.7848  -1.7544  -1.6507  -1.6129  -1.5840  -1.5732  -1.5486
    -1.5323  -1.5069  -1.5004  -1.4401  -1.4366  -1.4067  -1.3609  -1.2458
    -1.0836  -1.0200  -0.9491  -0.8556  -0.8078  -0.7942  -0.7284  -0.7167
    -0.7009  -0.5969  -0.5761  -0.5525  -0.4549  -0.4234  -0.3844  -0.3121
    -0.2409  -0.2126  -0.1996  -0.0846  -0.0195  -0.0012   0.0186   0.0254
     0.1153   0.1884   0.2361   0.2877   0.3286   0.3358   0.4008   0.4337
     0.5015   0.5534   0.5713   0.6586   0.7033   0.7161   0.7223   0.7555
     0.7676   0.8292   0.8656   0.8899   0.9765   1.0916   1.2440   1.3855
     1.3936   1.7266   1.7274   1.8220   2.0058   2.3983   2.4466   3.8796
     3.9522   4.0114   4.0248   4.0304   4.1155   4.3619   4.3841   4.3898
     4.3999   4.4284

[...]

          k = 0.0380-0.0419 0.0000 ( 17876 PWs)   bands (ev):

[...]

          k =-0.0760-0.0000 0.0000 ( 17886 PWs)   bands (ev):

[...]

          k =-0.0760-0.0839 0.0000 ( 17948 PWs)   bands (ev):

   -55.1999 -55.1896 -55.1536 -55.1534 -55.1434 -55.1139 -55.0805 -55.0739
   -55.0249 -55.0187 -54.9945 -54.9851 -54.9844 -54.9338 -54.1840 -54.1835
   -31.6059 -31.5857 -31.5769 -31.4783 -31.4781 -31.4744 -31.4669 -31.4449
   -31.4448 -31.4252 -31.4174 -31.4107 -31.4033 -31.3889 -31.3713 -31.3565
   -31.3538 -31.3513 -31.3494 -31.3475 -31.3400 -31.3374 -31.3203 -31.3142
   -31.2938 -31.2934 -31.2748 -31.2733 -31.2731 -31.2712 -31.2661 -31.2580
   -31.2504 -31.2377 -31.2319 -31.2176 -31.2143 -31.1966 -31.1699 -31.1657
   -31.1645 -31.1439 -30.5066 -30.5063 -30.4230 -30.4226 -30.3833 -30.3831
   -19.2329 -16.0728 -15.5961 -15.4820 -15.3561 -15.2463 -15.2255 -15.1790
   -15.1303 -15.0799 -15.0280 -14.9995 -14.9786 -14.9698 -14.9268 -14.9165
   -14.8974 -14.8319 -14.8164 -14.8054 -14.7815 -14.7341 -14.7258 -14.7181
   -14.7141 -14.6682 -14.6641 -14.6164 -14.5727 -14.5688 -14.3891 -12.6874
   -12.6872 -10.2887  -7.0536  -6.1839  -4.8267  -3.9447  -3.2392  -2.9776
    -2.7474  -2.6957  -2.6072  -2.4636  -2.4197  -2.3752  -2.3437  -2.2822
    -2.2315  -2.2167  -2.2048  -2.1286  -2.1016  -2.0937  -2.0605  -2.0488
    -2.0387  -2.0006  -1.9802  -1.9547  -1.9462  -1.9356  -1.9328  -1.9236
    -1.8673  -1.8534  -1.8420  -1.8382  -1.7794  -1.7681  -1.7535  -1.7391
    -1.5948  -1.5766  -1.4256  -1.4222  -1.4002  -1.3483  -1.3363  -1.2963
    -1.2517  -1.2428  -1.2164  -0.9717  -0.9627  -0.9598  -0.9307  -0.8942
    -0.8561  -0.7944  -0.7660  -0.6956  -0.6874  -0.5713  -0.5554  -0.4427
    -0.4315  -0.4190  -0.3430  -0.2872  -0.2399  -0.2014  -0.1829  -0.1720
    -0.1554  -0.1189  -0.1165  -0.0193   0.0169   0.0477   0.0609   0.1005
     0.2769   0.3058   0.3216   0.4656   0.4732   0.6327   0.6836   0.7117
     0.8021   0.8624   0.8971   0.9409   1.0768   1.0901   1.1076   1.1621
     1.1853   1.2346   1.2478   2.1781   2.1795   2.2665   2.2666   4.0247
     4.1339   4.1431   4.2009   4.3122   4.3210   4.3946   4.4258   4.4635
     4.4679   4.5311

     the Fermi energy is     3.9418 ev

!    total energy              =   -2956.45471322 Ry
     estimated scf accuracy    <       0.00000005 Ry
     smearing contrib. (-TS)   =      -0.03685405 Ry
     internal energy E=F+TS    =   -2956.41785917 Ry

     The total energy is F=E-TS. E is the sum of the following terms:
     one-electron contribution =  -23691.80127298 Ry
     hartree contribution      =   11941.43073052 Ry
     xc contribution           =    -490.61232677 Ry
     ewald contribution        =    9284.56126519 Ry
     electric field correction =       0.00374486 Ry

     convergence has been achieved in  74 iterations

     Forces acting on atoms (cartesian axes, Ry/au):

     atom    1 type  1   force =    -0.00000431   -0.00026705    0.09336332
     atom    2 type  1   force =    -0.00007007   -0.00035796   -0.17815062
     atom    3 type  2   force =     0.00004470   -0.00030332   -0.02033436
     atom    4 type  2   force =    -0.00003607   -0.00184957    0.05914703
     atom    5 type  2   force =    -0.01020764   -0.00061119    0.00751882
     atom    6 type  2   force =     0.01173383    0.00021919    0.00684830
     atom    7 type  1   force =    -0.00030751    0.00186958   -0.01238204
     atom    8 type  1   force =     0.00016423    0.00083522   -0.00449990
     atom    9 type  2   force =     0.00038501   -0.00015427   -0.00080414
     atom   10 type  2   force =    -0.00141647    0.00414840   -0.00107315
     atom   11 type  2   force =    -0.00087728   -0.00030828    0.00019162
     atom   12 type  2   force =     0.00088771   -0.00006088    0.00005248
     atom   13 type  1   force =    -0.00012601   -0.00022537    0.00010680
     atom   14 type  1   force =    -0.00004996   -0.00010136    0.00003491
     atom   15 type  2   force =    -0.00066587   -0.00006148   -0.00006933
     atom   16 type  2   force =    -0.00010993    0.00022710   -0.00040876
     atom   17 type  2   force =     0.00029659   -0.00072209   -0.00001494
     atom   18 type  2   force =     0.00080592   -0.00063620   -0.00023989
     atom   19 type  1   force =    -0.00078897    0.00015095    0.00146866
     atom   20 type  1   force =     0.00078970   -0.00071502    0.00049378
     atom   21 type  2   force =     0.00002067   -0.00010993    0.10398995
     atom   22 type  2   force =     0.00009877   -0.00062660    0.00031815
     atom   23 type  2   force =    -0.07039801   -0.00020361   -0.02692586
     atom   24 type  2   force =     0.07023211    0.00023623   -0.02697982
     atom   25 type  1   force =    -0.00005013   -0.00021825    0.09287030
     atom   26 type  1   force =    -0.00020367   -0.00053200   -0.17842375
     atom   27 type  2   force =     0.00007058   -0.00014115   -0.01931419
     atom   28 type  2   force =     0.00005381   -0.00157408    0.05815532
     atom   29 type  2   force =    -0.01091173   -0.00007021    0.00844047
     atom   30 type  2   force =     0.01231643    0.00011955    0.00772403
     atom   31 type  1   force =    -0.00029472    0.00669210   -0.01506019
     atom   32 type  1   force =     0.00011335   -0.00072831   -0.00471536
     atom   33 type  2   force =    -0.00022114    0.00035166   -0.00052246
     atom   34 type  2   force =    -0.00111266   -0.00023379   -0.00039243
     atom   35 type  2   force =    -0.00020229   -0.00011545   -0.00015810
     atom   36 type  2   force =     0.00028083   -0.00036004   -0.00025759
     atom   37 type  1   force =     0.00023636   -0.00018407    0.00020786
     atom   38 type  1   force =    -0.00011209    0.00068151    0.00064005
     atom   39 type  2   force =     0.00012654   -0.00111401    0.00100668
     atom   40 type  2   force =     0.00026196    0.00099842   -0.00062180
     atom   41 type  2   force =    -0.00018555    0.00019606   -0.00028580
     atom   42 type  2   force =     0.00122635    0.00021012   -0.00045272
     atom   43 type  1   force =    -0.00112401    0.00003418    0.00031678
     atom   44 type  1   force =     0.00045920   -0.00119510    0.00122178
     atom   45 type  2   force =     0.00001352   -0.00011316    0.10394659
     atom   46 type  2   force =    -0.07036639   -0.00012811   -0.02689435
     atom   47 type  2   force =     0.07022072    0.00028267   -0.02695994
     atom   48 type  3   force =     0.00363780   -0.00005198    0.00409193
     atom   49 type  4   force =     0.00237972   -0.00067635   -0.01906338
     atom   50 type  5   force =     0.00014335    0.00001493    0.00194937
     atom   51 type  5   force =    -0.00327232   -0.00293719    0.00853178
     atom   52 type  5   force =    -0.00224161    0.00242617    0.00269212
     atom   53 type  5   force =    -0.00035710    0.00014537   -0.00075662
     atom   54 type  5   force =     0.00006286   -0.00024959   -0.00042219
     atom   55 type  2   force =     0.00033765   -0.00085814    0.00066440
     atom   56 type  5   force =    -0.00072900   -0.00019353    0.00013629
     atom   57 type  5   force =    -0.00095775   -0.00085072    0.00005415

     Total force =     0.366963     Total SCF correction =     0.000488
  @ DRIVER MODE: Message from server: STATUS
  @ DRIVER MODE: Message from server: GETFORCE
  @ DRIVER MODE: Returning v,forces,stress,ensemble

     Writing output data file ./calc.save/
  @ DRIVER MODE: Message from server: EXIT
  @ DRIVE MODE: Exiting

     General routines

     Parallel routines

   This run was terminated on:  20: 1:33  22Sep2021

   JOB DONE.