     Program PWSCF v.6.7GPU starts on  8Sep2021 at 22:38:44

     R & G space division:  proc/nbgrp/npool/nimage =      10
     Reading input from /storage/home/hcoda1/3/ntian30/research/carbon/CxH_vib/C_calc/ads_slab/CN2_a/out_0001/pw.inp
Warning: card &CELL ignored
Warning: card   CELL_DYNAMICS='IPI', ignored
Warning: card / ignored

     Current dimensions of program PWSCF are:
     Max number of different atomic species (ntypx) = 10
     Max number of k-points (npk) =  40000
     Max angular momentum in pseudopotentials (lmaxx) =  3
     Presently no symmetry can be used with electric field

     Message from routine cell_base_init:
     DEPRECATED: use true lattice parameter, not A to a.u. conversion factor

     IMPORTANT: XC functional enforced from input :
     Exchange-correlation= BEEF-VDW
                           (   1   4  43  14   2   0   0)
     Any further DFT definition will be discarded
     Please, verify this is what you really want

  @ DRIVER MODE: Connecting to
 qe_1139763_2767375.sched-torque.pace.gatech.edu7g03k9rf_scratch
  using UNIX socket
  @ DRIVER MODE: Message from server: STATUS
  @ DRIVER MODE: Message from server: INIT
  @ DRIVER MODE: Receiving replica           0          -1
  @ DRIVER MODE: Receiving encoded integer          25
  @ DRIVER MODE:  SCF:  T  FORCE:  T  STRESS:  F  VC:  F  ENSEMBLE:  F
  @ DRIVER MODE:  SCF:  T  FORCE:  T  STRESS:  F  VC:  F  ENSEMBLE:  F

     Using Slab Decomposition

     bravais-lattice index     =            0
     lattice parameter (alat)  =       1.8897  a.u.
     unit-cell volume          =    6658.9804 (a.u.)^3
     number of atoms/cell      =           50
     number of atomic types    =            4
     number of electrons       =       392.00
     number of Kohn-Sham states=          206
     kinetic-energy cutoff     =      29.3995  Ry
     charge density cutoff     =     293.9946  Ry
     scf convergence threshold =      7.3E-08
     mixing beta               =       0.0500
     number of iterations used =            8  plain     mixing
     Exchange-correlation= BEEF-VDW
                           (   1   4  43  14   2   0   0)

     celldm(1)=   1.889726  celldm(2)=   0.000000  celldm(3)=   0.000000
     celldm(4)=   0.000000  celldm(5)=   0.000000  celldm(6)=   0.000000

     crystal axes: (cart. coord. in units of alat)
               a(1) = (   6.579727   0.000000   0.000000 )
               a(2) = (  -0.000775   5.961596   0.000000 )
               a(3) = (   0.000000   0.000000  25.155947 )

     reciprocal axes: (cart. coord. in units 2 pi/alat)
               b(1) = (  0.151982  0.000020  0.000000 )
               b(2) = (  0.000000  0.167740  0.000000 )
               b(3) = (  0.000000  0.000000  0.039752 )

     PseudoPot. # 1 for Ti read from file:
     /storage/coda1/p-amedford6/0/shared/rich_project_chbe-medford/medford-share/data/pseudos_module/espresso/nninc/pbe/van/Ti.UPF
     MD5 check sum: 8e4df49b7f0d34bbd5052bf3f5ea0213
     Pseudo is Ultrasoft, Zval = 12.0
     Generated by new atomic code, or converted to UPF format
     Using radial grid of  851 points,  6 beta functions with:
                l(1) =   0
                l(2) =   0
                l(3) =   1
                l(4) =   1
                l(5) =   2
                l(6) =   2
     Q(r) pseudized with  8 coefficients,  rinner =    1.000   1.000   1.000
                                                       1.000   1.000

     PseudoPot. # 2 for O  read from file:
     /storage/coda1/p-amedford6/0/shared/rich_project_chbe-medford/medford-share/data/pseudos_module/espresso/nninc/pbe/van/O.UPF
     MD5 check sum: 78c19812648e8988a0fe644b0f25305e
     Pseudo is Ultrasoft, Zval =  6.0
     Generated by new atomic code, or converted to UPF format
     Using radial grid of  737 points,  4 beta functions with:
                l(1) =   0
                l(2) =   0
                l(3) =   1
                l(4) =   1
     Q(r) pseudized with  8 coefficients,  rinner =    0.800   0.800   0.800

     PseudoPot. # 3 for N  read from file:
     /storage/coda1/p-amedford6/0/shared/rich_project_chbe-medford/medford-share/data/pseudos_module/espresso/nninc/pbe/van/N.UPF
     MD5 check sum: 90d10febe142ad51ac9d5be1deb811c4
     Pseudo is Ultrasoft, Zval =  5.0
     Generated by new atomic code, or converted to UPF format
     Using radial grid of  729 points,  4 beta functions with:
                l(1) =   0
                l(2) =   0
                l(3) =   1
                l(4) =   1
     Q(r) pseudized with  8 coefficients,  rinner =    0.800   0.800   0.800

     PseudoPot. # 4 for C  read from file:
     /storage/coda1/p-amedford6/0/shared/rich_project_chbe-medford/medford-share/data/pseudos_module/espresso/nninc/pbe/van/C.UPF
     MD5 check sum: 1a69bf6b8db32088f5b2163dbdb77a27
     Pseudo is Ultrasoft, Zval =  4.0
     Generated by new atomic code, or converted to UPF format
     Using radial grid of  721 points,  4 beta functions with:
                l(1) =   0
                l(2) =   0
                l(3) =   1
                l(4) =   1
     Q(r) pseudized with  8 coefficients,  rinner =    0.800   0.800   0.800

     atomic species   valence    mass     pseudopotential
        Ti1           12.00    47.86700     Ti( 1.00)
        O1             6.00    15.99900     O ( 1.00)
        N1             5.00    14.00700     N ( 1.00)
        C1             4.00    12.01100     C ( 1.00)

     No symmetry found

   Cartesian axes

     site n.     atom                  positions (alat units)
         1           Ti1 tau(   1) = (   0.0004258   2.9801865   6.0000000  )
         2           Ti1 tau(   2) = (   3.2906075   1.4906267   6.0002472  )
         3           O1  tau(   3) = (   0.0006271   0.0005054   7.9858123  )
         4           O1  tau(   4) = (   3.2906025   0.0005020   7.3038282  )
         5           O1  tau(   5) = (   4.5942328   1.4918067   9.2879030  )
         6           O1  tau(   6) = (   1.9868534   1.4903216   9.2879459  )
         7           Ti1 tau(   7) = (   3.2907910   2.8959150   9.1758416  )
         8           Ti1 tau(   8) = (   0.0015273   1.4827037   9.2680791  )
         9           O1  tau(   9) = (   3.2889285   5.9572048  11.3040972  )
        10           O1  tau(  10) = (   0.0116148   5.9584955  10.6183126  )
        11           O1  tau(  11) = (   1.3189323   1.4942761  12.6130295  )
        12           O1  tau(  12) = (   5.2997964   1.4884099  12.6250597  )
        13           Ti1 tau(  13) = (   6.4939836   2.9824287  12.7561987  )
        14           Ti1 tau(  14) = (   3.1682086   1.4887373  12.4699270  )
        15           O1  tau(  15) = (   0.0224291   5.9581829  14.5926458  )
        16           O1  tau(  16) = (   3.2893302   5.9536121  13.8847677  )
        17           O1  tau(  17) = (   4.5439212   1.4834749  16.0328965  )
        18           O1  tau(  18) = (   2.0755535   1.4836234  16.0228809  )
        19           Ti1 tau(  19) = (   3.3005686   2.9659170  15.6894391  )
        20           Ti1 tau(  20) = (   6.5401575   1.4426905  16.0647633  )
        21           O1  tau(  21) = (   3.2904802   0.0005063   4.7018136  )
        22           O1  tau(  22) = (   0.0258419   5.9532685  17.1653534  )
        23           O1  tau(  23) = (   1.3043587   1.4918075   6.0039043  )
        24           O1  tau(  24) = (   5.2767064   1.4903225   6.0039473  )
        25           Ti1 tau(  25) = (   0.0000382   5.9609847   6.0000000  )
        26           Ti1 tau(  26) = (   3.2902200   4.4714249   6.0002472  )
        27           O1  tau(  27) = (   0.0002396   2.9813036   7.9858123  )
        28           O1  tau(  28) = (   3.2902150   2.9813002   7.3038282  )
        29           O1  tau(  29) = (   4.5938453   4.4726049   9.2879030  )
        30           O1  tau(  30) = (   1.9864658   4.4711199   9.2879459  )
        31           Ti1 tau(  31) = (   3.2891106   5.8743827   9.1763621  )
        32           Ti1 tau(  32) = (   0.0006254   4.4649316   9.2693709  )
        33           O1  tau(  33) = (   3.2925136   2.9767646  11.3039470  )
        34           O1  tau(  34) = (   0.0092240   2.9805883  10.6323155  )
        35           O1  tau(  35) = (   1.3189435   4.4587261  12.6131553  )
        36           O1  tau(  36) = (   5.2992261   4.4686972  12.6254714  )
        37           Ti1 tau(  37) = (   6.4933837   0.0018553  12.7120694  )
        38           Ti1 tau(  38) = (   3.1687038   4.4682667  12.4696446  )
        39           O1  tau(  39) = (   6.5575253   2.9777116  14.6451287  )
        40           O1  tau(  40) = (   3.3026008   2.9720648  13.8804781  )
        41           O1  tau(  41) = (   4.5428380   4.4591099  16.0310608  )
        42           O1  tau(  42) = (   2.0745367   4.4570417  16.0198975  )
        43           Ti1 tau(  43) = (   3.2480854   5.9464808  15.6958456  )
        44           Ti1 tau(  44) = (   6.5385164   4.5051388  16.0519081  )
        45           O1  tau(  45) = (   3.2900926   2.9813045   4.7018136  )
        46           O1  tau(  46) = (   1.3039711   4.4726057   6.0039043  )
        47           O1  tau(  47) = (   5.2763189   4.4711207   6.0039473  )
        48           N1  tau(  48) = (   0.6527575   2.9932433  18.4779999  )
        49           C1  tau(  49) = (   1.2395031   3.0150465  19.5213309  )
        50           N1  tau(  50) = (   0.0963922   2.9773862  17.3183823  )

     number of k points=    10  Fermi-Dirac smearing, width (Ry)=  0.0073
                       cart. coord. in units 2pi/alat
        k(    1) = (   0.0000000   0.0000000   0.0000000), wk =   0.1250000
        k(    2) = (   0.0000000   0.0419351   0.0000000), wk =   0.2500000
        k(    3) = (   0.0000000  -0.0838702   0.0000000), wk =   0.1250000
        k(    4) = (   0.0379955   0.0000049   0.0000000), wk =   0.2500000
        k(    5) = (   0.0379955   0.0419400   0.0000000), wk =   0.2500000
        k(    6) = (   0.0379955  -0.0838652   0.0000000), wk =   0.2500000
        k(    7) = (   0.0379955  -0.0419301   0.0000000), wk =   0.2500000
        k(    8) = (  -0.0759910  -0.0000099   0.0000000), wk =   0.1250000
        k(    9) = (  -0.0759910   0.0419252   0.0000000), wk =   0.2500000
        k(   10) = (  -0.0759910  -0.0838800   0.0000000), wk =   0.1250000

     Initial potential from superposition of free atoms

     starting charge  375.99919, renormalised to  392.00000

     negative rho (up, down):  1.742E-02 0.000E+00

     %%%%%%%%%%%%%%%%%%%%%%%%%%%%%%%%%%%%%%%%%%%%%%%%%%%%%%%%%%%%%%%%%%%%%%%%
     %                                                                      %
     % You are using vdW-DF, which was implemented by the Thonhauser group. %
     % Please cite the following two papers that made this development      %
     % possible and the two reviews that describe the various versions:     %
     %                                                                      %
     %   T. Thonhauser et al., PRL 115, 136402 (2015).                      %
     %   T. Thonhauser et al., PRB 76, 125112 (2007).                       %
     %   K. Berland et al., Rep. Prog. Phys. 78, 066501 (2015).             %
     %   D.C. Langreth et al., J. Phys.: Condens. Matter 21, 084203 (2009). %
     %                                                                      %
     %                                                                      %
     % If you are calculating the stress with vdW-DF, please also cite:     %
     %                                                                      %
     %   R. Sabatini et al., J. Phys.: Condens. Matter 24, 424209 (2012).   %
     %                                                                      %
     %%%%%%%%%%%%%%%%%%%%%%%%%%%%%%%%%%%%%%%%%%%%%%%%%%%%%%%%%%%%%%%%%%%%%%%%

     Adding external electric field

     Computed dipole along edir(3) :
        Dipole               -6.0010 Ry au,        -15.2530 Debye
        Dipole field         -0.0113 Ry au,

        Potential amp.        1.0498 Ry
        Total length         46.3494 bohr

     Starting wfcs are  296 atomic wfcs
  @ DRIVER MODE: Message from server: STATUS
  @ DRIVER MODE: Message from server: POSDATA
  @ DRIVER MODE: Reading and sharing cell
  @ DRIVER MODE: Reading and sharing positions
  @ DRIVER MODE: Received positions

     Self-consistent Calculation

     iteration #  1     ecut=    29.40 Ry     beta= 0.05
     Davidson diagonalization with overlap
     c_bands:  3 eigenvalues not converged
     c_bands:  1 eigenvalues not converged
     c_bands:  3 eigenvalues not converged
     c_bands:  1 eigenvalues not converged
     c_bands:  1 eigenvalues not converged
     c_bands:  3 eigenvalues not converged
     ethr =  1.00E-05,  avg # of iterations = 19.5

[...]

     total energy              =   -2797.83405927 Ry
     estimated scf accuracy    <    1528.87236423 Ry

[...]

     iteration #  4     ecut=    29.40 Ry     beta= 0.05
     Davidson diagonalization with overlap
     ethr =  1.00E-02,  avg # of iterations = 11.2

[...]

     iteration # 34     ecut=    29.40 Ry     beta= 0.05
     Davidson diagonalization with overlap
     c_bands:  1 eigenvalues not converged
     ethr =  1.75E-07,  avg # of iterations =  7.0

[...]

     total energy              =   -2935.33664706 Ry
     estimated scf accuracy    <       0.00000012 Ry

     iteration # 52     ecut=    29.40 Ry     beta= 0.05
     Davidson diagonalization with overlap
     ethr =  3.00E-11,  avg # of iterations =  5.5

     negative rho (up, down):  1.700E-02 0.000E+00

     Adding external electric field

     Computed dipole along edir(3) :
        Dipole               -0.7813 Ry au,         -1.9860 Debye
        Dipole field         -0.0015 Ry au,

        Potential amp.        0.1367 Ry
        Total length         46.3494 bohr

     End of self-consistent calculation

          k = 0.0000 0.0000 0.0000 ( 18029 PWs)   bands (ev):

   -57.2966 -57.2628 -56.6427 -56.6086 -56.6050 -56.5714 -56.5530 -56.5175
   -56.3482 -56.3133 -56.2719 -56.2315 -56.0495 -56.0155 -55.8255 -55.7862
   -33.7367 -33.5815 -33.5534 -33.4636 -33.3715 -33.3615 -33.1078 -33.0936
   -33.0885 -32.9116 -32.8716 -32.8566 -32.8149 -32.8131 -32.8123 -32.8080
   -32.7825 -32.7712 -32.7700 -32.7675 -32.7549 -32.7419 -32.7332 -32.7160
   -32.7127 -32.6860 -32.6849 -32.6649 -32.5844 -32.5176 -32.4886 -32.4495
   -32.4468 -32.4455 -32.4203 -32.4165 -32.3878 -32.3823 -32.3644 -32.3585
   -32.2646 -32.1799 -32.0689 -32.0526 -32.0490 -32.0372 -31.9951 -31.8926
   -17.9685 -17.5398 -17.2482 -17.0160 -16.7725 -16.7064 -16.6655 -16.6333
   -16.5852 -16.5288 -16.5130 -16.4423 -16.3402 -16.2988 -16.2175 -16.1202
   -16.1143 -16.0791 -16.0127 -15.9155 -15.9091 -15.9083 -15.8411 -15.8410
   -15.7045 -15.6517 -15.5241 -15.5177 -15.4113 -15.1910 -14.5493 -14.4373
   -12.8725  -5.8935  -5.0774  -4.7414  -4.5415  -4.4458  -4.3225  -4.2834
    -4.2278  -4.0117  -3.9353  -3.9346  -3.8765  -3.8158  -3.6674  -3.6663
    -3.6209  -3.5978  -3.5645  -3.5080  -3.5042  -3.4765  -3.4719  -3.2997
    -3.2378  -3.2214  -3.2175  -3.2023  -3.0981  -3.0426  -3.0318  -3.0186
    -3.0005  -2.9703  -2.8489  -2.8094  -2.7656  -2.7512  -2.7419  -2.5910
    -2.5866  -2.5827  -2.4828  -2.4731  -2.3884  -2.3035  -2.1850  -2.1255
    -2.0788  -2.0481  -2.0231  -1.8734  -1.8451  -1.7886  -1.7340  -1.6839
    -1.6239  -1.5995  -1.5725  -1.5514  -1.4955  -1.4088  -1.3530  -1.3095
    -1.2490  -1.2308  -1.1010  -1.0905  -1.0753  -1.0635  -1.0013  -0.9467
    -0.9128  -0.8721  -0.8657  -0.8479  -0.7436  -0.6356  -0.6211  -0.5720
    -0.4614  -0.4475  -0.3849  -0.3397  -0.2515  -0.2115  -0.1383  -0.0867
    -0.0295  -0.0279   0.0101   0.1210   0.1759   0.2002   0.5280   0.5686
     0.6596   0.8312   1.2779   1.7167   1.9540   2.0899   2.3982   2.4403
     2.5490   2.8690   2.8836   2.9923   3.0062   3.0396

[...]

          k = 0.0380-0.0419 0.0000 ( 17876 PWs)   bands (ev):

[...]

          k =-0.0760-0.0000 0.0000 ( 17886 PWs)   bands (ev):

[...]

          k =-0.0760-0.0839 0.0000 ( 17948 PWs)   bands (ev):

   -57.2797 -57.2796 -56.6281 -56.6227 -56.5890 -56.5875 -56.5360 -56.5343
   -56.3315 -56.3298 -56.2622 -56.2412 -56.0325 -56.0324 -55.8147 -55.7969
   -33.5672 -33.5669 -33.5531 -33.5530 -33.4159 -33.4157 -32.9320 -32.9265
   -32.9212 -32.9190 -32.9030 -32.9018 -32.8280 -32.8257 -32.8175 -32.8114
   -32.8099 -32.8070 -32.8007 -32.7997 -32.7821 -32.7806 -32.7424 -32.7403
   -32.6751 -32.6737 -32.6165 -32.6150 -32.5906 -32.5722 -32.5382 -32.5283
   -32.4951 -32.4808 -32.4348 -32.4228 -32.3715 -32.3714 -32.2615 -32.2613
   -32.2595 -32.2224 -32.2223 -32.1129 -32.0322 -32.0131 -32.0065 -31.9845
   -17.9587 -16.9012 -16.8972 -16.8453 -16.8448 -16.6840 -16.6800 -16.6089
   -16.6045 -16.4952 -16.4858 -16.2810 -16.2700 -16.2650 -16.2639 -16.1727
   -16.1537 -16.1482 -16.1399 -16.0461 -16.0410 -15.9930 -15.9919 -15.9786
   -15.9343 -15.6755 -15.6066 -15.5414 -15.4304 -15.4039 -14.5403 -14.5402
   -12.8768  -5.8142  -4.0389  -4.0332  -3.9852  -3.9763  -3.8982  -3.8934
    -3.7558  -3.7523  -3.7089  -3.7040  -3.6023  -3.5722  -3.5660  -3.5634
    -3.4939  -3.4518  -3.4455  -3.4186  -3.4083  -3.3982  -3.3411  -3.3356
    -3.3001  -3.2949  -3.2136  -3.2106  -3.1701  -3.1676  -3.1275  -3.0977
    -3.0528  -2.9698  -2.9358  -2.9335  -2.9208  -2.8708  -2.8407  -2.6572
    -2.6476  -2.6291  -2.5265  -2.5214  -2.4565  -2.3525  -2.3423  -2.2966
    -2.2166  -2.2027  -2.0511  -2.0457  -2.0311  -2.0178  -1.9908  -1.9079
    -1.8667  -1.8120  -1.7201  -1.6878  -1.6467  -1.6184  -1.5936  -1.5819
    -1.5650  -1.5526  -1.4197  -1.4159  -1.3616  -1.3323  -1.2891  -1.2644
    -1.1554  -1.1174  -1.0175  -0.9069  -0.8964  -0.8723  -0.8610  -0.7507
    -0.6470  -0.6381  -0.4387  -0.3678  -0.2787  -0.2397  -0.2231  -0.0869
    -0.0727  -0.0343  -0.0225   0.1829   0.2407   0.3657   0.3702   0.3822
     0.3826   0.8435   1.2647   1.6609   2.5033   2.5039   2.5596   2.5599
     2.8610   2.8644   2.9289   2.9445   2.9958   2.9967

     the Fermi energy is     1.8675 ev

!    total energy              =   -2935.33673800 Ry
     estimated scf accuracy    <       0.00000006 Ry
     smearing contrib. (-TS)   =      -0.00938265 Ry
     internal energy E=F+TS    =   -2935.32735535 Ry

     The total energy is F=E-TS. E is the sum of the following terms:
     one-electron contribution =  -24516.21873701 Ry
     hartree contribution      =   12336.19288822 Ry
     xc contribution           =    -482.58867461 Ry
     ewald contribution        =    9727.28601599 Ry
     electric field correction =       0.00115206 Ry

     convergence has been achieved in  52 iterations

     Forces acting on atoms (cartesian axes, Ry/au):

     atom    1 type  1   force =     0.00006092   -0.00039165    0.11601489
     atom    2 type  1   force =    -0.00007041   -0.00058823   -0.16491964
     atom    3 type  2   force =     0.00017896   -0.00006467   -0.05547895
     atom    4 type  2   force =    -0.00004065   -0.00058535    0.03458088
     atom    5 type  2   force =    -0.01584495    0.00098905   -0.00636604
     atom    6 type  2   force =     0.01752929    0.00172602   -0.00681380
     atom    7 type  1   force =     0.00078147   -0.00311715    0.01329550
     atom    8 type  1   force =    -0.00039802    0.00375295    0.09546191
     atom    9 type  2   force =    -0.00005142    0.00004959    0.00020485
     atom   10 type  2   force =    -0.00228504    0.00158382   -0.05952129
     atom   11 type  2   force =    -0.00019737   -0.00013914    0.00013502
     atom   12 type  2   force =     0.00008235   -0.00052228    0.00008499
     atom   13 type  1   force =    -0.00025222   -0.00011974    0.00023253
     atom   14 type  1   force =     0.00007966   -0.00046980   -0.00009919
     atom   15 type  2   force =    -0.00034098   -0.00016134   -0.00000190
     atom   16 type  2   force =     0.00016039    0.00015695   -0.00022281
     atom   17 type  2   force =     0.00037187    0.00011414    0.00015662
     atom   18 type  2   force =    -0.00027143    0.00004843   -0.00025445
     atom   19 type  1   force =    -0.00032338    0.00011100    0.00038165
     atom   20 type  1   force =     0.00027227    0.00018837   -0.00118424
     atom   21 type  2   force =     0.00005702    0.00001263    0.10062825
     atom   22 type  2   force =    -0.00010070    0.00016489   -0.00042495
     atom   23 type  2   force =    -0.07664661   -0.00002863   -0.03124219
     atom   24 type  2   force =     0.07651095    0.00038934   -0.03125090
     atom   25 type  1   force =     0.00008493   -0.00041816    0.11578060
     atom   26 type  1   force =    -0.00007561   -0.00034235   -0.16490014
     atom   27 type  2   force =     0.00034130   -0.00030737   -0.05438550
     atom   28 type  2   force =    -0.00001992   -0.00040524    0.03454582
     atom   29 type  2   force =    -0.01626658    0.00135093   -0.00645870
     atom   30 type  2   force =     0.01784540    0.00154085   -0.00694682
     atom   31 type  1   force =     0.00068421   -0.00038608    0.01254873
     atom   32 type  1   force =    -0.00027964   -0.00631768    0.09607125
     atom   33 type  2   force =    -0.00018796   -0.00011687   -0.00048015
     atom   34 type  2   force =    -0.00268143    0.00109251   -0.06820266
     atom   35 type  2   force =    -0.00014508    0.00032803    0.00027457
     atom   36 type  2   force =    -0.00000204    0.00034613    0.00014378
     atom   37 type  1   force =    -0.00006723   -0.00021299   -0.00040373
     atom   38 type  1   force =    -0.00015186   -0.00018055    0.00008674
     atom   39 type  2   force =    -0.00001756   -0.00021876    0.00035016
     atom   40 type  2   force =    -0.00007880    0.00009657   -0.00004054
     atom   41 type  2   force =     0.00035509    0.00027615    0.00020818
     atom   42 type  2   force =    -0.00023944    0.00031680   -0.00020330
     atom   43 type  1   force =     0.00000254    0.00045441    0.00066654
     atom   44 type  1   force =     0.00019877   -0.00015637   -0.00060041
     atom   45 type  2   force =     0.00006182    0.00000130    0.10061907
     atom   46 type  2   force =    -0.07665588    0.00000147   -0.03121899
     atom   47 type  2   force =     0.07650290    0.00043946   -0.03124230
     atom   48 type  3   force =     0.01221497    0.00026815    0.01905382
     atom   49 type  4   force =    -0.00758008   -0.00048136   -0.01358274
     atom   50 type  3   force =    -0.00310480   -0.00006817   -0.00508003

     Total force =     0.407882     Total SCF correction =     0.000634
  @ DRIVER MODE: Message from server: STATUS
  @ DRIVER MODE: Message from server: GETFORCE
  @ DRIVER MODE: Returning v,forces,stress,ensemble

     Writing output data file ./calc.save/
  @ DRIVER MODE: Message from server: EXIT
  @ DRIVE MODE: Exiting

     General routines

     Parallel routines

   This run was terminated on:  23: 5: 3   8Sep2021

   JOB DONE.