     Program PWSCF v.6.7GPU starts on 26Sep2021 at 13:50:50

     R & G space division:  proc/nbgrp/npool/nimage =       8
     Reading input from /storage/home/hcoda1/3/ntian30/research/carbon/CxH_vib/H2O_calc/ads_slab/CH3OH2O_a/out_0022/pw.inp
Warning: card &CELL ignored
Warning: card   CELL_DYNAMICS='IPI', ignored
Warning: card / ignored

     Current dimensions of program PWSCF are:
     Max number of different atomic species (ntypx) = 10
     Max number of k-points (npk) =  40000
     Max angular momentum in pseudopotentials (lmaxx) =  3
     Presently no symmetry can be used with electric field

     Message from routine cell_base_init:
     DEPRECATED: use true lattice parameter, not A to a.u. conversion factor

     IMPORTANT: XC functional enforced from input :
     Exchange-correlation= BEEF-VDW
                           (   1   4  43  14   2   0   0)
     Any further DFT definition will be discarded
     Please, verify this is what you really want

  @ DRIVER MODE: Connecting to
 qe_1139763_2971673.sched-torque.pace.gatech.edu3idhmx5p_scratch
  using UNIX socket
  @ DRIVER MODE: Message from server: STATUS
  @ DRIVER MODE: Message from server: INIT
  @ DRIVER MODE: Receiving replica           0          -1
  @ DRIVER MODE: Receiving encoded integer          25
  @ DRIVER MODE:  SCF:  T  FORCE:  T  STRESS:  F  VC:  F  ENSEMBLE:  F
  @ DRIVER MODE:  SCF:  T  FORCE:  T  STRESS:  F  VC:  F  ENSEMBLE:  F

     Using Slab Decomposition

     bravais-lattice index     =            0
     lattice parameter (alat)  =       1.8897  a.u.
     unit-cell volume          =    6658.9804 (a.u.)^3
     number of atoms/cell      =           55
     number of atomic types    =            4
     number of electrons       =       399.00
     number of Kohn-Sham states=          209
     kinetic-energy cutoff     =      29.3995  Ry
     charge density cutoff     =     293.9946  Ry
     scf convergence threshold =      7.3E-08
     mixing beta               =       0.0500
     number of iterations used =            8  plain     mixing
     Exchange-correlation= BEEF-VDW
                           (   1   4  43  14   2   0   0)

     celldm(1)=   1.889726  celldm(2)=   0.000000  celldm(3)=   0.000000
     celldm(4)=   0.000000  celldm(5)=   0.000000  celldm(6)=   0.000000

     crystal axes: (cart. coord. in units of alat)
               a(1) = (   6.579727   0.000000   0.000000 )
               a(2) = (  -0.000775   5.961596   0.000000 )
               a(3) = (   0.000000   0.000000  25.155947 )

     reciprocal axes: (cart. coord. in units 2 pi/alat)
               b(1) = (  0.151982  0.000020  0.000000 )
               b(2) = (  0.000000  0.167740  0.000000 )
               b(3) = (  0.000000  0.000000  0.039752 )

     PseudoPot. # 1 for Ti read from file:
     /storage/coda1/p-amedford6/0/shared/rich_project_chbe-medford/medford-share/data/pseudos_module/espresso/nninc/pbe/van/Ti.UPF
     MD5 check sum: 8e4df49b7f0d34bbd5052bf3f5ea0213
     Pseudo is Ultrasoft, Zval = 12.0
     Generated by new atomic code, or converted to UPF format
     Using radial grid of  851 points,  6 beta functions with:
                l(1) =   0
                l(2) =   0
                l(3) =   1
                l(4) =   1
                l(5) =   2
                l(6) =   2
     Q(r) pseudized with  8 coefficients,  rinner =    1.000   1.000   1.000
                                                       1.000   1.000

     PseudoPot. # 2 for O  read from file:
     /storage/coda1/p-amedford6/0/shared/rich_project_chbe-medford/medford-share/data/pseudos_module/espresso/nninc/pbe/van/O.UPF
     MD5 check sum: 78c19812648e8988a0fe644b0f25305e
     Pseudo is Ultrasoft, Zval =  6.0
     Generated by new atomic code, or converted to UPF format
     Using radial grid of  737 points,  4 beta functions with:
                l(1) =   0
                l(2) =   0
                l(3) =   1
                l(4) =   1
     Q(r) pseudized with  8 coefficients,  rinner =    0.800   0.800   0.800

     PseudoPot. # 3 for C  read from file:
     /storage/coda1/p-amedford6/0/shared/rich_project_chbe-medford/medford-share/data/pseudos_module/espresso/nninc/pbe/van/C.UPF
     MD5 check sum: 1a69bf6b8db32088f5b2163dbdb77a27
     Pseudo is Ultrasoft, Zval =  4.0
     Generated by new atomic code, or converted to UPF format
     Using radial grid of  721 points,  4 beta functions with:
                l(1) =   0
                l(2) =   0
                l(3) =   1
                l(4) =   1
     Q(r) pseudized with  8 coefficients,  rinner =    0.800   0.800   0.800

     PseudoPot. # 4 for H  read from file:
     /storage/coda1/p-amedford6/0/shared/rich_project_chbe-medford/medford-share/data/pseudos_module/espresso/nninc/pbe/van/H.UPF
     MD5 check sum: b5ee9d7bfd3a09ee7748110bda690ff7
     Pseudo is Ultrasoft, Zval =  1.0
     Generated by new atomic code, or converted to UPF format
     Using radial grid of  615 points,  1 beta functions with:
                l(1) =   0
     Q(r) pseudized with  8 coefficients,  rinner =    0.800

     atomic species   valence    mass     pseudopotential
        Ti1           12.00    47.86700     Ti( 1.00)
        O1             6.00    15.99900     O ( 1.00)
        C1             4.00    12.01100     C ( 1.00)
        H1             1.00     1.00800     H ( 1.00)

     No symmetry found

   Cartesian axes

     site n.     atom                  positions (alat units)
         1           Ti1 tau(   1) = (   0.0004258   2.9801865   6.0000000  )
         2           Ti1 tau(   2) = (   3.2906075   1.4906267   6.0002472  )
         3           O1  tau(   3) = (   0.0006271   0.0005054   7.9858123  )
         4           O1  tau(   4) = (   3.2906025   0.0005020   7.3038282  )
         5           O1  tau(   5) = (   4.5942328   1.4918067   9.2879030  )
         6           O1  tau(   6) = (   1.9868534   1.4903216   9.2879459  )
         7           Ti1 tau(   7) = (   3.2820359   3.0439161   9.1623595  )
         8           Ti1 tau(   8) = (   6.5599266   1.6132547   9.3553476  )
         9           O1  tau(   9) = (   3.2945286   0.0238644  11.3456088  )
        10           O1  tau(  10) = (   0.0063054   0.0138127  10.6020390  )
        11           O1  tau(  11) = (   1.2951583   1.5100513  12.6443238  )
        12           O1  tau(  12) = (   5.2990995   1.5148170  12.6233090  )
        13           Ti1 tau(  13) = (   0.0263474   3.0106421  12.7494805  )
        14           Ti1 tau(  14) = (   3.3336015   1.5167552  12.4948480  )
        15           O1  tau(  15) = (   6.5448532   0.0190031  14.6983011  )
        16           O1  tau(  16) = (   3.3224233   0.0259125  13.9568087  )
        17           O1  tau(  17) = (   4.5367000   1.5168325  16.1249780  )
        18           O1  tau(  18) = (   2.0218268   1.5507800  16.0022153  )
        19           Ti1 tau(  19) = (   3.2743302   2.9980917  15.6870858  )
        20           Ti1 tau(  20) = (   0.0201860   1.3869735  16.0719154  )
        21           O1  tau(  21) = (   3.2904802   0.0005063   4.7018136  )
        22           O1  tau(  22) = (   0.0925506   0.0150102  17.2361640  )
        23           O1  tau(  23) = (   1.3043587   1.4918075   6.0039043  )
        24           O1  tau(  24) = (   5.2767064   1.4903225   6.0039473  )
        25           Ti1 tau(  25) = (   0.0000382   5.9609847   6.0000000  )
        26           Ti1 tau(  26) = (   3.2902200   4.4714249   6.0002472  )
        27           O1  tau(  27) = (   0.0002396   2.9813036   7.9858123  )
        28           O1  tau(  28) = (   3.2902150   2.9813002   7.3038282  )
        29           O1  tau(  29) = (   4.5938453   4.4726049   9.2879030  )
        30           O1  tau(  30) = (   1.9864658   4.4711199   9.2879459  )
        31           Ti1 tau(  31) = (   3.2669230   0.0652730   9.1555536  )
        32           Ti1 tau(  32) = (   6.5613759   4.5453191   9.2698998  )
        33           O1  tau(  33) = (   3.2918870   3.0052186  11.3478826  )
        34           O1  tau(  34) = (   0.0060846   2.9950393  10.5821163  )
        35           O1  tau(  35) = (   1.2959246   4.5006532  12.6413340  )
        36           O1  tau(  36) = (   5.2961686   4.4944485  12.6189864  )
        37           Ti1 tau(  37) = (   0.0327138   0.0295606  12.5236923  )
        38           Ti1 tau(  38) = (   3.3339673   4.5113903  12.4983483  )
        39           O1  tau(  39) = (   6.5730609   3.0277731  14.6772624  )
        40           O1  tau(  40) = (   3.3208155   3.0007925  13.9016932  )
        41           O1  tau(  41) = (   4.5507661   4.4739758  16.0704957  )
        42           O1  tau(  42) = (   2.0281244   4.4521521  15.9894756  )
        43           Ti1 tau(  43) = (   3.3328935   0.0118079  15.7915215  )
        44           Ti1 tau(  44) = (   0.0096178   4.5175135  15.9069376  )
        45           O1  tau(  45) = (   3.2900926   2.9813045   4.7018136  )
        46           O1  tau(  46) = (   1.3039711   4.4726057   6.0039043  )
        47           O1  tau(  47) = (   5.2763189   4.4711207   6.0039473  )
        48           C1  tau(  48) = (   6.0108469   3.0492512  18.6187439  )
        49           O1  tau(  49) = (   6.5747659   3.0013081  17.3187206  )
        50           H1  tau(  50) = (   4.9221177   3.1735116  18.5649479  )
        51           H1  tau(  51) = (   6.2378858   2.1336533  19.1567593  )
        52           H1  tau(  52) = (   6.4208835   3.9027719  19.1655001  )
        53           O1  tau(  53) = (   2.8960476   5.8777769  18.1661119  )
        54           H1  tau(  54) = (   3.1709146   0.7341104  18.6084320  )
        55           H1  tau(  55) = (   1.9162551   5.9097105  18.1191095  )

     number of k points=    10  Fermi-Dirac smearing, width (Ry)=  0.0073
                       cart. coord. in units 2pi/alat
        k(    1) = (   0.0000000   0.0000000   0.0000000), wk =   0.1250000
        k(    2) = (   0.0000000   0.0419351   0.0000000), wk =   0.2500000
        k(    3) = (   0.0000000  -0.0838702   0.0000000), wk =   0.1250000
        k(    4) = (   0.0379955   0.0000049   0.0000000), wk =   0.2500000
        k(    5) = (   0.0379955   0.0419400   0.0000000), wk =   0.2500000
        k(    6) = (   0.0379955  -0.0838652   0.0000000), wk =   0.2500000
        k(    7) = (   0.0379955  -0.0419301   0.0000000), wk =   0.2500000
        k(    8) = (  -0.0759910  -0.0000099   0.0000000), wk =   0.1250000
        k(    9) = (  -0.0759910   0.0419252   0.0000000), wk =   0.2500000
        k(   10) = (  -0.0759910  -0.0838800   0.0000000), wk =   0.1250000

     Initial potential from superposition of free atoms

     starting charge  382.99916, renormalised to  399.00000

     negative rho (up, down):  1.705E-02 0.000E+00

     %%%%%%%%%%%%%%%%%%%%%%%%%%%%%%%%%%%%%%%%%%%%%%%%%%%%%%%%%%%%%%%%%%%%%%%%
     %                                                                      %
     % You are using vdW-DF, which was implemented by the Thonhauser group. %
     % Please cite the following two papers that made this development      %
     % possible and the two reviews that describe the various versions:     %
     %                                                                      %
     %   T. Thonhauser et al., PRL 115, 136402 (2015).                      %
     %   T. Thonhauser et al., PRB 76, 125112 (2007).                       %
     %   K. Berland et al., Rep. Prog. Phys. 78, 066501 (2015).             %
     %   D.C. Langreth et al., J. Phys.: Condens. Matter 21, 084203 (2009). %
     %                                                                      %
     %                                                                      %
     % If you are calculating the stress with vdW-DF, please also cite:     %
     %                                                                      %
     %   R. Sabatini et al., J. Phys.: Condens. Matter 24, 424209 (2012).   %
     %                                                                      %
     %%%%%%%%%%%%%%%%%%%%%%%%%%%%%%%%%%%%%%%%%%%%%%%%%%%%%%%%%%%%%%%%%%%%%%%%

     Adding external electric field

     Computed dipole along edir(3) :
        Dipole               -9.9871 Ry au,        -25.3847 Debye
        Dipole field         -0.0188 Ry au,

        Potential amp.        1.7471 Ry
        Total length         46.3494 bohr

     Starting wfcs are  301 atomic wfcs
  @ DRIVER MODE: Message from server: STATUS
  @ DRIVER MODE: Message from server: POSDATA
  @ DRIVER MODE: Reading and sharing cell
  @ DRIVER MODE: Reading and sharing positions
  @ DRIVER MODE: Received positions

     Self-consistent Calculation

     iteration #  1     ecut=    29.40 Ry     beta= 0.05
     Davidson diagonalization with overlap
     c_bands:  2 eigenvalues not converged
     c_bands:  2 eigenvalues not converged
     c_bands:  2 eigenvalues not converged
     c_bands:  2 eigenvalues not converged
     c_bands:  2 eigenvalues not converged
     c_bands:  3 eigenvalues not converged
     c_bands:  3 eigenvalues not converged
     c_bands:  1 eigenvalues not converged
     ethr =  1.00E-05,  avg # of iterations = 19.6

[...]

     total energy              =   -2489.85248445 Ry
     estimated scf accuracy    <    5304.38421635 Ry

     iteration #  2     ecut=    29.40 Ry     beta= 0.05
     Davidson diagonalization with overlap
     ethr =  1.00E-02,  avg # of iterations = 23.8

[...]

     iteration # 66     ecut=    29.40 Ry     beta= 0.05
     Davidson diagonalization with overlap
     c_bands:  1 eigenvalues not converged
     ethr =  4.96E-11,  avg # of iterations = 14.8

[...]

     total energy              =   -2966.34215142 Ry
     estimated scf accuracy    <       0.00000021 Ry

     iteration # 68     ecut=    29.40 Ry     beta= 0.05
     Davidson diagonalization with overlap
     ethr =  4.96E-11,  avg # of iterations =  8.7

     negative rho (up, down):  1.687E-02 0.000E+00

     Adding external electric field

     Computed dipole along edir(3) :
        Dipole                0.9490 Ry au,          2.4120 Debye
        Dipole field          0.0018 Ry au,

        Potential amp.       -0.1660 Ry
        Total length         46.3494 bohr

     End of self-consistent calculation

          k = 0.0000 0.0000 0.0000 ( 18029 PWs)   bands (ev):

   -55.7036 -55.6677 -55.6649 -55.6286 -55.6166 -55.6036 -55.5824 -55.5483
   -55.4936 -55.4799 -55.4708 -55.4535 -55.4187 -55.3782 -54.7069 -54.6729
   -32.2225 -32.1731 -32.0945 -32.0619 -32.0456 -31.9960 -31.9797 -31.9692
   -31.9360 -31.9331 -31.8921 -31.8812 -31.8755 -31.8704 -31.8631 -31.8471
   -31.8463 -31.8030 -31.7984 -31.7953 -31.7870 -31.7825 -31.7681 -31.7543
   -31.7480 -31.7429 -31.7251 -31.7021 -31.6954 -31.6945 -31.6875 -31.6842
   -31.6715 -31.6642 -31.6511 -31.6434 -31.6359 -31.5998 -31.5941 -31.5693
   -31.5607 -31.5542 -31.1159 -31.0210 -30.9986 -30.9328 -30.8467 -30.7353
   -18.9054 -17.5503 -16.4183 -16.1490 -15.9878 -15.8600 -15.8216 -15.6260
   -15.5099 -15.3853 -15.3591 -15.3042 -15.2795 -15.2396 -15.2338 -15.2250
   -15.2143 -15.2056 -15.1518 -15.1175 -15.1051 -15.0954 -15.0836 -15.0323
   -14.9803 -14.9161 -14.8437 -14.8209 -14.7962 -14.7245 -14.7036 -13.2074
   -13.0896  -9.4467  -6.6741  -4.2690  -4.0957  -3.8095  -3.7700  -3.6414
    -3.6162  -3.5864  -3.5051  -3.3077  -3.2747  -3.1521  -2.9404  -2.8819
    -2.8262  -2.8024  -2.7602  -2.6090  -2.5907  -2.5196  -2.5088  -2.4901
    -2.4796  -2.4476  -2.4297  -2.3969  -2.3698  -2.3306  -2.2857  -2.2240
    -2.0851  -2.0709  -2.0335  -2.0162  -2.0045  -1.9899  -1.9529  -1.9317
    -1.8984  -1.8804  -1.8709  -1.7705  -1.6625  -1.5691  -1.5324  -1.4629
    -1.3817  -1.2377  -1.2168  -1.1456  -1.1205  -1.1047  -1.0539  -1.0019
    -0.9413  -0.9368  -0.8801  -0.7811  -0.7147  -0.6936  -0.6569  -0.6080
    -0.5484  -0.4727  -0.4434  -0.4260  -0.4029  -0.3906  -0.2031  -0.1782
    -0.1359  -0.1086  -0.0261   0.0325   0.0494   0.0678   0.0942   0.1212
     0.1944   0.2540   0.2632   0.2900   0.3338   0.3484   0.3824   0.4494
     0.4988   0.5171   0.5643   0.6138   0.6650   0.8055   0.9083   0.9517
     1.0632   1.2284   1.3175   1.3913   1.4925   1.9029   1.9588   3.4763
     3.5082   3.5364   3.5576   3.6345   3.7265   3.8362   3.9284   3.9436
     3.9727

[...]

          k = 0.0380-0.0419 0.0000 ( 17876 PWs)   bands (ev):

[...]

          k =-0.0760-0.0000 0.0000 ( 17886 PWs)   bands (ev):

[...]

          k =-0.0760-0.0839 0.0000 ( 17948 PWs)   bands (ev):

   -55.6913 -55.6798 -55.6486 -55.6446 -55.6138 -55.6016 -55.5695 -55.5612
   -55.4959 -55.4766 -55.4730 -55.4407 -55.4317 -55.3811 -54.6904 -54.6893
   -32.0357 -32.0166 -31.9958 -31.9893 -31.9839 -31.9825 -31.9655 -31.9287
   -31.9192 -31.9108 -31.9021 -31.8929 -31.8550 -31.8446 -31.8300 -31.8254
   -31.8250 -31.8186 -31.8170 -31.8094 -31.8019 -31.7991 -31.7920 -31.7829
   -31.7740 -31.7705 -31.7660 -31.7656 -31.7553 -31.7396 -31.7132 -31.6968
   -31.6915 -31.6848 -31.6840 -31.6806 -31.6751 -31.6575 -31.6472 -31.6359
   -31.6060 -31.5718 -31.0119 -31.0107 -30.9293 -30.9284 -30.8902 -30.8893
   -18.9041 -17.5177 -15.8870 -15.7732 -15.6547 -15.5809 -15.5690 -15.5229
   -15.4926 -15.4665 -15.4088 -15.4016 -15.3538 -15.3521 -15.3013 -15.2954
   -15.2444 -15.2123 -15.2082 -15.1669 -15.1439 -15.1356 -15.1255 -15.0890
   -15.0722 -15.0624 -15.0274 -15.0182 -14.9692 -14.9300 -14.9044 -13.1919
   -13.1901  -9.4490  -6.6685  -4.1651  -4.0622  -3.8134  -3.3066  -3.1731
    -2.9695  -2.9003  -2.8348  -2.7725  -2.7688  -2.6528  -2.6330  -2.5941
    -2.5635  -2.5307  -2.5230  -2.5127  -2.4962  -2.4936  -2.4765  -2.4371
    -2.4169  -2.3930  -2.3709  -2.3597  -2.3380  -2.3155  -2.3079  -2.2881
    -2.2551  -2.2485  -2.2408  -2.1776  -2.1150  -1.9822  -1.9388  -1.9255
    -1.8403  -1.8056  -1.7891  -1.7600  -1.7520  -1.7365  -1.6060  -1.5859
    -1.4912  -1.4256  -1.4063  -1.3784  -1.2703  -1.2109  -1.1805  -1.1574
    -1.1213  -1.0738  -1.0066  -0.9660  -0.9142  -0.8558  -0.8120  -0.7975
    -0.7649  -0.6605  -0.6563  -0.6489  -0.6075  -0.5671  -0.5156  -0.4656
    -0.4583  -0.4327  -0.4006  -0.3584  -0.3393  -0.2423  -0.2314  -0.1923
    -0.1458  -0.0532   0.1276   0.2107   0.3174   0.3517   0.3916   0.4534
     0.4978   0.5489   0.5963   0.6438   0.6700   0.7136   0.7475   0.8299
     0.8483   0.8536   0.9219   1.6791   1.6795   1.7655   1.7740   3.7200
     3.7352   3.7876   3.8063   3.9445   3.9503   3.9640   3.9735   4.0721
     4.1313

     the Fermi energy is     3.4473 ev

!    total energy              =   -2966.34218441 Ry
     estimated scf accuracy    <       0.00000005 Ry
     smearing contrib. (-TS)   =      -0.02283153 Ry
     internal energy E=F+TS    =   -2966.31935288 Ry

     The total energy is F=E-TS. E is the sum of the following terms:
     one-electron contribution =  -24405.23539636 Ry
     hartree contribution      =   12294.62393689 Ry
     xc contribution           =    -490.96962284 Ry
     ewald contribution        =    9635.26003006 Ry
     electric field correction =       0.00169937 Ry

     convergence has been achieved in  68 iterations

     Forces acting on atoms (cartesian axes, Ry/au):

     atom    1 type  1   force =     0.00018193   -0.00146746    0.10509762
     atom    2 type  1   force =     0.00006834    0.00125428   -0.17890828
     atom    3 type  2   force =    -0.00001185   -0.00500890   -0.03284269
     atom    4 type  2   force =    -0.00058165    0.00074193    0.04592686
     atom    5 type  2   force =    -0.01790539   -0.00053033    0.00429066
     atom    6 type  2   force =     0.01741093    0.00074131    0.00348346
     atom    7 type  1   force =    -0.00006273   -0.00058033   -0.00006887
     atom    8 type  1   force =    -0.00037737   -0.00056924    0.00046289
     atom    9 type  2   force =     0.00014990   -0.00029259   -0.00002214
     atom   10 type  2   force =     0.00022771   -0.00002018    0.00054554
     atom   11 type  2   force =     0.00000225   -0.00010254   -0.00005498
     atom   12 type  2   force =    -0.00013770   -0.00028864   -0.00025856
     atom   13 type  1   force =     0.00055863   -0.00057764   -0.00132798
     atom   14 type  1   force =     0.00001377   -0.00046229    0.00035944
     atom   15 type  2   force =    -0.00012565   -0.00036834    0.00003565
     atom   16 type  2   force =     0.00005068   -0.00064172   -0.00003967
     atom   17 type  2   force =    -0.00035135   -0.00013343   -0.00039925
     atom   18 type  2   force =     0.00050414   -0.00043919    0.00003151
     atom   19 type  1   force =     0.00002630    0.00051804    0.00019761
     atom   20 type  1   force =     0.00007422   -0.00094144    0.00074895
     atom   21 type  2   force =     0.00007191    0.00010579    0.10392373
     atom   22 type  2   force =    -0.00031375   -0.00026894   -0.00027800
     atom   23 type  2   force =    -0.06946525    0.00050628   -0.02943434
     atom   24 type  2   force =     0.06949706    0.00087291   -0.02946597
     atom   25 type  1   force =     0.00027448    0.00145026    0.11393806
     atom   26 type  1   force =    -0.00006237   -0.00044085   -0.17907778
     atom   27 type  2   force =    -0.00013452    0.00370591   -0.02690474
     atom   28 type  2   force =    -0.00026872    0.00101566    0.04786993
     atom   29 type  2   force =    -0.01572016    0.00042003    0.00352724
     atom   30 type  2   force =     0.01710054    0.00264173    0.00290532
     atom   31 type  1   force =     0.00036553    0.00005183   -0.00019743
     atom   32 type  1   force =    -0.00066690    0.00012176    0.00029416
     atom   33 type  2   force =     0.00025070   -0.00040302    0.00017998
     atom   34 type  2   force =     0.00007015   -0.00005843   -0.00006019
     atom   35 type  2   force =     0.00012353   -0.00018595    0.00022742
     atom   36 type  2   force =     0.00018396    0.00016759    0.00015731
     atom   37 type  1   force =     0.00033705    0.00077738   -0.00023562
     atom   38 type  1   force =    -0.00008759   -0.00053365    0.00002074
     atom   39 type  2   force =    -0.00047241    0.00024378    0.00026982
     atom   40 type  2   force =     0.00026031   -0.00064172   -0.00011484
     atom   41 type  2   force =     0.00008118   -0.00002228   -0.00014789
     atom   42 type  2   force =    -0.00033638   -0.00036030   -0.00039074
     atom   43 type  1   force =    -0.00012185   -0.00025484   -0.00011028
     atom   44 type  1   force =     0.00031615    0.00032564    0.00036209
     atom   45 type  2   force =     0.00008006    0.00008330    0.10394863
     atom   46 type  2   force =    -0.06916198   -0.00106468   -0.02945451
     atom   47 type  2   force =     0.06914042   -0.00060072   -0.02952840
     atom   48 type  3   force =    -0.00195456    0.00923820   -0.00304695
     atom   49 type  2   force =    -0.00032226    0.00020899    0.00011722
     atom   50 type  4   force =     0.00059294    0.00029868    0.00052436
     atom   51 type  4   force =     0.00181248   -0.00864099    0.00366848
     atom   52 type  4   force =    -0.00054728    0.00014228   -0.00056656
     atom   53 type  2   force =     0.00080287    0.00110136    0.00050553
     atom   54 type  4   force =    -0.00020789   -0.00089633   -0.00064009
     atom   55 type  4   force =    -0.00123257    0.00006199   -0.00004345

     Total force =     0.374281     Total SCF correction =     0.000502
  @ DRIVER MODE: Message from server: STATUS
  @ DRIVER MODE: Message from server: GETFORCE
  @ DRIVER MODE: Returning v,forces,stress,ensemble

     Writing output data file ./calc.save/
  @ DRIVER MODE: Message from server: EXIT
  @ DRIVE MODE: Exiting

     General routines

     Parallel routines

   This run was terminated on:  14:45: 2  26Sep2021

   JOB DONE.