     Program PWSCF v.6.7GPU starts on 23Sep2021 at 15:59:13

     R & G space division:  proc/nbgrp/npool/nimage =       8
     Reading input from /storage/home/hcoda1/3/ntian30/research/carbon/CxH_vib/H2O_calc/ads_slab/CH3N2HHO_a/out_0044/pw.inp
Warning: card &CELL ignored
Warning: card   CELL_DYNAMICS='IPI', ignored
Warning: card / ignored

     Current dimensions of program PWSCF are:
     Max number of different atomic species (ntypx) = 10
     Max number of k-points (npk) =  40000
     Max angular momentum in pseudopotentials (lmaxx) =  3
     Presently no symmetry can be used with electric field

     Message from routine cell_base_init:
     DEPRECATED: use true lattice parameter, not A to a.u. conversion factor

     IMPORTANT: XC functional enforced from input :
     Exchange-correlation= BEEF-VDW
                           (   1   4  43  14   2   0   0)
     Any further DFT definition will be discarded
     Please, verify this is what you really want

  @ DRIVER MODE: Connecting to
 qe_1139763_2941009.sched-torque.pace.gatech.edu80wpgo_w_scratch
  using UNIX socket
  @ DRIVER MODE: Message from server: STATUS
  @ DRIVER MODE: Message from server: INIT
  @ DRIVER MODE: Receiving replica           0          -1
  @ DRIVER MODE: Receiving encoded integer          25
  @ DRIVER MODE:  SCF:  T  FORCE:  T  STRESS:  F  VC:  F  ENSEMBLE:  F
  @ DRIVER MODE:  SCF:  T  FORCE:  T  STRESS:  F  VC:  F  ENSEMBLE:  F

     Using Slab Decomposition

     bravais-lattice index     =            0
     lattice parameter (alat)  =       1.8897  a.u.
     unit-cell volume          =    6658.9804 (a.u.)^3
     number of atoms/cell      =           56
     number of atomic types    =            5
     number of electrons       =       403.00
     number of Kohn-Sham states=          211
     kinetic-energy cutoff     =      29.3995  Ry
     charge density cutoff     =     293.9946  Ry
     scf convergence threshold =      7.3E-08
     mixing beta               =       0.0500
     number of iterations used =            8  plain     mixing
     Exchange-correlation= BEEF-VDW
                           (   1   4  43  14   2   0   0)

     celldm(1)=   1.889726  celldm(2)=   0.000000  celldm(3)=   0.000000
     celldm(4)=   0.000000  celldm(5)=   0.000000  celldm(6)=   0.000000

     crystal axes: (cart. coord. in units of alat)
               a(1) = (   6.579727   0.000000   0.000000 )
               a(2) = (  -0.000775   5.961596   0.000000 )
               a(3) = (   0.000000   0.000000  25.155947 )

     reciprocal axes: (cart. coord. in units 2 pi/alat)
               b(1) = (  0.151982  0.000020  0.000000 )
               b(2) = (  0.000000  0.167740  0.000000 )
               b(3) = (  0.000000  0.000000  0.039752 )

     PseudoPot. # 1 for Ti read from file:
     /storage/coda1/p-amedford6/0/shared/rich_project_chbe-medford/medford-share/data/pseudos_module/espresso/nninc/pbe/van/Ti.UPF
     MD5 check sum: 8e4df49b7f0d34bbd5052bf3f5ea0213
     Pseudo is Ultrasoft, Zval = 12.0
     Generated by new atomic code, or converted to UPF format
     Using radial grid of  851 points,  6 beta functions with:
                l(1) =   0
                l(2) =   0
                l(3) =   1
                l(4) =   1
                l(5) =   2
                l(6) =   2
     Q(r) pseudized with  8 coefficients,  rinner =    1.000   1.000   1.000
                                                       1.000   1.000

     PseudoPot. # 2 for O  read from file:
     /storage/coda1/p-amedford6/0/shared/rich_project_chbe-medford/medford-share/data/pseudos_module/espresso/nninc/pbe/van/O.UPF
     MD5 check sum: 78c19812648e8988a0fe644b0f25305e
     Pseudo is Ultrasoft, Zval =  6.0
     Generated by new atomic code, or converted to UPF format
     Using radial grid of  737 points,  4 beta functions with:
                l(1) =   0
                l(2) =   0
                l(3) =   1
                l(4) =   1
     Q(r) pseudized with  8 coefficients,  rinner =    0.800   0.800   0.800

     PseudoPot. # 3 for N  read from file:
     /storage/coda1/p-amedford6/0/shared/rich_project_chbe-medford/medford-share/data/pseudos_module/espresso/nninc/pbe/van/N.UPF
     MD5 check sum: 90d10febe142ad51ac9d5be1deb811c4
     Pseudo is Ultrasoft, Zval =  5.0
     Generated by new atomic code, or converted to UPF format
     Using radial grid of  729 points,  4 beta functions with:
                l(1) =   0
                l(2) =   0
                l(3) =   1
                l(4) =   1
     Q(r) pseudized with  8 coefficients,  rinner =    0.800   0.800   0.800

     PseudoPot. # 4 for C  read from file:
     /storage/coda1/p-amedford6/0/shared/rich_project_chbe-medford/medford-share/data/pseudos_module/espresso/nninc/pbe/van/C.UPF
     MD5 check sum: 1a69bf6b8db32088f5b2163dbdb77a27
     Pseudo is Ultrasoft, Zval =  4.0
     Generated by new atomic code, or converted to UPF format
     Using radial grid of  721 points,  4 beta functions with:
                l(1) =   0
                l(2) =   0
                l(3) =   1
                l(4) =   1
     Q(r) pseudized with  8 coefficients,  rinner =    0.800   0.800   0.800

     PseudoPot. # 5 for H  read from file:
     /storage/coda1/p-amedford6/0/shared/rich_project_chbe-medford/medford-share/data/pseudos_module/espresso/nninc/pbe/van/H.UPF
     MD5 check sum: b5ee9d7bfd3a09ee7748110bda690ff7
     Pseudo is Ultrasoft, Zval =  1.0
     Generated by new atomic code, or converted to UPF format
     Using radial grid of  615 points,  1 beta functions with:
                l(1) =   0
     Q(r) pseudized with  8 coefficients,  rinner =    0.800

     atomic species   valence    mass     pseudopotential
        Ti1           12.00    47.86700     Ti( 1.00)
        O1             6.00    15.99900     O ( 1.00)
        N1             5.00    14.00700     N ( 1.00)
        C1             4.00    12.01100     C ( 1.00)
        H1             1.00     1.00800     H ( 1.00)

     No symmetry found

   Cartesian axes

     site n.     atom                  positions (alat units)
         1           Ti1 tau(   1) = (   0.0004258   2.9801865   6.0000000  )
         2           Ti1 tau(   2) = (   3.2906075   1.4906267   6.0002472  )
         3           O1  tau(   3) = (   0.0006271   0.0005054   7.9858123  )
         4           O1  tau(   4) = (   3.2906025   0.0005020   7.3038282  )
         5           O1  tau(   5) = (   4.5942328   1.4918067   9.2879030  )
         6           O1  tau(   6) = (   1.9868534   1.4903216   9.2879459  )
         7           Ti1 tau(   7) = (   3.2907910   2.8959150   9.1758416  )
         8           Ti1 tau(   8) = (   0.0015273   1.4827037   9.2680791  )
         9           O1  tau(   9) = (   3.2827749   5.9542966  11.3123607  )
        10           O1  tau(  10) = (   0.0116148   5.9584955  10.6183126  )
        11           O1  tau(  11) = (   1.2790800   1.4852124  12.6463597  )
        12           O1  tau(  12) = (   5.2943908   1.4901875  12.6352807  )
        13           Ti1 tau(  13) = (   6.5507123   3.1127926  12.6266869  )
        14           Ti1 tau(  14) = (   3.2873181   1.3120036  12.6863921  )
        15           O1  tau(  15) = (   6.5656690   0.0172326  14.6855350  )
        16           O1  tau(  16) = (   3.2842416   0.0515509  13.9244022  )
        17           O1  tau(  17) = (   4.5437539   1.5966601  16.0680646  )
        18           O1  tau(  18) = (   2.0303991   1.5956099  16.0781401  )
        19           Ti1 tau(  19) = (   3.2961159   3.0594788  15.6697774  )
        20           Ti1 tau(  20) = (   6.5318457   1.5630605  15.7780207  )
        21           O1  tau(  21) = (   3.2904802   0.0005063   4.7018136  )
        22           O1  tau(  22) = (   6.5726385   0.0820865  17.2550913  )
        23           O1  tau(  23) = (   1.3043587   1.4918075   6.0039043  )
        24           O1  tau(  24) = (   5.2767064   1.4903225   6.0039473  )
        25           Ti1 tau(  25) = (   0.0000382   5.9609847   6.0000000  )
        26           Ti1 tau(  26) = (   3.2902200   4.4714249   6.0002472  )
        27           O1  tau(  27) = (   0.0002396   2.9813036   7.9858123  )
        28           O1  tau(  28) = (   3.2902150   2.9813002   7.3038282  )
        29           O1  tau(  29) = (   4.5938453   4.4726049   9.2879030  )
        30           O1  tau(  30) = (   1.9864658   4.4711199   9.2879459  )
        31           Ti1 tau(  31) = (   3.2891106   5.8743827   9.1763621  )
        32           Ti1 tau(  32) = (   0.0006254   4.4649316   9.2693709  )
        33           O1  tau(  33) = (   3.2807365   3.0201584  11.2787527  )
        34           O1  tau(  34) = (   0.0092240   2.9805883  10.6323155  )
        35           O1  tau(  35) = (   1.2751182   4.4744369  12.6357194  )
        36           O1  tau(  36) = (   5.2842299   4.4734050  12.6250694  )
        37           Ti1 tau(  37) = (   0.0094520   0.1224552  12.5707632  )
        38           Ti1 tau(  38) = (   3.2670701   4.4034752  12.4162930  )
        39           O1  tau(  39) = (   6.5622168   3.0106679  14.6773207  )
        40           O1  tau(  40) = (   3.2891587   3.0115246  13.8909557  )
        41           O1  tau(  41) = (   4.5321968   4.4927823  16.1577793  )
        42           O1  tau(  42) = (   2.0250423   4.4919485  16.1304878  )
        43           Ti1 tau(  43) = (   3.2250977   0.0853664  16.3312049  )
        44           Ti1 tau(  44) = (   6.5532039   4.7053171  16.1332850  )
        45           O1  tau(  45) = (   3.2900926   2.9813045   4.7018136  )
        46           O1  tau(  46) = (   1.3039711   4.4726057   6.0039043  )
        47           O1  tau(  47) = (   5.2763189   4.4711207   6.0039473  )
        48           N1  tau(  48) = (   0.0650423   2.5931692  18.6004617  )
        49           N1  tau(  49) = (   0.0051179   2.9528117  17.3995676  )
        50           C1  tau(  50) = (   0.1360749   3.5155665  19.7334966  )
        51           H1  tau(  51) = (   6.1082608   4.3937080  19.5213757  )
        52           H1  tau(  52) = (   6.3628389   3.0028702  20.6266755  )
        53           H1  tau(  53) = (   1.1699357   3.8405576  19.8861820  )
        54           H1  tau(  54) = (   0.1060244   1.5775976  18.7788705  )
        55           O1  tau(  55) = (   3.2496048   0.1449850  18.2004881  )
        56           H1  tau(  56) = (   3.4111690   5.2654565  18.6466900  )

     number of k points=    10  Fermi-Dirac smearing, width (Ry)=  0.0073
                       cart. coord. in units 2pi/alat
        k(    1) = (   0.0000000   0.0000000   0.0000000), wk =   0.1250000
        k(    2) = (   0.0000000   0.0419351   0.0000000), wk =   0.2500000
        k(    3) = (   0.0000000  -0.0838702   0.0000000), wk =   0.1250000
        k(    4) = (   0.0379955   0.0000049   0.0000000), wk =   0.2500000
        k(    5) = (   0.0379955   0.0419400   0.0000000), wk =   0.2500000
        k(    6) = (   0.0379955  -0.0838652   0.0000000), wk =   0.2500000
        k(    7) = (   0.0379955  -0.0419301   0.0000000), wk =   0.2500000
        k(    8) = (  -0.0759910  -0.0000099   0.0000000), wk =   0.1250000
        k(    9) = (  -0.0759910   0.0419252   0.0000000), wk =   0.2500000
        k(   10) = (  -0.0759910  -0.0838800   0.0000000), wk =   0.1250000

     Initial potential from superposition of free atoms

     starting charge  386.99914, renormalised to  403.00000

     negative rho (up, down):  1.429E-02 0.000E+00

     %%%%%%%%%%%%%%%%%%%%%%%%%%%%%%%%%%%%%%%%%%%%%%%%%%%%%%%%%%%%%%%%%%%%%%%%
     %                                                                      %
     % You are using vdW-DF, which was implemented by the Thonhauser group. %
     % Please cite the following two papers that made this development      %
     % possible and the two reviews that describe the various versions:     %
     %                                                                      %
     %   T. Thonhauser et al., PRL 115, 136402 (2015).                      %
     %   T. Thonhauser et al., PRB 76, 125112 (2007).                       %
     %   K. Berland et al., Rep. Prog. Phys. 78, 066501 (2015).             %
     %   D.C. Langreth et al., J. Phys.: Condens. Matter 21, 084203 (2009). %
     %                                                                      %
     %                                                                      %
     % If you are calculating the stress with vdW-DF, please also cite:     %
     %                                                                      %
     %   R. Sabatini et al., J. Phys.: Condens. Matter 24, 424209 (2012).   %
     %                                                                      %
     %%%%%%%%%%%%%%%%%%%%%%%%%%%%%%%%%%%%%%%%%%%%%%%%%%%%%%%%%%%%%%%%%%%%%%%%

     Adding external electric field

     Computed dipole along edir(3) :
        Dipole              -12.7219 Ry au,        -32.3358 Debye
        Dipole field         -0.0240 Ry au,

        Potential amp.        2.2255 Ry
        Total length         46.3494 bohr

     Starting wfcs are  305 atomic wfcs
  @ DRIVER MODE: Message from server: STATUS
  @ DRIVER MODE: Message from server: POSDATA
  @ DRIVER MODE: Reading and sharing cell
  @ DRIVER MODE: Reading and sharing positions
  @ DRIVER MODE: Received positions

     Self-consistent Calculation

     iteration #  1     ecut=    29.40 Ry     beta= 0.05
     Davidson diagonalization with overlap
     c_bands:  5 eigenvalues not converged
     c_bands:  4 eigenvalues not converged
     c_bands:  3 eigenvalues not converged
     c_bands:  4 eigenvalues not converged
     c_bands:  5 eigenvalues not converged
     c_bands:  4 eigenvalues not converged
     c_bands:  1 eigenvalues not converged
     c_bands:  4 eigenvalues not converged
     ethr =  1.00E-05,  avg # of iterations = 25.4

[...]

     total energy              =   -2361.22408155 Ry
     estimated scf accuracy    <    6935.96486291 Ry

     iteration #  2     ecut=    29.40 Ry     beta= 0.05
     Davidson diagonalization with overlap
     ethr =  1.00E-02,  avg # of iterations = 23.7

[...]

     iteration # 74     ecut=    29.40 Ry     beta= 0.05
     Davidson diagonalization with overlap
     c_bands:  1 eigenvalues not converged
     ethr =  2.96E-10,  avg # of iterations =  7.9

[...]

     total energy              =   -2973.99528352 Ry
     estimated scf accuracy    <       0.00000010 Ry

     iteration # 81     ecut=    29.40 Ry     beta= 0.05
     Davidson diagonalization with overlap
     ethr =  2.38E-11,  avg # of iterations =  5.4

     negative rho (up, down):  1.502E-02 0.000E+00

     Adding external electric field

     Computed dipole along edir(3) :
        Dipole                1.1947 Ry au,          3.0366 Debye
        Dipole field          0.0023 Ry au,

        Potential amp.       -0.2090 Ry
        Total length         46.3494 bohr

     End of self-consistent calculation

          k = 0.0000 0.0000 0.0000 ( 18029 PWs)   bands (ev):

   -55.7009 -55.6671 -55.3867 -55.3527 -55.2779 -55.1699 -55.1148 -55.0370
   -54.9909 -54.9587 -54.8303 -54.7363 -54.6957 -54.6247 -54.5279 -54.4939
   -32.1608 -31.9952 -31.9713 -31.8623 -31.8560 -31.7843 -31.7627 -31.6521
   -31.6072 -31.6049 -31.5938 -31.5400 -31.5376 -31.5184 -31.4973 -31.4923
   -31.4890 -31.3955 -31.3871 -31.3710 -31.3355 -31.3165 -31.3060 -31.2951
   -31.2751 -31.2713 -31.2379 -31.2002 -31.1766 -31.1751 -31.1653 -31.1476
   -31.0973 -31.0304 -30.9916 -30.9524 -30.9507 -30.9272 -30.9209 -30.9067
   -30.8958 -30.8575 -30.8384 -30.8348 -30.8342 -30.7455 -30.6603 -30.5484
   -19.0756 -16.2398 -16.0573 -15.7660 -15.5951 -15.3881 -15.3594 -15.2643
   -15.1614 -15.1444 -15.0408 -14.9759 -14.8911 -14.8221 -14.8024 -14.7539
   -14.7242 -14.6964 -14.6814 -14.6722 -14.6326 -14.6019 -14.5849 -14.5092
   -14.4643 -14.4460 -14.4185 -14.3530 -14.2575 -13.9916 -13.9288 -13.0256
   -12.9122 -12.5782  -9.3445  -6.2115  -4.7727  -4.7214  -3.7828  -3.5363
    -3.4428  -3.3310  -3.1225  -3.0730  -2.8944  -2.7741  -2.7537  -2.5334
    -2.5057  -2.3938  -2.3788  -2.3326  -2.3259  -2.2919  -2.2253  -2.1970
    -2.1251  -2.0649  -2.0379  -2.0042  -1.9512  -1.8961  -1.8909  -1.8772
    -1.8198  -1.7519  -1.7236  -1.7147  -1.6706  -1.6071  -1.5985  -1.5819
    -1.5629  -1.5415  -1.3985  -1.2922  -1.2314  -1.1927  -1.1432  -1.0865
    -1.0339  -1.0205  -0.9201  -0.8403  -0.7989  -0.6815  -0.6533  -0.6133
    -0.5288  -0.5043  -0.4618  -0.4420  -0.4012  -0.3941  -0.2892  -0.2718
    -0.2376  -0.1949  -0.0753  -0.0278  -0.0197   0.0617   0.1208   0.2010
     0.2426   0.2588   0.2827   0.3689   0.3968   0.4133   0.4218   0.4939
     0.5134   0.5618   0.6152   0.6987   0.7100   0.7507   0.7848   0.7978
     0.9282   0.9359   1.0253   1.0496   1.0604   1.1250   1.2193   1.2789
     1.3907   1.4046   1.4974   1.4974   1.5179   1.7164   1.8908   2.0495
     2.0898   3.5004   3.6197   3.6816   3.7195   3.9302   3.9418   4.2050
     4.2797   4.2833   4.3731

[...]

          k = 0.0380-0.0419 0.0000 ( 17876 PWs)   bands (ev):

[...]

          k =-0.0760-0.0000 0.0000 ( 17886 PWs)   bands (ev):

[...]

          k =-0.0760-0.0839 0.0000 ( 17948 PWs)   bands (ev):

   -55.6841 -55.6837 -55.3723 -55.3670 -55.2773 -55.1641 -55.1206 -55.0292
   -54.9985 -54.9591 -54.8283 -54.7340 -54.6977 -54.6268 -54.5114 -54.5103
   -31.9811 -31.9807 -31.9764 -31.9763 -31.8076 -31.8071 -31.6904 -31.6849
   -31.5704 -31.5663 -31.5649 -31.5587 -31.5542 -31.4931 -31.4833 -31.4681
   -31.4351 -31.3860 -31.3843 -31.3617 -31.3466 -31.3466 -31.3346 -31.3344
   -31.2581 -31.2443 -31.2377 -31.2336 -31.2059 -31.1946 -31.1652 -31.1561
   -31.0894 -31.0401 -31.0356 -30.9921 -30.9589 -30.9543 -30.9530 -30.9116
   -30.8733 -30.8474 -30.8466 -30.8377 -30.7418 -30.7405 -30.7034 -30.7026
   -19.0723 -16.2328 -15.4721 -15.4618 -15.3177 -15.3084 -15.2304 -15.1412
   -15.1229 -15.0942 -15.0455 -15.0233 -14.9420 -14.8858 -14.8660 -14.8411
   -14.8220 -14.8080 -14.7500 -14.7466 -14.7315 -14.7173 -14.6518 -14.6133
   -14.5832 -14.5766 -14.4686 -14.3889 -14.3048 -14.1557 -14.0654 -13.0151
   -13.0147 -12.5786  -9.3512  -6.2042  -4.7629  -4.7218  -3.7761  -3.4145
    -2.6507  -2.6075  -2.5165  -2.4383  -2.4326  -2.3843  -2.3837  -2.3022
    -2.2496  -2.1916  -2.1674  -2.1592  -2.1587  -2.1276  -2.1185  -2.0643
    -2.0593  -2.0417  -2.0388  -1.9824  -1.9575  -1.9432  -1.8913  -1.8361
    -1.7855  -1.7487  -1.7268  -1.6862  -1.6677  -1.6647  -1.5797  -1.5658
    -1.5381  -1.5105  -1.4657  -1.4352  -1.3797  -1.3584  -1.3019  -1.1743
    -1.1031  -1.0176  -0.9120  -0.8907  -0.8579  -0.8243  -0.8120  -0.7895
    -0.7562  -0.6409  -0.6309  -0.5814  -0.5491  -0.5212  -0.5038  -0.4758
    -0.4532  -0.3521  -0.3094  -0.2815  -0.2406  -0.2067  -0.1785  -0.1453
    -0.0931  -0.0546  -0.0450  -0.0133   0.0204   0.0350   0.1881   0.2681
     0.4008   0.4287   0.5189   0.5656   0.5976   0.6276   0.6551   0.7744
     0.8218   0.8443   0.8811   0.9026   1.0010   1.0984   1.1183   1.1866
     1.2212   1.3262   1.3570   1.4447   1.4964   1.8793   1.8871   1.9080
     1.9085   3.3780   4.0455   4.0484   4.0600   4.0733   4.2385   4.2412
     4.3419   4.3660   4.5016

     the Fermi energy is     3.4569 ev

!    total energy              =   -2973.99529387 Ry
     estimated scf accuracy    <       0.00000004 Ry
     smearing contrib. (-TS)   =      -0.01689309 Ry
     internal energy E=F+TS    =   -2973.97840078 Ry

     The total energy is F=E-TS. E is the sum of the following terms:
     one-electron contribution =  -23437.86391916 Ry
     hartree contribution      =   11816.38388861 Ry
     xc contribution           =    -493.95733558 Ry
     ewald contribution        =    9141.45627189 Ry
     electric field correction =       0.00269345 Ry

     convergence has been achieved in  81 iterations

     Forces acting on atoms (cartesian axes, Ry/au):

     atom    1 type  1   force =     0.00012174   -0.00024157    0.10267165
     atom    2 type  1   force =    -0.00011651    0.00008723   -0.16809009
     atom    3 type  2   force =    -0.00000837    0.00045926   -0.03239758
     atom    4 type  2   force =     0.00002770   -0.00097262    0.04010305
     atom    5 type  2   force =    -0.00542972   -0.00191244   -0.00433494
     atom    6 type  2   force =     0.00666599   -0.00135703   -0.00593458
     atom    7 type  1   force =    -0.00053622   -0.00530770    0.03003204
     atom    8 type  1   force =     0.00069715    0.00860670    0.04849751
     atom    9 type  2   force =     0.00012290   -0.00131483   -0.00106903
     atom   10 type  2   force =    -0.00253484    0.00301374   -0.03415292
     atom   11 type  2   force =    -0.00037488   -0.00008470   -0.00023348
     atom   12 type  2   force =     0.00047604   -0.00036681   -0.00011423
     atom   13 type  1   force =     0.00022022   -0.00161859    0.00020725
     atom   14 type  1   force =     0.00017460   -0.00076569    0.00070584
     atom   15 type  2   force =     0.00009559    0.00003953   -0.00027956
     atom   16 type  2   force =    -0.00012526    0.00003020    0.00176482
     atom   17 type  2   force =    -0.00107387   -0.00051772    0.00022988
     atom   18 type  2   force =     0.00059119   -0.00109082    0.00065283
     atom   19 type  1   force =     0.00080198   -0.00099673   -0.00070465
     atom   20 type  1   force =    -0.00082197   -0.00038664   -0.00020923
     atom   21 type  2   force =     0.00004912    0.00012440    0.10114680
     atom   22 type  2   force =     0.00008448    0.00050421    0.00031839
     atom   23 type  2   force =    -0.07541727   -0.00012255   -0.02931044
     atom   24 type  2   force =     0.07533106    0.00029957   -0.02932851
     atom   25 type  1   force =     0.00013775   -0.00022591    0.10280237
     atom   26 type  1   force =    -0.00003902   -0.00130649   -0.16849524
     atom   27 type  2   force =     0.00011871    0.00017554   -0.03116720
     atom   28 type  2   force =    -0.00000856    0.00072209    0.03582406
     atom   29 type  2   force =    -0.00425828    0.00378694   -0.00626490
     atom   30 type  2   force =     0.00528319    0.00442445   -0.00779024
     atom   31 type  1   force =    -0.00054198    0.00495188    0.01592096
     atom   32 type  1   force =     0.00077248   -0.01041478    0.04918541
     atom   33 type  2   force =     0.00002766   -0.00089716   -0.00137393
     atom   34 type  2   force =    -0.00240435    0.00222400   -0.04432115
     atom   35 type  2   force =     0.00056567    0.00020437   -0.00013535
     atom   36 type  2   force =    -0.00018996    0.00023416   -0.00007000
     atom   37 type  1   force =     0.00026449    0.00037927   -0.00044774
     atom   38 type  1   force =     0.00042477    0.00139577    0.00106201
     atom   39 type  2   force =     0.00039116    0.00045556    0.00010056
     atom   40 type  2   force =     0.00004694    0.00016365    0.00046592
     atom   41 type  2   force =    -0.00083582   -0.00048850   -0.00017206
     atom   42 type  2   force =     0.00052051    0.00052124    0.00062479
     atom   43 type  1   force =     0.00082259    0.00021808   -0.00133827
     atom   44 type  1   force =    -0.00089825   -0.00017321   -0.00090686
     atom   45 type  2   force =     0.00007082   -0.00001987    0.10093312
     atom   46 type  2   force =    -0.07547542   -0.00004711   -0.02932843
     atom   47 type  2   force =     0.07538954    0.00038703   -0.02932357
     atom   48 type  3   force =    -0.00064377   -0.00003481    0.00074813
     atom   49 type  3   force =     0.00035866   -0.00065210   -0.00122552
     atom   50 type  4   force =     0.00117624    0.00124500    0.00051803
     atom   51 type  5   force =     0.00012136   -0.00076322   -0.00135486
     atom   52 type  5   force =    -0.00018983   -0.00054808   -0.00047652
     atom   53 type  5   force =    -0.00010417   -0.00055186   -0.00098662
     atom   54 type  5   force =    -0.00010720   -0.00064600   -0.00136098
     atom   55 type  2   force =    -0.00163797    0.00328502   -0.00267058
     atom   56 type  5   force =     0.00182122   -0.00411337    0.00085382

     Total force =     0.372814     Total SCF correction =     0.000392
  @ DRIVER MODE: Message from server: STATUS
  @ DRIVER MODE: Message from server: GETFORCE
  @ DRIVER MODE: Returning v,forces,stress,ensemble

     Writing output data file ./calc.save/
  @ DRIVER MODE: Message from server: EXIT
  @ DRIVE MODE: Exiting

     General routines

     Parallel routines

   This run was terminated on:  16:25:36  23Sep2021

   JOB DONE.