     Program PWSCF v.6.7GPU starts on 23Sep2021 at  9: 6:57

     R & G space division:  proc/nbgrp/npool/nimage =       8
     Reading input from /storage/home/hcoda1/3/ntian30/research/carbon/CxH_vib/H2O_calc/ads_slab/CH3HO_a/out_0032/pw.inp
Warning: card &CELL ignored
Warning: card   CELL_DYNAMICS='IPI', ignored
Warning: card / ignored

     Current dimensions of program PWSCF are:
     Max number of different atomic species (ntypx) = 10
     Max number of k-points (npk) =  40000
     Max angular momentum in pseudopotentials (lmaxx) =  3
     Presently no symmetry can be used with electric field

     Message from routine cell_base_init:
     DEPRECATED: use true lattice parameter, not A to a.u. conversion factor

     IMPORTANT: XC functional enforced from input :
     Exchange-correlation= BEEF-VDW
                           (   1   4  43  14   2   0   0)
     Any further DFT definition will be discarded
     Please, verify this is what you really want

  @ DRIVER MODE: Connecting to
 qe_1139763_2941010.sched-torque.pace.gatech.eduw1n4chpl_scratch
  using UNIX socket
  @ DRIVER MODE: Message from server: STATUS
  @ DRIVER MODE: Message from server: INIT
  @ DRIVER MODE: Receiving replica           0          -1
  @ DRIVER MODE: Receiving encoded integer          25
  @ DRIVER MODE:  SCF:  T  FORCE:  T  STRESS:  F  VC:  F  ENSEMBLE:  F
  @ DRIVER MODE:  SCF:  T  FORCE:  T  STRESS:  F  VC:  F  ENSEMBLE:  F

     Using Slab Decomposition

     bravais-lattice index     =            0
     lattice parameter (alat)  =       1.8897  a.u.
     unit-cell volume          =    6658.9804 (a.u.)^3
     number of atoms/cell      =           53
     number of atomic types    =            4
     number of electrons       =       392.00
     number of Kohn-Sham states=          206
     kinetic-energy cutoff     =      29.3995  Ry
     charge density cutoff     =     293.9946  Ry
     scf convergence threshold =      7.3E-08
     mixing beta               =       0.0500
     number of iterations used =            8  plain     mixing
     Exchange-correlation= BEEF-VDW
                           (   1   4  43  14   2   0   0)

     celldm(1)=   1.889726  celldm(2)=   0.000000  celldm(3)=   0.000000
     celldm(4)=   0.000000  celldm(5)=   0.000000  celldm(6)=   0.000000

     crystal axes: (cart. coord. in units of alat)
               a(1) = (   6.579727   0.000000   0.000000 )
               a(2) = (  -0.000775   5.961596   0.000000 )
               a(3) = (   0.000000   0.000000  25.155947 )

     reciprocal axes: (cart. coord. in units 2 pi/alat)
               b(1) = (  0.151982  0.000020  0.000000 )
               b(2) = (  0.000000  0.167740  0.000000 )
               b(3) = (  0.000000  0.000000  0.039752 )

     PseudoPot. # 1 for Ti read from file:
     /storage/coda1/p-amedford6/0/shared/rich_project_chbe-medford/medford-share/data/pseudos_module/espresso/nninc/pbe/van/Ti.UPF
     MD5 check sum: 8e4df49b7f0d34bbd5052bf3f5ea0213
     Pseudo is Ultrasoft, Zval = 12.0
     Generated by new atomic code, or converted to UPF format
     Using radial grid of  851 points,  6 beta functions with:
                l(1) =   0
                l(2) =   0
                l(3) =   1
                l(4) =   1
                l(5) =   2
                l(6) =   2
     Q(r) pseudized with  8 coefficients,  rinner =    1.000   1.000   1.000
                                                       1.000   1.000

     PseudoPot. # 2 for O  read from file:
     /storage/coda1/p-amedford6/0/shared/rich_project_chbe-medford/medford-share/data/pseudos_module/espresso/nninc/pbe/van/O.UPF
     MD5 check sum: 78c19812648e8988a0fe644b0f25305e
     Pseudo is Ultrasoft, Zval =  6.0
     Generated by new atomic code, or converted to UPF format
     Using radial grid of  737 points,  4 beta functions with:
                l(1) =   0
                l(2) =   0
                l(3) =   1
                l(4) =   1
     Q(r) pseudized with  8 coefficients,  rinner =    0.800   0.800   0.800

     PseudoPot. # 3 for C  read from file:
     /storage/coda1/p-amedford6/0/shared/rich_project_chbe-medford/medford-share/data/pseudos_module/espresso/nninc/pbe/van/C.UPF
     MD5 check sum: 1a69bf6b8db32088f5b2163dbdb77a27
     Pseudo is Ultrasoft, Zval =  4.0
     Generated by new atomic code, or converted to UPF format
     Using radial grid of  721 points,  4 beta functions with:
                l(1) =   0
                l(2) =   0
                l(3) =   1
                l(4) =   1
     Q(r) pseudized with  8 coefficients,  rinner =    0.800   0.800   0.800

     PseudoPot. # 4 for H  read from file:
     /storage/coda1/p-amedford6/0/shared/rich_project_chbe-medford/medford-share/data/pseudos_module/espresso/nninc/pbe/van/H.UPF
     MD5 check sum: b5ee9d7bfd3a09ee7748110bda690ff7
     Pseudo is Ultrasoft, Zval =  1.0
     Generated by new atomic code, or converted to UPF format
     Using radial grid of  615 points,  1 beta functions with:
                l(1) =   0
     Q(r) pseudized with  8 coefficients,  rinner =    0.800

     atomic species   valence    mass     pseudopotential
        Ti1           12.00    47.86700     Ti( 1.00)
        O1             6.00    15.99900     O ( 1.00)
        C1             4.00    12.01100     C ( 1.00)
        H1             1.00     1.00800     H ( 1.00)

     No symmetry found

   Cartesian axes

     site n.     atom                  positions (alat units)
         1           Ti1 tau(   1) = (   0.0004258   2.9801865   6.0000000  )
         2           Ti1 tau(   2) = (   3.2906075   1.4906267   6.0002472  )
         3           O1  tau(   3) = (   0.0006271   0.0005054   7.9858123  )
         4           O1  tau(   4) = (   3.2906025   0.0005020   7.3038282  )
         5           O1  tau(   5) = (   4.5942328   1.4918067   9.2879030  )
         6           O1  tau(   6) = (   1.9868534   1.4903216   9.2879459  )
         7           Ti1 tau(   7) = (   3.2776386   2.8603028   9.2190116  )
         8           Ti1 tau(   8) = (   6.5598479   1.4304724   9.3580194  )
         9           O1  tau(   9) = (   3.2889234   5.9509398  11.3217173  )
        10           O1  tau(  10) = (   6.5764018   5.9495644  10.5876710  )
        11           O1  tau(  11) = (   1.2812264   1.4943635  12.6442538  )
        12           O1  tau(  12) = (   5.3065913   1.4950901  12.6410841  )
        13           Ti1 tau(  13) = (   0.0201148   2.8652118  12.8170930  )
        14           Ti1 tau(  14) = (   3.2957237   1.3106547  12.6889287  )
        15           O1  tau(  15) = (   6.5548780   5.9443598  14.6367865  )
        16           O1  tau(  16) = (   3.2877845   0.0417723  13.9217912  )
        17           O1  tau(  17) = (   4.5532326   1.5761655  16.0783859  )
        18           O1  tau(  18) = (   2.0366504   1.5601698  16.0762102  )
        19           Ti1 tau(  19) = (   3.2678531   3.0297845  15.6708759  )
        20           Ti1 tau(  20) = (   6.4629285   1.5188837  16.1410570  )
        21           O1  tau(  21) = (   3.2904802   0.0005063   4.7018136  )
        22           O1  tau(  22) = (   6.5629482   0.0231895  17.1619738  )
        23           O1  tau(  23) = (   1.3043587   1.4918075   6.0039043  )
        24           O1  tau(  24) = (   5.2767064   1.4903225   6.0039473  )
        25           Ti1 tau(  25) = (   0.0000382   5.9609847   6.0000000  )
        26           Ti1 tau(  26) = (   3.2902200   4.4714249   6.0002472  )
        27           O1  tau(  27) = (   0.0002396   2.9813036   7.9858123  )
        28           O1  tau(  28) = (   3.2902150   2.9813002   7.3038282  )
        29           O1  tau(  29) = (   4.5938453   4.4726049   9.2879030  )
        30           O1  tau(  30) = (   1.9864658   4.4711199   9.2879459  )
        31           Ti1 tau(  31) = (   3.2699525   5.8470351   9.1790592  )
        32           Ti1 tau(  32) = (   6.5580068   4.3764721   9.3475679  )
        33           O1  tau(  33) = (   3.2877686   3.0124297  11.2895287  )
        34           O1  tau(  34) = (   0.0005883   2.9642609  10.5504472  )
        35           O1  tau(  35) = (   1.2748618   4.4645017  12.6259732  )
        36           O1  tau(  36) = (   5.2954498   4.4639995  12.6225180  )
        37           Ti1 tau(  37) = (   6.5558271   5.8472513  12.6028672  )
        38           Ti1 tau(  38) = (   3.2807834   4.4064534  12.4217905  )
        39           O1  tau(  39) = (   6.5786029   2.9813041  14.7145626  )
        40           O1  tau(  40) = (   3.2869290   2.9992676  13.8921391  )
        41           O1  tau(  41) = (   4.5413935   4.4541386  16.0960746  )
        42           O1  tau(  42) = (   2.0104822   4.4576224  16.0708021  )
        43           Ti1 tau(  43) = (   3.1667734   0.0431258  16.3165854  )
        44           Ti1 tau(  44) = (   6.5007865   4.6242813  15.9014112  )
        45           O1  tau(  45) = (   3.2900926   2.9813045   4.7018136  )
        46           O1  tau(  46) = (   1.3039711   4.4726057   6.0039043  )
        47           O1  tau(  47) = (   5.2763189   4.4711207   6.0039473  )
        48           C1  tau(  48) = (   0.0287742   2.9159372  17.8309569  )
        49           H1  tau(  49) = (   0.0209232   3.9694834  18.1111783  )
        50           H1  tau(  50) = (   0.9459818   2.5003430  18.2552837  )
        51           H1  tau(  51) = (   5.7514102   2.4667126  18.3442606  )
        52           O1  tau(  52) = (   3.2249103   0.0683284  18.1361362  )
        53           H1  tau(  53) = (   3.4957875   5.2839856  18.6954204  )

     number of k points=    10  Fermi-Dirac smearing, width (Ry)=  0.0073
                       cart. coord. in units 2pi/alat
        k(    1) = (   0.0000000   0.0000000   0.0000000), wk =   0.1250000
        k(    2) = (   0.0000000   0.0419351   0.0000000), wk =   0.2500000
        k(    3) = (   0.0000000  -0.0838702   0.0000000), wk =   0.1250000
        k(    4) = (   0.0379955   0.0000049   0.0000000), wk =   0.2500000
        k(    5) = (   0.0379955   0.0419400   0.0000000), wk =   0.2500000
        k(    6) = (   0.0379955  -0.0838652   0.0000000), wk =   0.2500000
        k(    7) = (   0.0379955  -0.0419301   0.0000000), wk =   0.2500000
        k(    8) = (  -0.0759910  -0.0000099   0.0000000), wk =   0.1250000
        k(    9) = (  -0.0759910   0.0419252   0.0000000), wk =   0.2500000
        k(   10) = (  -0.0759910  -0.0838800   0.0000000), wk =   0.1250000

     Initial potential from superposition of free atoms

     starting charge  375.99917, renormalised to  392.00000

     negative rho (up, down):  1.891E-02 0.000E+00

     %%%%%%%%%%%%%%%%%%%%%%%%%%%%%%%%%%%%%%%%%%%%%%%%%%%%%%%%%%%%%%%%%%%%%%%%
     %                                                                      %
     % You are using vdW-DF, which was implemented by the Thonhauser group. %
     % Please cite the following two papers that made this development      %
     % possible and the two reviews that describe the various versions:     %
     %                                                                      %
     %   T. Thonhauser et al., PRL 115, 136402 (2015).                      %
     %   T. Thonhauser et al., PRB 76, 125112 (2007).                       %
     %   K. Berland et al., Rep. Prog. Phys. 78, 066501 (2015).             %
     %   D.C. Langreth et al., J. Phys.: Condens. Matter 21, 084203 (2009). %
     %                                                                      %
     %                                                                      %
     % If you are calculating the stress with vdW-DF, please also cite:     %
     %                                                                      %
     %   R. Sabatini et al., J. Phys.: Condens. Matter 24, 424209 (2012).   %
     %                                                                      %
     %%%%%%%%%%%%%%%%%%%%%%%%%%%%%%%%%%%%%%%%%%%%%%%%%%%%%%%%%%%%%%%%%%%%%%%%

     Adding external electric field

     Computed dipole along edir(3) :
        Dipole               -5.0034 Ry au,        -12.7174 Debye
        Dipole field         -0.0094 Ry au,

        Potential amp.        0.8753 Ry
        Total length         46.3494 bohr

     Starting wfcs are  296 atomic wfcs
  @ DRIVER MODE: Message from server: STATUS
  @ DRIVER MODE: Message from server: POSDATA
  @ DRIVER MODE: Reading and sharing cell
  @ DRIVER MODE: Reading and sharing positions
  @ DRIVER MODE: Received positions

     Self-consistent Calculation

     iteration #  1     ecut=    29.40 Ry     beta= 0.05
     Davidson diagonalization with overlap
     c_bands:  5 eigenvalues not converged
     c_bands:  4 eigenvalues not converged
     c_bands:  5 eigenvalues not converged
     c_bands:  3 eigenvalues not converged
     c_bands:  2 eigenvalues not converged
     c_bands:  2 eigenvalues not converged
     c_bands:  1 eigenvalues not converged
     c_bands:  2 eigenvalues not converged
     c_bands:  3 eigenvalues not converged
     ethr =  1.00E-05,  avg # of iterations = 19.8

[...]

     total energy              =   -2842.08425668 Ry
     estimated scf accuracy    <    1001.18706670 Ry

     iteration #  2     ecut=    29.40 Ry     beta= 0.05
     Davidson diagonalization with overlap
     ethr =  1.00E-02,  avg # of iterations = 16.2

[...]

     iteration # 36     ecut=    29.40 Ry     beta= 0.05
     Davidson diagonalization with overlap
     c_bands:  1 eigenvalues not converged
     c_bands:  1 eigenvalues not converged
     ethr =  3.23E-07,  avg # of iterations = 11.5

[...]

     total energy              =   -2932.63114987 Ry
     estimated scf accuracy    <       0.00000013 Ry

     iteration # 63     ecut=    29.40 Ry     beta= 0.05
     Davidson diagonalization with overlap
     ethr =  2.31E-11,  avg # of iterations =  4.7

     negative rho (up, down):  1.833E-02 0.000E+00

     Adding external electric field

     Computed dipole along edir(3) :
        Dipole                0.4029 Ry au,          1.0240 Debye
        Dipole field          0.0008 Ry au,

        Potential amp.       -0.0705 Ry
        Total length         46.3494 bohr

     End of self-consistent calculation

          k = 0.0000 0.0000 0.0000 ( 18029 PWs)   bands (ev):

   -56.6137 -56.5636 -56.0770 -56.0396 -56.0048 -55.9341 -55.9079 -55.8946
   -55.8538 -55.8481 -55.8056 -55.7824 -55.7269 -55.6353 -55.2252 -55.1913
   -33.0255 -32.8786 -32.8244 -32.7924 -32.6967 -32.6516 -32.5036 -32.4881
   -32.4495 -32.3437 -32.3243 -32.3179 -32.3125 -32.3045 -32.2861 -32.2688
   -32.2454 -32.2247 -32.2185 -32.1432 -32.1396 -32.1383 -32.1250 -32.1136
   -32.1079 -32.1035 -32.0922 -32.0897 -32.0849 -32.0538 -32.0400 -32.0394
   -32.0097 -31.9995 -31.9955 -31.9832 -31.9677 -31.9511 -31.8919 -31.8588
   -31.8451 -31.8382 -31.6198 -31.5654 -31.5410 -31.4366 -31.3517 -31.2408
   -16.9065 -16.7696 -16.6309 -16.4083 -16.2681 -16.1578 -15.9403 -15.9294
   -15.8076 -15.8033 -15.7616 -15.6363 -15.6215 -15.5852 -15.5735 -15.5494
   -15.5363 -15.5259 -15.5217 -15.4972 -15.4614 -15.4387 -15.3955 -15.3243
   -15.2590 -15.2417 -15.2029 -15.1396 -15.1071 -14.8724 -13.7269 -13.6183
    -9.3762  -4.6578  -4.2960  -4.0800  -3.9658  -3.9237  -3.7863  -3.6403
    -3.4641  -3.3700  -3.2407  -3.2344  -3.1641  -3.1221  -3.1107  -3.1057
    -3.0209  -2.9742  -2.9460  -2.9183  -2.9042  -2.8515  -2.8174  -2.7754
    -2.7543  -2.7529  -2.7088  -2.6805  -2.5355  -2.5051  -2.4885  -2.4804
    -2.4413  -2.4236  -2.3885  -2.3722  -2.2920  -2.2091  -2.1903  -2.1293
    -2.0646  -2.0179  -1.8273  -1.8156  -1.7163  -1.6388  -1.6157  -1.5690
    -1.5298  -1.4885  -1.4215  -1.3955  -1.3080  -1.2532  -1.2001  -1.1884
    -1.1561  -1.1217  -1.0801  -0.9753  -0.9264  -0.9206  -0.8106  -0.7578
    -0.6924  -0.6877  -0.6319  -0.5991  -0.4965  -0.4784  -0.4456  -0.4095
    -0.3774  -0.3541  -0.2964  -0.2752  -0.2463  -0.1849  -0.1456  -0.1265
    -0.0971  -0.0823  -0.0182   0.0387   0.0576   0.1641   0.1832   0.2186
     0.2897   0.3796   0.4330   0.5203   0.6934   0.7922   0.8262   0.9373
     1.0070   1.0529   1.3437   1.3897   2.6879   2.8500   3.1293   3.2820
     3.3045   3.3600   3.4070   3.4628   3.6215   3.6615

[...]

          k = 0.0380-0.0419 0.0000 ( 17876 PWs)   bands (ev):

[...]

          k =-0.0760-0.0000 0.0000 ( 17886 PWs)   bands (ev):

[...]

          k =-0.0760-0.0839 0.0000 ( 17948 PWs)   bands (ev):

   -56.6072 -56.5699 -56.0760 -56.0373 -56.0002 -55.9386 -55.9100 -55.8954
   -55.8518 -55.8397 -55.8139 -55.7805 -55.7289 -55.6371 -55.2085 -55.2079
   -32.8744 -32.8580 -32.8283 -32.8260 -32.7589 -32.7272 -32.3819 -32.3573
   -32.3440 -32.3220 -32.2922 -32.2899 -32.2670 -32.2631 -32.2500 -32.2428
   -32.2196 -32.2173 -32.2075 -32.1883 -32.1838 -32.1656 -32.1607 -32.1368
   -32.1336 -32.1333 -32.1195 -32.1039 -32.0999 -32.0705 -32.0620 -32.0496
   -32.0477 -32.0408 -32.0069 -32.0044 -31.9905 -31.9871 -31.9687 -31.8930
   -31.8817 -31.8486 -31.5542 -31.5539 -31.4354 -31.4336 -31.3939 -31.3929
   -16.8910 -16.1664 -16.0828 -16.0766 -16.0659 -16.0361 -15.9907 -15.9214
   -15.9186 -15.8255 -15.7934 -15.7581 -15.7236 -15.7080 -15.6546 -15.6498
   -15.6329 -15.5685 -15.5261 -15.4995 -15.4814 -15.4769 -15.4488 -15.4295
   -15.4178 -15.3987 -15.3332 -15.2996 -15.2226 -15.0125 -13.7227 -13.7213
    -9.3908  -4.6652  -3.3947  -3.3249  -3.2537  -3.2347  -3.1568  -3.1113
    -3.0980  -3.0744  -3.0497  -3.0169  -2.9886  -2.9732  -2.9265  -2.9152
    -2.9090  -2.9061  -2.8974  -2.8847  -2.8586  -2.8057  -2.7957  -2.7894
    -2.7686  -2.7624  -2.7462  -2.7255  -2.6806  -2.6645  -2.6220  -2.4587
    -2.4302  -2.4227  -2.3748  -2.3517  -2.3016  -2.2725  -2.1961  -2.1824
    -2.1745  -2.1436  -2.0268  -1.9097  -1.7803  -1.7708  -1.7348  -1.6645
    -1.6292  -1.5651  -1.5366  -1.5134  -1.4879  -1.4449  -1.4257  -1.3382
    -1.3293  -1.2876  -1.2731  -1.2574  -1.1753  -1.1124  -1.0849  -1.0623
    -1.0231  -0.9880  -0.9280  -0.8820  -0.8692  -0.8397  -0.8215  -0.7041
    -0.6700  -0.6400  -0.4919  -0.4577  -0.4500  -0.4012  -0.2503  -0.2078
    -0.1578  -0.1120  -0.0836   0.0465   0.0908   0.1381   0.1451   0.1998
     0.3187   0.3421   0.3861   0.4528   0.4763   0.4867   0.5267   1.0281
     1.1851   1.1879   1.1962   1.2015   3.2294   3.2538   3.2662   3.2974
     3.4705   3.5398   3.5761   3.6039   3.6516   3.7107

     the Fermi energy is     2.0969 ev

!    total energy              =   -2932.63118649 Ry
     estimated scf accuracy    <       0.00000003 Ry
     smearing contrib. (-TS)   =      -0.00015672 Ry
     internal energy E=F+TS    =   -2932.63102977 Ry

     The total energy is F=E-TS. E is the sum of the following terms:
     one-electron contribution =  -24308.05538878 Ry
     hartree contribution      =   12238.20242002 Ry
     xc contribution           =    -482.64916641 Ry
     ewald contribution        =    9619.87079912 Ry
     electric field correction =       0.00030628 Ry

     convergence has been achieved in  63 iterations

     Forces acting on atoms (cartesian axes, Ry/au):

     atom    1 type  1   force =     0.00035556   -0.00030985    0.13238822
     atom    2 type  1   force =     0.00005346    0.00688150   -0.15775610
     atom    3 type  2   force =     0.00014713    0.00441124   -0.05307799
     atom    4 type  2   force =    -0.00038331   -0.00087112    0.04047052
     atom    5 type  2   force =    -0.00906894   -0.00264731    0.00214995
     atom    6 type  2   force =     0.00917451   -0.00496095    0.00182016
     atom    7 type  1   force =     0.00069065    0.00107295    0.00047440
     atom    8 type  1   force =    -0.00079085   -0.00013616   -0.00011867
     atom    9 type  2   force =     0.00000567   -0.00017329    0.00051973
     atom   10 type  2   force =     0.00004915   -0.00006662   -0.00012673
     atom   11 type  2   force =    -0.00058301    0.00020995   -0.00038938
     atom   12 type  2   force =    -0.00051908   -0.00055140   -0.00059781
     atom   13 type  1   force =     0.00096049   -0.00085926   -0.00000930
     atom   14 type  1   force =    -0.00105587   -0.00094544    0.00007705
     atom   15 type  2   force =     0.00002823    0.00016759   -0.00080870
     atom   16 type  2   force =     0.00010756    0.00004330   -0.00042080
     atom   17 type  2   force =     0.00011511   -0.00007637    0.00007521
     atom   18 type  2   force =    -0.00009947   -0.00015878    0.00029325
     atom   19 type  1   force =     0.00005385   -0.00007833   -0.00090664
     atom   20 type  1   force =    -0.00021308   -0.00029522   -0.00011452
     atom   21 type  2   force =     0.00016202    0.00008666    0.09921256
     atom   22 type  2   force =     0.00012267    0.00014980   -0.00003623
     atom   23 type  2   force =    -0.08041734    0.00141644   -0.03414965
     atom   24 type  2   force =     0.08050490    0.00191636   -0.03419137
     atom   25 type  1   force =     0.00021273   -0.00004552    0.14218685
     atom   26 type  1   force =     0.00010295   -0.00848094   -0.15822904
     atom   27 type  2   force =    -0.00010995   -0.00043468   -0.05130105
     atom   28 type  2   force =    -0.00024895   -0.00030634    0.04226145
     atom   29 type  2   force =    -0.00856606    0.00487543    0.00031596
     atom   30 type  2   force =     0.00771749    0.00352564    0.00001856
     atom   31 type  1   force =     0.00054136   -0.00129298    0.00089746
     atom   32 type  1   force =    -0.00091386    0.00037352   -0.00077127
     atom   33 type  2   force =     0.00001973   -0.00027761   -0.00017085
     atom   34 type  2   force =     0.00000320   -0.00100196    0.00033936
     atom   35 type  2   force =    -0.00038981    0.00005671   -0.00020696
     atom   36 type  2   force =     0.00021204   -0.00021187   -0.00022658
     atom   37 type  1   force =     0.00101660    0.00078694    0.00045725
     atom   38 type  1   force =    -0.00048065    0.00001859    0.00018661
     atom   39 type  2   force =    -0.00026625   -0.00026348   -0.00016313
     atom   40 type  2   force =     0.00025036   -0.00028455   -0.00000866
     atom   41 type  2   force =     0.00010440   -0.00008030   -0.00001178
     atom   42 type  2   force =    -0.00002370    0.00018038   -0.00009206
     atom   43 type  1   force =    -0.00005011    0.00037975   -0.00082905
     atom   44 type  1   force =     0.00037119    0.00012505    0.00000537
     atom   45 type  2   force =     0.00015644    0.00004247    0.09875119
     atom   46 type  2   force =    -0.08045406   -0.00101317   -0.03415416
     atom   47 type  2   force =     0.08054620   -0.00053174   -0.03418977
     atom   48 type  3   force =    -0.00020780    0.00006198   -0.00024720
     atom   49 type  4   force =    -0.00004938    0.00014862    0.00060176
     atom   50 type  4   force =     0.00007297   -0.00029368    0.00044941
     atom   51 type  4   force =    -0.00040299   -0.00016127    0.00016570
     atom   52 type  2   force =     0.00218776   -0.00567043    0.00263869
     atom   53 type  4   force =    -0.00075186    0.00554975   -0.00345116

     Total force =     0.383855     Total SCF correction =     0.000368
  @ DRIVER MODE: Message from server: STATUS
  @ DRIVER MODE: Message from server: GETFORCE
  @ DRIVER MODE: Returning v,forces,stress,ensemble

     Writing output data file ./calc.save/
  @ DRIVER MODE: Message from server: EXIT
  @ DRIVE MODE: Exiting

     General routines

     Parallel routines

   This run was terminated on:   9:26: 5  23Sep2021

   JOB DONE.