     Program PWSCF v.6.7GPU starts on 20Sep2021 at 16:40:42

     R & G space division:  proc/nbgrp/npool/nimage =      10
     Reading input from /storage/home/hcoda1/3/ntian30/research/carbon/CxH_vib/CH3_calc/ads_slab/CH3O_a/out_0026/pw.inp
Warning: card &CELL ignored
Warning: card   CELL_DYNAMICS='IPI', ignored
Warning: card / ignored

     Current dimensions of program PWSCF are:
     Max number of different atomic species (ntypx) = 10
     Max number of k-points (npk) =  40000
     Max angular momentum in pseudopotentials (lmaxx) =  3
     Presently no symmetry can be used with electric field

     Message from routine cell_base_init:
     DEPRECATED: use true lattice parameter, not A to a.u. conversion factor

     IMPORTANT: XC functional enforced from input :
     Exchange-correlation= BEEF-VDW
                           (   1   4  43  14   2   0   0)
     Any further DFT definition will be discarded
     Please, verify this is what you really want

  @ DRIVER MODE: Connecting to
 qe_1139763_2907627.sched-torque.pace.gatech.edugti_fa78_scratch
  using UNIX socket
  @ DRIVER MODE: Message from server: STATUS
  @ DRIVER MODE: Message from server: INIT
  @ DRIVER MODE: Receiving replica           0          -1
  @ DRIVER MODE: Receiving encoded integer          25
  @ DRIVER MODE:  SCF:  T  FORCE:  T  STRESS:  F  VC:  F  ENSEMBLE:  F
  @ DRIVER MODE:  SCF:  T  FORCE:  T  STRESS:  F  VC:  F  ENSEMBLE:  F

     Using Slab Decomposition

     bravais-lattice index     =            0
     lattice parameter (alat)  =       1.8897  a.u.
     unit-cell volume          =    6658.9804 (a.u.)^3
     number of atoms/cell      =           52
     number of atomic types    =            4
     number of electrons       =       391.00
     number of Kohn-Sham states=          205
     kinetic-energy cutoff     =      29.3995  Ry
     charge density cutoff     =     293.9946  Ry
     scf convergence threshold =      7.3E-08
     mixing beta               =       0.0500
     number of iterations used =            8  plain     mixing
     Exchange-correlation= BEEF-VDW
                           (   1   4  43  14   2   0   0)

     celldm(1)=   1.889726  celldm(2)=   0.000000  celldm(3)=   0.000000
     celldm(4)=   0.000000  celldm(5)=   0.000000  celldm(6)=   0.000000

     crystal axes: (cart. coord. in units of alat)
               a(1) = (   6.579727   0.000000   0.000000 )
               a(2) = (  -0.000775   5.961596   0.000000 )
               a(3) = (   0.000000   0.000000  25.155947 )

     reciprocal axes: (cart. coord. in units 2 pi/alat)
               b(1) = (  0.151982  0.000020  0.000000 )
               b(2) = (  0.000000  0.167740  0.000000 )
               b(3) = (  0.000000  0.000000  0.039752 )

     PseudoPot. # 1 for Ti read from file:
     /storage/coda1/p-amedford6/0/shared/rich_project_chbe-medford/medford-share/data/pseudos_module/espresso/nninc/pbe/van/Ti.UPF
     MD5 check sum: 8e4df49b7f0d34bbd5052bf3f5ea0213
     Pseudo is Ultrasoft, Zval = 12.0
     Generated by new atomic code, or converted to UPF format
     Using radial grid of  851 points,  6 beta functions with:
                l(1) =   0
                l(2) =   0
                l(3) =   1
                l(4) =   1
                l(5) =   2
                l(6) =   2
     Q(r) pseudized with  8 coefficients,  rinner =    1.000   1.000   1.000
                                                       1.000   1.000

     PseudoPot. # 2 for O  read from file:
     /storage/coda1/p-amedford6/0/shared/rich_project_chbe-medford/medford-share/data/pseudos_module/espresso/nninc/pbe/van/O.UPF
     MD5 check sum: 78c19812648e8988a0fe644b0f25305e
     Pseudo is Ultrasoft, Zval =  6.0
     Generated by new atomic code, or converted to UPF format
     Using radial grid of  737 points,  4 beta functions with:
                l(1) =   0
                l(2) =   0
                l(3) =   1
                l(4) =   1
     Q(r) pseudized with  8 coefficients,  rinner =    0.800   0.800   0.800

     PseudoPot. # 3 for C  read from file:
     /storage/coda1/p-amedford6/0/shared/rich_project_chbe-medford/medford-share/data/pseudos_module/espresso/nninc/pbe/van/C.UPF
     MD5 check sum: 1a69bf6b8db32088f5b2163dbdb77a27
     Pseudo is Ultrasoft, Zval =  4.0
     Generated by new atomic code, or converted to UPF format
     Using radial grid of  721 points,  4 beta functions with:
                l(1) =   0
                l(2) =   0
                l(3) =   1
                l(4) =   1
     Q(r) pseudized with  8 coefficients,  rinner =    0.800   0.800   0.800

     PseudoPot. # 4 for H  read from file:
     /storage/coda1/p-amedford6/0/shared/rich_project_chbe-medford/medford-share/data/pseudos_module/espresso/nninc/pbe/van/H.UPF
     MD5 check sum: b5ee9d7bfd3a09ee7748110bda690ff7
     Pseudo is Ultrasoft, Zval =  1.0
     Generated by new atomic code, or converted to UPF format
     Using radial grid of  615 points,  1 beta functions with:
                l(1) =   0
     Q(r) pseudized with  8 coefficients,  rinner =    0.800

     atomic species   valence    mass     pseudopotential
        Ti1           12.00    47.86700     Ti( 1.00)
        O1             6.00    15.99900     O ( 1.00)
        C1             4.00    12.01100     C ( 1.00)
        H1             1.00     1.00800     H ( 1.00)

     No symmetry found

   Cartesian axes

     site n.     atom                  positions (alat units)
         1           Ti1 tau(   1) = (   0.0004258   2.9801865   6.0000000  )
         2           Ti1 tau(   2) = (   3.2906075   1.4906267   6.0002472  )
         3           O1  tau(   3) = (   0.0006271   0.0005054   7.9858123  )
         4           O1  tau(   4) = (   3.2906025   0.0005020   7.3038282  )
         5           O1  tau(   5) = (   4.5942328   1.4918067   9.2879030  )
         6           O1  tau(   6) = (   1.9868534   1.4903216   9.2879459  )
         7           Ti1 tau(   7) = (   3.3187032   3.0312427   9.1575206  )
         8           Ti1 tau(   8) = (   0.0282419   1.6147502   9.3704053  )
         9           O1  tau(   9) = (   3.3236385   0.0141534  11.3532293  )
        10           O1  tau(  10) = (   0.0104197   0.0125229  10.6127740  )
        11           O1  tau(  11) = (   1.3245732   1.5021988  12.6430083  )
        12           O1  tau(  12) = (   5.3244981   1.5061434  12.6562219  )
        13           Ti1 tau(  13) = (   0.0403031   3.0097444  12.8244759  )
        14           Ti1 tau(  14) = (   3.3296682   1.5108177  12.4986020  )
        15           O1  tau(  15) = (   0.0398480   0.0117783  14.7343716  )
        16           O1  tau(  16) = (   3.3300567   0.0146708  13.9469669  )
        17           O1  tau(  17) = (   4.5805658   1.5026465  16.1145873  )
        18           O1  tau(  18) = (   2.0880061   1.5021997  16.1152651  )
        19           Ti1 tau(  19) = (   3.3307167   2.9906167  15.7324548  )
        20           Ti1 tau(  20) = (   0.0579274   1.3843852  16.1188819  )
        21           O1  tau(  21) = (   3.2904802   0.0005063   4.7018136  )
        22           O1  tau(  22) = (   0.0436517   5.9586681  17.2572535  )
        23           O1  tau(  23) = (   1.3043587   1.4918075   6.0039043  )
        24           O1  tau(  24) = (   5.2767064   1.4903225   6.0039473  )
        25           Ti1 tau(  25) = (   0.0000382   5.9609847   6.0000000  )
        26           Ti1 tau(  26) = (   3.2902200   4.4714249   6.0002472  )
        27           O1  tau(  27) = (   0.0002396   2.9813036   7.9858123  )
        28           O1  tau(  28) = (   3.2902150   2.9813002   7.3038282  )
        29           O1  tau(  29) = (   4.5938453   4.4726049   9.2879030  )
        30           O1  tau(  30) = (   1.9864658   4.4711199   9.2879459  )
        31           Ti1 tau(  31) = (   3.3083866   0.0539517   9.1541167  )
        32           Ti1 tau(  32) = (   0.0315341   4.5377404   9.2709708  )
        33           O1  tau(  33) = (   3.3215087   2.9954721  11.3555336  )
        34           O1  tau(  34) = (   0.0112336   2.9957203  10.5730616  )
        35           O1  tau(  35) = (   1.3257220   4.4896437  12.6447561  )
        36           O1  tau(  36) = (   5.3225596   4.4851362  12.6583724  )
        37           Ti1 tau(  37) = (   0.0354833   0.0274604  12.5282598  )
        38           Ti1 tau(  38) = (   3.3297026   4.4921445  12.4963722  )
        39           O1  tau(  39) = (   0.0599690   3.0154325  14.7102929  )
        40           O1  tau(  40) = (   3.3251099   2.9889739  13.9402376  )
        41           O1  tau(  41) = (   4.5781535   4.4756942  16.0984728  )
        42           O1  tau(  42) = (   2.0867977   4.4764083  16.0997756  )
        43           Ti1 tau(  43) = (   3.3478802   0.0108728  15.7387323  )
        44           Ti1 tau(  44) = (   0.0598937   4.5429110  15.9843511  )
        45           O1  tau(  45) = (   3.2900926   2.9813045   4.7018136  )
        46           O1  tau(  46) = (   1.3039711   4.4726057   6.0039043  )
        47           O1  tau(  47) = (   5.2763189   4.4711207   6.0039473  )
        48           C1  tau(  48) = (   6.0696523   3.0631652  18.6664891  )
        49           O1  tau(  49) = (   0.0149881   2.9985468  17.3426271  )
        50           H1  tau(  50) = (   4.9903245   2.8753800  18.6581135  )
        51           H1  tau(  51) = (   6.5502243   2.3063723  19.2898855  )
        52           H1  tau(  52) = (   6.2608803   4.0560215  19.0798806  )

     number of k points=    10  Fermi-Dirac smearing, width (Ry)=  0.0073
                       cart. coord. in units 2pi/alat
        k(    1) = (   0.0000000   0.0000000   0.0000000), wk =   0.1250000
        k(    2) = (   0.0000000   0.0419351   0.0000000), wk =   0.2500000
        k(    3) = (   0.0000000  -0.0838702   0.0000000), wk =   0.1250000
        k(    4) = (   0.0379955   0.0000049   0.0000000), wk =   0.2500000
        k(    5) = (   0.0379955   0.0419400   0.0000000), wk =   0.2500000
        k(    6) = (   0.0379955  -0.0838652   0.0000000), wk =   0.2500000
        k(    7) = (   0.0379955  -0.0419301   0.0000000), wk =   0.2500000
        k(    8) = (  -0.0759910  -0.0000099   0.0000000), wk =   0.1250000
        k(    9) = (  -0.0759910   0.0419252   0.0000000), wk =   0.2500000
        k(   10) = (  -0.0759910  -0.0838800   0.0000000), wk =   0.1250000

     Initial potential from superposition of free atoms

     starting charge  374.99918, renormalised to  391.00000

     negative rho (up, down):  1.819E-02 0.000E+00

     %%%%%%%%%%%%%%%%%%%%%%%%%%%%%%%%%%%%%%%%%%%%%%%%%%%%%%%%%%%%%%%%%%%%%%%%
     %                                                                      %
     % You are using vdW-DF, which was implemented by the Thonhauser group. %
     % Please cite the following two papers that made this development      %
     % possible and the two reviews that describe the various versions:     %
     %                                                                      %
     %   T. Thonhauser et al., PRL 115, 136402 (2015).                      %
     %   T. Thonhauser et al., PRB 76, 125112 (2007).                       %
     %   K. Berland et al., Rep. Prog. Phys. 78, 066501 (2015).             %
     %   D.C. Langreth et al., J. Phys.: Condens. Matter 21, 084203 (2009). %
     %                                                                      %
     %                                                                      %
     % If you are calculating the stress with vdW-DF, please also cite:     %
     %                                                                      %
     %   R. Sabatini et al., J. Phys.: Condens. Matter 24, 424209 (2012).   %
     %                                                                      %
     %%%%%%%%%%%%%%%%%%%%%%%%%%%%%%%%%%%%%%%%%%%%%%%%%%%%%%%%%%%%%%%%%%%%%%%%

     Adding external electric field

     Computed dipole along edir(3) :
        Dipole               -5.5401 Ry au,        -14.0815 Debye
        Dipole field         -0.0105 Ry au,

        Potential amp.        0.9692 Ry
        Total length         46.3494 bohr

     Starting wfcs are  295 atomic wfcs
  @ DRIVER MODE: Message from server: STATUS
  @ DRIVER MODE: Message from server: POSDATA
  @ DRIVER MODE: Reading and sharing cell
  @ DRIVER MODE: Reading and sharing positions
  @ DRIVER MODE: Received positions

     Self-consistent Calculation

     iteration #  1     ecut=    29.40 Ry     beta= 0.05
     Davidson diagonalization with overlap
     c_bands:  3 eigenvalues not converged
     c_bands:  2 eigenvalues not converged
     c_bands:  3 eigenvalues not converged
     c_bands:  2 eigenvalues not converged
     c_bands:  3 eigenvalues not converged
     c_bands:  2 eigenvalues not converged
     c_bands:  1 eigenvalues not converged
     c_bands:  1 eigenvalues not converged
     c_bands:  2 eigenvalues not converged
     ethr =  1.00E-05,  avg # of iterations = 19.7

[...]

     total energy              =   -2791.63938932 Ry
     estimated scf accuracy    <    1532.16513933 Ry

     iteration #  2     ecut=    29.40 Ry     beta= 0.05
     Davidson diagonalization with overlap
     ethr =  1.00E-02,  avg # of iterations = 17.9

[...]

     iteration # 78     ecut=    29.40 Ry     beta= 0.05
     Davidson diagonalization with overlap
     c_bands:  1 eigenvalues not converged
     ethr =  3.38E-11,  avg # of iterations =  8.1

[...]

     total energy              =   -2931.50285414 Ry
     estimated scf accuracy    <       0.00000009 Ry

     iteration # 79     ecut=    29.40 Ry     beta= 0.05
     Davidson diagonalization with overlap
     ethr =  2.40E-11,  avg # of iterations = 10.4

     negative rho (up, down):  1.843E-02 0.000E+00

     Adding external electric field

     Computed dipole along edir(3) :
        Dipole                0.7528 Ry au,          1.9135 Debye
        Dipole field          0.0014 Ry au,

        Potential amp.       -0.1317 Ry
        Total length         46.3494 bohr

     End of self-consistent calculation

          k = 0.0000 0.0000 0.0000 ( 18029 PWs)   bands (ev):

   -55.9540 -55.9393 -55.9173 -55.9031 -55.8385 -55.8345 -55.8129 -55.7832
   -55.7789 -55.7280 -55.7183 -55.7127 -55.6786 -55.5955 -54.9673 -54.9332
   -32.5049 -32.4213 -32.3497 -32.2970 -32.2717 -32.2521 -32.2448 -32.2222
   -32.1912 -32.1784 -32.1583 -32.1530 -32.1496 -32.1199 -32.1147 -32.0927
   -32.0870 -32.0852 -32.0695 -32.0440 -32.0430 -32.0195 -32.0132 -31.9954
   -31.9952 -31.9943 -31.9657 -31.9654 -31.9533 -31.9433 -31.9368 -31.9337
   -31.9263 -31.9142 -31.8889 -31.8862 -31.8771 -31.8562 -31.8202 -31.8148
   -31.7922 -31.7842 -31.3774 -31.2797 -31.2574 -31.1939 -31.1078 -30.9968
   -17.6717 -16.6819 -16.3960 -16.2325 -16.0999 -16.0640 -15.9608 -15.7763
   -15.6376 -15.6201 -15.5563 -15.5172 -15.5017 -15.4756 -15.4719 -15.4587
   -15.4560 -15.4067 -15.3712 -15.3702 -15.3548 -15.3326 -15.2715 -15.2304
   -15.1485 -15.0950 -15.0703 -15.0151 -14.9534 -14.9343 -13.4681 -13.3498
    -9.4941  -4.3942  -4.1382  -4.0407  -3.8787  -3.8631  -3.8383  -3.8148
    -3.7531  -3.5025  -3.4874  -3.1679  -3.1091  -3.0847  -3.0707  -3.0647
    -2.8257  -2.8070  -2.7784  -2.7681  -2.7600  -2.7308  -2.7033  -2.6935
    -2.6699  -2.6538  -2.5560  -2.4783  -2.4697  -2.3613  -2.3155  -2.3042
    -2.2539  -2.2157  -2.2082  -2.1886  -2.1637  -2.1465  -2.1184  -2.1152
    -2.0194  -1.8896  -1.7846  -1.7541  -1.7121  -1.6538  -1.4476  -1.4020
    -1.3670  -1.3535  -1.2963  -1.2639  -1.2557  -1.1815  -1.1436  -1.1272
    -1.0201  -0.9591  -0.9294  -0.9073  -0.8443  -0.8088  -0.7601  -0.6896
    -0.6708  -0.6559  -0.4425  -0.4181  -0.4121  -0.4010  -0.2890  -0.2374
    -0.1810  -0.1702  -0.1580  -0.1269  -0.0555   0.0093   0.0205   0.0427
     0.0756   0.1021   0.1782   0.2082   0.2318   0.2559   0.2893   0.3761
     0.4223   0.5641   0.6933   0.7147   0.8157   0.9590   1.0570   1.1297
     1.2273   1.6466   1.7068   3.2316   3.2509   3.2956   3.3252   3.3837
     3.5051   3.6243   3.6596   3.6945   3.7165

[...]

          k = 0.0380-0.0419 0.0000 ( 17876 PWs)   bands (ev):

[...]

          k =-0.0760-0.0000 0.0000 ( 17886 PWs)   bands (ev):

[...]

          k =-0.0760-0.0839 0.0000 ( 17948 PWs)   bands (ev):

   -55.9425 -55.9287 -55.9214 -55.9208 -55.8332 -55.8315 -55.7964 -55.7955
   -55.7884 -55.7252 -55.7208 -55.6989 -55.6927 -55.5977 -54.9508 -54.9495
   -32.3090 -32.3046 -32.2494 -32.2449 -32.2340 -32.2302 -32.2125 -32.2071
   -32.2035 -32.1606 -32.1398 -32.1328 -32.1290 -32.0918 -32.0828 -32.0771
   -32.0692 -32.0655 -32.0624 -32.0602 -32.0500 -32.0377 -32.0337 -32.0278
   -32.0200 -32.0154 -32.0122 -31.9997 -31.9947 -31.9933 -31.9680 -31.9509
   -31.9487 -31.9452 -31.9388 -31.9222 -31.9193 -31.9082 -31.9025 -31.8906
   -31.8279 -31.7922 -31.2708 -31.2693 -31.1908 -31.1898 -31.1514 -31.1503
   -17.6344 -16.1226 -16.1065 -15.8726 -15.8670 -15.8626 -15.7929 -15.7078
   -15.6881 -15.6727 -15.6670 -15.6120 -15.5978 -15.5861 -15.5251 -15.4874
   -15.4613 -15.4532 -15.4498 -15.4011 -15.3971 -15.3439 -15.3258 -15.3114
   -15.3003 -15.2846 -15.2771 -15.1806 -15.1794 -15.1097 -13.4521 -13.4500
    -9.4948  -4.2617  -4.1079  -3.8802  -3.4128  -3.3948  -3.1133  -3.0813
    -3.0778  -2.9887  -2.9028  -2.8606  -2.8246  -2.7924  -2.7880  -2.7856
    -2.7659  -2.7366  -2.7329  -2.7127  -2.6922  -2.6813  -2.6271  -2.5916
    -2.5831  -2.5809  -2.5695  -2.5403  -2.5243  -2.5026  -2.4939  -2.4845
    -2.4640  -2.3661  -2.2365  -2.2039  -2.0918  -2.0837  -2.0469  -2.0335
    -2.0060  -1.9966  -1.9775  -1.8692  -1.8038  -1.6769  -1.6731  -1.6542
    -1.5966  -1.5270  -1.4559  -1.3880  -1.3656  -1.3505  -1.2532  -1.2409
    -1.1719  -1.1521  -1.0952  -1.0625  -1.0523  -0.9523  -0.9188  -0.9042
    -0.8887  -0.8166  -0.7987  -0.7759  -0.7489  -0.6880  -0.6771  -0.6078
    -0.5730  -0.5290  -0.4654  -0.4412  -0.3927  -0.3039  -0.1266  -0.0471
     0.0556   0.0988   0.1581   0.1711   0.2621   0.3064   0.3208   0.3285
     0.4166   0.4800   0.5092   0.5725   0.5858   0.6117   0.6735   1.4166
     1.4184   1.5092   1.5194   3.4395   3.4701   3.4841   3.5325   3.6917
     3.6969   3.7167   3.7218   3.7953   3.8576

     the Fermi energy is     3.2012 ev

!    total energy              =   -2931.50286177 Ry
     estimated scf accuracy    <       0.00000006 Ry
     smearing contrib. (-TS)   =      -0.02313230 Ry
     internal energy E=F+TS    =   -2931.47972947 Ry

     The total energy is F=E-TS. E is the sum of the following terms:
     one-electron contribution =  -24510.26507093 Ry
     hartree contribution      =   12340.14343983 Ry
     xc contribution           =    -482.05124759 Ry
     ewald contribution        =    9720.69207964 Ry
     electric field correction =       0.00106958 Ry

     convergence has been achieved in  79 iterations

     Forces acting on atoms (cartesian axes, Ry/au):

     atom    1 type  1   force =    -0.00013159   -0.00172777    0.10699646
     atom    2 type  1   force =    -0.00041229    0.00039247   -0.17994447
     atom    3 type  2   force =     0.00029684   -0.00714827   -0.03304179
     atom    4 type  2   force =     0.00067401    0.00052141    0.04595095
     atom    5 type  2   force =    -0.01813349    0.00043950    0.00391482
     atom    6 type  2   force =     0.02136065   -0.00104158    0.00543534
     atom    7 type  1   force =    -0.00015312   -0.00029955   -0.00014358
     atom    8 type  1   force =    -0.00008691   -0.00030372   -0.00176232
     atom    9 type  2   force =    -0.00030414   -0.00017962    0.00029187
     atom   10 type  2   force =    -0.00014384   -0.00052364    0.00015387
     atom   11 type  2   force =    -0.00033692    0.00013112    0.00060225
     atom   12 type  2   force =    -0.00019478    0.00020852    0.00021312
     atom   13 type  1   force =    -0.00018428   -0.00038746   -0.00100166
     atom   14 type  1   force =     0.00028919    0.00021750   -0.00048130
     atom   15 type  2   force =    -0.00015616    0.00017021   -0.00123085
     atom   16 type  2   force =    -0.00040020   -0.00027132   -0.00087620
     atom   17 type  2   force =    -0.00128048    0.00045322   -0.00070869
     atom   18 type  2   force =     0.00010751    0.00023485   -0.00076734
     atom   19 type  1   force =    -0.00006874   -0.00001189    0.00012103
     atom   20 type  1   force =    -0.00082524   -0.00085531    0.00113753
     atom   21 type  2   force =    -0.00005758    0.00009644    0.10424611
     atom   22 type  2   force =     0.00013568    0.00025008   -0.00082021
     atom   23 type  2   force =    -0.06894847    0.00066317   -0.02970579
     atom   24 type  2   force =     0.06865608    0.00113552   -0.02976271
     atom   25 type  1   force =    -0.00011970    0.00159219    0.11779962
     atom   26 type  1   force =    -0.00016637    0.00003127   -0.17999679
     atom   27 type  2   force =     0.00043597    0.00401605   -0.02693433
     atom   28 type  2   force =     0.00078087    0.00082624    0.04757349
     atom   29 type  2   force =    -0.01695487    0.00167226    0.00318542
     atom   30 type  2   force =     0.01944574    0.00119265    0.00453609
     atom   31 type  1   force =    -0.00025349    0.00054296   -0.00019367
     atom   32 type  1   force =    -0.00001162    0.00019010   -0.00096010
     atom   33 type  2   force =    -0.00030402   -0.00006765   -0.00009377
     atom   34 type  2   force =    -0.00012420    0.00070866    0.00049728
     atom   35 type  2   force =    -0.00029684   -0.00001349    0.00013957
     atom   36 type  2   force =    -0.00021546   -0.00002534   -0.00021128
     atom   37 type  1   force =    -0.00012436    0.00061840    0.00082744
     atom   38 type  1   force =     0.00019862   -0.00030457   -0.00047817
     atom   39 type  2   force =    -0.00026533   -0.00022948    0.00031684
     atom   40 type  2   force =    -0.00034419    0.00023863   -0.00035340
     atom   41 type  2   force =    -0.00077093   -0.00010315   -0.00041206
     atom   42 type  2   force =     0.00029308    0.00011583   -0.00058272
     atom   43 type  1   force =    -0.00011850    0.00019536    0.00054614
     atom   44 type  1   force =    -0.00071459    0.00068717    0.00132963
     atom   45 type  2   force =    -0.00006345    0.00005955    0.10427525
     atom   46 type  2   force =    -0.06849790   -0.00129390   -0.02973437
     atom   47 type  2   force =     0.06831065   -0.00085423   -0.02981312
     atom   48 type  3   force =     0.00218886    0.00043937    0.00020895
     atom   49 type  2   force =    -0.00114107   -0.00020030    0.00037861
     atom   50 type  4   force =     0.00065327    0.00088729    0.00032206
     atom   51 type  4   force =     0.00008916   -0.00114044   -0.00077571
     atom   52 type  4   force =    -0.00161102   -0.00194530   -0.00021332

     Total force =     0.376902     Total SCF correction =     0.000658
  @ DRIVER MODE: Message from server: STATUS
  @ DRIVER MODE: Message from server: GETFORCE
  @ DRIVER MODE: Returning v,forces,stress,ensemble

     Writing output data file ./calc.save/
  @ DRIVER MODE: Message from server: EXIT
  @ DRIVE MODE: Exiting

     General routines

     Parallel routines

   This run was terminated on:  17: 2:41  20Sep2021

   JOB DONE.