     Program PWSCF v.6.7GPU starts on 22Sep2021 at 22:39:32

     R & G space division:  proc/nbgrp/npool/nimage =      10
     Reading input from /storage/home/hcoda1/3/ntian30/research/carbon/CxH_vib/H2O_calc/ads_slab/CHNHNH2H2O_b/out_0019/pw.inp
Warning: card &CELL ignored
Warning: card   CELL_DYNAMICS='IPI', ignored
Warning: card / ignored

     Current dimensions of program PWSCF are:
     Max number of different atomic species (ntypx) = 10
     Max number of k-points (npk) =  40000
     Max angular momentum in pseudopotentials (lmaxx) =  3
     Presently no symmetry can be used with electric field

     Message from routine cell_base_init:
     DEPRECATED: use true lattice parameter, not A to a.u. conversion factor

     IMPORTANT: XC functional enforced from input :
     Exchange-correlation= BEEF-VDW
                           (   1   4  43  14   2   0   0)
     Any further DFT definition will be discarded
     Please, verify this is what you really want

  @ DRIVER MODE: Connecting to
 qe_1139763_2937312.sched-torque.pace.gatech.edu68g6q32t_scratch
  using UNIX socket
  @ DRIVER MODE: Message from server: STATUS
  @ DRIVER MODE: Message from server: INIT
  @ DRIVER MODE: Receiving replica           0          -1
  @ DRIVER MODE: Receiving encoded integer          25
  @ DRIVER MODE:  SCF:  T  FORCE:  T  STRESS:  F  VC:  F  ENSEMBLE:  F
  @ DRIVER MODE:  SCF:  T  FORCE:  T  STRESS:  F  VC:  F  ENSEMBLE:  F

     Using Slab Decomposition

     bravais-lattice index     =            0
     lattice parameter (alat)  =       1.8897  a.u.
     unit-cell volume          =    6658.9804 (a.u.)^3
     number of atoms/cell      =           57
     number of atomic types    =            5
     number of electrons       =       404.00
     number of Kohn-Sham states=          212
     kinetic-energy cutoff     =      29.3995  Ry
     charge density cutoff     =     293.9946  Ry
     scf convergence threshold =      7.3E-08
     mixing beta               =       0.0500
     number of iterations used =            8  plain     mixing
     Exchange-correlation= BEEF-VDW
                           (   1   4  43  14   2   0   0)

     celldm(1)=   1.889726  celldm(2)=   0.000000  celldm(3)=   0.000000
     celldm(4)=   0.000000  celldm(5)=   0.000000  celldm(6)=   0.000000

     crystal axes: (cart. coord. in units of alat)
               a(1) = (   6.579727   0.000000   0.000000 )
               a(2) = (  -0.000775   5.961596   0.000000 )
               a(3) = (   0.000000   0.000000  25.155947 )

     reciprocal axes: (cart. coord. in units 2 pi/alat)
               b(1) = (  0.151982  0.000020  0.000000 )
               b(2) = (  0.000000  0.167740  0.000000 )
               b(3) = (  0.000000  0.000000  0.039752 )

     PseudoPot. # 1 for Ti read from file:
     /storage/coda1/p-amedford6/0/shared/rich_project_chbe-medford/medford-share/data/pseudos_module/espresso/nninc/pbe/van/Ti.UPF
     MD5 check sum: 8e4df49b7f0d34bbd5052bf3f5ea0213
     Pseudo is Ultrasoft, Zval = 12.0
     Generated by new atomic code, or converted to UPF format
     Using radial grid of  851 points,  6 beta functions with:
                l(1) =   0
                l(2) =   0
                l(3) =   1
                l(4) =   1
                l(5) =   2
                l(6) =   2
     Q(r) pseudized with  8 coefficients,  rinner =    1.000   1.000   1.000
                                                       1.000   1.000

     PseudoPot. # 2 for O  read from file:
     /storage/coda1/p-amedford6/0/shared/rich_project_chbe-medford/medford-share/data/pseudos_module/espresso/nninc/pbe/van/O.UPF
     MD5 check sum: 78c19812648e8988a0fe644b0f25305e
     Pseudo is Ultrasoft, Zval =  6.0
     Generated by new atomic code, or converted to UPF format
     Using radial grid of  737 points,  4 beta functions with:
                l(1) =   0
                l(2) =   0
                l(3) =   1
                l(4) =   1
     Q(r) pseudized with  8 coefficients,  rinner =    0.800   0.800   0.800

     PseudoPot. # 3 for N  read from file:
     /storage/coda1/p-amedford6/0/shared/rich_project_chbe-medford/medford-share/data/pseudos_module/espresso/nninc/pbe/van/N.UPF
     MD5 check sum: 90d10febe142ad51ac9d5be1deb811c4
     Pseudo is Ultrasoft, Zval =  5.0
     Generated by new atomic code, or converted to UPF format
     Using radial grid of  729 points,  4 beta functions with:
                l(1) =   0
                l(2) =   0
                l(3) =   1
                l(4) =   1
     Q(r) pseudized with  8 coefficients,  rinner =    0.800   0.800   0.800

     PseudoPot. # 4 for C  read from file:
     /storage/coda1/p-amedford6/0/shared/rich_project_chbe-medford/medford-share/data/pseudos_module/espresso/nninc/pbe/van/C.UPF
     MD5 check sum: 1a69bf6b8db32088f5b2163dbdb77a27
     Pseudo is Ultrasoft, Zval =  4.0
     Generated by new atomic code, or converted to UPF format
     Using radial grid of  721 points,  4 beta functions with:
                l(1) =   0
                l(2) =   0
                l(3) =   1
                l(4) =   1
     Q(r) pseudized with  8 coefficients,  rinner =    0.800   0.800   0.800

     PseudoPot. # 5 for H  read from file:
     /storage/coda1/p-amedford6/0/shared/rich_project_chbe-medford/medford-share/data/pseudos_module/espresso/nninc/pbe/van/H.UPF
     MD5 check sum: b5ee9d7bfd3a09ee7748110bda690ff7
     Pseudo is Ultrasoft, Zval =  1.0
     Generated by new atomic code, or converted to UPF format
     Using radial grid of  615 points,  1 beta functions with:
                l(1) =   0
     Q(r) pseudized with  8 coefficients,  rinner =    0.800

     atomic species   valence    mass     pseudopotential
        Ti1           12.00    47.86700     Ti( 1.00)
        O1             6.00    15.99900     O ( 1.00)
        N1             5.00    14.00700     N ( 1.00)
        C1             4.00    12.01100     C ( 1.00)
        H1             1.00     1.00800     H ( 1.00)

     No symmetry found

   Cartesian axes

     site n.     atom                  positions (alat units)
         1           Ti1 tau(   1) = (   0.0004258   2.9801865   6.0000000  )
         2           Ti1 tau(   2) = (   3.2906075   1.4906267   6.0002472  )
         3           O1  tau(   3) = (   0.0006271   0.0005054   7.9858123  )
         4           O1  tau(   4) = (   3.2906025   0.0005020   7.3038282  )
         5           O1  tau(   5) = (   4.5942328   1.4918067   9.2879030  )
         6           O1  tau(   6) = (   1.9868534   1.4903216   9.2879459  )
         7           Ti1 tau(   7) = (   3.2907910   2.8959150   9.1758416  )
         8           Ti1 tau(   8) = (   0.0015273   1.4827037   9.2680791  )
         9           O1  tau(   9) = (   3.3066417   5.9496923  11.3845403  )
        10           O1  tau(  10) = (   0.0116148   5.9584955  10.6183126  )
        11           O1  tau(  11) = (   1.3010148   1.4986442  12.6442229  )
        12           O1  tau(  12) = (   5.3085967   1.5001388  12.6592367  )
        13           Ti1 tau(  13) = (   0.0282779   2.9853959  12.5065338  )
        14           Ti1 tau(  14) = (   3.3279724   1.4707331  12.5413945  )
        15           O1  tau(  15) = (   0.0378505   0.0859181  14.6860672  )
        16           O1  tau(  16) = (   3.3018867   0.0259462  14.0338077  )
        17           O1  tau(  17) = (   4.5998927   1.5484098  16.1661054  )
        18           O1  tau(  18) = (   2.0454451   1.5021798  16.2221046  )
        19           Ti1 tau(  19) = (   3.3206312   2.9825829  15.7321521  )
        20           Ti1 tau(  20) = (   0.0140791   1.4435866  15.9983415  )
        21           O1  tau(  21) = (   3.2904802   0.0005063   4.7018136  )
        22           O1  tau(  22) = (   6.5273045   5.8164216  17.2577718  )
        23           O1  tau(  23) = (   1.3043587   1.4918075   6.0039043  )
        24           O1  tau(  24) = (   5.2767064   1.4903225   6.0039473  )
        25           Ti1 tau(  25) = (   0.0000382   5.9609847   6.0000000  )
        26           Ti1 tau(  26) = (   3.2902200   4.4714249   6.0002472  )
        27           O1  tau(  27) = (   0.0002396   2.9813036   7.9858123  )
        28           O1  tau(  28) = (   3.2902150   2.9813002   7.3038282  )
        29           O1  tau(  29) = (   4.5938453   4.4726049   9.2879030  )
        30           O1  tau(  30) = (   1.9864658   4.4711199   9.2879459  )
        31           Ti1 tau(  31) = (   3.2891106   5.8743827   9.1763621  )
        32           Ti1 tau(  32) = (   0.0006254   4.4649316   9.2693709  )
        33           O1  tau(  33) = (   3.3068470   2.9864458  11.3814114  )
        34           O1  tau(  34) = (   0.0092240   2.9805883  10.6323155  )
        35           O1  tau(  35) = (   1.2982948   4.4740332  12.6840172  )
        36           O1  tau(  36) = (   5.3097620   4.4704985  12.6972095  )
        37           Ti1 tau(  37) = (   0.0348817   0.0130325  12.4954113  )
        38           Ti1 tau(  38) = (   3.3270268   4.4633798  12.5435021  )
        39           O1  tau(  39) = (   0.0563025   2.9439880  14.9425960  )
        40           O1  tau(  40) = (   3.2900316   2.9661073  13.9503945  )
        41           O1  tau(  41) = (   4.5967999   4.4093095  16.0633277  )
        42           O1  tau(  42) = (   2.0412097   4.4536800  16.1303113  )
        43           Ti1 tau(  43) = (   3.2964201   5.9600488  15.8742613  )
        44           Ti1 tau(  44) = (   0.0241369   4.6516137  15.8518307  )
        45           O1  tau(  45) = (   3.2900926   2.9813045   4.7018136  )
        46           O1  tau(  46) = (   1.3039711   4.4726057   6.0039043  )
        47           O1  tau(  47) = (   5.2763189   4.4711207   6.0039473  )
        48           N1  tau(  48) = (   1.4509408   2.7109095  18.7602185  )
        49           N1  tau(  49) = (   0.0917387   2.5303350  18.2207845  )
        50           C1  tau(  50) = (   1.9503960   3.7723240  19.2784661  )
        51           H1  tau(  51) = (   1.1512915   4.5273475  19.4152495  )
        52           H1  tau(  52) = (   2.0208952   1.9183395  18.4664618  )
        53           H1  tau(  53) = (   6.1377449   3.3539424  18.4987646  )
        54           H1  tau(  54) = (   6.2616785   1.7135167  18.6767212  )
        55           O1  tau(  55) = (   3.7012217   5.9496235  18.2853534  )
        56           H1  tau(  56) = (   4.6684668   5.8470116  18.1670174  )
        57           H1  tau(  57) = (   3.3852657   5.1278045  18.7338684  )

     number of k points=    10  Fermi-Dirac smearing, width (Ry)=  0.0073
                       cart. coord. in units 2pi/alat
        k(    1) = (   0.0000000   0.0000000   0.0000000), wk =   0.1250000
        k(    2) = (   0.0000000   0.0419351   0.0000000), wk =   0.2500000
        k(    3) = (   0.0000000  -0.0838702   0.0000000), wk =   0.1250000
        k(    4) = (   0.0379955   0.0000049   0.0000000), wk =   0.2500000
        k(    5) = (   0.0379955   0.0419400   0.0000000), wk =   0.2500000
        k(    6) = (   0.0379955  -0.0838652   0.0000000), wk =   0.2500000
        k(    7) = (   0.0379955  -0.0419301   0.0000000), wk =   0.2500000
        k(    8) = (  -0.0759910  -0.0000099   0.0000000), wk =   0.1250000
        k(    9) = (  -0.0759910   0.0419252   0.0000000), wk =   0.2500000
        k(   10) = (  -0.0759910  -0.0838800   0.0000000), wk =   0.1250000

     Initial potential from superposition of free atoms

     starting charge  387.99913, renormalised to  404.00000

     negative rho (up, down):  1.598E-02 0.000E+00

     %%%%%%%%%%%%%%%%%%%%%%%%%%%%%%%%%%%%%%%%%%%%%%%%%%%%%%%%%%%%%%%%%%%%%%%%
     %                                                                      %
     % You are using vdW-DF, which was implemented by the Thonhauser group. %
     % Please cite the following two papers that made this development      %
     % possible and the two reviews that describe the various versions:     %
     %                                                                      %
     %   T. Thonhauser et al., PRL 115, 136402 (2015).                      %
     %   T. Thonhauser et al., PRB 76, 125112 (2007).                       %
     %   K. Berland et al., Rep. Prog. Phys. 78, 066501 (2015).             %
     %   D.C. Langreth et al., J. Phys.: Condens. Matter 21, 084203 (2009). %
     %                                                                      %
     %                                                                      %
     % If you are calculating the stress with vdW-DF, please also cite:     %
     %                                                                      %
     %   R. Sabatini et al., J. Phys.: Condens. Matter 24, 424209 (2012).   %
     %                                                                      %
     %%%%%%%%%%%%%%%%%%%%%%%%%%%%%%%%%%%%%%%%%%%%%%%%%%%%%%%%%%%%%%%%%%%%%%%%

     Adding external electric field

     Computed dipole along edir(3) :
        Dipole              -14.3585 Ry au,        -36.4957 Debye
        Dipole field         -0.0271 Ry au,

        Potential amp.        2.5118 Ry
        Total length         46.3494 bohr

     Starting wfcs are  306 atomic wfcs
  @ DRIVER MODE: Message from server: STATUS
  @ DRIVER MODE: Message from server: POSDATA
  @ DRIVER MODE: Reading and sharing cell
  @ DRIVER MODE: Reading and sharing positions
  @ DRIVER MODE: Received positions

     Self-consistent Calculation

     iteration #  1     ecut=    29.40 Ry     beta= 0.05
     Davidson diagonalization with overlap
     c_bands:  3 eigenvalues not converged
     c_bands:  4 eigenvalues not converged
     c_bands:  4 eigenvalues not converged
     c_bands:  4 eigenvalues not converged
     c_bands:  5 eigenvalues not converged
     c_bands:  3 eigenvalues not converged
     c_bands:  2 eigenvalues not converged
     c_bands:  4 eigenvalues not converged
     ethr =  1.00E-05,  avg # of iterations = 21.9

[...]

     total energy              =   -2220.95314278 Ry
     estimated scf accuracy    <    8587.36106882 Ry

     iteration #  2     ecut=    29.40 Ry     beta= 0.05
     Davidson diagonalization with overlap
     ethr =  1.00E-02,  avg # of iterations = 29.7

[...]

     iteration # 90     ecut=    29.40 Ry     beta= 0.05
     Davidson diagonalization with overlap
     c_bands:  1 eigenvalues not converged
     ethr =  6.18E-11,  avg # of iterations = 11.6

[...]

     total energy              =   -2975.10524711 Ry
     estimated scf accuracy    <       0.00000009 Ry

     iteration # 91     ecut=    29.40 Ry     beta= 0.05
     Davidson diagonalization with overlap
     ethr =  2.18E-11,  avg # of iterations = 10.7

     negative rho (up, down):  1.579E-02 0.000E+00

     Adding external electric field

     Computed dipole along edir(3) :
        Dipole                1.0222 Ry au,          2.5982 Debye
        Dipole field          0.0019 Ry au,

        Potential amp.       -0.1788 Ry
        Total length         46.3494 bohr

     End of self-consistent calculation

          k = 0.0000 0.0000 0.0000 ( 18029 PWs)   bands (ev):

   -55.3856 -55.3498 -55.3457 -55.3116 -55.3085 -55.3028 -55.2674 -55.2321
   -55.2172 -55.1823 -55.1755 -55.1603 -55.1418 -55.1125 -54.3770 -54.3430
   -31.9447 -31.8806 -31.8385 -31.7570 -31.7085 -31.7058 -31.6814 -31.6786
   -31.6344 -31.5987 -31.5917 -31.5903 -31.5833 -31.5798 -31.5618 -31.5597
   -31.5349 -31.5270 -31.5241 -31.5126 -31.4984 -31.4917 -31.4731 -31.4681
   -31.4598 -31.4468 -31.4460 -31.4173 -31.4030 -31.3990 -31.3961 -31.3739
   -31.3699 -31.3660 -31.3624 -31.3412 -31.3303 -31.3182 -31.3032 -31.3032
   -31.2929 -31.2866 -30.7864 -30.6920 -30.6700 -30.6028 -30.5160 -30.4051
   -18.8832 -18.4555 -16.2204 -15.9731 -15.8371 -15.7326 -15.5953 -15.4971
   -15.3879 -15.2746 -15.2515 -15.1577 -15.0835 -15.0795 -15.0425 -15.0166
   -14.9540 -14.9327 -14.9089 -14.9028 -14.8884 -14.8781 -14.8416 -14.8307
   -14.7982 -14.7868 -14.7696 -14.6507 -14.6269 -14.5522 -14.4817 -14.3445
   -12.8794 -12.7619  -9.8289  -7.0027  -6.3743  -6.0799  -4.3939  -3.7301
    -3.5439  -3.4106  -3.3323  -3.3035  -3.2861  -3.1544  -3.0611  -2.9023
    -2.8635  -2.8072  -2.6740  -2.5982  -2.5918  -2.5038  -2.4314  -2.4080
    -2.3751  -2.2660  -2.2596  -2.2100  -2.1925  -2.1693  -2.1601  -2.1134
    -2.0675  -2.0403  -1.9552  -1.8536  -1.8099  -1.7900  -1.7537  -1.7310
    -1.7264  -1.6827  -1.6766  -1.6529  -1.6140  -1.5897  -1.5443  -1.4321
    -1.3907  -1.2321  -1.1947  -1.0403  -1.0199  -0.9807  -0.9602  -0.9243
    -0.8939  -0.8776  -0.8625  -0.7727  -0.7142  -0.6480  -0.5840  -0.4929
    -0.4826  -0.4088  -0.3830  -0.3178  -0.2303  -0.1857  -0.1761  -0.1513
    -0.1480  -0.0343   0.0107   0.0709   0.0895   0.1469   0.1627   0.1849
     0.2550   0.3085   0.3781   0.4087   0.4878   0.5060   0.5412   0.5503
     0.5826   0.5931   0.6693   0.6842   0.7123   0.8151   0.9124   1.0050
     1.2149   1.2180   1.2437   1.5506   1.5528   1.6460   1.8294   2.2223
     2.2707   3.7043   3.7828   3.8323   3.8497   3.8543   3.9391   4.1938
     4.2081   4.2208   4.2270   4.2677

[...]

          k = 0.0380-0.0419 0.0000 ( 17876 PWs)   bands (ev):

[...]

          k =-0.0760-0.0000 0.0000 ( 17886 PWs)   bands (ev):

[...]

          k =-0.0760-0.0839 0.0000 ( 17948 PWs)   bands (ev):

   -55.3687 -55.3665 -55.3288 -55.3284 -55.3056 -55.3018 -55.2536 -55.2458
   -55.2029 -55.1962 -55.1621 -55.1595 -55.1578 -55.1143 -54.3599 -54.3599
   -31.7952 -31.7571 -31.7430 -31.6537 -31.6533 -31.6390 -31.6271 -31.6198
   -31.6195 -31.5987 -31.5939 -31.5905 -31.5678 -31.5599 -31.5482 -31.5342
   -31.5309 -31.5284 -31.5244 -31.5164 -31.5118 -31.5096 -31.5087 -31.5008
   -31.4690 -31.4675 -31.4485 -31.4482 -31.4477 -31.4430 -31.4401 -31.4357
   -31.4263 -31.4150 -31.4092 -31.3924 -31.3906 -31.3807 -31.3395 -31.3384
   -31.3379 -31.3190 -30.6826 -30.6826 -30.5990 -30.5988 -30.5595 -30.5594
   -18.8774 -18.4578 -15.8401 -15.6534 -15.5019 -15.4300 -15.4098 -15.3266
   -15.2713 -15.2680 -15.1950 -15.1768 -15.1644 -15.1429 -15.1332 -15.0858
   -15.0488 -15.0120 -14.9932 -14.9706 -14.9275 -14.9049 -14.9032 -14.8964
   -14.8887 -14.8485 -14.8432 -14.8399 -14.7482 -14.7462 -14.7095 -14.5607
   -12.8634 -12.8633  -9.8381  -6.9915  -6.3502  -6.0555  -4.4082  -3.6569
    -3.0226  -2.9115  -2.9007  -2.6718  -2.6535  -2.5925  -2.5800  -2.4920
    -2.4763  -2.4157  -2.3921  -2.3421  -2.3191  -2.2813  -2.2674  -2.2457
    -2.2247  -2.2109  -2.1845  -2.1682  -2.1513  -2.1318  -2.1206  -2.1093
    -2.0540  -2.0483  -2.0395  -2.0142  -1.9911  -1.9551  -1.9451  -1.9289
    -1.7733  -1.7575  -1.7361  -1.6007  -1.5964  -1.5625  -1.5222  -1.4947
    -1.4368  -1.4282  -1.4000  -1.3412  -1.1476  -1.1370  -1.1248  -1.1070
    -1.0358  -0.9801  -0.9664  -0.9484  -0.8947  -0.8166  -0.7832  -0.7304
    -0.6418  -0.5893  -0.5799  -0.5540  -0.4328  -0.4098  -0.3674  -0.3494
    -0.3331  -0.2986  -0.2971  -0.2397  -0.1870  -0.1516  -0.1286  -0.1144
    -0.0774   0.0773   0.1295   0.1458   0.2601   0.2894   0.4673   0.5102
     0.5319   0.6370   0.7204   0.7481   0.7628   0.8881   0.9103   0.9128
     0.9812   1.0034   1.0634   1.0692   1.1993   2.0021   2.0034   2.0906
     2.0908   3.8294   3.9522   3.9965   4.0323   4.1083   4.1610   4.2180
     4.2771   4.2888   4.2927   4.3593

     the Fermi energy is     3.7663 ev

!    total energy              =   -2975.10525145 Ry
     estimated scf accuracy    <       0.00000004 Ry
     smearing contrib. (-TS)   =      -0.03671843 Ry
     internal energy E=F+TS    =   -2975.06853302 Ry

     The total energy is F=E-TS. E is the sum of the following terms:
     one-electron contribution =  -23505.39161622 Ry
     hartree contribution      =   11848.71001730 Ry
     xc contribution           =    -494.91343626 Ry
     ewald contribution        =    9176.52453026 Ry
     electric field correction =       0.00197189 Ry

     convergence has been achieved in  91 iterations

     Forces acting on atoms (cartesian axes, Ry/au):

     atom    1 type  1   force =     0.00003044   -0.00025607    0.09308485
     atom    2 type  1   force =    -0.00019092   -0.00032397   -0.17840637
     atom    3 type  2   force =     0.00006120   -0.00016109   -0.02025389
     atom    4 type  2   force =     0.00001739   -0.00203697    0.05924337
     atom    5 type  2   force =    -0.01033186   -0.00110303    0.00808172
     atom    6 type  2   force =     0.01217434   -0.00054679    0.00816147
     atom    7 type  1   force =     0.00015137    0.00328723   -0.01111640
     atom    8 type  1   force =    -0.00030039    0.00052999   -0.00561696
     atom    9 type  2   force =     0.00004137    0.00017970   -0.00014056
     atom   10 type  2   force =    -0.00146361   -0.00003003   -0.00171609
     atom   11 type  2   force =     0.00038462   -0.00003428   -0.00006245
     atom   12 type  2   force =    -0.00010456    0.00010645   -0.00009290
     atom   13 type  1   force =    -0.00009251   -0.00017359   -0.00024872
     atom   14 type  1   force =    -0.00021298   -0.00036455    0.00033361
     atom   15 type  2   force =     0.00006930   -0.00047661    0.00006458
     atom   16 type  2   force =     0.00022174    0.00009190    0.00025414
     atom   17 type  2   force =     0.00035710   -0.00015297    0.00020018
     atom   18 type  2   force =    -0.00004065   -0.00013252   -0.00013741
     atom   19 type  1   force =    -0.00029717   -0.00044076   -0.00001268
     atom   20 type  1   force =     0.00014073    0.00024394    0.00054799
     atom   21 type  2   force =    -0.00000473   -0.00007663    0.10405622
     atom   22 type  2   force =    -0.00014186   -0.00001994   -0.00017000
     atom   23 type  2   force =    -0.07035964   -0.00016490   -0.02682510
     atom   24 type  2   force =     0.07022790    0.00028105   -0.02690419
     atom   25 type  1   force =     0.00002292   -0.00015948    0.09274129
     atom   26 type  1   force =    -0.00015937   -0.00039521   -0.17835302
     atom   27 type  2   force =     0.00011136   -0.00031639   -0.01919609
     atom   28 type  2   force =     0.00004606   -0.00163416    0.05839659
     atom   29 type  2   force =    -0.01029250   -0.00064048    0.00728880
     atom   30 type  2   force =     0.01202701   -0.00030924    0.00742319
     atom   31 type  1   force =     0.00007814    0.00514577   -0.01466109
     atom   32 type  1   force =    -0.00014163   -0.00051848   -0.00596216
     atom   33 type  2   force =     0.00012916   -0.00039564   -0.00023019
     atom   34 type  2   force =    -0.00078631    0.00260089   -0.00103576
     atom   35 type  2   force =    -0.00006879   -0.00011281   -0.00012190
     atom   36 type  2   force =     0.00023380    0.00000482   -0.00014881
     atom   37 type  1   force =    -0.00043571    0.00008258    0.00002307
     atom   38 type  1   force =    -0.00003162   -0.00024081   -0.00025106
     atom   39 type  2   force =    -0.00030817   -0.00020651   -0.00018908
     atom   40 type  2   force =    -0.00013446   -0.00005838   -0.00003325
     atom   41 type  2   force =    -0.00014848   -0.00016383    0.00038278
     atom   42 type  2   force =    -0.00005189   -0.00026459    0.00012294
     atom   43 type  1   force =    -0.00001009   -0.00031359    0.00013385
     atom   44 type  1   force =     0.00002091    0.00000870    0.00020857
     atom   45 type  2   force =     0.00001079   -0.00010701    0.10402241
     atom   46 type  2   force =    -0.07038592   -0.00011287   -0.02685126
     atom   47 type  2   force =     0.07023193    0.00032241   -0.02691080
     atom   48 type  3   force =    -0.00016197    0.00005628   -0.00010132
     atom   49 type  3   force =    -0.00049035   -0.00089761    0.00036997
     atom   50 type  4   force =    -0.00603807    0.00671377    0.00187262
     atom   51 type  5   force =     0.00633093   -0.00528688   -0.00118430
     atom   52 type  5   force =     0.00001226   -0.00106085   -0.00038330
     atom   53 type  5   force =    -0.00002863    0.00009305    0.00005546
     atom   54 type  5   force =     0.00023517    0.00050233   -0.00003727
     atom   55 type  2   force =     0.00016381   -0.00017309    0.00057153
     atom   56 type  5   force =     0.00023790   -0.00035551   -0.00042757
     atom   57 type  5   force =    -0.00055478   -0.00003273    0.00014075

     Total force =     0.366447     Total SCF correction =     0.000493
  @ DRIVER MODE: Message from server: STATUS
  @ DRIVER MODE: Message from server: GETFORCE
  @ DRIVER MODE: Returning v,forces,stress,ensemble

     Writing output data file ./calc.save/
  @ DRIVER MODE: Message from server: EXIT
  @ DRIVE MODE: Exiting

     General routines

     Parallel routines

   This run was terminated on:  23: 6:57  22Sep2021

   JOB DONE.