     Program PWSCF v.6.7GPU starts on 24Aug2021 at 14:48:37

     R & G space division:  proc/nbgrp/npool/nimage =      72
     Reading input from /storage/home/hcoda1/3/ntian30/research/carbon/CH2_vib/ads_slab/CH2NHHH_a/out_0013/pw.inp
Warning: card &CELL ignored
Warning: card   CELL_DYNAMICS='IPI', ignored
Warning: card / ignored

     Current dimensions of program PWSCF are:
     Max number of different atomic species (ntypx) = 10
     Max number of k-points (npk) =  40000
     Max angular momentum in pseudopotentials (lmaxx) =  3
     Presently no symmetry can be used with electric field

     Message from routine cell_base_init:
     DEPRECATED: use true lattice parameter, not A to a.u. conversion factor

     IMPORTANT: XC functional enforced from input :
     Exchange-correlation= BEEF-VDW
                           (   1   4  43  14   2   0   0)
     Any further DFT definition will be discarded
     Please, verify this is what you really want

  @ DRIVER MODE: Connecting to
 qe_1139763_2641440.sched-torque.pace.gatech.eduqzh55zu8_scratch
  using UNIX socket
  @ DRIVER MODE: Message from server: STATUS
  @ DRIVER MODE: Message from server: INIT
  @ DRIVER MODE: Receiving replica           0          -1
  @ DRIVER MODE: Receiving encoded integer          25
  @ DRIVER MODE:  SCF:  T  FORCE:  T  STRESS:  F  VC:  F  ENSEMBLE:  F
  @ DRIVER MODE:  SCF:  T  FORCE:  T  STRESS:  F  VC:  F  ENSEMBLE:  F

     Using Slab Decomposition

     bravais-lattice index     =            0
     lattice parameter (alat)  =       1.8897  a.u.
     unit-cell volume          =    6658.9804 (a.u.)^3
     number of atoms/cell      =           54
     number of atomic types    =            5
     number of electrons       =       392.00
     number of Kohn-Sham states=          206
     kinetic-energy cutoff     =      29.3995  Ry
     charge density cutoff     =     293.9946  Ry
     scf convergence threshold =      7.3E-08
     mixing beta               =       0.0500
     number of iterations used =            8  plain     mixing
     Exchange-correlation= BEEF-VDW
                           (   1   4  43  14   2   0   0)

     celldm(1)=   1.889726  celldm(2)=   0.000000  celldm(3)=   0.000000
     celldm(4)=   0.000000  celldm(5)=   0.000000  celldm(6)=   0.000000

     crystal axes: (cart. coord. in units of alat)
               a(1) = (   6.579727   0.000000   0.000000 )
               a(2) = (  -0.000775   5.961596   0.000000 )
               a(3) = (   0.000000   0.000000  25.155947 )

     reciprocal axes: (cart. coord. in units 2 pi/alat)
               b(1) = (  0.151982  0.000020  0.000000 )
               b(2) = (  0.000000  0.167740  0.000000 )
               b(3) = (  0.000000  0.000000  0.039752 )

     PseudoPot. # 1 for Ti read from file:
     /storage/coda1/p-amedford6/0/shared/rich_project_chbe-medford/medford-share/data/pseudos_module/espresso/nninc/pbe/van/Ti.UPF
     MD5 check sum: 8e4df49b7f0d34bbd5052bf3f5ea0213
     Pseudo is Ultrasoft, Zval = 12.0
     Generated by new atomic code, or converted to UPF format
     Using radial grid of  851 points,  6 beta functions with:
                l(1) =   0
                l(2) =   0
                l(3) =   1
                l(4) =   1
                l(5) =   2
                l(6) =   2
     Q(r) pseudized with  8 coefficients,  rinner =    1.000   1.000   1.000
                                                       1.000   1.000

     PseudoPot. # 2 for O  read from file:
     /storage/coda1/p-amedford6/0/shared/rich_project_chbe-medford/medford-share/data/pseudos_module/espresso/nninc/pbe/van/O.UPF
     MD5 check sum: 78c19812648e8988a0fe644b0f25305e
     Pseudo is Ultrasoft, Zval =  6.0
     Generated by new atomic code, or converted to UPF format
     Using radial grid of  737 points,  4 beta functions with:
                l(1) =   0
                l(2) =   0
                l(3) =   1
                l(4) =   1
     Q(r) pseudized with  8 coefficients,  rinner =    0.800   0.800   0.800

     PseudoPot. # 3 for N  read from file:
     /storage/coda1/p-amedford6/0/shared/rich_project_chbe-medford/medford-share/data/pseudos_module/espresso/nninc/pbe/van/N.UPF
     MD5 check sum: 90d10febe142ad51ac9d5be1deb811c4
     Pseudo is Ultrasoft, Zval =  5.0
     Generated by new atomic code, or converted to UPF format
     Using radial grid of  729 points,  4 beta functions with:
                l(1) =   0
                l(2) =   0
                l(3) =   1
                l(4) =   1
     Q(r) pseudized with  8 coefficients,  rinner =    0.800   0.800   0.800

     PseudoPot. # 4 for C  read from file:
     /storage/coda1/p-amedford6/0/shared/rich_project_chbe-medford/medford-share/data/pseudos_module/espresso/nninc/pbe/van/C.UPF
     MD5 check sum: 1a69bf6b8db32088f5b2163dbdb77a27
     Pseudo is Ultrasoft, Zval =  4.0
     Generated by new atomic code, or converted to UPF format
     Using radial grid of  721 points,  4 beta functions with:
                l(1) =   0
                l(2) =   0
                l(3) =   1
                l(4) =   1
     Q(r) pseudized with  8 coefficients,  rinner =    0.800   0.800   0.800

     PseudoPot. # 5 for H  read from file:
     /storage/coda1/p-amedford6/0/shared/rich_project_chbe-medford/medford-share/data/pseudos_module/espresso/nninc/pbe/van/H.UPF
     MD5 check sum: b5ee9d7bfd3a09ee7748110bda690ff7
     Pseudo is Ultrasoft, Zval =  1.0
     Generated by new atomic code, or converted to UPF format
     Using radial grid of  615 points,  1 beta functions with:
                l(1) =   0
     Q(r) pseudized with  8 coefficients,  rinner =    0.800

     atomic species   valence    mass     pseudopotential
        Ti1           12.00    47.86700     Ti( 1.00)
        O1             6.00    15.99900     O ( 1.00)
        N1             5.00    14.00700     N ( 1.00)
        C1             4.00    12.01100     C ( 1.00)
        H1             1.00     1.00800     H ( 1.00)

     No symmetry found

   Cartesian axes

     site n.     atom                  positions (alat units)
         1           Ti1 tau(   1) = (   0.0004258   2.9801865   6.0000000  )
         2           Ti1 tau(   2) = (   3.2906075   1.4906267   6.0002472  )
         3           O1  tau(   3) = (   0.0006271   0.0005054   7.9858123  )
         4           O1  tau(   4) = (   3.2906025   0.0005020   7.3038282  )
         5           O1  tau(   5) = (   4.5942328   1.4918067   9.2879030  )
         6           O1  tau(   6) = (   1.9868534   1.4903216   9.2879459  )
         7           Ti1 tau(   7) = (   3.2907910   2.8959150   9.1758416  )
         8           Ti1 tau(   8) = (   0.0015273   1.4827037   9.2680791  )
         9           O1  tau(   9) = (   3.2947057   0.0061428  11.3716447  )
        10           O1  tau(  10) = (   0.0116148   5.9584955  10.6183126  )
        11           O1  tau(  11) = (   1.2915649   1.4936813  12.6925814  )
        12           O1  tau(  12) = (   5.2970661   1.4944705  12.6810846  )
        13           Ti1 tau(  13) = (   0.0178387   2.9746902  12.5081746  )
        14           Ti1 tau(  14) = (   3.3154821   1.4870708  12.5273966  )
        15           O1  tau(  15) = (   6.5751158   5.8850184  14.6937530  )
        16           O1  tau(  16) = (   3.3021755   5.9482827  13.9948957  )
        17           O1  tau(  17) = (   4.5403780   1.5298489  16.1548813  )
        18           O1  tau(  18) = (   2.0255877   1.5226301  16.1187562  )
        19           Ti1 tau(  19) = (   3.2919084   3.0021400  15.7465462  )
        20           Ti1 tau(  20) = (   0.0121818   1.3098915  15.8601907  )
        21           O1  tau(  21) = (   3.2904802   0.0005063   4.7018136  )
        22           O1  tau(  22) = (   6.5726150   0.1553292  17.2405045  )
        23           O1  tau(  23) = (   1.3043587   1.4918075   6.0039043  )
        24           O1  tau(  24) = (   5.2767064   1.4903225   6.0039473  )
        25           Ti1 tau(  25) = (   0.0000382   5.9609847   6.0000000  )
        26           Ti1 tau(  26) = (   3.2902200   4.4714249   6.0002472  )
        27           O1  tau(  27) = (   0.0002396   2.9813036   7.9858123  )
        28           O1  tau(  28) = (   3.2902150   2.9813002   7.3038282  )
        29           O1  tau(  29) = (   4.5938453   4.4726049   9.2879030  )
        30           O1  tau(  30) = (   1.9864658   4.4711199   9.2879459  )
        31           Ti1 tau(  31) = (   3.2891106   5.8743827   9.1763621  )
        32           Ti1 tau(  32) = (   0.0006254   4.4649316   9.2693709  )
        33           O1  tau(  33) = (   3.2927311   2.9710310  11.3658552  )
        34           O1  tau(  34) = (   0.0092240   2.9805883  10.6323155  )
        35           O1  tau(  35) = (   1.2954064   4.4636889  12.6531092  )
        36           O1  tau(  36) = (   5.2951753   4.4642890  12.6444158  )
        37           Ti1 tau(  37) = (   0.0208150   5.9452171  12.5004641  )
        38           Ti1 tau(  38) = (   3.3163264   4.4646888  12.5160798  )
        39           O1  tau(  39) = (   6.5606049   3.0383603  14.9590055  )
        40           O1  tau(  40) = (   3.3003749   3.0012653  13.9593002  )
        41           O1  tau(  41) = (   4.5325621   4.4784225  16.2386555  )
        42           O1  tau(  42) = (   2.0180351   4.4745910  16.2101397  )
        43           Ti1 tau(  43) = (   3.2993765   0.0184524  15.7908042  )
        44           Ti1 tau(  44) = (   0.0223033   4.5207704  16.0490861  )
        45           O1  tau(  45) = (   3.2900926   2.9813045   4.7018136  )
        46           O1  tau(  46) = (   1.3039711   4.4726057   6.0039043  )
        47           O1  tau(  47) = (   5.2763189   4.4711207   6.0039473  )
        48           N1  tau(  48) = (   6.4337409   3.4053151  18.1409392  )
        49           C1  tau(  49) = (   1.0285230   3.1422446  19.0018829  )
        50           H1  tau(  50) = (   0.7375518   3.0234394  20.0507379  )
        51           H1  tau(  51) = (   1.7227964   3.9744885  18.9089305  )
        52           H1  tau(  52) = (   5.9280473   4.2150708  18.4935385  )
        53           H1  tau(  53) = (   5.7900178   2.6175148  18.1880975  )
        54           H1  tau(  54) = (   1.5159085   2.2300880  18.6641165  )

     number of k points=    10  Fermi-Dirac smearing, width (Ry)=  0.0073
                       cart. coord. in units 2pi/alat
        k(    1) = (   0.0000000   0.0000000   0.0000000), wk =   0.1250000
        k(    2) = (   0.0000000   0.0419351   0.0000000), wk =   0.2500000
        k(    3) = (   0.0000000  -0.0838702   0.0000000), wk =   0.1250000
        k(    4) = (   0.0379955   0.0000049   0.0000000), wk =   0.2500000
        k(    5) = (   0.0379955   0.0419400   0.0000000), wk =   0.2500000
        k(    6) = (   0.0379955  -0.0838652   0.0000000), wk =   0.2500000
        k(    7) = (   0.0379955  -0.0419301   0.0000000), wk =   0.2500000
        k(    8) = (  -0.0759910  -0.0000099   0.0000000), wk =   0.1250000
        k(    9) = (  -0.0759910   0.0419252   0.0000000), wk =   0.2500000
        k(   10) = (  -0.0759910  -0.0838800   0.0000000), wk =   0.1250000

     Initial potential from superposition of free atoms

     starting charge  375.99915, renormalised to  392.00000

     negative rho (up, down):  1.645E-02 0.000E+00

     %%%%%%%%%%%%%%%%%%%%%%%%%%%%%%%%%%%%%%%%%%%%%%%%%%%%%%%%%%%%%%%%%%%%%%%%
     %                                                                      %
     % You are using vdW-DF, which was implemented by the Thonhauser group. %
     % Please cite the following two papers that made this development      %
     % possible and the two reviews that describe the various versions:     %
     %                                                                      %
     %   T. Thonhauser et al., PRL 115, 136402 (2015).                      %
     %   T. Thonhauser et al., PRB 76, 125112 (2007).                       %
     %   K. Berland et al., Rep. Prog. Phys. 78, 066501 (2015).             %
     %   D.C. Langreth et al., J. Phys.: Condens. Matter 21, 084203 (2009). %
     %                                                                      %
     %                                                                      %
     % If you are calculating the stress with vdW-DF, please also cite:     %
     %                                                                      %
     %   R. Sabatini et al., J. Phys.: Condens. Matter 24, 424209 (2012).   %
     %                                                                      %
     %%%%%%%%%%%%%%%%%%%%%%%%%%%%%%%%%%%%%%%%%%%%%%%%%%%%%%%%%%%%%%%%%%%%%%%%

     Adding external electric field

     Computed dipole along edir(3) :
        Dipole               -7.5123 Ry au,        -19.0944 Debye
        Dipole field         -0.0142 Ry au,

        Potential amp.        1.3142 Ry
        Total length         46.3494 bohr

     Starting wfcs are  297 atomic wfcs
  @ DRIVER MODE: Message from server: STATUS
  @ DRIVER MODE: Message from server: POSDATA
  @ DRIVER MODE: Reading and sharing cell
  @ DRIVER MODE: Reading and sharing positions
  @ DRIVER MODE: Received positions

     Self-consistent Calculation

     iteration #  1     ecut=    29.40 Ry     beta= 0.05
     Davidson diagonalization with overlap
     c_bands:  1 eigenvalues not converged
     c_bands:  1 eigenvalues not converged
     c_bands:  2 eigenvalues not converged
     c_bands:  1 eigenvalues not converged
     c_bands:  1 eigenvalues not converged
     c_bands:  1 eigenvalues not converged
     ethr =  1.00E-05,  avg # of iterations = 19.3

[...]

     total energy              =   -2681.19958653 Ry
     estimated scf accuracy    <    2661.13411549 Ry

[...]

     iteration #  3     ecut=    29.40 Ry     beta= 0.05
     Davidson diagonalization with overlap
     ethr =  1.00E-02,  avg # of iterations = 14.9

[...]

     iteration # 79     ecut=    29.40 Ry     beta= 0.05
     Davidson diagonalization with overlap
     c_bands:  1 eigenvalues not converged
     c_bands:  2 eigenvalues not converged
     ethr =  5.80E-11,  avg # of iterations = 17.2

[...]

     total energy              =   -2921.63254071 Ry
     estimated scf accuracy    <       0.00000008 Ry

     iteration # 82     ecut=    29.40 Ry     beta= 0.05
     Davidson diagonalization with overlap
     ethr =  2.01E-11,  avg # of iterations =  8.8

     negative rho (up, down):  1.722E-02 0.000E+00

     Adding external electric field

     Computed dipole along edir(3) :
        Dipole                1.3060 Ry au,          3.3194 Debye
        Dipole field          0.0025 Ry au,

        Potential amp.       -0.2285 Ry
        Total length         46.3494 bohr

     End of self-consistent calculation

          k = 0.0000 0.0000 0.0000 ( 18029 PWs)   bands (ev):

   -55.4312 -55.3941 -55.3811 -55.3563 -55.3470 -55.3137 -55.3088 -55.2743
   -55.2483 -55.2312 -55.2138 -55.2125 -55.1789 -55.0994 -54.4094 -54.3754
   -32.0006 -31.8859 -31.8735 -31.7976 -31.7482 -31.7382 -31.7355 -31.7186
   -31.6735 -31.6702 -31.6415 -31.6393 -31.6262 -31.6189 -31.6012 -31.5941
   -31.5866 -31.5744 -31.5692 -31.5461 -31.5336 -31.5303 -31.5022 -31.4949
   -31.4865 -31.4790 -31.4742 -31.4509 -31.4394 -31.4383 -31.4312 -31.4122
   -31.4115 -31.4051 -31.3993 -31.3962 -31.3624 -31.3528 -31.3409 -31.3239
   -31.3052 -31.2951 -30.8187 -30.7247 -30.7026 -30.6352 -30.5484 -30.4374
   -16.2941 -16.1624 -15.9759 -15.8313 -15.7487 -15.6291 -15.5179 -15.5040
   -15.3635 -15.2818 -15.1660 -15.1411 -15.1123 -15.0898 -15.0815 -15.0643
   -14.9733 -14.9684 -14.9563 -14.9235 -14.9225 -14.8782 -14.8677 -14.8257
   -14.8043 -14.8023 -14.6825 -14.5887 -14.5164 -14.2873 -12.9123 -12.7948
   -10.2100  -6.3099  -4.7998  -3.9662  -3.6099  -3.4517  -3.3690  -3.3351
    -3.3217  -3.1904  -3.0537  -2.9068  -2.8535  -2.8222  -2.7232  -2.6465
    -2.6391  -2.6197  -2.4656  -2.4307  -2.3862  -2.3375  -2.2993  -2.2411
    -2.2207  -2.2123  -2.1996  -2.1825  -2.1738  -2.0560  -1.9999  -1.9163
    -1.8572  -1.8344  -1.7841  -1.7639  -1.7437  -1.7200  -1.7105  -1.6698
    -1.6449  -1.6247  -1.5712  -1.4600  -1.3564  -1.3058  -1.1870  -1.0658
    -1.0287  -1.0168  -0.9659  -0.9377  -0.9161  -0.8586  -0.8070  -0.7778
    -0.7200  -0.6627  -0.6014  -0.5518  -0.4786  -0.4749  -0.4163  -0.3673
    -0.2462  -0.2139  -0.1969  -0.1689  -0.0786  -0.0403   0.0033   0.0834
     0.0946   0.1140   0.2082   0.2184   0.2922   0.3406   0.3576   0.4509
     0.4858   0.4981   0.5027   0.5249   0.5550   0.6048   0.6466   0.6731
     0.7399   0.8663   1.0792   1.1596   1.1836   1.5096   1.5194   1.6131
     1.7969   2.1890   2.2371   3.6668   3.7373   3.8131   3.8195   3.8321
     3.9051   4.1394   4.1632   4.1709   4.1776   4.1984

[...]

          k = 0.0380-0.0419 0.0000 ( 17876 PWs)   bands (ev):

[...]

          k =-0.0760-0.0000 0.0000 ( 17886 PWs)   bands (ev):

[...]

          k =-0.0760-0.0839 0.0000 ( 17948 PWs)   bands (ev):

   -55.4170 -55.4080 -55.3642 -55.3638 -55.3548 -55.3101 -55.2928 -55.2902
   -55.2347 -55.2326 -55.2290 -55.1961 -55.1956 -55.1006 -54.3925 -54.3922
   -31.8077 -31.8034 -31.8005 -31.7180 -31.6921 -31.6888 -31.6885 -31.6555
   -31.6554 -31.6400 -31.6335 -31.6307 -31.6240 -31.6019 -31.5866 -31.5700
   -31.5660 -31.5636 -31.5619 -31.5567 -31.5565 -31.5537 -31.5107 -31.5086
   -31.5058 -31.5017 -31.4992 -31.4861 -31.4838 -31.4835 -31.4819 -31.4657
   -31.4622 -31.4462 -31.4425 -31.4284 -31.4256 -31.4229 -31.3772 -31.3770
   -31.3709 -31.3099 -30.7154 -30.7151 -30.6313 -30.6311 -30.5919 -30.5917
   -16.1329 -15.7818 -15.6957 -15.6398 -15.4642 -15.4363 -15.4223 -15.4027
   -15.2736 -15.2480 -15.2224 -15.1998 -15.1788 -15.1412 -15.1334 -15.1287
   -15.0509 -15.0379 -15.0322 -15.0176 -14.9482 -14.9392 -14.9353 -14.9292
   -14.8787 -14.8750 -14.8321 -14.7813 -14.7781 -14.5635 -12.8963 -12.8963
   -10.2132  -6.2805  -4.7965  -3.9307  -2.9657  -2.9405  -2.8961  -2.8958
    -2.6804  -2.6429  -2.6074  -2.5833  -2.4918  -2.4494  -2.4307  -2.4300
    -2.3556  -2.3354  -2.3238  -2.2721  -2.2671  -2.2553  -2.2317  -2.1999
    -2.1741  -2.1595  -2.1498  -2.1314  -2.0876  -2.0737  -2.0543  -2.0337
    -2.0277  -2.0154  -1.9860  -1.9462  -1.8155  -1.8043  -1.7439  -1.6363
    -1.6314  -1.5562  -1.5457  -1.5007  -1.4874  -1.4626  -1.4280  -1.2488
    -1.2066  -1.1758  -1.1663  -1.1115  -1.0359  -1.0192  -0.9563  -0.9351
    -0.9169  -0.8123  -0.7692  -0.7540  -0.6637  -0.6555  -0.5728  -0.5209
    -0.4624  -0.4365  -0.4004  -0.3857  -0.3837  -0.3359  -0.3303  -0.2465
    -0.2006  -0.1645  -0.1510  -0.1188   0.0801   0.0871   0.1095   0.2551
     0.2749   0.4101   0.4373   0.4886   0.5683   0.6015   0.6821   0.7150
     0.8443   0.8752   0.8778   0.9474   0.9617   1.0238   1.0342   1.9698
     1.9705   2.0571   2.0573   3.8175   3.9091   3.9292   3.9718   4.0848
     4.1595   4.1840   4.2056   4.2527   4.2559   4.3172

     the Fermi energy is     3.7306 ev

!    total energy              =   -2921.63254772 Ry
     estimated scf accuracy    <       0.00000004 Ry
     smearing contrib. (-TS)   =      -0.03702949 Ry
     internal energy E=F+TS    =   -2921.59551822 Ry

     The total energy is F=E-TS. E is the sum of the following terms:
     one-electron contribution =  -24082.16492561 Ry
     hartree contribution      =   12130.21820719 Ry
     xc contribution           =    -481.75923266 Ry
     ewald contribution        =    9512.10721428 Ry
     electric field correction =       0.00321858 Ry

     convergence has been achieved in  82 iterations

     Forces acting on atoms (cartesian axes, Ry/au):

     atom    1 type  1   force =     0.00005215   -0.00024278    0.09320389
     atom    2 type  1   force =    -0.00012758   -0.00043815   -0.17821666
     atom    3 type  2   force =     0.00002140   -0.00040692   -0.02021308
     atom    4 type  2   force =    -0.00001332   -0.00187824    0.05854458
     atom    5 type  2   force =    -0.00995083   -0.00082541    0.00750297
     atom    6 type  2   force =     0.01147027   -0.00027233    0.00680150
     atom    7 type  1   force =    -0.00039010    0.00195108   -0.01465763
     atom    8 type  1   force =     0.00011285   -0.00010542   -0.00502624
     atom    9 type  2   force =    -0.00011697   -0.00005347    0.00002113
     atom   10 type  2   force =    -0.00117837    0.00219030   -0.00032417
     atom   11 type  2   force =    -0.00001514   -0.00019411    0.00007129
     atom   12 type  2   force =     0.00058839   -0.00051133    0.00013042
     atom   13 type  1   force =    -0.00071619    0.00034320   -0.00034120
     atom   14 type  1   force =    -0.00000802   -0.00059468    0.00003845
     atom   15 type  2   force =     0.00003872   -0.00052821   -0.00040654
     atom   16 type  2   force =     0.00023507    0.00060070    0.00051006
     atom   17 type  2   force =     0.00003296   -0.00054874    0.00033806
     atom   18 type  2   force =     0.00016984   -0.00008558    0.00036471
     atom   19 type  1   force =     0.00010667   -0.00033185    0.00173392
     atom   20 type  1   force =    -0.00024069    0.00048721    0.00023126
     atom   21 type  2   force =     0.00001134   -0.00009612    0.10388406
     atom   22 type  2   force =     0.00018957   -0.00014316    0.00051526
     atom   23 type  2   force =    -0.07046646   -0.00018591   -0.02692406
     atom   24 type  2   force =     0.07028891    0.00025770   -0.02696348
     atom   25 type  1   force =    -0.00000923   -0.00016438    0.09271156
     atom   26 type  1   force =    -0.00020264   -0.00049591   -0.17824653
     atom   27 type  2   force =     0.00007397   -0.00024287   -0.01927221
     atom   28 type  2   force =     0.00001697   -0.00165763    0.05789144
     atom   29 type  2   force =    -0.01052498   -0.00097755    0.00820272
     atom   30 type  2   force =     0.01192831   -0.00053364    0.00742965
     atom   31 type  1   force =    -0.00034015    0.00604234   -0.01544430
     atom   32 type  1   force =     0.00011629   -0.00040279   -0.00544611
     atom   33 type  2   force =     0.00030946   -0.00010354   -0.00030983
     atom   34 type  2   force =    -0.00063561   -0.00204836   -0.00050237
     atom   35 type  2   force =    -0.00040368   -0.00002238    0.00024108
     atom   36 type  2   force =     0.00067196   -0.00007006   -0.00003593
     atom   37 type  1   force =    -0.00035561   -0.00024000    0.00026845
     atom   38 type  1   force =     0.00001635    0.00041565   -0.00003748
     atom   39 type  2   force =     0.00023062   -0.00009676    0.00018886
     atom   40 type  2   force =     0.00017188    0.00026071    0.00010940
     atom   41 type  2   force =    -0.00047612    0.00027795   -0.00010463
     atom   42 type  2   force =     0.00047519    0.00083137   -0.00008445
     atom   43 type  1   force =     0.00048343    0.00060555    0.00022666
     atom   44 type  1   force =     0.00046889    0.00040979    0.00030049
     atom   45 type  2   force =     0.00002011   -0.00009655    0.10385633
     atom   46 type  2   force =    -0.07043338   -0.00012648   -0.02685489
     atom   47 type  2   force =     0.07026541    0.00030114   -0.02690913
     atom   48 type  3   force =    -0.00001836   -0.00120344   -0.00087715
     atom   49 type  4   force =    -0.00199718   -0.00109546    0.00259716
     atom   50 type  5   force =     0.00236516    0.00043426   -0.00214830
     atom   51 type  5   force =    -0.00040503    0.00020320    0.00072699
     atom   52 type  5   force =    -0.00083383   -0.00042296    0.00016770
     atom   53 type  5   force =    -0.00078850    0.00052639   -0.00015332
     atom   54 type  5   force =    -0.00028417    0.00130464    0.00068962

     Total force =     0.366022     Total SCF correction =     0.000540
  @ DRIVER MODE: Message from server: STATUS
  @ DRIVER MODE: Message from server: GETFORCE
  @ DRIVER MODE: Returning v,forces,stress,ensemble

     Writing output data file ./calc.save/
  @ DRIVER MODE: Message from server: EXIT
  @ DRIVE MODE: Exiting

     General routines

     Parallel routines

   This run was terminated on:  15:11:38  24Aug2021

   JOB DONE.