     Program PWSCF v.6.7GPU starts on  9Sep2021 at  9:51:34

     R & G space division:  proc/nbgrp/npool/nimage =      10
     Reading input from /storage/home/hcoda1/3/ntian30/research/carbon/CxH_vib/CH_calc/ads_slab/CHNNHH_a/out_0031/pw.inp
Warning: card &CELL ignored
Warning: card   CELL_DYNAMICS='IPI', ignored
Warning: card / ignored

     Current dimensions of program PWSCF are:
     Max number of different atomic species (ntypx) = 10
     Max number of k-points (npk) =  40000
     Max angular momentum in pseudopotentials (lmaxx) =  3
     Presently no symmetry can be used with electric field

     Message from routine cell_base_init:
     DEPRECATED: use true lattice parameter, not A to a.u. conversion factor

     IMPORTANT: XC functional enforced from input :
     Exchange-correlation= BEEF-VDW
                           (   1   4  43  14   2   0   0)
     Any further DFT definition will be discarded
     Please, verify this is what you really want

  @ DRIVER MODE: Connecting to
 qe_1139763_2767382.sched-torque.pace.gatech.eduyvwqm6om_scratch
  using UNIX socket
  @ DRIVER MODE: Message from server: STATUS
  @ DRIVER MODE: Message from server: INIT
  @ DRIVER MODE: Receiving replica           0          -1
  @ DRIVER MODE: Receiving encoded integer          25
  @ DRIVER MODE:  SCF:  T  FORCE:  T  STRESS:  F  VC:  F  ENSEMBLE:  F
  @ DRIVER MODE:  SCF:  T  FORCE:  T  STRESS:  F  VC:  F  ENSEMBLE:  F

     Using Slab Decomposition

     bravais-lattice index     =            0
     lattice parameter (alat)  =       1.8897  a.u.
     unit-cell volume          =    6658.9804 (a.u.)^3
     number of atoms/cell      =           53
     number of atomic types    =            5
     number of electrons       =       395.00
     number of Kohn-Sham states=          207
     kinetic-energy cutoff     =      29.3995  Ry
     charge density cutoff     =     293.9946  Ry
     scf convergence threshold =      7.3E-08
     mixing beta               =       0.0500
     number of iterations used =            8  plain     mixing
     Exchange-correlation= BEEF-VDW
                           (   1   4  43  14   2   0   0)

     celldm(1)=   1.889726  celldm(2)=   0.000000  celldm(3)=   0.000000
     celldm(4)=   0.000000  celldm(5)=   0.000000  celldm(6)=   0.000000

     crystal axes: (cart. coord. in units of alat)
               a(1) = (   6.579727   0.000000   0.000000 )
               a(2) = (  -0.000775   5.961596   0.000000 )
               a(3) = (   0.000000   0.000000  25.155947 )

     reciprocal axes: (cart. coord. in units 2 pi/alat)
               b(1) = (  0.151982  0.000020  0.000000 )
               b(2) = (  0.000000  0.167740  0.000000 )
               b(3) = (  0.000000  0.000000  0.039752 )

     PseudoPot. # 1 for Ti read from file:
     /storage/coda1/p-amedford6/0/shared/rich_project_chbe-medford/medford-share/data/pseudos_module/espresso/nninc/pbe/van/Ti.UPF
     MD5 check sum: 8e4df49b7f0d34bbd5052bf3f5ea0213
     Pseudo is Ultrasoft, Zval = 12.0
     Generated by new atomic code, or converted to UPF format
     Using radial grid of  851 points,  6 beta functions with:
                l(1) =   0
                l(2) =   0
                l(3) =   1
                l(4) =   1
                l(5) =   2
                l(6) =   2
     Q(r) pseudized with  8 coefficients,  rinner =    1.000   1.000   1.000
                                                       1.000   1.000

     PseudoPot. # 2 for O  read from file:
     /storage/coda1/p-amedford6/0/shared/rich_project_chbe-medford/medford-share/data/pseudos_module/espresso/nninc/pbe/van/O.UPF
     MD5 check sum: 78c19812648e8988a0fe644b0f25305e
     Pseudo is Ultrasoft, Zval =  6.0
     Generated by new atomic code, or converted to UPF format
     Using radial grid of  737 points,  4 beta functions with:
                l(1) =   0
                l(2) =   0
                l(3) =   1
                l(4) =   1
     Q(r) pseudized with  8 coefficients,  rinner =    0.800   0.800   0.800

     PseudoPot. # 3 for N  read from file:
     /storage/coda1/p-amedford6/0/shared/rich_project_chbe-medford/medford-share/data/pseudos_module/espresso/nninc/pbe/van/N.UPF
     MD5 check sum: 90d10febe142ad51ac9d5be1deb811c4
     Pseudo is Ultrasoft, Zval =  5.0
     Generated by new atomic code, or converted to UPF format
     Using radial grid of  729 points,  4 beta functions with:
                l(1) =   0
                l(2) =   0
                l(3) =   1
                l(4) =   1
     Q(r) pseudized with  8 coefficients,  rinner =    0.800   0.800   0.800

     PseudoPot. # 4 for C  read from file:
     /storage/coda1/p-amedford6/0/shared/rich_project_chbe-medford/medford-share/data/pseudos_module/espresso/nninc/pbe/van/C.UPF
     MD5 check sum: 1a69bf6b8db32088f5b2163dbdb77a27
     Pseudo is Ultrasoft, Zval =  4.0
     Generated by new atomic code, or converted to UPF format
     Using radial grid of  721 points,  4 beta functions with:
                l(1) =   0
                l(2) =   0
                l(3) =   1
                l(4) =   1
     Q(r) pseudized with  8 coefficients,  rinner =    0.800   0.800   0.800

     PseudoPot. # 5 for H  read from file:
     /storage/coda1/p-amedford6/0/shared/rich_project_chbe-medford/medford-share/data/pseudos_module/espresso/nninc/pbe/van/H.UPF
     MD5 check sum: b5ee9d7bfd3a09ee7748110bda690ff7
     Pseudo is Ultrasoft, Zval =  1.0
     Generated by new atomic code, or converted to UPF format
     Using radial grid of  615 points,  1 beta functions with:
                l(1) =   0
     Q(r) pseudized with  8 coefficients,  rinner =    0.800

     atomic species   valence    mass     pseudopotential
        Ti1           12.00    47.86700     Ti( 1.00)
        O1             6.00    15.99900     O ( 1.00)
        N1             5.00    14.00700     N ( 1.00)
        C1             4.00    12.01100     C ( 1.00)
        H1             1.00     1.00800     H ( 1.00)

     No symmetry found

   Cartesian axes

     site n.     atom                  positions (alat units)
         1           Ti1 tau(   1) = (   0.0004258   2.9801865   6.0000000  )
         2           Ti1 tau(   2) = (   3.2906075   1.4906267   6.0002472  )
         3           O1  tau(   3) = (   0.0006271   0.0005054   7.9858123  )
         4           O1  tau(   4) = (   3.2906025   0.0005020   7.3038282  )
         5           O1  tau(   5) = (   4.5942328   1.4918067   9.2879030  )
         6           O1  tau(   6) = (   1.9868534   1.4903216   9.2879459  )
         7           Ti1 tau(   7) = (   3.2907910   2.8959150   9.1758416  )
         8           Ti1 tau(   8) = (   0.0015273   1.4827037   9.2680791  )
         9           O1  tau(   9) = (   3.2912281   5.9459940  11.3193265  )
        10           O1  tau(  10) = (   0.0116148   5.9584955  10.6183126  )
        11           O1  tau(  11) = (   1.3103257   1.4650607  12.6442557  )
        12           O1  tau(  12) = (   5.3047449   1.4806448  12.6312737  )
        13           Ti1 tau(  13) = (   6.5337005   3.0128982  12.6900614  )
        14           Ti1 tau(  14) = (   3.2207025   1.4698770  12.4715817  )
        15           O1  tau(  15) = (   6.5518216   5.9146589  14.6704082  )
        16           O1  tau(  16) = (   3.3240203   5.9583723  13.8895330  )
        17           O1  tau(  17) = (   4.5456974   1.5225049  16.1264218  )
        18           O1  tau(  18) = (   2.0489736   1.4727210  15.9535721  )
        19           Ti1 tau(  19) = (   3.2591190   2.9927146  15.6788090  )
        20           Ti1 tau(  20) = (   0.0289511   1.3544711  15.7732889  )
        21           O1  tau(  21) = (   3.2904802   0.0005063   4.7018136  )
        22           O1  tau(  22) = (   0.0559926   0.0451390  17.2112278  )
        23           O1  tau(  23) = (   1.3043587   1.4918075   6.0039043  )
        24           O1  tau(  24) = (   5.2767064   1.4903225   6.0039473  )
        25           Ti1 tau(  25) = (   0.0000382   5.9609847   6.0000000  )
        26           Ti1 tau(  26) = (   3.2902200   4.4714249   6.0002472  )
        27           O1  tau(  27) = (   0.0002396   2.9813036   7.9858123  )
        28           O1  tau(  28) = (   3.2902150   2.9813002   7.3038282  )
        29           O1  tau(  29) = (   4.5938453   4.4726049   9.2879030  )
        30           O1  tau(  30) = (   1.9864658   4.4711199   9.2879459  )
        31           Ti1 tau(  31) = (   3.2891106   5.8743827   9.1763621  )
        32           Ti1 tau(  32) = (   0.0006254   4.4649316   9.2693709  )
        33           O1  tau(  33) = (   3.2889932   2.9698301  11.3211337  )
        34           O1  tau(  34) = (   0.0092240   2.9805883  10.6323155  )
        35           O1  tau(  35) = (   1.3069247   4.4567274  12.6410950  )
        36           O1  tau(  36) = (   5.3013738   4.4587240  12.6283471  )
        37           Ti1 tau(  37) = (   6.5339814   0.0202798  12.5235249  )
        38           Ti1 tau(  38) = (   3.2191325   4.4512509  12.4750946  )
        39           O1  tau(  39) = (   6.5688456   2.9522374  14.7547250  )
        40           O1  tau(  40) = (   3.3031296   2.9710333  13.8824388  )
        41           O1  tau(  41) = (   4.5425837   4.4734130  15.9989242  )
        42           O1  tau(  42) = (   2.0771424   4.4889556  16.0364895  )
        43           Ti1 tau(  43) = (   3.3121389   0.0026565  15.6888161  )
        44           Ti1 tau(  44) = (   6.5128106   4.4989306  16.3061806  )
        45           O1  tau(  45) = (   3.2900926   2.9813045   4.7018136  )
        46           O1  tau(  46) = (   1.3039711   4.4726057   6.0039043  )
        47           O1  tau(  47) = (   5.2763189   4.4711207   6.0039473  )
        48           N1  tau(  48) = (   0.4628824   2.9849886  17.7976856  )
        49           C1  tau(  49) = (   1.4182946   2.9518240  18.6700831  )
        50           H1  tau(  50) = (   2.3503500   2.6458988  18.1556329  )
        51           N1  tau(  51) = (   5.7893717   3.5482605  18.2279111  )
        52           H1  tau(  52) = (   5.8942619   4.0012392  19.1365464  )
        53           H1  tau(  53) = (   5.0634348   2.8266848  18.2415795  )

     number of k points=    10  Fermi-Dirac smearing, width (Ry)=  0.0073
                       cart. coord. in units 2pi/alat
        k(    1) = (   0.0000000   0.0000000   0.0000000), wk =   0.1250000
        k(    2) = (   0.0000000   0.0419351   0.0000000), wk =   0.2500000
        k(    3) = (   0.0000000  -0.0838702   0.0000000), wk =   0.1250000
        k(    4) = (   0.0379955   0.0000049   0.0000000), wk =   0.2500000
        k(    5) = (   0.0379955   0.0419400   0.0000000), wk =   0.2500000
        k(    6) = (   0.0379955  -0.0838652   0.0000000), wk =   0.2500000
        k(    7) = (   0.0379955  -0.0419301   0.0000000), wk =   0.2500000
        k(    8) = (  -0.0759910  -0.0000099   0.0000000), wk =   0.1250000
        k(    9) = (  -0.0759910   0.0419252   0.0000000), wk =   0.2500000
        k(   10) = (  -0.0759910  -0.0838800   0.0000000), wk =   0.1250000

     Initial potential from superposition of free atoms

     starting charge  378.99916, renormalised to  395.00000

     negative rho (up, down):  1.775E-02 0.000E+00

     %%%%%%%%%%%%%%%%%%%%%%%%%%%%%%%%%%%%%%%%%%%%%%%%%%%%%%%%%%%%%%%%%%%%%%%%
     %                                                                      %
     % You are using vdW-DF, which was implemented by the Thonhauser group. %
     % Please cite the following two papers that made this development      %
     % possible and the two reviews that describe the various versions:     %
     %                                                                      %
     %   T. Thonhauser et al., PRL 115, 136402 (2015).                      %
     %   T. Thonhauser et al., PRB 76, 125112 (2007).                       %
     %   K. Berland et al., Rep. Prog. Phys. 78, 066501 (2015).             %
     %   D.C. Langreth et al., J. Phys.: Condens. Matter 21, 084203 (2009). %
     %                                                                      %
     %                                                                      %
     % If you are calculating the stress with vdW-DF, please also cite:     %
     %                                                                      %
     %   R. Sabatini et al., J. Phys.: Condens. Matter 24, 424209 (2012).   %
     %                                                                      %
     %%%%%%%%%%%%%%%%%%%%%%%%%%%%%%%%%%%%%%%%%%%%%%%%%%%%%%%%%%%%%%%%%%%%%%%%

     Adding external electric field

     Computed dipole along edir(3) :
        Dipole               -8.0620 Ry au,        -20.4914 Debye
        Dipole field         -0.0152 Ry au,

        Potential amp.        1.4103 Ry
        Total length         46.3494 bohr

     Starting wfcs are  299 atomic wfcs
  @ DRIVER MODE: Message from server: STATUS
  @ DRIVER MODE: Message from server: POSDATA
  @ DRIVER MODE: Reading and sharing cell
  @ DRIVER MODE: Reading and sharing positions
  @ DRIVER MODE: Received positions

     Self-consistent Calculation

     iteration #  1     ecut=    29.40 Ry     beta= 0.05
     Davidson diagonalization with overlap
     c_bands:  1 eigenvalues not converged
     c_bands:  1 eigenvalues not converged
     c_bands:  2 eigenvalues not converged
     c_bands:  3 eigenvalues not converged
     c_bands:  3 eigenvalues not converged
     c_bands:  2 eigenvalues not converged
     c_bands:  1 eigenvalues not converged
     ethr =  1.00E-05,  avg # of iterations = 19.3

[...]

     total energy              =   -2614.88399555 Ry
     estimated scf accuracy    <    3583.87093609 Ry

[...]

     iteration #  5     ecut=    29.40 Ry     beta= 0.05
     Davidson diagonalization with overlap
     ethr =  1.00E-02,  avg # of iterations =  6.9

[...]

     iteration # 36     ecut=    29.40 Ry     beta= 0.05
     Davidson diagonalization with overlap
     c_bands:  1 eigenvalues not converged
     c_bands:  3 eigenvalues not converged
     c_bands:  1 eigenvalues not converged
     ethr =  8.75E-07,  avg # of iterations = 14.5

[...]

     total energy              =   -2939.00597955 Ry
     estimated scf accuracy    <       0.00000008 Ry

     iteration # 64     ecut=    29.40 Ry     beta= 0.05
     Davidson diagonalization with overlap
     ethr =  2.05E-11,  avg # of iterations = 11.1

     negative rho (up, down):  1.647E-02 0.000E+00

     Adding external electric field

     Computed dipole along edir(3) :
        Dipole                0.3037 Ry au,          0.7720 Debye
        Dipole field          0.0006 Ry au,

        Potential amp.       -0.0531 Ry
        Total length         46.3494 bohr

     End of self-consistent calculation

          k = 0.0000 0.0000 0.0000 ( 18029 PWs)   bands (ev):

   -56.1064 -56.1042 -56.0723 -56.0678 -55.9945 -55.9602 -55.9543 -55.9193
   -55.9040 -55.8698 -55.8687 -55.8344 -55.6459 -55.5848 -55.0764 -55.0424
   -32.6632 -32.5875 -32.4861 -32.4259 -32.4117 -32.4077 -32.3990 -32.3598
   -32.3465 -32.3318 -32.3062 -32.2846 -32.2785 -32.2587 -32.2517 -32.2450
   -32.2094 -32.1964 -32.1937 -32.1892 -32.1854 -32.1637 -32.1572 -32.1416
   -32.1163 -32.1026 -32.1012 -32.1004 -32.0955 -32.0920 -32.0708 -32.0440
   -32.0434 -32.0287 -32.0218 -32.0020 -31.9806 -31.9516 -31.8738 -31.8447
   -31.8005 -31.7364 -31.4831 -31.3957 -31.3733 -31.3000 -31.2136 -31.1023
   -17.9646 -16.8724 -16.5827 -16.3672 -16.2618 -16.2464 -16.1399 -15.9547
   -15.8213 -15.7931 -15.6864 -15.6799 -15.6387 -15.6261 -15.5975 -15.5739
   -15.5652 -15.5393 -15.5364 -15.5201 -15.4757 -15.4526 -15.4335 -15.3366
   -15.2973 -15.2367 -15.2146 -15.1538 -15.0314 -14.7958 -13.5789 -13.4626
   -13.2965  -8.0480  -6.3337  -4.3563  -4.2465  -4.0700  -4.0091  -3.9678
    -3.9609  -3.7190  -3.6861  -3.3272  -3.2948  -3.2751  -3.2646  -3.2533
    -3.1385  -3.0183  -2.9626  -2.9207  -2.9105  -2.8997  -2.8925  -2.8798
    -2.8540  -2.8318  -2.7278  -2.6835  -2.6526  -2.5426  -2.5244  -2.4334
    -2.4164  -2.4051  -2.3708  -2.3504  -2.3418  -2.3155  -2.3044  -2.2777
    -2.1928  -2.1432  -2.0288  -1.9634  -1.8855  -1.8505  -1.7031  -1.6591
    -1.5714  -1.5650  -1.5463  -1.5243  -1.4911  -1.4051  -1.3293  -1.2412
    -1.1992  -1.1615  -1.1257  -1.0824  -1.0004  -0.9819  -0.9646  -0.8684
    -0.8645  -0.8552  -0.8113  -0.6107  -0.5858  -0.5520  -0.5393  -0.4622
    -0.4037  -0.3869  -0.3660  -0.3179  -0.2578  -0.1947  -0.1487  -0.1337
    -0.1224  -0.1190  -0.0846  -0.0586   0.0842   0.0947   0.1888   0.2007
     0.2242   0.3522   0.5251   0.5625   0.5856   0.7050   0.8765   0.9457
     1.0479   1.1387   1.5161   1.5614   2.4085   3.0313   3.1176   3.1513
     3.1706   3.2760   3.3092   3.4789   3.4941   3.5293   3.5486

[...]

          k = 0.0380-0.0419 0.0000 ( 17876 PWs)   bands (ev):

[...]

          k =-0.0760-0.0000 0.0000 ( 17886 PWs)   bands (ev):

[...]

          k =-0.0760-0.0839 0.0000 ( 17948 PWs)   bands (ev):

   -56.0904 -56.0881 -56.0879 -56.0838 -55.9853 -55.9634 -55.9506 -55.9288
   -55.8888 -55.8845 -55.8550 -55.8483 -55.6426 -55.5880 -55.0594 -55.0592
   -32.4667 -32.4622 -32.4035 -32.4021 -32.3853 -32.3837 -32.3654 -32.3531
   -32.3341 -32.3147 -32.2914 -32.2749 -32.2489 -32.2392 -32.2386 -32.2200
   -32.2199 -32.2101 -32.2077 -32.2022 -32.2012 -32.1935 -32.1877 -32.1731
   -32.1683 -32.1501 -32.1338 -32.1311 -32.0885 -32.0866 -32.0847 -32.0808
   -32.0714 -32.0698 -32.0658 -32.0645 -32.0602 -31.9698 -31.8853 -31.8380
   -31.8038 -31.7927 -31.3861 -31.3859 -31.2960 -31.2958 -31.2569 -31.2568
   -17.9545 -16.3081 -16.2923 -16.0758 -16.0312 -16.0270 -16.0062 -15.9177
   -15.8276 -15.8085 -15.7943 -15.7767 -15.7617 -15.6816 -15.6560 -15.6337
   -15.6299 -15.6170 -15.5624 -15.5567 -15.5534 -15.5483 -15.5285 -15.4954
   -15.4129 -15.4079 -15.3967 -15.1584 -15.0925 -15.0213 -13.5647 -13.5642
   -13.3095  -8.0054  -6.2698  -4.3760  -3.6010  -3.5823  -3.3561  -3.3104
    -3.2832  -3.2742  -3.1591  -3.0566  -3.0267  -3.0141  -2.9755  -2.9574
    -2.9448  -2.9324  -2.9196  -2.9004  -2.8747  -2.8409  -2.8357  -2.7896
    -2.7731  -2.7521  -2.7346  -2.7129  -2.7118  -2.6712  -2.6654  -2.6267
    -2.5886  -2.5428  -2.4335  -2.3798  -2.3408  -2.2907  -2.2355  -2.2244
    -2.2152  -2.1615  -2.1563  -2.1224  -2.0372  -1.9615  -1.8264  -1.8047
    -1.7717  -1.7305  -1.6974  -1.6001  -1.5562  -1.5068  -1.4552  -1.3992
    -1.3874  -1.3444  -1.3076  -1.2413  -1.2246  -1.1848  -1.1637  -1.1015
    -1.0598  -1.0557  -0.9922  -0.9248  -0.8669  -0.8630  -0.8425  -0.8278
    -0.7705  -0.7227  -0.6560  -0.6069  -0.5654  -0.4680  -0.4114  -0.2945
    -0.1867  -0.0678   0.0031   0.0073   0.0629   0.1403   0.1860   0.2203
     0.2311   0.2494   0.3409   0.4128   0.4315   0.4455   0.5155   0.6980
     1.3104   1.3116   1.3807   1.3815   2.4051   3.3195   3.3576   3.3719
     3.4030   3.5481   3.5508   3.5630   3.5668   3.6851   3.7359

     the Fermi energy is     3.0285 ev

!    total energy              =   -2939.00601678 Ry
     estimated scf accuracy    <       0.00000006 Ry
     smearing contrib. (-TS)   =      -0.02200837 Ry
     internal energy E=F+TS    =   -2938.98400840 Ry

     The total energy is F=E-TS. E is the sum of the following terms:
     one-electron contribution =  -24452.64230504 Ry
     hartree contribution      =   12311.38945762 Ry
     xc contribution           =    -485.12346394 Ry
     ewald contribution        =    9687.39212887 Ry
     electric field correction =       0.00017408 Ry

     convergence has been achieved in  64 iterations

     Forces acting on atoms (cartesian axes, Ry/au):

     atom    1 type  1   force =     0.00018378   -0.00028311    0.09692182
     atom    2 type  1   force =     0.00006885   -0.00079257   -0.17494916
     atom    3 type  2   force =     0.00014503   -0.00008707   -0.02554640
     atom    4 type  2   force =    -0.00003171   -0.00142831    0.05153871
     atom    5 type  2   force =    -0.01208162   -0.00173373    0.00277092
     atom    6 type  2   force =     0.01350319   -0.00134002    0.00221016
     atom    7 type  1   force =     0.00040419    0.00015110   -0.01208511
     atom    8 type  1   force =     0.00019073    0.02419487    0.02896608
     atom    9 type  2   force =    -0.00004278    0.00051646   -0.00008979
     atom   10 type  2   force =    -0.00266363    0.00014215   -0.01165848
     atom   11 type  2   force =    -0.00002589    0.00026832    0.00003269
     atom   12 type  2   force =    -0.00025056   -0.00001779    0.00012936
     atom   13 type  1   force =    -0.00012693    0.00114896   -0.00012624
     atom   14 type  1   force =    -0.00000425    0.00049844    0.00004263
     atom   15 type  2   force =     0.00009114   -0.00009387   -0.00008912
     atom   16 type  2   force =    -0.00021401    0.00022646   -0.00030982
     atom   17 type  2   force =     0.00031213    0.00018566   -0.00035529
     atom   18 type  2   force =    -0.00023601    0.00010508   -0.00010508
     atom   19 type  1   force =    -0.00019699   -0.00018228   -0.00061941
     atom   20 type  1   force =     0.00018566   -0.00005205   -0.00008247
     atom   21 type  2   force =     0.00006683   -0.00007174    0.10297872
     atom   22 type  2   force =     0.00003349   -0.00017061   -0.00046567
     atom   23 type  2   force =    -0.07170535   -0.00017263   -0.02790315
     atom   24 type  2   force =     0.07160715    0.00028582   -0.02793973
     atom   25 type  1   force =     0.00003443   -0.00026066    0.09682003
     atom   26 type  1   force =    -0.00000339   -0.00017907   -0.17511542
     atom   27 type  2   force =     0.00015542   -0.00027022   -0.02421112
     atom   28 type  2   force =     0.00001512   -0.00118006    0.05209159
     atom   29 type  2   force =    -0.01223713    0.00078193    0.00244571
     atom   30 type  2   force =     0.01354146    0.00126658    0.00185588
     atom   31 type  1   force =     0.00045136    0.00287047   -0.01397207
     atom   32 type  1   force =     0.00038629   -0.02517497    0.03045789
     atom   33 type  2   force =     0.00004177   -0.00007890   -0.00019095
     atom   34 type  2   force =    -0.00184115   -0.00050025   -0.02073358
     atom   35 type  2   force =     0.00000066    0.00022016   -0.00006431
     atom   36 type  2   force =     0.00016907    0.00033140    0.00015033
     atom   37 type  1   force =    -0.00020729   -0.00085469   -0.00000514
     atom   38 type  1   force =     0.00008362    0.00013022   -0.00022256
     atom   39 type  2   force =     0.00007856    0.00034188   -0.00022811
     atom   40 type  2   force =    -0.00006725    0.00008818    0.00042164
     atom   41 type  2   force =     0.00048576    0.00001067   -0.00008723
     atom   42 type  2   force =    -0.00027460   -0.00006728   -0.00021917
     atom   43 type  1   force =    -0.00038904    0.00031411    0.00011727
     atom   44 type  1   force =     0.00011103    0.00016838    0.00024666
     atom   45 type  2   force =     0.00005553   -0.00006771    0.10299864
     atom   46 type  2   force =    -0.07173213   -0.00011763   -0.02790602
     atom   47 type  2   force =     0.07162008    0.00025758   -0.02793004
     atom   48 type  3   force =    -0.00095240   -0.00030068   -0.00016603
     atom   49 type  4   force =    -0.00044065    0.00000770    0.00013839
     atom   50 type  5   force =     0.00032515    0.00064055   -0.00027212
     atom   51 type  3   force =    -0.00748987   -0.00642701    0.00036555
     atom   52 type  5   force =     0.00006377   -0.00013676    0.00004344
     atom   53 type  5   force =     0.00880338    0.00688855   -0.00009531

     Total force =     0.369272     Total SCF correction =     0.000786
  @ DRIVER MODE: Message from server: STATUS
  @ DRIVER MODE: Message from server: GETFORCE
  @ DRIVER MODE: Returning v,forces,stress,ensemble

     Writing output data file ./calc.save/
  @ DRIVER MODE: Message from server: EXIT
  @ DRIVE MODE: Exiting

     General routines

     Parallel routines

   This run was terminated on:  10:14: 8   9Sep2021

   JOB DONE.