     Program PWSCF v.6.7GPU starts on 30Sep2021 at  3: 2: 3

     R & G space division:  proc/nbgrp/npool/nimage =       8
     Reading input from /storage/home/hcoda1/3/ntian30/research/carbon/CxH_vib/pristine/ads_slab/CH2N2_c/out_0030/pw.inp
Warning: card &CELL ignored
Warning: card   CELL_DYNAMICS='IPI', ignored
Warning: card / ignored

     Current dimensions of program PWSCF are:
     Max number of different atomic species (ntypx) = 10
     Max number of k-points (npk) =  40000
     Max angular momentum in pseudopotentials (lmaxx) =  3
     Presently no symmetry can be used with electric field

     Message from routine cell_base_init:
     DEPRECATED: use true lattice parameter, not A to a.u. conversion factor

     IMPORTANT: XC functional enforced from input :
     Exchange-correlation= BEEF-VDW
                           (   1   4  43  14   2   0   0)
     Any further DFT definition will be discarded
     Please, verify this is what you really want

  @ DRIVER MODE: Connecting to
 qe_1139763_3025227.sched-torque.pace.gatech.edu12efpup0_scratch
  using UNIX socket
  @ DRIVER MODE: Message from server: STATUS
  @ DRIVER MODE: Message from server: INIT
  @ DRIVER MODE: Receiving replica           0          -1
  @ DRIVER MODE: Receiving encoded integer          25
  @ DRIVER MODE:  SCF:  T  FORCE:  T  STRESS:  F  VC:  F  ENSEMBLE:  F
  @ DRIVER MODE:  SCF:  T  FORCE:  T  STRESS:  F  VC:  F  ENSEMBLE:  F

     Using Slab Decomposition

     bravais-lattice index     =            0
     lattice parameter (alat)  =       1.8897  a.u.
     unit-cell volume          =    6658.9804 (a.u.)^3
     number of atoms/cell      =           53
     number of atomic types    =            5
     number of electrons       =       400.00
     number of Kohn-Sham states=          210
     kinetic-energy cutoff     =      29.3995  Ry
     charge density cutoff     =     293.9946  Ry
     scf convergence threshold =      7.3E-08
     mixing beta               =       0.0500
     number of iterations used =            8  plain     mixing
     Exchange-correlation= BEEF-VDW
                           (   1   4  43  14   2   0   0)

     celldm(1)=   1.889726  celldm(2)=   0.000000  celldm(3)=   0.000000
     celldm(4)=   0.000000  celldm(5)=   0.000000  celldm(6)=   0.000000

     crystal axes: (cart. coord. in units of alat)
               a(1) = (   6.579727   0.000000   0.000000 )
               a(2) = (  -0.000775   5.961596   0.000000 )
               a(3) = (   0.000000   0.000000  25.155947 )

     reciprocal axes: (cart. coord. in units 2 pi/alat)
               b(1) = (  0.151982  0.000020  0.000000 )
               b(2) = (  0.000000  0.167740  0.000000 )
               b(3) = (  0.000000  0.000000  0.039752 )

     PseudoPot. # 1 for Ti read from file:
     /storage/coda1/p-amedford6/0/shared/rich_project_chbe-medford/medford-share/data/pseudos_module/espresso/nninc/pbe/van/Ti.UPF
     MD5 check sum: 8e4df49b7f0d34bbd5052bf3f5ea0213
     Pseudo is Ultrasoft, Zval = 12.0
     Generated by new atomic code, or converted to UPF format
     Using radial grid of  851 points,  6 beta functions with:
                l(1) =   0
                l(2) =   0
                l(3) =   1
                l(4) =   1
                l(5) =   2
                l(6) =   2
     Q(r) pseudized with  8 coefficients,  rinner =    1.000   1.000   1.000
                                                       1.000   1.000

     PseudoPot. # 2 for O  read from file:
     /storage/coda1/p-amedford6/0/shared/rich_project_chbe-medford/medford-share/data/pseudos_module/espresso/nninc/pbe/van/O.UPF
     MD5 check sum: 78c19812648e8988a0fe644b0f25305e
     Pseudo is Ultrasoft, Zval =  6.0
     Generated by new atomic code, or converted to UPF format
     Using radial grid of  737 points,  4 beta functions with:
                l(1) =   0
                l(2) =   0
                l(3) =   1
                l(4) =   1
     Q(r) pseudized with  8 coefficients,  rinner =    0.800   0.800   0.800

     PseudoPot. # 3 for N  read from file:
     /storage/coda1/p-amedford6/0/shared/rich_project_chbe-medford/medford-share/data/pseudos_module/espresso/nninc/pbe/van/N.UPF
     MD5 check sum: 90d10febe142ad51ac9d5be1deb811c4
     Pseudo is Ultrasoft, Zval =  5.0
     Generated by new atomic code, or converted to UPF format
     Using radial grid of  729 points,  4 beta functions with:
                l(1) =   0
                l(2) =   0
                l(3) =   1
                l(4) =   1
     Q(r) pseudized with  8 coefficients,  rinner =    0.800   0.800   0.800

     PseudoPot. # 4 for C  read from file:
     /storage/coda1/p-amedford6/0/shared/rich_project_chbe-medford/medford-share/data/pseudos_module/espresso/nninc/pbe/van/C.UPF
     MD5 check sum: 1a69bf6b8db32088f5b2163dbdb77a27
     Pseudo is Ultrasoft, Zval =  4.0
     Generated by new atomic code, or converted to UPF format
     Using radial grid of  721 points,  4 beta functions with:
                l(1) =   0
                l(2) =   0
                l(3) =   1
                l(4) =   1
     Q(r) pseudized with  8 coefficients,  rinner =    0.800   0.800   0.800

     PseudoPot. # 5 for H  read from file:
     /storage/coda1/p-amedford6/0/shared/rich_project_chbe-medford/medford-share/data/pseudos_module/espresso/nninc/pbe/van/H.UPF
     MD5 check sum: b5ee9d7bfd3a09ee7748110bda690ff7
     Pseudo is Ultrasoft, Zval =  1.0
     Generated by new atomic code, or converted to UPF format
     Using radial grid of  615 points,  1 beta functions with:
                l(1) =   0
     Q(r) pseudized with  8 coefficients,  rinner =    0.800

     atomic species   valence    mass     pseudopotential
        Ti1           12.00    47.86700     Ti( 1.00)
        O1             6.00    15.99900     O ( 1.00)
        N1             5.00    14.00700     N ( 1.00)
        C1             4.00    12.01100     C ( 1.00)
        H1             1.00     1.00800     H ( 1.00)

     No symmetry found

   Cartesian axes

     site n.     atom                  positions (alat units)
         1           Ti1 tau(   1) = (   0.0004258   2.9801865   6.0000000  )
         2           Ti1 tau(   2) = (   3.2906075   1.4906267   6.0002472  )
         3           O1  tau(   3) = (   0.0006271   0.0005054   7.9858123  )
         4           O1  tau(   4) = (   3.2906025   0.0005020   7.3038282  )
         5           O1  tau(   5) = (   4.5942328   1.4918067   9.2879030  )
         6           O1  tau(   6) = (   1.9868534   1.4903216   9.2879459  )
         7           Ti1 tau(   7) = (   3.2785950   2.8620264   9.1674676  )
         8           Ti1 tau(   8) = (   6.5781813   1.4341531   9.3833155  )
         9           O1  tau(   9) = (   3.3145900   5.9487502  11.3480437  )
        10           O1  tau(  10) = (   0.0063384   5.9489964  10.5610107  )
        11           O1  tau(  11) = (   1.3034973   1.4807819  12.6446922  )
        12           O1  tau(  12) = (   5.3015769   1.4818569  12.6358846  )
        13           Ti1 tau(  13) = (   0.1076100   2.9713955  12.8282313  )
        14           Ti1 tau(  14) = (   3.4293281   1.4717859  12.4936833  )
        15           O1  tau(  15) = (   0.0296261   0.0013950  14.6649934  )
        16           O1  tau(  16) = (   3.3139734   5.9559375  13.9452938  )
        17           O1  tau(  17) = (   4.5568938   1.4842850  16.0642655  )
        18           O1  tau(  18) = (   2.0675170   1.4827017  16.0617013  )
        19           Ti1 tau(  19) = (   3.3081901   2.9629817  15.7008690  )
        20           Ti1 tau(  20) = (   0.0097687   1.4520379  16.1724920  )
        21           O1  tau(  21) = (   3.2904802   0.0005063   4.7018136  )
        22           O1  tau(  22) = (   0.0191552   5.9343797  17.2479478  )
        23           O1  tau(  23) = (   1.3043587   1.4918075   6.0039043  )
        24           O1  tau(  24) = (   5.2767064   1.4903225   6.0039473  )
        25           Ti1 tau(  25) = (   0.0000382   5.9609847   6.0000000  )
        26           Ti1 tau(  26) = (   3.2902200   4.4714249   6.0002472  )
        27           O1  tau(  27) = (   0.0002396   2.9813036   7.9858123  )
        28           O1  tau(  28) = (   3.2902150   2.9813002   7.3038282  )
        29           O1  tau(  29) = (   4.5938453   4.4726049   9.2879030  )
        30           O1  tau(  30) = (   1.9864658   4.4711199   9.2879459  )
        31           Ti1 tau(  31) = (   3.2981115   5.8424800   9.1654069  )
        32           Ti1 tau(  32) = (   0.0061885   4.4171606   9.3817948  )
        33           O1  tau(  33) = (   3.3160899   2.9715062  11.3475872  )
        34           O1  tau(  34) = (   0.0081518   2.9687805  10.5628331  )
        35           O1  tau(  35) = (   1.3040072   4.4662140  12.6497434  )
        36           O1  tau(  36) = (   5.3008443   4.4652654  12.6404979  )
        37           Ti1 tau(  37) = (   0.1012718   5.9536009  12.8334903  )
        38           Ti1 tau(  38) = (   3.4286588   4.4602296  12.4928226  )
        39           O1  tau(  39) = (   0.0319021   2.9714116  14.6601935  )
        40           O1  tau(  40) = (   3.3101560   2.9646938  13.9065487  )
        41           O1  tau(  41) = (   4.5621106   4.4348364  16.0307704  )
        42           O1  tau(  42) = (   2.0631145   4.4362735  16.0340239  )
        43           Ti1 tau(  43) = (   3.3022073   5.9430436  15.7660435  )
        44           Ti1 tau(  44) = (   0.0096536   4.4281594  16.1671579  )
        45           O1  tau(  45) = (   3.2900926   2.9813045   4.7018136  )
        46           O1  tau(  46) = (   0.0201356   2.9582321  17.2481609  )
        47           O1  tau(  47) = (   1.3039711   4.4726057   6.0039043  )
        48           O1  tau(  48) = (   5.2763189   4.4711207   6.0039473  )
        49           N1  tau(  49) = (   3.1912726   0.1001446  19.4138715  )
        50           N1  tau(  50) = (   3.2720412   5.7295159  18.3236336  )
        51           C1  tau(  51) = (   3.0989320   0.4433392  20.6510207  )
        52           H1  tau(  52) = (   2.1138422   0.5496673  21.0731464  )
        53           H1  tau(  53) = (   4.0116933   0.5939059  21.2109644  )

     number of k points=    10  Fermi-Dirac smearing, width (Ry)=  0.0073
                       cart. coord. in units 2pi/alat
        k(    1) = (   0.0000000   0.0000000   0.0000000), wk =   0.1250000
        k(    2) = (   0.0000000   0.0419351   0.0000000), wk =   0.2500000
        k(    3) = (   0.0000000  -0.0838702   0.0000000), wk =   0.1250000
        k(    4) = (   0.0379955   0.0000049   0.0000000), wk =   0.2500000
        k(    5) = (   0.0379955   0.0419400   0.0000000), wk =   0.2500000
        k(    6) = (   0.0379955  -0.0838652   0.0000000), wk =   0.2500000
        k(    7) = (   0.0379955  -0.0419301   0.0000000), wk =   0.2500000
        k(    8) = (  -0.0759910  -0.0000099   0.0000000), wk =   0.1250000
        k(    9) = (  -0.0759910   0.0419252   0.0000000), wk =   0.2500000
        k(   10) = (  -0.0759910  -0.0838800   0.0000000), wk =   0.1250000

     Initial potential from superposition of free atoms

     starting charge  383.99917, renormalised to  400.00000

     negative rho (up, down):  1.242E-02 0.000E+00

     %%%%%%%%%%%%%%%%%%%%%%%%%%%%%%%%%%%%%%%%%%%%%%%%%%%%%%%%%%%%%%%%%%%%%%%%
     %                                                                      %
     % You are using vdW-DF, which was implemented by the Thonhauser group. %
     % Please cite the following two papers that made this development      %
     % possible and the two reviews that describe the various versions:     %
     %                                                                      %
     %   T. Thonhauser et al., PRL 115, 136402 (2015).                      %
     %   T. Thonhauser et al., PRB 76, 125112 (2007).                       %
     %   K. Berland et al., Rep. Prog. Phys. 78, 066501 (2015).             %
     %   D.C. Langreth et al., J. Phys.: Condens. Matter 21, 084203 (2009). %
     %                                                                      %
     %                                                                      %
     % If you are calculating the stress with vdW-DF, please also cite:     %
     %                                                                      %
     %   R. Sabatini et al., J. Phys.: Condens. Matter 24, 424209 (2012).   %
     %                                                                      %
     %%%%%%%%%%%%%%%%%%%%%%%%%%%%%%%%%%%%%%%%%%%%%%%%%%%%%%%%%%%%%%%%%%%%%%%%

     Adding external electric field

     Computed dipole along edir(3) :
        Dipole              -11.0079 Ry au,        -27.9793 Debye
        Dipole field         -0.0208 Ry au,

        Potential amp.        1.9257 Ry
        Total length         46.3494 bohr

     Starting wfcs are  302 atomic wfcs
  @ DRIVER MODE: Message from server: STATUS
  @ DRIVER MODE: Message from server: POSDATA
  @ DRIVER MODE: Reading and sharing cell
  @ DRIVER MODE: Reading and sharing positions
  @ DRIVER MODE: Received positions

     Self-consistent Calculation

     iteration #  1     ecut=    29.40 Ry     beta= 0.05
     Davidson diagonalization with overlap
     c_bands:  1 eigenvalues not converged
     c_bands:  1 eigenvalues not converged
     c_bands:  1 eigenvalues not converged
     c_bands:  2 eigenvalues not converged
     c_bands:  2 eigenvalues not converged
     c_bands:  2 eigenvalues not converged
     c_bands:  2 eigenvalues not converged
     c_bands:  4 eigenvalues not converged
     c_bands:  2 eigenvalues not converged
     ethr =  1.00E-05,  avg # of iterations = 20.0

[...]

     total energy              =   -2516.89868305 Ry
     estimated scf accuracy    <    5070.46867380 Ry

     iteration #  2     ecut=    29.40 Ry     beta= 0.05
     Davidson diagonalization with overlap
     ethr =  1.00E-02,  avg # of iterations = 22.0

[...]

     iteration # 46     ecut=    29.40 Ry     beta= 0.05
     Davidson diagonalization with overlap
     c_bands:  1 eigenvalues not converged
     c_bands:  1 eigenvalues not converged
     c_bands:  1 eigenvalues not converged
     ethr =  2.48E-07,  avg # of iterations = 11.7

[...]

     total energy              =   -2970.32643458 Ry
     estimated scf accuracy    <       0.00000013 Ry

     iteration # 64     ecut=    29.40 Ry     beta= 0.05
     Davidson diagonalization with overlap
     ethr =  3.20E-11,  avg # of iterations =  2.4

     negative rho (up, down):  1.352E-02 0.000E+00

     Adding external electric field

     Computed dipole along edir(3) :
        Dipole                0.9025 Ry au,          2.2939 Debye
        Dipole field          0.0017 Ry au,

        Potential amp.       -0.1579 Ry
        Total length         46.3494 bohr

     End of self-consistent calculation

          k = 0.0000 0.0000 0.0000 ( 18029 PWs)   bands (ev):

   -55.9896 -55.9560 -55.6709 -55.6350 -55.6001 -55.4818 -55.3927 -55.3681
   -55.3578 -55.3341 -55.2822 -55.2471 -55.2402 -55.2030 -54.7735 -54.7396
   -32.4171 -32.2364 -32.2094 -32.2084 -32.1814 -32.0903 -32.0440 -32.0301
   -31.9740 -31.8952 -31.8879 -31.8779 -31.8642 -31.8481 -31.8375 -31.8294
   -31.8183 -31.7956 -31.7856 -31.7529 -31.6710 -31.6426 -31.6342 -31.6276
   -31.6223 -31.6145 -31.5853 -31.5769 -31.5614 -31.5269 -31.5264 -31.5051
   -31.4969 -31.4850 -31.4635 -31.4629 -31.4611 -31.4456 -31.4387 -31.4160
   -31.3839 -31.3110 -31.1733 -31.0998 -31.0760 -30.9917 -30.9068 -30.7948
   -20.8396 -16.3298 -16.1511 -15.9253 -15.7818 -15.7051 -15.5682 -15.3568
   -15.3435 -15.2694 -15.2361 -15.2174 -15.1523 -15.1449 -15.1169 -15.1084
   -15.0826 -15.0562 -15.0220 -15.0057 -14.9929 -14.9516 -14.9010 -14.8636
   -14.7845 -14.7270 -14.6312 -14.6070 -14.5785 -14.5045 -14.4713 -14.2016
   -13.2672 -13.1535  -6.8001  -5.8040  -4.7366  -4.4371  -3.7392  -3.6687
    -3.5289  -3.5262  -3.3978  -3.1402  -3.0428  -2.8145  -2.8122  -2.7582
    -2.7175  -2.7020  -2.6638  -2.6030  -2.4997  -2.4828  -2.4535  -2.4284
    -2.4079  -2.4033  -2.3910  -2.3315  -2.3105  -2.2237  -2.2187  -2.2135
    -2.1747  -2.0422  -1.9960  -1.9499  -1.9426  -1.9120  -1.8311  -1.8181
    -1.8020  -1.7587  -1.6668  -1.6327  -1.5033  -1.4027  -1.3980  -1.3563
    -1.2979  -1.2484  -1.0523  -1.0123  -1.0003  -0.9782  -0.9700  -0.9550
    -0.8820  -0.8211  -0.6938  -0.5889  -0.5681  -0.5333  -0.5141  -0.5087
    -0.4792  -0.4144  -0.4048  -0.3823  -0.3412  -0.2084  -0.0652  -0.0351
    -0.0055   0.0183   0.0367   0.1090   0.1179   0.1636   0.1949   0.2416
     0.2494   0.2899   0.3094   0.3332   0.4170   0.4474   0.5001   0.5312
     0.5543   0.5752   0.6150   0.7824   0.8528   0.9672   0.9872   1.0617
     1.1987   1.2198   1.2544   1.4663   1.5120   1.6208   1.8424   1.9181
     3.2806   3.4656   3.6706   3.7538   3.7827   3.8729   3.9470   4.0010
     4.0541   4.1550

[...]

          k = 0.0380-0.0419 0.0000 ( 17876 PWs)   bands (ev):

[...]

          k =-0.0760-0.0000 0.0000 ( 17886 PWs)   bands (ev):

[...]

          k =-0.0760-0.0839 0.0000 ( 17948 PWs)   bands (ev):

   -55.9737 -55.9717 -55.6543 -55.6514 -55.5975 -55.4843 -55.3775 -55.3729
   -55.3516 -55.3503 -55.2655 -55.2638 -55.2237 -55.2194 -54.7565 -54.7565
   -32.2354 -32.2338 -32.2233 -32.2207 -32.1350 -32.1333 -32.0188 -32.0082
   -31.9304 -31.9192 -31.8895 -31.8648 -31.8559 -31.8524 -31.8221 -31.7956
   -31.7831 -31.6991 -31.6950 -31.6841 -31.6818 -31.6811 -31.6133 -31.6120
   -31.6047 -31.6011 -31.6005 -31.5964 -31.5887 -31.5878 -31.5610 -31.5596
   -31.5506 -31.5451 -31.4800 -31.4790 -31.4738 -31.4721 -31.4593 -31.4553
   -31.4430 -31.4395 -31.0889 -31.0889 -30.9876 -30.9875 -30.9494 -30.9494
   -20.8394 -15.7944 -15.7246 -15.5470 -15.5195 -15.4580 -15.4564 -15.4348
   -15.4220 -15.3678 -15.3664 -15.2344 -15.2246 -15.2183 -15.2123 -15.1508
   -15.1458 -15.1421 -15.1381 -15.0882 -15.0831 -14.9505 -14.9473 -14.8537
   -14.8481 -14.8086 -14.8008 -14.7468 -14.7364 -14.6504 -14.6417 -14.2011
   -13.2559 -13.2557  -6.7971  -5.8057  -4.7436  -4.4357  -3.0933  -2.9753
    -2.7773  -2.7673  -2.7408  -2.6143  -2.6093  -2.5889  -2.5839  -2.5257
    -2.4861  -2.4697  -2.4651  -2.4337  -2.4295  -2.3730  -2.3680  -2.3529
    -2.3436  -2.3380  -2.3333  -2.3263  -2.3187  -2.2388  -2.2318  -2.2169
    -2.2142  -2.1456  -2.1394  -2.1098  -2.0996  -1.8794  -1.8783  -1.8236
    -1.8130  -1.6971  -1.6927  -1.6745  -1.6721  -1.6137  -1.5878  -1.3680
    -1.3605  -1.3071  -1.2880  -1.2364  -1.2328  -1.1095  -1.0845  -0.9761
    -0.9363  -0.9301  -0.9229  -0.7924  -0.7811  -0.7726  -0.7564  -0.7478
    -0.7398  -0.6452  -0.5869  -0.5426  -0.5332  -0.5016  -0.4921  -0.4703
    -0.4232  -0.2825  -0.2790  -0.2737  -0.2644  -0.1286  -0.1265  -0.0653
    -0.0604   0.1787   0.1915   0.3054   0.3081   0.5643   0.5706   0.5970
     0.6120   0.7393   0.7522   0.7609   0.7948   0.9046   0.9089   0.9148
     0.9246   1.0162   1.0205   1.6085   1.6411   1.6421   1.6970   1.6975
     3.7951   3.8048   3.8263   3.8278   3.8536   3.8707   3.8999   3.9082
     4.1580   4.1786

     the Fermi energy is     2.6534 ev

!    total energy              =   -2970.32647971 Ry
     estimated scf accuracy    <       0.00000007 Ry
     smearing contrib. (-TS)   =      -0.00009979 Ry
     internal energy E=F+TS    =   -2970.32637993 Ry

     The total energy is F=E-TS. E is the sum of the following terms:
     one-electron contribution =  -23420.27393202 Ry
     hartree contribution      =   11801.93959552 Ry
     xc contribution           =    -491.45832139 Ry
     ewald contribution        =    9139.46474092 Ry
     electric field correction =       0.00153705 Ry

     convergence has been achieved in  64 iterations

     Forces acting on atoms (cartesian axes, Ry/au):

     atom    1 type  1   force =     0.00001991   -0.00005748    0.14944243
     atom    2 type  1   force =    -0.00005830   -0.00023845   -0.16927424
     atom    3 type  2   force =     0.00008076    0.00240655   -0.05965119
     atom    4 type  2   force =     0.00006195   -0.00154031    0.04011319
     atom    5 type  2   force =    -0.02178965   -0.00036005    0.00378932
     atom    6 type  2   force =     0.02139149    0.00006048    0.00420382
     atom    7 type  1   force =     0.00134714    0.00035969    0.00017300
     atom    8 type  1   force =    -0.00052906    0.00124374   -0.00035857
     atom    9 type  2   force =    -0.00067086    0.00012674   -0.00017923
     atom   10 type  2   force =    -0.00008216   -0.00039037    0.00060442
     atom   11 type  2   force =    -0.00080623    0.00025313   -0.00017102
     atom   12 type  2   force =    -0.00075806   -0.00004455   -0.00021951
     atom   13 type  1   force =     0.00049914    0.00009776   -0.00065764
     atom   14 type  1   force =    -0.00026152    0.00000743    0.00038596
     atom   15 type  2   force =    -0.00023551   -0.00038655    0.00033009
     atom   16 type  2   force =    -0.00007144   -0.00004246   -0.00044998
     atom   17 type  2   force =     0.00062120   -0.00032267   -0.00022755
     atom   18 type  2   force =     0.00027124   -0.00020765    0.00016170
     atom   19 type  1   force =    -0.00069614    0.00052468   -0.00014417
     atom   20 type  1   force =     0.00092438    0.00025047   -0.00045661
     atom   21 type  2   force =     0.00000089   -0.00005221    0.10223287
     atom   22 type  2   force =     0.00022865   -0.00039244    0.00027508
     atom   23 type  2   force =    -0.07493898    0.00009925   -0.03478600
     atom   24 type  2   force =     0.07481051    0.00051345   -0.03482146
     atom   25 type  1   force =     0.00006961   -0.00002546    0.14884474
     atom   26 type  1   force =    -0.00001201   -0.00105500   -0.16928800
     atom   27 type  2   force =     0.00012583    0.00253644   -0.05990648
     atom   28 type  2   force =    -0.00032882   -0.00147282    0.04028572
     atom   29 type  2   force =    -0.02033189    0.00063401    0.00353217
     atom   30 type  2   force =     0.02285963   -0.00006626    0.00404169
     atom   31 type  1   force =     0.00101428    0.00068301   -0.00010975
     atom   32 type  1   force =    -0.00081986   -0.00144679   -0.00018664
     atom   33 type  2   force =    -0.00055187   -0.00039861   -0.00030105
     atom   34 type  2   force =    -0.00014331   -0.00005582   -0.00012354
     atom   35 type  2   force =    -0.00111102   -0.00079385   -0.00017577
     atom   36 type  2   force =    -0.00057247   -0.00045394   -0.00021349
     atom   37 type  1   force =     0.00071865   -0.00078647    0.00011828
     atom   38 type  1   force =    -0.00036262   -0.00016004    0.00061420
     atom   39 type  2   force =    -0.00040157   -0.00040713    0.00030782
     atom   40 type  2   force =    -0.00022662   -0.00041251    0.00003315
     atom   41 type  2   force =     0.00050755   -0.00035725    0.00021532
     atom   42 type  2   force =     0.00015242   -0.00040763   -0.00017958
     atom   43 type  1   force =    -0.00067039   -0.00099675    0.00027310
     atom   44 type  1   force =     0.00095003    0.00002189   -0.00030730
     atom   45 type  2   force =     0.00000833   -0.00007199    0.10220323
     atom   46 type  2   force =     0.00013505   -0.00008536   -0.00038134
     atom   47 type  2   force =    -0.07493098    0.00029280   -0.03475268
     atom   48 type  2   force =     0.07481356    0.00076302   -0.03485301
     atom   49 type  3   force =     0.00068125    0.00114936    0.00161711
     atom   50 type  3   force =     0.00023998   -0.00033901    0.00073998
     atom   51 type  4   force =     0.00365865    0.00154027    0.00467246
     atom   52 type  5   force =     0.00082354    0.00042850   -0.00152100
     atom   53 type  5   force =    -0.00565429   -0.00016479   -0.00551404

     Total force =     0.403021     Total SCF correction =     0.000697
  @ DRIVER MODE: Message from server: STATUS
  @ DRIVER MODE: Message from server: GETFORCE
  @ DRIVER MODE: Returning v,forces,stress,ensemble

     Writing output data file ./calc.save/
  @ DRIVER MODE: Message from server: EXIT
  @ DRIVE MODE: Exiting

     General routines

     Parallel routines

   This run was terminated on:   3:23: 4  30Sep2021

   JOB DONE.