     Program PWSCF v.6.7GPU starts on 23Sep2021 at 12:18: 6

     R & G space division:  proc/nbgrp/npool/nimage =       8
     Reading input from /storage/home/hcoda1/3/ntian30/research/carbon/CxH_vib/H2O_calc/ads_slab/CH3NHHHO_a/out_0004/pw.inp
Warning: card &CELL ignored
Warning: card   CELL_DYNAMICS='IPI', ignored
Warning: card / ignored

     Current dimensions of program PWSCF are:
     Max number of different atomic species (ntypx) = 10
     Max number of k-points (npk) =  40000
     Max angular momentum in pseudopotentials (lmaxx) =  3
     Presently no symmetry can be used with electric field

     Message from routine cell_base_init:
     DEPRECATED: use true lattice parameter, not A to a.u. conversion factor

     IMPORTANT: XC functional enforced from input :
     Exchange-correlation= BEEF-VDW
                           (   1   4  43  14   2   0   0)
     Any further DFT definition will be discarded
     Please, verify this is what you really want

  @ DRIVER MODE: Connecting to
 qe_1139763_2947311.sched-torque.pace.gatech.edux14uxg8o_scratch
  using UNIX socket
  @ DRIVER MODE: Message from server: STATUS
  @ DRIVER MODE: Message from server: INIT
  @ DRIVER MODE: Receiving replica           0          -1
  @ DRIVER MODE: Receiving encoded integer          25
  @ DRIVER MODE:  SCF:  T  FORCE:  T  STRESS:  F  VC:  F  ENSEMBLE:  F
  @ DRIVER MODE:  SCF:  T  FORCE:  T  STRESS:  F  VC:  F  ENSEMBLE:  F

     Using Slab Decomposition

     bravais-lattice index     =            0
     lattice parameter (alat)  =       1.8897  a.u.
     unit-cell volume          =    6658.9804 (a.u.)^3
     number of atoms/cell      =           56
     number of atomic types    =            5
     number of electrons       =       399.00
     number of Kohn-Sham states=          209
     kinetic-energy cutoff     =      29.3995  Ry
     charge density cutoff     =     293.9946  Ry
     scf convergence threshold =      7.3E-08
     mixing beta               =       0.0500
     number of iterations used =            8  plain     mixing
     Exchange-correlation= BEEF-VDW
                           (   1   4  43  14   2   0   0)

     celldm(1)=   1.889726  celldm(2)=   0.000000  celldm(3)=   0.000000
     celldm(4)=   0.000000  celldm(5)=   0.000000  celldm(6)=   0.000000

     crystal axes: (cart. coord. in units of alat)
               a(1) = (   6.579727   0.000000   0.000000 )
               a(2) = (  -0.000775   5.961596   0.000000 )
               a(3) = (   0.000000   0.000000  25.155947 )

     reciprocal axes: (cart. coord. in units 2 pi/alat)
               b(1) = (  0.151982  0.000020  0.000000 )
               b(2) = (  0.000000  0.167740  0.000000 )
               b(3) = (  0.000000  0.000000  0.039752 )

     PseudoPot. # 1 for Ti read from file:
     /storage/coda1/p-amedford6/0/shared/rich_project_chbe-medford/medford-share/data/pseudos_module/espresso/nninc/pbe/van/Ti.UPF
     MD5 check sum: 8e4df49b7f0d34bbd5052bf3f5ea0213
     Pseudo is Ultrasoft, Zval = 12.0
     Generated by new atomic code, or converted to UPF format
     Using radial grid of  851 points,  6 beta functions with:
                l(1) =   0
                l(2) =   0
                l(3) =   1
                l(4) =   1
                l(5) =   2
                l(6) =   2
     Q(r) pseudized with  8 coefficients,  rinner =    1.000   1.000   1.000
                                                       1.000   1.000

     PseudoPot. # 2 for O  read from file:
     /storage/coda1/p-amedford6/0/shared/rich_project_chbe-medford/medford-share/data/pseudos_module/espresso/nninc/pbe/van/O.UPF
     MD5 check sum: 78c19812648e8988a0fe644b0f25305e
     Pseudo is Ultrasoft, Zval =  6.0
     Generated by new atomic code, or converted to UPF format
     Using radial grid of  737 points,  4 beta functions with:
                l(1) =   0
                l(2) =   0
                l(3) =   1
                l(4) =   1
     Q(r) pseudized with  8 coefficients,  rinner =    0.800   0.800   0.800

     PseudoPot. # 3 for N  read from file:
     /storage/coda1/p-amedford6/0/shared/rich_project_chbe-medford/medford-share/data/pseudos_module/espresso/nninc/pbe/van/N.UPF
     MD5 check sum: 90d10febe142ad51ac9d5be1deb811c4
     Pseudo is Ultrasoft, Zval =  5.0
     Generated by new atomic code, or converted to UPF format
     Using radial grid of  729 points,  4 beta functions with:
                l(1) =   0
                l(2) =   0
                l(3) =   1
                l(4) =   1
     Q(r) pseudized with  8 coefficients,  rinner =    0.800   0.800   0.800

     PseudoPot. # 4 for C  read from file:
     /storage/coda1/p-amedford6/0/shared/rich_project_chbe-medford/medford-share/data/pseudos_module/espresso/nninc/pbe/van/C.UPF
     MD5 check sum: 1a69bf6b8db32088f5b2163dbdb77a27
     Pseudo is Ultrasoft, Zval =  4.0
     Generated by new atomic code, or converted to UPF format
     Using radial grid of  721 points,  4 beta functions with:
                l(1) =   0
                l(2) =   0
                l(3) =   1
                l(4) =   1
     Q(r) pseudized with  8 coefficients,  rinner =    0.800   0.800   0.800

     PseudoPot. # 5 for H  read from file:
     /storage/coda1/p-amedford6/0/shared/rich_project_chbe-medford/medford-share/data/pseudos_module/espresso/nninc/pbe/van/H.UPF
     MD5 check sum: b5ee9d7bfd3a09ee7748110bda690ff7
     Pseudo is Ultrasoft, Zval =  1.0
     Generated by new atomic code, or converted to UPF format
     Using radial grid of  615 points,  1 beta functions with:
                l(1) =   0
     Q(r) pseudized with  8 coefficients,  rinner =    0.800

     atomic species   valence    mass     pseudopotential
        Ti1           12.00    47.86700     Ti( 1.00)
        O1             6.00    15.99900     O ( 1.00)
        N1             5.00    14.00700     N ( 1.00)
        C1             4.00    12.01100     C ( 1.00)
        H1             1.00     1.00800     H ( 1.00)

     No symmetry found

   Cartesian axes

     site n.     atom                  positions (alat units)
         1           Ti1 tau(   1) = (   0.0004258   2.9801865   6.0000000  )
         2           Ti1 tau(   2) = (   3.2906075   1.4906267   6.0002472  )
         3           O1  tau(   3) = (   0.0006271   0.0005054   7.9858123  )
         4           O1  tau(   4) = (   3.2906025   0.0005020   7.3038282  )
         5           O1  tau(   5) = (   4.5942328   1.4918067   9.2879030  )
         6           O1  tau(   6) = (   1.9868534   1.4903216   9.2879459  )
         7           Ti1 tau(   7) = (   3.2907910   2.8959150   9.1758416  )
         8           Ti1 tau(   8) = (   0.0015273   1.4827037   9.2680791  )
         9           O1  tau(   9) = (   3.2949530   5.9481847  11.3666340  )
        10           O1  tau(  10) = (   0.0116148   5.9584955  10.6183126  )
        11           O1  tau(  11) = (   1.2732546   1.4916747  12.6876809  )
        12           O1  tau(  12) = (   5.3119445   1.4892451  12.6851550  )
        13           Ti1 tau(  13) = (   6.5688325   2.9465269  12.5174317  )
        14           Ti1 tau(  14) = (   3.2996026   1.2975375  12.7241829  )
        15           O1  tau(  15) = (   0.0172205   5.8793003  14.6619373  )
        16           O1  tau(  16) = (   3.2917661   0.0702926  14.0149596  )
        17           O1  tau(  17) = (   4.5643074   1.5920826  16.1346482  )
        18           O1  tau(  18) = (   2.0131957   1.5841813  16.0575481  )
        19           Ti1 tau(  19) = (   3.2662748   3.0407108  15.6947786  )
        20           Ti1 tau(  20) = (   0.0618610   1.3206105  15.7998127  )
        21           O1  tau(  21) = (   3.2904802   0.0005063   4.7018136  )
        22           O1  tau(  22) = (   0.0233933   0.1570098  17.1842078  )
        23           O1  tau(  23) = (   1.3043587   1.4918075   6.0039043  )
        24           O1  tau(  24) = (   5.2767064   1.4903225   6.0039473  )
        25           Ti1 tau(  25) = (   0.0000382   5.9609847   6.0000000  )
        26           Ti1 tau(  26) = (   3.2902200   4.4714249   6.0002472  )
        27           O1  tau(  27) = (   0.0002396   2.9813036   7.9858123  )
        28           O1  tau(  28) = (   3.2902150   2.9813002   7.3038282  )
        29           O1  tau(  29) = (   4.5938453   4.4726049   9.2879030  )
        30           O1  tau(  30) = (   1.9864658   4.4711199   9.2879459  )
        31           Ti1 tau(  31) = (   3.2891106   5.8743827   9.1763621  )
        32           Ti1 tau(  32) = (   0.0006254   4.4649316   9.2693709  )
        33           O1  tau(  33) = (   3.2948289   2.9949798  11.3176834  )
        34           O1  tau(  34) = (   0.0092240   2.9805883  10.6323155  )
        35           O1  tau(  35) = (   1.2828652   4.4571597  12.6432593  )
        36           O1  tau(  36) = (   5.3079144   4.4605214  12.6419564  )
        37           Ti1 tau(  37) = (   0.0266940   5.9154698  12.5044250  )
        38           Ti1 tau(  38) = (   3.3008436   4.3760658  12.4353554  )
        39           O1  tau(  39) = (   6.5507285   3.0461080  14.9005035  )
        40           O1  tau(  40) = (   3.2938476   3.0131494  13.9233183  )
        41           O1  tau(  41) = (   4.5350990   4.4864192  16.1518712  )
        42           O1  tau(  42) = (   1.9883536   4.4285065  16.1690201  )
        43           Ti1 tau(  43) = (   3.3916644   0.0784854  16.2809578  )
        44           Ti1 tau(  44) = (   0.0590441   4.5159846  16.0209683  )
        45           O1  tau(  45) = (   3.2900926   2.9813045   4.7018136  )
        46           O1  tau(  46) = (   1.3039711   4.4726057   6.0039043  )
        47           O1  tau(  47) = (   5.2763189   4.4711207   6.0039473  )
        48           N1  tau(  48) = (   6.2706434   3.3937210  18.0754458  )
        49           C1  tau(  49) = (   0.7642246   3.1223808  19.0622891  )
        50           H1  tau(  50) = (   1.3158356   4.0410886  19.2409436  )
        51           H1  tau(  51) = (   0.3597117   2.7583523  20.0089400  )
        52           H1  tau(  52) = (   1.4517744   2.3810259  18.6668870  )
        53           H1  tau(  53) = (   5.6745199   4.1349376  18.4206214  )
        54           H1  tau(  54) = (   5.6587021   2.5696541  18.0151127  )
        55           O1  tau(  55) = (   3.1972372   0.0910451  18.1323504  )
        56           H1  tau(  56) = (   2.2767176   0.1080423  18.4377142  )

     number of k points=    10  Fermi-Dirac smearing, width (Ry)=  0.0073
                       cart. coord. in units 2pi/alat
        k(    1) = (   0.0000000   0.0000000   0.0000000), wk =   0.1250000
        k(    2) = (   0.0000000   0.0419351   0.0000000), wk =   0.2500000
        k(    3) = (   0.0000000  -0.0838702   0.0000000), wk =   0.1250000
        k(    4) = (   0.0379955   0.0000049   0.0000000), wk =   0.2500000
        k(    5) = (   0.0379955   0.0419400   0.0000000), wk =   0.2500000
        k(    6) = (   0.0379955  -0.0838652   0.0000000), wk =   0.2500000
        k(    7) = (   0.0379955  -0.0419301   0.0000000), wk =   0.2500000
        k(    8) = (  -0.0759910  -0.0000099   0.0000000), wk =   0.1250000
        k(    9) = (  -0.0759910   0.0419252   0.0000000), wk =   0.2500000
        k(   10) = (  -0.0759910  -0.0838800   0.0000000), wk =   0.1250000

     Initial potential from superposition of free atoms

     starting charge  382.99914, renormalised to  399.00000

     negative rho (up, down):  1.588E-02 0.000E+00

     %%%%%%%%%%%%%%%%%%%%%%%%%%%%%%%%%%%%%%%%%%%%%%%%%%%%%%%%%%%%%%%%%%%%%%%%
     %                                                                      %
     % You are using vdW-DF, which was implemented by the Thonhauser group. %
     % Please cite the following two papers that made this development      %
     % possible and the two reviews that describe the various versions:     %
     %                                                                      %
     %   T. Thonhauser et al., PRL 115, 136402 (2015).                      %
     %   T. Thonhauser et al., PRB 76, 125112 (2007).                       %
     %   K. Berland et al., Rep. Prog. Phys. 78, 066501 (2015).             %
     %   D.C. Langreth et al., J. Phys.: Condens. Matter 21, 084203 (2009). %
     %                                                                      %
     %                                                                      %
     % If you are calculating the stress with vdW-DF, please also cite:     %
     %                                                                      %
     %   R. Sabatini et al., J. Phys.: Condens. Matter 24, 424209 (2012).   %
     %                                                                      %
     %%%%%%%%%%%%%%%%%%%%%%%%%%%%%%%%%%%%%%%%%%%%%%%%%%%%%%%%%%%%%%%%%%%%%%%%

     Adding external electric field

     Computed dipole along edir(3) :
        Dipole              -10.6962 Ry au,        -27.1870 Debye
        Dipole field         -0.0202 Ry au,

        Potential amp.        1.8711 Ry
        Total length         46.3494 bohr

     Starting wfcs are  302 atomic wfcs
  @ DRIVER MODE: Message from server: STATUS
  @ DRIVER MODE: Message from server: POSDATA
  @ DRIVER MODE: Reading and sharing cell
  @ DRIVER MODE: Reading and sharing positions
  @ DRIVER MODE: Received positions

     Self-consistent Calculation

     iteration #  1     ecut=    29.40 Ry     beta= 0.05
     Davidson diagonalization with overlap
     c_bands:  3 eigenvalues not converged
     c_bands:  2 eigenvalues not converged
     c_bands:  2 eigenvalues not converged
     c_bands:  5 eigenvalues not converged
     c_bands:  2 eigenvalues not converged
     c_bands:  4 eigenvalues not converged
     c_bands:  3 eigenvalues not converged
     ethr =  1.00E-05,  avg # of iterations = 22.2

[...]

     total energy              =   -2438.25174564 Ry
     estimated scf accuracy    <    5770.46109912 Ry

     iteration #  2     ecut=    29.40 Ry     beta= 0.05
     Davidson diagonalization with overlap
     ethr =  1.00E-02,  avg # of iterations = 23.8

[...]

     iteration # 63     ecut=    29.40 Ry     beta= 0.05
     Davidson diagonalization with overlap
     ethr =  3.05E-11,  avg # of iterations =  5.2

[...]

     total energy              =   -2955.26270152 Ry
     estimated scf accuracy    <       0.00000009 Ry

     iteration # 64     ecut=    29.40 Ry     beta= 0.05
     Davidson diagonalization with overlap
     c_bands:  1 eigenvalues not converged
     ethr =  2.16E-11,  avg # of iterations = 13.1

     negative rho (up, down):  1.647E-02 0.000E+00

     Adding external electric field

     Computed dipole along edir(3) :
        Dipole                0.9770 Ry au,          2.4832 Debye
        Dipole field          0.0018 Ry au,

        Potential amp.       -0.1709 Ry
        Total length         46.3494 bohr

     End of self-consistent calculation

          k = 0.0000 0.0000 0.0000 ( 18029 PWs)   bands (ev):

   -55.6824 -55.6359 -55.6018 -55.5100 -55.5012 -55.4659 -55.4651 -55.4630
   -55.4310 -55.4176 -55.3670 -55.2718 -55.2255 -55.2116 -54.6116 -54.5775
   -32.1213 -32.0193 -32.0104 -31.9873 -31.9679 -31.9557 -31.9265 -31.9009
   -31.8938 -31.8822 -31.8817 -31.7891 -31.7884 -31.7732 -31.7484 -31.7439
   -31.7432 -31.7417 -31.7400 -31.7049 -31.6933 -31.6642 -31.6614 -31.6552
   -31.6495 -31.6435 -31.6353 -31.6052 -31.6028 -31.5973 -31.5922 -31.5889
   -31.5780 -31.5629 -31.5482 -31.5231 -31.4632 -31.4544 -31.4446 -31.4210
   -31.4182 -31.4134 -31.0177 -30.9311 -30.9087 -30.8352 -30.7488 -30.6370
   -16.5116 -16.2956 -16.1488 -15.9771 -15.8382 -15.8088 -15.7675 -15.5981
   -15.5054 -15.4417 -15.2415 -15.2207 -15.1747 -15.1635 -15.1581 -15.1352
   -15.1254 -15.0807 -15.0620 -15.0586 -15.0487 -15.0311 -14.9948 -14.9523
   -14.9094 -14.8882 -14.7758 -14.7193 -14.6787 -14.4675 -14.3988 -13.1104
   -12.9939  -9.9897  -6.0145  -4.5859  -4.0619  -3.7618  -3.6438  -3.5460
    -3.5347  -3.4144  -3.4055  -3.1650  -3.0415  -2.9828  -2.9041  -2.7826
    -2.7502  -2.6803  -2.6390  -2.5870  -2.5681  -2.5312  -2.4909  -2.4480
    -2.4225  -2.3942  -2.3603  -2.3056  -2.2934  -2.1950  -2.1811  -2.1576
    -2.0529  -2.0116  -1.9715  -1.9535  -1.9484  -1.9297  -1.8908  -1.8844
    -1.8648  -1.7866  -1.7175  -1.6717  -1.6374  -1.6092  -1.3317  -1.2457
    -1.2021  -1.1877  -1.0837  -1.0599  -1.0315  -1.0184  -0.9824  -0.9655
    -0.8538  -0.8393  -0.7683  -0.7188  -0.7055  -0.6662  -0.5499  -0.5131
    -0.4599  -0.4201  -0.3694  -0.3520  -0.3473  -0.2524  -0.2256  -0.1903
    -0.0826  -0.0662  -0.0033   0.0820   0.0921   0.1428   0.1660   0.2270
     0.2317   0.2858   0.3156   0.3378   0.3913   0.4236   0.4596   0.4927
     0.5100   0.6124   0.6876   0.7005   0.7969   0.8721   0.9255   1.0295
     1.0973   1.3612   1.4148   1.4386   1.6067   1.9820   2.0274   3.4457
     3.5947   3.6102   3.6849   3.6975   3.7746   3.9352   3.9604   4.0956
     4.1406

[...]

          k = 0.0380-0.0419 0.0000 ( 17876 PWs)   bands (ev):

[...]

          k =-0.0760-0.0000 0.0000 ( 17886 PWs)   bands (ev):

[...]

          k =-0.0760-0.0839 0.0000 ( 17948 PWs)   bands (ev):

   -55.6815 -55.6189 -55.6186 -55.5087 -55.4900 -55.4742 -55.4667 -55.4487
   -55.4470 -55.4113 -55.3734 -55.2670 -55.2266 -55.2162 -54.5950 -54.5940
   -31.9522 -31.9442 -31.9367 -31.9364 -31.9287 -31.9122 -31.9118 -31.8962
   -31.8517 -31.8102 -31.7922 -31.7794 -31.7752 -31.7739 -31.7522 -31.7415
   -31.7388 -31.7383 -31.7281 -31.7237 -31.7158 -31.7153 -31.7008 -31.6770
   -31.6708 -31.6665 -31.6571 -31.6468 -31.6313 -31.6305 -31.6284 -31.6229
   -31.6213 -31.5961 -31.5955 -31.5543 -31.5298 -31.4940 -31.4675 -31.4626
   -31.4470 -31.4175 -30.9218 -30.9210 -30.8312 -30.8299 -30.7924 -30.7916
   -16.4817 -15.9362 -15.8553 -15.7439 -15.6209 -15.6075 -15.4965 -15.4137
   -15.4101 -15.3798 -15.3487 -15.3208 -15.3117 -15.2943 -15.2474 -15.2040
   -15.1688 -15.1410 -15.1390 -15.0932 -15.0861 -15.0746 -15.0622 -15.0399
   -15.0060 -14.9564 -14.9420 -14.9035 -14.7651 -14.6883 -14.5899 -13.0961
   -13.0954  -9.9916  -5.9944  -4.5835  -4.0266  -3.7186  -3.0552  -2.9591
    -2.8474  -2.7239  -2.7164  -2.7019  -2.6417  -2.6109  -2.5850  -2.5435
    -2.4862  -2.4672  -2.4457  -2.4294  -2.4080  -2.3900  -2.3810  -2.3758
    -2.3391  -2.3217  -2.3133  -2.2721  -2.2645  -2.2485  -2.2259  -2.2105
    -2.1801  -2.1761  -2.1455  -2.0935  -2.0449  -1.9715  -1.8785  -1.7972
    -1.7861  -1.7677  -1.7180  -1.7115  -1.6660  -1.6584  -1.6335  -1.5483
    -1.4359  -1.3855  -1.2747  -1.2561  -1.2282  -1.1899  -1.1356  -1.1216
    -1.0759  -1.0457  -0.9858  -0.8842  -0.8543  -0.7994  -0.6862  -0.6502
    -0.6099  -0.5903  -0.5782  -0.5546  -0.5363  -0.4964  -0.4682  -0.4256
    -0.3809  -0.3465  -0.3199  -0.2944  -0.2507  -0.1455  -0.0521  -0.0137
     0.0879   0.1338   0.1759   0.2079   0.2703   0.4043   0.4313   0.5272
     0.5420   0.5711   0.6726   0.6828   0.7838   0.8080   0.8462   0.8873
     0.9119   0.9330   0.9527   1.7763   1.7849   1.8477   1.8479   3.7390
     3.9311   3.9462   3.9623   4.0073   4.0143   4.0416   4.0471   4.1141
     4.1249

     the Fermi energy is     3.4846 ev

!    total energy              =   -2955.26273963 Ry
     estimated scf accuracy    <       0.00000006 Ry
     smearing contrib. (-TS)   =      -0.01952725 Ry
     internal energy E=F+TS    =   -2955.24321239 Ry

     The total energy is F=E-TS. E is the sum of the following terms:
     one-electron contribution =  -23741.60916584 Ry
     hartree contribution      =   11962.92525862 Ry
     xc contribution           =    -489.73641640 Ry
     ewald contribution        =    9313.17530998 Ry
     electric field correction =       0.00180125 Ry

     convergence has been achieved in  64 iterations

     Forces acting on atoms (cartesian axes, Ry/au):

     atom    1 type  1   force =     0.00008820   -0.00029698    0.09414362
     atom    2 type  1   force =    -0.00004161    0.00043346   -0.17540745
     atom    3 type  2   force =     0.00003956   -0.00033745   -0.02110235
     atom    4 type  2   force =     0.00002356   -0.00197808    0.05460821
     atom    5 type  2   force =    -0.00674109   -0.00245588    0.00302201
     atom    6 type  2   force =     0.00834775   -0.00187666    0.00244308
     atom    7 type  1   force =    -0.00018484   -0.00404805    0.00897823
     atom    8 type  1   force =     0.00032310    0.00082326    0.00313210
     atom    9 type  2   force =    -0.00058129    0.00058329   -0.00016826
     atom   10 type  2   force =    -0.00139181    0.00173083   -0.00926513
     atom   11 type  2   force =     0.00004142   -0.00015639    0.00037888
     atom   12 type  2   force =    -0.00005994   -0.00010958   -0.00030696
     atom   13 type  1   force =    -0.00048085   -0.00024883    0.00002809
     atom   14 type  1   force =     0.00001756   -0.00031831   -0.00010008
     atom   15 type  2   force =    -0.00032915    0.00019059   -0.00019181
     atom   16 type  2   force =     0.00032329   -0.00053650   -0.00038876
     atom   17 type  2   force =     0.00049774   -0.00012659   -0.00074325
     atom   18 type  2   force =    -0.00048689    0.00017952   -0.00010131
     atom   19 type  1   force =     0.00049665   -0.00055748    0.00068767
     atom   20 type  1   force =     0.00046522   -0.00016745    0.00022446
     atom   21 type  2   force =     0.00007320    0.00004617    0.10322825
     atom   22 type  2   force =    -0.00045182    0.00092956    0.00014384
     atom   23 type  2   force =    -0.07189522   -0.00019244   -0.02720705
     atom   24 type  2   force =     0.07182505    0.00024604   -0.02725522
     atom   25 type  1   force =     0.00002496   -0.00025159    0.09382842
     atom   26 type  1   force =    -0.00006427   -0.00132724   -0.17559675
     atom   27 type  2   force =     0.00015531   -0.00011793   -0.01986298
     atom   28 type  2   force =     0.00006957   -0.00032373    0.04988245
     atom   29 type  2   force =    -0.00613228    0.00231705    0.00252696
     atom   30 type  2   force =     0.00762649    0.00268285    0.00197565
     atom   31 type  1   force =     0.00002326    0.00840317   -0.00274241
     atom   32 type  1   force =     0.00011787   -0.00235174    0.00260898
     atom   33 type  2   force =     0.00005162   -0.00001184   -0.00004275
     atom   34 type  2   force =    -0.00211771   -0.00249231   -0.01003489
     atom   35 type  2   force =    -0.00014345   -0.00002418    0.00053671
     atom   36 type  2   force =    -0.00007189    0.00006708   -0.00007146
     atom   37 type  1   force =     0.00015897   -0.00007457   -0.00022367
     atom   38 type  1   force =     0.00005933   -0.00017994    0.00022937
     atom   39 type  2   force =    -0.00013285    0.00008113   -0.00012100
     atom   40 type  2   force =     0.00017182   -0.00025860   -0.00009321
     atom   41 type  2   force =    -0.00046971   -0.00070685    0.00057542
     atom   42 type  2   force =     0.00057194    0.00002705   -0.00022601
     atom   43 type  1   force =    -0.00077764   -0.00068945    0.00020261
     atom   44 type  1   force =     0.00051596    0.00067088   -0.00022453
     atom   45 type  2   force =     0.00006815   -0.00007420    0.10303784
     atom   46 type  2   force =    -0.07191290   -0.00004233   -0.02724011
     atom   47 type  2   force =     0.07187462    0.00039567   -0.02728728
     atom   48 type  3   force =     0.00067030   -0.02284029   -0.00313542
     atom   49 type  4   force =     0.00022656    0.00405966    0.00012216
     atom   50 type  5   force =     0.00131706    0.00054979    0.00062236
     atom   51 type  5   force =    -0.00051836    0.00072813   -0.00019998
     atom   52 type  5   force =    -0.00042830   -0.00009643   -0.00148253
     atom   53 type  5   force =    -0.00651597    0.00948239    0.00400875
     atom   54 type  5   force =     0.00640057    0.01018532   -0.00043033
     atom   55 type  2   force =    -0.00048221    0.00040608    0.00052431
     atom   56 type  5   force =    -0.00025457    0.00005093   -0.00044746

     Total force =     0.363332     Total SCF correction =     0.000576
  @ DRIVER MODE: Message from server: STATUS
  @ DRIVER MODE: Message from server: GETFORCE
  @ DRIVER MODE: Returning v,forces,stress,ensemble

     Writing output data file ./calc.save/
  @ DRIVER MODE: Message from server: EXIT
  @ DRIVE MODE: Exiting

     General routines

     Parallel routines

   This run was terminated on:  12:39:37  23Sep2021

   JOB DONE.