     Program PWSCF v.6.7GPU starts on  5Oct2021 at 11:46:30

     R & G space division:  proc/nbgrp/npool/nimage =       8
     Reading input from /storage/home/hcoda1/3/ntian30/research/carbon/CxH_vib/pristine/ads_slab/CH2N2_a/out_0003/pw.inp
Warning: card &CELL ignored
Warning: card   CELL_DYNAMICS='IPI', ignored
Warning: card / ignored

     Current dimensions of program PWSCF are:
     Max number of different atomic species (ntypx) = 10
     Max number of k-points (npk) =  40000
     Max angular momentum in pseudopotentials (lmaxx) =  3
     Presently no symmetry can be used with electric field

     Message from routine cell_base_init:
     DEPRECATED: use true lattice parameter, not A to a.u. conversion factor

     IMPORTANT: XC functional enforced from input :
     Exchange-correlation= BEEF-VDW
                           (   1   4  43  14   2   0   0)
     Any further DFT definition will be discarded
     Please, verify this is what you really want

  @ DRIVER MODE: Connecting to
 qe_1139763_3091261.sched-torque.pace.gatech.edu1pujm5sv_scratch
  using UNIX socket
  @ DRIVER MODE: Message from server: STATUS
  @ DRIVER MODE: Message from server: INIT
  @ DRIVER MODE: Receiving replica           0          -1
  @ DRIVER MODE: Receiving encoded integer          25
  @ DRIVER MODE:  SCF:  T  FORCE:  T  STRESS:  F  VC:  F  ENSEMBLE:  F
  @ DRIVER MODE:  SCF:  T  FORCE:  T  STRESS:  F  VC:  F  ENSEMBLE:  F

     Using Slab Decomposition

     bravais-lattice index     =            0
     lattice parameter (alat)  =       1.8897  a.u.
     unit-cell volume          =    6658.9804 (a.u.)^3
     number of atoms/cell      =           53
     number of atomic types    =            5
     number of electrons       =       400.00
     number of Kohn-Sham states=          210
     kinetic-energy cutoff     =      29.3995  Ry
     charge density cutoff     =     293.9946  Ry
     scf convergence threshold =      7.3E-08
     mixing beta               =       0.0500
     number of iterations used =            8  plain     mixing
     Exchange-correlation= BEEF-VDW
                           (   1   4  43  14   2   0   0)

     celldm(1)=   1.889726  celldm(2)=   0.000000  celldm(3)=   0.000000
     celldm(4)=   0.000000  celldm(5)=   0.000000  celldm(6)=   0.000000

     crystal axes: (cart. coord. in units of alat)
               a(1) = (   6.579727   0.000000   0.000000 )
               a(2) = (  -0.000775   5.961596   0.000000 )
               a(3) = (   0.000000   0.000000  25.155947 )

     reciprocal axes: (cart. coord. in units 2 pi/alat)
               b(1) = (  0.151982  0.000020  0.000000 )
               b(2) = (  0.000000  0.167740  0.000000 )
               b(3) = (  0.000000  0.000000  0.039752 )

     PseudoPot. # 1 for Ti read from file:
     /storage/coda1/p-amedford6/0/shared/rich_project_chbe-medford/medford-share/data/pseudos_module/espresso/nninc/pbe/van/Ti.UPF
     MD5 check sum: 8e4df49b7f0d34bbd5052bf3f5ea0213
     Pseudo is Ultrasoft, Zval = 12.0
     Generated by new atomic code, or converted to UPF format
     Using radial grid of  851 points,  6 beta functions with:
                l(1) =   0
                l(2) =   0
                l(3) =   1
                l(4) =   1
                l(5) =   2
                l(6) =   2
     Q(r) pseudized with  8 coefficients,  rinner =    1.000   1.000   1.000
                                                       1.000   1.000

     PseudoPot. # 2 for O  read from file:
     /storage/coda1/p-amedford6/0/shared/rich_project_chbe-medford/medford-share/data/pseudos_module/espresso/nninc/pbe/van/O.UPF
     MD5 check sum: 78c19812648e8988a0fe644b0f25305e
     Pseudo is Ultrasoft, Zval =  6.0
     Generated by new atomic code, or converted to UPF format
     Using radial grid of  737 points,  4 beta functions with:
                l(1) =   0
                l(2) =   0
                l(3) =   1
                l(4) =   1
     Q(r) pseudized with  8 coefficients,  rinner =    0.800   0.800   0.800

     PseudoPot. # 3 for N  read from file:
     /storage/coda1/p-amedford6/0/shared/rich_project_chbe-medford/medford-share/data/pseudos_module/espresso/nninc/pbe/van/N.UPF
     MD5 check sum: 90d10febe142ad51ac9d5be1deb811c4
     Pseudo is Ultrasoft, Zval =  5.0
     Generated by new atomic code, or converted to UPF format
     Using radial grid of  729 points,  4 beta functions with:
                l(1) =   0
                l(2) =   0
                l(3) =   1
                l(4) =   1
     Q(r) pseudized with  8 coefficients,  rinner =    0.800   0.800   0.800

     PseudoPot. # 4 for C  read from file:
     /storage/coda1/p-amedford6/0/shared/rich_project_chbe-medford/medford-share/data/pseudos_module/espresso/nninc/pbe/van/C.UPF
     MD5 check sum: 1a69bf6b8db32088f5b2163dbdb77a27
     Pseudo is Ultrasoft, Zval =  4.0
     Generated by new atomic code, or converted to UPF format
     Using radial grid of  721 points,  4 beta functions with:
                l(1) =   0
                l(2) =   0
                l(3) =   1
                l(4) =   1
     Q(r) pseudized with  8 coefficients,  rinner =    0.800   0.800   0.800

     PseudoPot. # 5 for H  read from file:
     /storage/coda1/p-amedford6/0/shared/rich_project_chbe-medford/medford-share/data/pseudos_module/espresso/nninc/pbe/van/H.UPF
     MD5 check sum: b5ee9d7bfd3a09ee7748110bda690ff7
     Pseudo is Ultrasoft, Zval =  1.0
     Generated by new atomic code, or converted to UPF format
     Using radial grid of  615 points,  1 beta functions with:
                l(1) =   0
     Q(r) pseudized with  8 coefficients,  rinner =    0.800

     atomic species   valence    mass     pseudopotential
        Ti1           12.00    47.86700     Ti( 1.00)
        O1             6.00    15.99900     O ( 1.00)
        N1             5.00    14.00700     N ( 1.00)
        C1             4.00    12.01100     C ( 1.00)
        H1             1.00     1.00800     H ( 1.00)

     No symmetry found

   Cartesian axes

     site n.     atom                  positions (alat units)
         1           Ti1 tau(   1) = (   0.0004258   2.9801865   6.0000000  )
         2           Ti1 tau(   2) = (   3.2906075   1.4906267   6.0002472  )
         3           O1  tau(   3) = (   0.0006271   0.0005054   7.9858123  )
         4           O1  tau(   4) = (   3.2906025   0.0005020   7.3038282  )
         5           O1  tau(   5) = (   4.5942328   1.4918067   9.2879030  )
         6           O1  tau(   6) = (   1.9868534   1.4903216   9.2879459  )
         7           Ti1 tau(   7) = (   3.2967797   2.8647345   9.1688538  )
         8           Ti1 tau(   8) = (   0.0139078   1.4260134   9.3797207  )
         9           O1  tau(   9) = (   3.2818202   5.9426219  11.3413624  )
        10           O1  tau(  10) = (  -0.0006713   5.9438105  10.5613913  )
        11           O1  tau(  11) = (   1.2629550   1.4689526  12.6431422  )
        12           O1  tau(  12) = (   5.2627372   1.4724369  12.6244454  )
        13           Ti1 tau(  13) = (   0.0649248   2.9521173  12.8162972  )
        14           Ti1 tau(  14) = (   3.3900010   1.4623865  12.4921655  )
        15           O1  tau(  15) = (   6.5612248   5.9427239  14.6529025  )
        16           O1  tau(  16) = (   3.2707349   5.9499158  13.9186396  )
        17           O1  tau(  17) = (   4.5120437   1.4930778  16.0516072  )
        18           O1  tau(  18) = (   2.0188724   1.4901805  16.0528637  )
        19           Ti1 tau(  19) = (   3.2526435   2.9656207  15.7242400  )
        20           Ti1 tau(  20) = (   6.5390660   1.5270114  16.1581541  )
        21           O1  tau(  21) = (   3.2904802   0.0005063   4.7018136  )
        22           O1  tau(  22) = (   6.5517350   0.0054997  17.2382445  )
        23           O1  tau(  23) = (   1.3043587   1.4918075   6.0039043  )
        24           O1  tau(  24) = (   5.2767064   1.4903225   6.0039473  )
        25           Ti1 tau(  25) = (   0.0000382   5.9609847   6.0000000  )
        26           Ti1 tau(  26) = (   3.2902200   4.4714249   6.0002472  )
        27           O1  tau(  27) = (   0.0002396   2.9813036   7.9858123  )
        28           O1  tau(  28) = (   3.2902150   2.9813002   7.3038282  )
        29           O1  tau(  29) = (   4.5938453   4.4726049   9.2879030  )
        30           O1  tau(  30) = (   1.9864658   4.4711199   9.2879459  )
        31           Ti1 tau(  31) = (   3.2991641   5.8454459   9.1677744  )
        32           Ti1 tau(  32) = (   0.0142928   4.4069258   9.3804372  )
        33           O1  tau(  33) = (   3.2794024   2.9620648  11.3429404  )
        34           O1  tau(  34) = (   0.0008107   2.9631099  10.5617750  )
        35           O1  tau(  35) = (   1.2628400   4.4505553  12.6449227  )
        36           O1  tau(  36) = (   5.2621040   4.4508628  12.6271667  )
        37           Ti1 tau(  37) = (   0.0634051   5.9337149  12.8176510  )
        38           Ti1 tau(  38) = (   3.3888395   4.4462795  12.4902329  )
        39           O1  tau(  39) = (   6.5643088   2.9532696  14.6533357  )
        40           O1  tau(  40) = (   3.2687884   2.9653797  13.9163527  )
        41           O1  tau(  41) = (   4.5138939   4.4677068  16.0260545  )
        42           O1  tau(  42) = (   2.0159196   4.4685127  16.0260682  )
        43           Ti1 tau(  43) = (   3.2551286   5.9518885  15.7372992  )
        44           Ti1 tau(  44) = (   6.5382561   4.5045293  16.1449140  )
        45           O1  tau(  45) = (   3.2900926   2.9813045   4.7018136  )
        46           O1  tau(  46) = (   6.5520679   2.9954315  17.2342401  )
        47           O1  tau(  47) = (   1.3039711   4.4726057   6.0039043  )
        48           O1  tau(  48) = (   5.2763189   4.4711207   6.0039473  )
        49           N1  tau(  49) = (   3.2718132   4.4833032  18.6889481  )
        50           N1  tau(  50) = (   3.2619367   3.3563452  18.5802627  )
        51           C1  tau(  51) = (   3.2831389   5.7900214  18.6539038  )
        52           H1  tau(  52) = (   2.3406966   0.3270794  18.8225995  )
        53           H1  tau(  53) = (   4.2401870   0.3074325  18.8013464  )

     number of k points=    10  Fermi-Dirac smearing, width (Ry)=  0.0073
                       cart. coord. in units 2pi/alat
        k(    1) = (   0.0000000   0.0000000   0.0000000), wk =   0.1250000
        k(    2) = (   0.0000000   0.0419351   0.0000000), wk =   0.2500000
        k(    3) = (   0.0000000  -0.0838702   0.0000000), wk =   0.1250000
        k(    4) = (   0.0379955   0.0000049   0.0000000), wk =   0.2500000
        k(    5) = (   0.0379955   0.0419400   0.0000000), wk =   0.2500000
        k(    6) = (   0.0379955  -0.0838652   0.0000000), wk =   0.2500000
        k(    7) = (   0.0379955  -0.0419301   0.0000000), wk =   0.2500000
        k(    8) = (  -0.0759910  -0.0000099   0.0000000), wk =   0.1250000
        k(    9) = (  -0.0759910   0.0419252   0.0000000), wk =   0.2500000
        k(   10) = (  -0.0759910  -0.0838800   0.0000000), wk =   0.1250000

     Initial potential from superposition of free atoms

     starting charge  383.99917, renormalised to  400.00000

     negative rho (up, down):  1.829E-02 0.000E+00

     %%%%%%%%%%%%%%%%%%%%%%%%%%%%%%%%%%%%%%%%%%%%%%%%%%%%%%%%%%%%%%%%%%%%%%%%
     %                                                                      %
     % You are using vdW-DF, which was implemented by the Thonhauser group. %
     % Please cite the following two papers that made this development      %
     % possible and the two reviews that describe the various versions:     %
     %                                                                      %
     %   T. Thonhauser et al., PRL 115, 136402 (2015).                      %
     %   T. Thonhauser et al., PRB 76, 125112 (2007).                       %
     %   K. Berland et al., Rep. Prog. Phys. 78, 066501 (2015).             %
     %   D.C. Langreth et al., J. Phys.: Condens. Matter 21, 084203 (2009). %
     %                                                                      %
     %                                                                      %
     % If you are calculating the stress with vdW-DF, please also cite:     %
     %                                                                      %
     %   R. Sabatini et al., J. Phys.: Condens. Matter 24, 424209 (2012).   %
     %                                                                      %
     %%%%%%%%%%%%%%%%%%%%%%%%%%%%%%%%%%%%%%%%%%%%%%%%%%%%%%%%%%%%%%%%%%%%%%%%

     Adding external electric field

     Computed dipole along edir(3) :
        Dipole               -9.8398 Ry au,        -25.0102 Debye
        Dipole field         -0.0186 Ry au,

        Potential amp.        1.7213 Ry
        Total length         46.3494 bohr

     Starting wfcs are  302 atomic wfcs
  @ DRIVER MODE: Message from server: STATUS
  @ DRIVER MODE: Message from server: POSDATA
  @ DRIVER MODE: Reading and sharing cell
  @ DRIVER MODE: Reading and sharing positions
  @ DRIVER MODE: Received positions

     Self-consistent Calculation

     iteration #  1     ecut=    29.40 Ry     beta= 0.05
     Davidson diagonalization with overlap
     c_bands:  1 eigenvalues not converged
     c_bands:  2 eigenvalues not converged
     c_bands:  1 eigenvalues not converged
     c_bands:  2 eigenvalues not converged
     c_bands:  2 eigenvalues not converged
     c_bands:  2 eigenvalues not converged
     c_bands:  1 eigenvalues not converged
     c_bands:  3 eigenvalues not converged
     ethr =  1.00E-05,  avg # of iterations = 20.0

[...]

     total energy              =   -2519.75609636 Ry
     estimated scf accuracy    <    5013.29183252 Ry

     iteration #  2     ecut=    29.40 Ry     beta= 0.05
     Davidson diagonalization with overlap
     ethr =  1.00E-02,  avg # of iterations = 25.8

[...]

     iteration # 45     ecut=    29.40 Ry     beta= 0.05
     Davidson diagonalization with overlap
     c_bands:  1 eigenvalues not converged
     ethr =  3.67E-07,  avg # of iterations =  8.9

[...]

     total energy              =   -2970.35034059 Ry
     estimated scf accuracy    <       0.00000014 Ry

     iteration # 74     ecut=    29.40 Ry     beta= 0.05
     Davidson diagonalization with overlap
     ethr =  3.41E-11,  avg # of iterations =  5.0

     negative rho (up, down):  1.789E-02 0.000E+00

     Adding external electric field

     Computed dipole along edir(3) :
        Dipole                0.5413 Ry au,          1.3757 Debye
        Dipole field          0.0010 Ry au,

        Potential amp.       -0.0947 Ry
        Total length         46.3494 bohr

     End of self-consistent calculation

          k = 0.0000 0.0000 0.0000 ( 18029 PWs)   bands (ev):

   -56.2366 -56.2030 -55.8866 -55.8509 -55.7618 -55.7270 -55.6290 -55.6053
   -55.5944 -55.5713 -55.5247 -55.4897 -55.4796 -55.4428 -55.0099 -54.9759
   -32.6635 -32.4842 -32.4563 -32.4280 -32.4216 -32.3369 -32.2905 -32.2362
   -32.1829 -32.1320 -32.1007 -32.0972 -32.0659 -32.0653 -32.0483 -32.0409
   -32.0299 -32.0095 -32.0041 -31.9898 -31.9029 -31.8803 -31.8695 -31.8583
   -31.8490 -31.8436 -31.8205 -31.8117 -31.7984 -31.7702 -31.7632 -31.7414
   -31.7358 -31.7216 -31.7037 -31.7025 -31.7019 -31.6859 -31.6825 -31.6554
   -31.6287 -31.5505 -31.4092 -31.3371 -31.3132 -31.2276 -31.1426 -31.0307
   -21.2317 -16.5542 -16.3908 -16.1699 -16.0162 -15.9270 -15.7954 -15.6008
   -15.5753 -15.4820 -15.4800 -15.4569 -15.3854 -15.3850 -15.3516 -15.3461
   -15.3176 -15.2969 -15.2570 -15.2401 -15.2378 -15.1954 -15.1353 -15.1104
   -15.0171 -14.9703 -14.8647 -14.8596 -14.8293 -14.7451 -14.7150 -14.2046
   -13.5039 -13.3905  -6.7929  -5.8868  -5.1762  -3.9823  -3.9500  -3.8956
    -3.7768  -3.7568  -3.6306  -3.3526  -3.2974  -3.0465  -2.9922  -2.9745
    -2.9289  -2.9072  -2.8845  -2.8397  -2.7355  -2.7315  -2.6846  -2.6776
    -2.6443  -2.6419  -2.6268  -2.5650  -2.5435  -2.4595  -2.4511  -2.4192
    -2.4046  -2.2774  -2.2330  -2.1883  -2.1864  -2.1575  -2.0582  -2.0505
    -2.0378  -2.0078  -1.9254  -1.8742  -1.7472  -1.6472  -1.6307  -1.5856
    -1.5245  -1.4920  -1.2930  -1.2454  -1.2419  -1.2215  -1.1985  -1.1859
    -1.1180  -1.0507  -0.9282  -0.8567  -0.8272  -0.7725  -0.7523  -0.7458
    -0.7271  -0.6485  -0.6194  -0.6124  -0.5900  -0.4485  -0.3030  -0.2642
    -0.2418  -0.2271  -0.2052  -0.1263  -0.1098  -0.0741  -0.0324  -0.0170
     0.0052   0.0535   0.0823   0.0907   0.1943   0.2149   0.2769   0.2981
     0.3080   0.3430   0.3872   0.5332   0.6201   0.7335   0.7427   0.8216
     0.9700   0.9768   1.0175   1.2319   1.2438   1.2795   1.6031   1.6763
     3.0354   3.2189   3.4505   3.5212   3.5416   3.6341   3.7402   3.7699
     3.8368   3.9151

[...]

          k = 0.0380-0.0419 0.0000 ( 17876 PWs)   bands (ev):

[...]

          k =-0.0760-0.0000 0.0000 ( 17886 PWs)   bands (ev):

[...]

          k =-0.0760-0.0839 0.0000 ( 17948 PWs)   bands (ev):

   -56.2198 -56.2197 -55.8690 -55.8684 -55.7456 -55.7431 -55.6122 -55.6110
   -55.5886 -55.5877 -55.5078 -55.5065 -55.4615 -55.4608 -54.9928 -54.9928
   -32.4811 -32.4810 -32.4699 -32.4697 -32.3808 -32.3807 -32.2278 -32.2235
   -32.1332 -32.1275 -32.0751 -32.0741 -32.0650 -32.0537 -32.0344 -32.0248
   -31.9512 -31.9453 -31.9335 -31.9319 -31.9186 -31.9178 -31.8522 -31.8518
   -31.8405 -31.8394 -31.8338 -31.8333 -31.8273 -31.8270 -31.7988 -31.7980
   -31.7888 -31.7823 -31.7238 -31.7228 -31.7143 -31.7132 -31.6977 -31.6966
   -31.6812 -31.6804 -31.3261 -31.3261 -31.2234 -31.2234 -31.1852 -31.1852
   -21.2308 -15.9753 -15.9629 -15.7701 -15.7648 -15.7020 -15.7019 -15.6616
   -15.6588 -15.6093 -15.6078 -15.4704 -15.4674 -15.4654 -15.4611 -15.3855
   -15.3842 -15.3703 -15.3689 -15.3180 -15.3164 -15.1821 -15.1809 -15.0949
   -15.0941 -15.0502 -15.0496 -14.9932 -14.9926 -14.8937 -14.8817 -14.2166
   -13.4930 -13.4929  -6.6341  -5.8572  -5.1652  -4.1800  -3.2612  -3.2468
    -2.9814  -2.9759  -2.9324  -2.8612  -2.8559  -2.8238  -2.8232  -2.7380
    -2.7307  -2.7051  -2.7002  -2.6725  -2.6685  -2.6110  -2.6098  -2.5868
    -2.5820  -2.5716  -2.5704  -2.5651  -2.5635  -2.4736  -2.4697  -2.4566
    -2.4546  -2.3824  -2.3770  -2.3423  -2.3299  -2.1213  -2.1208  -2.0511
    -2.0502  -1.9321  -1.9309  -1.9146  -1.9105  -1.8748  -1.8357  -1.5960
    -1.5938  -1.5371  -1.5337  -1.4863  -1.4724  -1.3651  -1.3360  -1.2083
    -1.1896  -1.1729  -1.1655  -1.0155  -1.0115  -1.0097  -1.0059  -0.9824
    -0.9786  -0.8637  -0.8492  -0.7633  -0.7563  -0.7393  -0.7358  -0.6976
    -0.6808  -0.5298  -0.5295  -0.5064  -0.5008  -0.3593  -0.3581  -0.2992
    -0.2927  -0.0510  -0.0429   0.0699   0.0701   0.2999   0.3329   0.3547
     0.3652   0.5085   0.5167   0.5304   0.5395   0.6649   0.6694   0.6864
     0.6921   0.7794   0.7795   1.2388   1.4053   1.4058   1.4576   1.4577
     3.5766   3.5807   3.5855   3.5895   3.6302   3.6317   3.6773   3.6793
     3.9345   3.9570

     the Fermi energy is     2.4083 ev

!    total energy              =   -2970.35035587 Ry
     estimated scf accuracy    <       0.00000005 Ry
     smearing contrib. (-TS)   =      -0.00009830 Ry
     internal energy E=F+TS    =   -2970.35025757 Ry

     The total energy is F=E-TS. E is the sum of the following terms:
     one-electron contribution =  -24067.03291502 Ry
     hartree contribution      =   12123.84317095 Ry
     xc contribution           =    -491.49115709 Ry
     ewald contribution        =    9464.33009074 Ry
     electric field correction =       0.00055284 Ry

     convergence has been achieved in  74 iterations

     Forces acting on atoms (cartesian axes, Ry/au):

     atom    1 type  1   force =     0.00010901   -0.00012342    0.14847457
     atom    2 type  1   force =    -0.00010217   -0.00049976   -0.16835826
     atom    3 type  2   force =     0.00014064    0.00223519   -0.05994672
     atom    4 type  2   force =     0.00015654   -0.00146598    0.03992990
     atom    5 type  2   force =    -0.02120421   -0.00097210    0.00399216
     atom    6 type  2   force =     0.02100188    0.00033010    0.00312532
     atom    7 type  1   force =    -0.00011804   -0.00020669    0.00000411
     atom    8 type  1   force =    -0.00021681    0.00002427    0.00005093
     atom    9 type  2   force =    -0.00023240   -0.00005955    0.00012035
     atom   10 type  2   force =     0.00001854   -0.00000080    0.00006643
     atom   11 type  2   force =    -0.00001794   -0.00006561   -0.00012209
     atom   12 type  2   force =    -0.00007888   -0.00013211   -0.00006592
     atom   13 type  1   force =    -0.00008180   -0.00001309   -0.00011399
     atom   14 type  1   force =     0.00004956   -0.00011162    0.00005747
     atom   15 type  2   force =     0.00010759   -0.00000274    0.00004031
     atom   16 type  2   force =     0.00008253   -0.00005832   -0.00013365
     atom   17 type  2   force =     0.00011789    0.00012158    0.00015915
     atom   18 type  2   force =     0.00014381    0.00017253   -0.00011128
     atom   19 type  1   force =     0.00021773   -0.00020650   -0.00113288
     atom   20 type  1   force =    -0.00016115   -0.00024476   -0.00027623
     atom   21 type  2   force =     0.00004197   -0.00004631    0.10201861
     atom   22 type  2   force =     0.00007541   -0.00009268   -0.00012455
     atom   23 type  2   force =    -0.07526716    0.00015924   -0.03467085
     atom   24 type  2   force =     0.07520008    0.00058434   -0.03474552
     atom   25 type  1   force =     0.00011302   -0.00013579    0.14840223
     atom   26 type  1   force =    -0.00013835   -0.00085380   -0.16858380
     atom   27 type  2   force =     0.00012325    0.00218389   -0.05989926
     atom   28 type  2   force =     0.00009055   -0.00145848    0.04021243
     atom   29 type  2   force =    -0.02100225   -0.00107653    0.00397094
     atom   30 type  2   force =     0.02119511    0.00041032    0.00312236
     atom   31 type  1   force =    -0.00019923   -0.00009806    0.00000193
     atom   32 type  1   force =    -0.00011647   -0.00006698   -0.00006989
     atom   33 type  2   force =     0.00012694    0.00008180    0.00005043
     atom   34 type  2   force =    -0.00008391    0.00002889   -0.00001505
     atom   35 type  2   force =    -0.00004871    0.00002431    0.00003854
     atom   36 type  2   force =    -0.00012590    0.00021985   -0.00014481
     atom   37 type  1   force =    -0.00006403   -0.00014658   -0.00010454
     atom   38 type  1   force =     0.00004178    0.00014577    0.00020774
     atom   39 type  2   force =    -0.00007519   -0.00000814   -0.00014412
     atom   40 type  2   force =     0.00010802    0.00002010    0.00019403
     atom   41 type  2   force =     0.00026501   -0.00049485    0.00019013
     atom   42 type  2   force =     0.00019180   -0.00043187    0.00035522
     atom   43 type  1   force =    -0.00008921    0.00042776    0.00150280
     atom   44 type  1   force =    -0.00006568    0.00025085   -0.00013694
     atom   45 type  2   force =     0.00003729   -0.00004881    0.10201384
     atom   46 type  2   force =     0.00004240    0.00009097    0.00006546
     atom   47 type  2   force =    -0.07527145    0.00019690   -0.03467127
     atom   48 type  2   force =     0.07520903    0.00062910   -0.03474265
     atom   49 type  3   force =     0.00032560    0.05930260    0.00347814
     atom   50 type  3   force =    -0.00023967   -0.04115427   -0.00294972
     atom   51 type  4   force =    -0.00085362   -0.01459345   -0.00225997
     atom   52 type  5   force =     0.00013488   -0.00168062    0.00072990
     atom   53 type  5   force =     0.00038637   -0.00109012    0.00094851

     Total force =     0.408428     Total SCF correction =     0.000652
  @ DRIVER MODE: Message from server: STATUS
  @ DRIVER MODE: Message from server: GETFORCE
  @ DRIVER MODE: Returning v,forces,stress,ensemble

     Writing output data file ./calc.save/
  @ DRIVER MODE: Message from server: EXIT
  @ DRIVE MODE: Exiting

     General routines

     Parallel routines

   This run was terminated on:  12:11: 6   5Oct2021

   JOB DONE.