     Program PWSCF v.6.7GPU starts on  2Aug2021 at 17:31: 6

     R & G space division:  proc/nbgrp/npool/nimage =      16
     Reading input from /storage/home/hcoda1/3/ntian30/research/carbon/02Aug_vib_paired/ads_slab/CH3NH_a/out_0023/pw.inp
Warning: card &CELL ignored
Warning: card   CELL_DYNAMICS='IPI', ignored
Warning: card / ignored

     Current dimensions of program PWSCF are:
     Max number of different atomic species (ntypx) = 10
     Max number of k-points (npk) =  40000
     Max angular momentum in pseudopotentials (lmaxx) =  3
     Presently no symmetry can be used with electric field

     Message from routine cell_base_init:
     DEPRECATED: use true lattice parameter, not A to a.u. conversion factor

     IMPORTANT: XC functional enforced from input :
     Exchange-correlation= BEEF-VDW
                           (   1   4  43  14   2   0   0)
     Any further DFT definition will be discarded
     Please, verify this is what you really want

  @ DRIVER MODE: Connecting to
 qe_1139763_2482540.sched-torque.pace.gatech.edugzh9af6b_scratch
  using UNIX socket
  @ DRIVER MODE: Message from server: STATUS
  @ DRIVER MODE: Message from server: INIT
  @ DRIVER MODE: Receiving replica           0          -1
  @ DRIVER MODE: Receiving encoded integer          25
  @ DRIVER MODE:  SCF:  T  FORCE:  T  STRESS:  F  VC:  F  ENSEMBLE:  F
  @ DRIVER MODE:  SCF:  T  FORCE:  T  STRESS:  F  VC:  F  ENSEMBLE:  F

     Using Slab Decomposition

     bravais-lattice index     =            0
     lattice parameter (alat)  =       1.8897  a.u.
     unit-cell volume          =    6658.9804 (a.u.)^3
     number of atoms/cell      =           53
     number of atomic types    =            5
     number of electrons       =       391.00
     number of Kohn-Sham states=          205
     kinetic-energy cutoff     =      29.3995  Ry
     charge density cutoff     =     293.9946  Ry
     scf convergence threshold =      7.3E-08
     mixing beta               =       0.0500
     number of iterations used =            8  plain     mixing
     Exchange-correlation= BEEF-VDW
                           (   1   4  43  14   2   0   0)

     celldm(1)=   1.889726  celldm(2)=   0.000000  celldm(3)=   0.000000
     celldm(4)=   0.000000  celldm(5)=   0.000000  celldm(6)=   0.000000

     crystal axes: (cart. coord. in units of alat)
               a(1) = (   6.579727   0.000000   0.000000 )
               a(2) = (  -0.000775   5.961596   0.000000 )
               a(3) = (   0.000000   0.000000  25.155947 )

     reciprocal axes: (cart. coord. in units 2 pi/alat)
               b(1) = (  0.151982  0.000020  0.000000 )
               b(2) = (  0.000000  0.167740  0.000000 )
               b(3) = (  0.000000  0.000000  0.039752 )

     PseudoPot. # 1 for Ti read from file:
     /storage/coda1/p-amedford6/0/shared/rich_project_chbe-medford/medford-share/data/pseudos_module/espresso/nninc/pbe/van/Ti.UPF
     MD5 check sum: 8e4df49b7f0d34bbd5052bf3f5ea0213
     Pseudo is Ultrasoft, Zval = 12.0
     Generated by new atomic code, or converted to UPF format
     Using radial grid of  851 points,  6 beta functions with:
                l(1) =   0
                l(2) =   0
                l(3) =   1
                l(4) =   1
                l(5) =   2
                l(6) =   2
     Q(r) pseudized with  8 coefficients,  rinner =    1.000   1.000   1.000
                                                       1.000   1.000

     PseudoPot. # 2 for O  read from file:
     /storage/coda1/p-amedford6/0/shared/rich_project_chbe-medford/medford-share/data/pseudos_module/espresso/nninc/pbe/van/O.UPF
     MD5 check sum: 78c19812648e8988a0fe644b0f25305e
     Pseudo is Ultrasoft, Zval =  6.0
     Generated by new atomic code, or converted to UPF format
     Using radial grid of  737 points,  4 beta functions with:
                l(1) =   0
                l(2) =   0
                l(3) =   1
                l(4) =   1
     Q(r) pseudized with  8 coefficients,  rinner =    0.800   0.800   0.800

     PseudoPot. # 3 for H  read from file:
     /storage/coda1/p-amedford6/0/shared/rich_project_chbe-medford/medford-share/data/pseudos_module/espresso/nninc/pbe/van/H.UPF
     MD5 check sum: b5ee9d7bfd3a09ee7748110bda690ff7
     Pseudo is Ultrasoft, Zval =  1.0
     Generated by new atomic code, or converted to UPF format
     Using radial grid of  615 points,  1 beta functions with:
                l(1) =   0
     Q(r) pseudized with  8 coefficients,  rinner =    0.800

     PseudoPot. # 4 for N  read from file:
     /storage/coda1/p-amedford6/0/shared/rich_project_chbe-medford/medford-share/data/pseudos_module/espresso/nninc/pbe/van/N.UPF
     MD5 check sum: 90d10febe142ad51ac9d5be1deb811c4
     Pseudo is Ultrasoft, Zval =  5.0
     Generated by new atomic code, or converted to UPF format
     Using radial grid of  729 points,  4 beta functions with:
                l(1) =   0
                l(2) =   0
                l(3) =   1
                l(4) =   1
     Q(r) pseudized with  8 coefficients,  rinner =    0.800   0.800   0.800

     PseudoPot. # 5 for C  read from file:
     /storage/coda1/p-amedford6/0/shared/rich_project_chbe-medford/medford-share/data/pseudos_module/espresso/nninc/pbe/van/C.UPF
     MD5 check sum: 1a69bf6b8db32088f5b2163dbdb77a27
     Pseudo is Ultrasoft, Zval =  4.0
     Generated by new atomic code, or converted to UPF format
     Using radial grid of  721 points,  4 beta functions with:
                l(1) =   0
                l(2) =   0
                l(3) =   1
                l(4) =   1
     Q(r) pseudized with  8 coefficients,  rinner =    0.800   0.800   0.800

     atomic species   valence    mass     pseudopotential
        Ti1           12.00    47.86700     Ti( 1.00)
        O1             6.00    15.99900     O ( 1.00)
        H1             1.00     1.00800     H ( 1.00)
        N1             5.00    14.00700     N ( 1.00)
        C1             4.00    12.01100     C ( 1.00)

     No symmetry found

   Cartesian axes

     site n.     atom                  positions (alat units)
         1           Ti1 tau(   1) = (   0.0004258   2.9801865   6.0000000  )
         2           Ti1 tau(   2) = (   3.2906075   1.4906267   6.0002472  )
         3           O1  tau(   3) = (   0.0006271   0.0005054   7.9858123  )
         4           O1  tau(   4) = (   3.2906025   0.0005020   7.3038282  )
         5           O1  tau(   5) = (   4.5942328   1.4918067   9.2879030  )
         6           O1  tau(   6) = (   1.9868534   1.4903216   9.2879459  )
         7           Ti1 tau(   7) = (   3.2907910   2.8959150   9.1758416  )
         8           Ti1 tau(   8) = (   0.0015273   1.4827037   9.2680791  )
         9           O1  tau(   9) = (   3.2884659   0.0075485  11.3235732  )
        10           O1  tau(  10) = (   0.0116148   5.9584955  10.6183126  )
        11           O1  tau(  11) = (   1.3171120   1.5008813  12.6157184  )
        12           O1  tau(  12) = (   5.2946386   1.4924346  12.6071097  )
        13           Ti1 tau(  13) = (   6.5241923   2.9548932  12.6217359  )
        14           Ti1 tau(  14) = (   3.2094326   1.4975571  12.4685497  )
        15           O1  tau(  15) = (   6.5712017   0.0435206  14.6415704  )
        16           O1  tau(  16) = (   3.3105969   0.0188825  13.9167609  )
        17           O1  tau(  17) = (   4.5276945   1.5520673  16.0775932  )
        18           O1  tau(  18) = (   2.0451199   1.5488911  16.0433559  )
        19           Ti1 tau(  19) = (   3.3056363   3.0248959  15.6834923  )
        20           Ti1 tau(  20) = (   0.0598299   1.5678558  15.8702049  )
        21           O1  tau(  21) = (   3.2904802   0.0005063   4.7018136  )
        22           O1  tau(  22) = (   0.0261329   0.0581799  17.1997403  )
        23           O1  tau(  23) = (   1.3043587   1.4918075   6.0039043  )
        24           O1  tau(  24) = (   5.2767064   1.4903225   6.0039473  )
        25           Ti1 tau(  25) = (   0.0000382   5.9609847   6.0000000  )
        26           Ti1 tau(  26) = (   3.2902200   4.4714249   6.0002472  )
        27           O1  tau(  27) = (   0.0002396   2.9813036   7.9858123  )
        28           O1  tau(  28) = (   3.2902150   2.9813002   7.3038282  )
        29           O1  tau(  29) = (   4.5938453   4.4726049   9.2879030  )
        30           O1  tau(  30) = (   1.9864658   4.4711199   9.2879459  )
        31           Ti1 tau(  31) = (   3.2891106   5.8743827   9.1763621  )
        32           Ti1 tau(  32) = (   0.0006254   4.4649316   9.2693709  )
        33           O1  tau(  33) = (   3.2900467   2.9919642  11.3219399  )
        34           O1  tau(  34) = (   0.0092240   2.9805883  10.6323155  )
        35           O1  tau(  35) = (   1.3109590   4.4888342  12.6262493  )
        36           O1  tau(  36) = (   5.2962169   4.4808628  12.6191006  )
        37           Ti1 tau(  37) = (   6.5213093   5.9327278  12.5667326  )
        38           Ti1 tau(  38) = (   3.2063601   4.4772876  12.4706241  )
        39           O1  tau(  39) = (   6.5765807   2.9606619  14.6437028  )
        40           O1  tau(  40) = (   3.3047873   3.0036736  13.8926904  )
        41           O1  tau(  41) = (   4.5386289   4.5058657  16.0833063  )
        42           O1  tau(  42) = (   2.0584685   4.5123608  16.0729366  )
        43           Ti1 tau(  43) = (   3.3398093   0.0384087  15.7085799  )
        44           Ti1 tau(  44) = (   0.0478225   4.6849499  16.0879628  )
        45           O1  tau(  45) = (   3.2900926   2.9813045   4.7018136  )
        46           O1  tau(  46) = (   1.3039711   4.4726057   6.0039043  )
        47           O1  tau(  47) = (   5.2763189   4.4711207   6.0039473  )
        48           H1  tau(  48) = (   5.6109407   2.9912845  17.7881963  )
        49           N1  tau(  49) = (   6.5652763   3.0051276  17.4431066  )
        50           C1  tau(  50) = (   0.8863280   2.9891452  18.6126320  )
        51           H1  tau(  51) = (   1.3596840   3.9617220  18.7624638  )
        52           H1  tau(  52) = (   0.3315535   2.7344040  19.5171108  )
        53           H1  tau(  53) = (   1.6705027   2.2407838  18.4910999  )

     number of k points=    10  Fermi-Dirac smearing, width (Ry)=  0.0073
                       cart. coord. in units 2pi/alat
        k(    1) = (   0.0000000   0.0000000   0.0000000), wk =   0.1250000
        k(    2) = (   0.0000000   0.0419351   0.0000000), wk =   0.2500000
        k(    3) = (   0.0000000  -0.0838702   0.0000000), wk =   0.1250000
        k(    4) = (   0.0379955   0.0000049   0.0000000), wk =   0.2500000
        k(    5) = (   0.0379955   0.0419400   0.0000000), wk =   0.2500000
        k(    6) = (   0.0379955  -0.0838652   0.0000000), wk =   0.2500000
        k(    7) = (   0.0379955  -0.0419301   0.0000000), wk =   0.2500000
        k(    8) = (  -0.0759910  -0.0000099   0.0000000), wk =   0.1250000
        k(    9) = (  -0.0759910   0.0419252   0.0000000), wk =   0.2500000
        k(   10) = (  -0.0759910  -0.0838800   0.0000000), wk =   0.1250000

     Initial potential from superposition of free atoms

     starting charge  374.99916, renormalised to  391.00000

     negative rho (up, down):  1.779E-02 0.000E+00

     %%%%%%%%%%%%%%%%%%%%%%%%%%%%%%%%%%%%%%%%%%%%%%%%%%%%%%%%%%%%%%%%%%%%%%%%
     %                                                                      %
     % You are using vdW-DF, which was implemented by the Thonhauser group. %
     % Please cite the following two papers that made this development      %
     % possible and the two reviews that describe the various versions:     %
     %                                                                      %
     %   T. Thonhauser et al., PRL 115, 136402 (2015).                      %
     %   T. Thonhauser et al., PRB 76, 125112 (2007).                       %
     %   K. Berland et al., Rep. Prog. Phys. 78, 066501 (2015).             %
     %   D.C. Langreth et al., J. Phys.: Condens. Matter 21, 084203 (2009). %
     %                                                                      %
     %                                                                      %
     % If you are calculating the stress with vdW-DF, please also cite:     %
     %                                                                      %
     %   R. Sabatini et al., J. Phys.: Condens. Matter 24, 424209 (2012).   %
     %                                                                      %
     %%%%%%%%%%%%%%%%%%%%%%%%%%%%%%%%%%%%%%%%%%%%%%%%%%%%%%%%%%%%%%%%%%%%%%%%

     Adding external electric field

     Computed dipole along edir(3) :
        Dipole               -5.8076 Ry au,        -14.7614 Debye
        Dipole field         -0.0110 Ry au,

        Potential amp.        1.0160 Ry
        Total length         46.3494 bohr

     Starting wfcs are  296 atomic wfcs
  @ DRIVER MODE: Message from server: STATUS
  @ DRIVER MODE: Message from server: POSDATA
  @ DRIVER MODE: Reading and sharing cell
  @ DRIVER MODE: Reading and sharing positions
  @ DRIVER MODE: Received positions

     Self-consistent Calculation

     iteration #  1     ecut=    29.40 Ry     beta= 0.05
     Davidson diagonalization with overlap
     c_bands:  3 eigenvalues not converged
     c_bands:  1 eigenvalues not converged
     c_bands:  1 eigenvalues not converged
     c_bands:  2 eigenvalues not converged
     c_bands:  4 eigenvalues not converged
     c_bands:  2 eigenvalues not converged
     c_bands:  1 eigenvalues not converged
     c_bands:  1 eigenvalues not converged
     c_bands:  2 eigenvalues not converged
     ethr =  1.00E-05,  avg # of iterations = 19.5

[...]

     total energy              =   -2770.89295863 Ry
     estimated scf accuracy    <    1638.82609282 Ry

[...]

     iteration #  3     ecut=    29.40 Ry     beta= 0.05
     Davidson diagonalization with overlap
     ethr =  1.00E-02,  avg # of iterations = 15.3

[...]

     iteration # 55     ecut=    29.40 Ry     beta= 0.05
     Davidson diagonalization with overlap
     c_bands:  1 eigenvalues not converged
     ethr =  1.12E-08,  avg # of iterations = 10.3

[...]

     total energy              =   -2920.41987773 Ry
     estimated scf accuracy    <       0.00000011 Ry

     iteration # 66     ecut=    29.40 Ry     beta= 0.05
     Davidson diagonalization with overlap
     ethr =  2.80E-11,  avg # of iterations = 10.8

     negative rho (up, down):  1.826E-02 0.000E+00

     Adding external electric field

     Computed dipole along edir(3) :
        Dipole                0.6956 Ry au,          1.7680 Debye
        Dipole field          0.0013 Ry au,

        Potential amp.       -0.1217 Ry
        Total length         46.3494 bohr

     End of self-consistent calculation

          k = 0.0000 0.0000 0.0000 ( 18029 PWs)   bands (ev):

   -55.9818 -55.9736 -55.9478 -55.9375 -55.8855 -55.8247 -55.8202 -55.7870
   -55.7855 -55.7531 -55.7463 -55.7126 -55.5549 -55.2756 -54.9545 -54.9204
   -32.5337 -32.4633 -32.3346 -32.3214 -32.3008 -32.2862 -32.2749 -32.2374
   -32.2234 -32.2210 -32.1966 -32.1896 -32.1569 -32.1340 -32.1254 -32.1183
   -32.1167 -32.0853 -32.0651 -32.0390 -32.0313 -32.0271 -32.0113 -31.9896
   -31.9802 -31.9780 -31.9734 -31.9633 -31.9497 -31.9431 -31.9408 -31.9355
   -31.9233 -31.9173 -31.8996 -31.8939 -31.8590 -31.8198 -31.7239 -31.5500
   -31.5434 -31.4722 -31.3613 -31.2736 -31.2512 -31.1782 -31.0917 -30.9805
   -16.7430 -16.4595 -16.2804 -16.1371 -16.1041 -16.0191 -15.8186 -15.6934
   -15.6804 -15.5773 -15.5395 -15.5163 -15.5089 -15.4819 -15.4787 -15.4198
   -15.4169 -15.4043 -15.3919 -15.3359 -15.3120 -15.2722 -15.1781 -15.1541
   -15.1384 -15.1117 -15.0310 -15.0238 -14.5840 -14.1034 -13.4570 -13.3407
    -8.9340  -4.3696  -4.1137  -3.9368  -3.8976  -3.8844  -3.8360  -3.5843
    -3.5683  -3.3193  -3.1938  -3.1774  -3.1679  -3.1521  -3.1379  -3.1184
    -2.8812  -2.8108  -2.7970  -2.7750  -2.7676  -2.7645  -2.7527  -2.7481
    -2.7058  -2.6459  -2.5298  -2.5150  -2.4093  -2.3619  -2.3392  -2.2914
    -2.2481  -2.2413  -2.2293  -2.2119  -2.1978  -2.1782  -2.1603  -2.0258
    -1.9625  -1.8344  -1.7867  -1.7807  -1.5826  -1.5378  -1.4481  -1.4249
    -1.4086  -1.4010  -1.3688  -1.2887  -1.1972  -1.1402  -1.1268  -1.0739
    -0.9972  -0.9856  -0.8753  -0.8706  -0.8072  -0.7509  -0.7416  -0.7321
    -0.6871  -0.6144  -0.5410  -0.4664  -0.4169  -0.3956  -0.3685  -0.2897
    -0.2596  -0.1631  -0.1446  -0.0983  -0.0947  -0.0456  -0.0036   0.0062
     0.0127   0.0275   0.0452   0.1937   0.3007   0.3576   0.3906   0.4016
     0.5571   0.5930   0.6814   0.7688   0.9944   1.0675   1.1611   1.2604
     1.3261   1.6383   1.6836   3.1611   3.2399   3.2932   3.3016   3.4031
     3.4056   3.6109   3.6233   3.6338   3.7020

[...]

          k = 0.0380-0.0419 0.0000 ( 17876 PWs)   bands (ev):

[...]

          k =-0.0760-0.0000 0.0000 ( 17886 PWs)   bands (ev):

[...]

          k =-0.0760-0.0839 0.0000 ( 17948 PWs)   bands (ev):

   -55.9651 -55.9643 -55.9565 -55.9545 -55.8800 -55.8300 -55.8050 -55.8007
   -55.7707 -55.7689 -55.7301 -55.7289 -55.5539 -55.2764 -54.9375 -54.9373
   -32.3380 -32.3351 -32.2789 -32.2783 -32.2663 -32.2607 -32.2599 -32.2459
   -32.1836 -32.1826 -32.1761 -32.1723 -32.1491 -32.1208 -32.1024 -32.0982
   -32.0875 -32.0846 -32.0840 -32.0838 -32.0820 -32.0701 -32.0677 -32.0362
   -32.0254 -32.0195 -31.9951 -31.9858 -31.9675 -31.9670 -31.9630 -31.9619
   -31.9451 -31.9444 -31.9424 -31.9406 -31.8881 -31.8225 -31.7190 -31.6131
   -31.5456 -31.4978 -31.2639 -31.2638 -31.1741 -31.1739 -31.1350 -31.1349
   -16.1949 -16.1615 -15.9260 -15.9164 -15.9075 -15.8913 -15.7467 -15.6947
   -15.6863 -15.6796 -15.6552 -15.6317 -15.5803 -15.5501 -15.5161 -15.5095
   -15.5028 -15.4975 -15.4412 -15.4348 -15.4124 -15.4050 -15.2915 -15.2873
   -15.2859 -15.2098 -15.1454 -15.0121 -14.7542 -14.1245 -13.4426 -13.4424
    -8.9378  -4.3803  -3.4894  -3.4513  -3.2852  -3.1937  -3.1660  -3.1527
    -3.1316  -3.0520  -2.8924  -2.8778  -2.8594  -2.8465  -2.8062  -2.8011
    -2.7893  -2.7754  -2.7684  -2.7506  -2.7169  -2.6761  -2.6478  -2.6408
    -2.6317  -2.6070  -2.5947  -2.5683  -2.5628  -2.5300  -2.5217  -2.5029
    -2.4791  -2.2171  -2.1984  -2.1815  -2.1124  -2.1055  -2.0708  -2.0625
    -2.0433  -2.0300  -1.9781  -1.8771  -1.7138  -1.6809  -1.6683  -1.6517
    -1.5865  -1.5658  -1.4170  -1.3887  -1.3716  -1.3318  -1.2831  -1.2531
    -1.2162  -1.1769  -1.1393  -1.0788  -1.0710  -0.9917  -0.9415  -0.9409
    -0.9139  -0.8440  -0.7652  -0.7479  -0.7362  -0.6950  -0.6814  -0.5999
    -0.5772  -0.4789  -0.4660  -0.3963  -0.3632  -0.2978  -0.0954   0.0033
     0.0621   0.0858   0.1389   0.2362   0.2904   0.3045   0.3376   0.3426
     0.4024   0.4429   0.5575   0.5651   0.6335   0.7371   1.2740   1.4318
     1.4325   1.5034   1.5035   3.4229   3.4287   3.4780   3.5089   3.6606
     3.6651   3.6879   3.6891   3.8106   3.8286

     the Fermi energy is     3.1542 ev

!    total energy              =   -2920.41990699 Ry
     estimated scf accuracy    <       0.00000005 Ry
     smearing contrib. (-TS)   =      -0.02203216 Ry
     internal energy E=F+TS    =   -2920.39787483 Ry

     The total energy is F=E-TS. E is the sum of the following terms:
     one-electron contribution =  -24728.19808636 Ry
     hartree contribution      =   12448.76147660 Ry
     xc contribution           =    -480.87696248 Ry
     ewald contribution        =    9839.91478437 Ry
     electric field correction =       0.00091304 Ry

     convergence has been achieved in  66 iterations

     Forces acting on atoms (cartesian axes, Ry/au):

     atom    1 type  1   force =     0.00011837   -0.00017091    0.09685794
     atom    2 type  1   force =     0.00004432   -0.00047051   -0.17506691
     atom    3 type  2   force =     0.00012786    0.00000901   -0.02533254
     atom    4 type  2   force =    -0.00003545   -0.00128095    0.05235205
     atom    5 type  2   force =    -0.01222228   -0.00000841    0.00299312
     atom    6 type  2   force =     0.01366114    0.00058753    0.00232829
     atom    7 type  1   force =     0.00057090    0.00034025   -0.01302686
     atom    8 type  1   force =     0.00045601    0.00731241    0.03072376
     atom    9 type  2   force =     0.00055726    0.00003637   -0.00020915
     atom   10 type  2   force =    -0.00267601    0.00211161   -0.01738327
     atom   11 type  2   force =    -0.00014232    0.00007332   -0.00001733
     atom   12 type  2   force =     0.00046227    0.00033838    0.00018981
     atom   13 type  1   force =    -0.00008910   -0.00054096   -0.00016936
     atom   14 type  1   force =    -0.00043672    0.00003475    0.00078626
     atom   15 type  2   force =    -0.00001224   -0.00082566    0.00080552
     atom   16 type  2   force =     0.00025484    0.00063002   -0.00045738
     atom   17 type  2   force =     0.00060228    0.00006460    0.00061305
     atom   18 type  2   force =    -0.00008392   -0.00007986    0.00003954
     atom   19 type  1   force =     0.00004941    0.00041415   -0.00030888
     atom   20 type  1   force =    -0.00026303   -0.00045020    0.00008380
     atom   21 type  2   force =     0.00006246   -0.00002760    0.10308832
     atom   22 type  2   force =     0.00015881   -0.00091198    0.00106664
     atom   23 type  2   force =    -0.07162861   -0.00015495   -0.02781480
     atom   24 type  2   force =     0.07152314    0.00034199   -0.02787326
     atom   25 type  1   force =     0.00008337   -0.00013870    0.09657225
     atom   26 type  1   force =     0.00009313   -0.00019660   -0.17518357
     atom   27 type  2   force =     0.00011568   -0.00011252   -0.02439095
     atom   28 type  2   force =     0.00004468   -0.00103642    0.05226651
     atom   29 type  2   force =    -0.01242144    0.00063728    0.00278553
     atom   30 type  2   force =     0.01372930    0.00098240    0.00213247
     atom   31 type  1   force =     0.00045843    0.00315317   -0.01358791
     atom   32 type  1   force =     0.00031862   -0.00952436    0.03110239
     atom   33 type  2   force =    -0.00007190    0.00031068   -0.00060033
     atom   34 type  2   force =    -0.00206240    0.00182402   -0.02538326
     atom   35 type  2   force =    -0.00018139   -0.00029058    0.00038249
     atom   36 type  2   force =     0.00025496   -0.00078375    0.00041056
     atom   37 type  1   force =     0.00005419    0.00026143    0.00103362
     atom   38 type  1   force =    -0.00021881    0.00038657    0.00075250
     atom   39 type  2   force =    -0.00005807   -0.00016234   -0.00061518
     atom   40 type  2   force =     0.00041968    0.00007352    0.00060480
     atom   41 type  2   force =     0.00027142   -0.00024146   -0.00003215
     atom   42 type  2   force =    -0.00051852   -0.00040607   -0.00030706
     atom   43 type  1   force =    -0.00074576   -0.00015684    0.00039659
     atom   44 type  1   force =    -0.00042209   -0.00075550    0.00045107
     atom   45 type  2   force =     0.00004086   -0.00004995    0.10310610
     atom   46 type  2   force =    -0.07162104   -0.00006899   -0.02780948
     atom   47 type  2   force =     0.07153958    0.00035297   -0.02788234
     atom   48 type  3   force =    -0.00006659   -0.00047942   -0.00011117
     atom   49 type  4   force =    -0.00088710   -0.00091037   -0.00091239
     atom   50 type  5   force =     0.00017930   -0.00139730   -0.00125242
     atom   51 type  3   force =    -0.00013126    0.00130327    0.00243165
     atom   52 type  3   force =     0.00059925    0.00029737   -0.00027005
     atom   53 type  3   force =     0.00014450   -0.00024388   -0.00035864

     Total force =     0.368420     Total SCF correction =     0.000395
  @ DRIVER MODE: Message from server: STATUS
  @ DRIVER MODE: Message from server: GETFORCE
  @ DRIVER MODE: Returning v,forces,stress,ensemble

     Writing output data file ./calc.save/
  @ DRIVER MODE: Message from server: EXIT
  @ DRIVE MODE: Exiting

     General routines

     Parallel routines

   This run was terminated on:  17:47: 2   2Aug2021

   JOB DONE.