     Program PWSCF v.6.7GPU starts on 11Sep2021 at  4: 3:39

     R & G space division:  proc/nbgrp/npool/nimage =      10
     Reading input from /storage/home/hcoda1/3/ntian30/research/carbon/CxH_vib/CH2_calc/ads_slab/CH2NHNH2_a/out_0028/pw.inp
Warning: card &CELL ignored
Warning: card   CELL_DYNAMICS='IPI', ignored
Warning: card / ignored

     Current dimensions of program PWSCF are:
     Max number of different atomic species (ntypx) = 10
     Max number of k-points (npk) =  40000
     Max angular momentum in pseudopotentials (lmaxx) =  3
     Presently no symmetry can be used with electric field

     Message from routine cell_base_init:
     DEPRECATED: use true lattice parameter, not A to a.u. conversion factor

     IMPORTANT: XC functional enforced from input :
     Exchange-correlation= BEEF-VDW
                           (   1   4  43  14   2   0   0)
     Any further DFT definition will be discarded
     Please, verify this is what you really want

  @ DRIVER MODE: Connecting to
 qe_1139763_2792044.sched-torque.pace.gatech.eduw52xk2su_scratch
  using UNIX socket
  @ DRIVER MODE: Message from server: STATUS
  @ DRIVER MODE: Message from server: INIT
  @ DRIVER MODE: Receiving replica           0          -1
  @ DRIVER MODE: Receiving encoded integer          25
  @ DRIVER MODE:  SCF:  T  FORCE:  T  STRESS:  F  VC:  F  ENSEMBLE:  F
  @ DRIVER MODE:  SCF:  T  FORCE:  T  STRESS:  F  VC:  F  ENSEMBLE:  F

     Using Slab Decomposition

     bravais-lattice index     =            0
     lattice parameter (alat)  =       1.8897  a.u.
     unit-cell volume          =    6658.9804 (a.u.)^3
     number of atoms/cell      =           55
     number of atomic types    =            5
     number of electrons       =       397.00
     number of Kohn-Sham states=          208
     kinetic-energy cutoff     =      29.3995  Ry
     charge density cutoff     =     293.9946  Ry
     scf convergence threshold =      7.3E-08
     mixing beta               =       0.0500
     number of iterations used =            8  plain     mixing
     Exchange-correlation= BEEF-VDW
                           (   1   4  43  14   2   0   0)

     celldm(1)=   1.889726  celldm(2)=   0.000000  celldm(3)=   0.000000
     celldm(4)=   0.000000  celldm(5)=   0.000000  celldm(6)=   0.000000

     crystal axes: (cart. coord. in units of alat)
               a(1) = (   6.579727   0.000000   0.000000 )
               a(2) = (  -0.000775   5.961596   0.000000 )
               a(3) = (   0.000000   0.000000  25.155947 )

     reciprocal axes: (cart. coord. in units 2 pi/alat)
               b(1) = (  0.151982  0.000020  0.000000 )
               b(2) = (  0.000000  0.167740  0.000000 )
               b(3) = (  0.000000  0.000000  0.039752 )

     PseudoPot. # 1 for Ti read from file:
     /storage/coda1/p-amedford6/0/shared/rich_project_chbe-medford/medford-share/data/pseudos_module/espresso/nninc/pbe/van/Ti.UPF
     MD5 check sum: 8e4df49b7f0d34bbd5052bf3f5ea0213
     Pseudo is Ultrasoft, Zval = 12.0
     Generated by new atomic code, or converted to UPF format
     Using radial grid of  851 points,  6 beta functions with:
                l(1) =   0
                l(2) =   0
                l(3) =   1
                l(4) =   1
                l(5) =   2
                l(6) =   2
     Q(r) pseudized with  8 coefficients,  rinner =    1.000   1.000   1.000
                                                       1.000   1.000

     PseudoPot. # 2 for O  read from file:
     /storage/coda1/p-amedford6/0/shared/rich_project_chbe-medford/medford-share/data/pseudos_module/espresso/nninc/pbe/van/O.UPF
     MD5 check sum: 78c19812648e8988a0fe644b0f25305e
     Pseudo is Ultrasoft, Zval =  6.0
     Generated by new atomic code, or converted to UPF format
     Using radial grid of  737 points,  4 beta functions with:
                l(1) =   0
                l(2) =   0
                l(3) =   1
                l(4) =   1
     Q(r) pseudized with  8 coefficients,  rinner =    0.800   0.800   0.800

     PseudoPot. # 3 for N  read from file:
     /storage/coda1/p-amedford6/0/shared/rich_project_chbe-medford/medford-share/data/pseudos_module/espresso/nninc/pbe/van/N.UPF
     MD5 check sum: 90d10febe142ad51ac9d5be1deb811c4
     Pseudo is Ultrasoft, Zval =  5.0
     Generated by new atomic code, or converted to UPF format
     Using radial grid of  729 points,  4 beta functions with:
                l(1) =   0
                l(2) =   0
                l(3) =   1
                l(4) =   1
     Q(r) pseudized with  8 coefficients,  rinner =    0.800   0.800   0.800

     PseudoPot. # 4 for C  read from file:
     /storage/coda1/p-amedford6/0/shared/rich_project_chbe-medford/medford-share/data/pseudos_module/espresso/nninc/pbe/van/C.UPF
     MD5 check sum: 1a69bf6b8db32088f5b2163dbdb77a27
     Pseudo is Ultrasoft, Zval =  4.0
     Generated by new atomic code, or converted to UPF format
     Using radial grid of  721 points,  4 beta functions with:
                l(1) =   0
                l(2) =   0
                l(3) =   1
                l(4) =   1
     Q(r) pseudized with  8 coefficients,  rinner =    0.800   0.800   0.800

     PseudoPot. # 5 for H  read from file:
     /storage/coda1/p-amedford6/0/shared/rich_project_chbe-medford/medford-share/data/pseudos_module/espresso/nninc/pbe/van/H.UPF
     MD5 check sum: b5ee9d7bfd3a09ee7748110bda690ff7
     Pseudo is Ultrasoft, Zval =  1.0
     Generated by new atomic code, or converted to UPF format
     Using radial grid of  615 points,  1 beta functions with:
                l(1) =   0
     Q(r) pseudized with  8 coefficients,  rinner =    0.800

     atomic species   valence    mass     pseudopotential
        Ti1           12.00    47.86700     Ti( 1.00)
        O1             6.00    15.99900     O ( 1.00)
        N1             5.00    14.00700     N ( 1.00)
        C1             4.00    12.01100     C ( 1.00)
        H1             1.00     1.00800     H ( 1.00)

     No symmetry found

   Cartesian axes

     site n.     atom                  positions (alat units)
         1           Ti1 tau(   1) = (   0.0004258   2.9801865   6.0000000  )
         2           Ti1 tau(   2) = (   3.2906075   1.4906267   6.0002472  )
         3           O1  tau(   3) = (   0.0006271   0.0005054   7.9858123  )
         4           O1  tau(   4) = (   3.2906025   0.0005020   7.3038282  )
         5           O1  tau(   5) = (   4.5942328   1.4918067   9.2879030  )
         6           O1  tau(   6) = (   1.9868534   1.4903216   9.2879459  )
         7           Ti1 tau(   7) = (   3.2907910   2.8959150   9.1758416  )
         8           Ti1 tau(   8) = (   0.0015273   1.4827037   9.2680791  )
         9           O1  tau(   9) = (   3.2904964   5.9585769  11.3857690  )
        10           O1  tau(  10) = (   0.0116148   5.9584955  10.6183126  )
        11           O1  tau(  11) = (   1.2878431   1.4867815  12.6991744  )
        12           O1  tau(  12) = (   5.2968392   1.4897239  12.6840540  )
        13           Ti1 tau(  13) = (   0.0031652   2.9724310  12.5021289  )
        14           Ti1 tau(  14) = (   3.2974598   1.4750309  12.5411678  )
        15           O1  tau(  15) = (   6.5490940   5.8844369  14.7025010  )
        16           O1  tau(  16) = (   3.3056738   5.9474069  14.0077327  )
        17           O1  tau(  17) = (   4.5358307   1.5199601  16.1809847  )
        18           O1  tau(  18) = (   2.0145668   1.5037208  16.1256758  )
        19           Ti1 tau(  19) = (   3.2722398   2.9952086  15.7861162  )
        20           Ti1 tau(  20) = (   6.5630583   1.3046800  15.8709962  )
        21           O1  tau(  21) = (   3.2904802   0.0005063   4.7018136  )
        22           O1  tau(  22) = (   0.0019326   0.1554656  17.2922311  )
        23           O1  tau(  23) = (   1.3043587   1.4918075   6.0039043  )
        24           O1  tau(  24) = (   5.2767064   1.4903225   6.0039473  )
        25           Ti1 tau(  25) = (   0.0000382   5.9609847   6.0000000  )
        26           Ti1 tau(  26) = (   3.2902200   4.4714249   6.0002472  )
        27           O1  tau(  27) = (   0.0002396   2.9813036   7.9858123  )
        28           O1  tau(  28) = (   3.2902150   2.9813002   7.3038282  )
        29           O1  tau(  29) = (   4.5938453   4.4726049   9.2879030  )
        30           O1  tau(  30) = (   1.9864658   4.4711199   9.2879459  )
        31           Ti1 tau(  31) = (   3.2891106   5.8743827   9.1763621  )
        32           Ti1 tau(  32) = (   0.0006254   4.4649316   9.2693709  )
        33           O1  tau(  33) = (   3.2902589   2.9648534  11.3782866  )
        34           O1  tau(  34) = (   0.0092240   2.9805883  10.6323155  )
        35           O1  tau(  35) = (   1.2907939   4.4579819  12.6664495  )
        36           O1  tau(  36) = (   5.2949113   4.4550998  12.6520156  )
        37           Ti1 tau(  37) = (   0.0082621   5.9437129  12.5015890  )
        38           Ti1 tau(  38) = (   3.2989848   4.4491302  12.5337562  )
        39           O1  tau(  39) = (   6.5545586   3.0159292  14.9830317  )
        40           O1  tau(  40) = (   3.2960925   2.9977268  13.9872472  )
        41           O1  tau(  41) = (   4.5245867   4.4695491  16.2648171  )
        42           O1  tau(  42) = (   2.0004542   4.4779941  16.2115700  )
        43           Ti1 tau(  43) = (   3.2998562   0.0139781  15.8031611  )
        44           Ti1 tau(  44) = (   0.0298651   4.5190837  16.0363964  )
        45           O1  tau(  45) = (   3.2900926   2.9813045   4.7018136  )
        46           O1  tau(  46) = (   1.3039711   4.4726057   6.0039043  )
        47           O1  tau(  47) = (   5.2763189   4.4711207   6.0039473  )
        48           N1  tau(  48) = (   0.7490466   2.5008218  18.8353846  )
        49           N1  tau(  49) = (   6.4369825   3.4131575  18.1751453  )
        50           C1  tau(  50) = (   1.9829018   2.9174465  19.1941100  )
        51           H1  tau(  51) = (   2.1359794   3.9544348  19.4490303  )
        52           H1  tau(  52) = (   2.6935556   2.1621737  19.4548401  )
        53           H1  tau(  53) = (   0.6355624   1.5475814  18.4636284  )
        54           H1  tau(  54) = (   6.4936903   4.3158724  18.6511896  )
        55           H1  tau(  55) = (   5.4890587   3.0624770  18.3097170  )

     number of k points=    10  Fermi-Dirac smearing, width (Ry)=  0.0073
                       cart. coord. in units 2pi/alat
        k(    1) = (   0.0000000   0.0000000   0.0000000), wk =   0.1250000
        k(    2) = (   0.0000000   0.0419351   0.0000000), wk =   0.2500000
        k(    3) = (   0.0000000  -0.0838702   0.0000000), wk =   0.1250000
        k(    4) = (   0.0379955   0.0000049   0.0000000), wk =   0.2500000
        k(    5) = (   0.0379955   0.0419400   0.0000000), wk =   0.2500000
        k(    6) = (   0.0379955  -0.0838652   0.0000000), wk =   0.2500000
        k(    7) = (   0.0379955  -0.0419301   0.0000000), wk =   0.2500000
        k(    8) = (  -0.0759910  -0.0000099   0.0000000), wk =   0.1250000
        k(    9) = (  -0.0759910   0.0419252   0.0000000), wk =   0.2500000
        k(   10) = (  -0.0759910  -0.0838800   0.0000000), wk =   0.1250000

     Initial potential from superposition of free atoms

     starting charge  380.99914, renormalised to  397.00000

     negative rho (up, down):  1.606E-02 0.000E+00

     %%%%%%%%%%%%%%%%%%%%%%%%%%%%%%%%%%%%%%%%%%%%%%%%%%%%%%%%%%%%%%%%%%%%%%%%
     %                                                                      %
     % You are using vdW-DF, which was implemented by the Thonhauser group. %
     % Please cite the following two papers that made this development      %
     % possible and the two reviews that describe the various versions:     %
     %                                                                      %
     %   T. Thonhauser et al., PRL 115, 136402 (2015).                      %
     %   T. Thonhauser et al., PRB 76, 125112 (2007).                       %
     %   K. Berland et al., Rep. Prog. Phys. 78, 066501 (2015).             %
     %   D.C. Langreth et al., J. Phys.: Condens. Matter 21, 084203 (2009). %
     %                                                                      %
     %                                                                      %
     % If you are calculating the stress with vdW-DF, please also cite:     %
     %                                                                      %
     %   R. Sabatini et al., J. Phys.: Condens. Matter 24, 424209 (2012).   %
     %                                                                      %
     %%%%%%%%%%%%%%%%%%%%%%%%%%%%%%%%%%%%%%%%%%%%%%%%%%%%%%%%%%%%%%%%%%%%%%%%

     Adding external electric field

     Computed dipole along edir(3) :
        Dipole              -10.6770 Ry au,        -27.1381 Debye
        Dipole field         -0.0201 Ry au,

        Potential amp.        1.8678 Ry
        Total length         46.3494 bohr

     Starting wfcs are  301 atomic wfcs
  @ DRIVER MODE: Message from server: STATUS
  @ DRIVER MODE: Message from server: POSDATA
  @ DRIVER MODE: Reading and sharing cell
  @ DRIVER MODE: Reading and sharing positions
  @ DRIVER MODE: Received positions

     Self-consistent Calculation

     iteration #  1     ecut=    29.40 Ry     beta= 0.05
     Davidson diagonalization with overlap
     c_bands:  2 eigenvalues not converged
     c_bands:  3 eigenvalues not converged
     c_bands:  1 eigenvalues not converged
     c_bands:  4 eigenvalues not converged
     c_bands:  4 eigenvalues not converged
     c_bands:  4 eigenvalues not converged
     c_bands:  1 eigenvalues not converged
     c_bands:  2 eigenvalues not converged
     c_bands:  2 eigenvalues not converged
     ethr =  1.00E-05,  avg # of iterations = 20.0

[...]

     total energy              =   -2465.29056026 Ry
     estimated scf accuracy    <    5331.50290533 Ry

     iteration #  2     ecut=    29.40 Ry     beta= 0.05
     Davidson diagonalization with overlap
     ethr =  1.00E-02,  avg # of iterations = 23.1

[...]

     iteration # 75     ecut=    29.40 Ry     beta= 0.05
     Davidson diagonalization with overlap
     c_bands:  1 eigenvalues not converged
     c_bands:  1 eigenvalues not converged
     ethr =  2.71E-11,  avg # of iterations = 15.8

[...]

     total energy              =   -2941.51054901 Ry
     estimated scf accuracy    <       0.00000009 Ry

     iteration # 76     ecut=    29.40 Ry     beta= 0.05
     Davidson diagonalization with overlap
     ethr =  2.32E-11,  avg # of iterations = 11.7

     negative rho (up, down):  1.515E-02 0.000E+00

     Adding external electric field

     Computed dipole along edir(3) :
        Dipole                1.2034 Ry au,          3.0588 Debye
        Dipole field          0.0023 Ry au,

        Potential amp.       -0.2105 Ry
        Total length         46.3494 bohr

     End of self-consistent calculation

          k = 0.0000 0.0000 0.0000 ( 18029 PWs)   bands (ev):

   -55.3828 -55.3459 -55.3372 -55.3031 -55.2646 -55.2585 -55.2299 -55.2115
   -55.1872 -55.1848 -55.1772 -55.1676 -55.1339 -55.0321 -54.3702 -54.3361
   -31.9457 -31.8305 -31.7777 -31.7519 -31.7006 -31.6902 -31.6845 -31.6741
   -31.6258 -31.6174 -31.5950 -31.5818 -31.5726 -31.5484 -31.5420 -31.5350
   -31.5226 -31.5066 -31.5051 -31.4899 -31.4891 -31.4520 -31.4518 -31.4418
   -31.4418 -31.4138 -31.3950 -31.3944 -31.3938 -31.3893 -31.3732 -31.3665
   -31.3655 -31.3593 -31.3593 -31.3568 -31.3248 -31.3006 -31.2955 -31.2790
   -31.2472 -31.2023 -30.7798 -30.6850 -30.6630 -30.5961 -30.5093 -30.3985
   -18.8977 -16.2150 -15.9614 -15.8144 -15.7068 -15.5893 -15.4806 -15.4258
   -15.3195 -15.2480 -15.1342 -15.0849 -15.0684 -15.0365 -15.0275 -15.0153
   -14.9356 -14.9292 -14.9115 -14.8883 -14.8826 -14.8406 -14.8290 -14.7882
   -14.7631 -14.7573 -14.6359 -14.5498 -14.4751 -14.3249 -14.3130 -12.8729
   -12.7554  -9.8672  -7.4748  -6.2670  -5.0046  -4.0179  -3.6031  -3.5475
    -3.4086  -3.3004  -3.2796  -3.2438  -3.1431  -2.9624  -2.8257  -2.7925
    -2.6762  -2.5955  -2.5823  -2.5517  -2.4268  -2.3896  -2.3509  -2.2862
    -2.2564  -2.1940  -2.1754  -2.1639  -2.1448  -2.1208  -2.0961  -1.9951
    -1.9564  -1.8606  -1.8208  -1.7873  -1.7461  -1.7290  -1.7088  -1.6780
    -1.6678  -1.6137  -1.6001  -1.5859  -1.5370  -1.4192  -1.2983  -1.2647
    -1.1762  -1.0284  -0.9911  -0.9709  -0.9143  -0.8786  -0.8561  -0.8258
    -0.7651  -0.7261  -0.6677  -0.6095  -0.5413  -0.4969  -0.4496  -0.4134
    -0.3783  -0.2937  -0.2120  -0.1681  -0.1549  -0.1376  -0.0384  -0.0022
     0.0523   0.1290   0.1310   0.1432   0.1860   0.2682   0.3454   0.3631
     0.3863   0.4913   0.4960   0.5389   0.5415   0.5617   0.5958   0.6302
     0.6806   0.7077   0.7949   0.8916   1.1177   1.2190   1.2219   1.5453
     1.5562   1.6524   1.8354   2.2291   2.2776   3.7091   3.7795   3.8009
     3.8568   3.8598   3.9296   3.9463   4.1920   4.2175   4.2180   4.2370

[...]

          k = 0.0380-0.0419 0.0000 ( 17876 PWs)   bands (ev):

[...]

          k =-0.0760-0.0000 0.0000 ( 17886 PWs)   bands (ev):

[...]

          k =-0.0760-0.0839 0.0000 ( 17948 PWs)   bands (ev):

   -55.3688 -55.3597 -55.3203 -55.3198 -55.2542 -55.2494 -55.2450 -55.1958
   -55.1925 -55.1904 -55.1836 -55.1512 -55.1505 -55.0343 -54.3532 -54.3530
   -31.7548 -31.7458 -31.6866 -31.6625 -31.6456 -31.6454 -31.6273 -31.6112
   -31.6110 -31.5945 -31.5865 -31.5783 -31.5629 -31.5310 -31.5287 -31.5244
   -31.5238 -31.5227 -31.5112 -31.5070 -31.4778 -31.4655 -31.4616 -31.4517
   -31.4460 -31.4425 -31.4401 -31.4396 -31.4369 -31.4282 -31.4255 -31.4084
   -31.4072 -31.4049 -31.3854 -31.3837 -31.3835 -31.3737 -31.3317 -31.3309
   -31.2963 -31.2489 -30.6757 -30.6756 -30.5923 -30.5922 -30.5527 -30.5527
   -18.8916 -15.7666 -15.5977 -15.5787 -15.4343 -15.3980 -15.3553 -15.3442
   -15.2503 -15.2152 -15.1890 -15.1580 -15.1370 -15.1014 -15.0879 -15.0712
   -15.0139 -14.9916 -14.9859 -14.9661 -14.9069 -14.9025 -14.8948 -14.8920
   -14.8372 -14.8339 -14.8259 -14.7434 -14.7405 -14.6296 -14.2477 -12.8569
   -12.8568  -9.8368  -7.4343  -6.2648  -5.1020  -3.9611  -3.6286  -2.8551
    -2.8487  -2.8354  -2.6504  -2.5675  -2.5449  -2.5394  -2.4494  -2.4119
    -2.3668  -2.3643  -2.3112  -2.3048  -2.2775  -2.2368  -2.2254  -2.2054
    -2.1867  -2.1779  -2.1423  -2.1189  -2.1091  -2.0791  -2.0481  -2.0319
    -2.0244  -2.0028  -1.9721  -1.9526  -1.9404  -1.8873  -1.7754  -1.7601
    -1.6649  -1.5980  -1.5937  -1.5203  -1.4963  -1.4542  -1.4463  -1.4216
    -1.3765  -1.1976  -1.1661  -1.1350  -1.1273  -1.0418  -0.9894  -0.9177
    -0.9123  -0.8864  -0.8513  -0.7579  -0.7214  -0.7022  -0.6269  -0.6033
    -0.5366  -0.4947  -0.4292  -0.3985  -0.3444  -0.3425  -0.3075  -0.2938
    -0.2730  -0.2048  -0.1586  -0.1242  -0.1119  -0.0801   0.1172   0.1265
     0.1421   0.2509   0.2956   0.4428   0.4577   0.5206   0.6264   0.6526
     0.7226   0.7475   0.9040   0.9159   0.9308   0.9843   0.9924   1.0622
     1.0716   2.0085   2.0090   2.0974   2.0977   3.6776   3.8959   3.9672
     3.9823   4.0150   4.1400   4.2085   4.2266   4.2950   4.2977   4.3275

     the Fermi energy is     3.7749 ev

!    total energy              =   -2941.51055889 Ry
     estimated scf accuracy    <       0.00000005 Ry
     smearing contrib. (-TS)   =      -0.04440741 Ry
     internal energy E=F+TS    =   -2941.46615148 Ry

     The total energy is F=E-TS. E is the sum of the following terms:
     one-electron contribution =  -23633.76520263 Ry
     hartree contribution      =   11909.16660119 Ry
     xc contribution           =    -486.89131537 Ry
     ewald contribution        =    9270.02103226 Ry
     electric field correction =       0.00273307 Ry

     convergence has been achieved in  76 iterations

     Forces acting on atoms (cartesian axes, Ry/au):

     atom    1 type  1   force =     0.00013419   -0.00018860    0.09304204
     atom    2 type  1   force =    -0.00008583   -0.00045281   -0.17840706
     atom    3 type  2   force =     0.00004627   -0.00037034   -0.02006663
     atom    4 type  2   force =    -0.00000959   -0.00201633    0.05931903
     atom    5 type  2   force =    -0.01030742   -0.00098630    0.00817665
     atom    6 type  2   force =     0.01173860   -0.00038965    0.00731732
     atom    7 type  1   force =    -0.00038242    0.00239184   -0.01419230
     atom    8 type  1   force =     0.00023395   -0.00123389   -0.00619665
     atom    9 type  2   force =    -0.00023227    0.00021955    0.00013850
     atom   10 type  2   force =    -0.00162473    0.00148181    0.00162695
     atom   11 type  2   force =    -0.00004569   -0.00016046    0.00009048
     atom   12 type  2   force =    -0.00018012   -0.00016036   -0.00001748
     atom   13 type  1   force =     0.00007215   -0.00027679    0.00004607
     atom   14 type  1   force =     0.00017733    0.00019491    0.00029000
     atom   15 type  2   force =    -0.00007057    0.00023125   -0.00030623
     atom   16 type  2   force =     0.00017423   -0.00021714    0.00011889
     atom   17 type  2   force =    -0.00001097   -0.00000359    0.00044009
     atom   18 type  2   force =    -0.00024524   -0.00003778   -0.00014424
     atom   19 type  1   force =    -0.00010041   -0.00007856    0.00021500
     atom   20 type  1   force =    -0.00014359   -0.00004386    0.00013585
     atom   21 type  2   force =     0.00005956   -0.00008438    0.10400318
     atom   22 type  2   force =     0.00007535   -0.00015514   -0.00033824
     atom   23 type  2   force =    -0.07032830   -0.00017704   -0.02687063
     atom   24 type  2   force =     0.07021385    0.00026731   -0.02689729
     atom   25 type  1   force =    -0.00001313   -0.00013862    0.09260890
     atom   26 type  1   force =    -0.00006309   -0.00039324   -0.17856185
     atom   27 type  2   force =     0.00009520   -0.00030403   -0.01915601
     atom   28 type  2   force =     0.00003906   -0.00178958    0.05866076
     atom   29 type  2   force =    -0.01080233   -0.00126353    0.00872458
     atom   30 type  2   force =     0.01215635   -0.00086251    0.00782612
     atom   31 type  1   force =    -0.00028833    0.00613482   -0.01442860
     atom   32 type  1   force =     0.00028941    0.00070123   -0.00651972
     atom   33 type  2   force =    -0.00022632   -0.00025121    0.00000007
     atom   34 type  2   force =    -0.00093593   -0.00223015   -0.00016721
     atom   35 type  2   force =    -0.00039932    0.00023181    0.00014035
     atom   36 type  2   force =     0.00011024    0.00019103   -0.00028105
     atom   37 type  1   force =     0.00017658   -0.00000990    0.00004246
     atom   38 type  1   force =     0.00032408    0.00018934    0.00009603
     atom   39 type  2   force =    -0.00026322    0.00010311   -0.00025366
     atom   40 type  2   force =    -0.00009104   -0.00015729   -0.00009097
     atom   41 type  2   force =    -0.00005119    0.00030835    0.00000944
     atom   42 type  2   force =    -0.00021959    0.00009540    0.00001761
     atom   43 type  1   force =     0.00043561   -0.00001982    0.00022558
     atom   44 type  1   force =     0.00008738   -0.00010194   -0.00014194
     atom   45 type  2   force =     0.00004489   -0.00008863    0.10399729
     atom   46 type  2   force =    -0.07030584   -0.00009990   -0.02682748
     atom   47 type  2   force =     0.07018345    0.00031375   -0.02686355
     atom   48 type  3   force =     0.00146818   -0.00062780    0.00028016
     atom   49 type  3   force =     0.00069313   -0.00009247   -0.00035937
     atom   50 type  4   force =    -0.00640874    0.00832841   -0.00294616
     atom   51 type  5   force =    -0.00014891   -0.00064920   -0.00016769
     atom   52 type  5   force =     0.00600437   -0.00746854    0.00208198
     atom   53 type  5   force =    -0.00042936    0.00142701    0.00023224
     atom   54 type  5   force =    -0.00007617    0.00113011    0.00035051
     atom   55 type  5   force =    -0.00054374   -0.00035964   -0.00005211

     Total force =     0.366733     Total SCF correction =     0.000461
  @ DRIVER MODE: Message from server: STATUS
  @ DRIVER MODE: Message from server: GETFORCE
  @ DRIVER MODE: Returning v,forces,stress,ensemble

     Writing output data file ./calc.save/
  @ DRIVER MODE: Message from server: EXIT
  @ DRIVE MODE: Exiting

     General routines

     Parallel routines

   This run was terminated on:   4:25:25  11Sep2021

   JOB DONE.