     Program PWSCF v.6.7GPU starts on 24Sep2021 at  3:14:54

     R & G space division:  proc/nbgrp/npool/nimage =       8
     Reading input from /storage/home/hcoda1/3/ntian30/research/carbon/CxH_vib/H2O_calc/ads_slab/CH2N2HO_b/out_0041/pw.inp
Warning: card &CELL ignored
Warning: card   CELL_DYNAMICS='IPI', ignored
Warning: card / ignored

     Current dimensions of program PWSCF are:
     Max number of different atomic species (ntypx) = 10
     Max number of k-points (npk) =  40000
     Max angular momentum in pseudopotentials (lmaxx) =  3
     Presently no symmetry can be used with electric field

     Message from routine cell_base_init:
     DEPRECATED: use true lattice parameter, not A to a.u. conversion factor

     IMPORTANT: XC functional enforced from input :
     Exchange-correlation= BEEF-VDW
                           (   1   4  43  14   2   0   0)
     Any further DFT definition will be discarded
     Please, verify this is what you really want

  @ DRIVER MODE: Connecting to
 qe_1139763_2947312.sched-torque.pace.gatech.eduh8ogfyan_scratch
  using UNIX socket
  @ DRIVER MODE: Message from server: STATUS
  @ DRIVER MODE: Message from server: INIT
  @ DRIVER MODE: Receiving replica           0          -1
  @ DRIVER MODE: Receiving encoded integer          25
  @ DRIVER MODE:  SCF:  T  FORCE:  T  STRESS:  F  VC:  F  ENSEMBLE:  F
  @ DRIVER MODE:  SCF:  T  FORCE:  T  STRESS:  F  VC:  F  ENSEMBLE:  F

     Using Slab Decomposition

     bravais-lattice index     =            0
     lattice parameter (alat)  =       1.8897  a.u.
     unit-cell volume          =    6658.9804 (a.u.)^3
     number of atoms/cell      =           54
     number of atomic types    =            5
     number of electrons       =       401.00
     number of Kohn-Sham states=          210
     kinetic-energy cutoff     =      29.3995  Ry
     charge density cutoff     =     293.9946  Ry
     scf convergence threshold =      7.3E-08
     mixing beta               =       0.0500
     number of iterations used =            8  plain     mixing
     Exchange-correlation= BEEF-VDW
                           (   1   4  43  14   2   0   0)

     celldm(1)=   1.889726  celldm(2)=   0.000000  celldm(3)=   0.000000
     celldm(4)=   0.000000  celldm(5)=   0.000000  celldm(6)=   0.000000

     crystal axes: (cart. coord. in units of alat)
               a(1) = (   6.579727   0.000000   0.000000 )
               a(2) = (  -0.000775   5.961596   0.000000 )
               a(3) = (   0.000000   0.000000  25.155947 )

     reciprocal axes: (cart. coord. in units 2 pi/alat)
               b(1) = (  0.151982  0.000020  0.000000 )
               b(2) = (  0.000000  0.167740  0.000000 )
               b(3) = (  0.000000  0.000000  0.039752 )

     PseudoPot. # 1 for Ti read from file:
     /storage/coda1/p-amedford6/0/shared/rich_project_chbe-medford/medford-share/data/pseudos_module/espresso/nninc/pbe/van/Ti.UPF
     MD5 check sum: 8e4df49b7f0d34bbd5052bf3f5ea0213
     Pseudo is Ultrasoft, Zval = 12.0
     Generated by new atomic code, or converted to UPF format
     Using radial grid of  851 points,  6 beta functions with:
                l(1) =   0
                l(2) =   0
                l(3) =   1
                l(4) =   1
                l(5) =   2
                l(6) =   2
     Q(r) pseudized with  8 coefficients,  rinner =    1.000   1.000   1.000
                                                       1.000   1.000

     PseudoPot. # 2 for O  read from file:
     /storage/coda1/p-amedford6/0/shared/rich_project_chbe-medford/medford-share/data/pseudos_module/espresso/nninc/pbe/van/O.UPF
     MD5 check sum: 78c19812648e8988a0fe644b0f25305e
     Pseudo is Ultrasoft, Zval =  6.0
     Generated by new atomic code, or converted to UPF format
     Using radial grid of  737 points,  4 beta functions with:
                l(1) =   0
                l(2) =   0
                l(3) =   1
                l(4) =   1
     Q(r) pseudized with  8 coefficients,  rinner =    0.800   0.800   0.800

     PseudoPot. # 3 for N  read from file:
     /storage/coda1/p-amedford6/0/shared/rich_project_chbe-medford/medford-share/data/pseudos_module/espresso/nninc/pbe/van/N.UPF
     MD5 check sum: 90d10febe142ad51ac9d5be1deb811c4
     Pseudo is Ultrasoft, Zval =  5.0
     Generated by new atomic code, or converted to UPF format
     Using radial grid of  729 points,  4 beta functions with:
                l(1) =   0
                l(2) =   0
                l(3) =   1
                l(4) =   1
     Q(r) pseudized with  8 coefficients,  rinner =    0.800   0.800   0.800

     PseudoPot. # 4 for C  read from file:
     /storage/coda1/p-amedford6/0/shared/rich_project_chbe-medford/medford-share/data/pseudos_module/espresso/nninc/pbe/van/C.UPF
     MD5 check sum: 1a69bf6b8db32088f5b2163dbdb77a27
     Pseudo is Ultrasoft, Zval =  4.0
     Generated by new atomic code, or converted to UPF format
     Using radial grid of  721 points,  4 beta functions with:
                l(1) =   0
                l(2) =   0
                l(3) =   1
                l(4) =   1
     Q(r) pseudized with  8 coefficients,  rinner =    0.800   0.800   0.800

     PseudoPot. # 5 for H  read from file:
     /storage/coda1/p-amedford6/0/shared/rich_project_chbe-medford/medford-share/data/pseudos_module/espresso/nninc/pbe/van/H.UPF
     MD5 check sum: b5ee9d7bfd3a09ee7748110bda690ff7
     Pseudo is Ultrasoft, Zval =  1.0
     Generated by new atomic code, or converted to UPF format
     Using radial grid of  615 points,  1 beta functions with:
                l(1) =   0
     Q(r) pseudized with  8 coefficients,  rinner =    0.800

     atomic species   valence    mass     pseudopotential
        Ti1           12.00    47.86700     Ti( 1.00)
        O1             6.00    15.99900     O ( 1.00)
        N1             5.00    14.00700     N ( 1.00)
        C1             4.00    12.01100     C ( 1.00)
        H1             1.00     1.00800     H ( 1.00)

     No symmetry found

   Cartesian axes

     site n.     atom                  positions (alat units)
         1           Ti1 tau(   1) = (   0.0004258   2.9801865   6.0000000  )
         2           Ti1 tau(   2) = (   3.2906075   1.4906267   6.0002472  )
         3           O1  tau(   3) = (   0.0006271   0.0005054   7.9858123  )
         4           O1  tau(   4) = (   3.2906025   0.0005020   7.3038282  )
         5           O1  tau(   5) = (   4.5942328   1.4918067   9.2879030  )
         6           O1  tau(   6) = (   1.9868534   1.4903216   9.2879459  )
         7           Ti1 tau(   7) = (   3.2907910   2.8959150   9.1758416  )
         8           Ti1 tau(   8) = (   0.0015273   1.4827037   9.2680791  )
         9           O1  tau(   9) = (   3.2935892   5.9488104  11.3374186  )
        10           O1  tau(  10) = (   0.0116148   5.9584955  10.6183126  )
        11           O1  tau(  11) = (   1.2908913   1.5070562  12.6495475  )
        12           O1  tau(  12) = (   5.3136790   1.4931969  12.6373367  )
        13           Ti1 tau(  13) = (   0.0127878   2.8868139  12.6015941  )
        14           Ti1 tau(  14) = (   3.2987545   1.3040885  12.7026746  )
        15           O1  tau(  15) = (   0.0175227   0.0240941  14.6538407  )
        16           O1  tau(  16) = (   3.3064676   0.0741613  13.9771881  )
        17           O1  tau(  17) = (   4.5827780   1.5498142  16.1449436  )
        18           O1  tau(  18) = (   2.0366442   1.5898792  16.0867183  )
        19           Ti1 tau(  19) = (   3.3102262   3.0030951  15.6784192  )
        20           Ti1 tau(  20) = (   0.0574396   1.3488835  16.0050117  )
        21           O1  tau(  21) = (   3.2904802   0.0005063   4.7018136  )
        22           O1  tau(  22) = (   0.0721820   0.0083530  17.1768217  )
        23           O1  tau(  23) = (   1.3043587   1.4918075   6.0039043  )
        24           O1  tau(  24) = (   5.2767064   1.4903225   6.0039473  )
        25           Ti1 tau(  25) = (   0.0000382   5.9609847   6.0000000  )
        26           Ti1 tau(  26) = (   3.2902200   4.4714249   6.0002472  )
        27           O1  tau(  27) = (   0.0002396   2.9813036   7.9858123  )
        28           O1  tau(  28) = (   3.2902150   2.9813002   7.3038282  )
        29           O1  tau(  29) = (   4.5938453   4.4726049   9.2879030  )
        30           O1  tau(  30) = (   1.9864658   4.4711199   9.2879459  )
        31           Ti1 tau(  31) = (   3.2891106   5.8743827   9.1763621  )
        32           Ti1 tau(  32) = (   0.0006254   4.4649316   9.2693709  )
        33           O1  tau(  33) = (   3.2934580   3.0155445  11.2926531  )
        34           O1  tau(  34) = (   0.0092240   2.9805883  10.6323155  )
        35           O1  tau(  35) = (   1.2931599   4.4792858  12.6478595  )
        36           O1  tau(  36) = (   5.3056662   4.4876152  12.6363886  )
        37           Ti1 tau(  37) = (   6.5746511   5.8741161  12.5153022  )
        38           Ti1 tau(  38) = (   3.2863760   4.3878630  12.4273393  )
        39           O1  tau(  39) = (   6.5684735   3.0099032  14.7382625  )
        40           O1  tau(  40) = (   3.3273571   2.9915841  13.8999870  )
        41           O1  tau(  41) = (   4.5754576   4.4629145  16.1269992  )
        42           O1  tau(  42) = (   2.0375947   4.4358961  16.0236521  )
        43           Ti1 tau(  43) = (   3.3857405   0.0156461  16.2930207  )
        44           Ti1 tau(  44) = (   0.0840152   4.5257857  15.8004899  )
        45           O1  tau(  45) = (   3.2900926   2.9813045   4.7018136  )
        46           O1  tau(  46) = (   1.3039711   4.4726057   6.0039043  )
        47           O1  tau(  47) = (   5.2763189   4.4711207   6.0039473  )
        48           N1  tau(  48) = (   6.4876325   3.2951735  18.6921505  )
        49           N1  tau(  49) = (   0.0139976   3.0420413  17.5569154  )
        50           C1  tau(  50) = (   6.3059459   3.6199554  19.9036174  )
        51           H1  tau(  51) = (   5.2963100   3.8231348  20.2372398  )
        52           H1  tau(  52) = (   0.5840524   3.7151184  20.5547593  )
        53           O1  tau(  53) = (   3.1058724   5.9363815  18.1230642  )
        54           H1  tau(  54) = (   2.1709728   0.0855973  18.3548350  )

     number of k points=    10  Fermi-Dirac smearing, width (Ry)=  0.0073
                       cart. coord. in units 2pi/alat
        k(    1) = (   0.0000000   0.0000000   0.0000000), wk =   0.1250000
        k(    2) = (   0.0000000   0.0419351   0.0000000), wk =   0.2500000
        k(    3) = (   0.0000000  -0.0838702   0.0000000), wk =   0.1250000
        k(    4) = (   0.0379955   0.0000049   0.0000000), wk =   0.2500000
        k(    5) = (   0.0379955   0.0419400   0.0000000), wk =   0.2500000
        k(    6) = (   0.0379955  -0.0838652   0.0000000), wk =   0.2500000
        k(    7) = (   0.0379955  -0.0419301   0.0000000), wk =   0.2500000
        k(    8) = (  -0.0759910  -0.0000099   0.0000000), wk =   0.1250000
        k(    9) = (  -0.0759910   0.0419252   0.0000000), wk =   0.2500000
        k(   10) = (  -0.0759910  -0.0838800   0.0000000), wk =   0.1250000

     Initial potential from superposition of free atoms

     starting charge  384.99916, renormalised to  401.00000

     negative rho (up, down):  1.407E-02 0.000E+00

     %%%%%%%%%%%%%%%%%%%%%%%%%%%%%%%%%%%%%%%%%%%%%%%%%%%%%%%%%%%%%%%%%%%%%%%%
     %                                                                      %
     % You are using vdW-DF, which was implemented by the Thonhauser group. %
     % Please cite the following two papers that made this development      %
     % possible and the two reviews that describe the various versions:     %
     %                                                                      %
     %   T. Thonhauser et al., PRL 115, 136402 (2015).                      %
     %   T. Thonhauser et al., PRB 76, 125112 (2007).                       %
     %   K. Berland et al., Rep. Prog. Phys. 78, 066501 (2015).             %
     %   D.C. Langreth et al., J. Phys.: Condens. Matter 21, 084203 (2009). %
     %                                                                      %
     %                                                                      %
     % If you are calculating the stress with vdW-DF, please also cite:     %
     %                                                                      %
     %   R. Sabatini et al., J. Phys.: Condens. Matter 24, 424209 (2012).   %
     %                                                                      %
     %%%%%%%%%%%%%%%%%%%%%%%%%%%%%%%%%%%%%%%%%%%%%%%%%%%%%%%%%%%%%%%%%%%%%%%%

     Adding external electric field

     Computed dipole along edir(3) :
        Dipole              -11.8198 Ry au,        -30.0428 Debye
        Dipole field         -0.0223 Ry au,

        Potential amp.        2.0677 Ry
        Total length         46.3494 bohr

     Starting wfcs are  303 atomic wfcs
  @ DRIVER MODE: Message from server: STATUS
  @ DRIVER MODE: Message from server: POSDATA
  @ DRIVER MODE: Reading and sharing cell
  @ DRIVER MODE: Reading and sharing positions
  @ DRIVER MODE: Received positions

     Self-consistent Calculation

     iteration #  1     ecut=    29.40 Ry     beta= 0.05
     Davidson diagonalization with overlap
     c_bands:  3 eigenvalues not converged
     c_bands:  4 eigenvalues not converged
     c_bands:  1 eigenvalues not converged
     c_bands:  4 eigenvalues not converged
     c_bands:  4 eigenvalues not converged
     c_bands:  1 eigenvalues not converged
     c_bands:  2 eigenvalues not converged
     ethr =  1.00E-05,  avg # of iterations = 22.9

[...]

     total energy              =   -2411.65987567 Ry
     estimated scf accuracy    <    6295.58181039 Ry

     iteration #  2     ecut=    29.40 Ry     beta= 0.05
     Davidson diagonalization with overlap
     ethr =  1.00E-02,  avg # of iterations = 22.4

[...]

     iteration # 43     ecut=    29.40 Ry     beta= 0.05
     Davidson diagonalization with overlap
     c_bands:  2 eigenvalues not converged
     c_bands:  1 eigenvalues not converged
     ethr =  1.43E-06,  avg # of iterations = 12.2

[...]

     total energy              =   -2971.49158195 Ry
     estimated scf accuracy    <       0.00000010 Ry

     iteration # 68     ecut=    29.40 Ry     beta= 0.05
     Davidson diagonalization with overlap
     ethr =  2.31E-11,  avg # of iterations =  8.5

     negative rho (up, down):  1.460E-02 0.000E+00

     Adding external electric field

     Computed dipole along edir(3) :
        Dipole                1.0639 Ry au,          2.7041 Debye
        Dipole field          0.0020 Ry au,

        Potential amp.       -0.1861 Ry
        Total length         46.3494 bohr

     End of self-consistent calculation

          k = 0.0000 0.0000 0.0000 ( 18029 PWs)   bands (ev):

   -55.6932 -55.6592 -55.4778 -55.4755 -55.4440 -55.3352 -55.3178 -55.2834
   -55.2825 -55.2277 -55.1820 -55.0976 -55.0878 -54.9817 -54.6010 -54.5670
   -32.1670 -31.9885 -31.9864 -31.9303 -31.8458 -31.8185 -31.8131 -31.7936
   -31.7896 -31.7581 -31.7516 -31.7495 -31.7146 -31.6971 -31.6839 -31.6517
   -31.6494 -31.6125 -31.5855 -31.5800 -31.5770 -31.5529 -31.5436 -31.5404
   -31.4957 -31.4884 -31.4828 -31.4720 -31.4600 -31.4461 -31.4418 -31.4267
   -31.4259 -31.3707 -31.3662 -31.3622 -31.2967 -31.2831 -31.2608 -31.2311
   -31.2058 -31.1926 -31.0039 -30.9253 -30.9024 -30.8219 -30.7360 -30.6240
   -20.7436 -16.2704 -16.1736 -15.9688 -15.7909 -15.6399 -15.5871 -15.4469
   -15.3755 -15.2763 -15.1949 -15.0959 -15.0754 -15.0353 -14.9996 -14.9977
   -14.9697 -14.9372 -14.9369 -14.9149 -14.8966 -14.8489 -14.7889 -14.7719
   -14.7271 -14.6996 -14.6486 -14.6430 -14.6195 -14.5171 -14.2489 -14.2351
   -13.0986 -12.9836  -7.4029  -6.0924  -5.6773  -5.0460  -3.7626  -3.5810
    -3.5066  -3.3577  -3.2787  -3.2031  -3.0744  -2.9873  -2.9096  -2.7493
    -2.6637  -2.6374  -2.5860  -2.5294  -2.4641  -2.4378  -2.3969  -2.3740
    -2.2952  -2.2543  -2.2316  -2.2102  -2.1561  -2.1268  -2.0918  -2.0059
    -1.9769  -1.9428  -1.8684  -1.8596  -1.8347  -1.8267  -1.7841  -1.7655
    -1.7524  -1.7338  -1.5975  -1.5893  -1.5113  -1.4722  -1.3258  -1.2019
    -1.1372  -1.0673  -1.0528  -0.9707  -0.9349  -0.8558  -0.8361  -0.8064
    -0.7682  -0.7015  -0.6372  -0.6147  -0.5698  -0.5337  -0.3972  -0.3751
    -0.3281  -0.3252  -0.3003  -0.2373  -0.1673  -0.0854  -0.0734  -0.0071
     0.0134   0.0946   0.1773   0.1845   0.2347   0.2577   0.3125   0.3351
     0.3537   0.3871   0.4167   0.4859   0.5490   0.5963   0.6017   0.6345
     0.7023   0.7698   0.8097   0.8429   0.9924   1.0219   1.0372   1.1265
     1.1376   1.2452   1.4040   1.4255   1.6294   1.6308   1.9855   2.0279
     3.4533   3.5834   3.6172   3.6910   3.7765   3.9043   3.9130   4.0404
     4.1597   4.1650

[...]

          k = 0.0380-0.0419 0.0000 ( 17876 PWs)   bands (ev):

[...]

          k =-0.0760-0.0000 0.0000 ( 17886 PWs)   bands (ev):

[...]

          k =-0.0760-0.0839 0.0000 ( 17948 PWs)   bands (ev):

   -55.6766 -55.6756 -55.4747 -55.4621 -55.4595 -55.3290 -55.3041 -55.2960
   -55.2896 -55.2283 -55.1785 -55.1011 -55.0853 -54.9842 -54.5845 -54.5833
   -31.9829 -31.9823 -31.9726 -31.9718 -31.7972 -31.7959 -31.7835 -31.7778
   -31.7435 -31.7228 -31.6967 -31.6891 -31.6863 -31.6712 -31.6553 -31.6506
   -31.6329 -31.6192 -31.6180 -31.6133 -31.5950 -31.5533 -31.5484 -31.5263
   -31.5252 -31.5202 -31.5152 -31.5143 -31.5062 -31.4883 -31.4662 -31.4585
   -31.4315 -31.3909 -31.3771 -31.3544 -31.3429 -31.3272 -31.3001 -31.2872
   -31.2375 -31.1961 -30.9156 -30.9148 -30.8179 -30.8166 -30.7794 -30.7786
   -20.7425 -16.2462 -15.6189 -15.5511 -15.5306 -15.5218 -15.4067 -15.3740
   -15.2421 -15.2410 -15.2182 -15.1592 -15.1490 -15.1179 -15.1102 -15.0851
   -15.0521 -15.0271 -15.0044 -14.9745 -14.9636 -14.9199 -14.8930 -14.8894
   -14.8758 -14.8268 -14.7401 -14.6561 -14.6416 -14.5769 -14.4959 -14.3678
   -13.0861 -13.0855  -7.4036  -6.0959  -5.6800  -5.0236  -3.7353  -3.1089
    -2.8980  -2.7502  -2.7237  -2.5956  -2.5766  -2.4826  -2.4745  -2.4313
    -2.4179  -2.3784  -2.3509  -2.3336  -2.2912  -2.2738  -2.2585  -2.2544
    -2.2360  -2.2055  -2.1970  -2.1928  -2.1838  -2.1540  -2.1267  -2.1122
    -2.0962  -2.0495  -2.0227  -1.9231  -1.8188  -1.7938  -1.7204  -1.7147
    -1.7127  -1.7004  -1.6780  -1.6543  -1.5695  -1.4796  -1.4420  -1.3856
    -1.2118  -1.1974  -1.1744  -1.1528  -1.0958  -1.0480  -1.0191  -0.9674
    -0.9552  -0.9314  -0.8585  -0.7957  -0.7228  -0.7024  -0.6341  -0.5844
    -0.5671  -0.4769  -0.4637  -0.4307  -0.3902  -0.3757  -0.3468  -0.2929
    -0.2780  -0.2588  -0.2305  -0.1924  -0.1564   0.0126   0.1454   0.2091
     0.2274   0.2641   0.3182   0.3839   0.4075   0.5915   0.6042   0.6088
     0.6472   0.7069   0.7325   0.7493   0.8425   0.9546   0.9826   1.0190
     1.0464   1.0659   1.1465   1.2059   1.7964   1.8045   1.8475   1.8482
     3.4549   3.9902   4.0093   4.0106   4.0117   4.1065   4.1308   4.1391
     4.2039   4.2629

     the Fermi energy is     3.4475 ev

!    total energy              =   -2971.49160892 Ry
     estimated scf accuracy    <       0.00000006 Ry
     smearing contrib. (-TS)   =      -0.01886847 Ry
     internal energy E=F+TS    =   -2971.47274046 Ry

     The total energy is F=E-TS. E is the sum of the following terms:
     one-electron contribution =  -23618.75452313 Ry
     hartree contribution      =   11903.21891400 Ry
     xc contribution           =    -492.37034184 Ry
     ewald contribution        =    9236.43107457 Ry
     electric field correction =       0.00213595 Ry

     convergence has been achieved in  68 iterations

     Forces acting on atoms (cartesian axes, Ry/au):

     atom    1 type  1   force =     0.00001517   -0.00040453    0.09766822
     atom    2 type  1   force =    -0.00003864    0.00022222   -0.17213327
     atom    3 type  2   force =     0.00005141   -0.00005281   -0.02536144
     atom    4 type  2   force =     0.00001546   -0.00144554    0.04760428
     atom    5 type  2   force =    -0.00617068   -0.00240128   -0.00084417
     atom    6 type  2   force =     0.00779368   -0.00181801   -0.00150903
     atom    7 type  1   force =    -0.00008679   -0.00483798    0.01887342
     atom    8 type  1   force =     0.00022262    0.01221363    0.02699963
     atom    9 type  2   force =    -0.00010400   -0.00017729   -0.00011277
     atom   10 type  2   force =    -0.00111915    0.00131870   -0.02500751
     atom   11 type  2   force =     0.00014061   -0.00003099    0.00007418
     atom   12 type  2   force =     0.00006443   -0.00003456   -0.00000046
     atom   13 type  1   force =     0.00034723   -0.00021809   -0.00020573
     atom   14 type  1   force =     0.00005284   -0.00016694   -0.00016708
     atom   15 type  2   force =    -0.00029935   -0.00018442   -0.00026915
     atom   16 type  2   force =    -0.00003739   -0.00010549   -0.00057599
     atom   17 type  2   force =    -0.00012858   -0.00007112   -0.00003314
     atom   18 type  2   force =     0.00002458   -0.00023821    0.00000361
     atom   19 type  1   force =    -0.00011222   -0.00000157   -0.00044902
     atom   20 type  1   force =    -0.00023732   -0.00011025    0.00010678
     atom   21 type  2   force =     0.00005666    0.00008708    0.10224470
     atom   22 type  2   force =     0.00018532    0.00004360   -0.00015737
     atom   23 type  2   force =    -0.07353077   -0.00016082   -0.02811593
     atom   24 type  2   force =     0.07345051    0.00028024   -0.02819210
     atom   25 type  1   force =     0.00013903   -0.00033376    0.09747094
     atom   26 type  1   force =    -0.00003891   -0.00130850   -0.17227037
     atom   27 type  2   force =     0.00009455   -0.00030499   -0.02399790
     atom   28 type  2   force =     0.00004282    0.00031079    0.04323125
     atom   29 type  2   force =    -0.00506129    0.00403359   -0.00276766
     atom   30 type  2   force =     0.00657119    0.00442276   -0.00332546
     atom   31 type  1   force =     0.00000949    0.00580135    0.00691197
     atom   32 type  1   force =     0.00029257   -0.01518825    0.02657877
     atom   33 type  2   force =     0.00038286   -0.00002907    0.00010752
     atom   34 type  2   force =    -0.00138461    0.00099826   -0.02674939
     atom   35 type  2   force =     0.00037874    0.00005127    0.00004595
     atom   36 type  2   force =    -0.00028737   -0.00006342   -0.00007480
     atom   37 type  1   force =     0.00009839   -0.00052458   -0.00012684
     atom   38 type  1   force =     0.00024609    0.00015956    0.00009661
     atom   39 type  2   force =    -0.00011849   -0.00015571   -0.00006516
     atom   40 type  2   force =     0.00005344    0.00003178   -0.00008670
     atom   41 type  2   force =    -0.00016288    0.00010695   -0.00016927
     atom   42 type  2   force =    -0.00028338   -0.00005738    0.00006960
     atom   43 type  1   force =     0.00037792    0.00014837   -0.00108161
     atom   44 type  1   force =    -0.00029025    0.00031275    0.00010800
     atom   45 type  2   force =     0.00004849   -0.00008249    0.10203654
     atom   46 type  2   force =    -0.07356851   -0.00007753   -0.02815346
     atom   47 type  2   force =     0.07347531    0.00036106   -0.02820062
     atom   48 type  3   force =    -0.00066433    0.00030844    0.00040088
     atom   49 type  3   force =    -0.00010982   -0.00030641   -0.00030188
     atom   50 type  4   force =    -0.00029914   -0.00028580   -0.00021553
     atom   51 type  5   force =    -0.00002496   -0.00008434    0.00012748
     atom   52 type  5   force =    -0.00017229   -0.00002945   -0.00001728
     atom   53 type  2   force =     0.00467139    0.00020605   -0.00179569
     atom   54 type  5   force =    -0.00497167   -0.00012689    0.00177344

     Total force =     0.365065     Total SCF correction =     0.000680
  @ DRIVER MODE: Message from server: STATUS
  @ DRIVER MODE: Message from server: GETFORCE
  @ DRIVER MODE: Returning v,forces,stress,ensemble

     Writing output data file ./calc.save/
  @ DRIVER MODE: Message from server: EXIT
  @ DRIVE MODE: Exiting

     General routines

     Parallel routines

   This run was terminated on:   3:37:22  24Sep2021

   JOB DONE.