     Program PWSCF v.6.7GPU starts on  2Aug2021 at 18:59:33

     R & G space division:  proc/nbgrp/npool/nimage =      16
     Reading input from /storage/home/hcoda1/3/ntian30/research/carbon/02Aug_vib_paired/ads_slab/CH3N2_b/out_0022/pw.inp
Warning: card &CELL ignored
Warning: card   CELL_DYNAMICS='IPI', ignored
Warning: card / ignored

     Current dimensions of program PWSCF are:
     Max number of different atomic species (ntypx) = 10
     Max number of k-points (npk) =  40000
     Max angular momentum in pseudopotentials (lmaxx) =  3
     Presently no symmetry can be used with electric field

     Message from routine cell_base_init:
     DEPRECATED: use true lattice parameter, not A to a.u. conversion factor

     IMPORTANT: XC functional enforced from input :
     Exchange-correlation= BEEF-VDW
                           (   1   4  43  14   2   0   0)
     Any further DFT definition will be discarded
     Please, verify this is what you really want

  @ DRIVER MODE: Connecting to
 qe_1139763_2482536.sched-torque.pace.gatech.edubujadcb8_scratch
  using UNIX socket
  @ DRIVER MODE: Message from server: STATUS
  @ DRIVER MODE: Message from server: INIT
  @ DRIVER MODE: Receiving replica           0          -1
  @ DRIVER MODE: Receiving encoded integer          25
  @ DRIVER MODE:  SCF:  T  FORCE:  T  STRESS:  F  VC:  F  ENSEMBLE:  F
  @ DRIVER MODE:  SCF:  T  FORCE:  T  STRESS:  F  VC:  F  ENSEMBLE:  F

     Using Slab Decomposition

     bravais-lattice index     =            0
     lattice parameter (alat)  =       1.8897  a.u.
     unit-cell volume          =    6658.9804 (a.u.)^3
     number of atoms/cell      =           53
     number of atomic types    =            5
     number of electrons       =       395.00
     number of Kohn-Sham states=          207
     kinetic-energy cutoff     =      29.3995  Ry
     charge density cutoff     =     293.9946  Ry
     scf convergence threshold =      7.3E-08
     mixing beta               =       0.0500
     number of iterations used =            8  plain     mixing
     Exchange-correlation= BEEF-VDW
                           (   1   4  43  14   2   0   0)

     celldm(1)=   1.889726  celldm(2)=   0.000000  celldm(3)=   0.000000
     celldm(4)=   0.000000  celldm(5)=   0.000000  celldm(6)=   0.000000

     crystal axes: (cart. coord. in units of alat)
               a(1) = (   6.579727   0.000000   0.000000 )
               a(2) = (  -0.000775   5.961596   0.000000 )
               a(3) = (   0.000000   0.000000  25.155947 )

     reciprocal axes: (cart. coord. in units 2 pi/alat)
               b(1) = (  0.151982  0.000020  0.000000 )
               b(2) = (  0.000000  0.167740  0.000000 )
               b(3) = (  0.000000  0.000000  0.039752 )

     PseudoPot. # 1 for Ti read from file:
     /storage/coda1/p-amedford6/0/shared/rich_project_chbe-medford/medford-share/data/pseudos_module/espresso/nninc/pbe/van/Ti.UPF
     MD5 check sum: 8e4df49b7f0d34bbd5052bf3f5ea0213
     Pseudo is Ultrasoft, Zval = 12.0
     Generated by new atomic code, or converted to UPF format
     Using radial grid of  851 points,  6 beta functions with:
                l(1) =   0
                l(2) =   0
                l(3) =   1
                l(4) =   1
                l(5) =   2
                l(6) =   2
     Q(r) pseudized with  8 coefficients,  rinner =    1.000   1.000   1.000
                                                       1.000   1.000

     PseudoPot. # 2 for O  read from file:
     /storage/coda1/p-amedford6/0/shared/rich_project_chbe-medford/medford-share/data/pseudos_module/espresso/nninc/pbe/van/O.UPF
     MD5 check sum: 78c19812648e8988a0fe644b0f25305e
     Pseudo is Ultrasoft, Zval =  6.0
     Generated by new atomic code, or converted to UPF format
     Using radial grid of  737 points,  4 beta functions with:
                l(1) =   0
                l(2) =   0
                l(3) =   1
                l(4) =   1
     Q(r) pseudized with  8 coefficients,  rinner =    0.800   0.800   0.800

     PseudoPot. # 3 for N  read from file:
     /storage/coda1/p-amedford6/0/shared/rich_project_chbe-medford/medford-share/data/pseudos_module/espresso/nninc/pbe/van/N.UPF
     MD5 check sum: 90d10febe142ad51ac9d5be1deb811c4
     Pseudo is Ultrasoft, Zval =  5.0
     Generated by new atomic code, or converted to UPF format
     Using radial grid of  729 points,  4 beta functions with:
                l(1) =   0
                l(2) =   0
                l(3) =   1
                l(4) =   1
     Q(r) pseudized with  8 coefficients,  rinner =    0.800   0.800   0.800

     PseudoPot. # 4 for C  read from file:
     /storage/coda1/p-amedford6/0/shared/rich_project_chbe-medford/medford-share/data/pseudos_module/espresso/nninc/pbe/van/C.UPF
     MD5 check sum: 1a69bf6b8db32088f5b2163dbdb77a27
     Pseudo is Ultrasoft, Zval =  4.0
     Generated by new atomic code, or converted to UPF format
     Using radial grid of  721 points,  4 beta functions with:
                l(1) =   0
                l(2) =   0
                l(3) =   1
                l(4) =   1
     Q(r) pseudized with  8 coefficients,  rinner =    0.800   0.800   0.800

     PseudoPot. # 5 for H  read from file:
     /storage/coda1/p-amedford6/0/shared/rich_project_chbe-medford/medford-share/data/pseudos_module/espresso/nninc/pbe/van/H.UPF
     MD5 check sum: b5ee9d7bfd3a09ee7748110bda690ff7
     Pseudo is Ultrasoft, Zval =  1.0
     Generated by new atomic code, or converted to UPF format
     Using radial grid of  615 points,  1 beta functions with:
                l(1) =   0
     Q(r) pseudized with  8 coefficients,  rinner =    0.800

     atomic species   valence    mass     pseudopotential
        Ti1           12.00    47.86700     Ti( 1.00)
        O1             6.00    15.99900     O ( 1.00)
        N1             5.00    14.00700     N ( 1.00)
        C1             4.00    12.01100     C ( 1.00)
        H1             1.00     1.00800     H ( 1.00)

     No symmetry found

   Cartesian axes

     site n.     atom                  positions (alat units)
         1           Ti1 tau(   1) = (   0.0004258   2.9801865   6.0000000  )
         2           Ti1 tau(   2) = (   3.2906075   1.4906267   6.0002472  )
         3           O1  tau(   3) = (   0.0006271   0.0005054   7.9858123  )
         4           O1  tau(   4) = (   3.2906025   0.0005020   7.3038282  )
         5           O1  tau(   5) = (   4.5942328   1.4918067   9.2879030  )
         6           O1  tau(   6) = (   1.9868534   1.4903216   9.2879459  )
         7           Ti1 tau(   7) = (   3.2907910   2.8959150   9.1758416  )
         8           Ti1 tau(   8) = (   0.0015273   1.4827037   9.2680791  )
         9           O1  tau(   9) = (   3.3037365   0.0094216  11.3222111  )
        10           O1  tau(  10) = (   0.0116148   5.9584955  10.6183126  )
        11           O1  tau(  11) = (   1.3152514   1.5075076  12.6320051  )
        12           O1  tau(  12) = (   5.3186361   1.4995162  12.6508707  )
        13           Ti1 tau(  13) = (   6.5540705   2.9956815  12.5884341  )
        14           Ti1 tau(  14) = (   3.2234832   1.4927074  12.4921739  )
        15           O1  tau(  15) = (   0.0610261   5.9052480  14.6017706  )
        16           O1  tau(  16) = (   3.2936532   0.0132264  13.8830087  )
        17           O1  tau(  17) = (   4.5722397   1.5061520  16.0138922  )
        18           O1  tau(  18) = (   2.0767725   1.5295127  16.0808449  )
        19           Ti1 tau(  19) = (   3.3650854   3.0251465  15.6907462  )
        20           Ti1 tau(  20) = (   0.0387768   1.3037779  15.7216176  )
        21           O1  tau(  21) = (   3.2904802   0.0005063   4.7018136  )
        22           O1  tau(  22) = (   0.0189486   0.1070799  17.1824039  )
        23           O1  tau(  23) = (   1.3043587   1.4918075   6.0039043  )
        24           O1  tau(  24) = (   5.2767064   1.4903225   6.0039473  )
        25           Ti1 tau(  25) = (   0.0000382   5.9609847   6.0000000  )
        26           Ti1 tau(  26) = (   3.2902200   4.4714249   6.0002472  )
        27           O1  tau(  27) = (   0.0002396   2.9813036   7.9858123  )
        28           O1  tau(  28) = (   3.2902150   2.9813002   7.3038282  )
        29           O1  tau(  29) = (   4.5938453   4.4726049   9.2879030  )
        30           O1  tau(  30) = (   1.9864658   4.4711199   9.2879459  )
        31           Ti1 tau(  31) = (   3.2891106   5.8743827   9.1763621  )
        32           Ti1 tau(  32) = (   0.0006254   4.4649316   9.2693709  )
        33           O1  tau(  33) = (   3.3043114   2.9829305  11.3227053  )
        34           O1  tau(  34) = (   0.0092240   2.9805883  10.6323155  )
        35           O1  tau(  35) = (   1.3131995   4.4620516  12.6081187  )
        36           O1  tau(  36) = (   5.3117129   4.4692194  12.6284301  )
        37           Ti1 tau(  37) = (   6.5303063   5.9583428  12.5400172  )
        38           Ti1 tau(  38) = (   3.2255477   4.4746212  12.4748647  )
        39           O1  tau(  39) = (   0.0377805   3.0059521  14.8845374  )
        40           O1  tau(  40) = (   3.3120027   2.9986483  13.8863452  )
        41           O1  tau(  41) = (   4.5434534   4.5277214  16.0148975  )
        42           O1  tau(  42) = (   2.1165747   4.4940517  16.0783766  )
        43           Ti1 tau(  43) = (   3.3042555   0.0241951  15.7004812  )
        44           Ti1 tau(  44) = (   0.0495666   4.4505358  16.3362958  )
        45           O1  tau(  45) = (   3.2900926   2.9813045   4.7018136  )
        46           O1  tau(  46) = (   1.3039711   4.4726057   6.0039043  )
        47           O1  tau(  47) = (   5.2763189   4.4711207   6.0039473  )
        48           N1  tau(  48) = (   0.5348212   3.4288502  18.0689430  )
        49           C1  tau(  49) = (   1.3556880   3.0079929  19.2215664  )
        50           H1  tau(  50) = (   1.4862090   3.8900195  19.8496782  )
        51           H1  tau(  51) = (   0.8469181   2.2241957  19.7647163  )
        52           H1  tau(  52) = (   2.3296892   2.6851793  18.8624704  )
        53           N1  tau(  53) = (   5.9145885   3.2636146  17.9655992  )

     number of k points=    10  Fermi-Dirac smearing, width (Ry)=  0.0073
                       cart. coord. in units 2pi/alat
        k(    1) = (   0.0000000   0.0000000   0.0000000), wk =   0.1250000
        k(    2) = (   0.0000000   0.0419351   0.0000000), wk =   0.2500000
        k(    3) = (   0.0000000  -0.0838702   0.0000000), wk =   0.1250000
        k(    4) = (   0.0379955   0.0000049   0.0000000), wk =   0.2500000
        k(    5) = (   0.0379955   0.0419400   0.0000000), wk =   0.2500000
        k(    6) = (   0.0379955  -0.0838652   0.0000000), wk =   0.2500000
        k(    7) = (   0.0379955  -0.0419301   0.0000000), wk =   0.2500000
        k(    8) = (  -0.0759910  -0.0000099   0.0000000), wk =   0.1250000
        k(    9) = (  -0.0759910   0.0419252   0.0000000), wk =   0.2500000
        k(   10) = (  -0.0759910  -0.0838800   0.0000000), wk =   0.1250000

     Initial potential from superposition of free atoms

     starting charge  378.99916, renormalised to  395.00000

     negative rho (up, down):  1.610E-02 0.000E+00

     %%%%%%%%%%%%%%%%%%%%%%%%%%%%%%%%%%%%%%%%%%%%%%%%%%%%%%%%%%%%%%%%%%%%%%%%
     %                                                                      %
     % You are using vdW-DF, which was implemented by the Thonhauser group. %
     % Please cite the following two papers that made this development      %
     % possible and the two reviews that describe the various versions:     %
     %                                                                      %
     %   T. Thonhauser et al., PRL 115, 136402 (2015).                      %
     %   T. Thonhauser et al., PRB 76, 125112 (2007).                       %
     %   K. Berland et al., Rep. Prog. Phys. 78, 066501 (2015).             %
     %   D.C. Langreth et al., J. Phys.: Condens. Matter 21, 084203 (2009). %
     %                                                                      %
     %                                                                      %
     % If you are calculating the stress with vdW-DF, please also cite:     %
     %                                                                      %
     %   R. Sabatini et al., J. Phys.: Condens. Matter 24, 424209 (2012).   %
     %                                                                      %
     %%%%%%%%%%%%%%%%%%%%%%%%%%%%%%%%%%%%%%%%%%%%%%%%%%%%%%%%%%%%%%%%%%%%%%%%

     Adding external electric field

     Computed dipole along edir(3) :
        Dipole               -8.5786 Ry au,        -21.8047 Debye
        Dipole field         -0.0162 Ry au,

        Potential amp.        1.5007 Ry
        Total length         46.3494 bohr

     Starting wfcs are  299 atomic wfcs
  @ DRIVER MODE: Message from server: STATUS
  @ DRIVER MODE: Message from server: POSDATA
  @ DRIVER MODE: Reading and sharing cell
  @ DRIVER MODE: Reading and sharing positions
  @ DRIVER MODE: Received positions

     Self-consistent Calculation

     iteration #  1     ecut=    29.40 Ry     beta= 0.05
     Davidson diagonalization with overlap
     c_bands:  1 eigenvalues not converged
     c_bands:  2 eigenvalues not converged
     c_bands:  1 eigenvalues not converged
     c_bands:  3 eigenvalues not converged
     c_bands:  1 eigenvalues not converged
     c_bands:  2 eigenvalues not converged
     c_bands:  2 eigenvalues not converged
     c_bands:  2 eigenvalues not converged
     ethr =  1.00E-05,  avg # of iterations = 19.2

[...]

     total energy              =   -2599.38528792 Ry
     estimated scf accuracy    <    3763.23133094 Ry

     iteration #  2     ecut=    29.40 Ry     beta= 0.05
     Davidson diagonalization with overlap
     ethr =  1.00E-02,  avg # of iterations = 22.9

[...]

     iteration # 56     ecut=    29.40 Ry     beta= 0.05
     Davidson diagonalization with overlap
     c_bands:  1 eigenvalues not converged
     ethr =  9.07E-09,  avg # of iterations = 16.2

[...]

     total energy              =   -2939.12533219 Ry
     estimated scf accuracy    <       0.00000010 Ry

     iteration # 69     ecut=    29.40 Ry     beta= 0.05
     Davidson diagonalization with overlap
     ethr =  1.94E-11,  avg # of iterations =  8.9

     negative rho (up, down):  1.618E-02 0.000E+00

     Adding external electric field

     Computed dipole along edir(3) :
        Dipole                0.9141 Ry au,          2.3235 Debye
        Dipole field          0.0017 Ry au,

        Potential amp.       -0.1599 Ry
        Total length         46.3494 bohr

     End of self-consistent calculation

          k = 0.0000 0.0000 0.0000 ( 18029 PWs)   bands (ev):

   -55.7750 -55.7693 -55.7410 -55.7334 -55.6830 -55.6345 -55.5959 -55.5619
   -55.5547 -55.5210 -55.5192 -55.4461 -54.9558 -54.8067 -54.7551 -54.7211
   -32.3182 -32.2590 -32.1742 -32.0953 -32.0671 -32.0558 -32.0467 -32.0203
   -32.0053 -31.9698 -31.9397 -31.9272 -31.9213 -31.9044 -31.8823 -31.8808
   -31.8782 -31.8777 -31.8647 -31.8346 -31.8320 -31.8211 -31.8000 -31.7913
   -31.7882 -31.7818 -31.7805 -31.7547 -31.7407 -31.7356 -31.7250 -31.7099
   -31.7062 -31.6685 -31.6358 -31.5636 -31.4922 -31.3377 -31.1671 -31.1621
   -31.1048 -31.0740 -31.0659 -31.0516 -30.9791 -30.9127 -30.8926 -30.7812
   -19.4389 -16.5168 -16.2518 -15.9664 -15.9149 -15.8407 -15.7473 -15.6241
   -15.5284 -15.4100 -15.3712 -15.3146 -15.3075 -15.2632 -15.2362 -15.2321
   -15.2060 -15.1975 -15.1335 -15.1260 -15.0757 -15.0640 -15.0160 -14.9811
   -14.9695 -14.9140 -14.8453 -14.8043 -14.6853 -14.1596 -13.2568 -13.1404
   -12.3173  -7.2738  -4.9445  -4.7805  -3.8992  -3.7567  -3.7119  -3.6843
    -3.6404  -3.4401  -3.3574  -3.2836  -3.0436  -2.9522  -2.9278  -2.9170
    -2.8680  -2.7105  -2.6645  -2.6051  -2.5884  -2.5617  -2.5398  -2.5316
    -2.4966  -2.4862  -2.4643  -2.4255  -2.3257  -2.2126  -2.1837  -2.1061
    -2.0896  -2.0744  -2.0441  -2.0344  -2.0244  -2.0148  -1.9963  -1.9588
    -1.8966  -1.8516  -1.7867  -1.7021  -1.5605  -1.5386  -1.4604  -1.3844
    -1.3049  -1.2623  -1.2405  -1.2119  -1.1720  -1.0926  -1.0665  -0.9204
    -0.8235  -0.7903  -0.7733  -0.7309  -0.6948  -0.5926  -0.5710  -0.5417
    -0.5326  -0.5049  -0.4313  -0.3748  -0.2428  -0.2122  -0.2082  -0.1705
    -0.0998  -0.0460   0.0074   0.0566   0.0644   0.1004   0.1605   0.1856
     0.1905   0.2331   0.2754   0.3503   0.3765   0.4505   0.4546   0.5187
     0.5624   0.6441   0.7518   0.8741   1.0174   1.1544   1.1990   1.2680
     1.3633   1.4599   1.8381   1.8837   2.1441   3.3382   3.4453   3.4688
     3.4811   3.5878   3.7962   3.8187   3.8678   3.8883   3.8972

[...]

          k = 0.0380-0.0419 0.0000 ( 17876 PWs)   bands (ev):

[...]

          k =-0.0760-0.0000 0.0000 ( 17886 PWs)   bands (ev):

[...]

          k =-0.0760-0.0839 0.0000 ( 17948 PWs)   bands (ev):

   -55.7581 -55.7578 -55.7520 -55.7505 -55.6758 -55.6417 -55.5789 -55.5785
   -55.5381 -55.5377 -55.5147 -55.4504 -54.9545 -54.8079 -54.7381 -54.7380
   -32.1218 -32.1183 -32.0744 -32.0741 -32.0527 -32.0524 -32.0193 -32.0044
   -31.9981 -31.9893 -31.9206 -31.9154 -31.9045 -31.8982 -31.8815 -31.8794
   -31.8787 -31.8771 -31.8768 -31.8720 -31.8534 -31.8510 -31.8496 -31.8133
   -31.7839 -31.7819 -31.7802 -31.7676 -31.7674 -31.7583 -31.7574 -31.7553
   -31.7541 -31.7360 -31.7115 -31.6605 -31.4393 -31.3199 -31.1690 -31.1587
   -31.0831 -31.0644 -31.0642 -30.9749 -30.9747 -30.9359 -30.9358 -30.9157
   -19.4368 -15.9173 -15.9111 -15.7496 -15.7150 -15.6494 -15.6406 -15.5728
   -15.5058 -15.4608 -15.4558 -15.3408 -15.3388 -15.3241 -15.3026 -15.2483
   -15.2320 -15.2308 -15.2271 -15.2194 -15.2079 -15.1803 -15.1496 -15.0988
   -15.0937 -15.0733 -15.0630 -14.9415 -14.5314 -14.4699 -13.2422 -13.2421
   -12.3198  -7.2609  -4.9459  -4.7780  -3.6401  -3.2066  -3.1902  -3.0022
    -2.9189  -2.9077  -2.8923  -2.7429  -2.7296  -2.7109  -2.6546  -2.6483
    -2.6368  -2.5998  -2.5836  -2.5598  -2.5201  -2.5143  -2.4665  -2.4638
    -2.4483  -2.4344  -2.4078  -2.4026  -2.3889  -2.3744  -2.3365  -2.2804
    -2.2422  -2.2152  -2.1869  -2.0906  -2.0296  -1.9939  -1.9265  -1.9179
    -1.8670  -1.8421  -1.8276  -1.7623  -1.6912  -1.6618  -1.5774  -1.4858
    -1.4673  -1.4520  -1.3333  -1.3193  -1.2446  -1.2208  -1.1370  -1.1199
    -1.0803  -0.9698  -0.9464  -0.9151  -0.8804  -0.8364  -0.7728  -0.7357
    -0.7337  -0.6853  -0.6411  -0.5850  -0.5237  -0.5117  -0.4964  -0.4876
    -0.4242  -0.3906  -0.3686  -0.2862  -0.2710  -0.1892  -0.0455  -0.0127
     0.1449   0.1940   0.3029   0.3305   0.4214   0.4430   0.5371   0.5403
     0.5731   0.7022   0.7210   0.7386   0.7548   0.7746   0.7985   0.9374
     1.6323   1.6324   1.7038   1.7038   2.0818   3.6711   3.7082   3.7584
     3.7802   3.8843   3.8893   3.8919   3.8996   4.0213   4.0220

     the Fermi energy is     3.3517 ev

!    total energy              =   -2939.12538273 Ry
     estimated scf accuracy    <       0.00000004 Ry
     smearing contrib. (-TS)   =      -0.02052707 Ry
     internal energy E=F+TS    =   -2939.10485566 Ry

     The total energy is F=E-TS. E is the sum of the following terms:
     one-electron contribution =  -24213.44110154 Ry
     hartree contribution      =   12195.46403621 Ry
     xc contribution           =    -485.20418967 Ry
     ewald contribution        =    9564.07482232 Ry
     electric field correction =       0.00157702 Ry

     convergence has been achieved in  69 iterations

     Forces acting on atoms (cartesian axes, Ry/au):

     atom    1 type  1   force =     0.00011490   -0.00019729    0.09589664
     atom    2 type  1   force =     0.00006776   -0.00060941   -0.17546710
     atom    3 type  2   force =     0.00017650   -0.00019554   -0.02303351
     atom    4 type  2   force =     0.00004015   -0.00128591    0.05261850
     atom    5 type  2   force =    -0.00978005   -0.00031563    0.00252809
     atom    6 type  2   force =     0.01166670    0.00022527    0.00291114
     atom    7 type  1   force =     0.00088658    0.00002071   -0.00992491
     atom    8 type  1   force =     0.00000099    0.00531611    0.01817246
     atom    9 type  2   force =    -0.00001442   -0.00028789   -0.00010775
     atom   10 type  2   force =    -0.00253920    0.00216240   -0.01350079
     atom   11 type  2   force =    -0.00098411    0.00010317    0.00017360
     atom   12 type  2   force =     0.00040501   -0.00025978    0.00048792
     atom   13 type  1   force =     0.00011470   -0.00008245    0.00051090
     atom   14 type  1   force =    -0.00004711   -0.00017252   -0.00017264
     atom   15 type  2   force =    -0.00059263    0.00023861    0.00044183
     atom   16 type  2   force =    -0.00043263    0.00007798    0.00020269
     atom   17 type  2   force =    -0.00016661   -0.00009398   -0.00031597
     atom   18 type  2   force =     0.00029677    0.00021998    0.00008005
     atom   19 type  1   force =    -0.00061028   -0.00057522    0.00067890
     atom   20 type  1   force =    -0.00028885    0.00036952   -0.00072466
     atom   21 type  2   force =     0.00007274   -0.00006339    0.10319419
     atom   22 type  2   force =     0.00009104   -0.00007415   -0.00043026
     atom   23 type  2   force =    -0.07153302   -0.00019613   -0.02753331
     atom   24 type  2   force =     0.07150768    0.00030184   -0.02758800
     atom   25 type  1   force =     0.00012403   -0.00029181    0.09521524
     atom   26 type  1   force =     0.00009096   -0.00046948   -0.17561336
     atom   27 type  2   force =     0.00015855   -0.00011789   -0.02177206
     atom   28 type  2   force =     0.00008262   -0.00105981    0.05249055
     atom   29 type  2   force =    -0.01015966    0.00023865    0.00290526
     atom   30 type  2   force =     0.01197775    0.00052353    0.00328303
     atom   31 type  1   force =     0.00088872    0.00415859   -0.01180428
     atom   32 type  1   force =     0.00012313   -0.00634739    0.01831766
     atom   33 type  2   force =     0.00016480    0.00041706   -0.00010790
     atom   34 type  2   force =    -0.00308630   -0.00010170   -0.00868713
     atom   35 type  2   force =    -0.00022071    0.00007158    0.00000414
     atom   36 type  2   force =    -0.00002198    0.00028577   -0.00006610
     atom   37 type  1   force =     0.00046708   -0.00094308    0.00018848
     atom   38 type  1   force =    -0.00032576    0.00008299    0.00031499
     atom   39 type  2   force =     0.00011599   -0.00026611    0.00053984
     atom   40 type  2   force =    -0.00008228    0.00026809    0.00016758
     atom   41 type  2   force =     0.00002499   -0.00014389   -0.00017849
     atom   42 type  2   force =    -0.00044312    0.00013730   -0.00039981
     atom   43 type  1   force =     0.00022950    0.00050619    0.00007895
     atom   44 type  1   force =    -0.00017806   -0.00085718   -0.00089565
     atom   45 type  2   force =     0.00007729   -0.00006213    0.10314354
     atom   46 type  2   force =    -0.07154671   -0.00009518   -0.02752720
     atom   47 type  2   force =     0.07152981    0.00026086   -0.02758720
     atom   48 type  3   force =     0.00068756   -0.00042606    0.00035088
     atom   49 type  4   force =     0.00385117    0.00734453   -0.00424788
     atom   50 type  5   force =     0.00076303    0.00080606   -0.00055860
     atom   51 type  5   force =    -0.00468070   -0.00782918    0.00397860
     atom   52 type  5   force =     0.00004126   -0.00115456   -0.00039603
     atom   53 type  3   force =     0.00089444    0.00043790   -0.00023506

     Total force =     0.364962     Total SCF correction =     0.000414
  @ DRIVER MODE: Message from server: STATUS
  @ DRIVER MODE: Message from server: GETFORCE
  @ DRIVER MODE: Returning v,forces,stress,ensemble

     Writing output data file ./calc.save/
  @ DRIVER MODE: Message from server: EXIT
  @ DRIVE MODE: Exiting

     General routines

     Parallel routines

   This run was terminated on:  19:16: 4   2Aug2021

   JOB DONE.