     Program PWSCF v.6.7GPU starts on 19Oct2021 at  0:43:41

     R & G space division:  proc/nbgrp/npool/nimage =       8
     Reading input from /storage/home/hcoda1/3/ntian30/research/carbon/CxH_vib/Thiel_calc/ads_slab/NH2NH2_perslab/out_0030/pw.inp
Warning: card &CELL ignored
Warning: card   CELL_DYNAMICS='IPI', ignored
Warning: card / ignored

     Current dimensions of program PWSCF are:
     Max number of different atomic species (ntypx) = 10
     Max number of k-points (npk) =  40000
     Max angular momentum in pseudopotentials (lmaxx) =  3
     Presently no symmetry can be used with electric field

     Message from routine cell_base_init:
     DEPRECATED: use true lattice parameter, not A to a.u. conversion factor

     IMPORTANT: XC functional enforced from input :
     Exchange-correlation= BEEF-VDW
                           (   1   4  43  14   2   0   0)
     Any further DFT definition will be discarded
     Please, verify this is what you really want

  @ DRIVER MODE: Connecting to
 qe_1139763_3255136.sched-torque.pace.gatech.edu7fhebvzc_scratch
  using UNIX socket
  @ DRIVER MODE: Message from server: STATUS
  @ DRIVER MODE: Message from server: INIT
  @ DRIVER MODE: Receiving replica           0          -1
  @ DRIVER MODE: Receiving encoded integer          25
  @ DRIVER MODE:  SCF:  T  FORCE:  T  STRESS:  F  VC:  F  ENSEMBLE:  F
  @ DRIVER MODE:  SCF:  T  FORCE:  T  STRESS:  F  VC:  F  ENSEMBLE:  F

     Using Slab Decomposition

     bravais-lattice index     =            0
     lattice parameter (alat)  =       1.8897  a.u.
     unit-cell volume          =    9988.4706 (a.u.)^3
     number of atoms/cell      =           59
     number of atomic types    =            4
     number of electrons       =       440.00
     number of Kohn-Sham states=          230
     kinetic-energy cutoff     =      29.3995  Ry
     charge density cutoff     =     293.9946  Ry
     scf convergence threshold =      7.3E-08
     mixing beta               =       0.0500
     number of iterations used =            8  plain     mixing
     Exchange-correlation= BEEF-VDW
                           (   1   4  43  14   2   0   0)

     celldm(1)=   1.889726  celldm(2)=   0.000000  celldm(3)=   0.000000
     celldm(4)=   0.000000  celldm(5)=   0.000000  celldm(6)=   0.000000

     crystal axes: (cart. coord. in units of alat)
               a(1) = (   6.579727   0.000000   0.000000 )
               a(2) = (  -0.001163   8.942395   0.000000 )
               a(3) = (   0.000000   0.000000  25.155947 )

     reciprocal axes: (cart. coord. in units 2 pi/alat)
               b(1) = (  0.151982  0.000020  0.000000 )
               b(2) = (  0.000000  0.111827  0.000000 )
               b(3) = (  0.000000  0.000000  0.039752 )

     PseudoPot. # 1 for O  read from file:
     /storage/coda1/p-amedford6/0/shared/rich_project_chbe-medford/medford-share/data/pseudos_module/espresso/nninc/pbe/van/O.UPF
     MD5 check sum: 78c19812648e8988a0fe644b0f25305e
     Pseudo is Ultrasoft, Zval =  6.0
     Generated by new atomic code, or converted to UPF format
     Using radial grid of  737 points,  4 beta functions with:
                l(1) =   0
                l(2) =   0
                l(3) =   1
                l(4) =   1
     Q(r) pseudized with  8 coefficients,  rinner =    0.800   0.800   0.800

     PseudoPot. # 2 for Ti read from file:
     /storage/coda1/p-amedford6/0/shared/rich_project_chbe-medford/medford-share/data/pseudos_module/espresso/nninc/pbe/van/Ti.UPF
     MD5 check sum: 8e4df49b7f0d34bbd5052bf3f5ea0213
     Pseudo is Ultrasoft, Zval = 12.0
     Generated by new atomic code, or converted to UPF format
     Using radial grid of  851 points,  6 beta functions with:
                l(1) =   0
                l(2) =   0
                l(3) =   1
                l(4) =   1
                l(5) =   2
                l(6) =   2
     Q(r) pseudized with  8 coefficients,  rinner =    1.000   1.000   1.000
                                                       1.000   1.000

     PseudoPot. # 3 for N  read from file:
     /storage/coda1/p-amedford6/0/shared/rich_project_chbe-medford/medford-share/data/pseudos_module/espresso/nninc/pbe/van/N.UPF
     MD5 check sum: 90d10febe142ad51ac9d5be1deb811c4
     Pseudo is Ultrasoft, Zval =  5.0
     Generated by new atomic code, or converted to UPF format
     Using radial grid of  729 points,  4 beta functions with:
                l(1) =   0
                l(2) =   0
                l(3) =   1
                l(4) =   1
     Q(r) pseudized with  8 coefficients,  rinner =    0.800   0.800   0.800

     PseudoPot. # 4 for H  read from file:
     /storage/coda1/p-amedford6/0/shared/rich_project_chbe-medford/medford-share/data/pseudos_module/espresso/nninc/pbe/van/H.UPF
     MD5 check sum: b5ee9d7bfd3a09ee7748110bda690ff7
     Pseudo is Ultrasoft, Zval =  1.0
     Generated by new atomic code, or converted to UPF format
     Using radial grid of  615 points,  1 beta functions with:
                l(1) =   0
     Q(r) pseudized with  8 coefficients,  rinner =    0.800

     atomic species   valence    mass     pseudopotential
        O1             6.00    15.99900     O ( 1.00)
        Ti1           12.00    47.86700     Ti( 1.00)
        N1             5.00    14.00700     N ( 1.00)
        H1             1.00     1.00800     H ( 1.00)

     No symmetry found

   Cartesian axes

     site n.     atom                  positions (alat units)
         1           O1  tau(   1) = (   0.0007354   0.0005023  10.5931620  )
         2           O1  tau(   2) = (   3.2892726   8.9022636  13.7900476  )
         3           O1  tau(   3) = (  -0.0000012   0.0159539  17.0845323  )
         4           O1  tau(   4) = (   0.0006271   0.0005054   7.9858123  )
         5           O1  tau(   5) = (   3.2903981   0.0001071  11.1466942  )
         6           O1  tau(   6) = (   6.5796972   0.0370899  14.4522764  )
         7           O1  tau(   7) = (   1.9868534   1.4903216   9.2879459  )
         8           O1  tau(   8) = (   5.2071659   1.5879261  12.5336177  )
         9           O1  tau(   9) = (   2.0150580   1.5800225  15.9505780  )
        10           Ti1 tau(  10) = (   0.0007404   1.4906270   9.2895810  )
        11           Ti1 tau(  11) = (   3.2907621   1.2831726  12.4565622  )
        12           Ti1 tau(  12) = (   6.5792216   1.1939559  15.8009323  )
        13           O1  tau(  13) = (   4.5942328   1.4918067   9.2879030  )
        14           O1  tau(  14) = (   1.3733293   1.5875306  12.5337771  )
        15           O1  tau(  15) = (   4.5635363   1.5794237  15.9511286  )
        16           Ti1 tau(  16) = (   3.2902859   2.9801868   9.2893338  )
        17           Ti1 tau(  17) = (   0.0006963   2.7899128  12.4910476  )
        18           Ti1 tau(  18) = (   3.2889055   2.8853182  15.6510148  )
        19           O1  tau(  19) = (   0.0003479   2.9813005  10.5931620  )
        20           O1  tau(  20) = (   3.2901137   2.9323735  13.8075185  )
        21           O1  tau(  21) = (   0.0002396   2.9813036   7.9858123  )
        22           O1  tau(  22) = (   3.2901566   2.9796509  11.1657827  )
        23           O1  tau(  23) = (  -0.0001005   3.0518452  14.6148139  )
        24           O1  tau(  24) = (   1.9864658   4.4711199   9.2879459  )
        25           O1  tau(  25) = (   5.2244327   4.5330399  12.5550231  )
        26           O1  tau(  26) = (   2.0317078   4.4891842  16.0144209  )
        27           Ti1 tau(  27) = (   0.0003529   4.4714252   9.2895810  )
        28           Ti1 tau(  28) = (   3.2908221   4.3047718  12.5439168  )
        29           Ti1 tau(  29) = (   0.0007318   4.2809743  15.9563396  )
        30           O1  tau(  30) = (   4.5938453   4.4726049   9.2879030  )
        31           O1  tau(  31) = (   1.3553747   4.5324408  12.5551093  )
        32           O1  tau(  32) = (   4.5484712   4.4888783  16.0159471  )
        33           Ti1 tau(  33) = (   3.2898983   5.9609850   9.2893338  )
        34           Ti1 tau(  34) = (   0.0004637   5.7541984  12.5654138  )
        35           Ti1 tau(  35) = (   3.2913524   5.8154114  16.2798070  )
        36           O1  tau(  36) = (  -0.0000397   5.9620987  10.5931620  )
        37           O1  tau(  37) = (   3.2897947   5.8994426  13.7907643  )
        38           O1  tau(  38) = (   0.0001798   5.9238570  17.1594641  )
        39           O1  tau(  39) = (  -0.0001480   5.9621018   7.9858123  )
        40           O1  tau(  40) = (   3.2896433   5.9245955  11.1661191  )
        41           O1  tau(  41) = (   0.0000838   5.9808129  14.5563373  )
        42           O1  tau(  42) = (   1.9860782   7.4519181   9.2879459  )
        43           O1  tau(  43) = (   5.2244350   7.5051086  12.5363475  )
        44           O1  tau(  44) = (   2.0177701   7.5673364  15.9764862  )
        45           Ti1 tau(  45) = (  -0.0000347   7.4522234   9.2895810  )
        46           Ti1 tau(  46) = (   3.2896674   7.1828241  12.5854878  )
        47           Ti1 tau(  47) = (   0.0003403   7.2137487  16.0183084  )
        48           O1  tau(  48) = (   4.5934577   7.4534031   9.2879030  )
        49           O1  tau(  49) = (   1.3543201   7.5047529  12.5365769  )
        50           O1  tau(  50) = (   4.5609347   7.5656990  15.9757490  )
        51           Ti1 tau(  51) = (   3.2895107   8.9417832   9.2893338  )
        52           Ti1 tau(  52) = (  -0.0005834   8.7067995  12.4790564  )
        53           Ti1 tau(  53) = (   3.2900135   8.8028796  15.6464995  )
        54           N1  tau(  54) = (   3.2900669   5.9334594  18.1702238  )
        55           H1  tau(  55) = (   3.2900466   5.1481598  18.8081281  )
        56           H1  tau(  56) = (   3.2872703   6.8047138  18.6863891  )
        57           N1  tau(  57) = (   0.0002662   3.1405291  17.5522950  )
        58           H1  tau(  58) = (   0.0007553   2.2326612  18.0199153  )
        59           H1  tau(  59) = (   6.5771877   3.8386968  18.2941669  )

     number of k points=    10  Fermi-Dirac smearing, width (Ry)=  0.0073
                       cart. coord. in units 2pi/alat
        k(    1) = (   0.0000000   0.0000000   0.0000000), wk =   0.1250000
        k(    2) = (   0.0000000   0.0279567   0.0000000), wk =   0.2500000
        k(    3) = (   0.0000000  -0.0559134   0.0000000), wk =   0.1250000
        k(    4) = (   0.0379955   0.0000049   0.0000000), wk =   0.2500000
        k(    5) = (   0.0379955   0.0279617   0.0000000), wk =   0.2500000
        k(    6) = (   0.0379955  -0.0559085   0.0000000), wk =   0.2500000
        k(    7) = (   0.0379955  -0.0279518   0.0000000), wk =   0.2500000
        k(    8) = (  -0.0759910  -0.0000099   0.0000000), wk =   0.1250000
        k(    9) = (  -0.0759910   0.0279468   0.0000000), wk =   0.2500000
        k(   10) = (  -0.0759910  -0.0559233   0.0000000), wk =   0.1250000

     Initial potential from superposition of free atoms

     starting charge  421.99910, renormalised to  440.00000

     negative rho (up, down):  3.741E-02 0.000E+00

     %%%%%%%%%%%%%%%%%%%%%%%%%%%%%%%%%%%%%%%%%%%%%%%%%%%%%%%%%%%%%%%%%%%%%%%%
     %                                                                      %
     % You are using vdW-DF, which was implemented by the Thonhauser group. %
     % Please cite the following two papers that made this development      %
     % possible and the two reviews that describe the various versions:     %
     %                                                                      %
     %   T. Thonhauser et al., PRL 115, 136402 (2015).                      %
     %   T. Thonhauser et al., PRB 76, 125112 (2007).                       %
     %   K. Berland et al., Rep. Prog. Phys. 78, 066501 (2015).             %
     %   D.C. Langreth et al., J. Phys.: Condens. Matter 21, 084203 (2009). %
     %                                                                      %
     %                                                                      %
     % If you are calculating the stress with vdW-DF, please also cite:     %
     %                                                                      %
     %   R. Sabatini et al., J. Phys.: Condens. Matter 24, 424209 (2012).   %
     %                                                                      %
     %%%%%%%%%%%%%%%%%%%%%%%%%%%%%%%%%%%%%%%%%%%%%%%%%%%%%%%%%%%%%%%%%%%%%%%%

     Adding external electric field

     Computed dipole along edir(3) :
        Dipole               -3.9775 Ry au,        -10.1099 Debye
        Dipole field         -0.0050 Ry au,

        Potential amp.        0.4639 Ry
        Total length         46.3494 bohr

     Starting wfcs are  332 atomic wfcs
  @ DRIVER MODE: Message from server: STATUS
  @ DRIVER MODE: Message from server: POSDATA
  @ DRIVER MODE: Reading and sharing cell
  @ DRIVER MODE: Reading and sharing positions
  @ DRIVER MODE: Received positions

     Self-consistent Calculation

     iteration #  1     ecut=    29.40 Ry     beta= 0.05
     Davidson diagonalization with overlap
     c_bands:  1 eigenvalues not converged
     c_bands:  2 eigenvalues not converged
     c_bands:  3 eigenvalues not converged
     c_bands:  4 eigenvalues not converged
     c_bands:  1 eigenvalues not converged
     c_bands:  4 eigenvalues not converged
     c_bands:  4 eigenvalues not converged
     c_bands:  3 eigenvalues not converged
     c_bands:  3 eigenvalues not converged
     ethr =  1.00E-05,  avg # of iterations = 19.2

[...]

     total energy              =   -3293.77726187 Ry
     estimated scf accuracy    <      28.37789255 Ry

     iteration #  2     ecut=    29.40 Ry     beta= 0.05
     Davidson diagonalization with overlap
     ethr =  6.45E-03,  avg # of iterations =  1.0

[...]

     iteration # 24     ecut=    29.40 Ry     beta= 0.05
     Davidson diagonalization with overlap
     c_bands:  1 eigenvalues not converged
     ethr =  1.06E-06,  avg # of iterations =  7.4

[...]

     total energy              =   -3293.29547036 Ry
     estimated scf accuracy    <       0.00000025 Ry

     iteration # 47     ecut=    29.40 Ry     beta= 0.05
     Davidson diagonalization with overlap
     ethr =  5.69E-11,  avg # of iterations =  4.9

     negative rho (up, down):  3.609E-02 0.000E+00

     Adding external electric field

     Computed dipole along edir(3) :
        Dipole                0.9520 Ry au,          2.4197 Debye
        Dipole field          0.0012 Ry au,

        Potential amp.       -0.1110 Ry
        Total length         46.3494 bohr

     End of self-consistent calculation

          k = 0.0000 0.0000 0.0000 ( 26871 PWs)   bands (ev):

   -58.4685 -58.4450 -58.4391 -58.4012 -58.3563 -58.0035 -57.9646 -57.9617
   -57.8775 -57.7580 -57.6847 -57.5713 -57.4759 -57.2212 -57.1414 -57.0714
   -57.0313 -57.0184 -34.8690 -34.8337 -34.8065 -34.7901 -34.7867 -34.7803
   -34.7315 -34.6710 -34.6440 -34.5932 -34.5806 -34.5781 -34.5723 -34.5504
   -34.5053 -34.4052 -34.3694 -34.3441 -34.3209 -34.3165 -34.2721 -34.2391
   -34.2267 -34.2228 -34.1879 -34.1849 -34.1524 -34.0552 -34.0441 -33.9855
   -33.9817 -33.9528 -33.8972 -33.8817 -33.8638 -33.8035 -33.7396 -33.7241
   -33.6859 -33.6723 -33.5797 -33.4601 -33.4457 -33.4158 -33.4141 -33.3792
   -33.3733 -33.3690 -33.3537 -33.3436 -33.2753 -33.2108 -33.1897 -33.0697
   -19.0205 -18.5574 -18.4987 -18.3491 -18.3001 -18.2798 -18.2736 -18.1229
   -17.9062 -17.8609 -17.8465 -17.8253 -17.7425 -17.7224 -17.7065 -17.6845
   -17.6695 -17.6487 -17.5599 -17.5543 -17.5335 -17.5089 -17.4891 -17.4343
   -17.3748 -17.3532 -17.2653 -17.1903 -17.1502 -16.9276 -16.6700 -16.5898
   -15.5371 -15.4960 -15.4875 -15.2600 -15.1455  -6.7160  -6.5906  -6.3553
    -6.1611  -5.9489  -5.8128  -5.6951  -5.6418  -5.5606  -5.4946  -5.4569
    -5.4549  -5.3942  -5.3474  -5.2534  -5.2472  -5.1552  -5.1056  -5.0893
    -5.0600  -5.0121  -4.9651  -4.9194  -4.9041  -4.8430  -4.7992  -4.7891
    -4.7398  -4.6777  -4.6741  -4.6543  -4.6514  -4.6173  -4.5860  -4.4622
    -4.4589  -4.4141  -4.3506  -4.2992  -4.2622  -4.2214  -4.1885  -4.1877
    -4.1711  -4.1278  -4.0920  -3.9222  -3.8685  -3.8286  -3.7963  -3.7194
    -3.6508  -3.5933  -3.5581  -3.5159  -3.4265  -3.3575  -3.3501  -3.3412
    -3.2748  -3.2316  -3.1939  -3.1633  -3.1441  -3.0811  -3.0284  -3.0282
    -2.9866  -2.9702  -2.9560  -2.9102  -2.8557  -2.8321  -2.8293  -2.7904
    -2.7838  -2.7413  -2.6441  -2.6145  -2.5540  -2.5156  -2.4610  -2.4131
    -2.4065  -2.3720  -2.3348  -2.2665  -2.1743  -2.1242  -1.9932  -1.9884
    -1.9109  -1.9007  -1.8342  -1.8070  -1.7893  -1.7421  -1.7151  -1.6010
    -1.5253  -1.4061  -1.1928  -0.9889  -0.8430  -0.7638  -0.7492  -0.7053
    -0.5662  -0.5471  -0.4615  -0.4504   0.8075   0.9430   1.1028   1.1207
     1.3207   1.4498   1.4676   1.5100   1.5671   1.6969

[...]

          k = 0.0380-0.0280 0.0000 ( 26873 PWs)   bands (ev):

[...]

          k =-0.0760-0.0000 0.0000 ( 26902 PWs)   bands (ev):

[...]

          k =-0.0760-0.0559 0.0000 ( 26868 PWs)   bands (ev):

   -58.4627 -58.4565 -58.4333 -58.4010 -58.3564 -58.0033 -57.9647 -57.9616
   -57.8774 -57.7583 -57.6845 -57.5712 -57.4759 -57.2213 -57.1413 -57.0702
   -57.0353 -57.0157 -34.8971 -34.8815 -34.8373 -34.8089 -34.7775 -34.6868
   -34.6703 -34.6221 -34.6156 -34.6034 -34.6010 -34.5897 -34.5752 -34.5538
   -34.5524 -34.4334 -34.3773 -34.3577 -34.3430 -34.3227 -34.2547 -34.2209
   -34.2173 -34.1870 -34.1789 -34.1626 -34.1163 -34.0632 -34.0553 -34.0290
   -33.9892 -33.9732 -33.9026 -33.8963 -33.8750 -33.7883 -33.7394 -33.7040
   -33.6832 -33.6573 -33.5680 -33.4799 -33.4507 -33.4485 -33.4174 -33.4151
   -33.3844 -33.3658 -33.3641 -33.2671 -33.2324 -33.1815 -33.1795 -33.1507
   -18.8073 -18.6588 -18.4133 -18.3147 -18.1515 -18.1043 -18.0513 -18.0410
   -18.0351 -17.9393 -17.9220 -17.8778 -17.8708 -17.8212 -17.7964 -17.7848
   -17.7779 -17.7461 -17.6788 -17.6227 -17.5373 -17.4451 -17.4326 -17.4168
   -17.4102 -17.3309 -17.2323 -17.1873 -17.1501 -16.9504 -16.6796 -16.5519
   -15.5489 -15.5358 -15.4262 -15.2551 -15.1464  -6.7090  -6.6044  -6.1192
    -5.9241  -5.8925  -5.8515  -5.5340  -5.4911  -5.3866  -5.3575  -5.3538
    -5.3267  -5.2826  -5.2441  -5.1889  -5.1537  -5.1359  -5.1273  -5.1094
    -5.0826  -5.0349  -5.0100  -4.9674  -4.9621  -4.9471  -4.9175  -4.8940
    -4.8449  -4.8358  -4.7642  -4.7547  -4.7208  -4.5280  -4.4722  -4.4101
    -4.3609  -4.2946  -4.2533  -4.1879  -4.1874  -4.1062  -4.1010  -4.0367
    -3.9766  -3.8899  -3.8096  -3.8017  -3.7790  -3.7510  -3.7181  -3.6855
    -3.6624  -3.6420  -3.6025  -3.5546  -3.5168  -3.4434  -3.4106  -3.4044
    -3.3638  -3.3444  -3.3333  -3.3291  -3.3126  -3.2092  -3.2017  -3.1416
    -3.1078  -3.1024  -3.0317  -3.0258  -2.9748  -2.9489  -2.8796  -2.8433
    -2.8326  -2.7440  -2.7368  -2.7331  -2.6514  -2.6422  -2.5416  -2.5081
    -2.4238  -2.2989  -2.1788  -2.1770  -2.1673  -2.0463  -2.0442  -2.0324
    -1.9884  -1.9258  -1.9008  -1.7183  -1.7155  -1.6695  -1.5991  -1.5779
    -1.5538  -1.5390  -1.4229  -1.4011  -0.9964  -0.7144  -0.6812  -0.6762
    -0.6430  -0.6138  -0.5805  -0.5716   0.8591   1.0198   1.0975   1.1631
     1.1887   1.2324   1.2642   1.4389   1.5015   1.5079

     the Fermi energy is     0.2199 ev

!    total energy              =   -3293.29561497 Ry
     estimated scf accuracy    <       0.00000007 Ry
     smearing contrib. (-TS)   =      -0.00052599 Ry
     internal energy E=F+TS    =   -3293.29508899 Ry

     The total energy is F=E-TS. E is the sum of the following terms:
     one-electron contribution =  -34585.72523673 Ry
     hartree contribution      =   17354.70976284 Ry
     xc contribution           =    -542.07294963 Ry
     ewald contribution        =   14479.79219437 Ry
     electric field correction =       0.00114017 Ry

     convergence has been achieved in  47 iterations

     Forces acting on atoms (cartesian axes, Ry/au):

     atom    1 type  1   force =    -0.00000690    0.00890959    0.04219427
     atom    2 type  1   force =     0.00002309   -0.00248182   -0.00298344
     atom    3 type  1   force =    -0.00003187   -0.00643261   -0.00119370
     atom    4 type  1   force =     0.00004702    0.00394997    0.10168974
     atom    5 type  1   force =     0.00002081   -0.00058337    0.00718043
     atom    6 type  1   force =    -0.00002318    0.00083315    0.00277143
     atom    7 type  1   force =     0.07638418    0.00119568   -0.03509767
     atom    8 type  1   force =     0.00754776   -0.02410772    0.00122745
     atom    9 type  1   force =     0.00796283   -0.02072230    0.00174077
     atom   10 type  2   force =    -0.00003338   -0.00385111   -0.16974228
     atom   11 type  2   force =    -0.00011652    0.02224036   -0.00322784
     atom   12 type  2   force =    -0.00000172    0.02043758   -0.00512603
     atom   13 type  1   force =    -0.07647738    0.00074284   -0.03504697
     atom   14 type  1   force =    -0.00762840   -0.02398258    0.00122282
     atom   15 type  1   force =    -0.00790931   -0.02080766    0.00174690
     atom   16 type  2   force =     0.00010309    0.00207924    0.07524869
     atom   17 type  2   force =     0.00020846    0.02911347    0.00187059
     atom   18 type  2   force =    -0.00009579    0.02406872    0.00017499
     atom   19 type  1   force =     0.00000463    0.00222045    0.05609949
     atom   20 type  1   force =     0.00000402   -0.00073409   -0.00272607
     atom   21 type  1   force =     0.00004816   -0.00273800    0.10232115
     atom   22 type  1   force =     0.00000911   -0.00165519    0.00634349
     atom   23 type  1   force =    -0.00001750   -0.00386398    0.00177592
     atom   24 type  1   force =     0.07838101   -0.00056111   -0.03677173
     atom   25 type  1   force =     0.00980263   -0.02947341   -0.00096808
     atom   26 type  1   force =     0.01103898   -0.02682706   -0.00658176
     atom   27 type  2   force =    -0.00005862    0.01458258   -0.15614460
     atom   28 type  2   force =    -0.00013474    0.02622864   -0.00047440
     atom   29 type  2   force =     0.00003783    0.02326348    0.00314073
     atom   30 type  1   force =    -0.07847655   -0.00098894   -0.03671990
     atom   31 type  1   force =    -0.00986586   -0.02932973   -0.00096943
     atom   32 type  1   force =    -0.01091057   -0.02689200   -0.00663196
     atom   33 type  2   force =     0.00009866   -0.00384052    0.07806221
     atom   34 type  2   force =     0.00019462    0.03433945    0.00324923
     atom   35 type  2   force =    -0.00012217    0.03154808    0.00671792
     atom   36 type  1   force =     0.00002014    0.00147638    0.05146272
     atom   37 type  1   force =     0.00002336   -0.00166254   -0.00241552
     atom   38 type  1   force =    -0.00002189   -0.00344296   -0.00004410
     atom   39 type  1   force =     0.00004896    0.00036941    0.09995052
     atom   40 type  1   force =     0.00001645   -0.00069686    0.00653838
     atom   41 type  1   force =    -0.00002505   -0.00105181    0.00429210
     atom   42 type  1   force =     0.07945909    0.00171866   -0.03466500
     atom   43 type  1   force =     0.00608253   -0.02325888    0.00044060
     atom   44 type  1   force =     0.00715098   -0.02149836    0.00388673
     atom   45 type  2   force =    -0.00005313   -0.01584024   -0.15542629
     atom   46 type  2   force =    -0.00010830    0.01693033    0.00085167
     atom   47 type  2   force =     0.00002259    0.02057588   -0.00084381
     atom   48 type  1   force =    -0.07955097    0.00127946   -0.03461059
     atom   49 type  1   force =    -0.00619652   -0.02314481    0.00043103
     atom   50 type  1   force =    -0.00701435   -0.02152702    0.00388365
     atom   51 type  2   force =     0.00008184   -0.00447270    0.06173582
     atom   52 type  2   force =     0.00020223    0.02906491    0.00063790
     atom   53 type  2   force =    -0.00014169    0.02942900    0.00014777
     atom   54 type  3   force =     0.00001340    0.00162052   -0.00119493
     atom   55 type  4   force =     0.00002896   -0.00045087    0.00023622
     atom   56 type  4   force =    -0.00005422   -0.00008894   -0.00009354
     atom   57 type  3   force =    -0.00000128   -0.00776340    0.00578182
     atom   58 type  4   force =     0.00005841    0.00728681   -0.00526876
     atom   59 type  4   force =    -0.00004799   -0.00073202   -0.00008673

     Total force =     0.439331     Total SCF correction =     0.000646
  @ DRIVER MODE: Message from server: STATUS
  @ DRIVER MODE: Message from server: GETFORCE
  @ DRIVER MODE: Returning v,forces,stress,ensemble

     Writing output data file ./calc.save/
  @ DRIVER MODE: Message from server: EXIT
  @ DRIVE MODE: Exiting

     General routines

     Parallel routines

   This run was terminated on:   1: 6:40  19Oct2021

   JOB DONE.