     Program PWSCF v.6.7GPU starts on 28Sep2021 at 16:21:25

     R & G space division:  proc/nbgrp/npool/nimage =       8
     Reading input from /storage/home/hcoda1/3/ntian30/research/carbon/CxH_vib/H2O_calc/ads_slab/CHHO_a/out_0008/pw.inp
Warning: card &CELL ignored
Warning: card   CELL_DYNAMICS='IPI', ignored
Warning: card / ignored

     Current dimensions of program PWSCF are:
     Max number of different atomic species (ntypx) = 10
     Max number of k-points (npk) =  40000
     Max angular momentum in pseudopotentials (lmaxx) =  3
     Presently no symmetry can be used with electric field

     Message from routine cell_base_init:
     DEPRECATED: use true lattice parameter, not A to a.u. conversion factor

     IMPORTANT: XC functional enforced from input :
     Exchange-correlation= BEEF-VDW
                           (   1   4  43  14   2   0   0)
     Any further DFT definition will be discarded
     Please, verify this is what you really want

  @ DRIVER MODE: Connecting to
 qe_1139763_3011330.sched-torque.pace.gatech.eduhu8w8loy_scratch
  using UNIX socket
  @ DRIVER MODE: Message from server: STATUS
  @ DRIVER MODE: Message from server: INIT
  @ DRIVER MODE: Receiving replica           0          -1
  @ DRIVER MODE: Receiving encoded integer          25
  @ DRIVER MODE:  SCF:  T  FORCE:  T  STRESS:  F  VC:  F  ENSEMBLE:  F
  @ DRIVER MODE:  SCF:  T  FORCE:  T  STRESS:  F  VC:  F  ENSEMBLE:  F

     Using Slab Decomposition

     bravais-lattice index     =            0
     lattice parameter (alat)  =       1.8897  a.u.
     unit-cell volume          =    6658.9804 (a.u.)^3
     number of atoms/cell      =           51
     number of atomic types    =            4
     number of electrons       =       390.00
     number of Kohn-Sham states=          205
     kinetic-energy cutoff     =      29.3995  Ry
     charge density cutoff     =     293.9946  Ry
     scf convergence threshold =      7.3E-08
     mixing beta               =       0.0500
     number of iterations used =            8  plain     mixing
     Exchange-correlation= BEEF-VDW
                           (   1   4  43  14   2   0   0)

     celldm(1)=   1.889726  celldm(2)=   0.000000  celldm(3)=   0.000000
     celldm(4)=   0.000000  celldm(5)=   0.000000  celldm(6)=   0.000000

     crystal axes: (cart. coord. in units of alat)
               a(1) = (   6.579727   0.000000   0.000000 )
               a(2) = (  -0.000775   5.961596   0.000000 )
               a(3) = (   0.000000   0.000000  25.155947 )

     reciprocal axes: (cart. coord. in units 2 pi/alat)
               b(1) = (  0.151982  0.000020  0.000000 )
               b(2) = (  0.000000  0.167740  0.000000 )
               b(3) = (  0.000000  0.000000  0.039752 )

     PseudoPot. # 1 for Ti read from file:
     /storage/coda1/p-amedford6/0/shared/rich_project_chbe-medford/medford-share/data/pseudos_module/espresso/nninc/pbe/van/Ti.UPF
     MD5 check sum: 8e4df49b7f0d34bbd5052bf3f5ea0213
     Pseudo is Ultrasoft, Zval = 12.0
     Generated by new atomic code, or converted to UPF format
     Using radial grid of  851 points,  6 beta functions with:
                l(1) =   0
                l(2) =   0
                l(3) =   1
                l(4) =   1
                l(5) =   2
                l(6) =   2
     Q(r) pseudized with  8 coefficients,  rinner =    1.000   1.000   1.000
                                                       1.000   1.000

     PseudoPot. # 2 for O  read from file:
     /storage/coda1/p-amedford6/0/shared/rich_project_chbe-medford/medford-share/data/pseudos_module/espresso/nninc/pbe/van/O.UPF
     MD5 check sum: 78c19812648e8988a0fe644b0f25305e
     Pseudo is Ultrasoft, Zval =  6.0
     Generated by new atomic code, or converted to UPF format
     Using radial grid of  737 points,  4 beta functions with:
                l(1) =   0
                l(2) =   0
                l(3) =   1
                l(4) =   1
     Q(r) pseudized with  8 coefficients,  rinner =    0.800   0.800   0.800

     PseudoPot. # 3 for C  read from file:
     /storage/coda1/p-amedford6/0/shared/rich_project_chbe-medford/medford-share/data/pseudos_module/espresso/nninc/pbe/van/C.UPF
     MD5 check sum: 1a69bf6b8db32088f5b2163dbdb77a27
     Pseudo is Ultrasoft, Zval =  4.0
     Generated by new atomic code, or converted to UPF format
     Using radial grid of  721 points,  4 beta functions with:
                l(1) =   0
                l(2) =   0
                l(3) =   1
                l(4) =   1
     Q(r) pseudized with  8 coefficients,  rinner =    0.800   0.800   0.800

     PseudoPot. # 4 for H  read from file:
     /storage/coda1/p-amedford6/0/shared/rich_project_chbe-medford/medford-share/data/pseudos_module/espresso/nninc/pbe/van/H.UPF
     MD5 check sum: b5ee9d7bfd3a09ee7748110bda690ff7
     Pseudo is Ultrasoft, Zval =  1.0
     Generated by new atomic code, or converted to UPF format
     Using radial grid of  615 points,  1 beta functions with:
                l(1) =   0
     Q(r) pseudized with  8 coefficients,  rinner =    0.800

     atomic species   valence    mass     pseudopotential
        Ti1           12.00    47.86700     Ti( 1.00)
        O1             6.00    15.99900     O ( 1.00)
        C1             4.00    12.01100     C ( 1.00)
        H1             1.00     1.00800     H ( 1.00)

     No symmetry found

   Cartesian axes

     site n.     atom                  positions (alat units)
         1           Ti1 tau(   1) = (   0.0004258   2.9801865   6.0000000  )
         2           Ti1 tau(   2) = (   3.2906075   1.4906267   6.0002472  )
         3           O1  tau(   3) = (   0.0006271   0.0005054   7.9858123  )
         4           O1  tau(   4) = (   3.2906025   0.0005020   7.3038282  )
         5           O1  tau(   5) = (   4.5942328   1.4918067   9.2879030  )
         6           O1  tau(   6) = (   1.9868534   1.4903216   9.2879459  )
         7           Ti1 tau(   7) = (   3.2576716   2.8711746   9.2039182  )
         8           Ti1 tau(   8) = (   6.5366639   1.4374725   9.3495247  )
         9           O1  tau(   9) = (   3.2654967   5.9220709  11.3209648  )
        10           O1  tau(  10) = (   0.0059489   5.9503157  10.5690854  )
        11           O1  tau(  11) = (   1.2710110   1.4830968  12.6026389  )
        12           O1  tau(  12) = (   5.2956248   1.4563849  12.6219738  )
        13           Ti1 tau(  13) = (   6.4707115   3.0232854  12.7046045  )
        14           Ti1 tau(  14) = (   3.3012427   1.2792539  12.6712786  )
        15           O1  tau(  15) = (   0.1208522   5.9439793  14.6184240  )
        16           O1  tau(  16) = (   3.2955454   0.0555021  13.9474554  )
        17           O1  tau(  17) = (   4.3710900   1.5417649  16.0729971  )
        18           O1  tau(  18) = (   1.7386421   2.0841158  16.4311239  )
        19           Ti1 tau(  19) = (   3.2301957   3.0269898  15.6570758  )
        20           Ti1 tau(  20) = (   6.3022331   1.4673853  15.8568112  )
        21           O1  tau(  21) = (   3.2904802   0.0005063   4.7018136  )
        22           O1  tau(  22) = (   6.3638003   5.9514110  17.1305022  )
        23           O1  tau(  23) = (   1.3043587   1.4918075   6.0039043  )
        24           O1  tau(  24) = (   5.2767064   1.4903225   6.0039473  )
        25           Ti1 tau(  25) = (   0.0000382   5.9609847   6.0000000  )
        26           Ti1 tau(  26) = (   3.2902200   4.4714249   6.0002472  )
        27           O1  tau(  27) = (   0.0002396   2.9813036   7.9858123  )
        28           O1  tau(  28) = (   3.2902150   2.9813002   7.3038282  )
        29           O1  tau(  29) = (   4.5938453   4.4726049   9.2879030  )
        30           O1  tau(  30) = (   1.9864658   4.4711199   9.2879459  )
        31           Ti1 tau(  31) = (   3.2576593   5.8570409   9.1743550  )
        32           Ti1 tau(  32) = (   6.5358986   4.4093296   9.3482377  )
        33           O1  tau(  33) = (   3.2940825   2.9875588  11.2901943  )
        34           O1  tau(  34) = (   6.5570357   2.9690702  10.5578446  )
        35           O1  tau(  35) = (   1.2556184   4.4285683  12.6007990  )
        36           O1  tau(  36) = (   5.2653856   4.4527926  12.6146307  )
        37           Ti1 tau(  37) = (   0.0986422   0.0400065  12.6561080  )
        38           Ti1 tau(  38) = (   3.2648468   4.3768915  12.4074939  )
        39           O1  tau(  39) = (   6.4357771   2.9845043  14.6319670  )
        40           O1  tau(  40) = (   3.2191030   2.9668167  13.8952198  )
        41           O1  tau(  41) = (   4.5664177   4.3244647  16.1555655  )
        42           O1  tau(  42) = (   2.0966903   4.6357478  16.0503417  )
        43           Ti1 tau(  43) = (   3.4732119   5.7943257  16.4097380  )
        44           Ti1 tau(  44) = (   0.0705528   4.5403211  16.0661977  )
        45           O1  tau(  45) = (   3.2900926   2.9813045   4.7018136  )
        46           O1  tau(  46) = (   1.3039711   4.4726057   6.0039043  )
        47           O1  tau(  47) = (   5.2763189   4.4711207   6.0039473  )
        48           C1  tau(  48) = (   0.6899253   2.7405959  17.1512775  )
        49           H1  tau(  49) = (   0.8131679   2.6269330  18.2321311  )
        50           O1  tau(  50) = (   3.3389373   5.9192928  18.2161996  )
        51           H1  tau(  51) = (   4.0498012   0.2866715  18.7870949  )

     number of k points=    10  Fermi-Dirac smearing, width (Ry)=  0.0073
                       cart. coord. in units 2pi/alat
        k(    1) = (   0.0000000   0.0000000   0.0000000), wk =   0.1250000
        k(    2) = (   0.0000000   0.0419351   0.0000000), wk =   0.2500000
        k(    3) = (   0.0000000  -0.0838702   0.0000000), wk =   0.1250000
        k(    4) = (   0.0379955   0.0000049   0.0000000), wk =   0.2500000
        k(    5) = (   0.0379955   0.0419400   0.0000000), wk =   0.2500000
        k(    6) = (   0.0379955  -0.0838652   0.0000000), wk =   0.2500000
        k(    7) = (   0.0379955  -0.0419301   0.0000000), wk =   0.2500000
        k(    8) = (  -0.0759910  -0.0000099   0.0000000), wk =   0.1250000
        k(    9) = (  -0.0759910   0.0419252   0.0000000), wk =   0.2500000
        k(   10) = (  -0.0759910  -0.0838800   0.0000000), wk =   0.1250000

     Initial potential from superposition of free atoms

     starting charge  373.99919, renormalised to  390.00000

     negative rho (up, down):  1.956E-02 0.000E+00

     %%%%%%%%%%%%%%%%%%%%%%%%%%%%%%%%%%%%%%%%%%%%%%%%%%%%%%%%%%%%%%%%%%%%%%%%
     %                                                                      %
     % You are using vdW-DF, which was implemented by the Thonhauser group. %
     % Please cite the following two papers that made this development      %
     % possible and the two reviews that describe the various versions:     %
     %                                                                      %
     %   T. Thonhauser et al., PRL 115, 136402 (2015).                      %
     %   T. Thonhauser et al., PRB 76, 125112 (2007).                       %
     %   K. Berland et al., Rep. Prog. Phys. 78, 066501 (2015).             %
     %   D.C. Langreth et al., J. Phys.: Condens. Matter 21, 084203 (2009). %
     %                                                                      %
     %                                                                      %
     % If you are calculating the stress with vdW-DF, please also cite:     %
     %                                                                      %
     %   R. Sabatini et al., J. Phys.: Condens. Matter 24, 424209 (2012).   %
     %                                                                      %
     %%%%%%%%%%%%%%%%%%%%%%%%%%%%%%%%%%%%%%%%%%%%%%%%%%%%%%%%%%%%%%%%%%%%%%%%

     Adding external electric field

     Computed dipole along edir(3) :
        Dipole               -3.9292 Ry au,         -9.9870 Debye
        Dipole field         -0.0074 Ry au,

        Potential amp.        0.6874 Ry
        Total length         46.3494 bohr

     Starting wfcs are  294 atomic wfcs
  @ DRIVER MODE: Message from server: STATUS
  @ DRIVER MODE: Message from server: POSDATA
  @ DRIVER MODE: Reading and sharing cell
  @ DRIVER MODE: Reading and sharing positions
  @ DRIVER MODE: Received positions

     Self-consistent Calculation

     iteration #  1     ecut=    29.40 Ry     beta= 0.05
     Davidson diagonalization with overlap
     c_bands:  5 eigenvalues not converged
     c_bands:  2 eigenvalues not converged
     c_bands:  4 eigenvalues not converged
     c_bands:  4 eigenvalues not converged
     c_bands:  1 eigenvalues not converged
     c_bands:  4 eigenvalues not converged
     c_bands:  1 eigenvalues not converged
     c_bands:  1 eigenvalues not converged
     c_bands:  3 eigenvalues not converged
     ethr =  1.00E-05,  avg # of iterations = 20.8

[...]

     total energy              =   -2904.76955945 Ry
     estimated scf accuracy    <     307.97077472 Ry

     iteration #  2     ecut=    29.40 Ry     beta= 0.05
     Davidson diagonalization with overlap
     ethr =  1.00E-02,  avg # of iterations = 12.1

[...]

     iteration # 54     ecut=    29.40 Ry     beta= 0.05
     Davidson diagonalization with overlap
     c_bands:  1 eigenvalues not converged
     ethr =  3.11E-07,  avg # of iterations =  2.9

[...]

     total energy              =   -2930.00843042 Ry
     estimated scf accuracy    <       0.00000008 Ry

     iteration # 77     ecut=    29.40 Ry     beta= 0.05
     Davidson diagonalization with overlap
     ethr =  2.12E-11,  avg # of iterations =  5.1

     negative rho (up, down):  1.952E-02 0.000E+00

     Adding external electric field

     Computed dipole along edir(3) :
        Dipole                0.5441 Ry au,          1.3830 Debye
        Dipole field          0.0010 Ry au,

        Potential amp.       -0.0952 Ry
        Total length         46.3494 bohr

     End of self-consistent calculation

          k = 0.0000 0.0000 0.0000 ( 18029 PWs)   bands (ev):

   -56.4315 -56.3964 -56.1691 -55.9778 -55.8987 -55.8738 -55.8608 -55.8307
   -55.7732 -55.7304 -55.7289 -55.5628 -55.4847 -55.4395 -55.1233 -55.0894
   -32.8565 -32.6962 -32.6658 -32.6402 -32.6119 -32.5402 -32.5206 -32.4831
   -32.3962 -32.3836 -32.3833 -32.3782 -32.2649 -32.2451 -32.2259 -32.2018
   -32.1704 -32.1392 -32.1150 -32.0825 -32.0740 -32.0642 -32.0341 -32.0336
   -32.0253 -32.0050 -31.9916 -31.9856 -31.9848 -31.9674 -31.9329 -31.9292
   -31.9196 -31.8876 -31.8320 -31.8204 -31.8021 -31.7972 -31.7727 -31.7169
   -31.6154 -31.5204 -31.4997 -31.4583 -31.4342 -31.3378 -31.2526 -31.1412
   -18.1616 -17.1014 -16.7819 -16.6483 -16.5117 -16.3181 -16.2632 -16.1365
   -15.9528 -15.8535 -15.7854 -15.7464 -15.6669 -15.6641 -15.5835 -15.5323
   -15.5156 -15.4833 -15.4618 -15.4316 -15.3833 -15.3788 -15.3204 -15.2835
   -15.2392 -15.1857 -15.1334 -15.0503 -15.0081 -14.8175 -13.6226 -13.5117
    -8.0219  -4.8193  -4.5503  -4.1564  -4.0493  -4.0151  -3.8927  -3.7559
    -3.7026  -3.6364  -3.4236  -3.4036  -3.3036  -3.2414  -3.2229  -3.1380
    -3.0877  -3.0306  -3.0252  -2.9604  -2.9163  -2.8819  -2.8354  -2.7848
    -2.6969  -2.6899  -2.6655  -2.6019  -2.5851  -2.4856  -2.4773  -2.3784
    -2.3613  -2.3540  -2.3331  -2.3025  -2.2736  -2.1745  -2.1597  -2.1182
    -2.0206  -2.0014  -1.8990  -1.7835  -1.6803  -1.6706  -1.6437  -1.5520
    -1.5065  -1.4942  -1.4575  -1.4111  -1.3860  -1.3284  -1.2813  -1.2232
    -1.1788  -1.0633  -1.0116  -0.9636  -0.8807  -0.8607  -0.7934  -0.7746
    -0.6742  -0.6438  -0.5887  -0.5765  -0.5379  -0.4652  -0.3846  -0.3525
    -0.3258  -0.2736  -0.2376  -0.1803  -0.1625  -0.1535  -0.1138  -0.0764
    -0.0439   0.0398   0.0505   0.1182   0.2042   0.2965   0.3253   0.4256
     0.4590   0.5938   0.6290   0.8635   0.8978   0.9070   1.0906   1.1376
     1.4585   1.5091   2.1995   2.8482   2.9972   3.2794   3.2862   3.3522
     3.3998   3.4928   3.5413   3.6314   3.7352

[...]

          k = 0.0380-0.0419 0.0000 ( 17876 PWs)   bands (ev):

[...]

          k =-0.0760-0.0000 0.0000 ( 17886 PWs)   bands (ev):

[...]

          k =-0.0760-0.0839 0.0000 ( 17948 PWs)   bands (ev):

   -56.4190 -56.4087 -56.1682 -55.9785 -55.8885 -55.8709 -55.8648 -55.8394
   -55.7653 -55.7373 -55.7283 -55.5644 -55.4786 -55.4456 -55.1066 -55.1060
   -32.6869 -32.6782 -32.6743 -32.6690 -32.5932 -32.5688 -32.5606 -32.5249
   -32.4125 -32.3648 -32.3038 -32.2126 -32.2052 -32.2015 -32.1949 -32.1792
   -32.1361 -32.1145 -32.1125 -32.1008 -32.0989 -32.0964 -32.0866 -32.0619
   -32.0489 -32.0313 -32.0195 -32.0105 -31.9863 -31.9834 -31.9657 -31.9419
   -31.9258 -31.9131 -31.8981 -31.8275 -31.8235 -31.8110 -31.7773 -31.7726
   -31.6019 -31.5506 -31.4474 -31.4470 -31.3355 -31.3339 -31.2951 -31.2943
   -18.1230 -17.0888 -16.4817 -16.4513 -16.2419 -16.1392 -15.9684 -15.9452
   -15.9407 -15.9077 -15.8530 -15.8395 -15.8227 -15.6741 -15.6511 -15.6348
   -15.5722 -15.5052 -15.4638 -15.4368 -15.4135 -15.3760 -15.3603 -15.3489
   -15.3473 -15.3317 -15.2778 -15.1995 -15.1851 -14.9378 -13.6153 -13.6145
    -8.0208  -4.8136  -4.3662  -3.7414  -3.5418  -3.4748  -3.4375  -3.2773
    -3.1859  -3.1755  -3.1053  -3.0932  -3.0439  -3.0060  -2.9682  -2.9373
    -2.9193  -2.8693  -2.8584  -2.8223  -2.7959  -2.7730  -2.7651  -2.7536
    -2.7286  -2.7220  -2.7038  -2.6912  -2.6716  -2.6503  -2.6156  -2.5720
    -2.5071  -2.4360  -2.3030  -2.2873  -2.2634  -2.1927  -2.1730  -2.1218
    -2.1057  -2.0845  -2.0668  -2.0187  -1.9834  -1.9565  -1.7040  -1.6825
    -1.6286  -1.5774  -1.5220  -1.4905  -1.4612  -1.4461  -1.3838  -1.2773
    -1.2386  -1.2023  -1.1836  -1.1624  -1.1580  -1.0811  -1.0551  -0.9942
    -0.9466  -0.9158  -0.8391  -0.8029  -0.7726  -0.7521  -0.6960  -0.6318
    -0.6165  -0.5391  -0.4918  -0.4718  -0.4143  -0.2772  -0.2453  -0.1441
    -0.0933  -0.0546   0.0521   0.1726   0.2391   0.2448   0.3561   0.3835
     0.4016   0.5004   0.5526   0.5724   0.6107   0.7524   1.2844   1.2989
     1.3088   1.3104   2.3460   3.3851   3.3978   3.4030   3.4136   3.4331
     3.5440   3.6119   3.6762   3.7535   3.7672

     the Fermi energy is     2.6317 ev

!    total energy              =   -2930.00843753 Ry
     estimated scf accuracy    <       0.00000005 Ry
     smearing contrib. (-TS)   =      -0.00367277 Ry
     internal energy E=F+TS    =   -2930.00476477 Ry

     The total energy is F=E-TS. E is the sum of the following terms:
     one-electron contribution =  -24473.05196447 Ry
     hartree contribution      =   12320.20013159 Ry
     xc contribution           =    -481.33931518 Ry
     ewald contribution        =    9704.18582462 Ry
     electric field correction =       0.00055867 Ry

     convergence has been achieved in  77 iterations

     Forces acting on atoms (cartesian axes, Ry/au):

     atom    1 type  1   force =     0.00045525   -0.00032832    0.13411182
     atom    2 type  1   force =     0.00011146    0.00528067   -0.16228917
     atom    3 type  2   force =    -0.00070521    0.00272740   -0.05106243
     atom    4 type  2   force =    -0.00084208   -0.00120611    0.04170146
     atom    5 type  2   force =    -0.01386036   -0.00296713    0.00213025
     atom    6 type  2   force =     0.01178084   -0.00439451    0.00140601
     atom    7 type  1   force =     0.00052086   -0.00030402   -0.00023983
     atom    8 type  1   force =    -0.00006945   -0.00036826    0.00018739
     atom    9 type  2   force =     0.00018092   -0.00023184   -0.00009506
     atom   10 type  2   force =    -0.00025673    0.00015110   -0.00034881
     atom   11 type  2   force =     0.00014979   -0.00095238    0.00007495
     atom   12 type  2   force =    -0.00071311    0.00011770    0.00013839
     atom   13 type  1   force =     0.00063606    0.00021761    0.00001849
     atom   14 type  1   force =    -0.00004418   -0.00012753    0.00045730
     atom   15 type  2   force =     0.00034382   -0.00007416   -0.00013719
     atom   16 type  2   force =     0.00082856    0.00012118   -0.00027682
     atom   17 type  2   force =     0.00083659   -0.00034335    0.00039356
     atom   18 type  2   force =     0.00069023   -0.00021112   -0.00136453
     atom   19 type  1   force =    -0.00009938    0.00066063    0.00000155
     atom   20 type  1   force =     0.00011663   -0.00015427    0.00088720
     atom   21 type  2   force =     0.00019619    0.00005972    0.10038046
     atom   22 type  2   force =     0.00009059   -0.00047598   -0.00017544
     atom   23 type  2   force =    -0.07799602    0.00019859   -0.03357591
     atom   24 type  2   force =     0.07804442    0.00071175   -0.03359115
     atom   25 type  1   force =     0.00017331   -0.00022907    0.13668973
     atom   26 type  1   force =     0.00017295   -0.00663538   -0.16253726
     atom   27 type  2   force =     0.00014888    0.00093029   -0.05023777
     atom   28 type  2   force =    -0.00050746   -0.00055279    0.04263595
     atom   29 type  2   force =    -0.01246494    0.00585456    0.00019671
     atom   30 type  2   force =     0.01100316   -0.00027471   -0.00033710
     atom   31 type  1   force =     0.00030037   -0.00026729   -0.00023385
     atom   32 type  1   force =    -0.00023336    0.00016625    0.00013639
     atom   33 type  2   force =    -0.00027290    0.00008375    0.00003861
     atom   34 type  2   force =     0.00036870   -0.00021525   -0.00030597
     atom   35 type  2   force =     0.00133381    0.00037632   -0.00011291
     atom   36 type  2   force =    -0.00055533   -0.00013283   -0.00031850
     atom   37 type  1   force =    -0.00050073    0.00079428   -0.00046440
     atom   38 type  1   force =    -0.00027458    0.00035326   -0.00035953
     atom   39 type  2   force =     0.00061902   -0.00022905    0.00014919
     atom   40 type  2   force =    -0.00005112    0.00018130   -0.00065366
     atom   41 type  2   force =     0.00107611   -0.00044633    0.00039688
     atom   42 type  2   force =    -0.00028684    0.00038364   -0.00006614
     atom   43 type  1   force =     0.00069724   -0.00057364    0.00180952
     atom   44 type  1   force =     0.00022122    0.00104886    0.00065093
     atom   45 type  2   force =     0.00016249   -0.00002158    0.09989326
     atom   46 type  2   force =    -0.07801481    0.00000771   -0.03358462
     atom   47 type  2   force =     0.07806809    0.00053581   -0.03362027
     atom   48 type  3   force =     0.00151553   -0.00037835    0.00356193
     atom   49 type  4   force =    -0.00265006    0.00102420   -0.00178621
     atom   50 type  2   force =    -0.00160784   -0.00057450    0.00086168
     atom   51 type  4   force =     0.00116337    0.00068317   -0.00113507

     Total force =     0.384518     Total SCF correction =     0.000606
  @ DRIVER MODE: Message from server: STATUS
  @ DRIVER MODE: Message from server: GETFORCE
  @ DRIVER MODE: Returning v,forces,stress,ensemble

     Writing output data file ./calc.save/
  @ DRIVER MODE: Message from server: EXIT
  @ DRIVE MODE: Exiting

     General routines

     Parallel routines

   This run was terminated on:  16:45:16  28Sep2021

   JOB DONE.