     Program PWSCF v.6.7GPU starts on 25Sep2021 at 16:29:40

     R & G space division:  proc/nbgrp/npool/nimage =       8
     Reading input from /storage/home/hcoda1/3/ntian30/research/carbon/CxH_vib/H2O_calc/ads_slab/CH3OHN2HO_a/out_0004/pw.inp
Warning: card &CELL ignored
Warning: card   CELL_DYNAMICS='IPI', ignored
Warning: card / ignored

     Current dimensions of program PWSCF are:
     Max number of different atomic species (ntypx) = 10
     Max number of k-points (npk) =  40000
     Max angular momentum in pseudopotentials (lmaxx) =  3
     Presently no symmetry can be used with electric field

     Message from routine cell_base_init:
     DEPRECATED: use true lattice parameter, not A to a.u. conversion factor

     IMPORTANT: XC functional enforced from input :
     Exchange-correlation= BEEF-VDW
                           (   1   4  43  14   2   0   0)
     Any further DFT definition will be discarded
     Please, verify this is what you really want

  @ DRIVER MODE: Connecting to
 qe_1139763_2971668.sched-torque.pace.gatech.edu_rb7p4ls_scratch
  using UNIX socket
  @ DRIVER MODE: Message from server: STATUS
  @ DRIVER MODE: Message from server: INIT
  @ DRIVER MODE: Receiving replica           0          -1
  @ DRIVER MODE: Receiving encoded integer          25
  @ DRIVER MODE:  SCF:  T  FORCE:  T  STRESS:  F  VC:  F  ENSEMBLE:  F
  @ DRIVER MODE:  SCF:  T  FORCE:  T  STRESS:  F  VC:  F  ENSEMBLE:  F

     Using Slab Decomposition

     bravais-lattice index     =            0
     lattice parameter (alat)  =       1.8897  a.u.
     unit-cell volume          =    6658.9804 (a.u.)^3
     number of atoms/cell      =           57
     number of atomic types    =            5
     number of electrons       =       409.00
     number of Kohn-Sham states=          214
     kinetic-energy cutoff     =      29.3995  Ry
     charge density cutoff     =     293.9946  Ry
     scf convergence threshold =      7.3E-08
     mixing beta               =       0.0500
     number of iterations used =            8  plain     mixing
     Exchange-correlation= BEEF-VDW
                           (   1   4  43  14   2   0   0)

     celldm(1)=   1.889726  celldm(2)=   0.000000  celldm(3)=   0.000000
     celldm(4)=   0.000000  celldm(5)=   0.000000  celldm(6)=   0.000000

     crystal axes: (cart. coord. in units of alat)
               a(1) = (   6.579727   0.000000   0.000000 )
               a(2) = (  -0.000775   5.961596   0.000000 )
               a(3) = (   0.000000   0.000000  25.155947 )

     reciprocal axes: (cart. coord. in units 2 pi/alat)
               b(1) = (  0.151982  0.000020  0.000000 )
               b(2) = (  0.000000  0.167740  0.000000 )
               b(3) = (  0.000000  0.000000  0.039752 )

     PseudoPot. # 1 for Ti read from file:
     /storage/coda1/p-amedford6/0/shared/rich_project_chbe-medford/medford-share/data/pseudos_module/espresso/nninc/pbe/van/Ti.UPF
     MD5 check sum: 8e4df49b7f0d34bbd5052bf3f5ea0213
     Pseudo is Ultrasoft, Zval = 12.0
     Generated by new atomic code, or converted to UPF format
     Using radial grid of  851 points,  6 beta functions with:
                l(1) =   0
                l(2) =   0
                l(3) =   1
                l(4) =   1
                l(5) =   2
                l(6) =   2
     Q(r) pseudized with  8 coefficients,  rinner =    1.000   1.000   1.000
                                                       1.000   1.000

     PseudoPot. # 2 for O  read from file:
     /storage/coda1/p-amedford6/0/shared/rich_project_chbe-medford/medford-share/data/pseudos_module/espresso/nninc/pbe/van/O.UPF
     MD5 check sum: 78c19812648e8988a0fe644b0f25305e
     Pseudo is Ultrasoft, Zval =  6.0
     Generated by new atomic code, or converted to UPF format
     Using radial grid of  737 points,  4 beta functions with:
                l(1) =   0
                l(2) =   0
                l(3) =   1
                l(4) =   1
     Q(r) pseudized with  8 coefficients,  rinner =    0.800   0.800   0.800

     PseudoPot. # 3 for C  read from file:
     /storage/coda1/p-amedford6/0/shared/rich_project_chbe-medford/medford-share/data/pseudos_module/espresso/nninc/pbe/van/C.UPF
     MD5 check sum: 1a69bf6b8db32088f5b2163dbdb77a27
     Pseudo is Ultrasoft, Zval =  4.0
     Generated by new atomic code, or converted to UPF format
     Using radial grid of  721 points,  4 beta functions with:
                l(1) =   0
                l(2) =   0
                l(3) =   1
                l(4) =   1
     Q(r) pseudized with  8 coefficients,  rinner =    0.800   0.800   0.800

     PseudoPot. # 4 for H  read from file:
     /storage/coda1/p-amedford6/0/shared/rich_project_chbe-medford/medford-share/data/pseudos_module/espresso/nninc/pbe/van/H.UPF
     MD5 check sum: b5ee9d7bfd3a09ee7748110bda690ff7
     Pseudo is Ultrasoft, Zval =  1.0
     Generated by new atomic code, or converted to UPF format
     Using radial grid of  615 points,  1 beta functions with:
                l(1) =   0
     Q(r) pseudized with  8 coefficients,  rinner =    0.800

     PseudoPot. # 5 for N  read from file:
     /storage/coda1/p-amedford6/0/shared/rich_project_chbe-medford/medford-share/data/pseudos_module/espresso/nninc/pbe/van/N.UPF
     MD5 check sum: 90d10febe142ad51ac9d5be1deb811c4
     Pseudo is Ultrasoft, Zval =  5.0
     Generated by new atomic code, or converted to UPF format
     Using radial grid of  729 points,  4 beta functions with:
                l(1) =   0
                l(2) =   0
                l(3) =   1
                l(4) =   1
     Q(r) pseudized with  8 coefficients,  rinner =    0.800   0.800   0.800

     atomic species   valence    mass     pseudopotential
        Ti1           12.00    47.86700     Ti( 1.00)
        O1             6.00    15.99900     O ( 1.00)
        C1             4.00    12.01100     C ( 1.00)
        H1             1.00     1.00800     H ( 1.00)
        N1             5.00    14.00700     N ( 1.00)

     No symmetry found

   Cartesian axes

     site n.     atom                  positions (alat units)
         1           Ti1 tau(   1) = (   0.0004258   2.9801865   6.0000000  )
         2           Ti1 tau(   2) = (   3.2906075   1.4906267   6.0002472  )
         3           O1  tau(   3) = (   0.0006271   0.0005054   7.9858123  )
         4           O1  tau(   4) = (   3.2906025   0.0005020   7.3038282  )
         5           O1  tau(   5) = (   4.5942328   1.4918067   9.2879030  )
         6           O1  tau(   6) = (   1.9868534   1.4903216   9.2879459  )
         7           Ti1 tau(   7) = (   3.3371032   3.0268772   9.1887580  )
         8           Ti1 tau(   8) = (   0.0611061   1.5258697   9.2809523  )
         9           O1  tau(   9) = (   3.3143856   0.0188946  11.3581724  )
        10           O1  tau(  10) = (   0.0164151   0.0031400  10.5895864  )
        11           O1  tau(  11) = (   1.3088961   1.4994640  12.6347600  )
        12           O1  tau(  12) = (   5.3347766   1.4946156  12.6347356  )
        13           Ti1 tau(  13) = (   0.0202478   3.0292801  12.5720800  )
        14           Ti1 tau(  14) = (   3.3188568   1.5851219  12.4260843  )
        15           O1  tau(  15) = (   0.0445434   5.9450813  14.6510506  )
        16           O1  tau(  16) = (   3.3207065   5.8849141  14.0104376  )
        17           O1  tau(  17) = (   4.6249962   1.5116716  16.1313945  )
        18           O1  tau(  18) = (   2.0639035   1.5439872  16.0680944  )
        19           Ti1 tau(  19) = (   3.3360141   2.9454253  15.6763505  )
        20           Ti1 tau(  20) = (   0.0686920   1.3314864  15.9334539  )
        21           O1  tau(  21) = (   3.2904802   0.0005063   4.7018136  )
        22           O1  tau(  22) = (   0.0979609   0.0039778  17.1657837  )
        23           O1  tau(  23) = (   1.3043587   1.4918075   6.0039043  )
        24           O1  tau(  24) = (   5.2767064   1.4903225   6.0039473  )
        25           Ti1 tau(  25) = (   0.0000382   5.9609847   6.0000000  )
        26           Ti1 tau(  26) = (   3.2902200   4.4714249   6.0002472  )
        27           O1  tau(  27) = (   0.0002396   2.9813036   7.9858123  )
        28           O1  tau(  28) = (   3.2902150   2.9813002   7.3038282  )
        29           O1  tau(  29) = (   4.5938453   4.4726049   9.2879030  )
        30           O1  tau(  30) = (   1.9864658   4.4711199   9.2879459  )
        31           Ti1 tau(  31) = (   3.3368545   0.0404040   9.1664313  )
        32           Ti1 tau(  32) = (   0.0604674   4.4799263   9.2696248  )
        33           O1  tau(  33) = (   3.3137611   2.9662427  11.3084074  )
        34           O1  tau(  34) = (   0.0134136   2.9850836  10.6046154  )
        35           O1  tau(  35) = (   1.3054726   4.4719986  12.6384794  )
        36           O1  tau(  36) = (   5.3362180   4.4781181  12.6390536  )
        37           Ti1 tau(  37) = (   0.0365240   0.0487139  12.4702884  )
        38           Ti1 tau(  38) = (   3.3180881   4.6653017  12.7087268  )
        39           O1  tau(  39) = (   0.0228105   2.9918545  14.7761892  )
        40           O1  tau(  40) = (   3.3431522   2.9700269  13.9040455  )
        41           O1  tau(  41) = (   4.6265974   4.4152401  16.1544535  )
        42           O1  tau(  42) = (   2.0571238   4.3592187  16.1146037  )
        43           Ti1 tau(  43) = (   3.3848590   5.9294639  16.2700006  )
        44           Ti1 tau(  44) = (   0.0517009   4.5268197  15.8466567  )
        45           O1  tau(  45) = (   3.2900926   2.9813045   4.7018136  )
        46           O1  tau(  46) = (   1.3039711   4.4726057   6.0039043  )
        47           O1  tau(  47) = (   5.2763189   4.4711207   6.0039473  )
        48           C1  tau(  48) = (   5.9450987   3.0617216  18.8599509  )
        49           O1  tau(  49) = (   0.1802289   3.0084098  17.6484507  )
        50           H1  tau(  50) = (   4.9625852   2.6832861  18.5889656  )
        51           H1  tau(  51) = (   1.1163247   3.1442434  17.8758057  )
        52           H1  tau(  52) = (   6.3899442   2.3914015  19.6026461  )
        53           H1  tau(  53) = (   5.8846647   4.0795385  19.2151274  )
        54           N1  tau(  54) = (   5.7598779   3.1323611  22.9045362  )
        55           N1  tau(  55) = (   4.9845974   3.1850264  22.1203839  )
        56           O1  tau(  56) = (   3.1467188   0.0118795  18.1166202  )
        57           H1  tau(  57) = (   2.2164505   0.0865285  18.3868412  )

     number of k points=    10  Fermi-Dirac smearing, width (Ry)=  0.0073
                       cart. coord. in units 2pi/alat
        k(    1) = (   0.0000000   0.0000000   0.0000000), wk =   0.1250000
        k(    2) = (   0.0000000   0.0419351   0.0000000), wk =   0.2500000
        k(    3) = (   0.0000000  -0.0838702   0.0000000), wk =   0.1250000
        k(    4) = (   0.0379955   0.0000049   0.0000000), wk =   0.2500000
        k(    5) = (   0.0379955   0.0419400   0.0000000), wk =   0.2500000
        k(    6) = (   0.0379955  -0.0838652   0.0000000), wk =   0.2500000
        k(    7) = (   0.0379955  -0.0419301   0.0000000), wk =   0.2500000
        k(    8) = (  -0.0759910  -0.0000099   0.0000000), wk =   0.1250000
        k(    9) = (  -0.0759910   0.0419252   0.0000000), wk =   0.2500000
        k(   10) = (  -0.0759910  -0.0838800   0.0000000), wk =   0.1250000

     Initial potential from superposition of free atoms

     starting charge  392.99914, renormalised to  409.00000

     negative rho (up, down):  9.140E-03 0.000E+00

     %%%%%%%%%%%%%%%%%%%%%%%%%%%%%%%%%%%%%%%%%%%%%%%%%%%%%%%%%%%%%%%%%%%%%%%%
     %                                                                      %
     % You are using vdW-DF, which was implemented by the Thonhauser group. %
     % Please cite the following two papers that made this development      %
     % possible and the two reviews that describe the various versions:     %
     %                                                                      %
     %   T. Thonhauser et al., PRL 115, 136402 (2015).                      %
     %   T. Thonhauser et al., PRB 76, 125112 (2007).                       %
     %   K. Berland et al., Rep. Prog. Phys. 78, 066501 (2015).             %
     %   D.C. Langreth et al., J. Phys.: Condens. Matter 21, 084203 (2009). %
     %                                                                      %
     %                                                                      %
     % If you are calculating the stress with vdW-DF, please also cite:     %
     %                                                                      %
     %   R. Sabatini et al., J. Phys.: Condens. Matter 24, 424209 (2012).   %
     %                                                                      %
     %%%%%%%%%%%%%%%%%%%%%%%%%%%%%%%%%%%%%%%%%%%%%%%%%%%%%%%%%%%%%%%%%%%%%%%%

     Adding external electric field

     Computed dipole along edir(3) :
        Dipole              -18.8687 Ry au,        -47.9594 Debye
        Dipole field         -0.0356 Ry au,

        Potential amp.        3.3008 Ry
        Total length         46.3494 bohr

     Starting wfcs are  309 atomic wfcs
  @ DRIVER MODE: Message from server: STATUS
  @ DRIVER MODE: Message from server: POSDATA
  @ DRIVER MODE: Reading and sharing cell
  @ DRIVER MODE: Reading and sharing positions
  @ DRIVER MODE: Received positions

     Self-consistent Calculation

     iteration #  1     ecut=    29.40 Ry     beta= 0.05
     Davidson diagonalization with overlap
     c_bands:  5 eigenvalues not converged
     c_bands:  5 eigenvalues not converged
     c_bands:  1 eigenvalues not converged
     c_bands:  4 eigenvalues not converged
     c_bands:  1 eigenvalues not converged
     c_bands:  3 eigenvalues not converged
     ethr =  1.00E-05,  avg # of iterations = 27.3

[...]

     total energy              =   -2113.19737782 Ry
     estimated scf accuracy    <   10331.03961987 Ry

     iteration #  2     ecut=    29.40 Ry     beta= 0.05
     Davidson diagonalization with overlap
     ethr =  1.00E-02,  avg # of iterations = 30.2

[...]

     iteration # 74     ecut=    29.40 Ry     beta= 0.05
     Davidson diagonalization with overlap
     c_bands:  1 eigenvalues not converged
     ethr =  1.14E-10,  avg # of iterations = 12.8

[...]

     total energy              =   -3006.45812594 Ry
     estimated scf accuracy    <       0.00000014 Ry

     iteration # 77     ecut=    29.40 Ry     beta= 0.05
     Davidson diagonalization with overlap
     ethr =  3.54E-11,  avg # of iterations =  8.0

     negative rho (up, down):  1.063E-02 0.000E+00

     Adding external electric field

     Computed dipole along edir(3) :
        Dipole                1.0498 Ry au,          2.6684 Debye
        Dipole field          0.0020 Ry au,

        Potential amp.       -0.1836 Ry
        Total length         46.3494 bohr

     End of self-consistent calculation

          k = 0.0000 0.0000 0.0000 ( 18029 PWs)   bands (ev):

   -55.3292 -55.2534 -55.2182 -55.1442 -55.1222 -55.0875 -55.0514 -55.0472
   -55.0452 -55.0259 -55.0159 -54.9859 -54.8992 -54.8231 -54.2132 -54.1792
   -31.7314 -31.7230 -31.6354 -31.6238 -31.5827 -31.5691 -31.5445 -31.5426
   -31.5079 -31.4963 -31.4852 -31.4203 -31.4072 -31.4071 -31.3804 -31.3621
   -31.3536 -31.3365 -31.3359 -31.3242 -31.3170 -31.3122 -31.2664 -31.2644
   -31.2623 -31.2556 -31.2528 -31.2398 -31.2336 -31.2149 -31.2081 -31.1974
   -31.1958 -31.1758 -31.1714 -31.1633 -31.1623 -31.1281 -31.0880 -31.0685
   -31.0374 -31.0270 -30.6193 -30.5331 -30.5105 -30.4363 -30.3500 -30.2384
   -21.5048 -19.7104 -16.1360 -15.9057 -15.7263 -15.5244 -15.4676 -15.4012
   -15.2139 -15.1405 -14.9846 -14.8595 -14.8447 -14.7880 -14.7869 -14.7769
   -14.7480 -14.7230 -14.6777 -14.6663 -14.6610 -14.6574 -14.5959 -14.5534
   -14.5507 -14.5236 -14.5029 -14.3758 -14.3288 -14.2743 -14.1041 -14.0824
   -12.7130 -12.5969 -10.5710  -6.6847  -6.4053  -4.6638  -4.6295  -4.5855
    -4.4314  -3.6523  -3.3689  -3.2544  -3.1544  -3.1358  -3.0697  -3.0194
    -2.8054  -2.6876  -2.6362  -2.5232  -2.3962  -2.3603  -2.2977  -2.2774
    -2.1856  -2.1697  -2.1359  -2.1036  -2.0514  -2.0229  -2.0154  -2.0022
    -1.9268  -1.9203  -1.7907  -1.7856  -1.7294  -1.6373  -1.6196  -1.5970
    -1.5902  -1.5550  -1.5533  -1.5102  -1.4864  -1.4632  -1.4372  -1.3602
    -1.3396  -1.2769  -1.2392  -1.0090  -0.8531  -0.8283  -0.7476  -0.7319
    -0.7028  -0.6712  -0.6512  -0.6409  -0.6031  -0.5877  -0.4842  -0.3809
    -0.3722  -0.3124  -0.2748  -0.2699  -0.1343  -0.0897  -0.0151   0.0075
     0.0396   0.0610   0.1452   0.1940   0.2156   0.2823   0.3135   0.4190
     0.4565   0.4757   0.5170   0.5725   0.6329   0.6666   0.7062   0.7096
     0.7423   0.7915   0.8209   0.8554   0.8779   0.9249   1.0277   1.0651
     1.0756   1.2162   1.2272   1.3095   1.4342   1.4861   1.7591   1.8116
     1.8584   2.0040   2.3804   2.4273   3.8704   3.9730   3.9940   4.0153
     4.0830   4.1647   4.3302   4.3534   4.4177   4.5184

[...]

          k = 0.0380-0.0419 0.0000 ( 17876 PWs)   bands (ev):

[...]

          k =-0.0760-0.0000 0.0000 ( 17886 PWs)   bands (ev):

[...]

          k =-0.0760-0.0839 0.0000 ( 17948 PWs)   bands (ev):

   -55.3284 -55.2403 -55.2312 -55.1382 -55.1178 -55.0933 -55.0511 -55.0461
   -55.0375 -55.0292 -55.0169 -54.9952 -54.8955 -54.8267 -54.1964 -54.1959
   -31.6426 -31.5789 -31.5691 -31.5514 -31.5425 -31.5423 -31.5365 -31.5206
   -31.4586 -31.4538 -31.4150 -31.3936 -31.3819 -31.3768 -31.3603 -31.3583
   -31.3545 -31.3530 -31.3459 -31.3401 -31.3351 -31.3330 -31.3177 -31.3157
   -31.2967 -31.2861 -31.2568 -31.2506 -31.2474 -31.2432 -31.2353 -31.2341
   -31.2274 -31.2226 -31.2188 -31.2144 -31.2119 -31.1736 -31.1550 -31.0921
   -31.0745 -31.0309 -30.5234 -30.5231 -30.4331 -30.4316 -30.3933 -30.3924
   -21.5047 -19.7066 -16.1124 -15.5356 -15.3790 -15.2081 -15.1943 -15.1149
   -15.0234 -15.0056 -14.9750 -14.9617 -14.9446 -14.9202 -14.9121 -14.8767
   -14.8139 -14.7721 -14.7489 -14.7407 -14.6937 -14.6885 -14.6849 -14.6221
   -14.6149 -14.5967 -14.5720 -14.5121 -14.5032 -14.4028 -14.3880 -14.2153
   -12.6992 -12.6983 -10.5731  -6.6850  -6.4071  -4.6600  -4.6363  -4.5725
    -4.4238  -3.6181  -3.3594  -2.6841  -2.5984  -2.5115  -2.4317  -2.3535
    -2.2977  -2.2501  -2.2290  -2.1842  -2.1632  -2.0936  -2.0589  -2.0500
    -2.0307  -2.0286  -1.9982  -1.9828  -1.9697  -1.9488  -1.9203  -1.9030
    -1.8925  -1.8714  -1.8516  -1.8264  -1.8136  -1.8037  -1.7891  -1.7734
    -1.6620  -1.6460  -1.6126  -1.4524  -1.4396  -1.3695  -1.3378  -1.3115
    -1.3083  -1.2773  -1.2632  -1.2221  -1.1141  -1.0890  -1.0375  -1.0043
    -0.9022  -0.8873  -0.8364  -0.7855  -0.7397  -0.7112  -0.6808  -0.6655
    -0.6117  -0.4732  -0.4525  -0.4075  -0.2883  -0.2150  -0.1993  -0.1868
    -0.1651  -0.1420  -0.0955  -0.0872  -0.0253  -0.0129   0.0580   0.0620
     0.0912   0.1127   0.2151   0.3371   0.4158   0.4597   0.5045   0.5540
     0.5876   0.6700   0.7464   0.8326   0.9087   0.9382   0.9520   1.0697
     1.1021   1.1547   1.2007   1.2209   1.2791   1.3149   1.3551   1.3882
     2.1727   2.1863   2.2426   2.2483   4.0510   4.3011   4.3611   4.3782
     4.3879   4.4203   4.4413   4.4926   4.5093   4.5329

     the Fermi energy is     3.8805 ev

!    total energy              =   -3006.45813818 Ry
     estimated scf accuracy    <       0.00000005 Ry
     smearing contrib. (-TS)   =      -0.02082859 Ry
     internal energy E=F+TS    =   -3006.43730959 Ry

     The total energy is F=E-TS. E is the sum of the following terms:
     one-electron contribution =  -22317.78642478 Ry
     hartree contribution      =   11258.41041781 Ry
     xc contribution           =    -501.14553806 Ry
     ewald contribution        =    8554.08215561 Ry
     electric field correction =       0.00207984 Ry

     convergence has been achieved in  77 iterations

     Forces acting on atoms (cartesian axes, Ry/au):

     atom    1 type  1   force =    -0.00037599   -0.00016896    0.09497096
     atom    2 type  1   force =    -0.00035407    0.00513021   -0.17481212
     atom    3 type  2   force =     0.00070899    0.00012861   -0.02673199
     atom    4 type  2   force =     0.00128877    0.00083244    0.05205548
     atom    5 type  2   force =    -0.01095419   -0.00255792    0.00076748
     atom    6 type  2   force =     0.01192544   -0.00380874    0.00177594
     atom    7 type  1   force =    -0.00022389    0.00039051    0.00066696
     atom    8 type  1   force =     0.00013844    0.00022618    0.00016725
     atom    9 type  2   force =     0.00024964    0.00076134   -0.00065698
     atom   10 type  2   force =    -0.00038954    0.00016100    0.00012029
     atom   11 type  2   force =     0.00045201   -0.00014682    0.00010592
     atom   12 type  2   force =    -0.00085881   -0.00014912    0.00036069
     atom   13 type  1   force =     0.00043787    0.00035042   -0.00022643
     atom   14 type  1   force =    -0.00034250   -0.00071341    0.00094189
     atom   15 type  2   force =    -0.00014255   -0.00044631   -0.00097975
     atom   16 type  2   force =    -0.00027696    0.00001195   -0.00021611
     atom   17 type  2   force =    -0.00097398    0.00029802   -0.00001975
     atom   18 type  2   force =     0.00042268    0.00070408   -0.00005658
     atom   19 type  1   force =     0.00024978   -0.00078534    0.00022736
     atom   20 type  1   force =    -0.00032035    0.00002920    0.00039815
     atom   21 type  2   force =    -0.00000479    0.00007477    0.10302505
     atom   22 type  2   force =    -0.00002813   -0.00019091    0.00101976
     atom   23 type  2   force =    -0.07195528    0.00013866   -0.02801605
     atom   24 type  2   force =     0.07179252    0.00063550   -0.02811811
     atom   25 type  1   force =    -0.00035770    0.00026278    0.10241433
     atom   26 type  1   force =    -0.00010611   -0.00474967   -0.17505929
     atom   27 type  2   force =     0.00084930    0.00117211   -0.02485235
     atom   28 type  2   force =     0.00119686    0.00025517    0.05168879
     atom   29 type  2   force =    -0.01191547    0.00381452    0.00171163
     atom   30 type  2   force =     0.01375332    0.00146380    0.00244211
     atom   31 type  1   force =    -0.00029502   -0.00016909    0.00081748
     atom   32 type  1   force =     0.00029036    0.00028972    0.00060307
     atom   33 type  2   force =     0.00000557    0.00019685    0.00009926
     atom   34 type  2   force =    -0.00027112   -0.00032373   -0.00058257
     atom   35 type  2   force =    -0.00022458    0.00004680   -0.00047420
     atom   36 type  2   force =    -0.00038581    0.00009396   -0.00009158
     atom   37 type  1   force =    -0.00006103   -0.00034676    0.00004331
     atom   38 type  1   force =    -0.00056852    0.00027578    0.00002209
     atom   39 type  2   force =    -0.00025310   -0.00025973    0.00078535
     atom   40 type  2   force =    -0.00019906    0.00011598    0.00030166
     atom   41 type  2   force =    -0.00138809   -0.00023213   -0.00007978
     atom   42 type  2   force =     0.00114334   -0.00009545   -0.00055845
     atom   43 type  1   force =    -0.00020396    0.00051509    0.00016041
     atom   44 type  1   force =    -0.00000180    0.00002119    0.00005808
     atom   45 type  2   force =     0.00000267    0.00013955    0.10261306
     atom   46 type  2   force =    -0.07185022   -0.00062651   -0.02796257
     atom   47 type  2   force =     0.07170784   -0.00013569   -0.02803812
     atom   48 type  3   force =    -0.00068663   -0.02228950   -0.00019866
     atom   49 type  2   force =    -0.00123112    0.00149629    0.00055019
     atom   50 type  4   force =     0.00301768    0.00266738    0.00087394
     atom   51 type  4   force =     0.00044525    0.00041577   -0.00086211
     atom   52 type  4   force =    -0.00279874    0.00568517   -0.00418177
     atom   53 type  4   force =    -0.00025437    0.01075474    0.00163209
     atom   54 type  5   force =     0.00012299   -0.00008627    0.00035290
     atom   55 type  5   force =    -0.00047564    0.00007889   -0.00030315
     atom   56 type  2   force =     0.00081778   -0.00056941    0.00049837
     atom   57 type  4   force =    -0.00028998   -0.00078299   -0.00119281

     Total force =     0.365743     Total SCF correction =     0.000775
  @ DRIVER MODE: Message from server: STATUS
  @ DRIVER MODE: Message from server: GETFORCE
  @ DRIVER MODE: Returning v,forces,stress,ensemble

     Writing output data file ./calc.save/
  @ DRIVER MODE: Message from server: EXIT
  @ DRIVE MODE: Exiting

     General routines

     Parallel routines

   This run was terminated on:  17: 3:43  25Sep2021

   JOB DONE.