     Program PWSCF v.6.7GPU starts on 25Aug2021 at 13:54:46

     R & G space division:  proc/nbgrp/npool/nimage =       6
     Reading input from /storage/home/hcoda1/3/ntian30/research/carbon/CH3_vib_end_on/ads_slab/CH3N2H_a/out_0042/pw.inp
Warning: card &CELL ignored
Warning: card   CELL_DYNAMICS='IPI', ignored
Warning: card / ignored

     Current dimensions of program PWSCF are:
     Max number of different atomic species (ntypx) = 10
     Max number of k-points (npk) =  40000
     Max angular momentum in pseudopotentials (lmaxx) =  3
     Presently no symmetry can be used with electric field

     Message from routine cell_base_init:
     DEPRECATED: use true lattice parameter, not A to a.u. conversion factor

     IMPORTANT: XC functional enforced from input :
     Exchange-correlation= BEEF-VDW
                           (   1   4  43  14   2   0   0)
     Any further DFT definition will be discarded
     Please, verify this is what you really want

  @ DRIVER MODE: Connecting to
 qe_1139763_2643869.sched-torque.pace.gatech.edu19yh4l79_scratch
  using UNIX socket
  @ DRIVER MODE: Message from server: STATUS
  @ DRIVER MODE: Message from server: INIT
  @ DRIVER MODE: Receiving replica           0          -1
  @ DRIVER MODE: Receiving encoded integer          25
  @ DRIVER MODE:  SCF:  T  FORCE:  T  STRESS:  F  VC:  F  ENSEMBLE:  F
  @ DRIVER MODE:  SCF:  T  FORCE:  T  STRESS:  F  VC:  F  ENSEMBLE:  F

     Using Slab Decomposition

     bravais-lattice index     =            0
     lattice parameter (alat)  =       1.8897  a.u.
     unit-cell volume          =    6658.9804 (a.u.)^3
     number of atoms/cell      =           54
     number of atomic types    =            5
     number of electrons       =       396.00
     number of Kohn-Sham states=          208
     kinetic-energy cutoff     =      29.3995  Ry
     charge density cutoff     =     293.9946  Ry
     scf convergence threshold =      7.3E-08
     mixing beta               =       0.0500
     number of iterations used =            8  plain     mixing
     Exchange-correlation= BEEF-VDW
                           (   1   4  43  14   2   0   0)

     celldm(1)=   1.889726  celldm(2)=   0.000000  celldm(3)=   0.000000
     celldm(4)=   0.000000  celldm(5)=   0.000000  celldm(6)=   0.000000

     crystal axes: (cart. coord. in units of alat)
               a(1) = (   6.579727   0.000000   0.000000 )
               a(2) = (  -0.000775   5.961596   0.000000 )
               a(3) = (   0.000000   0.000000  25.155947 )

     reciprocal axes: (cart. coord. in units 2 pi/alat)
               b(1) = (  0.151982  0.000020  0.000000 )
               b(2) = (  0.000000  0.167740  0.000000 )
               b(3) = (  0.000000  0.000000  0.039752 )

     PseudoPot. # 1 for Ti read from file:
     /storage/coda1/p-amedford6/0/shared/rich_project_chbe-medford/medford-share/data/pseudos_module/espresso/nninc/pbe/van/Ti.UPF
     MD5 check sum: 8e4df49b7f0d34bbd5052bf3f5ea0213
     Pseudo is Ultrasoft, Zval = 12.0
     Generated by new atomic code, or converted to UPF format
     Using radial grid of  851 points,  6 beta functions with:
                l(1) =   0
                l(2) =   0
                l(3) =   1
                l(4) =   1
                l(5) =   2
                l(6) =   2
     Q(r) pseudized with  8 coefficients,  rinner =    1.000   1.000   1.000
                                                       1.000   1.000

     PseudoPot. # 2 for O  read from file:
     /storage/coda1/p-amedford6/0/shared/rich_project_chbe-medford/medford-share/data/pseudos_module/espresso/nninc/pbe/van/O.UPF
     MD5 check sum: 78c19812648e8988a0fe644b0f25305e
     Pseudo is Ultrasoft, Zval =  6.0
     Generated by new atomic code, or converted to UPF format
     Using radial grid of  737 points,  4 beta functions with:
                l(1) =   0
                l(2) =   0
                l(3) =   1
                l(4) =   1
     Q(r) pseudized with  8 coefficients,  rinner =    0.800   0.800   0.800

     PseudoPot. # 3 for N  read from file:
     /storage/coda1/p-amedford6/0/shared/rich_project_chbe-medford/medford-share/data/pseudos_module/espresso/nninc/pbe/van/N.UPF
     MD5 check sum: 90d10febe142ad51ac9d5be1deb811c4
     Pseudo is Ultrasoft, Zval =  5.0
     Generated by new atomic code, or converted to UPF format
     Using radial grid of  729 points,  4 beta functions with:
                l(1) =   0
                l(2) =   0
                l(3) =   1
                l(4) =   1
     Q(r) pseudized with  8 coefficients,  rinner =    0.800   0.800   0.800

     PseudoPot. # 4 for C  read from file:
     /storage/coda1/p-amedford6/0/shared/rich_project_chbe-medford/medford-share/data/pseudos_module/espresso/nninc/pbe/van/C.UPF
     MD5 check sum: 1a69bf6b8db32088f5b2163dbdb77a27
     Pseudo is Ultrasoft, Zval =  4.0
     Generated by new atomic code, or converted to UPF format
     Using radial grid of  721 points,  4 beta functions with:
                l(1) =   0
                l(2) =   0
                l(3) =   1
                l(4) =   1
     Q(r) pseudized with  8 coefficients,  rinner =    0.800   0.800   0.800

     PseudoPot. # 5 for H  read from file:
     /storage/coda1/p-amedford6/0/shared/rich_project_chbe-medford/medford-share/data/pseudos_module/espresso/nninc/pbe/van/H.UPF
     MD5 check sum: b5ee9d7bfd3a09ee7748110bda690ff7
     Pseudo is Ultrasoft, Zval =  1.0
     Generated by new atomic code, or converted to UPF format
     Using radial grid of  615 points,  1 beta functions with:
                l(1) =   0
     Q(r) pseudized with  8 coefficients,  rinner =    0.800

     atomic species   valence    mass     pseudopotential
        Ti1           12.00    47.86700     Ti( 1.00)
        O1             6.00    15.99900     O ( 1.00)
        N1             5.00    14.00700     N ( 1.00)
        C1             4.00    12.01100     C ( 1.00)
        H1             1.00     1.00800     H ( 1.00)

     No symmetry found

   Cartesian axes

     site n.     atom                  positions (alat units)
         1           Ti1 tau(   1) = (   0.0004258   2.9801865   6.0000000  )
         2           Ti1 tau(   2) = (   3.2906075   1.4906267   6.0002472  )
         3           O1  tau(   3) = (   0.0006271   0.0005054   7.9858123  )
         4           O1  tau(   4) = (   3.2906025   0.0005020   7.3038282  )
         5           O1  tau(   5) = (   4.5942328   1.4918067   9.2879030  )
         6           O1  tau(   6) = (   1.9868534   1.4903216   9.2879459  )
         7           Ti1 tau(   7) = (   3.2907910   2.8959150   9.1758416  )
         8           Ti1 tau(   8) = (   0.0015273   1.4827037   9.2680791  )
         9           O1  tau(   9) = (   3.2896288   0.0042867  11.3205077  )
        10           O1  tau(  10) = (   0.0116148   5.9584955  10.6183126  )
        11           O1  tau(  11) = (   1.2848067   1.4985890  12.6232755  )
        12           O1  tau(  12) = (   5.2688617   1.4893877  12.6055203  )
        13           Ti1 tau(  13) = (   0.0799559   3.0171279  12.6206390  )
        14           Ti1 tau(  14) = (   3.4009582   1.4891986  12.4726338  )
        15           O1  tau(  15) = (   6.5707323   0.0080309  14.6263129  )
        16           O1  tau(  16) = (   3.2902489   0.0120312  13.8979102  )
        17           O1  tau(  17) = (   4.5126121   1.5346005  16.0500440  )
        18           O1  tau(  18) = (   2.0453867   1.5362785  16.0447169  )
        19           Ti1 tau(  19) = (   3.2767562   3.0203775  15.6892921  )
        20           Ti1 tau(  20) = (   6.5596632   1.5778499  15.8310978  )
        21           O1  tau(  21) = (   3.2904802   0.0005063   4.7018136  )
        22           O1  tau(  22) = (   6.5709656   0.0671247  17.2345223  )
        23           O1  tau(  23) = (   1.3043587   1.4918075   6.0039043  )
        24           O1  tau(  24) = (   5.2767064   1.4903225   6.0039473  )
        25           Ti1 tau(  25) = (   0.0000382   5.9609847   6.0000000  )
        26           Ti1 tau(  26) = (   3.2902200   4.4714249   6.0002472  )
        27           O1  tau(  27) = (   0.0002396   2.9813036   7.9858123  )
        28           O1  tau(  28) = (   3.2902150   2.9813002   7.3038282  )
        29           O1  tau(  29) = (   4.5938453   4.4726049   9.2879030  )
        30           O1  tau(  30) = (   1.9864658   4.4711199   9.2879459  )
        31           Ti1 tau(  31) = (   3.2891106   5.8743827   9.1763621  )
        32           Ti1 tau(  32) = (   0.0006254   4.4649316   9.2693709  )
        33           O1  tau(  33) = (   3.2919429   2.9835650  11.3172650  )
        34           O1  tau(  34) = (   0.0092240   2.9805883  10.6323155  )
        35           O1  tau(  35) = (   1.2842535   4.4799506  12.6241420  )
        36           O1  tau(  36) = (   5.2755836   4.4732255  12.6042992  )
        37           Ti1 tau(  37) = (   0.0783641   0.0295629  12.6394962  )
        38           Ti1 tau(  38) = (   3.4022659   4.4693352  12.4708195  )
        39           O1  tau(  39) = (   6.5693815   2.9799975  14.6326336  )
        40           O1  tau(  40) = (   3.2899495   3.0014797  13.8849495  )
        41           O1  tau(  41) = (   4.5062741   4.5069571  16.0893315  )
        42           O1  tau(  42) = (   2.0480812   4.5060041  16.0753496  )
        43           Ti1 tau(  43) = (   3.2742444   0.0367023  15.7020416  )
        44           Ti1 tau(  44) = (   6.5658628   4.6518251  16.1481936  )
        45           O1  tau(  45) = (   3.2900926   2.9813045   4.7018136  )
        46           O1  tau(  46) = (   1.3039711   4.4726057   6.0039043  )
        47           O1  tau(  47) = (   5.2763189   4.4711207   6.0039473  )
        48           N1  tau(  48) = (   6.5201982   2.6597193  18.5868863  )
        49           N1  tau(  49) = (   6.5663212   2.9659568  17.3251533  )
        50           C1  tau(  50) = (   0.1092964   3.6297355  19.6533281  )
        51           H1  tau(  51) = (   6.1365678   4.5355971  19.4091500  )
        52           H1  tau(  52) = (   6.3142024   3.1981282  20.5813133  )
        53           H1  tau(  53) = (   1.1661384   3.8973747  19.7839464  )
        54           H1  tau(  54) = (   6.5756389   1.6632157  18.8147554  )

     number of k points=    10  Fermi-Dirac smearing, width (Ry)=  0.0073
                       cart. coord. in units 2pi/alat
        k(    1) = (   0.0000000   0.0000000   0.0000000), wk =   0.1250000
        k(    2) = (   0.0000000   0.0419351   0.0000000), wk =   0.2500000
        k(    3) = (   0.0000000  -0.0838702   0.0000000), wk =   0.1250000
        k(    4) = (   0.0379955   0.0000049   0.0000000), wk =   0.2500000
        k(    5) = (   0.0379955   0.0419400   0.0000000), wk =   0.2500000
        k(    6) = (   0.0379955  -0.0838652   0.0000000), wk =   0.2500000
        k(    7) = (   0.0379955  -0.0419301   0.0000000), wk =   0.2500000
        k(    8) = (  -0.0759910  -0.0000099   0.0000000), wk =   0.1250000
        k(    9) = (  -0.0759910   0.0419252   0.0000000), wk =   0.2500000
        k(   10) = (  -0.0759910  -0.0838800   0.0000000), wk =   0.1250000

     Initial potential from superposition of free atoms

     starting charge  379.99915, renormalised to  396.00000

     negative rho (up, down):  1.474E-02 0.000E+00

     %%%%%%%%%%%%%%%%%%%%%%%%%%%%%%%%%%%%%%%%%%%%%%%%%%%%%%%%%%%%%%%%%%%%%%%%
     %                                                                      %
     % You are using vdW-DF, which was implemented by the Thonhauser group. %
     % Please cite the following two papers that made this development      %
     % possible and the two reviews that describe the various versions:     %
     %                                                                      %
     %   T. Thonhauser et al., PRL 115, 136402 (2015).                      %
     %   T. Thonhauser et al., PRB 76, 125112 (2007).                       %
     %   K. Berland et al., Rep. Prog. Phys. 78, 066501 (2015).             %
     %   D.C. Langreth et al., J. Phys.: Condens. Matter 21, 084203 (2009). %
     %                                                                      %
     %                                                                      %
     % If you are calculating the stress with vdW-DF, please also cite:     %
     %                                                                      %
     %   R. Sabatini et al., J. Phys.: Condens. Matter 24, 424209 (2012).   %
     %                                                                      %
     %%%%%%%%%%%%%%%%%%%%%%%%%%%%%%%%%%%%%%%%%%%%%%%%%%%%%%%%%%%%%%%%%%%%%%%%

     Adding external electric field

     Computed dipole along edir(3) :
        Dipole               -9.2712 Ry au,        -23.5651 Debye
        Dipole field         -0.0175 Ry au,

        Potential amp.        1.6219 Ry
        Total length         46.3494 bohr

     Starting wfcs are  300 atomic wfcs
  @ DRIVER MODE: Message from server: STATUS
  @ DRIVER MODE: Message from server: POSDATA
  @ DRIVER MODE: Reading and sharing cell
  @ DRIVER MODE: Reading and sharing positions
  @ DRIVER MODE: Received positions

     Self-consistent Calculation

     iteration #  1     ecut=    29.40 Ry     beta= 0.05
     Davidson diagonalization with overlap
     c_bands:  1 eigenvalues not converged
     c_bands:  1 eigenvalues not converged
     c_bands:  1 eigenvalues not converged
     ethr =  1.00E-05,  avg # of iterations = 17.9

[...]

     total energy              =   -2585.27563228 Ry
     estimated scf accuracy    <    3947.29797312 Ry

     iteration #  2     ecut=    29.40 Ry     beta= 0.05
     Davidson diagonalization with overlap
     ethr =  1.00E-02,  avg # of iterations = 22.2

[...]

     iteration # 67     ecut=    29.40 Ry     beta= 0.05
     Davidson diagonalization with overlap
     c_bands:  1 eigenvalues not converged
     ethr =  1.25E-06,  avg # of iterations =  9.6

[...]

     total energy              =   -2940.39768469 Ry
     estimated scf accuracy    <       0.00000010 Ry

     iteration # 88     ecut=    29.40 Ry     beta= 0.05
     Davidson diagonalization with overlap
     ethr =  2.45E-11,  avg # of iterations =  7.2

     negative rho (up, down):  1.567E-02 0.000E+00

     Adding external electric field

     Computed dipole along edir(3) :
        Dipole                1.1320 Ry au,          2.8773 Debye
        Dipole field          0.0021 Ry au,

        Potential amp.       -0.1980 Ry
        Total length         46.3494 bohr

     End of self-consistent calculation

          k = 0.0000 0.0000 0.0000 ( 18029 PWs)   bands (ev):

   -55.6435 -55.6095 -55.5511 -55.5134 -55.4074 -55.3846 -55.3737 -55.3499
   -55.3423 -55.3349 -55.3161 -55.2653 -54.7249 -54.5852 -54.5562 -54.5512
   -32.1180 -32.0946 -31.9378 -31.9247 -31.8941 -31.8640 -31.8456 -31.8394
   -31.7967 -31.7793 -31.7787 -31.7403 -31.7309 -31.7130 -31.7022 -31.6915
   -31.6816 -31.6731 -31.6391 -31.6283 -31.6054 -31.5857 -31.5784 -31.5634
   -31.5512 -31.5445 -31.5378 -31.5363 -31.5308 -31.5136 -31.5039 -31.5029
   -31.4986 -31.4621 -31.4469 -31.3794 -31.2224 -30.9910 -30.9480 -30.9333
   -30.9063 -30.8934 -30.8836 -30.8079 -30.7645 -30.7364 -30.7216 -30.6105
   -17.9940 -16.2773 -16.0497 -15.7722 -15.6709 -15.6477 -15.5269 -15.3947
   -15.2944 -15.1990 -15.1590 -15.1047 -15.0998 -15.0706 -15.0406 -15.0047
   -14.9765 -14.9375 -14.9184 -14.8999 -14.8736 -14.8646 -14.7551 -14.7410
   -14.7167 -14.6255 -14.6153 -14.5414 -14.5161 -14.0837 -13.0877 -12.9719
   -12.0222  -8.9237  -5.7151  -4.4561  -4.1501  -3.6603  -3.5346  -3.5043
    -3.4029  -3.2258  -3.1382  -3.0779  -2.9496  -2.7645  -2.7295  -2.7197
    -2.6995  -2.6417  -2.4439  -2.4184  -2.3866  -2.3471  -2.3372  -2.3347
    -2.3207  -2.2589  -2.1918  -2.1280  -2.0287  -2.0236  -1.9682  -1.9549
    -1.9381  -1.9029  -1.8595  -1.8203  -1.7990  -1.7567  -1.7383  -1.7315
    -1.6893  -1.6073  -1.5052  -1.3477  -1.3291  -1.3003  -1.2514  -1.1974
    -1.0328  -1.0165  -0.9796  -0.9739  -0.9414  -0.8663  -0.7987  -0.7141
    -0.6773  -0.6008  -0.5852  -0.5562  -0.4820  -0.3964  -0.3737  -0.3587
    -0.3512  -0.3357  -0.2772  -0.1621  -0.0676  -0.0369   0.0838   0.0884
     0.1234   0.1674   0.1844   0.2661   0.3018   0.3159   0.3669   0.3674
     0.3792   0.4231   0.4461   0.5090   0.5649   0.6490   0.7223   0.7876
     0.8245   0.9405   1.0114   1.0766   1.1099   1.2386   1.3650   1.3747
     1.4362   1.6321   1.6343   2.0048   2.0491   3.5280   3.5492   3.6418
     3.6852   3.7833   3.8223   3.9664   4.0223   4.0593   4.1729   4.2048

[...]

          k = 0.0380-0.0419 0.0000 ( 17876 PWs)   bands (ev):

[...]

          k =-0.0760-0.0000 0.0000 ( 17886 PWs)   bands (ev):

[...]

          k =-0.0760-0.0839 0.0000 ( 17948 PWs)   bands (ev):

   -55.6266 -55.6262 -55.5380 -55.5263 -55.3906 -55.3902 -55.3756 -55.3513
   -55.3344 -55.3316 -55.3302 -55.2698 -54.7233 -54.5682 -54.5682 -54.5576
   -31.9335 -31.9334 -31.9230 -31.9229 -31.9024 -31.8931 -31.7957 -31.7859
   -31.7620 -31.7493 -31.7474 -31.7469 -31.7024 -31.6995 -31.6865 -31.6832
   -31.6751 -31.6712 -31.6705 -31.6447 -31.6008 -31.5984 -31.5862 -31.5832
   -31.5788 -31.5772 -31.5753 -31.5652 -31.5627 -31.5563 -31.5493 -31.5463
   -31.5385 -31.5286 -31.5025 -31.4676 -31.1317 -30.9676 -30.9343 -30.9215
   -30.8964 -30.8964 -30.8040 -30.8039 -30.7841 -30.7658 -30.7648 -30.7647
   -17.9882 -15.7002 -15.6889 -15.5101 -15.5050 -15.4442 -15.4380 -15.2854
   -15.2845 -15.2658 -15.2575 -15.1347 -15.1309 -15.0987 -15.0951 -15.0528
   -15.0439 -15.0266 -15.0182 -15.0166 -15.0099 -14.9824 -14.9315 -14.8987
   -14.8931 -14.7154 -14.7147 -14.5943 -14.5612 -14.2185 -13.0740 -13.0739
   -12.0231  -8.9339  -5.7072  -4.3941  -4.1528  -2.9900  -2.9780  -2.9648
    -2.7048  -2.6997  -2.6754  -2.6649  -2.4596  -2.4469  -2.4258  -2.4202
    -2.3927  -2.3870  -2.3720  -2.3649  -2.2817  -2.2712  -2.2601  -2.2362
    -2.2322  -2.2279  -2.2117  -2.2043  -2.1944  -2.1608  -2.1247  -2.0958
    -2.0611  -2.0384  -1.9189  -1.8085  -1.7313  -1.7246  -1.6941  -1.6884
    -1.6824  -1.6760  -1.6427  -1.5384  -1.4817  -1.4265  -1.2901  -1.2651
    -1.2476  -1.2014  -1.1131  -1.0323  -0.9695  -0.9517  -0.9047  -0.8616
    -0.8367  -0.7522  -0.7283  -0.7206  -0.6528  -0.6203  -0.5758  -0.5704
    -0.5540  -0.4893  -0.4412  -0.3919  -0.3689  -0.3382  -0.2927  -0.2722
    -0.2093  -0.1567  -0.1100  -0.1046  -0.0563  -0.0480   0.0172   0.1673
     0.2165   0.4698   0.4840   0.5154   0.6401   0.7106   0.7159   0.7440
     0.7763   0.8277   0.8396   0.9729   0.9847   0.9880   1.1524   1.1767
     1.2637   1.8046   1.8049   1.8681   1.8685   3.4305   3.9208   3.9381
     3.9632   3.9784   4.0492   4.0502   4.0586   4.0661   4.2630   4.2656

     the Fermi energy is     3.5051 ev

!    total energy              =   -2940.39768815 Ry
     estimated scf accuracy    <       0.00000006 Ry
     smearing contrib. (-TS)   =      -0.02302052 Ry
     internal energy E=F+TS    =   -2940.37466763 Ry

     The total energy is F=E-TS. E is the sum of the following terms:
     one-electron contribution =  -24108.82981386 Ry
     hartree contribution      =   12145.64439577 Ry
     xc contribution           =    -486.04350979 Ry
     ewald contribution        =    9508.85184201 Ry
     electric field correction =       0.00241825 Ry

     convergence has been achieved in  88 iterations

     Forces acting on atoms (cartesian axes, Ry/au):

     atom    1 type  1   force =     0.00015569   -0.00012584    0.09932089
     atom    2 type  1   force =    -0.00012432   -0.00047300   -0.17358978
     atom    3 type  2   force =    -0.00005061    0.00000227   -0.02879014
     atom    4 type  2   force =     0.00007433   -0.00124977    0.04997381
     atom    5 type  2   force =    -0.01305986    0.00057502    0.00120710
     atom    6 type  2   force =     0.01460851    0.00138253   -0.00011727
     atom    7 type  1   force =    -0.00144592   -0.00060125   -0.00835328
     atom    8 type  1   force =     0.00088148   -0.00412587    0.04513378
     atom    9 type  2   force =    -0.00003409   -0.00066121   -0.00026777
     atom   10 type  2   force =    -0.00129177    0.00227586   -0.02841056
     atom   11 type  2   force =     0.00017377    0.00060945   -0.00002885
     atom   12 type  2   force =     0.00026822    0.00040748    0.00011719
     atom   13 type  1   force =     0.00037887    0.00021147   -0.00054700
     atom   14 type  1   force =     0.00003292    0.00047357    0.00033784
     atom   15 type  2   force =     0.00034218   -0.00009986   -0.00002772
     atom   16 type  2   force =    -0.00040810   -0.00023424   -0.00019325
     atom   17 type  2   force =    -0.00101079    0.00015177   -0.00054535
     atom   18 type  2   force =     0.00089463    0.00020569    0.00021540
     atom   19 type  1   force =     0.00021916   -0.00007967    0.00005045
     atom   20 type  1   force =    -0.00047517   -0.00099784    0.00038129
     atom   21 type  2   force =     0.00009168   -0.00007041    0.10273763
     atom   22 type  2   force =     0.00010525   -0.00019012   -0.00017748
     atom   23 type  2   force =    -0.07214152   -0.00015603   -0.02832979
     atom   24 type  2   force =     0.07213953    0.00030291   -0.02832616
     atom   25 type  1   force =     0.00012102   -0.00020099    0.09863172
     atom   26 type  1   force =    -0.00010758   -0.00046143   -0.17380697
     atom   27 type  2   force =     0.00001181   -0.00002496   -0.02807423
     atom   28 type  2   force =     0.00011493   -0.00100045    0.04942779
     atom   29 type  2   force =    -0.01337964    0.00005291    0.00126847
     atom   30 type  2   force =     0.01483611    0.00041746   -0.00007548
     atom   31 type  1   force =    -0.00139596    0.00250629   -0.00864002
     atom   32 type  1   force =     0.00106426    0.00238638    0.04545495
     atom   33 type  2   force =    -0.00013121    0.00104544    0.00055366
     atom   34 type  2   force =    -0.00071692    0.00120104   -0.03115826
     atom   35 type  2   force =     0.00066877   -0.00050975   -0.00017502
     atom   36 type  2   force =    -0.00162086   -0.00010967    0.00007121
     atom   37 type  1   force =    -0.00017639   -0.00153346    0.00022015
     atom   38 type  1   force =     0.00078544   -0.00004607    0.00052904
     atom   39 type  2   force =     0.00032514    0.00015533   -0.00056736
     atom   40 type  2   force =    -0.00040309    0.00033438   -0.00004828
     atom   41 type  2   force =     0.00043053   -0.00059923    0.00001657
     atom   42 type  2   force =    -0.00042003   -0.00072630    0.00051386
     atom   43 type  1   force =     0.00036072   -0.00031044   -0.00052993
     atom   44 type  1   force =    -0.00035906   -0.00041491   -0.00015566
     atom   45 type  2   force =     0.00010972   -0.00006961    0.10275967
     atom   46 type  2   force =    -0.07216481   -0.00010053   -0.02832254
     atom   47 type  2   force =     0.07214828    0.00034100   -0.02830088
     atom   48 type  3   force =     0.00019726   -0.00257393    0.00152792
     atom   49 type  3   force =     0.00003386   -0.00197249    0.00100960
     atom   50 type  4   force =     0.00100516    0.00114473    0.00058574
     atom   51 type  5   force =    -0.00017527   -0.00037554    0.00022973
     atom   52 type  5   force =     0.00032247    0.00010553   -0.00042315
     atom   53 type  5   force =    -0.00103643    0.00053579   -0.00090108
     atom   54 type  5   force =    -0.00077228    0.00327057   -0.00339219

     Total force =     0.372234     Total SCF correction =     0.000658
  @ DRIVER MODE: Message from server: STATUS
  @ DRIVER MODE: Message from server: GETFORCE
  @ DRIVER MODE: Returning v,forces,stress,ensemble

     Writing output data file ./calc.save/
  @ DRIVER MODE: Message from server: EXIT
  @ DRIVE MODE: Exiting

     General routines

     Parallel routines

   This run was terminated on:  14:28:38  25Aug2021

   JOB DONE.