     Program PWSCF v.6.7GPU starts on 26Sep2021 at 18:16:15

     R & G space division:  proc/nbgrp/npool/nimage =       8
     Reading input from /storage/home/hcoda1/3/ntian30/research/carbon/CxH_vib/CH_calc/ads_slab/CHONHNH2_b/out_0016/pw.inp
Warning: card &CELL ignored
Warning: card   CELL_DYNAMICS='IPI', ignored
Warning: card / ignored

     Current dimensions of program PWSCF are:
     Max number of different atomic species (ntypx) = 10
     Max number of k-points (npk) =  40000
     Max angular momentum in pseudopotentials (lmaxx) =  3
     Presently no symmetry can be used with electric field

     Message from routine cell_base_init:
     DEPRECATED: use true lattice parameter, not A to a.u. conversion factor

     IMPORTANT: XC functional enforced from input :
     Exchange-correlation= BEEF-VDW
                           (   1   4  43  14   2   0   0)
     Any further DFT definition will be discarded
     Please, verify this is what you really want

  @ DRIVER MODE: Connecting to
 qe_1139763_2982672.sched-torque.pace.gatech.edu68eyob49_scratch
  using UNIX socket
  @ DRIVER MODE: Message from server: STATUS
  @ DRIVER MODE: Message from server: INIT
  @ DRIVER MODE: Receiving replica           0          -1
  @ DRIVER MODE: Receiving encoded integer          25
  @ DRIVER MODE:  SCF:  T  FORCE:  T  STRESS:  F  VC:  F  ENSEMBLE:  F
  @ DRIVER MODE:  SCF:  T  FORCE:  T  STRESS:  F  VC:  F  ENSEMBLE:  F

     Using Slab Decomposition

     bravais-lattice index     =            0
     lattice parameter (alat)  =       1.8897  a.u.
     unit-cell volume          =    6658.9804 (a.u.)^3
     number of atoms/cell      =           55
     number of atomic types    =            5
     number of electrons       =       402.00
     number of Kohn-Sham states=          211
     kinetic-energy cutoff     =      29.3995  Ry
     charge density cutoff     =     293.9946  Ry
     scf convergence threshold =      7.3E-08
     mixing beta               =       0.0500
     number of iterations used =            8  plain     mixing
     Exchange-correlation= BEEF-VDW
                           (   1   4  43  14   2   0   0)

     celldm(1)=   1.889726  celldm(2)=   0.000000  celldm(3)=   0.000000
     celldm(4)=   0.000000  celldm(5)=   0.000000  celldm(6)=   0.000000

     crystal axes: (cart. coord. in units of alat)
               a(1) = (   6.579727   0.000000   0.000000 )
               a(2) = (  -0.000775   5.961596   0.000000 )
               a(3) = (   0.000000   0.000000  25.155947 )

     reciprocal axes: (cart. coord. in units 2 pi/alat)
               b(1) = (  0.151982  0.000020  0.000000 )
               b(2) = (  0.000000  0.167740  0.000000 )
               b(3) = (  0.000000  0.000000  0.039752 )

     PseudoPot. # 1 for O  read from file:
     /storage/coda1/p-amedford6/0/shared/rich_project_chbe-medford/medford-share/data/pseudos_module/espresso/nninc/pbe/van/O.UPF
     MD5 check sum: 78c19812648e8988a0fe644b0f25305e
     Pseudo is Ultrasoft, Zval =  6.0
     Generated by new atomic code, or converted to UPF format
     Using radial grid of  737 points,  4 beta functions with:
                l(1) =   0
                l(2) =   0
                l(3) =   1
                l(4) =   1
     Q(r) pseudized with  8 coefficients,  rinner =    0.800   0.800   0.800

     PseudoPot. # 2 for Ti read from file:
     /storage/coda1/p-amedford6/0/shared/rich_project_chbe-medford/medford-share/data/pseudos_module/espresso/nninc/pbe/van/Ti.UPF
     MD5 check sum: 8e4df49b7f0d34bbd5052bf3f5ea0213
     Pseudo is Ultrasoft, Zval = 12.0
     Generated by new atomic code, or converted to UPF format
     Using radial grid of  851 points,  6 beta functions with:
                l(1) =   0
                l(2) =   0
                l(3) =   1
                l(4) =   1
                l(5) =   2
                l(6) =   2
     Q(r) pseudized with  8 coefficients,  rinner =    1.000   1.000   1.000
                                                       1.000   1.000

     PseudoPot. # 3 for N  read from file:
     /storage/coda1/p-amedford6/0/shared/rich_project_chbe-medford/medford-share/data/pseudos_module/espresso/nninc/pbe/van/N.UPF
     MD5 check sum: 90d10febe142ad51ac9d5be1deb811c4
     Pseudo is Ultrasoft, Zval =  5.0
     Generated by new atomic code, or converted to UPF format
     Using radial grid of  729 points,  4 beta functions with:
                l(1) =   0
                l(2) =   0
                l(3) =   1
                l(4) =   1
     Q(r) pseudized with  8 coefficients,  rinner =    0.800   0.800   0.800

     PseudoPot. # 4 for H  read from file:
     /storage/coda1/p-amedford6/0/shared/rich_project_chbe-medford/medford-share/data/pseudos_module/espresso/nninc/pbe/van/H.UPF
     MD5 check sum: b5ee9d7bfd3a09ee7748110bda690ff7
     Pseudo is Ultrasoft, Zval =  1.0
     Generated by new atomic code, or converted to UPF format
     Using radial grid of  615 points,  1 beta functions with:
                l(1) =   0
     Q(r) pseudized with  8 coefficients,  rinner =    0.800

     PseudoPot. # 5 for C  read from file:
     /storage/coda1/p-amedford6/0/shared/rich_project_chbe-medford/medford-share/data/pseudos_module/espresso/nninc/pbe/van/C.UPF
     MD5 check sum: 1a69bf6b8db32088f5b2163dbdb77a27
     Pseudo is Ultrasoft, Zval =  4.0
     Generated by new atomic code, or converted to UPF format
     Using radial grid of  721 points,  4 beta functions with:
                l(1) =   0
                l(2) =   0
                l(3) =   1
                l(4) =   1
     Q(r) pseudized with  8 coefficients,  rinner =    0.800   0.800   0.800

     atomic species   valence    mass     pseudopotential
        O1             6.00    15.99900     O ( 1.00)
        Ti1           12.00    47.86700     Ti( 1.00)
        N1             5.00    14.00700     N ( 1.00)
        H1             1.00     1.00800     H ( 1.00)
        C1             4.00    12.01100     C ( 1.00)

     No symmetry found

   Cartesian axes

     site n.     atom                  positions (alat units)
         1           O1  tau(   1) = (   3.2904802   0.0005063   4.7018136  )
         2           O1  tau(   2) = (   3.2900926   2.9813045   4.7018136  )
         3           Ti1 tau(   3) = (   0.0004258   2.9801865   6.0000000  )
         4           Ti1 tau(   4) = (   0.0000382   5.9609847   6.0000000  )
         5           Ti1 tau(   5) = (   3.2906075   1.4906267   6.0002472  )
         6           Ti1 tau(   6) = (   3.2902200   4.4714249   6.0002472  )
         7           O1  tau(   7) = (   1.3043587   1.4918075   6.0039043  )
         8           O1  tau(   8) = (   1.3039711   4.4726057   6.0039043  )
         9           O1  tau(   9) = (   5.2767064   1.4903225   6.0039473  )
        10           O1  tau(  10) = (   5.2763189   4.4711207   6.0039473  )
        11           O1  tau(  11) = (   3.2906025   0.0005020   7.3038282  )
        12           O1  tau(  12) = (   3.2902150   2.9813002   7.3038282  )
        13           O1  tau(  13) = (   0.0006271   0.0005054   7.9858123  )
        14           O1  tau(  14) = (   0.0002396   2.9813036   7.9858123  )
        15           Ti1 tau(  15) = (   3.2907910   2.8959150   9.1758416  )
        16           Ti1 tau(  16) = (   3.2891106   5.8743827   9.1763621  )
        17           Ti1 tau(  17) = (   0.0015273   1.4827037   9.2680791  )
        18           Ti1 tau(  18) = (   0.0006254   4.4649316   9.2693709  )
        19           O1  tau(  19) = (   4.5942328   1.4918067   9.2879030  )
        20           O1  tau(  20) = (   4.5938453   4.4726049   9.2879030  )
        21           O1  tau(  21) = (   1.9868534   1.4903216   9.2879459  )
        22           O1  tau(  22) = (   1.9864658   4.4711199   9.2879459  )
        23           O1  tau(  23) = (   0.0116148   5.9584955  10.6183126  )
        24           O1  tau(  24) = (   0.0092240   2.9805883  10.6323155  )
        25           O1  tau(  25) = (   3.2729272   2.9749101  11.3358637  )
        26           O1  tau(  26) = (   3.2774458   5.9577983  11.3358029  )
        27           Ti1 tau(  27) = (   6.5123228   0.0223980  12.5466522  )
        28           Ti1 tau(  28) = (   6.5139447   2.9993280  12.6164542  )
        29           Ti1 tau(  29) = (   3.1950650   4.4673527  12.4897579  )
        30           Ti1 tau(  30) = (   3.1950454   1.4921031  12.4944583  )
        31           O1  tau(  31) = (   5.2839716   4.4726476  12.6140382  )
        32           O1  tau(  32) = (   1.2968206   4.4781603  12.6268461  )
        33           O1  tau(  33) = (   5.2856119   1.4917077  12.6233973  )
        34           O1  tau(  34) = (   1.2888650   1.4770595  12.6372879  )
        35           O1  tau(  35) = (   3.2788258   2.9629383  13.9230881  )
        36           O1  tau(  36) = (   3.2980453   5.9500611  13.9147740  )
        37           O1  tau(  37) = (   6.5334376   5.9389224  14.6738689  )
        38           O1  tau(  38) = (   6.5776160   3.0156023  14.6540868  )
        39           Ti1 tau(  39) = (   3.2542760   2.9504115  15.7371360  )
        40           Ti1 tau(  40) = (   3.3062714   5.9309079  15.7116640  )
        41           Ti1 tau(  41) = (   6.5650095   1.2976281  16.1142359  )
        42           Ti1 tau(  42) = (   0.0079766   4.4268374  15.8391656  )
        43           O1  tau(  43) = (   2.0280489   1.4492115  16.0660627  )
        44           O1  tau(  44) = (   4.5116609   1.4624326  16.0993158  )
        45           O1  tau(  45) = (   2.0244938   4.4513709  16.0356871  )
        46           O1  tau(  46) = (   4.5113612   4.4342832  16.0730653  )
        47           O1  tau(  47) = (   6.5716746   5.9215154  17.2308814  )
        48           N1  tau(  48) = (   5.9800345   2.9984367  18.5879729  )
        49           H1  tau(  49) = (   4.9797160   2.8240766  18.4383897  )
        50           H1  tau(  50) = (   1.6245422   1.3525840  19.0439533  )
        51           H1  tau(  51) = (   6.0578502   3.9810051  18.8619266  )
        52           N1  tau(  52) = (   2.1403542   1.9713023  19.6616680  )
        53           C1  tau(  53) = (   2.8938676   2.8537551  19.2737185  )
        54           H1  tau(  54) = (   3.3792091   3.5764479  19.9483559  )
        55           O1  tau(  55) = (   6.5521836   2.9666373  17.2729174  )

     number of k points=    10  Fermi-Dirac smearing, width (Ry)=  0.0073
                       cart. coord. in units 2pi/alat
        k(    1) = (   0.0000000   0.0000000   0.0000000), wk =   0.1250000
        k(    2) = (   0.0000000   0.0419351   0.0000000), wk =   0.2500000
        k(    3) = (   0.0000000  -0.0838702   0.0000000), wk =   0.1250000
        k(    4) = (   0.0379955   0.0000049   0.0000000), wk =   0.2500000
        k(    5) = (   0.0379955   0.0419400   0.0000000), wk =   0.2500000
        k(    6) = (   0.0379955  -0.0838652   0.0000000), wk =   0.2500000
        k(    7) = (   0.0379955  -0.0419301   0.0000000), wk =   0.2500000
        k(    8) = (  -0.0759910  -0.0000099   0.0000000), wk =   0.1250000
        k(    9) = (  -0.0759910   0.0419252   0.0000000), wk =   0.2500000
        k(   10) = (  -0.0759910  -0.0838800   0.0000000), wk =   0.1250000

     Initial potential from superposition of free atoms

     starting charge  385.99915, renormalised to  402.00000

     negative rho (up, down):  1.542E-02 0.000E+00

     %%%%%%%%%%%%%%%%%%%%%%%%%%%%%%%%%%%%%%%%%%%%%%%%%%%%%%%%%%%%%%%%%%%%%%%%
     %                                                                      %
     % You are using vdW-DF, which was implemented by the Thonhauser group. %
     % Please cite the following two papers that made this development      %
     % possible and the two reviews that describe the various versions:     %
     %                                                                      %
     %   T. Thonhauser et al., PRL 115, 136402 (2015).                      %
     %   T. Thonhauser et al., PRB 76, 125112 (2007).                       %
     %   K. Berland et al., Rep. Prog. Phys. 78, 066501 (2015).             %
     %   D.C. Langreth et al., J. Phys.: Condens. Matter 21, 084203 (2009). %
     %                                                                      %
     %                                                                      %
     % If you are calculating the stress with vdW-DF, please also cite:     %
     %                                                                      %
     %   R. Sabatini et al., J. Phys.: Condens. Matter 24, 424209 (2012).   %
     %                                                                      %
     %%%%%%%%%%%%%%%%%%%%%%%%%%%%%%%%%%%%%%%%%%%%%%%%%%%%%%%%%%%%%%%%%%%%%%%%

     Adding external electric field

     Computed dipole along edir(3) :
        Dipole              -12.8629 Ry au,        -32.6941 Debye
        Dipole field         -0.0243 Ry au,

        Potential amp.        2.2502 Ry
        Total length         46.3494 bohr

     Starting wfcs are  304 atomic wfcs
  @ DRIVER MODE: Message from server: STATUS
  @ DRIVER MODE: Message from server: POSDATA
  @ DRIVER MODE: Reading and sharing cell
  @ DRIVER MODE: Reading and sharing positions
  @ DRIVER MODE: Received positions

     Self-consistent Calculation

     iteration #  1     ecut=    29.40 Ry     beta= 0.05
     Davidson diagonalization with overlap
     c_bands:  5 eigenvalues not converged
     c_bands:  2 eigenvalues not converged
     c_bands:  2 eigenvalues not converged
     c_bands:  5 eigenvalues not converged
     c_bands:  3 eigenvalues not converged
     c_bands:  3 eigenvalues not converged
     c_bands:  2 eigenvalues not converged
     c_bands:  3 eigenvalues not converged
     c_bands:  1 eigenvalues not converged
     ethr =  1.00E-05,  avg # of iterations = 21.5

[...]

     total energy              =   -2369.72393468 Ry
     estimated scf accuracy    <    6837.19482465 Ry

     iteration #  2     ecut=    29.40 Ry     beta= 0.05
     Davidson diagonalization with overlap
     ethr =  1.00E-02,  avg # of iterations = 23.7

[...]

     iteration # 63     ecut=    29.40 Ry     beta= 0.05
     Davidson diagonalization with overlap
     c_bands:  2 eigenvalues not converged
     ethr =  8.94E-09,  avg # of iterations = 16.5

[...]

     total energy              =   -2972.58418691 Ry
     estimated scf accuracy    <       0.00000009 Ry

     iteration # 81     ecut=    29.40 Ry     beta= 0.05
     Davidson diagonalization with overlap
     ethr =  2.22E-11,  avg # of iterations =  2.5

     negative rho (up, down):  1.520E-02 0.000E+00

     Adding external electric field

     Computed dipole along edir(3) :
        Dipole                0.4760 Ry au,          1.2099 Debye
        Dipole field          0.0009 Ry au,

        Potential amp.       -0.0833 Ry
        Total length         46.3494 bohr

     End of self-consistent calculation

          k = 0.0000 0.0000 0.0000 ( 18029 PWs)   bands (ev):

   -55.8931 -55.8733 -55.8590 -55.8353 -55.7539 -55.7336 -55.7187 -55.7047
   -55.6918 -55.6706 -55.6690 -55.6350 -55.5216 -55.3082 -54.8720 -54.8379
   -32.4185 -32.3758 -32.2523 -32.2036 -32.1933 -32.1859 -32.1696 -32.1592
   -32.1365 -32.1037 -32.0581 -32.0478 -32.0453 -32.0426 -32.0272 -32.0065
   -31.9977 -31.9976 -31.9866 -31.9735 -31.9631 -31.9518 -31.9503 -31.9081
   -31.9009 -31.8956 -31.8939 -31.8840 -31.8732 -31.8692 -31.8651 -31.8450
   -31.8356 -31.8221 -31.8114 -31.8010 -31.7811 -31.7586 -31.7273 -31.5781
   -31.5401 -31.5225 -31.2791 -31.1906 -31.1682 -31.0958 -31.0093 -30.8983
   -18.6574 -16.6141 -16.3637 -16.1210 -16.0404 -16.0057 -15.8977 -15.8537
   -15.7315 -15.6207 -15.5260 -15.4506 -15.4310 -15.4299 -15.3902 -15.3781
   -15.3521 -15.3377 -15.3284 -15.3116 -15.2867 -15.2511 -15.2355 -15.2285
   -15.1375 -15.0611 -15.0275 -14.9797 -14.9743 -14.9506 -14.5612 -13.3743
   -13.2578 -12.2306  -8.1706  -5.3137  -4.9579  -4.5179  -3.9883  -3.8496
    -3.7991  -3.7313  -3.6874  -3.5122  -3.4019  -3.1468  -3.0730  -3.0530
    -3.0301  -2.9830  -2.8788  -2.8015  -2.7046  -2.6988  -2.6964  -2.6632
    -2.6536  -2.6367  -2.5945  -2.5744  -2.5067  -2.4353  -2.3980  -2.2921
    -2.2840  -2.2484  -2.2058  -2.1964  -2.1525  -2.1312  -2.1161  -2.1101
    -2.0971  -2.0585  -2.0270  -1.9164  -1.8803  -1.7980  -1.6858  -1.6101
    -1.5019  -1.4854  -1.3670  -1.3588  -1.3337  -1.3200  -1.2857  -1.2361
    -1.1813  -1.0775  -1.0494  -1.0175  -1.0131  -0.9129  -0.8532  -0.8287
    -0.7644  -0.6913  -0.6648  -0.6525  -0.6420  -0.6087  -0.3924  -0.3503
    -0.3307  -0.2988  -0.2520  -0.1980  -0.1607  -0.1130  -0.0734  -0.0076
     0.0017   0.0532   0.0774   0.0907   0.1067   0.1176   0.1340   0.2318
     0.3214   0.3598   0.3810   0.4568   0.4619   0.6340   0.7012   0.7629
     0.8749   1.0764   1.1502   1.2350   1.3423   1.7214   1.7596   1.7672
     3.2357   3.2375   3.3287   3.3710   3.3797   3.4801   3.5327   3.6924
     3.7256   3.7582   3.7954

[...]

          k = 0.0380-0.0419 0.0000 ( 17876 PWs)   bands (ev):

[...]

          k =-0.0760-0.0000 0.0000 ( 17886 PWs)   bands (ev):

[...]

          k =-0.0760-0.0839 0.0000 ( 17948 PWs)   bands (ev):

   -55.8765 -55.8755 -55.8606 -55.8478 -55.7401 -55.7325 -55.7244 -55.7008
   -55.6887 -55.6861 -55.6546 -55.6496 -55.5202 -55.3094 -54.8549 -54.8548
   -32.2289 -32.2158 -32.1914 -32.1907 -32.1717 -32.1708 -32.1220 -32.1136
   -32.0963 -32.0871 -32.0486 -32.0398 -32.0200 -32.0122 -32.0085 -32.0068
   -32.0010 -31.9961 -31.9951 -31.9926 -31.9889 -31.9856 -31.9513 -31.9491
   -31.9431 -31.9264 -31.9195 -31.9103 -31.8888 -31.8876 -31.8851 -31.8842
   -31.8792 -31.8690 -31.8657 -31.8637 -31.8579 -31.7563 -31.7305 -31.6489
   -31.5695 -31.5298 -31.1810 -31.1808 -31.0919 -31.0918 -31.0526 -31.0526
   -18.6422 -16.0329 -16.0116 -15.8993 -15.8485 -15.8121 -15.7723 -15.7605
   -15.6843 -15.6039 -15.5834 -15.5787 -15.4964 -15.4780 -15.4649 -15.4299
   -15.4168 -15.4063 -15.4006 -15.3612 -15.3503 -15.3411 -15.3328 -15.3252
   -15.2480 -15.2123 -15.2074 -15.1920 -15.0819 -14.9560 -14.7372 -13.3597
   -13.3595 -12.2432  -8.1706  -5.3098  -4.9639  -4.4425  -3.3194  -3.2868
    -3.1058  -3.0225  -3.0070  -2.9893  -2.8781  -2.8027  -2.7965  -2.7604
    -2.7294  -2.7220  -2.7120  -2.7091  -2.6854  -2.6750  -2.6245  -2.6035
    -2.5898  -2.5647  -2.5519  -2.5496  -2.5189  -2.5055  -2.4675  -2.4468
    -2.4268  -2.4153  -2.3938  -2.3252  -2.2086  -2.1262  -2.0946  -2.0354
    -2.0250  -1.9939  -1.9605  -1.9464  -1.9228  -1.8913  -1.8613  -1.7469
    -1.6387  -1.5837  -1.5817  -1.5061  -1.4693  -1.4260  -1.3787  -1.3253
    -1.2919  -1.2806  -1.2318  -1.1698  -1.1514  -1.0774  -1.0343  -1.0039
    -0.9609  -0.9379  -0.8659  -0.8534  -0.8508  -0.8170  -0.7285  -0.7088
    -0.6552  -0.6485  -0.6216  -0.5657  -0.5470  -0.5158  -0.3924  -0.3693
    -0.2438  -0.1772  -0.0870   0.0612   0.0836   0.1774   0.2170   0.2437
     0.3015   0.4034   0.4209   0.4337   0.4527   0.4840   0.5143   0.6367
     0.6507   0.6854   0.8055   1.5140   1.5144   1.5865   1.5872   1.6060
     3.2221   3.5681   3.5748   3.5951   3.6222   3.7547   3.7567   3.7746
     3.7761   3.9105   3.9305

     the Fermi energy is     3.2393 ev

!    total energy              =   -2972.58419381 Ry
     estimated scf accuracy    <       0.00000006 Ry
     smearing contrib. (-TS)   =      -0.03079064 Ry
     internal energy E=F+TS    =   -2972.55340317 Ry

     The total energy is F=E-TS. E is the sum of the following terms:
     one-electron contribution =  -23745.01453671 Ry
     hartree contribution      =   11963.79093875 Ry
     xc contribution           =    -493.07682366 Ry
     ewald contribution        =    9301.74659088 Ry
     electric field correction =       0.00042757 Ry

     convergence has been achieved in  81 iterations

     Forces acting on atoms (cartesian axes, Ry/au):

     atom    1 type  1   force =     0.00004306   -0.00002865    0.10325410
     atom    2 type  1   force =     0.00004844   -0.00004526    0.10329239
     atom    3 type  2   force =     0.00007673   -0.00022541    0.09624004
     atom    4 type  2   force =    -0.00001738   -0.00030035    0.09602907
     atom    5 type  2   force =     0.00003161   -0.00063528   -0.17556531
     atom    6 type  2   force =    -0.00001990   -0.00024606   -0.17552648
     atom    7 type  1   force =    -0.07154585   -0.00014034   -0.02767469
     atom    8 type  1   force =    -0.07153028   -0.00012867   -0.02764819
     atom    9 type  1   force =     0.07138965    0.00028690   -0.02774226
     atom   10 type  1   force =     0.07137712    0.00031323   -0.02770548
     atom   11 type  1   force =    -0.00005617   -0.00145129    0.05288225
     atom   12 type  1   force =    -0.00002758   -0.00126016    0.05322660
     atom   13 type  1   force =     0.00000543   -0.00000079   -0.02439954
     atom   14 type  1   force =     0.00009881   -0.00023171   -0.02343215
     atom   15 type  2   force =     0.00002693    0.00048408   -0.01062729
     atom   16 type  2   force =     0.00014682    0.00349063   -0.00996543
     atom   17 type  2   force =     0.00069507    0.01061645    0.02595860
     atom   18 type  2   force =     0.00083552   -0.01140252    0.02626574
     atom   19 type  1   force =    -0.01196163   -0.00051862    0.00382721
     atom   20 type  1   force =    -0.01230688   -0.00008883    0.00374030
     atom   21 type  1   force =     0.01292250   -0.00008878    0.00216914
     atom   22 type  1   force =     0.01316960    0.00048057    0.00212601
     atom   23 type  1   force =    -0.00431762    0.00133420   -0.01322205
     atom   24 type  1   force =    -0.00236840    0.00054703   -0.02181418
     atom   25 type  1   force =     0.00024029   -0.00090637    0.00016572
     atom   26 type  1   force =     0.00001576    0.00043912    0.00081119
     atom   27 type  2   force =    -0.00042679    0.00040468   -0.00001771
     atom   28 type  2   force =    -0.00068049   -0.00051914    0.00001206
     atom   29 type  2   force =     0.00098315    0.00002760   -0.00018189
     atom   30 type  2   force =     0.00036720   -0.00073850   -0.00017234
     atom   31 type  1   force =     0.00084541    0.00012247    0.00023394
     atom   32 type  1   force =    -0.00044600   -0.00001831    0.00011809
     atom   33 type  1   force =     0.00041171   -0.00037049   -0.00002706
     atom   34 type  1   force =     0.00127137   -0.00021593   -0.00001363
     atom   35 type  1   force =     0.00030739   -0.00029604    0.00010651
     atom   36 type  1   force =     0.00026780    0.00025340   -0.00044866
     atom   37 type  1   force =     0.00019603   -0.00010979   -0.00069510
     atom   38 type  1   force =     0.00019666    0.00014235   -0.00022676
     atom   39 type  2   force =    -0.00081270    0.00022677   -0.00033333
     atom   40 type  2   force =    -0.00072774    0.00004234    0.00055221
     atom   41 type  2   force =     0.00022431   -0.00033266   -0.00030549
     atom   42 type  2   force =     0.00076978   -0.00003153    0.00031163
     atom   43 type  1   force =     0.00034799    0.00027086   -0.00035233
     atom   44 type  1   force =     0.00021202   -0.00001711   -0.00013990
     atom   45 type  1   force =     0.00038950    0.00020530   -0.00000571
     atom   46 type  1   force =     0.00008027    0.00047078    0.00014487
     atom   47 type  1   force =     0.00005464    0.00000269   -0.00029248
     atom   48 type  3   force =    -0.00078521    0.00000865   -0.00097214
     atom   49 type  4   force =     0.00095697    0.00049830    0.00019771
     atom   50 type  4   force =    -0.00497877   -0.00705815   -0.00582488
     atom   51 type  4   force =    -0.00026666    0.00070725   -0.00016774
     atom   52 type  3   force =     0.00342792    0.00476746    0.00477360
     atom   53 type  5   force =     0.00123310    0.00260455    0.00088355
     atom   54 type  4   force =    -0.00031563   -0.00114412   -0.00111557
     atom   55 type  1   force =    -0.00007490   -0.00019679   -0.00070680

     Total force =     0.367554     Total SCF correction =     0.000710
  @ DRIVER MODE: Message from server: STATUS
  @ DRIVER MODE: Message from server: GETFORCE
  @ DRIVER MODE: Returning v,forces,stress,ensemble

     Writing output data file ./calc.save/
  @ DRIVER MODE: Message from server: EXIT
  @ DRIVE MODE: Exiting

     General routines

     Parallel routines

   This run was terminated on:  18:42:59  26Sep2021

   JOB DONE.