     Program PWSCF v.6.7GPU starts on 24Aug2021 at  1:19:56

     R & G space division:  proc/nbgrp/npool/nimage =       6
     Reading input from /storage/home/hcoda1/3/ntian30/research/carbon/CH_vib/ads_slab/CHNNH3_a/out_0025/pw.inp
Warning: card &CELL ignored
Warning: card   CELL_DYNAMICS='IPI', ignored
Warning: card / ignored

     Current dimensions of program PWSCF are:
     Max number of different atomic species (ntypx) = 10
     Max number of k-points (npk) =  40000
     Max angular momentum in pseudopotentials (lmaxx) =  3
     Presently no symmetry can be used with electric field

     Message from routine cell_base_init:
     DEPRECATED: use true lattice parameter, not A to a.u. conversion factor

     IMPORTANT: XC functional enforced from input :
     Exchange-correlation= BEEF-VDW
                           (   1   4  43  14   2   0   0)
     Any further DFT definition will be discarded
     Please, verify this is what you really want

  @ DRIVER MODE: Connecting to
 qe_1139763_2632800.sched-torque.pace.gatech.edu1soqcmpx_scratch
  using UNIX socket
  @ DRIVER MODE: Message from server: STATUS
  @ DRIVER MODE: Message from server: INIT
  @ DRIVER MODE: Receiving replica           0          -1
  @ DRIVER MODE: Receiving encoded integer          25
  @ DRIVER MODE:  SCF:  T  FORCE:  T  STRESS:  F  VC:  F  ENSEMBLE:  F
  @ DRIVER MODE:  SCF:  T  FORCE:  T  STRESS:  F  VC:  F  ENSEMBLE:  F

     Using Slab Decomposition

     bravais-lattice index     =            0
     lattice parameter (alat)  =       1.8897  a.u.
     unit-cell volume          =    6658.9804 (a.u.)^3
     number of atoms/cell      =           54
     number of atomic types    =            5
     number of electrons       =       396.00
     number of Kohn-Sham states=          208
     kinetic-energy cutoff     =      29.3995  Ry
     charge density cutoff     =     293.9946  Ry
     scf convergence threshold =      7.3E-08
     mixing beta               =       0.0500
     number of iterations used =            8  plain     mixing
     Exchange-correlation= BEEF-VDW
                           (   1   4  43  14   2   0   0)

     celldm(1)=   1.889726  celldm(2)=   0.000000  celldm(3)=   0.000000
     celldm(4)=   0.000000  celldm(5)=   0.000000  celldm(6)=   0.000000

     crystal axes: (cart. coord. in units of alat)
               a(1) = (   6.579727   0.000000   0.000000 )
               a(2) = (  -0.000775   5.961596   0.000000 )
               a(3) = (   0.000000   0.000000  25.155947 )

     reciprocal axes: (cart. coord. in units 2 pi/alat)
               b(1) = (  0.151982  0.000020  0.000000 )
               b(2) = (  0.000000  0.167740  0.000000 )
               b(3) = (  0.000000  0.000000  0.039752 )

     PseudoPot. # 1 for Ti read from file:
     /storage/coda1/p-amedford6/0/shared/rich_project_chbe-medford/medford-share/data/pseudos_module/espresso/nninc/pbe/van/Ti.UPF
     MD5 check sum: 8e4df49b7f0d34bbd5052bf3f5ea0213
     Pseudo is Ultrasoft, Zval = 12.0
     Generated by new atomic code, or converted to UPF format
     Using radial grid of  851 points,  6 beta functions with:
                l(1) =   0
                l(2) =   0
                l(3) =   1
                l(4) =   1
                l(5) =   2
                l(6) =   2
     Q(r) pseudized with  8 coefficients,  rinner =    1.000   1.000   1.000
                                                       1.000   1.000

     PseudoPot. # 2 for O  read from file:
     /storage/coda1/p-amedford6/0/shared/rich_project_chbe-medford/medford-share/data/pseudos_module/espresso/nninc/pbe/van/O.UPF
     MD5 check sum: 78c19812648e8988a0fe644b0f25305e
     Pseudo is Ultrasoft, Zval =  6.0
     Generated by new atomic code, or converted to UPF format
     Using radial grid of  737 points,  4 beta functions with:
                l(1) =   0
                l(2) =   0
                l(3) =   1
                l(4) =   1
     Q(r) pseudized with  8 coefficients,  rinner =    0.800   0.800   0.800

     PseudoPot. # 3 for N  read from file:
     /storage/coda1/p-amedford6/0/shared/rich_project_chbe-medford/medford-share/data/pseudos_module/espresso/nninc/pbe/van/N.UPF
     MD5 check sum: 90d10febe142ad51ac9d5be1deb811c4
     Pseudo is Ultrasoft, Zval =  5.0
     Generated by new atomic code, or converted to UPF format
     Using radial grid of  729 points,  4 beta functions with:
                l(1) =   0
                l(2) =   0
                l(3) =   1
                l(4) =   1
     Q(r) pseudized with  8 coefficients,  rinner =    0.800   0.800   0.800

     PseudoPot. # 4 for C  read from file:
     /storage/coda1/p-amedford6/0/shared/rich_project_chbe-medford/medford-share/data/pseudos_module/espresso/nninc/pbe/van/C.UPF
     MD5 check sum: 1a69bf6b8db32088f5b2163dbdb77a27
     Pseudo is Ultrasoft, Zval =  4.0
     Generated by new atomic code, or converted to UPF format
     Using radial grid of  721 points,  4 beta functions with:
                l(1) =   0
                l(2) =   0
                l(3) =   1
                l(4) =   1
     Q(r) pseudized with  8 coefficients,  rinner =    0.800   0.800   0.800

     PseudoPot. # 5 for H  read from file:
     /storage/coda1/p-amedford6/0/shared/rich_project_chbe-medford/medford-share/data/pseudos_module/espresso/nninc/pbe/van/H.UPF
     MD5 check sum: b5ee9d7bfd3a09ee7748110bda690ff7
     Pseudo is Ultrasoft, Zval =  1.0
     Generated by new atomic code, or converted to UPF format
     Using radial grid of  615 points,  1 beta functions with:
                l(1) =   0
     Q(r) pseudized with  8 coefficients,  rinner =    0.800

     atomic species   valence    mass     pseudopotential
        Ti1           12.00    47.86700     Ti( 1.00)
        O1             6.00    15.99900     O ( 1.00)
        N1             5.00    14.00700     N ( 1.00)
        C1             4.00    12.01100     C ( 1.00)
        H1             1.00     1.00800     H ( 1.00)

     No symmetry found

   Cartesian axes

     site n.     atom                  positions (alat units)
         1           Ti1 tau(   1) = (   0.0004258   2.9801865   6.0000000  )
         2           Ti1 tau(   2) = (   3.2906075   1.4906267   6.0002472  )
         3           O1  tau(   3) = (   0.0006271   0.0005054   7.9858123  )
         4           O1  tau(   4) = (   3.2906025   0.0005020   7.3038282  )
         5           O1  tau(   5) = (   4.5942328   1.4918067   9.2879030  )
         6           O1  tau(   6) = (   1.9868534   1.4903216   9.2879459  )
         7           Ti1 tau(   7) = (   3.2907910   2.8959150   9.1758416  )
         8           Ti1 tau(   8) = (   0.0015273   1.4827037   9.2680791  )
         9           O1  tau(   9) = (   3.2881108   5.9505233  11.3735460  )
        10           O1  tau(  10) = (   0.0116148   5.9584955  10.6183126  )
        11           O1  tau(  11) = (   1.2866665   1.4805866  12.6825740  )
        12           O1  tau(  12) = (   5.2924821   1.4818622  12.6792165  )
        13           Ti1 tau(  13) = (   0.0021322   2.9639872  12.5157261  )
        14           Ti1 tau(  14) = (   3.2862601   1.4710115  12.5283183  )
        15           O1  tau(  15) = (   6.5551702   5.8950557  14.7042857  )
        16           O1  tau(  16) = (   3.2890300   5.9388001  13.9877656  )
        17           O1  tau(  17) = (   4.5349758   1.4880922  16.1718967  )
        18           O1  tau(  18) = (   2.0258431   1.4790072  16.1496753  )
        19           Ti1 tau(  19) = (   3.2732025   2.9690136  15.7622034  )
        20           Ti1 tau(  20) = (   6.5610264   1.3286824  15.8731419  )
        21           O1  tau(  21) = (   3.2904802   0.0005063   4.7018136  )
        22           O1  tau(  22) = (   6.5785393   0.0648448  17.2431192  )
        23           O1  tau(  23) = (   1.3043587   1.4918075   6.0039043  )
        24           O1  tau(  24) = (   5.2767064   1.4903225   6.0039473  )
        25           Ti1 tau(  25) = (   0.0000382   5.9609847   6.0000000  )
        26           Ti1 tau(  26) = (   3.2902200   4.4714249   6.0002472  )
        27           O1  tau(  27) = (   0.0002396   2.9813036   7.9858123  )
        28           O1  tau(  28) = (   3.2902150   2.9813002   7.3038282  )
        29           O1  tau(  29) = (   4.5938453   4.4726049   9.2879030  )
        30           O1  tau(  30) = (   1.9864658   4.4711199   9.2879459  )
        31           Ti1 tau(  31) = (   3.2891106   5.8743827   9.1763621  )
        32           Ti1 tau(  32) = (   0.0006254   4.4649316   9.2693709  )
        33           O1  tau(  33) = (   3.2883663   2.9615298  11.3703760  )
        34           O1  tau(  34) = (   0.0092240   2.9805883  10.6323155  )
        35           O1  tau(  35) = (   1.2870507   4.4533538  12.6624524  )
        36           O1  tau(  36) = (   5.2892318   4.4513974  12.6520950  )
        37           Ti1 tau(  37) = (   6.5724215   5.9362995  12.5032772  )
        38           Ti1 tau(  38) = (   3.2850067   4.4496593  12.5237361  )
        39           O1  tau(  39) = (   6.5755915   2.9911963  14.9688396  )
        40           O1  tau(  40) = (   3.2879019   2.9755095  13.9706832  )
        41           O1  tau(  41) = (   4.5370027   4.4458050  16.2043726  )
        42           O1  tau(  42) = (   2.0318725   4.4540161  16.1993262  )
        43           Ti1 tau(  43) = (   3.2771836   5.9440081  15.7837661  )
        44           Ti1 tau(  44) = (   6.5399960   4.5546841  16.0715688  )
        45           O1  tau(  45) = (   3.2900926   2.9813045   4.7018136  )
        46           O1  tau(  46) = (   1.3039711   4.4726057   6.0039043  )
        47           O1  tau(  47) = (   5.2763189   4.4711207   6.0039473  )
        48           N1  tau(  48) = (   0.1065663   3.2111123  17.9981644  )
        49           C1  tau(  49) = (   0.5134299   2.5375629  18.8400175  )
        50           H1  tau(  50) = (   1.0173682   1.8396193  19.5020221  )
        51           N1  tau(  51) = (   2.4304062   0.3108210  19.4519584  )
        52           H1  tau(  52) = (   3.2427645   0.6626300  18.9680575  )
        53           H1  tau(  53) = (   1.8610457   5.7841108  18.7610151  )
        54           H1  tau(  54) = (   2.7602249   5.5844085  20.1185638  )

     number of k points=    10  Fermi-Dirac smearing, width (Ry)=  0.0073
                       cart. coord. in units 2pi/alat
        k(    1) = (   0.0000000   0.0000000   0.0000000), wk =   0.1250000
        k(    2) = (   0.0000000   0.0419351   0.0000000), wk =   0.2500000
        k(    3) = (   0.0000000  -0.0838702   0.0000000), wk =   0.1250000
        k(    4) = (   0.0379955   0.0000049   0.0000000), wk =   0.2500000
        k(    5) = (   0.0379955   0.0419400   0.0000000), wk =   0.2500000
        k(    6) = (   0.0379955  -0.0838652   0.0000000), wk =   0.2500000
        k(    7) = (   0.0379955  -0.0419301   0.0000000), wk =   0.2500000
        k(    8) = (  -0.0759910  -0.0000099   0.0000000), wk =   0.1250000
        k(    9) = (  -0.0759910   0.0419252   0.0000000), wk =   0.2500000
        k(   10) = (  -0.0759910  -0.0838800   0.0000000), wk =   0.1250000

     Initial potential from superposition of free atoms

     starting charge  379.99915, renormalised to  396.00000

     negative rho (up, down):  1.529E-02 0.000E+00

     %%%%%%%%%%%%%%%%%%%%%%%%%%%%%%%%%%%%%%%%%%%%%%%%%%%%%%%%%%%%%%%%%%%%%%%%
     %                                                                      %
     % You are using vdW-DF, which was implemented by the Thonhauser group. %
     % Please cite the following two papers that made this development      %
     % possible and the two reviews that describe the various versions:     %
     %                                                                      %
     %   T. Thonhauser et al., PRL 115, 136402 (2015).                      %
     %   T. Thonhauser et al., PRB 76, 125112 (2007).                       %
     %   K. Berland et al., Rep. Prog. Phys. 78, 066501 (2015).             %
     %   D.C. Langreth et al., J. Phys.: Condens. Matter 21, 084203 (2009). %
     %                                                                      %
     %                                                                      %
     % If you are calculating the stress with vdW-DF, please also cite:     %
     %                                                                      %
     %   R. Sabatini et al., J. Phys.: Condens. Matter 24, 424209 (2012).   %
     %                                                                      %
     %%%%%%%%%%%%%%%%%%%%%%%%%%%%%%%%%%%%%%%%%%%%%%%%%%%%%%%%%%%%%%%%%%%%%%%%

     Adding external electric field

     Computed dipole along edir(3) :
        Dipole              -10.2017 Ry au,        -25.9301 Debye
        Dipole field         -0.0193 Ry au,

        Potential amp.        1.7846 Ry
        Total length         46.3494 bohr

     Starting wfcs are  300 atomic wfcs
  @ DRIVER MODE: Message from server: STATUS
  @ DRIVER MODE: Message from server: POSDATA
  @ DRIVER MODE: Reading and sharing cell
  @ DRIVER MODE: Reading and sharing positions
  @ DRIVER MODE: Received positions

     Self-consistent Calculation

     iteration #  1     ecut=    29.40 Ry     beta= 0.05
     Davidson diagonalization with overlap
     c_bands:  1 eigenvalues not converged
     c_bands:  2 eigenvalues not converged
     c_bands:  2 eigenvalues not converged
     c_bands:  1 eigenvalues not converged
     c_bands:  2 eigenvalues not converged
     c_bands:  2 eigenvalues not converged
     c_bands:  2 eigenvalues not converged
     c_bands:  3 eigenvalues not converged
     c_bands:  2 eigenvalues not converged
     c_bands:  1 eigenvalues not converged
     ethr =  1.00E-05,  avg # of iterations = 20.0

[...]

     total energy              =   -2543.63844444 Ry
     estimated scf accuracy    <    4454.06201741 Ry

     iteration #  2     ecut=    29.40 Ry     beta= 0.05
     Davidson diagonalization with overlap
     ethr =  1.00E-02,  avg # of iterations = 27.2

[...]

     iteration # 78     ecut=    29.40 Ry     beta= 0.05
     Davidson diagonalization with overlap
     ethr =  6.60E-11,  avg # of iterations =  4.4

[...]

     total energy              =   -2940.42008265 Ry
     estimated scf accuracy    <       0.00000022 Ry

     iteration # 80     ecut=    29.40 Ry     beta= 0.05
     Davidson diagonalization with overlap
     c_bands:  1 eigenvalues not converged
     ethr =  4.02E-11,  avg # of iterations = 12.8

     negative rho (up, down):  1.581E-02 0.000E+00

     Adding external electric field

     Computed dipole along edir(3) :
        Dipole                1.3072 Ry au,          3.3225 Debye
        Dipole field          0.0025 Ry au,

        Potential amp.       -0.2287 Ry
        Total length         46.3494 bohr

     End of self-consistent calculation

          k = 0.0000 0.0000 0.0000 ( 18029 PWs)   bands (ev):

   -55.3719 -55.3359 -55.3241 -55.2899 -55.2483 -55.2426 -55.2176 -55.2136
   -55.1894 -55.1729 -55.1551 -55.1531 -55.1195 -55.0885 -54.3515 -54.3174
   -31.9395 -31.8164 -31.8058 -31.7363 -31.6821 -31.6789 -31.6716 -31.6584
   -31.6130 -31.6029 -31.5804 -31.5727 -31.5686 -31.5417 -31.5268 -31.5210
   -31.5082 -31.4972 -31.4865 -31.4842 -31.4765 -31.4619 -31.4378 -31.4264
   -31.4262 -31.4200 -31.3920 -31.3919 -31.3812 -31.3790 -31.3712 -31.3522
   -31.3505 -31.3452 -31.3392 -31.3371 -31.3033 -31.2898 -31.2873 -31.2812
   -31.2641 -31.2123 -30.7608 -30.6668 -30.6448 -30.5772 -30.4904 -30.3795
   -16.9960 -16.1935 -15.9257 -15.7783 -15.6666 -15.5670 -15.4439 -15.4247
   -15.2937 -15.2057 -15.0859 -15.0421 -15.0191 -15.0056 -14.9903 -14.9843
   -14.9126 -14.9075 -14.9002 -14.8825 -14.8640 -14.8500 -14.8082 -14.8061
   -14.7659 -14.7453 -14.6959 -14.6080 -14.5266 -14.4577 -14.1643 -12.8540
   -12.7366  -8.1819  -5.0267  -4.9057  -4.3216  -3.5341  -3.3845  -3.2877
    -3.2689  -3.2633  -3.1198  -3.0702  -2.9637  -2.8783  -2.7624  -2.6989
    -2.6244  -2.5725  -2.5586  -2.5405  -2.3645  -2.3317  -2.2889  -2.2425
    -2.2110  -2.1768  -2.1556  -2.1282  -2.1156  -2.1091  -2.0762  -1.9324
    -1.8913  -1.8417  -1.7911  -1.7677  -1.7114  -1.6937  -1.6568  -1.6505
    -1.6451  -1.5996  -1.5807  -1.5510  -1.4596  -1.3921  -1.2775  -1.2191
    -1.0781  -1.0070  -0.9526  -0.9388  -0.8573  -0.8540  -0.8268  -0.7492
    -0.7419  -0.7093  -0.5882  -0.4895  -0.4526  -0.4017  -0.3532  -0.3246
    -0.2827  -0.1976  -0.1471  -0.1341  -0.1241  -0.0269   0.0244   0.0361
     0.1107   0.1563   0.1730   0.1782   0.2923   0.3062   0.3724   0.4212
     0.4510   0.5197   0.5678   0.5723   0.5824   0.6172   0.6189   0.7101
     0.7315   0.7401   0.8144   0.9599   1.1798   1.2361   1.2440   1.5778
     1.5800   1.6713   1.8551   2.2472   2.2954   3.7266   3.7988   3.8722
     3.8788   3.9039   3.9644   4.2033   4.2071   4.2306   4.2321   4.2610

[...]

          k = 0.0380-0.0419 0.0000 ( 17876 PWs)   bands (ev):

[...]

          k =-0.0760-0.0000 0.0000 ( 17886 PWs)   bands (ev):

[...]

          k =-0.0760-0.0839 0.0000 ( 17948 PWs)   bands (ev):

   -55.3553 -55.3523 -55.3072 -55.3067 -55.2379 -55.2336 -55.2282 -55.2151
   -55.1773 -55.1731 -55.1710 -55.1367 -55.1361 -55.0909 -54.3345 -54.3343
   -31.7443 -31.7419 -31.7261 -31.6476 -31.6317 -31.6313 -31.6258 -31.5984
   -31.5981 -31.5786 -31.5720 -31.5675 -31.5591 -31.5112 -31.5062 -31.5042
   -31.5030 -31.5027 -31.4967 -31.4918 -31.4698 -31.4664 -31.4457 -31.4442
   -31.4428 -31.4382 -31.4271 -31.4268 -31.4264 -31.4206 -31.4060 -31.4041
   -31.4006 -31.3863 -31.3839 -31.3681 -31.3658 -31.3655 -31.3173 -31.3169
   -31.3039 -31.2950 -30.6575 -30.6573 -30.5734 -30.5732 -30.5339 -30.5338
   -16.9883 -15.6992 -15.5973 -15.5787 -15.3867 -15.3704 -15.3389 -15.3348
   -15.1831 -15.1539 -15.1465 -15.1287 -15.0802 -15.0724 -15.0666 -15.0557
   -14.9758 -14.9650 -14.9628 -14.9457 -14.8979 -14.8845 -14.8746 -14.8715
   -14.8618 -14.8195 -14.8158 -14.7221 -14.7192 -14.6339 -14.5274 -12.8381
   -12.8381  -8.1837  -5.0270  -4.9032  -4.3222  -2.9969  -2.8956  -2.8547
    -2.8428  -2.8035  -2.5986  -2.5664  -2.5380  -2.4811  -2.4137  -2.3721
    -2.3616  -2.3417  -2.2821  -2.2336  -2.2289  -2.2110  -2.1908  -2.1890
    -2.1655  -2.1381  -2.0979  -2.0878  -2.0687  -2.0505  -2.0218  -2.0024
    -1.9739  -1.9555  -1.9333  -1.9267  -1.8175  -1.8038  -1.7274  -1.6931
    -1.6372  -1.5738  -1.5687  -1.4715  -1.4643  -1.4075  -1.3981  -1.3811
    -1.2622  -1.1768  -1.1225  -1.1115  -1.1039  -0.9924  -0.9423  -0.9120
    -0.8776  -0.8543  -0.7760  -0.7130  -0.6928  -0.6524  -0.5768  -0.5667
    -0.5071  -0.3940  -0.3642  -0.3436  -0.3263  -0.3207  -0.2670  -0.2552
    -0.1823  -0.1363  -0.1023  -0.0920  -0.0570  -0.0204   0.1545   0.1666
     0.2071   0.3221   0.3817   0.4956   0.5702   0.5848   0.6644   0.6992
     0.7428   0.8033   0.8944   0.9359   0.9405   1.0191   1.0448   1.0873
     1.0954   2.0283   2.0286   2.1153   2.1154   3.8648   3.9783   3.9879
     4.0345   4.1345   4.1593   4.2461   4.2652   4.3127   4.3146   4.3815

     the Fermi energy is     3.7894 ev

!    total energy              =   -2940.42009054 Ry
     estimated scf accuracy    <       0.00000006 Ry
     smearing contrib. (-TS)   =      -0.03734156 Ry
     internal energy E=F+TS    =   -2940.38274897 Ry

     The total energy is F=E-TS. E is the sum of the following terms:
     one-electron contribution =  -23617.38995616 Ry
     hartree contribution      =   11900.52591510 Ry
     xc contribution           =    -485.98068737 Ry
     ewald contribution        =    9262.45875500 Ry
     electric field correction =       0.00322444 Ry

     convergence has been achieved in  80 iterations

     Forces acting on atoms (cartesian axes, Ry/au):

     atom    1 type  1   force =     0.00014219   -0.00014632    0.09347821
     atom    2 type  1   force =    -0.00005668   -0.00032431   -0.17810822
     atom    3 type  2   force =     0.00009506   -0.00033218   -0.02052902
     atom    4 type  2   force =     0.00002473   -0.00189742    0.05840767
     atom    5 type  2   force =    -0.01038532   -0.00109160    0.00773026
     atom    6 type  2   force =     0.01183831   -0.00047914    0.00668373
     atom    7 type  1   force =    -0.00029372    0.00214142   -0.01416391
     atom    8 type  1   force =     0.00032952    0.00051650   -0.00324173
     atom    9 type  2   force =    -0.00006769    0.00009417   -0.00002332
     atom   10 type  2   force =    -0.00246734    0.00082219    0.00007004
     atom   11 type  2   force =    -0.00017070   -0.00029956    0.00030586
     atom   12 type  2   force =    -0.00012585   -0.00015198   -0.00055706
     atom   13 type  1   force =    -0.00001695   -0.00006938   -0.00001265
     atom   14 type  1   force =     0.00009067    0.00018005    0.00007114
     atom   15 type  2   force =     0.00029758    0.00005075   -0.00024246
     atom   16 type  2   force =     0.00027749   -0.00000281   -0.00003430
     atom   17 type  2   force =     0.00016216   -0.00016841   -0.00051778
     atom   18 type  2   force =     0.00022362    0.00031125   -0.00001783
     atom   19 type  1   force =     0.00000032    0.00005728   -0.00008978
     atom   20 type  1   force =    -0.00066380    0.00031410   -0.00022387
     atom   21 type  2   force =     0.00010190    0.00000262    0.10392035
     atom   22 type  2   force =     0.00045941    0.00045568   -0.00000387
     atom   23 type  2   force =    -0.07040541   -0.00012548   -0.02694602
     atom   24 type  2   force =     0.07038270    0.00034115   -0.02699365
     atom   25 type  1   force =     0.00020236   -0.00015950    0.09276955
     atom   26 type  1   force =    -0.00009853   -0.00029801   -0.17831163
     atom   27 type  2   force =     0.00012891   -0.00023941   -0.01952289
     atom   28 type  2   force =     0.00007241   -0.00167557    0.05799062
     atom   29 type  2   force =    -0.01079947   -0.00122317    0.00800082
     atom   30 type  2   force =     0.01213932   -0.00083797    0.00703958
     atom   31 type  1   force =    -0.00035021    0.00574361   -0.01491807
     atom   32 type  1   force =     0.00039010   -0.00108637   -0.00336524
     atom   33 type  2   force =    -0.00030996    0.00005283   -0.00021214
     atom   34 type  2   force =    -0.00155361   -0.00229825    0.00039070
     atom   35 type  2   force =    -0.00007731    0.00015288   -0.00003069
     atom   36 type  2   force =     0.00009437    0.00011775    0.00012648
     atom   37 type  1   force =     0.00024808   -0.00002427   -0.00004574
     atom   38 type  1   force =     0.00004477    0.00014345   -0.00015832
     atom   39 type  2   force =     0.00010773    0.00018402    0.00010933
     atom   40 type  2   force =     0.00014108    0.00001311   -0.00002637
     atom   41 type  2   force =    -0.00001680    0.00019638    0.00001054
     atom   42 type  2   force =     0.00038575    0.00002974    0.00019060
     atom   43 type  1   force =    -0.00022930    0.00020297    0.00026855
     atom   44 type  1   force =    -0.00022627   -0.00024679   -0.00012106
     atom   45 type  2   force =     0.00009565   -0.00002155    0.10384912
     atom   46 type  2   force =    -0.07040187   -0.00003613   -0.02692570
     atom   47 type  2   force =     0.07035875    0.00038025   -0.02695505
     atom   48 type  3   force =    -0.00099330    0.00058433   -0.00003831
     atom   49 type  4   force =     0.00056204    0.00043519    0.00007998
     atom   50 type  5   force =     0.00018314   -0.00032783    0.00000283
     atom   51 type  3   force =    -0.01222152   -0.00449905    0.00468874
     atom   52 type  5   force =     0.01159677    0.00437181   -0.00560898
     atom   53 type  5   force =     0.00021642    0.00109311    0.00077929
     atom   54 type  5   force =     0.00053835   -0.00092613    0.00098167

     Total force =     0.366569     Total SCF correction =     0.000538
  @ DRIVER MODE: Message from server: STATUS
  @ DRIVER MODE: Message from server: GETFORCE
  @ DRIVER MODE: Returning v,forces,stress,ensemble

     Writing output data file ./calc.save/
  @ DRIVER MODE: Message from server: EXIT
  @ DRIVE MODE: Exiting

     General routines

     Parallel routines

   This run was terminated on:   1:53:52  24Aug2021

   JOB DONE.