     Program PWSCF v.6.7GPU starts on 10Sep2021 at 22:17: 0

     R & G space division:  proc/nbgrp/npool/nimage =      10
     Reading input from /storage/home/hcoda1/3/ntian30/research/carbon/CxH_vib/CH2_calc/ads_slab/CH2NHNH_b/out_0014/pw.inp
Warning: card &CELL ignored
Warning: card   CELL_DYNAMICS='IPI', ignored
Warning: card / ignored

     Current dimensions of program PWSCF are:
     Max number of different atomic species (ntypx) = 10
     Max number of k-points (npk) =  40000
     Max angular momentum in pseudopotentials (lmaxx) =  3
     Presently no symmetry can be used with electric field

     Message from routine cell_base_init:
     DEPRECATED: use true lattice parameter, not A to a.u. conversion factor

     IMPORTANT: XC functional enforced from input :
     Exchange-correlation= BEEF-VDW
                           (   1   4  43  14   2   0   0)
     Any further DFT definition will be discarded
     Please, verify this is what you really want

  @ DRIVER MODE: Connecting to
 qe_1139763_2792040.sched-torque.pace.gatech.eduqkbuotdx_scratch
  using UNIX socket
  @ DRIVER MODE: Message from server: STATUS
  @ DRIVER MODE: Message from server: INIT
  @ DRIVER MODE: Receiving replica           0          -1
  @ DRIVER MODE: Receiving encoded integer          25
  @ DRIVER MODE:  SCF:  T  FORCE:  T  STRESS:  F  VC:  F  ENSEMBLE:  F
  @ DRIVER MODE:  SCF:  T  FORCE:  T  STRESS:  F  VC:  F  ENSEMBLE:  F

     Using Slab Decomposition

     bravais-lattice index     =            0
     lattice parameter (alat)  =       1.8897  a.u.
     unit-cell volume          =    6658.9804 (a.u.)^3
     number of atoms/cell      =           54
     number of atomic types    =            5
     number of electrons       =       396.00
     number of Kohn-Sham states=          208
     kinetic-energy cutoff     =      29.3995  Ry
     charge density cutoff     =     293.9946  Ry
     scf convergence threshold =      7.3E-08
     mixing beta               =       0.0500
     number of iterations used =            8  plain     mixing
     Exchange-correlation= BEEF-VDW
                           (   1   4  43  14   2   0   0)

     celldm(1)=   1.889726  celldm(2)=   0.000000  celldm(3)=   0.000000
     celldm(4)=   0.000000  celldm(5)=   0.000000  celldm(6)=   0.000000

     crystal axes: (cart. coord. in units of alat)
               a(1) = (   6.579727   0.000000   0.000000 )
               a(2) = (  -0.000775   5.961596   0.000000 )
               a(3) = (   0.000000   0.000000  25.155947 )

     reciprocal axes: (cart. coord. in units 2 pi/alat)
               b(1) = (  0.151982  0.000020  0.000000 )
               b(2) = (  0.000000  0.167740  0.000000 )
               b(3) = (  0.000000  0.000000  0.039752 )

     PseudoPot. # 1 for Ti read from file:
     /storage/coda1/p-amedford6/0/shared/rich_project_chbe-medford/medford-share/data/pseudos_module/espresso/nninc/pbe/van/Ti.UPF
     MD5 check sum: 8e4df49b7f0d34bbd5052bf3f5ea0213
     Pseudo is Ultrasoft, Zval = 12.0
     Generated by new atomic code, or converted to UPF format
     Using radial grid of  851 points,  6 beta functions with:
                l(1) =   0
                l(2) =   0
                l(3) =   1
                l(4) =   1
                l(5) =   2
                l(6) =   2
     Q(r) pseudized with  8 coefficients,  rinner =    1.000   1.000   1.000
                                                       1.000   1.000

     PseudoPot. # 2 for O  read from file:
     /storage/coda1/p-amedford6/0/shared/rich_project_chbe-medford/medford-share/data/pseudos_module/espresso/nninc/pbe/van/O.UPF
     MD5 check sum: 78c19812648e8988a0fe644b0f25305e
     Pseudo is Ultrasoft, Zval =  6.0
     Generated by new atomic code, or converted to UPF format
     Using radial grid of  737 points,  4 beta functions with:
                l(1) =   0
                l(2) =   0
                l(3) =   1
                l(4) =   1
     Q(r) pseudized with  8 coefficients,  rinner =    0.800   0.800   0.800

     PseudoPot. # 3 for N  read from file:
     /storage/coda1/p-amedford6/0/shared/rich_project_chbe-medford/medford-share/data/pseudos_module/espresso/nninc/pbe/van/N.UPF
     MD5 check sum: 90d10febe142ad51ac9d5be1deb811c4
     Pseudo is Ultrasoft, Zval =  5.0
     Generated by new atomic code, or converted to UPF format
     Using radial grid of  729 points,  4 beta functions with:
                l(1) =   0
                l(2) =   0
                l(3) =   1
                l(4) =   1
     Q(r) pseudized with  8 coefficients,  rinner =    0.800   0.800   0.800

     PseudoPot. # 4 for C  read from file:
     /storage/coda1/p-amedford6/0/shared/rich_project_chbe-medford/medford-share/data/pseudos_module/espresso/nninc/pbe/van/C.UPF
     MD5 check sum: 1a69bf6b8db32088f5b2163dbdb77a27
     Pseudo is Ultrasoft, Zval =  4.0
     Generated by new atomic code, or converted to UPF format
     Using radial grid of  721 points,  4 beta functions with:
                l(1) =   0
                l(2) =   0
                l(3) =   1
                l(4) =   1
     Q(r) pseudized with  8 coefficients,  rinner =    0.800   0.800   0.800

     PseudoPot. # 5 for H  read from file:
     /storage/coda1/p-amedford6/0/shared/rich_project_chbe-medford/medford-share/data/pseudos_module/espresso/nninc/pbe/van/H.UPF
     MD5 check sum: b5ee9d7bfd3a09ee7748110bda690ff7
     Pseudo is Ultrasoft, Zval =  1.0
     Generated by new atomic code, or converted to UPF format
     Using radial grid of  615 points,  1 beta functions with:
                l(1) =   0
     Q(r) pseudized with  8 coefficients,  rinner =    0.800

     atomic species   valence    mass     pseudopotential
        Ti1           12.00    47.86700     Ti( 1.00)
        O1             6.00    15.99900     O ( 1.00)
        N1             5.00    14.00700     N ( 1.00)
        C1             4.00    12.01100     C ( 1.00)
        H1             1.00     1.00800     H ( 1.00)

     No symmetry found

   Cartesian axes

     site n.     atom                  positions (alat units)
         1           Ti1 tau(   1) = (   0.0004258   2.9801865   6.0000000  )
         2           Ti1 tau(   2) = (   3.2906075   1.4906267   6.0002472  )
         3           O1  tau(   3) = (   0.0006271   0.0005054   7.9858123  )
         4           O1  tau(   4) = (   3.2906025   0.0005020   7.3038282  )
         5           O1  tau(   5) = (   4.5942328   1.4918067   9.2879030  )
         6           O1  tau(   6) = (   1.9868534   1.4903216   9.2879459  )
         7           Ti1 tau(   7) = (   3.2907910   2.8959150   9.1758416  )
         8           Ti1 tau(   8) = (   0.0015273   1.4827037   9.2680791  )
         9           O1  tau(   9) = (   3.3006942   5.9534781  11.3553798  )
        10           O1  tau(  10) = (   0.0116148   5.9584955  10.6183126  )
        11           O1  tau(  11) = (   1.3049435   1.4862809  12.6371303  )
        12           O1  tau(  12) = (   5.2939446   1.4839232  12.6419886  )
        13           Ti1 tau(  13) = (   0.0297220   2.9630369  12.5573518  )
        14           Ti1 tau(  14) = (   3.3261824   1.4838644  12.4981318  )
        15           O1  tau(  15) = (   0.0289408   0.0313188  14.6920809  )
        16           O1  tau(  16) = (   3.2926898   0.0103323  13.9875539  )
        17           O1  tau(  17) = (   4.5688264   1.5151599  16.1499861  )
        18           O1  tau(  18) = (   2.0666082   1.5432664  16.2461230  )
        19           Ti1 tau(  19) = (   3.3290317   3.0025141  15.7092439  )
        20           Ti1 tau(  20) = (   6.5420716   1.4859973  15.9011789  )
        21           O1  tau(  21) = (   3.2904802   0.0005063   4.7018136  )
        22           O1  tau(  22) = (   0.0300787   5.9197746  17.2397460  )
        23           O1  tau(  23) = (   1.3043587   1.4918075   6.0039043  )
        24           O1  tau(  24) = (   5.2767064   1.4903225   6.0039473  )
        25           Ti1 tau(  25) = (   0.0000382   5.9609847   6.0000000  )
        26           Ti1 tau(  26) = (   3.2902200   4.4714249   6.0002472  )
        27           O1  tau(  27) = (   0.0002396   2.9813036   7.9858123  )
        28           O1  tau(  28) = (   3.2902150   2.9813002   7.3038282  )
        29           O1  tau(  29) = (   4.5938453   4.4726049   9.2879030  )
        30           O1  tau(  30) = (   1.9864658   4.4711199   9.2879459  )
        31           Ti1 tau(  31) = (   3.2891106   5.8743827   9.1763621  )
        32           Ti1 tau(  32) = (   0.0006254   4.4649316   9.2693709  )
        33           O1  tau(  33) = (   3.3021489   2.9801797  11.3479352  )
        34           O1  tau(  34) = (   0.0092240   2.9805883  10.6323155  )
        35           O1  tau(  35) = (   1.3026635   4.4666190  12.6547599  )
        36           O1  tau(  36) = (   5.2965037   4.4700493  12.6603964  )
        37           Ti1 tau(  37) = (   0.0280624   5.9437424  12.5124334  )
        38           Ti1 tau(  38) = (   3.3252324   4.4624078  12.5019987  )
        39           O1  tau(  39) = (   0.0181394   2.9416354  14.7876853  )
        40           O1  tau(  40) = (   3.2997337   2.9731399  13.9284607  )
        41           O1  tau(  41) = (   4.5639665   4.4616582  16.1522005  )
        42           O1  tau(  42) = (   2.0594857   4.4554260  16.1407723  )
        43           Ti1 tau(  43) = (   3.2991394   0.0041700  15.7772358  )
        44           Ti1 tau(  44) = (   0.0501841   4.6507117  16.0116611  )
        45           O1  tau(  45) = (   3.2900926   2.9813045   4.7018136  )
        46           O1  tau(  46) = (   1.3039711   4.4726057   6.0039043  )
        47           O1  tau(  47) = (   5.2763189   4.4711207   6.0039473  )
        48           N1  tau(  48) = (   1.0195810   2.7978639  18.4834737  )
        49           N1  tau(  49) = (   6.5530482   2.9315443  17.6565599  )
        50           C1  tau(  50) = (   1.1839936   3.1992704  19.7158448  )
        51           H1  tau(  51) = (   2.1028141   2.9667422  20.2081369  )
        52           H1  tau(  52) = (   0.3908697   3.7596525  20.2009034  )
        53           H1  tau(  53) = (   1.7673082   2.2798185  17.9998463  )
        54           H1  tau(  54) = (   5.7337981   3.2184162  18.1887256  )

     number of k points=    10  Fermi-Dirac smearing, width (Ry)=  0.0073
                       cart. coord. in units 2pi/alat
        k(    1) = (   0.0000000   0.0000000   0.0000000), wk =   0.1250000
        k(    2) = (   0.0000000   0.0419351   0.0000000), wk =   0.2500000
        k(    3) = (   0.0000000  -0.0838702   0.0000000), wk =   0.1250000
        k(    4) = (   0.0379955   0.0000049   0.0000000), wk =   0.2500000
        k(    5) = (   0.0379955   0.0419400   0.0000000), wk =   0.2500000
        k(    6) = (   0.0379955  -0.0838652   0.0000000), wk =   0.2500000
        k(    7) = (   0.0379955  -0.0419301   0.0000000), wk =   0.2500000
        k(    8) = (  -0.0759910  -0.0000099   0.0000000), wk =   0.1250000
        k(    9) = (  -0.0759910   0.0419252   0.0000000), wk =   0.2500000
        k(   10) = (  -0.0759910  -0.0838800   0.0000000), wk =   0.1250000

     Initial potential from superposition of free atoms

     starting charge  379.99915, renormalised to  396.00000

     negative rho (up, down):  1.484E-02 0.000E+00

     %%%%%%%%%%%%%%%%%%%%%%%%%%%%%%%%%%%%%%%%%%%%%%%%%%%%%%%%%%%%%%%%%%%%%%%%
     %                                                                      %
     % You are using vdW-DF, which was implemented by the Thonhauser group. %
     % Please cite the following two papers that made this development      %
     % possible and the two reviews that describe the various versions:     %
     %                                                                      %
     %   T. Thonhauser et al., PRL 115, 136402 (2015).                      %
     %   T. Thonhauser et al., PRB 76, 125112 (2007).                       %
     %   K. Berland et al., Rep. Prog. Phys. 78, 066501 (2015).             %
     %   D.C. Langreth et al., J. Phys.: Condens. Matter 21, 084203 (2009). %
     %                                                                      %
     %                                                                      %
     % If you are calculating the stress with vdW-DF, please also cite:     %
     %                                                                      %
     %   R. Sabatini et al., J. Phys.: Condens. Matter 24, 424209 (2012).   %
     %                                                                      %
     %%%%%%%%%%%%%%%%%%%%%%%%%%%%%%%%%%%%%%%%%%%%%%%%%%%%%%%%%%%%%%%%%%%%%%%%

     Adding external electric field

     Computed dipole along edir(3) :
        Dipole               -9.8032 Ry au,        -24.9172 Debye
        Dipole field         -0.0185 Ry au,

        Potential amp.        1.7149 Ry
        Total length         46.3494 bohr

     Starting wfcs are  300 atomic wfcs
  @ DRIVER MODE: Message from server: STATUS
  @ DRIVER MODE: Message from server: POSDATA
  @ DRIVER MODE: Reading and sharing cell
  @ DRIVER MODE: Reading and sharing positions
  @ DRIVER MODE: Received positions

     Self-consistent Calculation

     iteration #  1     ecut=    29.40 Ry     beta= 0.05
     Davidson diagonalization with overlap
     c_bands:  1 eigenvalues not converged
     c_bands:  2 eigenvalues not converged
     c_bands:  1 eigenvalues not converged
     c_bands:  1 eigenvalues not converged
     c_bands:  2 eigenvalues not converged
     c_bands:  1 eigenvalues not converged
     c_bands:  1 eigenvalues not converged
     c_bands:  1 eigenvalues not converged
     c_bands:  3 eigenvalues not converged
     ethr =  1.00E-05,  avg # of iterations = 19.6

[...]

     total energy              =   -2537.52771906 Ry
     estimated scf accuracy    <    4492.78939268 Ry

     iteration #  2     ecut=    29.40 Ry     beta= 0.05
     Davidson diagonalization with overlap
     ethr =  1.00E-02,  avg # of iterations = 24.7

[...]

     iteration # 84     ecut=    29.40 Ry     beta= 0.05
     Davidson diagonalization with overlap
     c_bands:  1 eigenvalues not converged
     ethr =  2.99E-10,  avg # of iterations = 13.7

[...]

     total energy              =   -2940.35772361 Ry
     estimated scf accuracy    <       0.00000009 Ry

     iteration # 88     ecut=    29.40 Ry     beta= 0.05
     Davidson diagonalization with overlap
     ethr =  2.25E-11,  avg # of iterations = 13.5

     negative rho (up, down):  1.442E-02 0.000E+00

     Adding external electric field

     Computed dipole along edir(3) :
        Dipole                1.4625 Ry au,          3.7174 Debye
        Dipole field          0.0028 Ry au,

        Potential amp.       -0.2558 Ry
        Total length         46.3494 bohr

     End of self-consistent calculation

          k = 0.0000 0.0000 0.0000 ( 18029 PWs)   bands (ev):

   -55.2606 -55.2262 -55.2242 -55.1921 -55.1563 -55.1330 -55.0915 -55.0678
   -55.0643 -55.0537 -55.0516 -55.0293 -55.0187 -54.9133 -54.2381 -54.2040
   -31.8343 -31.7158 -31.6207 -31.5927 -31.5885 -31.5726 -31.5542 -31.5533
   -31.5190 -31.5162 -31.4724 -31.4708 -31.4690 -31.4370 -31.4170 -31.3972
   -31.3919 -31.3788 -31.3715 -31.3663 -31.3373 -31.3161 -31.3146 -31.3101
   -31.2950 -31.2869 -31.2830 -31.2668 -31.2628 -31.2591 -31.2477 -31.2375
   -31.2344 -31.2227 -31.2142 -31.1945 -31.1850 -31.1829 -31.1789 -31.1594
   -31.1376 -31.0968 -30.6467 -30.5545 -30.5323 -30.4632 -30.3765 -30.2655
   -19.5401 -16.0903 -15.8122 -15.6857 -15.5077 -15.4470 -15.3540 -15.2052
   -15.1548 -15.0396 -15.0055 -14.9983 -14.9698 -14.9314 -14.8611 -14.7891
   -14.7889 -14.7871 -14.7440 -14.7436 -14.6976 -14.6820 -14.6796 -14.6440
   -14.6299 -14.5840 -14.4737 -14.4008 -14.3443 -14.0284 -13.8917 -12.7409
   -12.6238 -10.2325  -7.0745  -6.6431  -4.2633  -4.0889  -3.4378  -3.2611
    -3.2436  -3.1747  -3.1552  -2.9831  -2.9070  -2.7436  -2.6103  -2.5228
    -2.4809  -2.4601  -2.4558  -2.2781  -2.2268  -2.1767  -2.1547  -2.1407
    -2.1100  -2.0732  -2.0574  -2.0229  -2.0147  -1.9998  -1.8246  -1.7447
    -1.7085  -1.6810  -1.6425  -1.5811  -1.5714  -1.5451  -1.5366  -1.5329
    -1.5077  -1.4776  -1.4613  -1.4204  -1.2869  -1.2440  -1.2084  -1.1214
    -1.0344  -0.8864  -0.8096  -0.8054  -0.7716  -0.7259  -0.6877  -0.6430
    -0.6360  -0.6013  -0.4583  -0.4140  -0.3494  -0.3233  -0.2831  -0.2357
    -0.2212  -0.0824  -0.0391  -0.0336  -0.0087   0.1157   0.1564   0.2125
     0.2416   0.3037   0.3501   0.4149   0.4282   0.4527   0.4976   0.5202
     0.6311   0.6825   0.6966   0.7056   0.7339   0.7983   0.8532   0.8763
     0.8991   0.9148   1.0839   1.1215   1.2022   1.3540   1.3673   1.6963
     1.7352   1.7843   1.9707   2.3585   2.4059   3.8441   3.9138   3.9736
     3.9923   3.9971   4.0788   4.1978   4.3169   4.3375   4.3427   4.3459

[...]

          k = 0.0380-0.0419 0.0000 ( 17876 PWs)   bands (ev):

[...]

          k =-0.0760-0.0000 0.0000 ( 17886 PWs)   bands (ev):

[...]

          k =-0.0760-0.0839 0.0000 ( 17948 PWs)   bands (ev):

   -55.2449 -55.2398 -55.2092 -55.2089 -55.1533 -55.1240 -55.1005 -55.0658
   -55.0566 -55.0480 -55.0445 -55.0359 -55.0352 -54.9152 -54.2210 -54.2209
   -31.6398 -31.6348 -31.5682 -31.5310 -31.5308 -31.5283 -31.5024 -31.5018
   -31.5015 -31.4684 -31.4665 -31.4586 -31.4557 -31.4148 -31.3865 -31.3828
   -31.3791 -31.3791 -31.3729 -31.3631 -31.3601 -31.3447 -31.3303 -31.3285
   -31.3282 -31.3256 -31.3244 -31.2964 -31.2950 -31.2822 -31.2815 -31.2779
   -31.2622 -31.2587 -31.2583 -31.2556 -31.2551 -31.2253 -31.2156 -31.2149
   -31.1727 -31.1425 -30.5450 -30.5449 -30.4593 -30.4592 -30.4199 -30.4199
   -19.5381 -15.5632 -15.4742 -15.4132 -15.2814 -15.2577 -15.2243 -15.2186
   -15.1504 -15.1165 -15.0562 -15.0226 -14.9837 -14.9636 -14.9612 -14.9399
   -14.8338 -14.8302 -14.8257 -14.8150 -14.7603 -14.7548 -14.7264 -14.7055
   -14.7021 -14.6484 -14.5998 -14.5974 -14.5117 -14.2672 -13.9037 -12.7254
   -12.7253 -10.2356  -7.0676  -6.6392  -4.2432  -4.0826  -2.8378  -2.7362
    -2.6513  -2.5750  -2.4903  -2.4474  -2.4250  -2.2927  -2.2498  -2.2388
    -2.2241  -2.2083  -2.1613  -2.1347  -2.1170  -2.1025  -2.0862  -2.0812
    -2.0636  -2.0435  -2.0299  -1.9696  -1.9595  -1.9429  -1.9170  -1.8965
    -1.8734  -1.8526  -1.8277  -1.8163  -1.7066  -1.6299  -1.5915  -1.5173
    -1.4641  -1.4430  -1.4356  -1.3452  -1.3102  -1.3002  -1.2853  -1.2153
    -1.0990  -1.0455  -0.9864  -0.9842  -0.9583  -0.8199  -0.8042  -0.7517
    -0.7313  -0.7124  -0.6732  -0.6350  -0.6037  -0.5197  -0.4740  -0.4437
    -0.4090  -0.2898  -0.2559  -0.2305  -0.2171  -0.2116  -0.0948  -0.0852
    -0.0590  -0.0301   0.0118   0.0351   0.0957   0.1052   0.2432   0.3171
     0.3924   0.4749   0.5738   0.6288   0.7039   0.7702   0.7747   0.8725
     0.9321   1.0079   1.0160   1.0534   1.0589   1.1778   1.2204   1.2257
     1.2632   2.1431   2.1441   2.2258   2.2260   4.0180   4.0297   4.1047
     4.1355   4.1684   4.2329   4.3579   4.3787   4.4188   4.4205   4.5054

     the Fermi energy is     3.8936 ev

!    total energy              =   -2940.35772896 Ry
     estimated scf accuracy    <       0.00000006 Ry
     smearing contrib. (-TS)   =      -0.03839180 Ry
     internal energy E=F+TS    =   -2940.31933716 Ry

     The total energy is F=E-TS. E is the sum of the following terms:
     one-electron contribution =  -23947.34348342 Ry
     hartree contribution      =   12066.28165599 Ry
     xc contribution           =    -486.10447166 Ry
     ewald contribution        =    9426.84292535 Ry
     electric field correction =       0.00403658 Ry

     convergence has been achieved in  88 iterations

     Forces acting on atoms (cartesian axes, Ry/au):

     atom    1 type  1   force =     0.00000636   -0.00026023    0.09432960
     atom    2 type  1   force =    -0.00015538   -0.00035420   -0.17721449
     atom    3 type  2   force =     0.00003716   -0.00014490   -0.02178386
     atom    4 type  2   force =    -0.00000539   -0.00173518    0.05673160
     atom    5 type  2   force =    -0.01090540   -0.00112791    0.00622171
     atom    6 type  2   force =     0.01266999   -0.00046384    0.00595697
     atom    7 type  1   force =    -0.00028468    0.00189371   -0.01477644
     atom    8 type  1   force =    -0.00007070    0.00585066    0.00723956
     atom    9 type  2   force =    -0.00014824   -0.00025888   -0.00002732
     atom   10 type  2   force =    -0.00136011    0.00012275   -0.00581636
     atom   11 type  2   force =    -0.00012329    0.00005692   -0.00006847
     atom   12 type  2   force =     0.00015304    0.00002730    0.00018549
     atom   13 type  1   force =     0.00010817    0.00010374    0.00019543
     atom   14 type  1   force =    -0.00005374    0.00001379    0.00023936
     atom   15 type  2   force =    -0.00027512    0.00022624   -0.00007753
     atom   16 type  2   force =     0.00001794    0.00023596   -0.00015837
     atom   17 type  2   force =     0.00031122    0.00022230    0.00008286
     atom   18 type  2   force =     0.00028364   -0.00029877    0.00002126
     atom   19 type  1   force =    -0.00049901   -0.00013070   -0.00007561
     atom   20 type  1   force =    -0.00038606   -0.00019357    0.00002934
     atom   21 type  2   force =    -0.00001001   -0.00003644    0.10370561
     atom   22 type  2   force =     0.00022377    0.00027292    0.00002303
     atom   23 type  2   force =    -0.07082189   -0.00013645   -0.02713036
     atom   24 type  2   force =     0.07066861    0.00029653   -0.02721486
     atom   25 type  1   force =     0.00001607   -0.00019744    0.09405342
     atom   26 type  1   force =    -0.00024579   -0.00046192   -0.17717578
     atom   27 type  2   force =     0.00009182   -0.00028944   -0.02084249
     atom   28 type  2   force =     0.00002677   -0.00141235    0.05610821
     atom   29 type  2   force =    -0.01102115   -0.00017304    0.00583560
     atom   30 type  2   force =     0.01268074    0.00014355    0.00559286
     atom   31 type  1   force =    -0.00016719    0.00465219   -0.01583916
     atom   32 type  1   force =    -0.00003669   -0.00692286    0.00712628
     atom   33 type  2   force =     0.00010526    0.00047921   -0.00010376
     atom   34 type  2   force =    -0.00097187    0.00064615   -0.00548862
     atom   35 type  2   force =     0.00058761    0.00026297   -0.00012177
     atom   36 type  2   force =    -0.00068324    0.00027592   -0.00021069
     atom   37 type  1   force =     0.00012378   -0.00022096    0.00004901
     atom   38 type  1   force =     0.00001723   -0.00020003   -0.00008687
     atom   39 type  2   force =     0.00076623   -0.00024766   -0.00004549
     atom   40 type  2   force =     0.00017275    0.00057372    0.00004047
     atom   41 type  2   force =    -0.00020160   -0.00045266    0.00032878
     atom   42 type  2   force =     0.00033643    0.00012909   -0.00016795
     atom   43 type  1   force =    -0.00008322    0.00013675   -0.00000223
     atom   44 type  1   force =    -0.00008631    0.00062493    0.00017801
     atom   45 type  2   force =    -0.00000261   -0.00005987    0.10368113
     atom   46 type  2   force =    -0.07083557   -0.00007196   -0.02711260
     atom   47 type  2   force =     0.07066541    0.00036498   -0.02717424
     atom   48 type  3   force =     0.00566364   -0.00141228    0.00308903
     atom   49 type  3   force =    -0.00045536    0.00053687    0.00120471
     atom   50 type  4   force =    -0.02351700    0.00767921   -0.00363803
     atom   51 type  5   force =     0.00998700   -0.00297628    0.00401297
     atom   52 type  5   force =     0.00789666   -0.00506769   -0.00327297
     atom   53 type  5   force =     0.00007719   -0.00070240   -0.00004161
     atom   54 type  5   force =    -0.00028788    0.00018157   -0.00059436

     Total force =     0.366944     Total SCF correction =     0.000413
  @ DRIVER MODE: Message from server: STATUS
  @ DRIVER MODE: Message from server: GETFORCE
  @ DRIVER MODE: Returning v,forces,stress,ensemble

     Writing output data file ./calc.save/
  @ DRIVER MODE: Message from server: EXIT
  @ DRIVE MODE: Exiting

     General routines

     Parallel routines

   This run was terminated on:  22:40:54  10Sep2021

   JOB DONE.