     Program PWSCF v.6.7GPU starts on 16Sep2021 at  1:38:32

     R & G space division:  proc/nbgrp/npool/nimage =      10
     Reading input from /storage/home/hcoda1/3/ntian30/research/carbon/CxH_vib/H2O_calc/ads_slab/CH2NHH2O_a/out_0030/pw.inp
Warning: card &CELL ignored
Warning: card   CELL_DYNAMICS='IPI', ignored
Warning: card / ignored

     Current dimensions of program PWSCF are:
     Max number of different atomic species (ntypx) = 10
     Max number of k-points (npk) =  40000
     Max angular momentum in pseudopotentials (lmaxx) =  3
     Presently no symmetry can be used with electric field

     Message from routine cell_base_init:
     DEPRECATED: use true lattice parameter, not A to a.u. conversion factor

     IMPORTANT: XC functional enforced from input :
     Exchange-correlation= BEEF-VDW
                           (   1   4  43  14   2   0   0)
     Any further DFT definition will be discarded
     Please, verify this is what you really want

  @ DRIVER MODE: Connecting to
 qe_1139763_2852608.sched-torque.pace.gatech.eduhb2uy1ch_scratch
  using UNIX socket
  @ DRIVER MODE: Message from server: STATUS
  @ DRIVER MODE: Message from server: INIT
  @ DRIVER MODE: Receiving replica           0          -1
  @ DRIVER MODE: Receiving encoded integer          25
  @ DRIVER MODE:  SCF:  T  FORCE:  T  STRESS:  F  VC:  F  ENSEMBLE:  F
  @ DRIVER MODE:  SCF:  T  FORCE:  T  STRESS:  F  VC:  F  ENSEMBLE:  F

     Using Slab Decomposition

     bravais-lattice index     =            0
     lattice parameter (alat)  =       1.8897  a.u.
     unit-cell volume          =    6658.9804 (a.u.)^3
     number of atoms/cell      =           55
     number of atomic types    =            5
     number of electrons       =       398.00
     number of Kohn-Sham states=          209
     kinetic-energy cutoff     =      29.3995  Ry
     charge density cutoff     =     293.9946  Ry
     scf convergence threshold =      7.3E-08
     mixing beta               =       0.0500
     number of iterations used =            8  plain     mixing
     Exchange-correlation= BEEF-VDW
                           (   1   4  43  14   2   0   0)

     celldm(1)=   1.889726  celldm(2)=   0.000000  celldm(3)=   0.000000
     celldm(4)=   0.000000  celldm(5)=   0.000000  celldm(6)=   0.000000

     crystal axes: (cart. coord. in units of alat)
               a(1) = (   6.579727   0.000000   0.000000 )
               a(2) = (  -0.000775   5.961596   0.000000 )
               a(3) = (   0.000000   0.000000  25.155947 )

     reciprocal axes: (cart. coord. in units 2 pi/alat)
               b(1) = (  0.151982  0.000020  0.000000 )
               b(2) = (  0.000000  0.167740  0.000000 )
               b(3) = (  0.000000  0.000000  0.039752 )

     PseudoPot. # 1 for Ti read from file:
     /storage/coda1/p-amedford6/0/shared/rich_project_chbe-medford/medford-share/data/pseudos_module/espresso/nninc/pbe/van/Ti.UPF
     MD5 check sum: 8e4df49b7f0d34bbd5052bf3f5ea0213
     Pseudo is Ultrasoft, Zval = 12.0
     Generated by new atomic code, or converted to UPF format
     Using radial grid of  851 points,  6 beta functions with:
                l(1) =   0
                l(2) =   0
                l(3) =   1
                l(4) =   1
                l(5) =   2
                l(6) =   2
     Q(r) pseudized with  8 coefficients,  rinner =    1.000   1.000   1.000
                                                       1.000   1.000

     PseudoPot. # 2 for O  read from file:
     /storage/coda1/p-amedford6/0/shared/rich_project_chbe-medford/medford-share/data/pseudos_module/espresso/nninc/pbe/van/O.UPF
     MD5 check sum: 78c19812648e8988a0fe644b0f25305e
     Pseudo is Ultrasoft, Zval =  6.0
     Generated by new atomic code, or converted to UPF format
     Using radial grid of  737 points,  4 beta functions with:
                l(1) =   0
                l(2) =   0
                l(3) =   1
                l(4) =   1
     Q(r) pseudized with  8 coefficients,  rinner =    0.800   0.800   0.800

     PseudoPot. # 3 for N  read from file:
     /storage/coda1/p-amedford6/0/shared/rich_project_chbe-medford/medford-share/data/pseudos_module/espresso/nninc/pbe/van/N.UPF
     MD5 check sum: 90d10febe142ad51ac9d5be1deb811c4
     Pseudo is Ultrasoft, Zval =  5.0
     Generated by new atomic code, or converted to UPF format
     Using radial grid of  729 points,  4 beta functions with:
                l(1) =   0
                l(2) =   0
                l(3) =   1
                l(4) =   1
     Q(r) pseudized with  8 coefficients,  rinner =    0.800   0.800   0.800

     PseudoPot. # 4 for C  read from file:
     /storage/coda1/p-amedford6/0/shared/rich_project_chbe-medford/medford-share/data/pseudos_module/espresso/nninc/pbe/van/C.UPF
     MD5 check sum: 1a69bf6b8db32088f5b2163dbdb77a27
     Pseudo is Ultrasoft, Zval =  4.0
     Generated by new atomic code, or converted to UPF format
     Using radial grid of  721 points,  4 beta functions with:
                l(1) =   0
                l(2) =   0
                l(3) =   1
                l(4) =   1
     Q(r) pseudized with  8 coefficients,  rinner =    0.800   0.800   0.800

     PseudoPot. # 5 for H  read from file:
     /storage/coda1/p-amedford6/0/shared/rich_project_chbe-medford/medford-share/data/pseudos_module/espresso/nninc/pbe/van/H.UPF
     MD5 check sum: b5ee9d7bfd3a09ee7748110bda690ff7
     Pseudo is Ultrasoft, Zval =  1.0
     Generated by new atomic code, or converted to UPF format
     Using radial grid of  615 points,  1 beta functions with:
                l(1) =   0
     Q(r) pseudized with  8 coefficients,  rinner =    0.800

     atomic species   valence    mass     pseudopotential
        Ti1           12.00    47.86700     Ti( 1.00)
        O1             6.00    15.99900     O ( 1.00)
        N1             5.00    14.00700     N ( 1.00)
        C1             4.00    12.01100     C ( 1.00)
        H1             1.00     1.00800     H ( 1.00)

     No symmetry found

   Cartesian axes

     site n.     atom                  positions (alat units)
         1           Ti1 tau(   1) = (   0.0004258   2.9801865   6.0000000  )
         2           Ti1 tau(   2) = (   3.2906075   1.4906267   6.0002472  )
         3           O1  tau(   3) = (   0.0006271   0.0005054   7.9858123  )
         4           O1  tau(   4) = (   3.2906025   0.0005020   7.3038282  )
         5           O1  tau(   5) = (   4.5942328   1.4918067   9.2879030  )
         6           O1  tau(   6) = (   1.9868534   1.4903216   9.2879459  )
         7           Ti1 tau(   7) = (   3.2907910   2.8959150   9.1758416  )
         8           Ti1 tau(   8) = (   0.0015273   1.4827037   9.2680791  )
         9           O1  tau(   9) = (   3.2898722   0.0008919  11.3582996  )
        10           O1  tau(  10) = (   0.0116148   5.9584955  10.6183126  )
        11           O1  tau(  11) = (   1.2941175   1.4997011  12.6415926  )
        12           O1  tau(  12) = (   5.2900041   1.4988670  12.6311679  )
        13           Ti1 tau(  13) = (   0.0286627   2.9677426  12.5549903  )
        14           Ti1 tau(  14) = (   3.3305619   1.4761135  12.5169476  )
        15           O1  tau(  15) = (   0.0011522   0.0488603  14.6479508  )
        16           O1  tau(  16) = (   3.3026717   0.0283160  13.9913086  )
        17           O1  tau(  17) = (   4.5493611   1.5432082  16.1208237  )
        18           O1  tau(  18) = (   2.0202358   1.5417912  16.1150647  )
        19           Ti1 tau(  19) = (   3.2887705   3.0075965  15.7001020  )
        20           Ti1 tau(  20) = (   0.0091052   1.4341126  16.0176487  )
        21           O1  tau(  21) = (   3.2904802   0.0005063   4.7018136  )
        22           O1  tau(  22) = (   6.5755782   5.8726442  17.1894482  )
        23           O1  tau(  23) = (   1.3043587   1.4918075   6.0039043  )
        24           O1  tau(  24) = (   5.2767064   1.4903225   6.0039473  )
        25           Ti1 tau(  25) = (   0.0000382   5.9609847   6.0000000  )
        26           Ti1 tau(  26) = (   3.2902200   4.4714249   6.0002472  )
        27           O1  tau(  27) = (   0.0002396   2.9813036   7.9858123  )
        28           O1  tau(  28) = (   3.2902150   2.9813002   7.3038282  )
        29           O1  tau(  29) = (   4.5938453   4.4726049   9.2879030  )
        30           O1  tau(  30) = (   1.9864658   4.4711199   9.2879459  )
        31           Ti1 tau(  31) = (   3.2891106   5.8743827   9.1763621  )
        32           Ti1 tau(  32) = (   0.0006254   4.4649316   9.2693709  )
        33           O1  tau(  33) = (   3.2934734   2.9861727  11.3537610  )
        34           O1  tau(  34) = (   0.0092240   2.9805883  10.6323155  )
        35           O1  tau(  35) = (   1.2909626   4.4766429  12.6619247  )
        36           O1  tau(  36) = (   5.2900193   4.4803912  12.6490267  )
        37           Ti1 tau(  37) = (   0.0281377   5.9553508  12.5047683  )
        38           Ti1 tau(  38) = (   3.3302429   4.4653876  12.5079491  )
        39           O1  tau(  39) = (   6.5693844   2.9599090  14.8264494  )
        40           O1  tau(  40) = (   3.2969629   2.9925989  13.9157470  )
        41           O1  tau(  41) = (   4.5484520   4.4472025  16.1223275  )
        42           O1  tau(  42) = (   2.0280084   4.4594140  16.0867804  )
        43           Ti1 tau(  43) = (   3.2969344   0.0408593  15.8189202  )
        44           Ti1 tau(  44) = (   0.0203989   4.6198729  15.8219907  )
        45           O1  tau(  45) = (   3.2900926   2.9813045   4.7018136  )
        46           O1  tau(  46) = (   1.3039711   4.4726057   6.0039043  )
        47           O1  tau(  47) = (   5.2763189   4.4711207   6.0039473  )
        48           N1  tau(  48) = (   6.4956655   2.7544209  17.8339637  )
        49           C1  tau(  49) = (   0.7364952   2.7663736  18.8366375  )
        50           H1  tau(  50) = (   0.4484493   3.1383336  19.8159577  )
        51           H1  tau(  51) = (   1.7396475   2.3816028  18.7013769  )
        52           H1  tau(  52) = (   5.5670006   3.0916272  18.0861613  )
        53           O1  tau(  53) = (   3.3072362   0.1002980  18.2711691  )
        54           H1  tau(  54) = (   4.1501014   5.6086691  18.4387546  )
        55           H1  tau(  55) = (   2.5909652   5.4478326  18.5068232  )

     number of k points=    10  Fermi-Dirac smearing, width (Ry)=  0.0073
                       cart. coord. in units 2pi/alat
        k(    1) = (   0.0000000   0.0000000   0.0000000), wk =   0.1250000
        k(    2) = (   0.0000000   0.0419351   0.0000000), wk =   0.2500000
        k(    3) = (   0.0000000  -0.0838702   0.0000000), wk =   0.1250000
        k(    4) = (   0.0379955   0.0000049   0.0000000), wk =   0.2500000
        k(    5) = (   0.0379955   0.0419400   0.0000000), wk =   0.2500000
        k(    6) = (   0.0379955  -0.0838652   0.0000000), wk =   0.2500000
        k(    7) = (   0.0379955  -0.0419301   0.0000000), wk =   0.2500000
        k(    8) = (  -0.0759910  -0.0000099   0.0000000), wk =   0.1250000
        k(    9) = (  -0.0759910   0.0419252   0.0000000), wk =   0.2500000
        k(   10) = (  -0.0759910  -0.0838800   0.0000000), wk =   0.1250000

     Initial potential from superposition of free atoms

     starting charge  381.99915, renormalised to  398.00000

     negative rho (up, down):  1.643E-02 0.000E+00

     %%%%%%%%%%%%%%%%%%%%%%%%%%%%%%%%%%%%%%%%%%%%%%%%%%%%%%%%%%%%%%%%%%%%%%%%
     %                                                                      %
     % You are using vdW-DF, which was implemented by the Thonhauser group. %
     % Please cite the following two papers that made this development      %
     % possible and the two reviews that describe the various versions:     %
     %                                                                      %
     %   T. Thonhauser et al., PRL 115, 136402 (2015).                      %
     %   T. Thonhauser et al., PRB 76, 125112 (2007).                       %
     %   K. Berland et al., Rep. Prog. Phys. 78, 066501 (2015).             %
     %   D.C. Langreth et al., J. Phys.: Condens. Matter 21, 084203 (2009). %
     %                                                                      %
     %                                                                      %
     % If you are calculating the stress with vdW-DF, please also cite:     %
     %                                                                      %
     %   R. Sabatini et al., J. Phys.: Condens. Matter 24, 424209 (2012).   %
     %                                                                      %
     %%%%%%%%%%%%%%%%%%%%%%%%%%%%%%%%%%%%%%%%%%%%%%%%%%%%%%%%%%%%%%%%%%%%%%%%

     Adding external electric field

     Computed dipole along edir(3) :
        Dipole              -10.4015 Ry au,        -26.4380 Debye
        Dipole field         -0.0196 Ry au,

        Potential amp.        1.8196 Ry
        Total length         46.3494 bohr

     Starting wfcs are  301 atomic wfcs
  @ DRIVER MODE: Message from server: STATUS
  @ DRIVER MODE: Message from server: POSDATA
  @ DRIVER MODE: Reading and sharing cell
  @ DRIVER MODE: Reading and sharing positions
  @ DRIVER MODE: Received positions

     Self-consistent Calculation

     iteration #  1     ecut=    29.40 Ry     beta= 0.05
     Davidson diagonalization with overlap
     c_bands:  3 eigenvalues not converged
     c_bands:  3 eigenvalues not converged
     c_bands:  1 eigenvalues not converged
     c_bands:  4 eigenvalues not converged
     c_bands:  4 eigenvalues not converged
     c_bands:  4 eigenvalues not converged
     c_bands:  2 eigenvalues not converged
     c_bands:  3 eigenvalues not converged
     c_bands:  2 eigenvalues not converged
     ethr =  1.00E-05,  avg # of iterations = 19.9

[...]

     total energy              =   -2485.32961279 Ry
     estimated scf accuracy    <    5245.69831366 Ry

     iteration #  2     ecut=    29.40 Ry     beta= 0.05
     Davidson diagonalization with overlap
     ethr =  1.00E-02,  avg # of iterations = 24.9

[...]

     iteration # 61     ecut=    29.40 Ry     beta= 0.05
     Davidson diagonalization with overlap
     c_bands:  1 eigenvalues not converged
     ethr =  1.03E-09,  avg # of iterations = 10.9

[...]

     total energy              =   -2953.94960871 Ry
     estimated scf accuracy    <       0.00000029 Ry

     iteration # 74     ecut=    29.40 Ry     beta= 0.05
     Davidson diagonalization with overlap
     ethr =  2.81E-11,  avg # of iterations =  9.7

     negative rho (up, down):  1.567E-02 0.000E+00

     Adding external electric field

     Computed dipole along edir(3) :
        Dipole                1.2800 Ry au,          3.2534 Debye
        Dipole field          0.0024 Ry au,

        Potential amp.       -0.2239 Ry
        Total length         46.3494 bohr

     End of self-consistent calculation

          k = 0.0000 0.0000 0.0000 ( 18029 PWs)   bands (ev):

   -55.3911 -55.3713 -55.3550 -55.3383 -55.3372 -55.2712 -55.2266 -55.2063
   -55.1964 -55.1874 -55.1707 -55.1639 -55.1215 -54.9930 -54.3813 -54.3472
   -31.9514 -31.8605 -31.7590 -31.7445 -31.6992 -31.6964 -31.6947 -31.6613
   -31.6549 -31.6216 -31.6159 -31.6048 -31.5848 -31.5681 -31.5674 -31.5331
   -31.5305 -31.5241 -31.5095 -31.5067 -31.4821 -31.4546 -31.4515 -31.4343
   -31.4284 -31.4053 -31.4042 -31.4011 -31.3994 -31.3927 -31.3732 -31.3666
   -31.3605 -31.3560 -31.3465 -31.3298 -31.3275 -31.3210 -31.3037 -31.2931
   -31.2196 -31.1068 -30.7896 -30.6979 -30.6757 -30.6062 -30.5196 -30.4085
   -19.1647 -16.2527 -16.1576 -15.9133 -15.7324 -15.6436 -15.5816 -15.3924
   -15.3511 -15.2602 -15.1773 -15.0857 -15.0312 -14.9875 -14.9768 -14.9568
   -14.9310 -14.9209 -14.8831 -14.8684 -14.8668 -14.8200 -14.8178 -14.7790
   -14.7702 -14.7261 -14.7036 -14.5954 -14.5395 -14.4852 -14.0577 -12.8832
   -12.7662  -9.0776  -6.9811  -5.9795  -4.4515  -3.5492  -3.4007  -3.3878
    -3.3010  -3.2945  -3.2267  -3.1164  -2.9270  -2.7730  -2.6872  -2.6434
    -2.5921  -2.5677  -2.5092  -2.4552  -2.3603  -2.2888  -2.2582  -2.2258
    -2.2083  -2.1893  -2.1655  -2.1413  -2.1020  -2.0773  -2.0403  -1.9386
    -1.8526  -1.7989  -1.7842  -1.7137  -1.6909  -1.6850  -1.6769  -1.6670
    -1.6622  -1.6546  -1.6016  -1.5780  -1.5365  -1.4088  -1.3408  -1.2371
    -1.1226  -1.0700  -1.0313  -1.0131  -0.9241  -0.9182  -0.8632  -0.7868
    -0.7538  -0.7131  -0.7006  -0.5731  -0.4911  -0.4795  -0.4289  -0.3553
    -0.2973  -0.2566  -0.2002  -0.1758  -0.1533  -0.1364   0.0037   0.0363
     0.0798   0.1079   0.1370   0.2114   0.2482   0.3104   0.3579   0.3656
     0.4131   0.4997   0.5134   0.5631   0.5673   0.6121   0.6311   0.7264
     0.7616   0.7702   0.8361   0.8702   1.0127   1.2288   1.2365   1.2837
     1.5566   1.6183   1.6418   1.8287   2.2158   2.2630   3.7026   3.7935
     3.8325   3.8511   3.8640   3.9384   4.0777   4.1931   4.1975   4.2273
     4.2405

[...]

          k = 0.0380-0.0419 0.0000 ( 17876 PWs)   bands (ev):

[...]

          k =-0.0760-0.0000 0.0000 ( 17886 PWs)   bands (ev):

[...]

          k =-0.0760-0.0839 0.0000 ( 17948 PWs)   bands (ev):

   -55.3748 -55.3711 -55.3544 -55.3540 -55.3362 -55.2631 -55.2347 -55.1903
   -55.1892 -55.1851 -55.1812 -55.1804 -55.1191 -54.9952 -54.3643 -54.3641
   -31.7611 -31.7502 -31.6758 -31.6755 -31.6585 -31.6477 -31.6469 -31.6465
   -31.6192 -31.6075 -31.5892 -31.5851 -31.5778 -31.5587 -31.5393 -31.5248
   -31.5234 -31.5204 -31.5160 -31.5112 -31.5054 -31.4927 -31.4739 -31.4734
   -31.4671 -31.4656 -31.4638 -31.4337 -31.4227 -31.4150 -31.4046 -31.4006
   -31.4000 -31.3996 -31.3879 -31.3826 -31.3605 -31.3588 -31.3383 -31.2892
   -31.2230 -31.1925 -30.6884 -30.6883 -30.6023 -30.6021 -30.5630 -30.5629
   -19.1639 -16.1966 -15.6498 -15.5908 -15.5204 -15.3656 -15.3595 -15.3344
   -15.2724 -15.1742 -15.1602 -15.1286 -15.1206 -15.0863 -15.0744 -15.0545
   -15.0323 -14.9606 -14.9525 -14.9478 -14.9250 -14.8938 -14.8790 -14.8701
   -14.8482 -14.8436 -14.7880 -14.7410 -14.7381 -14.5466 -14.3530 -12.8679
   -12.8676  -9.0829  -6.9793  -5.9783  -4.4328  -3.3310  -2.9253  -2.7949
    -2.7433  -2.5933  -2.5662  -2.5189  -2.4617  -2.4013  -2.3745  -2.3552
    -2.3078  -2.3014  -2.2537  -2.2401  -2.2194  -2.2180  -2.2090  -2.1628
    -2.1457  -2.1382  -2.1190  -2.1043  -2.0934  -2.0742  -2.0462  -2.0366
    -2.0025  -1.9721  -1.9583  -1.9363  -1.8815  -1.7661  -1.7363  -1.6933
    -1.5819  -1.5741  -1.5691  -1.5297  -1.4800  -1.4741  -1.4464  -1.4169
    -1.3476  -1.3210  -1.1291  -1.1168  -1.1037  -1.0377  -1.0110  -0.9137
    -0.8949  -0.8276  -0.8102  -0.7952  -0.7088  -0.6787  -0.5732  -0.5650
    -0.5478  -0.5137  -0.4059  -0.3591  -0.3506  -0.3465  -0.3243  -0.2413
    -0.2263  -0.2085  -0.1743  -0.1463  -0.1130  -0.0997  -0.0159   0.1541
     0.1640   0.2516   0.3514   0.4455   0.5667   0.6375   0.6462   0.7010
     0.7441   0.8256   0.8691   0.9069   0.9262   1.0373   1.0698   1.0856
     1.0921   1.1475   2.0009   2.0023   2.0829   2.0832   3.7834   3.9327
     4.0020   4.0193   4.0592   4.1848   4.2241   4.2762   4.2778   4.2826
     4.3750

     the Fermi energy is     3.7484 ev

!    total energy              =   -2953.94962457 Ry
     estimated scf accuracy    <       0.00000007 Ry
     smearing contrib. (-TS)   =      -0.03631798 Ry
     internal energy E=F+TS    =   -2953.91330660 Ry

     The total energy is F=E-TS. E is the sum of the following terms:
     one-electron contribution =  -24165.21380396 Ry
     hartree contribution      =   12176.00119733 Ry
     xc contribution           =    -488.89203280 Ry
     ewald contribution        =    9524.18824099 Ry
     electric field correction =       0.00309184 Ry

     convergence has been achieved in  74 iterations

     Forces acting on atoms (cartesian axes, Ry/au):

     atom    1 type  1   force =     0.00006244   -0.00021045    0.09433039
     atom    2 type  1   force =    -0.00029470   -0.00032874   -0.17716649
     atom    3 type  2   force =     0.00001666   -0.00013618   -0.02177477
     atom    4 type  2   force =    -0.00002252   -0.00175376    0.05662976
     atom    5 type  2   force =    -0.01065712   -0.00110336    0.00625511
     atom    6 type  2   force =     0.01215601   -0.00035613    0.00530166
     atom    7 type  1   force =    -0.00069290    0.00164107   -0.01076273
     atom    8 type  1   force =     0.00018806    0.00660272    0.00670487
     atom    9 type  2   force =     0.00025098   -0.00039816   -0.00052831
     atom   10 type  2   force =    -0.00109506    0.00064535   -0.01011508
     atom   11 type  2   force =    -0.00026684   -0.00016828   -0.00022295
     atom   12 type  2   force =     0.00038374   -0.00023950    0.00001158
     atom   13 type  1   force =     0.00019149   -0.00051378    0.00121587
     atom   14 type  1   force =    -0.00007844    0.00039463    0.00043444
     atom   15 type  2   force =     0.00008747    0.00025760    0.00122497
     atom   16 type  2   force =    -0.00018918   -0.00065588    0.00021663
     atom   17 type  2   force =    -0.00011354   -0.00016519   -0.00028226
     atom   18 type  2   force =    -0.00111872    0.00003158    0.00053311
     atom   19 type  1   force =     0.00126768   -0.00032298   -0.00045472
     atom   20 type  1   force =    -0.00160015    0.00063143   -0.00067857
     atom   21 type  2   force =     0.00000564   -0.00004528    0.10374699
     atom   22 type  2   force =    -0.00001037    0.00057138    0.00070685
     atom   23 type  2   force =    -0.07090736   -0.00015376   -0.02716876
     atom   24 type  2   force =     0.07075227    0.00028715   -0.02723703
     atom   25 type  1   force =     0.00000803   -0.00014531    0.09409457
     atom   26 type  1   force =    -0.00022657   -0.00036781   -0.17732425
     atom   27 type  2   force =     0.00005438   -0.00032122   -0.02068885
     atom   28 type  2   force =     0.00005101   -0.00136681    0.05587391
     atom   29 type  2   force =    -0.01088403    0.00029247    0.00603250
     atom   30 type  2   force =     0.01228732    0.00055253    0.00506991
     atom   31 type  1   force =    -0.00057181    0.00495450   -0.01402940
     atom   32 type  1   force =     0.00030706   -0.00744105    0.00637875
     atom   33 type  2   force =     0.00025097    0.00012946   -0.00019327
     atom   34 type  2   force =    -0.00066393    0.00182382   -0.00595382
     atom   35 type  2   force =    -0.00002320   -0.00024054    0.00002590
     atom   36 type  2   force =     0.00025353   -0.00031600    0.00018639
     atom   37 type  1   force =     0.00021976    0.00091110    0.00050950
     atom   38 type  1   force =    -0.00008926    0.00004858    0.00068324
     atom   39 type  2   force =     0.00036992    0.00027116    0.00005200
     atom   40 type  2   force =    -0.00012423   -0.00037987    0.00054987
     atom   41 type  2   force =    -0.00067856   -0.00018785   -0.00049332
     atom   42 type  2   force =    -0.00029514    0.00008636    0.00037626
     atom   43 type  1   force =     0.00087889   -0.00148010   -0.00063054
     atom   44 type  1   force =    -0.00121501    0.00025740   -0.00142581
     atom   45 type  2   force =     0.00000543   -0.00009910    0.10373428
     atom   46 type  2   force =    -0.07093117   -0.00009108   -0.02716719
     atom   47 type  2   force =     0.07077375    0.00033787   -0.02722038
     atom   48 type  3   force =    -0.00284453    0.00133908    0.00282493
     atom   49 type  4   force =     0.00162913   -0.00081275    0.00007449
     atom   50 type  5   force =    -0.00006111   -0.00034546   -0.00024077
     atom   51 type  5   force =     0.00049114   -0.00021075   -0.00004689
     atom   52 type  5   force =     0.00152527   -0.00028389   -0.00227179
     atom   53 type  2   force =     0.00087280   -0.00113120    0.00075576
     atom   54 type  5   force =    -0.00036228    0.00047030   -0.00005234
     atom   55 type  5   force =     0.00067687   -0.00076532   -0.00040416

     Total force =     0.365739     Total SCF correction =     0.000906
  @ DRIVER MODE: Message from server: STATUS
  @ DRIVER MODE: Message from server: GETFORCE
  @ DRIVER MODE: Returning v,forces,stress,ensemble

     Writing output data file ./calc.save/
  @ DRIVER MODE: Message from server: EXIT
  @ DRIVE MODE: Exiting

     General routines

     Parallel routines

   This run was terminated on:   1:58:37  16Sep2021

   JOB DONE.