     Program PWSCF v.6.7GPU starts on 15Sep2021 at 20:59:18

     R & G space division:  proc/nbgrp/npool/nimage =      10
     Reading input from /storage/home/hcoda1/3/ntian30/research/carbon/CxH_vib/H2O_calc/ads_slab/CH3NNH3H2O_a/out_0015/pw.inp
Warning: card &CELL ignored
Warning: card   CELL_DYNAMICS='IPI', ignored
Warning: card / ignored

     Current dimensions of program PWSCF are:
     Max number of different atomic species (ntypx) = 10
     Max number of k-points (npk) =  40000
     Max angular momentum in pseudopotentials (lmaxx) =  3
     Presently no symmetry can be used with electric field

     Message from routine cell_base_init:
     DEPRECATED: use true lattice parameter, not A to a.u. conversion factor

     IMPORTANT: XC functional enforced from input :
     Exchange-correlation= BEEF-VDW
                           (   1   4  43  14   2   0   0)
     Any further DFT definition will be discarded
     Please, verify this is what you really want

  @ DRIVER MODE: Connecting to
 qe_1139763_2852621.sched-torque.pace.gatech.eduhm1ds7ej_scratch
  using UNIX socket
  @ DRIVER MODE: Message from server: STATUS
  @ DRIVER MODE: Message from server: INIT
  @ DRIVER MODE: Receiving replica           0          -1
  @ DRIVER MODE: Receiving encoded integer          25
  @ DRIVER MODE:  SCF:  T  FORCE:  T  STRESS:  F  VC:  F  ENSEMBLE:  F
  @ DRIVER MODE:  SCF:  T  FORCE:  T  STRESS:  F  VC:  F  ENSEMBLE:  F

     Using Slab Decomposition

     bravais-lattice index     =            0
     lattice parameter (alat)  =       1.8897  a.u.
     unit-cell volume          =    6658.9804 (a.u.)^3
     number of atoms/cell      =           59
     number of atomic types    =            5
     number of electrons       =       406.00
     number of Kohn-Sham states=          213
     kinetic-energy cutoff     =      29.3995  Ry
     charge density cutoff     =     293.9946  Ry
     scf convergence threshold =      7.3E-08
     mixing beta               =       0.0500
     number of iterations used =            8  plain     mixing
     Exchange-correlation= BEEF-VDW
                           (   1   4  43  14   2   0   0)

     celldm(1)=   1.889726  celldm(2)=   0.000000  celldm(3)=   0.000000
     celldm(4)=   0.000000  celldm(5)=   0.000000  celldm(6)=   0.000000

     crystal axes: (cart. coord. in units of alat)
               a(1) = (   6.579727   0.000000   0.000000 )
               a(2) = (  -0.000775   5.961596   0.000000 )
               a(3) = (   0.000000   0.000000  25.155947 )

     reciprocal axes: (cart. coord. in units 2 pi/alat)
               b(1) = (  0.151982  0.000020  0.000000 )
               b(2) = (  0.000000  0.167740  0.000000 )
               b(3) = (  0.000000  0.000000  0.039752 )

     PseudoPot. # 1 for Ti read from file:
     /storage/coda1/p-amedford6/0/shared/rich_project_chbe-medford/medford-share/data/pseudos_module/espresso/nninc/pbe/van/Ti.UPF
     MD5 check sum: 8e4df49b7f0d34bbd5052bf3f5ea0213
     Pseudo is Ultrasoft, Zval = 12.0
     Generated by new atomic code, or converted to UPF format
     Using radial grid of  851 points,  6 beta functions with:
                l(1) =   0
                l(2) =   0
                l(3) =   1
                l(4) =   1
                l(5) =   2
                l(6) =   2
     Q(r) pseudized with  8 coefficients,  rinner =    1.000   1.000   1.000
                                                       1.000   1.000

     PseudoPot. # 2 for O  read from file:
     /storage/coda1/p-amedford6/0/shared/rich_project_chbe-medford/medford-share/data/pseudos_module/espresso/nninc/pbe/van/O.UPF
     MD5 check sum: 78c19812648e8988a0fe644b0f25305e
     Pseudo is Ultrasoft, Zval =  6.0
     Generated by new atomic code, or converted to UPF format
     Using radial grid of  737 points,  4 beta functions with:
                l(1) =   0
                l(2) =   0
                l(3) =   1
                l(4) =   1
     Q(r) pseudized with  8 coefficients,  rinner =    0.800   0.800   0.800

     PseudoPot. # 3 for N  read from file:
     /storage/coda1/p-amedford6/0/shared/rich_project_chbe-medford/medford-share/data/pseudos_module/espresso/nninc/pbe/van/N.UPF
     MD5 check sum: 90d10febe142ad51ac9d5be1deb811c4
     Pseudo is Ultrasoft, Zval =  5.0
     Generated by new atomic code, or converted to UPF format
     Using radial grid of  729 points,  4 beta functions with:
                l(1) =   0
                l(2) =   0
                l(3) =   1
                l(4) =   1
     Q(r) pseudized with  8 coefficients,  rinner =    0.800   0.800   0.800

     PseudoPot. # 4 for C  read from file:
     /storage/coda1/p-amedford6/0/shared/rich_project_chbe-medford/medford-share/data/pseudos_module/espresso/nninc/pbe/van/C.UPF
     MD5 check sum: 1a69bf6b8db32088f5b2163dbdb77a27
     Pseudo is Ultrasoft, Zval =  4.0
     Generated by new atomic code, or converted to UPF format
     Using radial grid of  721 points,  4 beta functions with:
                l(1) =   0
                l(2) =   0
                l(3) =   1
                l(4) =   1
     Q(r) pseudized with  8 coefficients,  rinner =    0.800   0.800   0.800

     PseudoPot. # 5 for H  read from file:
     /storage/coda1/p-amedford6/0/shared/rich_project_chbe-medford/medford-share/data/pseudos_module/espresso/nninc/pbe/van/H.UPF
     MD5 check sum: b5ee9d7bfd3a09ee7748110bda690ff7
     Pseudo is Ultrasoft, Zval =  1.0
     Generated by new atomic code, or converted to UPF format
     Using radial grid of  615 points,  1 beta functions with:
                l(1) =   0
     Q(r) pseudized with  8 coefficients,  rinner =    0.800

     atomic species   valence    mass     pseudopotential
        Ti1           12.00    47.86700     Ti( 1.00)
        O1             6.00    15.99900     O ( 1.00)
        N1             5.00    14.00700     N ( 1.00)
        C1             4.00    12.01100     C ( 1.00)
        H1             1.00     1.00800     H ( 1.00)

     No symmetry found

   Cartesian axes

     site n.     atom                  positions (alat units)
         1           Ti1 tau(   1) = (   0.0004258   2.9801865   6.0000000  )
         2           Ti1 tau(   2) = (   3.2906075   1.4906267   6.0002472  )
         3           O1  tau(   3) = (   0.0006271   0.0005054   7.9858123  )
         4           O1  tau(   4) = (   3.2906025   0.0005020   7.3038282  )
         5           O1  tau(   5) = (   4.5942328   1.4918067   9.2879030  )
         6           O1  tau(   6) = (   1.9868534   1.4903216   9.2879459  )
         7           Ti1 tau(   7) = (   3.2907910   2.8959150   9.1758416  )
         8           Ti1 tau(   8) = (   0.0015273   1.4827037   9.2680791  )
         9           O1  tau(   9) = (   3.2954490   0.0159868  11.2922163  )
        10           O1  tau(  10) = (   0.0116148   5.9584955  10.6183126  )
        11           O1  tau(  11) = (   1.3242731   1.5050266  12.6143764  )
        12           O1  tau(  12) = (   5.3073597   1.5103589  12.6267567  )
        13           Ti1 tau(  13) = (   6.4831477   3.0011104  12.7364612  )
        14           Ti1 tau(  14) = (   3.1751638   1.4975352  12.4748964  )
        15           O1  tau(  15) = (   0.0212859   5.9607631  14.5987152  )
        16           O1  tau(  16) = (   3.3058086   0.0238703  13.8910224  )
        17           O1  tau(  17) = (   4.5539421   1.5574750  15.9960573  )
        18           O1  tau(  18) = (   2.0731809   1.5597727  15.9888445  )
        19           Ti1 tau(  19) = (   3.3176354   3.0289328  15.6523405  )
        20           Ti1 tau(  20) = (   0.0198791   1.6227889  16.0606591  )
        21           O1  tau(  21) = (   3.2904802   0.0005063   4.7018136  )
        22           O1  tau(  22) = (   0.0290054   0.0533443  17.2129705  )
        23           O1  tau(  23) = (   1.3043587   1.4918075   6.0039043  )
        24           O1  tau(  24) = (   5.2767064   1.4903225   6.0039473  )
        25           Ti1 tau(  25) = (   0.0000382   5.9609847   6.0000000  )
        26           Ti1 tau(  26) = (   3.2902200   4.4714249   6.0002472  )
        27           O1  tau(  27) = (   0.0002396   2.9813036   7.9858123  )
        28           O1  tau(  28) = (   3.2902150   2.9813002   7.3038282  )
        29           O1  tau(  29) = (   4.5938453   4.4726049   9.2879030  )
        30           O1  tau(  30) = (   1.9864658   4.4711199   9.2879459  )
        31           Ti1 tau(  31) = (   3.2891106   5.8743827   9.1763621  )
        32           Ti1 tau(  32) = (   0.0006254   4.4649316   9.2693709  )
        33           O1  tau(  33) = (   3.2918316   2.9938763  11.2915017  )
        34           O1  tau(  34) = (   0.0092240   2.9805883  10.6323155  )
        35           O1  tau(  35) = (   1.3226278   4.4784642  12.6110361  )
        36           O1  tau(  36) = (   5.3078083   4.4770455  12.6250823  )
        37           Ti1 tau(  37) = (   6.5141033   0.0190828  12.7620745  )
        38           Ti1 tau(  38) = (   3.1722404   4.4939287  12.4712879  )
        39           O1  tau(  39) = (   0.0035410   2.9850241  14.6487316  )
        40           O1  tau(  40) = (   3.3118331   3.0109266  13.8519036  )
        41           O1  tau(  41) = (   4.5522870   4.5059159  16.0259181  )
        42           O1  tau(  42) = (   2.0778134   4.5048723  16.0185459  )
        43           Ti1 tau(  43) = (   3.3116469   0.0596163  15.7453941  )
        44           Ti1 tau(  44) = (   0.0183239   4.5967015  16.1059876  )
        45           O1  tau(  45) = (   3.2900926   2.9813045   4.7018136  )
        46           O1  tau(  46) = (   1.3039711   4.4726057   6.0039043  )
        47           O1  tau(  47) = (   5.2763189   4.4711207   6.0039473  )
        48           N1  tau(  48) = (   0.0600715   3.0265251  17.3188267  )
        49           N1  tau(  49) = (   6.2826239   2.5295367  22.6224490  )
        50           C1  tau(  50) = (   0.2859397   3.0049959  18.7399364  )
        51           H1  tau(  51) = (   0.1411154   4.0060466  19.1894648  )
        52           H1  tau(  52) = (   6.1913215   2.3105648  19.2421896  )
        53           H1  tau(  53) = (   1.3125146   2.6868920  18.9691123  )
        54           H1  tau(  54) = (   6.1000088   3.2491606  23.3142794  )
        55           H1  tau(  55) = (   0.1456284   1.7586669  23.1118534  )
        56           H1  tau(  56) = (   0.3974265   2.9048463  21.9856970  )
        57           O1  tau(  57) = (   3.2908421   0.1144680  18.1630233  )
        58           H1  tau(  58) = (   4.0679411   5.5688996  18.4486002  )
        59           H1  tau(  59) = (   2.5060966   5.5711546  18.4327789  )

     number of k points=    10  Fermi-Dirac smearing, width (Ry)=  0.0073
                       cart. coord. in units 2pi/alat
        k(    1) = (   0.0000000   0.0000000   0.0000000), wk =   0.1250000
        k(    2) = (   0.0000000   0.0419351   0.0000000), wk =   0.2500000
        k(    3) = (   0.0000000  -0.0838702   0.0000000), wk =   0.1250000
        k(    4) = (   0.0379955   0.0000049   0.0000000), wk =   0.2500000
        k(    5) = (   0.0379955   0.0419400   0.0000000), wk =   0.2500000
        k(    6) = (   0.0379955  -0.0838652   0.0000000), wk =   0.2500000
        k(    7) = (   0.0379955  -0.0419301   0.0000000), wk =   0.2500000
        k(    8) = (  -0.0759910  -0.0000099   0.0000000), wk =   0.1250000
        k(    9) = (  -0.0759910   0.0419252   0.0000000), wk =   0.2500000
        k(   10) = (  -0.0759910  -0.0838800   0.0000000), wk =   0.1250000

     Initial potential from superposition of free atoms

     starting charge  389.99912, renormalised to  406.00000

     negative rho (up, down):  6.917E-03 0.000E+00

     %%%%%%%%%%%%%%%%%%%%%%%%%%%%%%%%%%%%%%%%%%%%%%%%%%%%%%%%%%%%%%%%%%%%%%%%
     %                                                                      %
     % You are using vdW-DF, which was implemented by the Thonhauser group. %
     % Please cite the following two papers that made this development      %
     % possible and the two reviews that describe the various versions:     %
     %                                                                      %
     %   T. Thonhauser et al., PRL 115, 136402 (2015).                      %
     %   T. Thonhauser et al., PRB 76, 125112 (2007).                       %
     %   K. Berland et al., Rep. Prog. Phys. 78, 066501 (2015).             %
     %   D.C. Langreth et al., J. Phys.: Condens. Matter 21, 084203 (2009). %
     %                                                                      %
     %                                                                      %
     % If you are calculating the stress with vdW-DF, please also cite:     %
     %                                                                      %
     %   R. Sabatini et al., J. Phys.: Condens. Matter 24, 424209 (2012).   %
     %                                                                      %
     %%%%%%%%%%%%%%%%%%%%%%%%%%%%%%%%%%%%%%%%%%%%%%%%%%%%%%%%%%%%%%%%%%%%%%%%

     Adding external electric field

     Computed dipole along edir(3) :
        Dipole              -16.2336 Ry au,        -41.2616 Debye
        Dipole field         -0.0306 Ry au,

        Potential amp.        2.8398 Ry
        Total length         46.3494 bohr

     Starting wfcs are  308 atomic wfcs
  @ DRIVER MODE: Message from server: STATUS
  @ DRIVER MODE: Message from server: POSDATA
  @ DRIVER MODE: Reading and sharing cell
  @ DRIVER MODE: Reading and sharing positions
  @ DRIVER MODE: Received positions

     Self-consistent Calculation

     iteration #  1     ecut=    29.40 Ry     beta= 0.05
     Davidson diagonalization with overlap
     c_bands:  2 eigenvalues not converged
     c_bands:  3 eigenvalues not converged
     c_bands:  5 eigenvalues not converged
     c_bands:  3 eigenvalues not converged
     c_bands:  3 eigenvalues not converged
     c_bands:  3 eigenvalues not converged
     c_bands:  1 eigenvalues not converged
     c_bands:  5 eigenvalues not converged
     c_bands:  3 eigenvalues not converged
     ethr =  1.00E-05,  avg # of iterations = 20.6

[...]

     total energy              =   -2253.46959564 Ry
     estimated scf accuracy    <    8262.97054293 Ry

     iteration #  2     ecut=    29.40 Ry     beta= 0.05
     Davidson diagonalization with overlap
     ethr =  1.00E-02,  avg # of iterations = 25.7

[...]

     iteration # 45     ecut=    29.40 Ry     beta= 0.05
     Davidson diagonalization with overlap
     c_bands:  1 eigenvalues not converged
     c_bands:  1 eigenvalues not converged
     ethr =  3.26E-07,  avg # of iterations = 11.2

[...]

     total energy              =   -2977.74420721 Ry
     estimated scf accuracy    <       0.00000039 Ry

     iteration # 67     ecut=    29.40 Ry     beta= 0.05
     Davidson diagonalization with overlap
     ethr =  3.96E-11,  avg # of iterations =  5.4

     negative rho (up, down):  8.780E-03 0.000E+00

     Adding external electric field

     Computed dipole along edir(3) :
        Dipole                0.7623 Ry au,          1.9375 Debye
        Dipole field          0.0014 Ry au,

        Potential amp.       -0.1333 Ry
        Total length         46.3494 bohr

     End of self-consistent calculation

          k = 0.0000 0.0000 0.0000 ( 18029 PWs)   bands (ev):

   -56.2651 -56.2314 -55.3814 -55.3474 -55.3391 -55.3042 -55.1556 -55.1204
   -55.0332 -54.9143 -54.8949 -54.8929 -54.8804 -54.8081 -54.3927 -54.3411
   -32.6917 -32.5394 -32.5112 -32.4414 -32.3504 -32.3179 -31.8492 -31.8213
   -31.6910 -31.6471 -31.5984 -31.5804 -31.5503 -31.5411 -31.5122 -31.5071
   -31.4885 -31.4822 -31.4587 -31.4455 -31.4316 -31.3821 -31.3720 -31.3333
   -31.3209 -31.3052 -31.2950 -31.2819 -31.2574 -31.2565 -31.2539 -31.2297
   -31.1337 -31.1243 -31.0827 -31.0727 -31.0448 -31.0411 -31.0309 -31.0122
   -30.9817 -30.9302 -30.9066 -30.6355 -30.6141 -30.5816 -30.5603 -30.4518
   -18.4454 -16.4205 -15.9537 -15.7099 -15.6214 -15.5376 -15.4995 -15.4551
   -15.3013 -15.2355 -15.2132 -15.2120 -15.1409 -14.9926 -14.9463 -14.8483
   -14.7538 -14.6187 -14.6018 -14.5695 -14.5501 -14.5177 -14.5103 -14.4584
   -14.2956 -14.2600 -14.2126 -14.1482 -14.0638 -14.0363 -13.8378 -13.4128
   -13.3031 -12.6407  -7.4472  -6.2356  -4.1025  -4.0818  -3.9879  -3.4534
    -3.1835  -3.1565  -3.0281  -3.0224  -2.9762  -2.8368  -2.8161  -2.7520
    -2.7331  -2.6791  -2.6199  -2.6126  -2.5357  -2.4478  -2.4358  -2.4154
    -2.4022  -2.3849  -2.2640  -2.2222  -2.1700  -2.0670  -1.9585  -1.9146
    -1.8881  -1.8448  -1.8063  -1.7598  -1.7468  -1.7318  -1.7262  -1.6136
    -1.5014  -1.4674  -1.4524  -1.4071  -1.3873  -1.3799  -1.3569  -1.2716
    -1.1623  -1.0681  -1.0018  -0.9886  -0.9229  -0.9147  -0.8527  -0.7388
    -0.6783  -0.6736  -0.6585  -0.5553  -0.5272  -0.4559  -0.3925  -0.3354
    -0.2808  -0.2184  -0.1678  -0.1463  -0.1329  -0.0332   0.0380   0.0616
     0.1129   0.1214   0.1320   0.1513   0.2488   0.2842   0.3592   0.4025
     0.4388   0.4838   0.5670   0.6164   0.6845   0.7347   0.7567   0.8190
     0.8716   0.9277   1.0231   1.0750   1.0778   1.0856   1.1073   1.1682
     1.1820   1.2589   1.3416   1.3559   1.4296   1.4977   1.6573   1.6964
     1.9561   2.0190   2.6431   3.0122   3.1736   3.4687   3.6590   3.7967
     3.9916   4.0019   4.0090   4.2369   4.2599

[...]

          k = 0.0380-0.0419 0.0000 ( 17876 PWs)   bands (ev):

[...]

          k =-0.0760-0.0000 0.0000 ( 17886 PWs)   bands (ev):

[...]

          k =-0.0760-0.0839 0.0000 ( 17948 PWs)   bands (ev):

   -56.2484 -56.2479 -55.3664 -55.3620 -55.3266 -55.3168 -55.1391 -55.1368
   -55.0310 -54.8973 -54.8972 -54.8950 -54.8912 -54.8116 -54.3859 -54.3477
   -32.5253 -32.5249 -32.5087 -32.5085 -32.3946 -32.3942 -31.6729 -31.6670
   -31.6572 -31.6497 -31.5732 -31.5582 -31.5564 -31.5521 -31.5458 -31.5443
   -31.5385 -31.5298 -31.4972 -31.4807 -31.3845 -31.3824 -31.3488 -31.3431
   -31.3234 -31.2873 -31.2489 -31.2427 -31.2426 -31.2404 -31.2163 -31.1937
   -31.1512 -31.1221 -31.1218 -31.1172 -31.0939 -31.0830 -31.0829 -31.0671
   -31.0498 -31.0143 -30.7678 -30.7038 -30.6121 -30.5875 -30.5678 -30.5216
   -18.4445 -15.7710 -15.7691 -15.7339 -15.7332 -15.4662 -15.4628 -15.3688
   -15.3635 -15.2286 -15.1118 -15.0107 -14.9980 -14.9623 -14.9349 -14.8227
   -14.8020 -14.7925 -14.7822 -14.6702 -14.6502 -14.6048 -14.5941 -14.5774
   -14.5674 -14.2739 -14.2606 -14.1580 -14.1340 -14.0356 -13.9908 -13.4067
   -13.4067 -12.6593  -7.4408  -6.2281  -4.1124  -4.0836  -2.8677  -2.8604
    -2.8265  -2.8058  -2.8047  -2.7069  -2.6405  -2.6143  -2.5997  -2.5988
    -2.5224  -2.4488  -2.4408  -2.3699  -2.3367  -2.3171  -2.2588  -2.2478
    -2.1831  -2.1569  -2.1485  -2.1319  -2.1089  -2.1077  -2.0104  -1.9478
    -1.8959  -1.8925  -1.8248  -1.8067  -1.7426  -1.7221  -1.7106  -1.6796
    -1.6378  -1.6160  -1.5826  -1.5490  -1.5068  -1.4477  -1.2824  -1.2733
    -1.2633  -1.2417  -1.1168  -1.1095  -1.0790  -1.0495  -1.0437  -0.9690
    -0.9198  -0.8849  -0.8265  -0.7436  -0.7211  -0.6188  -0.5680  -0.5221
    -0.4656  -0.3591  -0.3421  -0.3307  -0.3221  -0.2912  -0.2253  -0.1952
    -0.1805  -0.0594  -0.0399   0.0145   0.0338   0.0903   0.1166   0.1810
     0.2079   0.2801   0.2908   0.3316   0.4055   0.4861   0.5208   0.5673
     0.5720   0.8488   0.9224   1.0538   1.0666   1.1209   1.1797   1.2507
     1.3119   1.3432   1.3697   1.4919   1.4962   1.5051   1.5056   1.5779
     1.5830   1.9319   2.5200   3.5882   3.5885   3.6550   3.6557   3.9764
     3.9827   4.0897   4.1001   4.2616   4.2767

     the Fermi energy is     2.8396 ev

!    total energy              =   -2977.74423665 Ry
     estimated scf accuracy    <       0.00000004 Ry
     smearing contrib. (-TS)   =      -0.00443627 Ry
     internal energy E=F+TS    =   -2977.73980037 Ry

     The total energy is F=E-TS. E is the sum of the following terms:
     one-electron contribution =  -22875.93885844 Ry
     hartree contribution      =   11535.67345305 Ry
     xc contribution           =    -496.32715967 Ry
     ewald contribution        =    8858.85166819 Ry
     electric field correction =       0.00109650 Ry

     convergence has been achieved in  67 iterations

     Forces acting on atoms (cartesian axes, Ry/au):

     atom    1 type  1   force =    -0.00003416   -0.00046733    0.12456126
     atom    2 type  1   force =    -0.00008549   -0.00047798   -0.15977076
     atom    3 type  2   force =     0.00019109   -0.00024456   -0.06796045
     atom    4 type  2   force =    -0.00000733   -0.00011573    0.02617652
     atom    5 type  2   force =    -0.01448594    0.00182026   -0.00991419
     atom    6 type  2   force =     0.01626422    0.00224445   -0.01026168
     atom    7 type  1   force =     0.00071116   -0.00387194    0.02894420
     atom    8 type  1   force =    -0.00034526   -0.00440645    0.10958200
     atom    9 type  2   force =     0.00023894   -0.00029373   -0.00055311
     atom   10 type  2   force =    -0.00231394    0.00256350   -0.07340307
     atom   11 type  2   force =    -0.00002668   -0.00033282   -0.00001521
     atom   12 type  2   force =    -0.00015342   -0.00081648    0.00001031
     atom   13 type  1   force =     0.00106427   -0.00040984    0.00018370
     atom   14 type  1   force =    -0.00065486    0.00064231   -0.00006104
     atom   15 type  2   force =    -0.00028673   -0.00048120   -0.00085138
     atom   16 type  2   force =    -0.00001767   -0.00011343    0.00063609
     atom   17 type  2   force =     0.00012883   -0.00091567   -0.00023268
     atom   18 type  2   force =     0.00051897   -0.00052053    0.00010540
     atom   19 type  1   force =    -0.00114243   -0.00010147   -0.00094922
     atom   20 type  1   force =     0.00074837   -0.00035732   -0.00061537
     atom   21 type  2   force =     0.00004636   -0.00003870    0.09943300
     atom   22 type  2   force =     0.00002236   -0.00026104   -0.00049418
     atom   23 type  2   force =    -0.07968580   -0.00005789   -0.03249742
     atom   24 type  2   force =     0.07952944    0.00037989   -0.03254801
     atom   25 type  1   force =    -0.00000971   -0.00057587    0.12421149
     atom   26 type  1   force =    -0.00008477   -0.00062364   -0.15991186
     atom   27 type  2   force =     0.00030009   -0.00036340   -0.06701392
     atom   28 type  2   force =    -0.00002075    0.00015046    0.02509362
     atom   29 type  2   force =    -0.01510775    0.00192933   -0.00985356
     atom   30 type  2   force =     0.01678329    0.00242879   -0.01016848
     atom   31 type  1   force =     0.00074354   -0.00074901    0.02411757
     atom   32 type  1   force =    -0.00027333    0.00204719    0.11020134
     atom   33 type  2   force =     0.00007786    0.00029165    0.00054121
     atom   34 type  2   force =    -0.00193598    0.00199991   -0.07171081
     atom   35 type  2   force =    -0.00001574    0.00033703   -0.00002908
     atom   36 type  2   force =    -0.00053293    0.00060098   -0.00007226
     atom   37 type  1   force =     0.00120947    0.00042138    0.00042004
     atom   38 type  1   force =    -0.00055674   -0.00089117   -0.00016716
     atom   39 type  2   force =    -0.00027523   -0.00014394    0.00090554
     atom   40 type  2   force =     0.00017631   -0.00013093    0.00020766
     atom   41 type  2   force =     0.00105251    0.00015391    0.00013273
     atom   42 type  2   force =    -0.00048237   -0.00022789    0.00049685
     atom   43 type  1   force =    -0.00160315    0.00002471   -0.00027940
     atom   44 type  1   force =     0.00097932   -0.00033516   -0.00006365
     atom   45 type  2   force =     0.00002180   -0.00004806    0.09939574
     atom   46 type  2   force =    -0.07970107    0.00000371   -0.03250989
     atom   47 type  2   force =     0.07955406    0.00043789   -0.03253827
     atom   48 type  3   force =    -0.00090172   -0.00248615   -0.00061397
     atom   49 type  3   force =    -0.00032133   -0.00049942    0.00130506
     atom   50 type  4   force =     0.00005919    0.01905036    0.00008658
     atom   51 type  5   force =     0.00087862   -0.00850511   -0.00246033
     atom   52 type  5   force =    -0.00383232   -0.00610659    0.00323294
     atom   53 type  5   force =     0.00290080   -0.00257617    0.00059807
     atom   54 type  5   force =     0.00006177   -0.00023244   -0.00060687
     atom   55 type  5   force =     0.00002484    0.00031294   -0.00029414
     atom   56 type  5   force =     0.00028668    0.00039020   -0.00182308
     atom   57 type  2   force =     0.00160543   -0.00048488   -0.00037285
     atom   58 type  5   force =    -0.00045201    0.00089308    0.00004482
     atom   59 type  5   force =    -0.00083299    0.00014002   -0.00000639

     Total force =     0.424205     Total SCF correction =     0.000551
  @ DRIVER MODE: Message from server: STATUS
  @ DRIVER MODE: Message from server: GETFORCE
  @ DRIVER MODE: Returning v,forces,stress,ensemble

     Writing output data file ./calc.save/
  @ DRIVER MODE: Message from server: EXIT
  @ DRIVE MODE: Exiting

     General routines

     Parallel routines

   This run was terminated on:  21:17:47  15Sep2021

   JOB DONE.