     Program PWSCF v.6.7GPU starts on  9Sep2021 at  9:19:36

     R & G space division:  proc/nbgrp/npool/nimage =      10
     Reading input from /storage/home/hcoda1/3/ntian30/research/carbon/CxH_vib/CH3_calc/ads_slab/CH3NH2NH_c/out_0034/pw.inp
Warning: card &CELL ignored
Warning: card   CELL_DYNAMICS='IPI', ignored
Warning: card / ignored

     Current dimensions of program PWSCF are:
     Max number of different atomic species (ntypx) = 10
     Max number of k-points (npk) =  40000
     Max angular momentum in pseudopotentials (lmaxx) =  3
     Presently no symmetry can be used with electric field

     Message from routine cell_base_init:
     DEPRECATED: use true lattice parameter, not A to a.u. conversion factor

     IMPORTANT: XC functional enforced from input :
     Exchange-correlation= BEEF-VDW
                           (   1   4  43  14   2   0   0)
     Any further DFT definition will be discarded
     Please, verify this is what you really want

  @ DRIVER MODE: Connecting to
 qe_1139763_2767400.sched-torque.pace.gatech.edumx27lj_u_scratch
  using UNIX socket
  @ DRIVER MODE: Message from server: STATUS
  @ DRIVER MODE: Message from server: INIT
  @ DRIVER MODE: Receiving replica           0          -1
  @ DRIVER MODE: Receiving encoded integer          25
  @ DRIVER MODE:  SCF:  T  FORCE:  T  STRESS:  F  VC:  F  ENSEMBLE:  F
  @ DRIVER MODE:  SCF:  T  FORCE:  T  STRESS:  F  VC:  F  ENSEMBLE:  F

     Using Slab Decomposition

     bravais-lattice index     =            0
     lattice parameter (alat)  =       1.8897  a.u.
     unit-cell volume          =    6658.9804 (a.u.)^3
     number of atoms/cell      =           56
     number of atomic types    =            5
     number of electrons       =       398.00
     number of Kohn-Sham states=          209
     kinetic-energy cutoff     =      29.3995  Ry
     charge density cutoff     =     293.9946  Ry
     scf convergence threshold =      7.3E-08
     mixing beta               =       0.0500
     number of iterations used =            8  plain     mixing
     Exchange-correlation= BEEF-VDW
                           (   1   4  43  14   2   0   0)

     celldm(1)=   1.889726  celldm(2)=   0.000000  celldm(3)=   0.000000
     celldm(4)=   0.000000  celldm(5)=   0.000000  celldm(6)=   0.000000

     crystal axes: (cart. coord. in units of alat)
               a(1) = (   6.579727   0.000000   0.000000 )
               a(2) = (  -0.000775   5.961596   0.000000 )
               a(3) = (   0.000000   0.000000  25.155947 )

     reciprocal axes: (cart. coord. in units 2 pi/alat)
               b(1) = (  0.151982  0.000020  0.000000 )
               b(2) = (  0.000000  0.167740  0.000000 )
               b(3) = (  0.000000  0.000000  0.039752 )

     PseudoPot. # 1 for Ti read from file:
     /storage/coda1/p-amedford6/0/shared/rich_project_chbe-medford/medford-share/data/pseudos_module/espresso/nninc/pbe/van/Ti.UPF
     MD5 check sum: 8e4df49b7f0d34bbd5052bf3f5ea0213
     Pseudo is Ultrasoft, Zval = 12.0
     Generated by new atomic code, or converted to UPF format
     Using radial grid of  851 points,  6 beta functions with:
                l(1) =   0
                l(2) =   0
                l(3) =   1
                l(4) =   1
                l(5) =   2
                l(6) =   2
     Q(r) pseudized with  8 coefficients,  rinner =    1.000   1.000   1.000
                                                       1.000   1.000

     PseudoPot. # 2 for O  read from file:
     /storage/coda1/p-amedford6/0/shared/rich_project_chbe-medford/medford-share/data/pseudos_module/espresso/nninc/pbe/van/O.UPF
     MD5 check sum: 78c19812648e8988a0fe644b0f25305e
     Pseudo is Ultrasoft, Zval =  6.0
     Generated by new atomic code, or converted to UPF format
     Using radial grid of  737 points,  4 beta functions with:
                l(1) =   0
                l(2) =   0
                l(3) =   1
                l(4) =   1
     Q(r) pseudized with  8 coefficients,  rinner =    0.800   0.800   0.800

     PseudoPot. # 3 for N  read from file:
     /storage/coda1/p-amedford6/0/shared/rich_project_chbe-medford/medford-share/data/pseudos_module/espresso/nninc/pbe/van/N.UPF
     MD5 check sum: 90d10febe142ad51ac9d5be1deb811c4
     Pseudo is Ultrasoft, Zval =  5.0
     Generated by new atomic code, or converted to UPF format
     Using radial grid of  729 points,  4 beta functions with:
                l(1) =   0
                l(2) =   0
                l(3) =   1
                l(4) =   1
     Q(r) pseudized with  8 coefficients,  rinner =    0.800   0.800   0.800

     PseudoPot. # 4 for C  read from file:
     /storage/coda1/p-amedford6/0/shared/rich_project_chbe-medford/medford-share/data/pseudos_module/espresso/nninc/pbe/van/C.UPF
     MD5 check sum: 1a69bf6b8db32088f5b2163dbdb77a27
     Pseudo is Ultrasoft, Zval =  4.0
     Generated by new atomic code, or converted to UPF format
     Using radial grid of  721 points,  4 beta functions with:
                l(1) =   0
                l(2) =   0
                l(3) =   1
                l(4) =   1
     Q(r) pseudized with  8 coefficients,  rinner =    0.800   0.800   0.800

     PseudoPot. # 5 for H  read from file:
     /storage/coda1/p-amedford6/0/shared/rich_project_chbe-medford/medford-share/data/pseudos_module/espresso/nninc/pbe/van/H.UPF
     MD5 check sum: b5ee9d7bfd3a09ee7748110bda690ff7
     Pseudo is Ultrasoft, Zval =  1.0
     Generated by new atomic code, or converted to UPF format
     Using radial grid of  615 points,  1 beta functions with:
                l(1) =   0
     Q(r) pseudized with  8 coefficients,  rinner =    0.800

     atomic species   valence    mass     pseudopotential
        Ti1           12.00    47.86700     Ti( 1.00)
        O1             6.00    15.99900     O ( 1.00)
        N1             5.00    14.00700     N ( 1.00)
        C1             4.00    12.01100     C ( 1.00)
        H1             1.00     1.00800     H ( 1.00)

     No symmetry found

   Cartesian axes

     site n.     atom                  positions (alat units)
         1           Ti1 tau(   1) = (   0.0004258   2.9801865   6.0000000  )
         2           Ti1 tau(   2) = (   3.2906075   1.4906267   6.0002472  )
         3           O1  tau(   3) = (   0.0006271   0.0005054   7.9858123  )
         4           O1  tau(   4) = (   3.2906025   0.0005020   7.3038282  )
         5           O1  tau(   5) = (   4.5942328   1.4918067   9.2879030  )
         6           O1  tau(   6) = (   1.9868534   1.4903216   9.2879459  )
         7           Ti1 tau(   7) = (   3.2907910   2.8959150   9.1758416  )
         8           Ti1 tau(   8) = (   0.0015273   1.4827037   9.2680791  )
         9           O1  tau(   9) = (   3.3032705   0.0110091  11.3485381  )
        10           O1  tau(  10) = (   0.0116148   5.9584955  10.6183126  )
        11           O1  tau(  11) = (   1.3020657   1.4959176  12.6398190  )
        12           O1  tau(  12) = (   5.2896457   1.4919019  12.6612249  )
        13           Ti1 tau(  13) = (   0.0353884   3.0012823  12.5523301  )
        14           Ti1 tau(  14) = (   3.3275346   1.5008247  12.4978572  )
        15           O1  tau(  15) = (   0.0424128   0.0047235  14.7277795  )
        16           O1  tau(  16) = (   3.2762846   0.0047332  13.9819514  )
        17           O1  tau(  17) = (   4.5591522   1.5298593  16.0930730  )
        18           O1  tau(  18) = (   2.0612242   1.5646392  16.2256692  )
        19           Ti1 tau(  19) = (   3.3170857   3.0293758  15.7013767  )
        20           Ti1 tau(  20) = (   6.5267591   1.5471840  15.7818195  )
        21           O1  tau(  21) = (   3.2904802   0.0005063   4.7018136  )
        22           O1  tau(  22) = (   0.0258072   0.0396315  17.3287798  )
        23           O1  tau(  23) = (   1.3043587   1.4918075   6.0039043  )
        24           O1  tau(  24) = (   5.2767064   1.4903225   6.0039473  )
        25           Ti1 tau(  25) = (   0.0000382   5.9609847   6.0000000  )
        26           Ti1 tau(  26) = (   3.2902200   4.4714249   6.0002472  )
        27           O1  tau(  27) = (   0.0002396   2.9813036   7.9858123  )
        28           O1  tau(  28) = (   3.2902150   2.9813002   7.3038282  )
        29           O1  tau(  29) = (   4.5938453   4.4726049   9.2879030  )
        30           O1  tau(  30) = (   1.9864658   4.4711199   9.2879459  )
        31           Ti1 tau(  31) = (   3.2891106   5.8743827   9.1763621  )
        32           Ti1 tau(  32) = (   0.0006254   4.4649316   9.2693709  )
        33           O1  tau(  33) = (   3.3047253   2.9863606  11.3412877  )
        34           O1  tau(  34) = (   0.0092240   2.9805883  10.6323155  )
        35           O1  tau(  35) = (   1.3023160   4.4818153  12.6295520  )
        36           O1  tau(  36) = (   5.2910779   4.4839738  12.6480862  )
        37           Ti1 tau(  37) = (   0.0306270   0.0097343  12.5156175  )
        38           Ti1 tau(  38) = (   3.3295341   4.4791655  12.4867326  )
        39           O1  tau(  39) = (   0.0319336   2.9935560  14.7343221  )
        40           O1  tau(  40) = (   3.2835893   3.0037955  13.9224844  )
        41           O1  tau(  41) = (   4.5669158   4.4809188  16.1713821  )
        42           O1  tau(  42) = (   2.0542530   4.4668402  16.2247519  )
        43           Ti1 tau(  43) = (   3.3000170   0.0150779  15.7669526  )
        44           Ti1 tau(  44) = (   0.0416703   4.6955124  16.1636639  )
        45           O1  tau(  45) = (   3.2900926   2.9813045   4.7018136  )
        46           O1  tau(  46) = (   1.3039711   4.4726057   6.0039043  )
        47           O1  tau(  47) = (   5.2763189   4.4711207   6.0039473  )
        48           N1  tau(  48) = (   0.9019483   2.4226080  18.4567899  )
        49           N1  tau(  49) = (   6.4923839   2.9153054  17.5348467  )
        50           C1  tau(  50) = (   1.2734633   3.3482217  19.5544901  )
        51           H1  tau(  51) = (   0.3921683   3.5464126  20.1615046  )
        52           H1  tau(  52) = (   2.0553077   2.8833093  20.1573268  )
        53           H1  tau(  53) = (   1.6239766   4.2828770  19.1044814  )
        54           H1  tau(  54) = (   0.5870980   1.4942747  18.7832689  )
        55           H1  tau(  55) = (   5.5983569   2.8486818  18.0159164  )
        56           H1  tau(  56) = (   1.7025450   2.1792920  17.8234971  )

     number of k points=    10  Fermi-Dirac smearing, width (Ry)=  0.0073
                       cart. coord. in units 2pi/alat
        k(    1) = (   0.0000000   0.0000000   0.0000000), wk =   0.1250000
        k(    2) = (   0.0000000   0.0419351   0.0000000), wk =   0.2500000
        k(    3) = (   0.0000000  -0.0838702   0.0000000), wk =   0.1250000
        k(    4) = (   0.0379955   0.0000049   0.0000000), wk =   0.2500000
        k(    5) = (   0.0379955   0.0419400   0.0000000), wk =   0.2500000
        k(    6) = (   0.0379955  -0.0838652   0.0000000), wk =   0.2500000
        k(    7) = (   0.0379955  -0.0419301   0.0000000), wk =   0.2500000
        k(    8) = (  -0.0759910  -0.0000099   0.0000000), wk =   0.1250000
        k(    9) = (  -0.0759910   0.0419252   0.0000000), wk =   0.2500000
        k(   10) = (  -0.0759910  -0.0838800   0.0000000), wk =   0.1250000

     Initial potential from superposition of free atoms

     starting charge  381.99914, renormalised to  398.00000

     negative rho (up, down):  1.484E-02 0.000E+00

     %%%%%%%%%%%%%%%%%%%%%%%%%%%%%%%%%%%%%%%%%%%%%%%%%%%%%%%%%%%%%%%%%%%%%%%%
     %                                                                      %
     % You are using vdW-DF, which was implemented by the Thonhauser group. %
     % Please cite the following two papers that made this development      %
     % possible and the two reviews that describe the various versions:     %
     %                                                                      %
     %   T. Thonhauser et al., PRL 115, 136402 (2015).                      %
     %   T. Thonhauser et al., PRB 76, 125112 (2007).                       %
     %   K. Berland et al., Rep. Prog. Phys. 78, 066501 (2015).             %
     %   D.C. Langreth et al., J. Phys.: Condens. Matter 21, 084203 (2009). %
     %                                                                      %
     %                                                                      %
     % If you are calculating the stress with vdW-DF, please also cite:     %
     %                                                                      %
     %   R. Sabatini et al., J. Phys.: Condens. Matter 24, 424209 (2012).   %
     %                                                                      %
     %%%%%%%%%%%%%%%%%%%%%%%%%%%%%%%%%%%%%%%%%%%%%%%%%%%%%%%%%%%%%%%%%%%%%%%%

     Adding external electric field

     Computed dipole along edir(3) :
        Dipole              -10.9106 Ry au,        -27.7320 Debye
        Dipole field         -0.0206 Ry au,

        Potential amp.        1.9086 Ry
        Total length         46.3494 bohr

     Starting wfcs are  302 atomic wfcs
  @ DRIVER MODE: Message from server: STATUS
  @ DRIVER MODE: Message from server: POSDATA
  @ DRIVER MODE: Reading and sharing cell
  @ DRIVER MODE: Reading and sharing positions
  @ DRIVER MODE: Received positions

     Self-consistent Calculation

     iteration #  1     ecut=    29.40 Ry     beta= 0.05
     Davidson diagonalization with overlap
     c_bands:  5 eigenvalues not converged
     c_bands:  3 eigenvalues not converged
     c_bands:  1 eigenvalues not converged
     c_bands:  2 eigenvalues not converged
     c_bands:  3 eigenvalues not converged
     c_bands:  4 eigenvalues not converged
     c_bands:  4 eigenvalues not converged
     ethr =  1.00E-05,  avg # of iterations = 24.4

[...]

     total energy              =   -2445.37748582 Ry
     estimated scf accuracy    <    5568.56760125 Ry

     iteration #  2     ecut=    29.40 Ry     beta= 0.05
     Davidson diagonalization with overlap
     ethr =  1.00E-02,  avg # of iterations = 23.7

[...]

     iteration # 71     ecut=    29.40 Ry     beta= 0.05
     Davidson diagonalization with overlap
     c_bands:  3 eigenvalues not converged
     c_bands:  1 eigenvalues not converged
     ethr =  2.37E-11,  avg # of iterations = 14.6

[...]

     total energy              =   -2942.84144192 Ry
     estimated scf accuracy    <       0.00000014 Ry

     iteration # 72     ecut=    29.40 Ry     beta= 0.05
     Davidson diagonalization with overlap
     ethr =  2.37E-11,  avg # of iterations =  6.4

     negative rho (up, down):  1.048E-02 0.000E+00

     Adding external electric field

     Computed dipole along edir(3) :
        Dipole                1.5782 Ry au,          4.0114 Debye
        Dipole field          0.0030 Ry au,

        Potential amp.       -0.2761 Ry
        Total length         46.3494 bohr

     End of self-consistent calculation

          k = 0.0000 0.0000 0.0000 ( 18029 PWs)   bands (ev):

   -55.0912 -55.0558 -55.0521 -55.0217 -54.9685 -54.9659 -54.9284 -54.8917
   -54.8834 -54.8690 -54.8559 -54.8511 -54.8041 -54.7596 -54.0658 -54.0318
   -31.6652 -31.5452 -31.4553 -31.4256 -31.3866 -31.3819 -31.3802 -31.3506
   -31.3476 -31.3460 -31.3029 -31.3009 -31.3003 -31.2658 -31.2476 -31.2280
   -31.2083 -31.2045 -31.1952 -31.1934 -31.1668 -31.1495 -31.1480 -31.1219
   -31.1126 -31.0985 -31.0959 -31.0936 -31.0901 -31.0770 -31.0721 -31.0648
   -31.0523 -31.0415 -31.0229 -31.0150 -31.0074 -31.0017 -30.9970 -30.9914
   -30.9869 -30.9522 -30.4743 -30.3826 -30.3604 -30.2909 -30.2042 -30.0931
   -19.1632 -15.9340 -15.6594 -15.5368 -15.3262 -15.2767 -15.2037 -15.0085
   -14.9437 -14.8876 -14.8773 -14.8659 -14.8491 -14.7778 -14.6988 -14.6183
   -14.6157 -14.6090 -14.5977 -14.5802 -14.5730 -14.5105 -14.5032 -14.4713
   -14.4593 -14.4192 -14.3121 -14.2303 -14.1734 -14.0227 -13.3239 -12.5684
   -12.4514 -11.0984  -7.8770  -6.5501  -5.8683  -4.0945  -3.9289  -3.2791
    -3.0937  -3.0700  -3.0094  -2.9843  -2.8095  -2.7598  -2.5554  -2.4484
    -2.3609  -2.3220  -2.3096  -2.2930  -2.1429  -2.0751  -2.0407  -1.9934
    -1.9697  -1.9470  -1.9057  -1.8980  -1.8674  -1.8493  -1.8409  -1.6635
    -1.5878  -1.5393  -1.5091  -1.4710  -1.4213  -1.3931  -1.3749  -1.3703
    -1.3650  -1.3459  -1.3143  -1.2533  -1.2249  -1.1686  -1.1007  -1.0739
    -0.9842  -0.9019  -0.7147  -0.6690  -0.6513  -0.6152  -0.5551  -0.5063
    -0.4722  -0.4371  -0.4229  -0.3564  -0.2874  -0.2550  -0.1924  -0.1280
    -0.1174  -0.0546  -0.0476   0.1141   0.1258   0.1472   0.2384   0.3246
     0.3726   0.3807   0.4390   0.5130   0.5352   0.5450   0.5814   0.6018
     0.6783   0.7875   0.8122   0.8540   0.8655   0.8991   0.9221   0.9767
     1.0005   1.0634   1.0696   1.1740   1.2230   1.2559   1.5058   1.5388
     1.8693   1.9027   1.9567   2.1433   2.5306   2.5777   4.0170   4.0797
     4.0932   4.1427   4.1660   4.1848   4.2571   4.4778   4.5030   4.5092
     4.5167

[...]

          k = 0.0380-0.0419 0.0000 ( 17876 PWs)   bands (ev):

[...]

          k =-0.0760-0.0000 0.0000 ( 17886 PWs)   bands (ev):

[...]

          k =-0.0760-0.0839 0.0000 ( 17948 PWs)   bands (ev):

   -55.0791 -55.0640 -55.0387 -55.0386 -54.9654 -54.9549 -54.9394 -54.8746
   -54.8718 -54.8710 -54.8692 -54.8669 -54.7981 -54.7655 -54.0489 -54.0486
   -31.4728 -31.4632 -31.4005 -31.3604 -31.3603 -31.3589 -31.3316 -31.3313
   -31.3002 -31.2962 -31.2913 -31.2852 -31.2598 -31.2255 -31.2183 -31.2123
   -31.2102 -31.2064 -31.2056 -31.1968 -31.1646 -31.1636 -31.1600 -31.1580
   -31.1577 -31.1549 -31.1504 -31.1340 -31.1086 -31.1048 -31.0989 -31.0896
   -31.0878 -31.0857 -31.0847 -31.0685 -31.0503 -31.0490 -31.0380 -31.0323
   -31.0077 -30.9913 -30.3731 -30.3730 -30.2869 -30.2867 -30.2476 -30.2475
   -19.1592 -15.4172 -15.3269 -15.1785 -15.1590 -15.1099 -15.0619 -15.0454
   -15.0279 -14.9716 -14.9322 -14.8864 -14.8378 -14.7947 -14.7925 -14.7539
   -14.6819 -14.6604 -14.6583 -14.6438 -14.5929 -14.5822 -14.5546 -14.5359
   -14.5308 -14.4876 -14.4281 -14.4245 -14.3852 -14.2065 -13.3342 -12.5530
   -12.5529 -11.1009  -7.8872  -6.5338  -5.8574  -4.0680  -3.9196  -2.6861
    -2.5869  -2.5271  -2.4204  -2.3335  -2.2932  -2.2587  -2.1240  -2.1044
    -2.0859  -2.0599  -2.0469  -2.0127  -2.0049  -1.9568  -1.9277  -1.9173
    -1.9110  -1.8982  -1.8760  -1.8280  -1.8055  -1.7960  -1.7866  -1.7479
    -1.7340  -1.7020  -1.6961  -1.6572  -1.6357  -1.5506  -1.4614  -1.4216
    -1.3715  -1.3063  -1.2720  -1.2653  -1.1720  -1.1638  -1.1408  -1.1074
    -1.0621  -0.9415  -0.8841  -0.8212  -0.8173  -0.8043  -0.6973  -0.6597
    -0.6295  -0.5939  -0.5569  -0.5265  -0.4881  -0.4413  -0.3645  -0.3337
    -0.2942  -0.2579  -0.1854  -0.0975  -0.0784  -0.0473  -0.0431   0.0430
     0.0680   0.1063   0.1155   0.1347   0.1913   0.2045   0.2917   0.3817
     0.4460   0.5343   0.6478   0.6525   0.7298   0.8218   0.9092   0.9473
     0.9989   1.0645   1.0668   1.1004   1.2216   1.2288   1.3503   1.3892
     1.3979   1.4203   2.3157   2.3167   2.3978   2.3979   4.1460   4.2437
     4.2827   4.3239   4.3759   4.5213   4.5444   4.5900   4.5904   4.6614
     4.6748

     the Fermi energy is     4.0635 ev

!    total energy              =   -2942.84145585 Ry
     estimated scf accuracy    <       0.00000004 Ry
     smearing contrib. (-TS)   =      -0.03725023 Ry
     internal energy E=F+TS    =   -2942.80420562 Ry

     The total energy is F=E-TS. E is the sum of the following terms:
     one-electron contribution =  -23856.43684528 Ry
     hartree contribution      =   12023.54706768 Ry
     xc contribution           =    -487.74973257 Ry
     ewald contribution        =    9377.83060419 Ry
     electric field correction =       0.00470035 Ry

     convergence has been achieved in  72 iterations

     Forces acting on atoms (cartesian axes, Ry/au):

     atom    1 type  1   force =     0.00001749   -0.00023680    0.09430941
     atom    2 type  1   force =    -0.00015821   -0.00054604   -0.17710450
     atom    3 type  2   force =     0.00001769   -0.00024647   -0.02146445
     atom    4 type  2   force =    -0.00001464   -0.00167745    0.05643314
     atom    5 type  2   force =    -0.01049574   -0.00075410    0.00562688
     atom    6 type  2   force =     0.01226146   -0.00009858    0.00551939
     atom    7 type  1   force =    -0.00024397    0.00107353   -0.01571058
     atom    8 type  1   force =    -0.00006747    0.00525046    0.00656372
     atom    9 type  2   force =    -0.00030574    0.00055647    0.00021771
     atom   10 type  2   force =    -0.00199790    0.00265872   -0.00434395
     atom   11 type  2   force =     0.00039960   -0.00022526    0.00028221
     atom   12 type  2   force =    -0.00008101   -0.00029349   -0.00019254
     atom   13 type  1   force =    -0.00073039    0.00044385   -0.00004160
     atom   14 type  1   force =     0.00037709   -0.00016950    0.00003391
     atom   15 type  2   force =    -0.00018828   -0.00060202   -0.00037978
     atom   16 type  2   force =     0.00005215    0.00038063   -0.00030895
     atom   17 type  2   force =     0.00079995    0.00016768    0.00039629
     atom   18 type  2   force =    -0.00015224    0.00008784   -0.00013192
     atom   19 type  1   force =     0.00029856    0.00078784    0.00036553
     atom   20 type  1   force =    -0.00047191    0.00019803    0.00054282
     atom   21 type  2   force =    -0.00001923   -0.00011573    0.10365696
     atom   22 type  2   force =     0.00018766    0.00038219    0.00044409
     atom   23 type  2   force =    -0.07091049   -0.00021493   -0.02719288
     atom   24 type  2   force =     0.07071043    0.00023816   -0.02724136
     atom   25 type  1   force =     0.00001774   -0.00027471    0.09397852
     atom   26 type  1   force =    -0.00025231   -0.00055401   -0.17737666
     atom   27 type  2   force =     0.00005914   -0.00007888   -0.02059925
     atom   28 type  2   force =     0.00002536   -0.00136446    0.05572484
     atom   29 type  2   force =    -0.01079879   -0.00000457    0.00592253
     atom   30 type  2   force =     0.01248781    0.00028301    0.00577388
     atom   31 type  1   force =    -0.00017153    0.00517703   -0.01628998
     atom   32 type  1   force =    -0.00008949   -0.00625098    0.00669877
     atom   33 type  2   force =    -0.00009660   -0.00047700    0.00024528
     atom   34 type  2   force =    -0.00163594    0.00066872   -0.00774473
     atom   35 type  2   force =    -0.00032855    0.00005842    0.00042320
     atom   36 type  2   force =     0.00057769    0.00005847   -0.00006654
     atom   37 type  1   force =    -0.00082631   -0.00078342   -0.00008773
     atom   38 type  1   force =     0.00048503    0.00001504    0.00043912
     atom   39 type  2   force =    -0.00028900   -0.00019015    0.00059499
     atom   40 type  2   force =    -0.00005431   -0.00019490   -0.00022706
     atom   41 type  2   force =     0.00013284   -0.00048153    0.00028106
     atom   42 type  2   force =    -0.00019665   -0.00028136    0.00047045
     atom   43 type  1   force =     0.00001553   -0.00070820   -0.00019519
     atom   44 type  1   force =     0.00028340    0.00041051    0.00031651
     atom   45 type  2   force =    -0.00002317   -0.00011786    0.10365119
     atom   46 type  2   force =    -0.07091659   -0.00014090   -0.02716245
     atom   47 type  2   force =     0.07071932    0.00028039   -0.02723380
     atom   48 type  3   force =     0.00015288    0.00197468    0.00027442
     atom   49 type  3   force =     0.00030178   -0.00097716    0.00072165
     atom   50 type  4   force =     0.00336567    0.00864526   -0.00351310
     atom   51 type  5   force =     0.00009963   -0.00081476    0.00075552
     atom   52 type  5   force =    -0.00028531    0.00068128   -0.00007615
     atom   53 type  5   force =    -0.00255160   -0.01005119    0.00384261
     atom   54 type  5   force =     0.00017213   -0.00025634    0.00009393
     atom   55 type  5   force =    -0.00016292   -0.00054281    0.00017660
     atom   56 type  5   force =     0.00049828   -0.00075263   -0.00009198

     Total force =     0.365971     Total SCF correction =     0.000368
  @ DRIVER MODE: Message from server: STATUS
  @ DRIVER MODE: Message from server: GETFORCE
  @ DRIVER MODE: Returning v,forces,stress,ensemble

     Writing output data file ./calc.save/
  @ DRIVER MODE: Message from server: EXIT
  @ DRIVE MODE: Exiting

     General routines

     Parallel routines

   This run was terminated on:   9:39:21   9Sep2021

   JOB DONE.