     Program PWSCF v.6.7GPU starts on 18Aug2021 at 21: 4: 9

     R & G space division:  proc/nbgrp/npool/nimage =       8
     Reading input from /storage/home/hcoda1/3/ntian30/research/carbon/CH2_calc/ads_slab/CH2NNH3_a/CH2_calc.log/pw.inp
Warning: card &CELL ignored
Warning: card   CELL_DYNAMICS='IPI', ignored
Warning: card / ignored

     Current dimensions of program PWSCF are:
     Max number of different atomic species (ntypx) = 10
     Max number of k-points (npk) =  40000
     Max angular momentum in pseudopotentials (lmaxx) =  3
     Presently no symmetry can be used with electric field

     Message from routine cell_base_init:
     DEPRECATED: use true lattice parameter, not A to a.u. conversion factor

     IMPORTANT: XC functional enforced from input :
     Exchange-correlation= BEEF-VDW
                           (   1   4  43  14   2   0   0)
     Any further DFT definition will be discarded
     Please, verify this is what you really want

  @ DRIVER MODE: Connecting to
 qe_1139763_2596346.sched-torque.pace.gatech.edure4r2r8__scratch
  using UNIX socket
  @ DRIVER MODE: Message from server: STATUS
  @ DRIVER MODE: Message from server: INIT
  @ DRIVER MODE: Receiving replica           0          -1
  @ DRIVER MODE: Receiving encoded integer          25
  @ DRIVER MODE:  SCF:  T  FORCE:  T  STRESS:  F  VC:  F  ENSEMBLE:  F
  @ DRIVER MODE:  SCF:  T  FORCE:  T  STRESS:  F  VC:  F  ENSEMBLE:  F

     Using Slab Decomposition

     bravais-lattice index     =            0
     lattice parameter (alat)  =       1.8897  a.u.
     unit-cell volume          =    6658.9804 (a.u.)^3
     number of atoms/cell      =           55
     number of atomic types    =            5
     number of electrons       =       397.00
     number of Kohn-Sham states=          208
     kinetic-energy cutoff     =      29.3995  Ry
     charge density cutoff     =     293.9946  Ry
     scf convergence threshold =      7.3E-08
     mixing beta               =       0.0500
     number of iterations used =            8  plain     mixing
     Exchange-correlation= BEEF-VDW
                           (   1   4  43  14   2   0   0)

     celldm(1)=   1.889726  celldm(2)=   0.000000  celldm(3)=   0.000000
     celldm(4)=   0.000000  celldm(5)=   0.000000  celldm(6)=   0.000000

     crystal axes: (cart. coord. in units of alat)
               a(1) = (   6.579727   0.000000   0.000000 )
               a(2) = (  -0.000775   5.961596   0.000000 )
               a(3) = (   0.000000   0.000000  25.155947 )

     reciprocal axes: (cart. coord. in units 2 pi/alat)
               b(1) = (  0.151982  0.000020  0.000000 )
               b(2) = (  0.000000  0.167740  0.000000 )
               b(3) = (  0.000000  0.000000  0.039752 )

     PseudoPot. # 1 for Ti read from file:
     /storage/coda1/p-amedford6/0/shared/rich_project_chbe-medford/medford-share/data/pseudos_module/espresso/nninc/pbe/van/Ti.UPF
     MD5 check sum: 8e4df49b7f0d34bbd5052bf3f5ea0213
     Pseudo is Ultrasoft, Zval = 12.0
     Generated by new atomic code, or converted to UPF format
     Using radial grid of  851 points,  6 beta functions with:
                l(1) =   0
                l(2) =   0
                l(3) =   1
                l(4) =   1
                l(5) =   2
                l(6) =   2
     Q(r) pseudized with  8 coefficients,  rinner =    1.000   1.000   1.000
                                                       1.000   1.000

     PseudoPot. # 2 for O  read from file:
     /storage/coda1/p-amedford6/0/shared/rich_project_chbe-medford/medford-share/data/pseudos_module/espresso/nninc/pbe/van/O.UPF
     MD5 check sum: 78c19812648e8988a0fe644b0f25305e
     Pseudo is Ultrasoft, Zval =  6.0
     Generated by new atomic code, or converted to UPF format
     Using radial grid of  737 points,  4 beta functions with:
                l(1) =   0
                l(2) =   0
                l(3) =   1
                l(4) =   1
     Q(r) pseudized with  8 coefficients,  rinner =    0.800   0.800   0.800

     PseudoPot. # 3 for N  read from file:
     /storage/coda1/p-amedford6/0/shared/rich_project_chbe-medford/medford-share/data/pseudos_module/espresso/nninc/pbe/van/N.UPF
     MD5 check sum: 90d10febe142ad51ac9d5be1deb811c4
     Pseudo is Ultrasoft, Zval =  5.0
     Generated by new atomic code, or converted to UPF format
     Using radial grid of  729 points,  4 beta functions with:
                l(1) =   0
                l(2) =   0
                l(3) =   1
                l(4) =   1
     Q(r) pseudized with  8 coefficients,  rinner =    0.800   0.800   0.800

     PseudoPot. # 4 for C  read from file:
     /storage/coda1/p-amedford6/0/shared/rich_project_chbe-medford/medford-share/data/pseudos_module/espresso/nninc/pbe/van/C.UPF
     MD5 check sum: 1a69bf6b8db32088f5b2163dbdb77a27
     Pseudo is Ultrasoft, Zval =  4.0
     Generated by new atomic code, or converted to UPF format
     Using radial grid of  721 points,  4 beta functions with:
                l(1) =   0
                l(2) =   0
                l(3) =   1
                l(4) =   1
     Q(r) pseudized with  8 coefficients,  rinner =    0.800   0.800   0.800

     PseudoPot. # 5 for H  read from file:
     /storage/coda1/p-amedford6/0/shared/rich_project_chbe-medford/medford-share/data/pseudos_module/espresso/nninc/pbe/van/H.UPF
     MD5 check sum: b5ee9d7bfd3a09ee7748110bda690ff7
     Pseudo is Ultrasoft, Zval =  1.0
     Generated by new atomic code, or converted to UPF format
     Using radial grid of  615 points,  1 beta functions with:
                l(1) =   0
     Q(r) pseudized with  8 coefficients,  rinner =    0.800

     atomic species   valence    mass     pseudopotential
        Ti1           12.00    47.86700     Ti( 1.00)
        O1             6.00    15.99900     O ( 1.00)
        N1             5.00    14.00700     N ( 1.00)
        C1             4.00    12.01100     C ( 1.00)
        H1             1.00     1.00800     H ( 1.00)

     No symmetry found

   Cartesian axes

     site n.     atom                  positions (alat units)
         1           Ti1 tau(   1) = (   0.0004258   2.9801865   6.0000000  )
         2           Ti1 tau(   2) = (   3.2906075   1.4906267   6.0002472  )
         3           O1  tau(   3) = (   0.0006271   0.0005054   7.9858123  )
         4           O1  tau(   4) = (   3.2906025   0.0005020   7.3038282  )
         5           O1  tau(   5) = (   4.5942328   1.4918067   9.2879030  )
         6           O1  tau(   6) = (   1.9868534   1.4903216   9.2879459  )
         7           Ti1 tau(   7) = (   3.2907910   2.8959150   9.1758416  )
         8           Ti1 tau(   8) = (   0.0015273   1.4827037   9.2680791  )
         9           O1  tau(   9) = (   3.2797308   5.9473376  11.3602069  )
        10           O1  tau(  10) = (   0.0116148   5.9584955  10.6183126  )
        11           O1  tau(  11) = (   1.2902197   1.4970218  12.6485984  )
        12           O1  tau(  12) = (   5.2825647   1.4998509  12.6204812  )
        13           Ti1 tau(  13) = (   6.5707130   2.9731531  12.5352273  )
        14           Ti1 tau(  14) = (   3.2824754   1.4851695  12.4964603  )
        15           O1  tau(  15) = (   6.5335774   0.0914421  14.6722524  )
        16           O1  tau(  16) = (   3.3157438   0.0180770  13.9903400  )
        17           O1  tau(  17) = (   4.5084513   1.5196572  16.2619966  )
        18           O1  tau(  18) = (   2.0062152   1.4815140  16.1839734  )
        19           Ti1 tau(  19) = (   3.2259906   2.9465836  15.7211513  )
        20           Ti1 tau(  20) = (   6.5090593   1.4075841  16.1508600  )
        21           O1  tau(  21) = (   3.2904802   0.0005063   4.7018136  )
        22           O1  tau(  22) = (   6.5630310   5.8123487  17.2302531  )
        23           O1  tau(  23) = (   1.3043587   1.4918075   6.0039043  )
        24           O1  tau(  24) = (   5.2767064   1.4903225   6.0039473  )
        25           Ti1 tau(  25) = (   0.0000382   5.9609847   6.0000000  )
        26           Ti1 tau(  26) = (   3.2902200   4.4714249   6.0002472  )
        27           O1  tau(  27) = (   0.0002396   2.9813036   7.9858123  )
        28           O1  tau(  28) = (   3.2902150   2.9813002   7.3038282  )
        29           O1  tau(  29) = (   4.5938453   4.4726049   9.2879030  )
        30           O1  tau(  30) = (   1.9864658   4.4711199   9.2879459  )
        31           Ti1 tau(  31) = (   3.2891106   5.8743827   9.1763621  )
        32           Ti1 tau(  32) = (   0.0006254   4.4649316   9.2693709  )
        33           O1  tau(  33) = (   3.2783824   2.9878764  11.3535400  )
        34           O1  tau(  34) = (   0.0092240   2.9805883  10.6323155  )
        35           O1  tau(  35) = (   1.2857266   4.4729298  12.7006550  )
        36           O1  tau(  36) = (   5.2845514   4.4687958  12.6640455  )
        37           Ti1 tau(  37) = (   6.5734551   0.0101047  12.5124135  )
        38           Ti1 tau(  38) = (   3.2852174   4.4611384  12.5175569  )
        39           O1  tau(  39) = (   6.5279837   2.9480221  14.9030702  )
        40           O1  tau(  40) = (   3.2956390   2.9588503  13.9390168  )
        41           O1  tau(  41) = (   4.4992944   4.4159585  16.2207858  )
        42           O1  tau(  42) = (   2.0104883   4.4624356  16.0673450  )
        43           Ti1 tau(  43) = (   3.2790961   0.0058003  15.7788240  )
        44           Ti1 tau(  44) = (   0.0606790   4.6093333  15.7554573  )
        45           O1  tau(  45) = (   3.2900926   2.9813045   4.7018136  )
        46           O1  tau(  46) = (   1.3039711   4.4726057   6.0039043  )
        47           O1  tau(  47) = (   5.2763189   4.4711207   6.0039473  )
        48           N1  tau(  48) = (   0.0403274   2.7191540  18.0026804  )
        49           C1  tau(  49) = (   0.9398849   2.4944932  18.9664025  )
        50           H1  tau(  50) = (   0.9073005   3.0183022  19.9142263  )
        51           H1  tau(  51) = (   1.7098349   1.7704235  18.7615287  )
        52           N1  tau(  52) = (   5.5765855   3.6054979  19.4816711  )
        53           H1  tau(  53) = (   5.9881759   4.5320851  19.7147717  )
        54           H1  tau(  54) = (   4.9344470   3.8465857  18.6610935  )
        55           H1  tau(  55) = (   5.0674124   3.1947177  20.2767304  )

     number of k points=    10  Fermi-Dirac smearing, width (Ry)=  0.0073
                       cart. coord. in units 2pi/alat
        k(    1) = (   0.0000000   0.0000000   0.0000000), wk =   0.1250000
        k(    2) = (   0.0000000   0.0419351   0.0000000), wk =   0.2500000
        k(    3) = (   0.0000000  -0.0838702   0.0000000), wk =   0.1250000
        k(    4) = (   0.0379955   0.0000049   0.0000000), wk =   0.2500000
        k(    5) = (   0.0379955   0.0419400   0.0000000), wk =   0.2500000
        k(    6) = (   0.0379955  -0.0838652   0.0000000), wk =   0.2500000
        k(    7) = (   0.0379955  -0.0419301   0.0000000), wk =   0.2500000
        k(    8) = (  -0.0759910  -0.0000099   0.0000000), wk =   0.1250000
        k(    9) = (  -0.0759910   0.0419252   0.0000000), wk =   0.2500000
[...]
        43           Ti1 tau(  43) = (   3.3792046   0.0218040  15.7320768  )
        44           Ti1 tau(  44) = (   0.0833985   4.6783701  16.1132263  )
        45           O1  tau(  45) = (   3.2900926   2.9813045   4.7018136  )
        46           O1  tau(  46) = (   1.3039711   4.4726057   6.0039043  )
        47           O1  tau(  47) = (   5.2763189   4.4711207   6.0039473  )
        48           N1  tau(  48) = (   0.2570413   2.9832244  17.3946335  )
        49           C1  tau(  49) = (   0.5484588   2.9232628  18.6203930  )
        50           H1  tau(  50) = (   0.7750125   3.8241810  19.2061544  )
        51           H1  tau(  51) = (   0.5914897   1.9666238  19.1527913  )
        52           N1  tau(  52) = (   4.2251934   4.4889008  19.7771856  )
        53           H1  tau(  53) = (   4.9051430   5.2174887  19.9777194  )
        54           H1  tau(  54) = (   4.4966856   4.1182794  18.8739096  )
        55           H1  tau(  55) = (   4.3944021   3.7476851  20.4499043  )

     number of k points=    10  Fermi-Dirac smearing, width (Ry)=  0.0073
                       cart. coord. in units 2pi/alat
        k(    1) = (   0.0000000   0.0000000   0.0000000), wk =   0.1250000
        k(    2) = (   0.0000000   0.0419351   0.0000000), wk =   0.2500000
        k(    3) = (   0.0000000  -0.0838702   0.0000000), wk =   0.1250000
        k(    4) = (   0.0379955   0.0000049   0.0000000), wk =   0.2500000
        k(    5) = (   0.0379955   0.0419400   0.0000000), wk =   0.2500000
        k(    6) = (   0.0379955  -0.0838652   0.0000000), wk =   0.2500000
        k(    7) = (   0.0379955  -0.0419301   0.0000000), wk =   0.2500000
        k(    8) = (  -0.0759910  -0.0000099   0.0000000), wk =   0.1250000
        k(    9) = (  -0.0759910   0.0419252   0.0000000), wk =   0.2500000
        k(   10) = (  -0.0759910  -0.0838800   0.0000000), wk =   0.1250000

     Initial potential from superposition of free atoms

     starting charge  380.99914, renormalised to  397.00000

[...]

     %%%%%%%%%%%%%%%%%%%%%%%%%%%%%%%%%%%%%%%%%%%%%%%%%%%%%%%%%%%%%%%%%%%%%%%%
     %                                                                      %
     % You are using vdW-DF, which was implemented by the Thonhauser group. %
     % Please cite the following two papers that made this development      %
     % possible and the two reviews that describe the various versions:     %
     %                                                                      %
     %   T. Thonhauser et al., PRL 115, 136402 (2015).                      %
     %   T. Thonhauser et al., PRB 76, 125112 (2007).                       %
     %   K. Berland et al., Rep. Prog. Phys. 78, 066501 (2015).             %
     %   D.C. Langreth et al., J. Phys.: Condens. Matter 21, 084203 (2009). %
     %                                                                      %
     %                                                                      %
     % If you are calculating the stress with vdW-DF, please also cite:     %
     %                                                                      %
     %   R. Sabatini et al., J. Phys.: Condens. Matter 24, 424209 (2012).   %
     %                                                                      %
     %%%%%%%%%%%%%%%%%%%%%%%%%%%%%%%%%%%%%%%%%%%%%%%%%%%%%%%%%%%%%%%%%%%%%%%%

[...]

     Starting wfcs are  301 atomic wfcs
  @ DRIVER MODE: Message from server: STATUS
  @ DRIVER MODE: Message from server: POSDATA
  @ DRIVER MODE: Reading and sharing cell
  @ DRIVER MODE: Reading and sharing positions
  @ DRIVER MODE: Received positions

[...]

     Self-consistent Calculation

[...]

     iteration # 15     ecut=    29.40 Ry     beta= 0.05
     Davidson diagonalization with overlap
     c_bands:  2 eigenvalues not converged
     c_bands:  1 eigenvalues not converged
     ethr =  1.30E-10,  avg # of iterations = 15.6

[...]

     total energy              =   -2941.70797497 Ry
     estimated scf accuracy    <       0.00000015 Ry

     iteration # 19     ecut=    29.40 Ry     beta= 0.05
     Davidson diagonalization with overlap
     ethr =  1.92E-11,  avg # of iterations =  8.6

[...]

     End of self-consistent calculation

[...]

          k = 0.0380-0.0419 0.0000 ( 17876 PWs)   bands (ev):

[...]

          k =-0.0760-0.0839 0.0000 ( 17948 PWs)   bands (ev):

   -55.7390 -55.7382 -55.7297 -55.7280 -55.6352 -55.5902 -55.5848 -55.5816
   -55.5477 -55.5459 -55.5119 -55.5107 -55.2738 -55.0235 -54.7156 -54.7155
   -32.1049 -32.1021 -32.0536 -32.0530 -32.0344 -32.0336 -32.0183 -32.0062
   -31.9537 -31.9496 -31.9450 -31.9409 -31.9062 -31.8795 -31.8781 -31.8749
   -31.8656 -31.8596 -31.8583 -31.8575 -31.8508 -31.8484 -31.8384 -31.8041
   -31.7982 -31.7910 -31.7787 -31.7658 -31.7465 -31.7461 -31.7431 -31.7421
   -31.7265 -31.7258 -31.7209 -31.7180 -31.6385 -31.5316 -31.4524 -31.3707
   -31.2781 -31.2520 -31.0418 -31.0417 -30.9526 -30.9524 -30.9132 -30.9132
   -15.9348 -15.9036 -15.6984 -15.6714 -15.6678 -15.6517 -15.5267 -15.4636
   -15.4505 -15.4482 -15.3842 -15.3637 -15.3272 -15.2999 -15.2856 -15.2755
   -15.2697 -15.2635 -15.2147 -15.2089 -15.1912 -15.1840 -15.0810 -15.0714
   -15.0675 -15.0125 -14.9319 -14.7900 -14.6930 -14.5004 -14.0391 -13.2206
   -13.2205  -7.2889  -4.1878  -4.0897  -4.0341  -3.4360  -3.2247  -3.1875
    -2.9282  -2.9100  -2.8965  -2.8413  -2.6686  -2.6511  -2.6297  -2.6116
    -2.5778  -2.5769  -2.5579  -2.5560  -2.5450  -2.5106  -2.4989  -2.4692
    -2.4316  -2.4213  -2.4095  -2.4083  -2.3782  -2.3685  -2.3297  -2.3003
    -2.2911  -2.2726  -2.2579  -2.0884  -1.9801  -1.9548  -1.8917  -1.8839
    -1.8550  -1.8190  -1.8116  -1.7907  -1.7400  -1.6539  -1.4869  -1.4546
    -1.4364  -1.3743  -1.3568  -1.3059  -1.2260  -1.1521  -1.1299  -1.1245
    -1.0749  -0.9653  -0.9427  -0.9345  -0.8648  -0.8185  -0.8118  -0.7762
    -0.7476  -0.7148  -0.7105  -0.6183  -0.5688  -0.5260  -0.5210  -0.4727
    -0.4053  -0.3940  -0.3655  -0.2563  -0.2335  -0.1762  -0.1415  -0.0315
     0.0318   0.2299   0.2838   0.3199   0.3772   0.4521   0.5344   0.5498
     0.5541   0.5646   0.6204   0.6739   0.7784   0.7872   0.8423   0.9493
     1.0124   1.6081   1.6531   1.6537   1.7260   1.7261   3.6643   3.6760
     3.7149   3.7355   3.8738   3.8890   3.9127   3.9136   3.9651   4.0505

     the Fermi energy is     3.3790 ev

!    total energy              =   -2941.70796768 Ry
     estimated scf accuracy    <       0.00000005 Ry
     smearing contrib. (-TS)   =      -0.02185511 Ry
     internal energy E=F+TS    =   -2941.68611257 Ry

     The total energy is F=E-TS. E is the sum of the following terms:
     one-electron contribution =  -23925.27268940 Ry
     hartree contribution      =   12052.27079392 Ry
     xc contribution           =    -486.76465595 Ry
     ewald contribution        =    9418.07895583 Ry
     electric field correction =       0.00148304 Ry

     convergence has been achieved in  19 iterations

     Forces acting on atoms (cartesian axes, Ry/au):

     atom    1 type  1   force =     0.00003735   -0.00025869    0.09662797
     atom    2 type  1   force =     0.00005665   -0.00058271   -0.17538047
     atom    3 type  2   force =     0.00012699   -0.00004676   -0.02488746
     atom    4 type  2   force =     0.00001177   -0.00141783    0.05293060
     atom    5 type  2   force =    -0.01225189   -0.00026696    0.00348000
     atom    6 type  2   force =     0.01362880    0.00025891    0.00255633
     atom    7 type  1   force =     0.00033109    0.00056942   -0.01136504
     atom    8 type  1   force =     0.00053120    0.00784280    0.02845889
     atom    9 type  2   force =     0.00016200    0.00042135    0.00046742
     atom   10 type  2   force =    -0.00290066    0.00138057   -0.01555529
     atom   11 type  2   force =     0.00068049    0.00003511   -0.00002548
     atom   12 type  2   force =    -0.00016831   -0.00010411   -0.00013770
     atom   13 type  1   force =    -0.00024686   -0.00030264    0.00097583
     atom   14 type  1   force =     0.00017421   -0.00007277   -0.00024443
     atom   15 type  2   force =     0.00013431    0.00049103    0.00016103
     atom   16 type  2   force =    -0.00036730   -0.00032751   -0.00031783
     atom   17 type  2   force =    -0.00067287    0.00004166   -0.00045493
     atom   18 type  2   force =     0.00039094    0.00045968   -0.00003590
     atom   19 type  1   force =    -0.00055990   -0.00077711   -0.00023549
     atom   20 type  1   force =     0.00046252    0.00093269   -0.00117145
     atom   21 type  2   force =     0.00006665   -0.00005973    0.10318152
     atom   22 type  2   force =    -0.00078636    0.00004761    0.00066542
     atom   23 type  2   force =    -0.07149001   -0.00014175   -0.02770773
     atom   24 type  2   force =     0.07144137    0.00032091   -0.02777762
     atom   25 type  1   force =     0.00018161   -0.00025028    0.09625925
     atom   26 type  1   force =     0.00010626   -0.00023678   -0.17561580
     atom   27 type  2   force =     0.00018496   -0.00018809   -0.02393436
     atom   28 type  2   force =     0.00001015   -0.00117564    0.05285032
     atom   29 type  2   force =    -0.01237888    0.00038990    0.00317806
     atom   30 type  2   force =     0.01366070    0.00085232    0.00222189
     atom   31 type  1   force =     0.00030817    0.00322786   -0.01196666
     atom   32 type  1   force =     0.00067265   -0.01007422    0.02884988
     atom   33 type  2   force =     0.00023360   -0.00021910    0.00063317
     atom   34 type  2   force =    -0.00235974    0.00102724   -0.02369633
     atom   35 type  2   force =     0.00062633   -0.00069411   -0.00008562
     atom   36 type  2   force =    -0.00021929   -0.00078864    0.00013439
     atom   37 type  1   force =    -0.00022888   -0.00012615    0.00048968
     atom   38 type  1   force =     0.00025626    0.00036529   -0.00065181
     atom   39 type  2   force =    -0.00013584   -0.00074315    0.00124622
     atom   40 type  2   force =     0.00018839   -0.00055160   -0.00010913
     atom   41 type  2   force =    -0.00025810   -0.00058352   -0.00003888
     atom   42 type  2   force =    -0.00033627   -0.00023568   -0.00001471
     atom   43 type  1   force =    -0.00057420    0.00071065    0.00002006
     atom   44 type  1   force =    -0.00025043    0.00013851   -0.00039437
     atom   45 type  2   force =     0.00009036   -0.00006816    0.10321106
     atom   46 type  2   force =    -0.07152181   -0.00008928   -0.02772808
     atom   47 type  2   force =     0.07145552    0.00033254   -0.02779091
     atom   48 type  3   force =    -0.00032696   -0.00067217   -0.00126303
     atom   49 type  4   force =     0.00062027   -0.00100442    0.00080088
     atom   50 type  5   force =    -0.00040594    0.00073611    0.00113634
     atom   51 type  5   force =    -0.00025674    0.00064319   -0.00049672
     atom   52 type  3   force =    -0.00111311    0.00001063   -0.00047397
     atom   53 type  5   force =     0.00138874    0.00076181   -0.00012192
     atom   54 type  5   force =     0.00138907   -0.00039646    0.00100959
     atom   55 type  5   force =     0.00020098    0.00045823   -0.00186669

     Total force =     0.368052     Total SCF correction =     0.001045
  @ DRIVER MODE: Message from server: STATUS
  @ DRIVER MODE: Message from server: GETFORCE
  @ DRIVER MODE: Returning v,forces,stress,ensemble

     Writing output data file ./calc.save/
  @ DRIVER MODE: Message from server: STATUS
  @ DRIVER MODE: Message from server: INIT
  @ DRIVER MODE: Receiving replica           0           0
  @ DRIVER MODE: Receiving encoded integer           2
  @ DRIVER MODE:  SCF:  T  FORCE:  T  STRESS:  F  VC:  F  ENSEMBLE:  F
  @ DRIVER MODE:  SCF:  F  FORCE:  F  STRESS:  F  VC:  F  ENSEMBLE:  T
  @ DRIVER MODE: Message from server: STATUS
  @ DRIVER MODE: Message from server: POSDATA
  @ DRIVER MODE: Reading and sharing positions
  @ DRIVER MODE: Received positions
     NEW-OLD atomic charge density approx. for the potential

[...]

     Adding external electric field

     Computed dipole along edir(3) :
        Dipole                0.8865 Ry au,          2.2532 Debye
        Dipole field          0.0017 Ry au,

        Potential amp.       -0.1551 Ry
        Total length         46.3494 bohr

  @ DRIVER MODE: BEEF-vdw

[...]

     negative rho (up, down):  1.502E-02 0.000E+00

     negative rho (up, down):  1.502E-02 0.000E+00
 BEEFens 2000 ensemble energies
             -0.349424116945032E+02
             -0.202368587123011E+01
             -0.719703335365485E+01
              0.242532313231319E+02
             -0.120047049994531E+02
             -0.928699034125515E+01
             -0.242588488179219E+02
             -0.507126999428121E+02
             -0.216057042881878E+02
             -0.227634672103305E+02
             -0.211412320300881E+02
              0.426727619671787E+01
              0.200416604342581E+01
             -0.107238366278145E+01
              0.174558044347256E+01
              0.266985751317429E+02
             -0.103054188771731E+02
             -0.725413519299121E+01
              0.118405962922654E+02
             -0.623836628406220E+02
              0.312763633858152E+02
             -0.133994469062068E+02
             -0.243780001073534E+01
             -0.563535145895895E+01
             -0.952954683877238E+00
             -0.214206714504444E+01
              0.483912793989760E+02
             -0.151263620406884E+02
             -0.405033904887415E+01
             -0.306082301135630E+02
              0.395388795755699E+02
             -0.436000270514189E+01
             -0.215381049057459E+02
              0.112889485329362E+02
             -0.206497224337153E+01
              0.131422912062925E+02
             -0.539649952703087E+00
              0.272430095537190E+01
              0.191038381909399E+02
             -0.550636583999221E+02
              0.306950609448143E+02
              0.817655114048385E+01
             -0.630485729101255E+01
             -0.175923946636369E+02
              0.695031824638755E+01
             -0.110216464374660E+02
              0.251134913718357E+02
              0.200258946169644E+02
             -0.128985241923263E+02
             -0.164896615214879E+02
             -0.174387492818460E+02
             -0.209507085355864E+02
              0.106591654069456E+02
             -0.273093491919134E+02
              0.836967785408569E+01
              0.348576819308128E+02
              0.402119672180257E+02
              0.187241183705710E+02
              0.837136741608579E+01
              0.174846044192936E+02
[...]
             -0.411183002955603E+02
              0.281325520809645E+01
             -0.144434768795289E+01
             -0.573054490382219E+01
              0.503818569223426E-01
             -0.365961277758026E+02
             -0.704816687432954E+01
              0.498363252315819E+01
              0.747170896511807E+01
              0.274435665700734E+02
             -0.239785059515652E+02
              0.312630919464136E+02
             -0.223994998393246E+02
              0.144133098701622E+02
              0.226753299763955E+02

 BEEF-vdW xc energy contributions
           1 :   -412.317771579459
           2 :    359.065499917917
           3 :   -273.260488930992
           4 :    183.836976737426
           5 :   -113.664224161525
           6 :    71.7322825347899
           7 :   -54.2304136963896
           8 :    51.0513580636429
           9 :   -52.6875253212041
          10 :    53.8536810233702
          11 :   -53.3237059776329
          12 :    51.6986888522412
          13 :   -49.4413976980539
          14 :    46.3115408243161
          15 :   -41.9401350805365
          16 :    36.5269521072868
          17 :   -30.9808368553955
          18 :    26.4611384083399
          19 :   -23.7705873704824
          20 :    23.0206653008436
          21 :   -23.7226414086476
          22 :    25.1295336191731
          23 :   -26.5610689103257
          24 :    27.5319790559357
          25 :   -27.7248912484222
          26 :    26.9456834470846
          27 :   -25.1582100482230
          28 :    22.5654497735816
          29 :   -19.6383717848400
          30 :    17.0073877797103
          31 :   -48.5427469945201
          32 :   -32.9390848746911
  @ DRIVER MODE: Message from server: STATUS
  @ DRIVER MODE: Message from server: GETFORCE
  @ DRIVER MODE: Returning v,forces,stress,ensemble
  @ DRIVE MODE: Returning Ensemble Energies

     Writing output data file ./calc.save/
  @ DRIVER MODE: Message from server: EXIT
  @ DRIVE MODE: Exiting

     General routines

     Parallel routines

   This run was terminated on:  19:43: 7  19Aug2021

   JOB DONE.