     Program PWSCF v.6.7GPU starts on 22Sep2021 at 23:56:14

     R & G space division:  proc/nbgrp/npool/nimage =       8
     Reading input from /storage/home/hcoda1/3/ntian30/research/carbon/CxH_vib/H2O_calc/ads_slab/CH3NHNHHO_a/out_0005/pw.inp
Warning: card &CELL ignored
Warning: card   CELL_DYNAMICS='IPI', ignored
Warning: card / ignored

     Current dimensions of program PWSCF are:
     Max number of different atomic species (ntypx) = 10
     Max number of k-points (npk) =  40000
     Max angular momentum in pseudopotentials (lmaxx) =  3
     Presently no symmetry can be used with electric field

     Message from routine cell_base_init:
     DEPRECATED: use true lattice parameter, not A to a.u. conversion factor

     IMPORTANT: XC functional enforced from input :
     Exchange-correlation= BEEF-VDW
                           (   1   4  43  14   2   0   0)
     Any further DFT definition will be discarded
     Please, verify this is what you really want

  @ DRIVER MODE: Connecting to
 qe_1139763_2941006.sched-torque.pace.gatech.edu9gd3wpj6_scratch
  using UNIX socket
  @ DRIVER MODE: Message from server: STATUS
  @ DRIVER MODE: Message from server: INIT
  @ DRIVER MODE: Receiving replica           0          -1
  @ DRIVER MODE: Receiving encoded integer          25
  @ DRIVER MODE:  SCF:  T  FORCE:  T  STRESS:  F  VC:  F  ENSEMBLE:  F
  @ DRIVER MODE:  SCF:  T  FORCE:  T  STRESS:  F  VC:  F  ENSEMBLE:  F

     Using Slab Decomposition

     bravais-lattice index     =            0
     lattice parameter (alat)  =       1.8897  a.u.
     unit-cell volume          =    6658.9804 (a.u.)^3
     number of atoms/cell      =           57
     number of atomic types    =            5
     number of electrons       =       404.00
     number of Kohn-Sham states=          212
     kinetic-energy cutoff     =      29.3995  Ry
     charge density cutoff     =     293.9946  Ry
     scf convergence threshold =      7.3E-08
     mixing beta               =       0.0500
     number of iterations used =            8  plain     mixing
     Exchange-correlation= BEEF-VDW
                           (   1   4  43  14   2   0   0)

     celldm(1)=   1.889726  celldm(2)=   0.000000  celldm(3)=   0.000000
     celldm(4)=   0.000000  celldm(5)=   0.000000  celldm(6)=   0.000000

     crystal axes: (cart. coord. in units of alat)
               a(1) = (   6.579727   0.000000   0.000000 )
               a(2) = (  -0.000775   5.961596   0.000000 )
               a(3) = (   0.000000   0.000000  25.155947 )

     reciprocal axes: (cart. coord. in units 2 pi/alat)
               b(1) = (  0.151982  0.000020  0.000000 )
               b(2) = (  0.000000  0.167740  0.000000 )
               b(3) = (  0.000000  0.000000  0.039752 )

     PseudoPot. # 1 for Ti read from file:
     /storage/coda1/p-amedford6/0/shared/rich_project_chbe-medford/medford-share/data/pseudos_module/espresso/nninc/pbe/van/Ti.UPF
     MD5 check sum: 8e4df49b7f0d34bbd5052bf3f5ea0213
     Pseudo is Ultrasoft, Zval = 12.0
     Generated by new atomic code, or converted to UPF format
     Using radial grid of  851 points,  6 beta functions with:
                l(1) =   0
                l(2) =   0
                l(3) =   1
                l(4) =   1
                l(5) =   2
                l(6) =   2
     Q(r) pseudized with  8 coefficients,  rinner =    1.000   1.000   1.000
                                                       1.000   1.000

     PseudoPot. # 2 for O  read from file:
     /storage/coda1/p-amedford6/0/shared/rich_project_chbe-medford/medford-share/data/pseudos_module/espresso/nninc/pbe/van/O.UPF
     MD5 check sum: 78c19812648e8988a0fe644b0f25305e
     Pseudo is Ultrasoft, Zval =  6.0
     Generated by new atomic code, or converted to UPF format
     Using radial grid of  737 points,  4 beta functions with:
                l(1) =   0
                l(2) =   0
                l(3) =   1
                l(4) =   1
     Q(r) pseudized with  8 coefficients,  rinner =    0.800   0.800   0.800

     PseudoPot. # 3 for N  read from file:
     /storage/coda1/p-amedford6/0/shared/rich_project_chbe-medford/medford-share/data/pseudos_module/espresso/nninc/pbe/van/N.UPF
     MD5 check sum: 90d10febe142ad51ac9d5be1deb811c4
     Pseudo is Ultrasoft, Zval =  5.0
     Generated by new atomic code, or converted to UPF format
     Using radial grid of  729 points,  4 beta functions with:
                l(1) =   0
                l(2) =   0
                l(3) =   1
                l(4) =   1
     Q(r) pseudized with  8 coefficients,  rinner =    0.800   0.800   0.800

     PseudoPot. # 4 for C  read from file:
     /storage/coda1/p-amedford6/0/shared/rich_project_chbe-medford/medford-share/data/pseudos_module/espresso/nninc/pbe/van/C.UPF
     MD5 check sum: 1a69bf6b8db32088f5b2163dbdb77a27
     Pseudo is Ultrasoft, Zval =  4.0
     Generated by new atomic code, or converted to UPF format
     Using radial grid of  721 points,  4 beta functions with:
                l(1) =   0
                l(2) =   0
                l(3) =   1
                l(4) =   1
     Q(r) pseudized with  8 coefficients,  rinner =    0.800   0.800   0.800

     PseudoPot. # 5 for H  read from file:
     /storage/coda1/p-amedford6/0/shared/rich_project_chbe-medford/medford-share/data/pseudos_module/espresso/nninc/pbe/van/H.UPF
     MD5 check sum: b5ee9d7bfd3a09ee7748110bda690ff7
     Pseudo is Ultrasoft, Zval =  1.0
     Generated by new atomic code, or converted to UPF format
     Using radial grid of  615 points,  1 beta functions with:
                l(1) =   0
     Q(r) pseudized with  8 coefficients,  rinner =    0.800

     atomic species   valence    mass     pseudopotential
        Ti1           12.00    47.86700     Ti( 1.00)
        O1             6.00    15.99900     O ( 1.00)
        N1             5.00    14.00700     N ( 1.00)
        C1             4.00    12.01100     C ( 1.00)
        H1             1.00     1.00800     H ( 1.00)

     No symmetry found

   Cartesian axes

     site n.     atom                  positions (alat units)
         1           Ti1 tau(   1) = (   0.0004258   2.9801865   6.0000000  )
         2           Ti1 tau(   2) = (   3.2906075   1.4906267   6.0002472  )
         3           O1  tau(   3) = (   0.0006271   0.0005054   7.9858123  )
         4           O1  tau(   4) = (   3.2906025   0.0005020   7.3038282  )
         5           O1  tau(   5) = (   4.5942328   1.4918067   9.2879030  )
         6           O1  tau(   6) = (   1.9868534   1.4903216   9.2879459  )
         7           Ti1 tau(   7) = (   3.2907910   2.8959150   9.1758416  )
         8           Ti1 tau(   8) = (   0.0015273   1.4827037   9.2680791  )
         9           O1  tau(   9) = (   3.2953096   5.9421394  11.2884464  )
        10           O1  tau(  10) = (   0.0116148   5.9584955  10.6183126  )
        11           O1  tau(  11) = (   1.3041449   1.4755329  12.6321863  )
        12           O1  tau(  12) = (   5.3089623   1.4871430  12.6059879  )
        13           Ti1 tau(  13) = (   6.5683417   3.1096339  12.6902584  )
        14           Ti1 tau(  14) = (   3.3171551   1.3050273  12.6602886  )
        15           O1  tau(  15) = (   6.5441980   0.0188234  14.6400653  )
        16           O1  tau(  16) = (   3.3305379   0.0354930  13.9003223  )
        17           O1  tau(  17) = (   4.5569828   1.5958521  16.0354584  )
        18           O1  tau(  18) = (   2.0254723   1.5302355  15.9749146  )
        19           Ti1 tau(  19) = (   3.2479256   3.0467527  15.6517507  )
        20           Ti1 tau(  20) = (   6.4631478   1.5268535  15.8454044  )
        21           O1  tau(  21) = (   3.2904802   0.0005063   4.7018136  )
        22           O1  tau(  22) = (   6.5640117   0.0389496  17.1838934  )
        23           O1  tau(  23) = (   1.3043587   1.4918075   6.0039043  )
        24           O1  tau(  24) = (   5.2767064   1.4903225   6.0039473  )
        25           Ti1 tau(  25) = (   0.0000382   5.9609847   6.0000000  )
        26           Ti1 tau(  26) = (   3.2902200   4.4714249   6.0002472  )
        27           O1  tau(  27) = (   0.0002396   2.9813036   7.9858123  )
        28           O1  tau(  28) = (   3.2902150   2.9813002   7.3038282  )
        29           O1  tau(  29) = (   4.5938453   4.4726049   9.2879030  )
        30           O1  tau(  30) = (   1.9864658   4.4711199   9.2879459  )
        31           Ti1 tau(  31) = (   3.2891106   5.8743827   9.1763621  )
        32           Ti1 tau(  32) = (   0.0006254   4.4649316   9.2693709  )
        33           O1  tau(  33) = (   3.2909858   3.0116154  11.2527998  )
        34           O1  tau(  34) = (   0.0092240   2.9805883  10.6323155  )
        35           O1  tau(  35) = (   1.2990260   4.4726261  12.6330189  )
        36           O1  tau(  36) = (   5.2946483   4.4606482  12.6134978  )
        37           Ti1 tau(  37) = (   0.0333947   0.1262769  12.6104238  )
        38           Ti1 tau(  38) = (   3.2900473   4.3917186  12.4086616  )
        39           O1  tau(  39) = (   6.5591047   2.9728048  14.6463482  )
        40           O1  tau(  40) = (   3.3071982   2.9909887  13.8663713  )
        41           O1  tau(  41) = (   4.5374868   4.4330245  16.1128471  )
        42           O1  tau(  42) = (   2.0037144   4.4952966  15.9584979  )
        43           Ti1 tau(  43) = (   3.1911318   0.0573200  16.2061952  )
        44           Ti1 tau(  44) = (   6.5299348   4.6473693  16.0672121  )
        45           O1  tau(  45) = (   3.2900926   2.9813045   4.7018136  )
        46           O1  tau(  46) = (   1.3039711   4.4726057   6.0039043  )
        47           O1  tau(  47) = (   5.2763189   4.4711207   6.0039473  )
        48           N1  tau(  48) = (   1.2509970   2.8552009  18.2901485  )
        49           N1  tau(  49) = (   0.1090600   2.9410495  17.4585617  )
        50           C1  tau(  50) = (   1.1117997   3.5424446  19.5707766  )
        51           H1  tau(  51) = (   0.2696121   3.1616043  20.1716506  )
        52           H1  tau(  52) = (   2.0314425   3.4001925  20.1392599  )
        53           H1  tau(  53) = (   0.9679189   4.6079482  19.3970517  )
        54           H1  tau(  54) = (   1.5306055   1.8840965  18.4148701  )
        55           H1  tau(  55) = (   5.8389999   2.9001924  18.0325661  )
        56           O1  tau(  56) = (   3.2424369   0.1001929  18.0579484  )
        57           H1  tau(  57) = (   3.9792659   5.6040190  18.4897823  )

     number of k points=    10  Fermi-Dirac smearing, width (Ry)=  0.0073
                       cart. coord. in units 2pi/alat
        k(    1) = (   0.0000000   0.0000000   0.0000000), wk =   0.1250000
        k(    2) = (   0.0000000   0.0419351   0.0000000), wk =   0.2500000
        k(    3) = (   0.0000000  -0.0838702   0.0000000), wk =   0.1250000
        k(    4) = (   0.0379955   0.0000049   0.0000000), wk =   0.2500000
        k(    5) = (   0.0379955   0.0419400   0.0000000), wk =   0.2500000
        k(    6) = (   0.0379955  -0.0838652   0.0000000), wk =   0.2500000
        k(    7) = (   0.0379955  -0.0419301   0.0000000), wk =   0.2500000
        k(    8) = (  -0.0759910  -0.0000099   0.0000000), wk =   0.1250000
        k(    9) = (  -0.0759910   0.0419252   0.0000000), wk =   0.2500000
        k(   10) = (  -0.0759910  -0.0838800   0.0000000), wk =   0.1250000

     Initial potential from superposition of free atoms

     starting charge  387.99913, renormalised to  404.00000

     negative rho (up, down):  1.467E-02 0.000E+00

     %%%%%%%%%%%%%%%%%%%%%%%%%%%%%%%%%%%%%%%%%%%%%%%%%%%%%%%%%%%%%%%%%%%%%%%%
     %                                                                      %
     % You are using vdW-DF, which was implemented by the Thonhauser group. %
     % Please cite the following two papers that made this development      %
     % possible and the two reviews that describe the various versions:     %
     %                                                                      %
     %   T. Thonhauser et al., PRL 115, 136402 (2015).                      %
     %   T. Thonhauser et al., PRB 76, 125112 (2007).                       %
     %   K. Berland et al., Rep. Prog. Phys. 78, 066501 (2015).             %
     %   D.C. Langreth et al., J. Phys.: Condens. Matter 21, 084203 (2009). %
     %                                                                      %
     %                                                                      %
     % If you are calculating the stress with vdW-DF, please also cite:     %
     %                                                                      %
     %   R. Sabatini et al., J. Phys.: Condens. Matter 24, 424209 (2012).   %
     %                                                                      %
     %%%%%%%%%%%%%%%%%%%%%%%%%%%%%%%%%%%%%%%%%%%%%%%%%%%%%%%%%%%%%%%%%%%%%%%%

     Adding external electric field

     Computed dipole along edir(3) :
        Dipole              -12.7276 Ry au,        -32.3503 Debye
        Dipole field         -0.0240 Ry au,

        Potential amp.        2.2265 Ry
        Total length         46.3494 bohr

     Starting wfcs are  306 atomic wfcs
  @ DRIVER MODE: Message from server: STATUS
  @ DRIVER MODE: Message from server: POSDATA
  @ DRIVER MODE: Reading and sharing cell
  @ DRIVER MODE: Reading and sharing positions
  @ DRIVER MODE: Received positions

     Self-consistent Calculation

     iteration #  1     ecut=    29.40 Ry     beta= 0.05
     Davidson diagonalization with overlap
     c_bands:  4 eigenvalues not converged
     c_bands:  5 eigenvalues not converged
     c_bands:  5 eigenvalues not converged
     c_bands:  5 eigenvalues not converged
     c_bands:  1 eigenvalues not converged
     c_bands:  3 eigenvalues not converged
     c_bands:  4 eigenvalues not converged
     c_bands:  4 eigenvalues not converged
     ethr =  1.00E-05,  avg # of iterations = 24.4

[...]

     total energy              =   -2345.49772028 Ry
     estimated scf accuracy    <    7120.94753044 Ry

     iteration #  2     ecut=    29.40 Ry     beta= 0.05
     Davidson diagonalization with overlap
     ethr =  1.00E-02,  avg # of iterations = 24.7

[...]

     iteration # 47     ecut=    29.40 Ry     beta= 0.05
     Davidson diagonalization with overlap
     c_bands:  1 eigenvalues not converged
     ethr =  2.09E-07,  avg # of iterations =  6.7

[...]

     total energy              =   -2975.25024168 Ry
     estimated scf accuracy    <       0.00000009 Ry

     iteration # 72     ecut=    29.40 Ry     beta= 0.05
     Davidson diagonalization with overlap
     ethr =  2.16E-11,  avg # of iterations =  4.4

     negative rho (up, down):  1.541E-02 0.000E+00

     Adding external electric field

     Computed dipole along edir(3) :
        Dipole                0.5389 Ry au,          1.3698 Debye
        Dipole field          0.0010 Ry au,

        Potential amp.       -0.0943 Ry
        Total length         46.3494 bohr

     End of self-consistent calculation

          k = 0.0000 0.0000 0.0000 ( 18029 PWs)   bands (ev):

   -56.4282 -56.3945 -55.7707 -55.7359 -55.5392 -55.4781 -55.3624 -55.2077
   -55.2049 -55.1365 -55.1016 -55.0902 -55.0563 -55.0465 -54.9821 -54.8616
   -32.8611 -32.7125 -32.6845 -32.5958 -32.5045 -32.4867 -32.2509 -32.0173
   -31.9902 -31.9673 -31.9144 -31.9089 -31.8794 -31.7672 -31.7552 -31.7423
   -31.7041 -31.6936 -31.6803 -31.6401 -31.6304 -31.6217 -31.5715 -31.5516
   -31.5102 -31.4806 -31.4802 -31.4302 -31.4139 -31.4081 -31.4060 -31.3827
   -31.3644 -31.3639 -31.3269 -31.3088 -31.3019 -31.3005 -31.2800 -31.2339
   -31.2319 -31.2176 -31.2025 -31.1819 -31.1100 -31.1059 -31.1057 -31.0548
   -16.6175 -16.5918 -16.1880 -16.1713 -15.8638 -15.8017 -15.7750 -15.7411
   -15.6799 -15.5530 -15.4379 -15.3932 -15.3830 -15.3355 -15.1764 -15.0792
   -14.9819 -14.9100 -14.9030 -14.8561 -14.8483 -14.8175 -14.8074 -14.8006
   -14.7336 -14.6984 -14.5912 -14.5442 -14.4493 -14.2545 -14.1753 -13.5880
   -13.4782 -11.4980  -8.6642  -5.0529  -4.2420  -4.1683  -3.7774  -3.6921
    -3.5170  -3.4375  -3.2908  -3.2621  -3.1695  -3.0714  -3.0117  -2.9540
    -2.9428  -2.8380  -2.6890  -2.6372  -2.6318  -2.6104  -2.6026  -2.5047
    -2.4427  -2.4096  -2.3411  -2.2718  -2.2389  -2.1541  -2.1481  -2.1234
    -2.1026  -2.0723  -2.0263  -1.9775  -1.9536  -1.9345  -1.8208  -1.7818
    -1.7531  -1.7084  -1.6786  -1.6034  -1.5667  -1.5196  -1.4421  -1.3807
    -1.2590  -1.2330  -1.1641  -1.1531  -1.1240  -1.0016  -0.9602  -0.9268
    -0.8638  -0.8315  -0.7661  -0.7439  -0.7096  -0.6707  -0.6623  -0.6234
    -0.5167  -0.4841  -0.3611  -0.3452  -0.2899  -0.2193  -0.2115  -0.1567
    -0.1350  -0.0976  -0.0544  -0.0169   0.0256   0.0946   0.1322   0.2215
     0.2631   0.3269   0.4228   0.4525   0.4728   0.5360   0.5533   0.5873
     0.6326   0.7262   0.7346   0.7957   0.8717   0.9168   0.9326   0.9959
     1.0548   1.0749   1.1719   1.2005   1.2118   1.2676   1.4726   1.5129
     1.6928   2.4456   2.8363   2.9831   3.2689   3.3014   3.5620   3.7959
     3.8255   3.8276   3.9117   4.0170

[...]

          k = 0.0380-0.0419 0.0000 ( 17876 PWs)   bands (ev):

[...]

          k =-0.0760-0.0000 0.0000 ( 17886 PWs)   bands (ev):

[...]

          k =-0.0760-0.0839 0.0000 ( 17948 PWs)   bands (ev):

   -56.4115 -56.4110 -55.7580 -55.7484 -55.5340 -55.4832 -55.3609 -55.2090
   -55.2002 -55.1409 -55.0994 -55.0738 -55.0726 -55.0451 -54.9843 -54.8630
   -32.6983 -32.6979 -32.6781 -32.6774 -32.5487 -32.5485 -32.0760 -32.0676
   -31.9521 -31.9447 -31.9409 -31.9385 -31.8372 -31.7984 -31.7613 -31.7530
   -31.7087 -31.7034 -31.6605 -31.6115 -31.5790 -31.5605 -31.5374 -31.4964
   -31.4849 -31.4821 -31.4314 -31.4290 -31.4195 -31.4186 -31.4134 -31.3933
   -31.3802 -31.3544 -31.3325 -31.3204 -31.3060 -31.2983 -31.2969 -31.2946
   -31.2599 -31.2587 -31.2388 -31.2311 -31.1889 -31.1720 -31.1111 -31.0865
   -16.5678 -16.1728 -15.9981 -15.9941 -15.9148 -15.9122 -15.7039 -15.6983
   -15.5267 -15.4973 -15.4213 -15.3040 -15.2529 -15.1964 -15.1873 -15.1463
   -15.0900 -15.0711 -15.0273 -15.0108 -14.9477 -14.9041 -14.8561 -14.8105
   -14.7914 -14.7523 -14.6318 -14.5831 -14.5758 -14.3887 -14.3562 -13.5821
   -13.5816 -11.5044  -8.6708  -5.0612  -4.2393  -3.7482  -3.3867  -3.0998
    -3.0817  -3.0365  -3.0275  -2.8116  -2.7912  -2.7639  -2.6918  -2.6789
    -2.6288  -2.6218  -2.5294  -2.4886  -2.4468  -2.4324  -2.4178  -2.3622
    -2.3342  -2.2922  -2.2887  -2.2508  -2.2150  -2.1814  -2.1545  -2.1100
    -2.0900  -2.0776  -2.0367  -2.0080  -1.9806  -1.9327  -1.9108  -1.8820
    -1.8697  -1.8492  -1.6888  -1.6352  -1.5797  -1.5381  -1.5074  -1.4410
    -1.4317  -1.3760  -1.3177  -1.2841  -1.2562  -1.2369  -1.1504  -1.1201
    -1.1037  -1.0662  -1.0244  -0.9646  -0.9048  -0.8580  -0.7801  -0.6851
    -0.6578  -0.6395  -0.6128  -0.6050  -0.5637  -0.5113  -0.4226  -0.3703
    -0.3192  -0.3025  -0.2591  -0.2537  -0.2201  -0.1864  -0.1157   0.0060
     0.0725   0.1071   0.1630   0.2207   0.2767   0.3391   0.3835   0.4641
     0.5432   0.5645   0.6513   0.6849   0.8093   0.8513   0.9669   1.0085
     1.0458   1.0906   1.1595   1.2561   1.2811   1.3237   1.3254   1.3425
     1.3573   2.4707   3.4033   3.4062   3.4568   3.4642   3.7390   3.7472
     3.8802   3.8821   4.0081   4.0206

     the Fermi energy is     2.7171 ev

!    total energy              =   -2975.25027298 Ry
     estimated scf accuracy    <       0.00000006 Ry
     smearing contrib. (-TS)   =      -0.00751959 Ry
     internal energy E=F+TS    =   -2975.24275339 Ry

     The total energy is F=E-TS. E is the sum of the following terms:
     one-electron contribution =  -23776.04259810 Ry
     hartree contribution      =   11983.66271633 Ry
     xc contribution           =    -494.80701593 Ry
     ewald contribution        =    9311.94359622 Ry
     electric field correction =       0.00054810 Ry

     convergence has been achieved in  72 iterations

     Forces acting on atoms (cartesian axes, Ry/au):

     atom    1 type  1   force =     0.00001370   -0.00034810    0.11630456
     atom    2 type  1   force =    -0.00014380    0.00031291   -0.16019414
     atom    3 type  2   force =     0.00004538    0.00032678   -0.05324282
     atom    4 type  2   force =     0.00007159   -0.00041654    0.02645535
     atom    5 type  2   force =    -0.00501506   -0.00226091   -0.01003091
     atom    6 type  2   force =     0.00669853   -0.00183502   -0.01076093
     atom    7 type  1   force =    -0.00038430   -0.00640295    0.04579360
     atom    8 type  1   force =     0.00057013    0.01078849    0.08192566
     atom    9 type  2   force =    -0.00001616    0.00035962   -0.00021109
     atom   10 type  2   force =    -0.00139945    0.00154734   -0.05464782
     atom   11 type  2   force =     0.00074294    0.00028416   -0.00026044
     atom   12 type  2   force =    -0.00116166    0.00021062    0.00016517
     atom   13 type  1   force =    -0.00022078   -0.00093388    0.00052529
     atom   14 type  1   force =     0.00047414    0.00125163   -0.00019900
     atom   15 type  2   force =     0.00000010   -0.00056845    0.00031081
     atom   16 type  2   force =    -0.00029162    0.00061706    0.00089022
     atom   17 type  2   force =    -0.00071970   -0.00044626    0.00017653
     atom   18 type  2   force =     0.00071551   -0.00038454   -0.00006499
     atom   19 type  1   force =    -0.00068560   -0.00055357   -0.00024895
     atom   20 type  1   force =     0.00015676   -0.00038004   -0.00052995
     atom   21 type  2   force =     0.00007630    0.00014949    0.09913554
     atom   22 type  2   force =     0.00030317   -0.00032087    0.00084435
     atom   23 type  2   force =    -0.07951558   -0.00002335   -0.03162966
     atom   24 type  2   force =     0.07943465    0.00040612   -0.03166106
     atom   25 type  1   force =     0.00018226   -0.00036641    0.11654774
     atom   26 type  1   force =    -0.00008840   -0.00141961   -0.16031796
     atom   27 type  2   force =     0.00013399   -0.00012002   -0.05162643
     atom   28 type  2   force =     0.00003131    0.00129988    0.02164942
     atom   29 type  2   force =    -0.00383216    0.00422823   -0.01242894
     atom   30 type  2   force =     0.00541430    0.00483981   -0.01302169
     atom   31 type  1   force =    -0.00015342    0.00314283    0.03076007
     atom   32 type  1   force =     0.00051287   -0.01301482    0.08280581
     atom   33 type  2   force =     0.00018004   -0.00053167    0.00017296
     atom   34 type  2   force =    -0.00049690    0.00168212   -0.06800887
     atom   35 type  2   force =    -0.00043475   -0.00064007   -0.00012583
     atom   36 type  2   force =     0.00006006   -0.00002319   -0.00004386
     atom   37 type  1   force =    -0.00012762   -0.00121851   -0.00002619
     atom   38 type  1   force =     0.00047569   -0.00034187    0.00021734
     atom   39 type  2   force =     0.00016726    0.00036924   -0.00016205
     atom   40 type  2   force =    -0.00012195   -0.00024427    0.00013062
     atom   41 type  2   force =     0.00116327   -0.00004074    0.00019929
     atom   42 type  2   force =    -0.00108048   -0.00024066    0.00006862
     atom   43 type  1   force =     0.00003775   -0.00075704    0.00001987
     atom   44 type  1   force =     0.00030008    0.00060848   -0.00068307
     atom   45 type  2   force =     0.00007557   -0.00002779    0.09894708
     atom   46 type  2   force =    -0.07952834   -0.00001353   -0.03164266
     atom   47 type  2   force =     0.07946714    0.00043117   -0.03166646
     atom   48 type  3   force =     0.00284410    0.00249074    0.01414843
     atom   49 type  3   force =    -0.00476200   -0.00001219   -0.00447441
     atom   50 type  4   force =     0.00037999   -0.00073496   -0.00624859
     atom   51 type  5   force =    -0.00082613   -0.00037009   -0.00140047
     atom   52 type  5   force =     0.00008292   -0.00081936   -0.00055506
     atom   53 type  5   force =     0.00049429    0.00006987   -0.00057196
     atom   54 type  5   force =    -0.00091734   -0.00080865   -0.00166474
     atom   55 type  5   force =    -0.00036424    0.00000078    0.00057751
     atom   56 type  2   force =     0.00113686   -0.00021892    0.00003990
     atom   57 type  5   force =    -0.00015519    0.00142149   -0.00046077

     Total force =     0.399556     Total SCF correction =     0.000736
  @ DRIVER MODE: Message from server: STATUS
  @ DRIVER MODE: Message from server: GETFORCE
  @ DRIVER MODE: Returning v,forces,stress,ensemble

     Writing output data file ./calc.save/
  @ DRIVER MODE: Message from server: EXIT
  @ DRIVE MODE: Exiting

     General routines

     Parallel routines

   This run was terminated on:   0:20:10  23Sep2021

   JOB DONE.