     Program PWSCF v.6.7GPU starts on 23Sep2021 at 18:43:19

     R & G space division:  proc/nbgrp/npool/nimage =       8
     Reading input from /storage/home/hcoda1/3/ntian30/research/carbon/CxH_vib/H2O_calc/ads_slab/CH2NHNH2HO_a/out_0018/pw.inp
Warning: card &CELL ignored
Warning: card   CELL_DYNAMICS='IPI', ignored
Warning: card / ignored

     Current dimensions of program PWSCF are:
     Max number of different atomic species (ntypx) = 10
     Max number of k-points (npk) =  40000
     Max angular momentum in pseudopotentials (lmaxx) =  3
     Presently no symmetry can be used with electric field

     Message from routine cell_base_init:
     DEPRECATED: use true lattice parameter, not A to a.u. conversion factor

     IMPORTANT: XC functional enforced from input :
     Exchange-correlation= BEEF-VDW
                           (   1   4  43  14   2   0   0)
     Any further DFT definition will be discarded
     Please, verify this is what you really want

  @ DRIVER MODE: Connecting to
 qe_1139763_2947313.sched-torque.pace.gatech.edutvtcs4s0_scratch
  using UNIX socket
  @ DRIVER MODE: Message from server: STATUS
  @ DRIVER MODE: Message from server: INIT
  @ DRIVER MODE: Receiving replica           0          -1
  @ DRIVER MODE: Receiving encoded integer          25
  @ DRIVER MODE:  SCF:  T  FORCE:  T  STRESS:  F  VC:  F  ENSEMBLE:  F
  @ DRIVER MODE:  SCF:  T  FORCE:  T  STRESS:  F  VC:  F  ENSEMBLE:  F

     Using Slab Decomposition

     bravais-lattice index     =            0
     lattice parameter (alat)  =       1.8897  a.u.
     unit-cell volume          =    6658.9804 (a.u.)^3
     number of atoms/cell      =           57
     number of atomic types    =            5
     number of electrons       =       404.00
     number of Kohn-Sham states=          212
     kinetic-energy cutoff     =      29.3995  Ry
     charge density cutoff     =     293.9946  Ry
     scf convergence threshold =      7.3E-08
     mixing beta               =       0.0500
     number of iterations used =            8  plain     mixing
     Exchange-correlation= BEEF-VDW
                           (   1   4  43  14   2   0   0)

     celldm(1)=   1.889726  celldm(2)=   0.000000  celldm(3)=   0.000000
     celldm(4)=   0.000000  celldm(5)=   0.000000  celldm(6)=   0.000000

     crystal axes: (cart. coord. in units of alat)
               a(1) = (   6.579727   0.000000   0.000000 )
               a(2) = (  -0.000775   5.961596   0.000000 )
               a(3) = (   0.000000   0.000000  25.155947 )

     reciprocal axes: (cart. coord. in units 2 pi/alat)
               b(1) = (  0.151982  0.000020  0.000000 )
               b(2) = (  0.000000  0.167740  0.000000 )
               b(3) = (  0.000000  0.000000  0.039752 )

     PseudoPot. # 1 for Ti read from file:
     /storage/coda1/p-amedford6/0/shared/rich_project_chbe-medford/medford-share/data/pseudos_module/espresso/nninc/pbe/van/Ti.UPF
     MD5 check sum: 8e4df49b7f0d34bbd5052bf3f5ea0213
     Pseudo is Ultrasoft, Zval = 12.0
     Generated by new atomic code, or converted to UPF format
     Using radial grid of  851 points,  6 beta functions with:
                l(1) =   0
                l(2) =   0
                l(3) =   1
                l(4) =   1
                l(5) =   2
                l(6) =   2
     Q(r) pseudized with  8 coefficients,  rinner =    1.000   1.000   1.000
                                                       1.000   1.000

     PseudoPot. # 2 for O  read from file:
     /storage/coda1/p-amedford6/0/shared/rich_project_chbe-medford/medford-share/data/pseudos_module/espresso/nninc/pbe/van/O.UPF
     MD5 check sum: 78c19812648e8988a0fe644b0f25305e
     Pseudo is Ultrasoft, Zval =  6.0
     Generated by new atomic code, or converted to UPF format
     Using radial grid of  737 points,  4 beta functions with:
                l(1) =   0
                l(2) =   0
                l(3) =   1
                l(4) =   1
     Q(r) pseudized with  8 coefficients,  rinner =    0.800   0.800   0.800

     PseudoPot. # 3 for N  read from file:
     /storage/coda1/p-amedford6/0/shared/rich_project_chbe-medford/medford-share/data/pseudos_module/espresso/nninc/pbe/van/N.UPF
     MD5 check sum: 90d10febe142ad51ac9d5be1deb811c4
     Pseudo is Ultrasoft, Zval =  5.0
     Generated by new atomic code, or converted to UPF format
     Using radial grid of  729 points,  4 beta functions with:
                l(1) =   0
                l(2) =   0
                l(3) =   1
                l(4) =   1
     Q(r) pseudized with  8 coefficients,  rinner =    0.800   0.800   0.800

     PseudoPot. # 4 for C  read from file:
     /storage/coda1/p-amedford6/0/shared/rich_project_chbe-medford/medford-share/data/pseudos_module/espresso/nninc/pbe/van/C.UPF
     MD5 check sum: 1a69bf6b8db32088f5b2163dbdb77a27
     Pseudo is Ultrasoft, Zval =  4.0
     Generated by new atomic code, or converted to UPF format
     Using radial grid of  721 points,  4 beta functions with:
                l(1) =   0
                l(2) =   0
                l(3) =   1
                l(4) =   1
     Q(r) pseudized with  8 coefficients,  rinner =    0.800   0.800   0.800

     PseudoPot. # 5 for H  read from file:
     /storage/coda1/p-amedford6/0/shared/rich_project_chbe-medford/medford-share/data/pseudos_module/espresso/nninc/pbe/van/H.UPF
     MD5 check sum: b5ee9d7bfd3a09ee7748110bda690ff7
     Pseudo is Ultrasoft, Zval =  1.0
     Generated by new atomic code, or converted to UPF format
     Using radial grid of  615 points,  1 beta functions with:
                l(1) =   0
     Q(r) pseudized with  8 coefficients,  rinner =    0.800

     atomic species   valence    mass     pseudopotential
        Ti1           12.00    47.86700     Ti( 1.00)
        O1             6.00    15.99900     O ( 1.00)
        N1             5.00    14.00700     N ( 1.00)
        C1             4.00    12.01100     C ( 1.00)
        H1             1.00     1.00800     H ( 1.00)

     No symmetry found

   Cartesian axes

     site n.     atom                  positions (alat units)
         1           Ti1 tau(   1) = (   0.0004258   2.9801865   6.0000000  )
         2           Ti1 tau(   2) = (   3.2906075   1.4906267   6.0002472  )
         3           O1  tau(   3) = (   0.0006271   0.0005054   7.9858123  )
         4           O1  tau(   4) = (   3.2906025   0.0005020   7.3038282  )
         5           O1  tau(   5) = (   4.5942328   1.4918067   9.2879030  )
         6           O1  tau(   6) = (   1.9868534   1.4903216   9.2879459  )
         7           Ti1 tau(   7) = (   3.2907910   2.8959150   9.1758416  )
         8           Ti1 tau(   8) = (   0.0015273   1.4827037   9.2680791  )
         9           O1  tau(   9) = (   3.2769995   5.9424463  11.3879711  )
        10           O1  tau(  10) = (   0.0116148   5.9584955  10.6183126  )
        11           O1  tau(  11) = (   1.2559300   1.4809235  12.6914295  )
        12           O1  tau(  12) = (   5.2914439   1.4888754  12.6824943  )
        13           Ti1 tau(  13) = (   6.5693074   2.9549812  12.5071532  )
        14           Ti1 tau(  14) = (   3.2720578   1.2926143  12.7373905  )
        15           O1  tau(  15) = (   6.5263330   5.9075480  14.6758232  )
        16           O1  tau(  16) = (   3.2750150   0.0724425  14.0538047  )
        17           O1  tau(  17) = (   4.5404297   1.6145126  16.1214498  )
        18           O1  tau(  18) = (   1.9612862   1.5681812  16.1371236  )
        19           Ti1 tau(  19) = (   3.2615978   3.0295928  15.7214328  )
        20           Ti1 tau(  20) = (   6.4910920   1.3289874  15.8500745  )
        21           O1  tau(  21) = (   3.2904802   0.0005063   4.7018136  )
        22           O1  tau(  22) = (   6.5149858   0.1606772  17.2625446  )
        23           O1  tau(  23) = (   1.3043587   1.4918075   6.0039043  )
        24           O1  tau(  24) = (   5.2767064   1.4903225   6.0039473  )
        25           Ti1 tau(  25) = (   0.0000382   5.9609847   6.0000000  )
        26           Ti1 tau(  26) = (   3.2902200   4.4714249   6.0002472  )
        27           O1  tau(  27) = (   0.0002396   2.9813036   7.9858123  )
        28           O1  tau(  28) = (   3.2902150   2.9813002   7.3038282  )
        29           O1  tau(  29) = (   4.5938453   4.4726049   9.2879030  )
        30           O1  tau(  30) = (   1.9864658   4.4711199   9.2879459  )
        31           Ti1 tau(  31) = (   3.2891106   5.8743827   9.1763621  )
        32           Ti1 tau(  32) = (   0.0006254   4.4649316   9.2693709  )
        33           O1  tau(  33) = (   3.2749377   2.9871965  11.3337082  )
        34           O1  tau(  34) = (   0.0092240   2.9805883  10.6323155  )
        35           O1  tau(  35) = (   1.2597673   4.4587344  12.6634223  )
        36           O1  tau(  36) = (   5.2866262   4.4511231  12.6493885  )
        37           Ti1 tau(  37) = (   6.5604603   5.9292220  12.4937940  )
        38           Ti1 tau(  38) = (   3.2724722   4.3622713  12.4512132  )
        39           O1  tau(  39) = (   6.5737517   3.0258615  14.9025115  )
        40           O1  tau(  40) = (   3.2593133   3.0063273  13.9441864  )
        41           O1  tau(  41) = (   4.5441350   4.4310557  16.1689449  )
        42           O1  tau(  42) = (   1.9655774   4.4762250  16.2070539  )
        43           Ti1 tau(  43) = (   3.1776431   0.0563557  16.2565842  )
        44           Ti1 tau(  44) = (   6.5216753   4.5226504  15.9439936  )
        45           O1  tau(  45) = (   3.2900926   2.9813045   4.7018136  )
        46           O1  tau(  46) = (   1.3039711   4.4726057   6.0039043  )
        47           O1  tau(  47) = (   5.2763189   4.4711207   6.0039473  )
        48           N1  tau(  48) = (   0.8157702   2.5297039  18.7633901  )
        49           N1  tau(  49) = (   6.4302604   3.3580032  18.1334362  )
        50           C1  tau(  50) = (   1.9549655   3.0231469  19.2393773  )
        51           H1  tau(  51) = (   2.0901252   4.0892486  19.3254668  )
        52           H1  tau(  52) = (   2.7239663   2.3052050  19.4587972  )
        53           H1  tau(  53) = (   0.7490178   1.5515861  18.4517582  )
        54           H1  tau(  54) = (   6.4535031   4.2829477  18.5696568  )
        55           H1  tau(  55) = (   5.5068980   2.9516776  18.2836589  )
        56           O1  tau(  56) = (   3.3967406   0.0908776  18.1493316  )
        57           H1  tau(  57) = (   4.3453859   0.1513423  18.3540861  )

     number of k points=    10  Fermi-Dirac smearing, width (Ry)=  0.0073
                       cart. coord. in units 2pi/alat
        k(    1) = (   0.0000000   0.0000000   0.0000000), wk =   0.1250000
        k(    2) = (   0.0000000   0.0419351   0.0000000), wk =   0.2500000
        k(    3) = (   0.0000000  -0.0838702   0.0000000), wk =   0.1250000
        k(    4) = (   0.0379955   0.0000049   0.0000000), wk =   0.2500000
        k(    5) = (   0.0379955   0.0419400   0.0000000), wk =   0.2500000
        k(    6) = (   0.0379955  -0.0838652   0.0000000), wk =   0.2500000
        k(    7) = (   0.0379955  -0.0419301   0.0000000), wk =   0.2500000
        k(    8) = (  -0.0759910  -0.0000099   0.0000000), wk =   0.1250000
        k(    9) = (  -0.0759910   0.0419252   0.0000000), wk =   0.2500000
        k(   10) = (  -0.0759910  -0.0838800   0.0000000), wk =   0.1250000

     Initial potential from superposition of free atoms

     starting charge  387.99913, renormalised to  404.00000

     negative rho (up, down):  1.607E-02 0.000E+00

     %%%%%%%%%%%%%%%%%%%%%%%%%%%%%%%%%%%%%%%%%%%%%%%%%%%%%%%%%%%%%%%%%%%%%%%%
     %                                                                      %
     % You are using vdW-DF, which was implemented by the Thonhauser group. %
     % Please cite the following two papers that made this development      %
     % possible and the two reviews that describe the various versions:     %
     %                                                                      %
     %   T. Thonhauser et al., PRL 115, 136402 (2015).                      %
     %   T. Thonhauser et al., PRB 76, 125112 (2007).                       %
     %   K. Berland et al., Rep. Prog. Phys. 78, 066501 (2015).             %
     %   D.C. Langreth et al., J. Phys.: Condens. Matter 21, 084203 (2009). %
     %                                                                      %
     %                                                                      %
     % If you are calculating the stress with vdW-DF, please also cite:     %
     %                                                                      %
     %   R. Sabatini et al., J. Phys.: Condens. Matter 24, 424209 (2012).   %
     %                                                                      %
     %%%%%%%%%%%%%%%%%%%%%%%%%%%%%%%%%%%%%%%%%%%%%%%%%%%%%%%%%%%%%%%%%%%%%%%%

     Adding external electric field

     Computed dipole along edir(3) :
        Dipole              -13.8460 Ry au,        -35.1930 Debye
        Dipole field         -0.0261 Ry au,

        Potential amp.        2.4221 Ry
        Total length         46.3494 bohr

     Starting wfcs are  306 atomic wfcs
  @ DRIVER MODE: Message from server: STATUS
  @ DRIVER MODE: Message from server: POSDATA
  @ DRIVER MODE: Reading and sharing cell
  @ DRIVER MODE: Reading and sharing positions
  @ DRIVER MODE: Received positions

     Self-consistent Calculation

     iteration #  1     ecut=    29.40 Ry     beta= 0.05
     Davidson diagonalization with overlap
     c_bands:  1 eigenvalues not converged
     c_bands:  2 eigenvalues not converged
     c_bands:  1 eigenvalues not converged
     c_bands:  1 eigenvalues not converged
     c_bands:  1 eigenvalues not converged
     c_bands:  2 eigenvalues not converged
     c_bands:  5 eigenvalues not converged
     c_bands:  3 eigenvalues not converged
     ethr =  1.00E-05,  avg # of iterations = 32.8

[...]

     total energy              =   -2231.91016233 Ry
     estimated scf accuracy    <    8426.19889761 Ry

     iteration #  2     ecut=    29.40 Ry     beta= 0.05
     Davidson diagonalization with overlap
     ethr =  1.00E-02,  avg # of iterations = 27.4

[...]

     iteration # 82     ecut=    29.40 Ry     beta= 0.05
     Davidson diagonalization with overlap
     c_bands:  1 eigenvalues not converged
     ethr =  2.72E-11,  avg # of iterations = 14.4

[...]

     total energy              =   -2975.15009407 Ry
     estimated scf accuracy    <       0.00000016 Ry

     iteration # 84     ecut=    29.40 Ry     beta= 0.05
     Davidson diagonalization with overlap
     ethr =  2.72E-11,  avg # of iterations =  7.2

     negative rho (up, down):  1.523E-02 0.000E+00

     Adding external electric field

     Computed dipole along edir(3) :
        Dipole                1.1743 Ry au,          2.9848 Debye
        Dipole field          0.0022 Ry au,

        Potential amp.       -0.2054 Ry
        Total length         46.3494 bohr

     End of self-consistent calculation

          k = 0.0000 0.0000 0.0000 ( 18029 PWs)   bands (ev):

   -55.4212 -55.3390 -55.3049 -55.2343 -55.1961 -55.1853 -55.1706 -55.1692
   -55.1542 -55.1347 -55.1063 -55.0352 -55.0272 -55.0009 -54.3331 -54.2991
   -31.8269 -31.7767 -31.7479 -31.7201 -31.6732 -31.6729 -31.6378 -31.6288
   -31.6249 -31.6132 -31.5843 -31.5466 -31.5090 -31.4918 -31.4761 -31.4684
   -31.4516 -31.4487 -31.4475 -31.4132 -31.3964 -31.3851 -31.3796 -31.3757
   -31.3713 -31.3650 -31.3616 -31.3398 -31.3340 -31.3308 -31.3307 -31.3071
   -31.2990 -31.2953 -31.2832 -31.2589 -31.2408 -31.2372 -31.2150 -31.2048
   -31.2014 -31.1981 -30.7402 -30.6512 -30.6289 -30.5575 -30.4709 -30.3593
   -19.3525 -16.2719 -16.0540 -15.8884 -15.6731 -15.6268 -15.5367 -15.3745
   -15.2624 -15.1920 -15.0825 -15.0066 -14.9329 -14.8990 -14.8899 -14.8763
   -14.8710 -14.8200 -14.8111 -14.7972 -14.7866 -14.7765 -14.7584 -14.7355
   -14.7013 -14.6529 -14.5976 -14.4979 -14.4594 -14.4229 -14.2982 -14.2796
   -12.8321 -12.7153 -10.1824  -7.8108  -6.5545  -5.3822  -4.1678  -3.8154
    -3.6678  -3.3965  -3.2884  -3.2569  -3.1915  -3.1619  -2.9074  -2.8075
    -2.7888  -2.6529  -2.5341  -2.4875  -2.4268  -2.3563  -2.3249  -2.3017
    -2.2766  -2.2195  -2.1565  -2.1427  -2.1285  -2.0525  -2.0480  -1.9731
    -1.9244  -1.9119  -1.8069  -1.7340  -1.7031  -1.6900  -1.6783  -1.6618
    -1.6369  -1.6299  -1.6062  -1.5439  -1.4783  -1.4689  -1.4037  -1.3778
    -1.1055  -1.0408  -0.9764  -0.9467  -0.8700  -0.8271  -0.8140  -0.7893
    -0.7473  -0.7439  -0.7161  -0.6616  -0.5600  -0.5090  -0.4775  -0.4595
    -0.4069  -0.2930  -0.2724  -0.1622  -0.1333  -0.1257  -0.0875  -0.0391
     0.0023   0.0413   0.1044   0.1735   0.2241   0.2748   0.3071   0.3327
     0.3734   0.4090   0.4686   0.5461   0.5700   0.6145   0.6446   0.6648
     0.6744   0.7312   0.7481   0.8359   0.9168   0.9283   1.0276   1.0583
     1.1086   1.2929   1.3299   1.6289   1.6753   1.6932   1.8817   2.2629
     2.3093   3.7282   3.8527   3.8826   3.8929   3.9313   3.9649   4.0206
     4.2158   4.2267   4.3385   4.4180

[...]

          k = 0.0380-0.0419 0.0000 ( 17876 PWs)   bands (ev):

[...]

          k =-0.0760-0.0000 0.0000 ( 17886 PWs)   bands (ev):

[...]

          k =-0.0760-0.0839 0.0000 ( 17948 PWs)   bands (ev):

   -55.4203 -55.3221 -55.3217 -55.2231 -55.2072 -55.1829 -55.1715 -55.1517
   -55.1514 -55.1479 -55.1131 -55.0294 -55.0239 -55.0121 -54.3165 -54.3156
   -31.6889 -31.6790 -31.6606 -31.6422 -31.6421 -31.6256 -31.6143 -31.6140
   -31.5732 -31.5420 -31.5261 -31.5012 -31.4918 -31.4834 -31.4721 -31.4590
   -31.4575 -31.4521 -31.4489 -31.4418 -31.4415 -31.4320 -31.4163 -31.4084
   -31.4041 -31.3866 -31.3724 -31.3720 -31.3658 -31.3634 -31.3585 -31.3484
   -31.3339 -31.3300 -31.3287 -31.3251 -31.2903 -31.2897 -31.2510 -31.2443
   -31.2190 -31.2105 -30.6419 -30.6412 -30.5535 -30.5523 -30.5146 -30.5139
   -19.3479 -16.2425 -15.7587 -15.4904 -15.3652 -15.3533 -15.2319 -15.2152
   -15.1526 -15.1443 -15.1148 -15.1026 -15.0917 -15.0468 -15.0179 -14.9355
   -14.9197 -14.8791 -14.8756 -14.8298 -14.8276 -14.8259 -14.8042 -14.7826
   -14.7765 -14.7516 -14.7078 -14.6886 -14.6752 -14.5380 -14.4361 -14.4027
   -12.8174 -12.8167 -10.1537  -7.7770  -6.5467  -5.4657  -4.1253  -3.8321
    -3.6281  -2.8460  -2.7033  -2.6017  -2.4915  -2.4596  -2.4111  -2.3618
    -2.3483  -2.3167  -2.2440  -2.2165  -2.2013  -2.1653  -2.1638  -2.1410
    -2.1311  -2.1116  -2.0830  -2.0628  -2.0536  -2.0463  -2.0200  -2.0043
    -1.9903  -1.9648  -1.9371  -1.9161  -1.9028  -1.8949  -1.8441  -1.7387
    -1.6504  -1.5717  -1.5352  -1.5093  -1.4946  -1.4507  -1.4373  -1.4252
    -1.3902  -1.3664  -1.2310  -1.2097  -1.0704  -1.0171  -0.9831  -0.9367
    -0.8833  -0.8745  -0.8564  -0.8175  -0.7778  -0.6454  -0.6137  -0.5778
    -0.5043  -0.4487  -0.3616  -0.3475  -0.3227  -0.3060  -0.2704  -0.2504
    -0.2370  -0.2068  -0.1773  -0.0989  -0.0653  -0.0533  -0.0343   0.0647
     0.1646   0.2042   0.2680   0.3378   0.3788   0.4040   0.4331   0.6178
     0.6470   0.7906   0.7990   0.8035   0.9488   0.9493   0.9981   1.0473
     1.0765   1.1184   1.1476   1.1622   1.1972   2.0520   2.0604   2.1295
     2.1297   3.7652   3.9301   4.1534   4.1759   4.2343   4.2456   4.2764
     4.3021   4.3314   4.3726   4.3921

     the Fermi energy is     3.7780 ev

!    total energy              =   -2975.15010275 Ry
     estimated scf accuracy    <       0.00000004 Ry
     smearing contrib. (-TS)   =      -0.03329232 Ry
     internal energy E=F+TS    =   -2975.11681042 Ry

     The total energy is F=E-TS. E is the sum of the following terms:
     one-electron contribution =  -23377.82675880 Ry
     hartree contribution      =   11786.11822167 Ry
     xc contribution           =    -494.90029491 Ry
     ewald contribution        =    9111.48941925 Ry
     electric field correction =       0.00260237 Ry

     convergence has been achieved in  84 iterations

     Forces acting on atoms (cartesian axes, Ry/au):

     atom    1 type  1   force =     0.00028538   -0.00019777    0.09346888
     atom    2 type  1   force =    -0.00005666    0.00053564   -0.17632930
     atom    3 type  2   force =     0.00004275   -0.00029460   -0.02069190
     atom    4 type  2   force =     0.00001679   -0.00222282    0.05687290
     atom    5 type  2   force =    -0.00785741   -0.00263649    0.00514059
     atom    6 type  2   force =     0.00892233   -0.00211949    0.00325983
     atom    7 type  1   force =    -0.00078081   -0.00333003    0.00575132
     atom    8 type  1   force =     0.00086245    0.00108748   -0.00173664
     atom    9 type  2   force =    -0.00018619    0.00014630    0.00005457
     atom   10 type  2   force =    -0.00341970    0.00105795   -0.00643565
     atom   11 type  2   force =     0.00018722   -0.00013472    0.00031749
     atom   12 type  2   force =    -0.00011959   -0.00023027    0.00004070
     atom   13 type  1   force =     0.00000842   -0.00005986   -0.00020898
     atom   14 type  1   force =     0.00053056   -0.00040077   -0.00025533
     atom   15 type  2   force =    -0.00002817   -0.00099439   -0.00044015
     atom   16 type  2   force =     0.00021478    0.00064300    0.00080968
     atom   17 type  2   force =    -0.00131778    0.00036874   -0.00043736
     atom   18 type  2   force =     0.00142521    0.00001351   -0.00075214
     atom   19 type  1   force =     0.00003493    0.00058943   -0.00013022
     atom   20 type  1   force =     0.00055191    0.00015704   -0.00037236
     atom   21 type  2   force =     0.00011504    0.00005061    0.10355941
     atom   22 type  2   force =     0.00007636    0.00009911    0.00038289
     atom   23 type  2   force =    -0.07134999   -0.00017375   -0.02699618
     atom   24 type  2   force =     0.07134527    0.00027564   -0.02702639
     atom   25 type  1   force =     0.00006879   -0.00017602    0.09324318
     atom   26 type  1   force =     0.00008476   -0.00126792   -0.17653177
     atom   27 type  2   force =     0.00007611   -0.00015107   -0.01946391
     atom   28 type  2   force =     0.00001745   -0.00060039    0.05223723
     atom   29 type  2   force =    -0.00742735    0.00176500    0.00490234
     atom   30 type  2   force =     0.00835611    0.00234955    0.00300469
     atom   31 type  1   force =    -0.00097744    0.00886265   -0.00436898
     atom   32 type  1   force =     0.00094789   -0.00223289   -0.00239852
     atom   33 type  2   force =    -0.00022469   -0.00135113   -0.00064100
     atom   34 type  2   force =    -0.00214406   -0.00210219   -0.00763965
     atom   35 type  2   force =    -0.00001495    0.00016398    0.00027405
     atom   36 type  2   force =     0.00017687    0.00015879    0.00021163
     atom   37 type  1   force =     0.00003056   -0.00030400    0.00013133
     atom   38 type  1   force =     0.00035177    0.00048185    0.00016733
     atom   39 type  2   force =    -0.00000466    0.00079049   -0.00018983
     atom   40 type  2   force =     0.00021944   -0.00015455    0.00044472
     atom   41 type  2   force =    -0.00047317   -0.00014539    0.00016210
     atom   42 type  2   force =     0.00088816   -0.00026992    0.00002915
     atom   43 type  1   force =     0.00035374   -0.00065611    0.00008520
     atom   44 type  1   force =     0.00006929    0.00088666    0.00035772
     atom   45 type  2   force =     0.00010039   -0.00008917    0.10332002
     atom   46 type  2   force =    -0.07139355   -0.00003196   -0.02703230
     atom   47 type  2   force =     0.07136780    0.00038421   -0.02706285
     atom   48 type  3   force =     0.00347360    0.00161581    0.00241731
     atom   49 type  3   force =     0.00130508    0.00055815    0.00082358
     atom   50 type  4   force =    -0.00769932   -0.00084913   -0.00500406
     atom   51 type  5   force =     0.00113423    0.00001095    0.00037363
     atom   52 type  5   force =     0.00203762   -0.00147885    0.00113726
     atom   53 type  5   force =     0.00013757    0.00075671    0.00014889
     atom   54 type  5   force =    -0.00022069    0.00020322   -0.00039574
     atom   55 type  5   force =    -0.00002166    0.00039879    0.00054925
     atom   56 type  2   force =     0.00076388    0.00093101   -0.00040404
     atom   57 type  5   force =    -0.00086266   -0.00068662   -0.00073361

     Total force =     0.363226     Total SCF correction =     0.000754
  @ DRIVER MODE: Message from server: STATUS
  @ DRIVER MODE: Message from server: GETFORCE
  @ DRIVER MODE: Returning v,forces,stress,ensemble

     Writing output data file ./calc.save/
  @ DRIVER MODE: Message from server: EXIT
  @ DRIVE MODE: Exiting

     General routines

     Parallel routines

   This run was terminated on:  19:14:32  23Sep2021

   JOB DONE.