     Program PWSCF v.6.7GPU starts on 24Aug2021 at  0:54:19

     R & G space division:  proc/nbgrp/npool/nimage =       6
     Reading input from /storage/home/hcoda1/3/ntian30/research/carbon/CH2_vib/ads_slab/CH2NNHH_a/out_0011/pw.inp
Warning: card &CELL ignored
Warning: card   CELL_DYNAMICS='IPI', ignored
Warning: card / ignored

     Current dimensions of program PWSCF are:
     Max number of different atomic species (ntypx) = 10
     Max number of k-points (npk) =  40000
     Max angular momentum in pseudopotentials (lmaxx) =  3
     Presently no symmetry can be used with electric field

     Message from routine cell_base_init:
     DEPRECATED: use true lattice parameter, not A to a.u. conversion factor

     IMPORTANT: XC functional enforced from input :
     Exchange-correlation= BEEF-VDW
                           (   1   4  43  14   2   0   0)
     Any further DFT definition will be discarded
     Please, verify this is what you really want

  @ DRIVER MODE: Connecting to
 qe_1139763_2632807.sched-torque.pace.gatech.edus7bf1jes_scratch
  using UNIX socket
  @ DRIVER MODE: Message from server: STATUS
  @ DRIVER MODE: Message from server: INIT
  @ DRIVER MODE: Receiving replica           0          -1
  @ DRIVER MODE: Receiving encoded integer          25
  @ DRIVER MODE:  SCF:  T  FORCE:  T  STRESS:  F  VC:  F  ENSEMBLE:  F
  @ DRIVER MODE:  SCF:  T  FORCE:  T  STRESS:  F  VC:  F  ENSEMBLE:  F

     Using Slab Decomposition

     bravais-lattice index     =            0
     lattice parameter (alat)  =       1.8897  a.u.
     unit-cell volume          =    6658.9804 (a.u.)^3
     number of atoms/cell      =           54
     number of atomic types    =            5
     number of electrons       =       396.00
     number of Kohn-Sham states=          208
     kinetic-energy cutoff     =      29.3995  Ry
     charge density cutoff     =     293.9946  Ry
     scf convergence threshold =      7.3E-08
     mixing beta               =       0.0500
     number of iterations used =            8  plain     mixing
     Exchange-correlation= BEEF-VDW
                           (   1   4  43  14   2   0   0)

     celldm(1)=   1.889726  celldm(2)=   0.000000  celldm(3)=   0.000000
     celldm(4)=   0.000000  celldm(5)=   0.000000  celldm(6)=   0.000000

     crystal axes: (cart. coord. in units of alat)
               a(1) = (   6.579727   0.000000   0.000000 )
               a(2) = (  -0.000775   5.961596   0.000000 )
               a(3) = (   0.000000   0.000000  25.155947 )

     reciprocal axes: (cart. coord. in units 2 pi/alat)
               b(1) = (  0.151982  0.000020  0.000000 )
               b(2) = (  0.000000  0.167740  0.000000 )
               b(3) = (  0.000000  0.000000  0.039752 )

     PseudoPot. # 1 for Ti read from file:
     /storage/coda1/p-amedford6/0/shared/rich_project_chbe-medford/medford-share/data/pseudos_module/espresso/nninc/pbe/van/Ti.UPF
     MD5 check sum: 8e4df49b7f0d34bbd5052bf3f5ea0213
     Pseudo is Ultrasoft, Zval = 12.0
     Generated by new atomic code, or converted to UPF format
     Using radial grid of  851 points,  6 beta functions with:
                l(1) =   0
                l(2) =   0
                l(3) =   1
                l(4) =   1
                l(5) =   2
                l(6) =   2
     Q(r) pseudized with  8 coefficients,  rinner =    1.000   1.000   1.000
                                                       1.000   1.000

     PseudoPot. # 2 for O  read from file:
     /storage/coda1/p-amedford6/0/shared/rich_project_chbe-medford/medford-share/data/pseudos_module/espresso/nninc/pbe/van/O.UPF
     MD5 check sum: 78c19812648e8988a0fe644b0f25305e
     Pseudo is Ultrasoft, Zval =  6.0
     Generated by new atomic code, or converted to UPF format
     Using radial grid of  737 points,  4 beta functions with:
                l(1) =   0
                l(2) =   0
                l(3) =   1
                l(4) =   1
     Q(r) pseudized with  8 coefficients,  rinner =    0.800   0.800   0.800

     PseudoPot. # 3 for N  read from file:
     /storage/coda1/p-amedford6/0/shared/rich_project_chbe-medford/medford-share/data/pseudos_module/espresso/nninc/pbe/van/N.UPF
     MD5 check sum: 90d10febe142ad51ac9d5be1deb811c4
     Pseudo is Ultrasoft, Zval =  5.0
     Generated by new atomic code, or converted to UPF format
     Using radial grid of  729 points,  4 beta functions with:
                l(1) =   0
                l(2) =   0
                l(3) =   1
                l(4) =   1
     Q(r) pseudized with  8 coefficients,  rinner =    0.800   0.800   0.800

     PseudoPot. # 4 for C  read from file:
     /storage/coda1/p-amedford6/0/shared/rich_project_chbe-medford/medford-share/data/pseudos_module/espresso/nninc/pbe/van/C.UPF
     MD5 check sum: 1a69bf6b8db32088f5b2163dbdb77a27
     Pseudo is Ultrasoft, Zval =  4.0
     Generated by new atomic code, or converted to UPF format
     Using radial grid of  721 points,  4 beta functions with:
                l(1) =   0
                l(2) =   0
                l(3) =   1
                l(4) =   1
     Q(r) pseudized with  8 coefficients,  rinner =    0.800   0.800   0.800

     PseudoPot. # 5 for H  read from file:
     /storage/coda1/p-amedford6/0/shared/rich_project_chbe-medford/medford-share/data/pseudos_module/espresso/nninc/pbe/van/H.UPF
     MD5 check sum: b5ee9d7bfd3a09ee7748110bda690ff7
     Pseudo is Ultrasoft, Zval =  1.0
     Generated by new atomic code, or converted to UPF format
     Using radial grid of  615 points,  1 beta functions with:
                l(1) =   0
     Q(r) pseudized with  8 coefficients,  rinner =    0.800

     atomic species   valence    mass     pseudopotential
        Ti1           12.00    47.86700     Ti( 1.00)
        O1             6.00    15.99900     O ( 1.00)
        N1             5.00    14.00700     N ( 1.00)
        C1             4.00    12.01100     C ( 1.00)
        H1             1.00     1.00800     H ( 1.00)

     No symmetry found

   Cartesian axes

     site n.     atom                  positions (alat units)
         1           Ti1 tau(   1) = (   0.0004258   2.9801865   6.0000000  )
         2           Ti1 tau(   2) = (   3.2906075   1.4906267   6.0002472  )
         3           O1  tau(   3) = (   0.0006271   0.0005054   7.9858123  )
         4           O1  tau(   4) = (   3.2906025   0.0005020   7.3038282  )
         5           O1  tau(   5) = (   4.5942328   1.4918067   9.2879030  )
         6           O1  tau(   6) = (   1.9868534   1.4903216   9.2879459  )
         7           Ti1 tau(   7) = (   3.2907910   2.8959150   9.1758416  )
         8           Ti1 tau(   8) = (   0.0015273   1.4827037   9.2680791  )
         9           O1  tau(   9) = (   3.2741875   5.9357071  11.3735532  )
        10           O1  tau(  10) = (   0.0116148   5.9584955  10.6183126  )
        11           O1  tau(  11) = (   1.2759687   1.4857368  12.6615302  )
        12           O1  tau(  12) = (   5.2764777   1.4850508  12.6403612  )
        13           Ti1 tau(  13) = (   6.5724762   2.9646551  12.5117882  )
        14           Ti1 tau(  14) = (   3.2886223   1.4652571  12.5194246  )
        15           O1  tau(  15) = (   6.5416971   0.0664024  14.6986244  )
        16           O1  tau(  16) = (   3.2828258   5.9593040  13.9967703  )
        17           O1  tau(  17) = (   4.5136565   1.4796660  16.2299008  )
        18           O1  tau(  18) = (   2.0038615   1.4742267  16.2123189  )
        19           Ti1 tau(  19) = (   3.2480181   2.9445974  15.7466143  )
        20           Ti1 tau(  20) = (   6.5118905   1.3801257  16.1190456  )
        21           O1  tau(  21) = (   3.2904802   0.0005063   4.7018136  )
        22           O1  tau(  22) = (   6.5538845   5.8109167  17.2256470  )
        23           O1  tau(  23) = (   1.3043587   1.4918075   6.0039043  )
        24           O1  tau(  24) = (   5.2767064   1.4903225   6.0039473  )
        25           Ti1 tau(  25) = (   0.0000382   5.9609847   6.0000000  )
        26           Ti1 tau(  26) = (   3.2902200   4.4714249   6.0002472  )
        27           O1  tau(  27) = (   0.0002396   2.9813036   7.9858123  )
        28           O1  tau(  28) = (   3.2902150   2.9813002   7.3038282  )
        29           O1  tau(  29) = (   4.5938453   4.4726049   9.2879030  )
        30           O1  tau(  30) = (   1.9864658   4.4711199   9.2879459  )
        31           Ti1 tau(  31) = (   3.2891106   5.8743827   9.1763621  )
        32           Ti1 tau(  32) = (   0.0006254   4.4649316   9.2693709  )
        33           O1  tau(  33) = (   3.2754078   2.9701464  11.3677572  )
        34           O1  tau(  34) = (   0.0092240   2.9805883  10.6323155  )
        35           O1  tau(  35) = (   1.2711598   4.4556272  12.7031535  )
        36           O1  tau(  36) = (   5.2783420   4.4558858  12.6781970  )
        37           Ti1 tau(  37) = (   0.0002938   5.9583472  12.5066983  )
        38           Ti1 tau(  38) = (   3.2916940   4.4447674  12.5292973  )
        39           O1  tau(  39) = (   6.5347695   2.9176514  14.9891124  )
        40           O1  tau(  40) = (   3.2818703   2.9467213  13.9608579  )
        41           O1  tau(  41) = (   4.5039121   4.4250859  16.1805084  )
        42           O1  tau(  42) = (   2.0002864   4.4376668  16.1101511  )
        43           Ti1 tau(  43) = (   3.2613398   5.9375382  15.7939200  )
        44           Ti1 tau(  44) = (   0.0097882   4.6113729  15.8292928  )
        45           O1  tau(  45) = (   3.2900926   2.9813045   4.7018136  )
        46           O1  tau(  46) = (   1.3039711   4.4726057   6.0039043  )
        47           O1  tau(  47) = (   5.2763189   4.4711207   6.0039473  )
        48           N1  tau(  48) = (   6.5527080   2.6566917  18.2311642  )
        49           C1  tau(  49) = (   0.9950107   2.5313988  18.9821798  )
        50           H1  tau(  50) = (   0.9966315   2.9146593  20.0110098  )
        51           H1  tau(  51) = (   1.8622571   2.0164067  18.6108951  )
        52           N1  tau(  52) = (   5.4094651   3.2293427  18.7544413  )
        53           H1  tau(  53) = (   5.6216840   3.8708726  19.5154782  )
        54           H1  tau(  54) = (   4.9168071   3.7283298  18.0160565  )

     number of k points=    10  Fermi-Dirac smearing, width (Ry)=  0.0073
                       cart. coord. in units 2pi/alat
        k(    1) = (   0.0000000   0.0000000   0.0000000), wk =   0.1250000
        k(    2) = (   0.0000000   0.0419351   0.0000000), wk =   0.2500000
        k(    3) = (   0.0000000  -0.0838702   0.0000000), wk =   0.1250000
        k(    4) = (   0.0379955   0.0000049   0.0000000), wk =   0.2500000
        k(    5) = (   0.0379955   0.0419400   0.0000000), wk =   0.2500000
        k(    6) = (   0.0379955  -0.0838652   0.0000000), wk =   0.2500000
        k(    7) = (   0.0379955  -0.0419301   0.0000000), wk =   0.2500000
        k(    8) = (  -0.0759910  -0.0000099   0.0000000), wk =   0.1250000
        k(    9) = (  -0.0759910   0.0419252   0.0000000), wk =   0.2500000
        k(   10) = (  -0.0759910  -0.0838800   0.0000000), wk =   0.1250000

     Initial potential from superposition of free atoms

     starting charge  379.99915, renormalised to  396.00000

     negative rho (up, down):  1.580E-02 0.000E+00

     %%%%%%%%%%%%%%%%%%%%%%%%%%%%%%%%%%%%%%%%%%%%%%%%%%%%%%%%%%%%%%%%%%%%%%%%
     %                                                                      %
     % You are using vdW-DF, which was implemented by the Thonhauser group. %
     % Please cite the following two papers that made this development      %
     % possible and the two reviews that describe the various versions:     %
     %                                                                      %
     %   T. Thonhauser et al., PRL 115, 136402 (2015).                      %
     %   T. Thonhauser et al., PRB 76, 125112 (2007).                       %
     %   K. Berland et al., Rep. Prog. Phys. 78, 066501 (2015).             %
     %   D.C. Langreth et al., J. Phys.: Condens. Matter 21, 084203 (2009). %
     %                                                                      %
     %                                                                      %
     % If you are calculating the stress with vdW-DF, please also cite:     %
     %                                                                      %
     %   R. Sabatini et al., J. Phys.: Condens. Matter 24, 424209 (2012).   %
     %                                                                      %
     %%%%%%%%%%%%%%%%%%%%%%%%%%%%%%%%%%%%%%%%%%%%%%%%%%%%%%%%%%%%%%%%%%%%%%%%

     Adding external electric field

     Computed dipole along edir(3) :
        Dipole               -9.9766 Ry au,        -25.3580 Debye
        Dipole field         -0.0188 Ry au,

        Potential amp.        1.7453 Ry
        Total length         46.3494 bohr

     Starting wfcs are  300 atomic wfcs
  @ DRIVER MODE: Message from server: STATUS
  @ DRIVER MODE: Message from server: POSDATA
  @ DRIVER MODE: Reading and sharing cell
  @ DRIVER MODE: Reading and sharing positions
  @ DRIVER MODE: Received positions

     Self-consistent Calculation

     iteration #  1     ecut=    29.40 Ry     beta= 0.05
     Davidson diagonalization with overlap
     c_bands:  1 eigenvalues not converged
     c_bands:  2 eigenvalues not converged
     c_bands:  2 eigenvalues not converged
     c_bands:  1 eigenvalues not converged
     c_bands:  3 eigenvalues not converged
     c_bands:  2 eigenvalues not converged
     c_bands:  3 eigenvalues not converged
     c_bands:  2 eigenvalues not converged
     c_bands:  1 eigenvalues not converged
     c_bands:  1 eigenvalues not converged
     ethr =  1.00E-05,  avg # of iterations = 20.0

[...]

     total energy              =   -2515.82251424 Ry
     estimated scf accuracy    <    4740.60298566 Ry

     iteration #  2     ecut=    29.40 Ry     beta= 0.05
     Davidson diagonalization with overlap
     ethr =  1.00E-02,  avg # of iterations = 23.7

[...]

     iteration # 68     ecut=    29.40 Ry     beta= 0.05
     Davidson diagonalization with overlap
     c_bands:  1 eigenvalues not converged
     c_bands:  1 eigenvalues not converged
     ethr =  3.91E-11,  avg # of iterations = 14.3

[...]

     total energy              =   -2940.36645948 Ry
     estimated scf accuracy    <       0.00000011 Ry

     iteration # 70     ecut=    29.40 Ry     beta= 0.05
     Davidson diagonalization with overlap
     ethr =  2.72E-11,  avg # of iterations = 10.9

     negative rho (up, down):  1.644E-02 0.000E+00

     Adding external electric field

     Computed dipole along edir(3) :
        Dipole                1.2638 Ry au,          3.2122 Debye
        Dipole field          0.0024 Ry au,

        Potential amp.       -0.2211 Ry
        Total length         46.3494 bohr

     End of self-consistent calculation

          k = 0.0000 0.0000 0.0000 ( 18029 PWs)   bands (ev):

   -55.4181 -55.3814 -55.3699 -55.3358 -55.2974 -55.2937 -55.2887 -55.2628
   -55.2360 -55.2196 -55.2017 -55.2014 -55.1679 -55.0528 -54.3978 -54.3637
   -31.9872 -31.8623 -31.8211 -31.7855 -31.7315 -31.7257 -31.7207 -31.7070
   -31.6590 -31.6517 -31.6284 -31.6272 -31.6149 -31.5882 -31.5732 -31.5685
   -31.5560 -31.5549 -31.5337 -31.5294 -31.5223 -31.5126 -31.4837 -31.4747
   -31.4667 -31.4645 -31.4385 -31.4282 -31.4270 -31.4228 -31.4189 -31.4002
   -31.3993 -31.3938 -31.3867 -31.3841 -31.3501 -31.3366 -31.3298 -31.3128
   -31.2740 -31.2172 -30.8071 -30.7131 -30.6910 -30.6235 -30.5367 -30.4258
   -18.6180 -16.2501 -15.9815 -15.8392 -15.7148 -15.6154 -15.4908 -15.4691
   -15.3413 -15.2563 -15.1429 -15.0993 -15.0880 -15.0841 -15.0510 -15.0253
   -14.9596 -14.9550 -14.9375 -14.9110 -14.9004 -14.8573 -14.8541 -14.8127
   -14.7921 -14.7914 -14.6639 -14.5749 -14.5045 -14.1834 -13.7158 -12.9003
   -12.7829  -8.7396  -6.4982  -6.0553  -4.0190  -3.5909  -3.4348  -3.3823
    -3.3371  -3.3099  -3.2194  -3.1643  -3.0239  -2.8270  -2.7784  -2.6881
    -2.6259  -2.6173  -2.5983  -2.4173  -2.4102  -2.3539  -2.3033  -2.2615
    -2.2392  -2.2245  -2.2054  -2.1807  -2.1700  -2.1595  -1.9868  -1.9718
    -1.8995  -1.8260  -1.8159  -1.7655  -1.7446  -1.7133  -1.7059  -1.6978
    -1.6526  -1.6336  -1.6031  -1.5536  -1.4293  -1.3383  -1.3040  -1.2234
    -1.0923  -1.0535  -1.0014  -0.9983  -0.9057  -0.9016  -0.8806  -0.7955
    -0.7621  -0.7123  -0.6403  -0.5723  -0.5155  -0.4567  -0.4099  -0.3994
    -0.3449  -0.2279  -0.2016  -0.1827  -0.1612  -0.0407  -0.0219   0.0180
     0.0930   0.1234   0.1242   0.2406   0.2666   0.3248   0.3286   0.4053
     0.4665   0.5111   0.5199   0.5390   0.5682   0.5711   0.6447   0.6591
     0.6895   0.7589   0.8143   0.9173   1.1458   1.1832   1.1967   1.5296
     1.5317   1.6250   1.8087   2.2008   2.2489   3.6810   3.7509   3.8256
     3.8319   3.8499   3.9185   4.1551   4.1729   4.1813   4.1868   4.2293

[...]

          k = 0.0380-0.0419 0.0000 ( 17876 PWs)   bands (ev):

[...]

          k =-0.0760-0.0000 0.0000 ( 17886 PWs)   bands (ev):

[...]

          k =-0.0760-0.0839 0.0000 ( 17948 PWs)   bands (ev):

   -55.4034 -55.3959 -55.3529 -55.3527 -55.2888 -55.2881 -55.2818 -55.2783
   -55.2237 -55.2204 -55.2167 -55.1854 -55.1843 -55.0540 -54.3808 -54.3806
   -31.7935 -31.7880 -31.7482 -31.6942 -31.6805 -31.6774 -31.6773 -31.6443
   -31.6442 -31.6283 -31.6192 -31.6145 -31.6099 -31.5632 -31.5560 -31.5536
   -31.5516 -31.5494 -31.5440 -31.5387 -31.5239 -31.5120 -31.4943 -31.4938
   -31.4895 -31.4754 -31.4742 -31.4725 -31.4722 -31.4705 -31.4537 -31.4496
   -31.4450 -31.4335 -31.4301 -31.4156 -31.4141 -31.4107 -31.3658 -31.3654
   -31.2955 -31.2776 -30.7037 -30.7036 -30.6196 -30.6196 -30.5802 -30.5801
   -18.6156 -15.7129 -15.6791 -15.6218 -15.4414 -15.4138 -15.4072 -15.3880
   -15.2585 -15.2415 -15.2105 -15.1813 -15.1503 -15.1246 -15.1204 -15.1033
   -15.0326 -15.0217 -15.0136 -14.9961 -14.9306 -14.9266 -14.9178 -14.9130
   -14.8661 -14.8634 -14.7681 -14.7665 -14.6675 -14.5528 -13.7217 -12.8844
   -12.8844  -8.7209  -6.4719  -6.0707  -4.0274  -3.2856  -2.9453  -2.8786
    -2.8506  -2.6532  -2.6296  -2.5868  -2.5317  -2.4517  -2.4255  -2.4190
    -2.4101  -2.3395  -2.3275  -2.2779  -2.2687  -2.2495  -2.2341  -2.2238
    -2.1943  -2.1685  -2.1442  -2.1353  -2.1239  -2.0703  -2.0595  -2.0421
    -2.0119  -1.9919  -1.9831  -1.9659  -1.8670  -1.7825  -1.7536  -1.7255
    -1.6217  -1.6173  -1.5362  -1.5197  -1.4880  -1.4489  -1.4361  -1.4148
    -1.2343  -1.2021  -1.1730  -1.1598  -1.1515  -1.0129  -0.9984  -0.9429
    -0.9015  -0.8954  -0.7868  -0.7612  -0.7373  -0.6603  -0.6255  -0.5916
    -0.5379  -0.4344  -0.4173  -0.4064  -0.3732  -0.3691  -0.3132  -0.3011
    -0.2259  -0.1837  -0.1509  -0.1369  -0.0943   0.0934   0.1170   0.1317
     0.2753   0.3297   0.4238   0.5236   0.5341   0.5896   0.6281   0.6952
     0.7561   0.8068   0.8659   0.8906   0.8926   0.9711   0.9888   1.0424
     1.0443   1.9819   1.9825   2.0688   2.0692   3.8233   3.9322   3.9434
     3.9839   4.0690   4.1244   4.1972   4.2255   4.2650   4.2673   4.3362

     the Fermi energy is     3.7429 ev

!    total energy              =   -2940.36648265 Ry
     estimated scf accuracy    <       0.00000003 Ry
     smearing contrib. (-TS)   =      -0.03726754 Ry
     internal energy E=F+TS    =   -2940.32921511 Ry

     The total energy is F=E-TS. E is the sum of the following terms:
     one-electron contribution =  -23760.93450983 Ry
     hartree contribution      =   11971.80301882 Ry
     xc contribution           =    -486.12073621 Ry
     ewald contribution        =    9334.91999820 Ry
     electric field correction =       0.00301392 Ry

     convergence has been achieved in  70 iterations

     Forces acting on atoms (cartesian axes, Ry/au):

     atom    1 type  1   force =     0.00006229   -0.00014117    0.09327147
     atom    2 type  1   force =    -0.00005377   -0.00026132   -0.17805748
     atom    3 type  2   force =     0.00002100   -0.00015762   -0.02025816
     atom    4 type  2   force =     0.00000979   -0.00195473    0.05850697
     atom    5 type  2   force =    -0.01066418   -0.00126988    0.00870709
     atom    6 type  2   force =     0.01175970   -0.00061715    0.00682930
     atom    7 type  1   force =    -0.00091648    0.00297581   -0.01442927
     atom    8 type  1   force =     0.00064259   -0.00052592   -0.00370449
     atom    9 type  2   force =     0.00014411    0.00010779    0.00009677
     atom   10 type  2   force =    -0.00209694   -0.00121885    0.00065326
     atom   11 type  2   force =     0.00007436    0.00021388   -0.00011928
     atom   12 type  2   force =     0.00057705    0.00028523   -0.00006706
     atom   13 type  1   force =    -0.00014498    0.00029031    0.00006410
     atom   14 type  1   force =     0.00013720    0.00046421   -0.00041199
     atom   15 type  2   force =     0.00001094    0.00037778   -0.00002150
     atom   16 type  2   force =     0.00041858    0.00016815   -0.00031673
     atom   17 type  2   force =     0.00026687   -0.00036445   -0.00036118
     atom   18 type  2   force =     0.00012731   -0.00053836    0.00006208
     atom   19 type  1   force =    -0.00087344   -0.00013071    0.00011775
     atom   20 type  1   force =     0.00005196   -0.00004590   -0.00047934
     atom   21 type  2   force =     0.00009734    0.00000447    0.10392754
     atom   22 type  2   force =    -0.00018258    0.00013245    0.00024967
     atom   23 type  2   force =    -0.07041108   -0.00012762   -0.02690547
     atom   24 type  2   force =     0.07034531    0.00032878   -0.02694150
     atom   25 type  1   force =     0.00008660   -0.00022531    0.09281481
     atom   26 type  1   force =    -0.00005055   -0.00033593   -0.17805572
     atom   27 type  2   force =     0.00010972   -0.00036533   -0.01930570
     atom   28 type  2   force =     0.00004142   -0.00165534    0.05793090
     atom   29 type  2   force =    -0.01064745   -0.00128166    0.00803517
     atom   30 type  2   force =     0.01165281   -0.00088935    0.00609321
     atom   31 type  1   force =    -0.00090331    0.00491122   -0.01542095
     atom   32 type  1   force =     0.00083742    0.00022185   -0.00391556
     atom   33 type  2   force =     0.00010287    0.00046069    0.00022428
     atom   34 type  2   force =    -0.00177337    0.00109690    0.00069071
     atom   35 type  2   force =     0.00031068    0.00006928    0.00008010
     atom   36 type  2   force =     0.00027086   -0.00024562    0.00019273
     atom   37 type  1   force =    -0.00035849    0.00001805   -0.00012400
     atom   38 type  1   force =    -0.00023550    0.00050074   -0.00017201
     atom   39 type  2   force =     0.00050957   -0.00073763   -0.00001580
     atom   40 type  2   force =    -0.00015653    0.00007426   -0.00001361
     atom   41 type  2   force =     0.00013022   -0.00010222   -0.00012643
     atom   42 type  2   force =     0.00010596    0.00008165    0.00004991
     atom   43 type  1   force =    -0.00021164   -0.00006948    0.00007287
     atom   44 type  1   force =     0.00008918    0.00009759   -0.00030124
     atom   45 type  2   force =     0.00010622   -0.00003526    0.10389158
     atom   46 type  2   force =    -0.07042778   -0.00004979   -0.02690229
     atom   47 type  2   force =     0.07037783    0.00037471   -0.02690993
     atom   48 type  3   force =    -0.00964766    0.00070234   -0.01087485
     atom   49 type  4   force =     0.00591626    0.00502122    0.02344302
     atom   50 type  5   force =     0.00093015   -0.00344264   -0.00939209
     atom   51 type  5   force =     0.00264784   -0.00227451   -0.00388793
     atom   52 type  3   force =     0.00084775    0.00044038    0.00070746
     atom   53 type  5   force =     0.00003391   -0.00027993    0.00113164
     atom   54 type  5   force =    -0.00009794   -0.00007607   -0.00035284

     Total force =     0.367169     Total SCF correction =     0.000340
  @ DRIVER MODE: Message from server: STATUS
  @ DRIVER MODE: Message from server: GETFORCE
  @ DRIVER MODE: Returning v,forces,stress,ensemble

     Writing output data file ./calc.save/
  @ DRIVER MODE: Message from server: EXIT
  @ DRIVE MODE: Exiting

     General routines

     Parallel routines

   This run was terminated on:   1:24:43  24Aug2021

   JOB DONE.