     Program PWSCF v.6.7GPU starts on 24Sep2021 at  4:53:51

     R & G space division:  proc/nbgrp/npool/nimage =       8
     Reading input from /storage/home/hcoda1/3/ntian30/research/carbon/CxH_vib/H2O_calc/ads_slab/CH3NHHO_a/out_0048/pw.inp
Warning: card &CELL ignored
Warning: card   CELL_DYNAMICS='IPI', ignored
Warning: card / ignored

     Current dimensions of program PWSCF are:
     Max number of different atomic species (ntypx) = 10
     Max number of k-points (npk) =  40000
     Max angular momentum in pseudopotentials (lmaxx) =  3
     Presently no symmetry can be used with electric field

     Message from routine cell_base_init:
     DEPRECATED: use true lattice parameter, not A to a.u. conversion factor

     IMPORTANT: XC functional enforced from input :
     Exchange-correlation= BEEF-VDW
                           (   1   4  43  14   2   0   0)
     Any further DFT definition will be discarded
     Please, verify this is what you really want

  @ DRIVER MODE: Connecting to
 qe_1139763_2947309.sched-torque.pace.gatech.eduu332z1ii_scratch
  using UNIX socket
  @ DRIVER MODE: Message from server: STATUS
  @ DRIVER MODE: Message from server: INIT
  @ DRIVER MODE: Receiving replica           0          -1
  @ DRIVER MODE: Receiving encoded integer          25
  @ DRIVER MODE:  SCF:  T  FORCE:  T  STRESS:  F  VC:  F  ENSEMBLE:  F
  @ DRIVER MODE:  SCF:  T  FORCE:  T  STRESS:  F  VC:  F  ENSEMBLE:  F

     Using Slab Decomposition

     bravais-lattice index     =            0
     lattice parameter (alat)  =       1.8897  a.u.
     unit-cell volume          =    6658.9804 (a.u.)^3
     number of atoms/cell      =           55
     number of atomic types    =            5
     number of electrons       =       398.00
     number of Kohn-Sham states=          209
     kinetic-energy cutoff     =      29.3995  Ry
     charge density cutoff     =     293.9946  Ry
     scf convergence threshold =      7.3E-08
     mixing beta               =       0.0500
     number of iterations used =            8  plain     mixing
     Exchange-correlation= BEEF-VDW
                           (   1   4  43  14   2   0   0)

     celldm(1)=   1.889726  celldm(2)=   0.000000  celldm(3)=   0.000000
     celldm(4)=   0.000000  celldm(5)=   0.000000  celldm(6)=   0.000000

     crystal axes: (cart. coord. in units of alat)
               a(1) = (   6.579727   0.000000   0.000000 )
               a(2) = (  -0.000775   5.961596   0.000000 )
               a(3) = (   0.000000   0.000000  25.155947 )

     reciprocal axes: (cart. coord. in units 2 pi/alat)
               b(1) = (  0.151982  0.000020  0.000000 )
               b(2) = (  0.000000  0.167740  0.000000 )
               b(3) = (  0.000000  0.000000  0.039752 )

     PseudoPot. # 1 for Ti read from file:
     /storage/coda1/p-amedford6/0/shared/rich_project_chbe-medford/medford-share/data/pseudos_module/espresso/nninc/pbe/van/Ti.UPF
     MD5 check sum: 8e4df49b7f0d34bbd5052bf3f5ea0213
     Pseudo is Ultrasoft, Zval = 12.0
     Generated by new atomic code, or converted to UPF format
     Using radial grid of  851 points,  6 beta functions with:
                l(1) =   0
                l(2) =   0
                l(3) =   1
                l(4) =   1
                l(5) =   2
                l(6) =   2
     Q(r) pseudized with  8 coefficients,  rinner =    1.000   1.000   1.000
                                                       1.000   1.000

     PseudoPot. # 2 for O  read from file:
     /storage/coda1/p-amedford6/0/shared/rich_project_chbe-medford/medford-share/data/pseudos_module/espresso/nninc/pbe/van/O.UPF
     MD5 check sum: 78c19812648e8988a0fe644b0f25305e
     Pseudo is Ultrasoft, Zval =  6.0
     Generated by new atomic code, or converted to UPF format
     Using radial grid of  737 points,  4 beta functions with:
                l(1) =   0
                l(2) =   0
                l(3) =   1
                l(4) =   1
     Q(r) pseudized with  8 coefficients,  rinner =    0.800   0.800   0.800

     PseudoPot. # 3 for H  read from file:
     /storage/coda1/p-amedford6/0/shared/rich_project_chbe-medford/medford-share/data/pseudos_module/espresso/nninc/pbe/van/H.UPF
     MD5 check sum: b5ee9d7bfd3a09ee7748110bda690ff7
     Pseudo is Ultrasoft, Zval =  1.0
     Generated by new atomic code, or converted to UPF format
     Using radial grid of  615 points,  1 beta functions with:
                l(1) =   0
     Q(r) pseudized with  8 coefficients,  rinner =    0.800

     PseudoPot. # 4 for N  read from file:
     /storage/coda1/p-amedford6/0/shared/rich_project_chbe-medford/medford-share/data/pseudos_module/espresso/nninc/pbe/van/N.UPF
     MD5 check sum: 90d10febe142ad51ac9d5be1deb811c4
     Pseudo is Ultrasoft, Zval =  5.0
     Generated by new atomic code, or converted to UPF format
     Using radial grid of  729 points,  4 beta functions with:
                l(1) =   0
                l(2) =   0
                l(3) =   1
                l(4) =   1
     Q(r) pseudized with  8 coefficients,  rinner =    0.800   0.800   0.800

     PseudoPot. # 5 for C  read from file:
     /storage/coda1/p-amedford6/0/shared/rich_project_chbe-medford/medford-share/data/pseudos_module/espresso/nninc/pbe/van/C.UPF
     MD5 check sum: 1a69bf6b8db32088f5b2163dbdb77a27
     Pseudo is Ultrasoft, Zval =  4.0
     Generated by new atomic code, or converted to UPF format
     Using radial grid of  721 points,  4 beta functions with:
                l(1) =   0
                l(2) =   0
                l(3) =   1
                l(4) =   1
     Q(r) pseudized with  8 coefficients,  rinner =    0.800   0.800   0.800

     atomic species   valence    mass     pseudopotential
        Ti1           12.00    47.86700     Ti( 1.00)
        O1             6.00    15.99900     O ( 1.00)
        H1             1.00     1.00800     H ( 1.00)
        N1             5.00    14.00700     N ( 1.00)
        C1             4.00    12.01100     C ( 1.00)

     No symmetry found

   Cartesian axes

     site n.     atom                  positions (alat units)
         1           Ti1 tau(   1) = (   0.0004258   2.9801865   6.0000000  )
         2           Ti1 tau(   2) = (   3.2906075   1.4906267   6.0002472  )
         3           O1  tau(   3) = (   0.0006271   0.0005054   7.9858123  )
         4           O1  tau(   4) = (   3.2906025   0.0005020   7.3038282  )
         5           O1  tau(   5) = (   4.5942328   1.4918067   9.2879030  )
         6           O1  tau(   6) = (   1.9868534   1.4903216   9.2879459  )
         7           Ti1 tau(   7) = (   3.2907910   2.8959150   9.1758416  )
         8           Ti1 tau(   8) = (   0.0015273   1.4827037   9.2680791  )
         9           O1  tau(   9) = (   3.2831040   5.9360571  11.2641146  )
        10           O1  tau(  10) = (   0.0116148   5.9584955  10.6183126  )
        11           O1  tau(  11) = (   1.2851963   1.4867209  12.6255510  )
        12           O1  tau(  12) = (   5.2924406   1.4772461  12.6192171  )
        13           Ti1 tau(  13) = (   0.0036382   2.8404764  12.7021481  )
        14           Ti1 tau(  14) = (   3.2814461   1.2926050  12.6442039  )
        15           O1  tau(  15) = (   6.5789252   5.9354829  14.6389027  )
        16           O1  tau(  16) = (   3.2852549   0.0163589  13.8648689  )
        17           O1  tau(  17) = (   4.5445832   1.5164849  16.0197972  )
        18           O1  tau(  18) = (   2.0258823   1.4930055  16.0750729  )
        19           Ti1 tau(  19) = (   3.3156224   2.9699746  15.6194889  )
        20           Ti1 tau(  20) = (   0.0515760   1.3234122  16.0730098  )
        21           O1  tau(  21) = (   3.2904802   0.0005063   4.7018136  )
        22           O1  tau(  22) = (   6.5454194   5.9222349  17.1870725  )
        23           O1  tau(  23) = (   1.3043587   1.4918075   6.0039043  )
        24           O1  tau(  24) = (   5.2767064   1.4903225   6.0039473  )
        25           Ti1 tau(  25) = (   0.0000382   5.9609847   6.0000000  )
        26           Ti1 tau(  26) = (   3.2902200   4.4714249   6.0002472  )
        27           O1  tau(  27) = (   0.0002396   2.9813036   7.9858123  )
        28           O1  tau(  28) = (   3.2902150   2.9813002   7.3038282  )
        29           O1  tau(  29) = (   4.5938453   4.4726049   9.2879030  )
        30           O1  tau(  30) = (   1.9864658   4.4711199   9.2879459  )
        31           Ti1 tau(  31) = (   3.2891106   5.8743827   9.1763621  )
        32           Ti1 tau(  32) = (   0.0006254   4.4649316   9.2693709  )
        33           O1  tau(  33) = (   3.2861177   3.0127509  11.2320142  )
        34           O1  tau(  34) = (   0.0092240   2.9805883  10.6323155  )
        35           O1  tau(  35) = (   1.2872320   4.4646868  12.6147789  )
        36           O1  tau(  36) = (   5.2799320   4.4658550  12.6114028  )
        37           Ti1 tau(  37) = (   6.5510365   5.8261734  12.6423015  )
        38           Ti1 tau(  38) = (   3.2652589   4.3917841  12.4002916  )
        39           O1  tau(  39) = (   0.0003569   2.9920414  14.6539809  )
        40           O1  tau(  40) = (   3.2835110   2.9651371  13.8409569  )
        41           O1  tau(  41) = (   4.5245492   4.4030193  16.0142317  )
        42           O1  tau(  42) = (   2.0132503   4.4096711  16.0494848  )
        43           Ti1 tau(  43) = (   3.3389516   5.9588577  16.2858146  )
        44           Ti1 tau(  44) = (   0.0865397   4.4271626  15.8895714  )
        45           O1  tau(  45) = (   3.2900926   2.9813045   4.7018136  )
        46           O1  tau(  46) = (   1.3039711   4.4726057   6.0039043  )
        47           O1  tau(  47) = (   5.2763189   4.4711207   6.0039473  )
        48           H1  tau(  48) = (   5.5649379   3.0085428  17.7754687  )
        49           N1  tau(  49) = (   6.5266086   2.9804045  17.4451690  )
        50           C1  tau(  50) = (   0.8252436   3.0135910  18.6253707  )
        51           H1  tau(  51) = (   0.7415300   3.9712607  19.1474969  )
        52           H1  tau(  52) = (   0.5789590   2.2014881  19.3161603  )
        53           H1  tau(  53) = (   1.8636945   2.8847911  18.3311598  )
        54           O1  tau(  54) = (   3.4430348   5.9447220  18.1074838  )
        55           H1  tau(  55) = (   4.3135669   5.8364121  18.5344127  )

     number of k points=    10  Fermi-Dirac smearing, width (Ry)=  0.0073
                       cart. coord. in units 2pi/alat
        k(    1) = (   0.0000000   0.0000000   0.0000000), wk =   0.1250000
        k(    2) = (   0.0000000   0.0419351   0.0000000), wk =   0.2500000
        k(    3) = (   0.0000000  -0.0838702   0.0000000), wk =   0.1250000
        k(    4) = (   0.0379955   0.0000049   0.0000000), wk =   0.2500000
        k(    5) = (   0.0379955   0.0419400   0.0000000), wk =   0.2500000
        k(    6) = (   0.0379955  -0.0838652   0.0000000), wk =   0.2500000
        k(    7) = (   0.0379955  -0.0419301   0.0000000), wk =   0.2500000
        k(    8) = (  -0.0759910  -0.0000099   0.0000000), wk =   0.1250000
        k(    9) = (  -0.0759910   0.0419252   0.0000000), wk =   0.2500000
        k(   10) = (  -0.0759910  -0.0838800   0.0000000), wk =   0.1250000

     Initial potential from superposition of free atoms

     starting charge  381.99915, renormalised to  398.00000

     negative rho (up, down):  1.687E-02 0.000E+00

     %%%%%%%%%%%%%%%%%%%%%%%%%%%%%%%%%%%%%%%%%%%%%%%%%%%%%%%%%%%%%%%%%%%%%%%%
     %                                                                      %
     % You are using vdW-DF, which was implemented by the Thonhauser group. %
     % Please cite the following two papers that made this development      %
     % possible and the two reviews that describe the various versions:     %
     %                                                                      %
     %   T. Thonhauser et al., PRL 115, 136402 (2015).                      %
     %   T. Thonhauser et al., PRB 76, 125112 (2007).                       %
     %   K. Berland et al., Rep. Prog. Phys. 78, 066501 (2015).             %
     %   D.C. Langreth et al., J. Phys.: Condens. Matter 21, 084203 (2009). %
     %                                                                      %
     %                                                                      %
     % If you are calculating the stress with vdW-DF, please also cite:     %
     %                                                                      %
     %   R. Sabatini et al., J. Phys.: Condens. Matter 24, 424209 (2012).   %
     %                                                                      %
     %%%%%%%%%%%%%%%%%%%%%%%%%%%%%%%%%%%%%%%%%%%%%%%%%%%%%%%%%%%%%%%%%%%%%%%%

     Adding external electric field

     Computed dipole along edir(3) :
        Dipole               -8.7637 Ry au,        -22.2752 Debye
        Dipole field         -0.0165 Ry au,

        Potential amp.        1.5331 Ry
        Total length         46.3494 bohr

     Starting wfcs are  301 atomic wfcs
  @ DRIVER MODE: Message from server: STATUS
  @ DRIVER MODE: Message from server: POSDATA
  @ DRIVER MODE: Reading and sharing cell
  @ DRIVER MODE: Reading and sharing positions
  @ DRIVER MODE: Received positions

     Self-consistent Calculation

     iteration #  1     ecut=    29.40 Ry     beta= 0.05
     Davidson diagonalization with overlap
     c_bands:  1 eigenvalues not converged
     c_bands:  1 eigenvalues not converged
     c_bands:  1 eigenvalues not converged
     c_bands:  2 eigenvalues not converged
     ethr =  1.00E-05,  avg # of iterations = 18.0

[...]

     total energy              =   -2565.53283871 Ry
     estimated scf accuracy    <    4291.77014551 Ry

     iteration #  2     ecut=    29.40 Ry     beta= 0.05
     Davidson diagonalization with overlap
     ethr =  1.00E-02,  avg # of iterations = 22.2

[...]

     iteration # 32     ecut=    29.40 Ry     beta= 0.05
     Davidson diagonalization with overlap
     c_bands:  1 eigenvalues not converged
     ethr =  4.06E-06,  avg # of iterations = 13.6

[...]

     total energy              =   -2954.01284120 Ry
     estimated scf accuracy    <       0.00000008 Ry

     iteration # 66     ecut=    29.40 Ry     beta= 0.05
     Davidson diagonalization with overlap
     ethr =  1.91E-11,  avg # of iterations =  4.8

     negative rho (up, down):  1.730E-02 0.000E+00

     Adding external electric field

     Computed dipole along edir(3) :
        Dipole                0.2206 Ry au,          0.5607 Debye
        Dipole field          0.0004 Ry au,

        Potential amp.       -0.0386 Ry
        Total length         46.3494 bohr

     End of self-consistent calculation

          k = 0.0000 0.0000 0.0000 ( 18029 PWs)   bands (ev):

   -56.9270 -56.8935 -56.0260 -55.9911 -55.7908 -55.7228 -55.6356 -55.4785
   -55.4447 -55.4046 -55.3917 -55.3265 -55.3213 -55.2756 -55.1307 -55.0525
   -33.3462 -33.1989 -33.1709 -33.1056 -33.0154 -32.9732 -32.5088 -32.2665
   -32.2467 -32.2207 -32.1683 -32.1634 -32.1378 -32.0265 -32.0066 -31.9595
   -31.9424 -31.9274 -31.9107 -31.8880 -31.8857 -31.8636 -31.8576 -31.8259
   -31.8257 -31.8012 -31.7560 -31.7150 -31.6829 -31.6748 -31.6154 -31.6052
   -31.6024 -31.5855 -31.5738 -31.5445 -31.5237 -31.5184 -31.5052 -31.4982
   -31.4907 -31.4391 -31.3963 -31.3729 -31.3343 -31.3079 -31.3017 -31.2352
   -17.0334 -16.4875 -16.4166 -16.2449 -16.1418 -16.1224 -16.0849 -16.0347
   -15.8359 -15.7850 -15.7483 -15.6824 -15.5848 -15.4286 -15.3316 -15.1580
   -15.1087 -15.0770 -15.0594 -15.0537 -15.0470 -15.0344 -14.9799 -14.9240
   -14.8835 -14.8005 -14.7455 -14.6355 -14.4098 -14.3791 -13.9760 -13.8690
   -13.8074  -8.4911  -4.6072  -4.1000  -3.9678  -3.9370  -3.7776  -3.6244
    -3.4995  -3.4468  -3.4209  -3.3124  -3.2958  -3.2862  -3.1966  -3.0676
    -2.9970  -2.9855  -2.9183  -2.9010  -2.8724  -2.8582  -2.6940  -2.6617
    -2.5676  -2.5152  -2.4939  -2.4130  -2.4036  -2.3440  -2.2937  -2.2821
    -2.2594  -2.2007  -2.1970  -2.1259  -2.0995  -2.0224  -1.9977  -1.9662
    -1.9428  -1.8717  -1.7959  -1.7613  -1.6061  -1.5699  -1.5372  -1.5018
    -1.4854  -1.4047  -1.3340  -1.2517  -1.2180  -1.1509  -1.1021  -1.0621
    -1.0492  -0.9343  -0.9092  -0.8524  -0.7884  -0.7723  -0.7655  -0.7190
    -0.6056  -0.5260  -0.5160  -0.4944  -0.4327  -0.4127  -0.3752  -0.3507
    -0.2724  -0.2576  -0.1486  -0.0764  -0.0451  -0.0182   0.0807   0.1598
     0.1810   0.2235   0.2655   0.3089   0.3378   0.3817   0.4495   0.4974
     0.5205   0.5429   0.5724   0.6682   0.7191   0.7554   0.8119   0.8267
     0.8920   0.9623   0.9901   1.0780   1.1223   1.4884   1.6389   2.3663
     2.5369   2.8130   2.9864   3.3021   3.3521   3.3679   3.3695   3.6558
     3.7794

[...]

          k = 0.0380-0.0419 0.0000 ( 17876 PWs)   bands (ev):

[...]

          k =-0.0760-0.0000 0.0000 ( 17886 PWs)   bands (ev):

[...]

          k =-0.0760-0.0839 0.0000 ( 17948 PWs)   bands (ev):

   -56.9109 -56.9095 -56.0132 -56.0037 -55.7862 -55.7273 -55.6348 -55.4621
   -55.4610 -55.4005 -55.3923 -55.3302 -55.3200 -55.2744 -55.1321 -55.0536
   -33.1853 -33.1840 -33.1641 -33.1627 -33.0596 -33.0585 -32.3329 -32.3247
   -32.2082 -32.1985 -32.1975 -32.1917 -32.0897 -32.0440 -32.0197 -32.0054
   -31.9543 -31.9534 -31.9075 -31.8750 -31.8628 -31.8147 -31.8139 -31.7707
   -31.7324 -31.7003 -31.6821 -31.6805 -31.6757 -31.6720 -31.6433 -31.6423
   -31.6310 -31.6269 -31.6052 -31.5949 -31.5723 -31.5635 -31.5321 -31.5219
   -31.5134 -31.4816 -31.4346 -31.3979 -31.3712 -31.3388 -31.3099 -31.2628
   -16.4019 -16.3941 -16.3921 -16.3450 -16.3433 -16.0886 -16.0839 -15.8381
   -15.8061 -15.6846 -15.5318 -15.5025 -15.4652 -15.4155 -15.3691 -15.2989
   -15.2807 -15.2396 -15.2060 -15.1505 -15.1250 -15.0472 -15.0132 -14.9541
   -14.9180 -14.8293 -14.7824 -14.7765 -14.5551 -14.5400 -13.9736 -13.9730
   -13.8243  -8.4960  -4.0654  -3.9914  -3.4672  -3.4621  -3.4410  -3.4318
    -3.2174  -3.2118  -3.0440  -3.0010  -2.9816  -2.9405  -2.9244  -2.8393
    -2.8184  -2.7894  -2.7480  -2.7431  -2.7346  -2.7165  -2.6693  -2.6608
    -2.6202  -2.4830  -2.4686  -2.4490  -2.3900  -2.3263  -2.2953  -2.2438
    -2.2165  -2.2030  -2.1762  -2.1682  -2.1632  -2.1340  -2.1062  -1.9498
    -1.9083  -1.8067  -1.7740  -1.7491  -1.7278  -1.6733  -1.6697  -1.6398
    -1.6169  -1.5850  -1.5246  -1.4912  -1.4495  -1.3250  -1.3034  -1.2637
    -1.2463  -1.1875  -1.0900  -1.0012  -0.9887  -0.9456  -0.9266  -0.8802
    -0.8662  -0.8370  -0.7574  -0.6995  -0.5933  -0.5633  -0.5511  -0.5278
    -0.4984  -0.4561  -0.4083  -0.3405  -0.3251  -0.2060  -0.1372  -0.0910
    -0.0252   0.0409   0.0813   0.1213   0.1743   0.2701   0.2884   0.3630
     0.3777   0.4975   0.6058   0.6239   0.7773   0.8093   0.8778   0.9181
     0.9229   0.9335   0.9511   0.9625   1.0153   1.0916   1.5884   2.9579
     2.9608   3.0180   3.0239   3.3337   3.3347   3.4447   3.4465   3.7620
     3.7719

     the Fermi energy is     2.0664 ev

!    total energy              =   -2954.01286718 Ry
     estimated scf accuracy    <       0.00000007 Ry
     smearing contrib. (-TS)   =      -0.00173199 Ry
     internal energy E=F+TS    =   -2954.01113520 Ry

     The total energy is F=E-TS. E is the sum of the following terms:
     one-electron contribution =  -24213.52528854 Ry
     hartree contribution      =   12196.87980446 Ry
     xc contribution           =    -488.74489700 Ry
     ewald contribution        =    9551.37915406 Ry
     electric field correction =       0.00009182 Ry

     convergence has been achieved in  66 iterations

     Forces acting on atoms (cartesian axes, Ry/au):

     atom    1 type  1   force =     0.00017580   -0.00052608    0.12567306
     atom    2 type  1   force =     0.00000720    0.00026813   -0.15442353
     atom    3 type  2   force =     0.00002185   -0.00022364   -0.06672037
     atom    4 type  2   force =    -0.00002067    0.00008525    0.01672522
     atom    5 type  2   force =    -0.00391365   -0.00229196   -0.01290920
     atom    6 type  2   force =     0.00530825   -0.00149655   -0.01431850
     atom    7 type  1   force =    -0.00049435   -0.00698261    0.05721878
     atom    8 type  1   force =     0.00071473    0.00723096    0.09829155
     atom    9 type  2   force =     0.00002743    0.00009044   -0.00009115
     atom   10 type  2   force =    -0.00290281    0.00059228   -0.06192758
     atom   11 type  2   force =    -0.00001895   -0.00006362   -0.00002056
     atom   12 type  2   force =    -0.00006716    0.00015510    0.00015239
     atom   13 type  1   force =     0.00010235    0.00017104   -0.00008569
     atom   14 type  1   force =     0.00000906   -0.00003374    0.00009405
     atom   15 type  2   force =    -0.00002599    0.00004073   -0.00003406
     atom   16 type  2   force =     0.00006205    0.00013517   -0.00009111
     atom   17 type  2   force =    -0.00001111    0.00014828    0.00014898
     atom   18 type  2   force =    -0.00003967    0.00030430   -0.00003458
     atom   19 type  1   force =    -0.00006618    0.00001092    0.00013938
     atom   20 type  1   force =     0.00020204    0.00013018    0.00018114
     atom   21 type  2   force =     0.00006902    0.00021796    0.09781080
     atom   22 type  2   force =     0.00046374   -0.00000668    0.00000726
     atom   23 type  2   force =    -0.08273733    0.00009152   -0.03301988
     atom   24 type  2   force =     0.08269452    0.00050742   -0.03306786
     atom   25 type  1   force =     0.00010186   -0.00059855    0.12551747
     atom   26 type  1   force =     0.00000367   -0.00169761   -0.15483419
     atom   27 type  2   force =     0.00008768   -0.00076821   -0.06515538
     atom   28 type  2   force =     0.00004936    0.00188454    0.01157683
     atom   29 type  2   force =    -0.00251635    0.00468123   -0.01585199
     atom   30 type  2   force =     0.00368505    0.00501798   -0.01728055
     atom   31 type  1   force =    -0.00029333    0.00180710    0.04010226
     atom   32 type  1   force =     0.00091159   -0.01042205    0.09795272
     atom   33 type  2   force =    -0.00004391   -0.00003241    0.00010241
     atom   34 type  2   force =    -0.00230217    0.00078107   -0.07401761
     atom   35 type  2   force =     0.00010929    0.00002585    0.00001854
     atom   36 type  2   force =    -0.00009282   -0.00007932   -0.00003754
     atom   37 type  1   force =     0.00035135    0.00006425    0.00011212
     atom   38 type  1   force =     0.00012099   -0.00008601   -0.00028402
     atom   39 type  2   force =     0.00016713   -0.00011342   -0.00009442
     atom   40 type  2   force =     0.00001500    0.00004569   -0.00018285
     atom   41 type  2   force =    -0.00001148    0.00010591    0.00004378
     atom   42 type  2   force =    -0.00003312    0.00001330    0.00011554
     atom   43 type  1   force =     0.00060826   -0.00023395    0.00045155
     atom   44 type  1   force =     0.00026084    0.00019755    0.00023381
     atom   45 type  2   force =     0.00004330    0.00004665    0.09759233
     atom   46 type  2   force =    -0.08279876    0.00005003   -0.03303765
     atom   47 type  2   force =     0.08272431    0.00048297   -0.03305388
     atom   48 type  3   force =    -0.00018891    0.00004828    0.00006797
     atom   49 type  4   force =     0.00011624    0.00013021    0.00010520
     atom   50 type  5   force =    -0.00019610   -0.00063768    0.00020097
     atom   51 type  3   force =    -0.00009412    0.00009594    0.00021464
     atom   52 type  3   force =    -0.00017539    0.00049605    0.00005066
     atom   53 type  3   force =     0.00022409    0.00028600    0.00011688
     atom   54 type  2   force =     0.00742996   -0.00150282    0.00478143
     atom   55 type  3   force =    -0.00782369    0.00135666   -0.00522560

     Total force =     0.417401     Total SCF correction =     0.000713
  @ DRIVER MODE: Message from server: STATUS
  @ DRIVER MODE: Message from server: GETFORCE
  @ DRIVER MODE: Returning v,forces,stress,ensemble

     Writing output data file ./calc.save/
  @ DRIVER MODE: Message from server: EXIT
  @ DRIVE MODE: Exiting

     General routines

     Parallel routines

   This run was terminated on:   5:15:22  24Sep2021

   JOB DONE.