     Program PWSCF v.6.7GPU starts on 23Aug2021 at 21: 2:31

     R & G space division:  proc/nbgrp/npool/nimage =       6
     Reading input from /storage/home/hcoda1/3/ntian30/research/carbon/CH2_vib/ads_slab/CH2NNHH_a/out_0004/pw.inp
Warning: card &CELL ignored
Warning: card   CELL_DYNAMICS='IPI', ignored
Warning: card / ignored

     Current dimensions of program PWSCF are:
     Max number of different atomic species (ntypx) = 10
     Max number of k-points (npk) =  40000
     Max angular momentum in pseudopotentials (lmaxx) =  3
     Presently no symmetry can be used with electric field

     Message from routine cell_base_init:
     DEPRECATED: use true lattice parameter, not A to a.u. conversion factor

     IMPORTANT: XC functional enforced from input :
     Exchange-correlation= BEEF-VDW
                           (   1   4  43  14   2   0   0)
     Any further DFT definition will be discarded
     Please, verify this is what you really want

  @ DRIVER MODE: Connecting to
 qe_1139763_2632807.sched-torque.pace.gatech.edu80gnk65j_scratch
  using UNIX socket
  @ DRIVER MODE: Message from server: STATUS
  @ DRIVER MODE: Message from server: INIT
  @ DRIVER MODE: Receiving replica           0          -1
  @ DRIVER MODE: Receiving encoded integer          25
  @ DRIVER MODE:  SCF:  T  FORCE:  T  STRESS:  F  VC:  F  ENSEMBLE:  F
  @ DRIVER MODE:  SCF:  T  FORCE:  T  STRESS:  F  VC:  F  ENSEMBLE:  F

     Using Slab Decomposition

     bravais-lattice index     =            0
     lattice parameter (alat)  =       1.8897  a.u.
     unit-cell volume          =    6658.9804 (a.u.)^3
     number of atoms/cell      =           54
     number of atomic types    =            5
     number of electrons       =       396.00
     number of Kohn-Sham states=          208
     kinetic-energy cutoff     =      29.3995  Ry
     charge density cutoff     =     293.9946  Ry
     scf convergence threshold =      7.3E-08
     mixing beta               =       0.0500
     number of iterations used =            8  plain     mixing
     Exchange-correlation= BEEF-VDW
                           (   1   4  43  14   2   0   0)

     celldm(1)=   1.889726  celldm(2)=   0.000000  celldm(3)=   0.000000
     celldm(4)=   0.000000  celldm(5)=   0.000000  celldm(6)=   0.000000

     crystal axes: (cart. coord. in units of alat)
               a(1) = (   6.579727   0.000000   0.000000 )
               a(2) = (  -0.000775   5.961596   0.000000 )
               a(3) = (   0.000000   0.000000  25.155947 )

     reciprocal axes: (cart. coord. in units 2 pi/alat)
               b(1) = (  0.151982  0.000020  0.000000 )
               b(2) = (  0.000000  0.167740  0.000000 )
               b(3) = (  0.000000  0.000000  0.039752 )

     PseudoPot. # 1 for Ti read from file:
     /storage/coda1/p-amedford6/0/shared/rich_project_chbe-medford/medford-share/data/pseudos_module/espresso/nninc/pbe/van/Ti.UPF
     MD5 check sum: 8e4df49b7f0d34bbd5052bf3f5ea0213
     Pseudo is Ultrasoft, Zval = 12.0
     Generated by new atomic code, or converted to UPF format
     Using radial grid of  851 points,  6 beta functions with:
                l(1) =   0
                l(2) =   0
                l(3) =   1
                l(4) =   1
                l(5) =   2
                l(6) =   2
     Q(r) pseudized with  8 coefficients,  rinner =    1.000   1.000   1.000
                                                       1.000   1.000

     PseudoPot. # 2 for O  read from file:
     /storage/coda1/p-amedford6/0/shared/rich_project_chbe-medford/medford-share/data/pseudos_module/espresso/nninc/pbe/van/O.UPF
     MD5 check sum: 78c19812648e8988a0fe644b0f25305e
     Pseudo is Ultrasoft, Zval =  6.0
     Generated by new atomic code, or converted to UPF format
     Using radial grid of  737 points,  4 beta functions with:
                l(1) =   0
                l(2) =   0
                l(3) =   1
                l(4) =   1
     Q(r) pseudized with  8 coefficients,  rinner =    0.800   0.800   0.800

     PseudoPot. # 3 for N  read from file:
     /storage/coda1/p-amedford6/0/shared/rich_project_chbe-medford/medford-share/data/pseudos_module/espresso/nninc/pbe/van/N.UPF
     MD5 check sum: 90d10febe142ad51ac9d5be1deb811c4
     Pseudo is Ultrasoft, Zval =  5.0
     Generated by new atomic code, or converted to UPF format
     Using radial grid of  729 points,  4 beta functions with:
                l(1) =   0
                l(2) =   0
                l(3) =   1
                l(4) =   1
     Q(r) pseudized with  8 coefficients,  rinner =    0.800   0.800   0.800

     PseudoPot. # 4 for C  read from file:
     /storage/coda1/p-amedford6/0/shared/rich_project_chbe-medford/medford-share/data/pseudos_module/espresso/nninc/pbe/van/C.UPF
     MD5 check sum: 1a69bf6b8db32088f5b2163dbdb77a27
     Pseudo is Ultrasoft, Zval =  4.0
     Generated by new atomic code, or converted to UPF format
     Using radial grid of  721 points,  4 beta functions with:
                l(1) =   0
                l(2) =   0
                l(3) =   1
                l(4) =   1
     Q(r) pseudized with  8 coefficients,  rinner =    0.800   0.800   0.800

     PseudoPot. # 5 for H  read from file:
     /storage/coda1/p-amedford6/0/shared/rich_project_chbe-medford/medford-share/data/pseudos_module/espresso/nninc/pbe/van/H.UPF
     MD5 check sum: b5ee9d7bfd3a09ee7748110bda690ff7
     Pseudo is Ultrasoft, Zval =  1.0
     Generated by new atomic code, or converted to UPF format
     Using radial grid of  615 points,  1 beta functions with:
                l(1) =   0
     Q(r) pseudized with  8 coefficients,  rinner =    0.800

     atomic species   valence    mass     pseudopotential
        Ti1           12.00    47.86700     Ti( 1.00)
        O1             6.00    15.99900     O ( 1.00)
        N1             5.00    14.00700     N ( 1.00)
        C1             4.00    12.01100     C ( 1.00)
        H1             1.00     1.00800     H ( 1.00)

     No symmetry found

   Cartesian axes

     site n.     atom                  positions (alat units)
         1           Ti1 tau(   1) = (   0.0004258   2.9801865   6.0000000  )
         2           Ti1 tau(   2) = (   3.2906075   1.4906267   6.0002472  )
         3           O1  tau(   3) = (   0.0006271   0.0005054   7.9858123  )
         4           O1  tau(   4) = (   3.2906025   0.0005020   7.3038282  )
         5           O1  tau(   5) = (   4.5942328   1.4918067   9.2879030  )
         6           O1  tau(   6) = (   1.9868534   1.4903216   9.2879459  )
         7           Ti1 tau(   7) = (   3.2907910   2.8959150   9.1758416  )
         8           Ti1 tau(   8) = (   0.0015273   1.4827037   9.2680791  )
         9           O1  tau(   9) = (   3.2741875   5.9357071  11.3735532  )
        10           O1  tau(  10) = (   0.0116148   5.9584955  10.6183126  )
        11           O1  tau(  11) = (   1.2759687   1.4857368  12.6615302  )
        12           O1  tau(  12) = (   5.2764777   1.4850508  12.6403612  )
        13           Ti1 tau(  13) = (   6.5724762   2.9646551  12.5117882  )
        14           Ti1 tau(  14) = (   3.2886223   1.4652571  12.5194246  )
        15           O1  tau(  15) = (   6.5416971   0.0664024  14.6986244  )
        16           O1  tau(  16) = (   3.2828258   5.9593040  13.9967703  )
        17           O1  tau(  17) = (   4.5136565   1.4796660  16.2299008  )
        18           O1  tau(  18) = (   2.0038615   1.4742267  16.2123189  )
        19           Ti1 tau(  19) = (   3.2480181   2.9445974  15.7466143  )
        20           Ti1 tau(  20) = (   6.5118905   1.3801257  16.1190456  )
        21           O1  tau(  21) = (   3.2904802   0.0005063   4.7018136  )
        22           O1  tau(  22) = (   6.5538845   5.8109167  17.2256470  )
        23           O1  tau(  23) = (   1.3043587   1.4918075   6.0039043  )
        24           O1  tau(  24) = (   5.2767064   1.4903225   6.0039473  )
        25           Ti1 tau(  25) = (   0.0000382   5.9609847   6.0000000  )
        26           Ti1 tau(  26) = (   3.2902200   4.4714249   6.0002472  )
        27           O1  tau(  27) = (   0.0002396   2.9813036   7.9858123  )
        28           O1  tau(  28) = (   3.2902150   2.9813002   7.3038282  )
        29           O1  tau(  29) = (   4.5938453   4.4726049   9.2879030  )
        30           O1  tau(  30) = (   1.9864658   4.4711199   9.2879459  )
        31           Ti1 tau(  31) = (   3.2891106   5.8743827   9.1763621  )
        32           Ti1 tau(  32) = (   0.0006254   4.4649316   9.2693709  )
        33           O1  tau(  33) = (   3.2754078   2.9701464  11.3677572  )
        34           O1  tau(  34) = (   0.0092240   2.9805883  10.6323155  )
        35           O1  tau(  35) = (   1.2711598   4.4556272  12.7031535  )
        36           O1  tau(  36) = (   5.2783420   4.4558858  12.6781970  )
        37           Ti1 tau(  37) = (   0.0002938   5.9583472  12.5066983  )
        38           Ti1 tau(  38) = (   3.2916940   4.4447674  12.5292973  )
        39           O1  tau(  39) = (   6.5347695   2.9176514  14.9891124  )
        40           O1  tau(  40) = (   3.2818703   2.9467213  13.9608579  )
        41           O1  tau(  41) = (   4.5039121   4.4250859  16.1805084  )
        42           O1  tau(  42) = (   2.0002864   4.4376668  16.1101511  )
        43           Ti1 tau(  43) = (   3.2613398   5.9375382  15.7939200  )
        44           Ti1 tau(  44) = (   0.0097882   4.6113729  15.8292928  )
        45           O1  tau(  45) = (   3.2900926   2.9813045   4.7018136  )
        46           O1  tau(  46) = (   1.3039711   4.4726057   6.0039043  )
        47           O1  tau(  47) = (   5.2763189   4.4711207   6.0039473  )
        48           N1  tau(  48) = (   6.5527080   2.6666917  18.2311642  )
        49           C1  tau(  49) = (   0.9950107   2.5313988  18.9921798  )
        50           H1  tau(  50) = (   0.9966315   2.9146593  20.0110098  )
        51           H1  tau(  51) = (   1.8622571   2.0164067  18.6108951  )
        52           N1  tau(  52) = (   5.4094651   3.2293427  18.7544413  )
        53           H1  tau(  53) = (   5.6216840   3.8708726  19.5154782  )
        54           H1  tau(  54) = (   4.9168071   3.7283298  18.0160565  )

     number of k points=    10  Fermi-Dirac smearing, width (Ry)=  0.0073
                       cart. coord. in units 2pi/alat
        k(    1) = (   0.0000000   0.0000000   0.0000000), wk =   0.1250000
        k(    2) = (   0.0000000   0.0419351   0.0000000), wk =   0.2500000
        k(    3) = (   0.0000000  -0.0838702   0.0000000), wk =   0.1250000
        k(    4) = (   0.0379955   0.0000049   0.0000000), wk =   0.2500000
        k(    5) = (   0.0379955   0.0419400   0.0000000), wk =   0.2500000
        k(    6) = (   0.0379955  -0.0838652   0.0000000), wk =   0.2500000
        k(    7) = (   0.0379955  -0.0419301   0.0000000), wk =   0.2500000
        k(    8) = (  -0.0759910  -0.0000099   0.0000000), wk =   0.1250000
        k(    9) = (  -0.0759910   0.0419252   0.0000000), wk =   0.2500000
        k(   10) = (  -0.0759910  -0.0838800   0.0000000), wk =   0.1250000

[...]
     Using radial grid of  729 points,  4 beta functions with:
                l(1) =   0
                l(2) =   0
                l(3) =   1
                l(4) =   1
     Q(r) pseudized with  8 coefficients,  rinner =    0.800   0.800   0.800

     PseudoPot. # 4 for C  read from file:
     /storage/coda1/p-amedford6/0/shared/rich_project_chbe-medford/medford-share/data/pseudos_module/espresso/nninc/pbe/van/C.UPF
     MD5 check sum: 1a69bf6b8db32088f5b2163dbdb77a27
     Pseudo is Ultrasoft, Zval =  4.0
     Generated by new atomic code, or converted to UPF format
     Using radial grid of  721 points,  4 beta functions with:
                l(1) =   0
                l(2) =   0
                l(3) =   1
                l(4) =   1
     Q(r) pseudized with  8 coefficients,  rinner =    0.800   0.800   0.800

     PseudoPot. # 5 for H  read from file:
     /storage/coda1/p-amedford6/0/shared/rich_project_chbe-medford/medford-share/data/pseudos_module/espresso/nninc/pbe/van/H.UPF
     MD5 check sum: b5ee9d7bfd3a09ee7748110bda690ff7
     Pseudo is Ultrasoft, Zval =  1.0
     Generated by new atomic code, or converted to UPF format
     Using radial grid of  615 points,  1 beta functions with:
                l(1) =   0
     Q(r) pseudized with  8 coefficients,  rinner =    0.800

     atomic species   valence    mass     pseudopotential
        Ti1           12.00    47.86700     Ti( 1.00)
        O1             6.00    15.99900     O ( 1.00)
        N1             5.00    14.00700     N ( 1.00)
        C1             4.00    12.01100     C ( 1.00)
        H1             1.00     1.00800     H ( 1.00)

     No symmetry found

   Cartesian axes

     site n.     atom                  positions (alat units)
         1           Ti1 tau(   1) = (   0.0004258   2.9801865   6.0000000  )
         2           Ti1 tau(   2) = (   3.2906075   1.4906267   6.0002472  )
         3           O1  tau(   3) = (   0.0006271   0.0005054   7.9858123  )
         4           O1  tau(   4) = (   3.2906025   0.0005020   7.3038282  )
         5           O1  tau(   5) = (   4.5942328   1.4918067   9.2879030  )
         6           O1  tau(   6) = (   1.9868534   1.4903216   9.2879459  )
         7           Ti1 tau(   7) = (   3.2907910   2.8959150   9.1758416  )
         8           Ti1 tau(   8) = (   0.0015273   1.4827037   9.2680791  )
         9           O1  tau(   9) = (   3.2741875   5.9357071  11.3735532  )
        10           O1  tau(  10) = (   0.0116148   5.9584955  10.6183126  )
        11           O1  tau(  11) = (   1.2759687   1.4857368  12.6615302  )
        12           O1  tau(  12) = (   5.2764777   1.4850508  12.6403612  )
        13           Ti1 tau(  13) = (   6.5724762   2.9646551  12.5117882  )
        14           Ti1 tau(  14) = (   3.2886223   1.4652571  12.5194246  )
        15           O1  tau(  15) = (   6.5416971   0.0664024  14.6986244  )
        16           O1  tau(  16) = (   3.2828258   5.9593040  13.9967703  )
        17           O1  tau(  17) = (   4.5136565   1.4796660  16.2299008  )
        18           O1  tau(  18) = (   2.0038615   1.4742267  16.2123189  )
        19           Ti1 tau(  19) = (   3.2480181   2.9445974  15.7466143  )
        20           Ti1 tau(  20) = (   6.5118905   1.3801257  16.1190456  )
        21           O1  tau(  21) = (   3.2904802   0.0005063   4.7018136  )
        22           O1  tau(  22) = (   6.5538845   5.8109167  17.2256470  )
        23           O1  tau(  23) = (   1.3043587   1.4918075   6.0039043  )
        24           O1  tau(  24) = (   5.2767064   1.4903225   6.0039473  )
        25           Ti1 tau(  25) = (   0.0000382   5.9609847   6.0000000  )
        26           Ti1 tau(  26) = (   3.2902200   4.4714249   6.0002472  )
        27           O1  tau(  27) = (   0.0002396   2.9813036   7.9858123  )
        28           O1  tau(  28) = (   3.2902150   2.9813002   7.3038282  )
        29           O1  tau(  29) = (   4.5938453   4.4726049   9.2879030  )
        30           O1  tau(  30) = (   1.9864658   4.4711199   9.2879459  )
        31           Ti1 tau(  31) = (   3.2891106   5.8743827   9.1763621  )
        32           Ti1 tau(  32) = (   0.0006254   4.4649316   9.2693709  )
        33           O1  tau(  33) = (   3.2754078   2.9701464  11.3677572  )
        34           O1  tau(  34) = (   0.0092240   2.9805883  10.6323155  )
        35           O1  tau(  35) = (   1.2711598   4.4556272  12.7031535  )
        36           O1  tau(  36) = (   5.2783420   4.4558858  12.6781970  )
        37           Ti1 tau(  37) = (   0.0002938   5.9583472  12.5066983  )
        38           Ti1 tau(  38) = (   3.2916940   4.4447674  12.5292973  )
        39           O1  tau(  39) = (   6.5347695   2.9176514  14.9891124  )
        40           O1  tau(  40) = (   3.2818703   2.9467213  13.9608579  )
        41           O1  tau(  41) = (   4.5039121   4.4250859  16.1805084  )
        42           O1  tau(  42) = (   2.0002864   4.4376668  16.1101511  )
        43           Ti1 tau(  43) = (   3.2613398   5.9375382  15.7939200  )
        44           Ti1 tau(  44) = (   0.0097882   4.6113729  15.8292928  )
        45           O1  tau(  45) = (   3.2900926   2.9813045   4.7018136  )
        46           O1  tau(  46) = (   1.3039711   4.4726057   6.0039043  )
        47           O1  tau(  47) = (   5.2763189   4.4711207   6.0039473  )
        48           N1  tau(  48) = (   6.5527080   2.6566917  18.2311642  )
        49           C1  tau(  49) = (   0.9950107   2.5313988  18.9921798  )
        50           H1  tau(  50) = (   0.9966315   2.9146593  20.0110098  )
        51           H1  tau(  51) = (   1.8622571   2.0164067  18.6108951  )
        52           N1  tau(  52) = (   5.4094651   3.2293427  18.7544413  )
        53           H1  tau(  53) = (   5.6216840   3.8708726  19.5154782  )
        54           H1  tau(  54) = (   4.9168071   3.7283298  18.0060565  )

     number of k points=    10  Fermi-Dirac smearing, width (Ry)=  0.0073
                       cart. coord. in units 2pi/alat
        k(    1) = (   0.0000000   0.0000000   0.0000000), wk =   0.1250000
        k(    2) = (   0.0000000   0.0419351   0.0000000), wk =   0.2500000
        k(    3) = (   0.0000000  -0.0838702   0.0000000), wk =   0.1250000
        k(    4) = (   0.0379955   0.0000049   0.0000000), wk =   0.2500000
        k(    5) = (   0.0379955   0.0419400   0.0000000), wk =   0.2500000
        k(    6) = (   0.0379955  -0.0838652   0.0000000), wk =   0.2500000
        k(    7) = (   0.0379955  -0.0419301   0.0000000), wk =   0.2500000
        k(    8) = (  -0.0759910  -0.0000099   0.0000000), wk =   0.1250000
        k(    9) = (  -0.0759910   0.0419252   0.0000000), wk =   0.2500000
        k(   10) = (  -0.0759910  -0.0838800   0.0000000), wk =   0.1250000

     Initial potential from superposition of free atoms

     starting charge  379.99915, renormalised to  396.00000

[...]

     %%%%%%%%%%%%%%%%%%%%%%%%%%%%%%%%%%%%%%%%%%%%%%%%%%%%%%%%%%%%%%%%%%%%%%%%
     %                                                                      %
     % You are using vdW-DF, which was implemented by the Thonhauser group. %
     % Please cite the following two papers that made this development      %
     % possible and the two reviews that describe the various versions:     %
     %                                                                      %
     %   T. Thonhauser et al., PRL 115, 136402 (2015).                      %
     %   T. Thonhauser et al., PRB 76, 125112 (2007).                       %
     %   K. Berland et al., Rep. Prog. Phys. 78, 066501 (2015).             %
     %   D.C. Langreth et al., J. Phys.: Condens. Matter 21, 084203 (2009). %
     %                                                                      %
     %                                                                      %
     % If you are calculating the stress with vdW-DF, please also cite:     %
     %                                                                      %
     %   R. Sabatini et al., J. Phys.: Condens. Matter 24, 424209 (2012).   %
     %                                                                      %
     %%%%%%%%%%%%%%%%%%%%%%%%%%%%%%%%%%%%%%%%%%%%%%%%%%%%%%%%%%%%%%%%%%%%%%%%

[...]

     Starting wfcs are  300 atomic wfcs
  @ DRIVER MODE: Message from server: STATUS
  @ DRIVER MODE: Message from server: POSDATA
  @ DRIVER MODE: Reading and sharing cell
  @ DRIVER MODE: Reading and sharing positions
  @ DRIVER MODE: Received positions

     Self-consistent Calculation

[...]

     iteration # 73     ecut=    29.40 Ry     beta= 0.05
     Davidson diagonalization with overlap
     ethr =  7.19E-11,  avg # of iterations =  8.5

[...]

     total energy              =   -2940.36660906 Ry
     estimated scf accuracy    <       0.00000016 Ry

     iteration # 74     ecut=    29.40 Ry     beta= 0.05
     Davidson diagonalization with overlap
     c_bands:  1 eigenvalues not converged
     ethr =  4.03E-11,  avg # of iterations = 13.3

     negative rho (up, down):  1.644E-02 0.000E+00

     Adding external electric field

     Computed dipole along edir(3) :
        Dipole                1.2626 Ry au,          3.2091 Debye
        Dipole field          0.0024 Ry au,

        Potential amp.       -0.2209 Ry
        Total length         46.3494 bohr

     End of self-consistent calculation

[...]

          k = 0.0380-0.0419 0.0000 ( 17876 PWs)   bands (ev):

[...]

          k =-0.0760-0.0839 0.0000 ( 17948 PWs)   bands (ev):

   -55.4049 -55.3974 -55.3549 -55.3547 -55.2901 -55.2894 -55.2833 -55.2800
   -55.2255 -55.2222 -55.2183 -55.1869 -55.1860 -55.0544 -54.3820 -54.3820
   -31.7950 -31.7895 -31.7487 -31.6959 -31.6822 -31.6796 -31.6794 -31.6464
   -31.6463 -31.6299 -31.6208 -31.6161 -31.6116 -31.5649 -31.5574 -31.5554
   -31.5531 -31.5510 -31.5456 -31.5403 -31.5253 -31.5127 -31.4958 -31.4953
   -31.4913 -31.4770 -31.4756 -31.4745 -31.4742 -31.4722 -31.4555 -31.4513
   -31.4456 -31.4352 -31.4317 -31.4172 -31.4158 -31.4124 -31.3672 -31.3671
   -31.2957 -31.2783 -30.7051 -30.7051 -30.6210 -30.6209 -30.5815 -30.5815
   -18.5780 -15.7140 -15.6809 -15.6235 -15.4430 -15.4154 -15.4090 -15.3896
   -15.2596 -15.2435 -15.2119 -15.1835 -15.1528 -15.1263 -15.1223 -15.1038
   -15.0343 -15.0234 -15.0153 -14.9977 -14.9323 -14.9283 -14.9195 -14.9147
   -14.8679 -14.8652 -14.7698 -14.7682 -14.6681 -14.5516 -13.6521 -12.8861
   -12.8861  -8.7160  -6.4344  -6.0590  -3.9930  -3.2531  -2.9468  -2.8803
    -2.8517  -2.6548  -2.6313  -2.5885  -2.5332  -2.4531  -2.4271  -2.4204
    -2.4117  -2.3412  -2.3291  -2.2794  -2.2702  -2.2511  -2.2358  -2.2253
    -2.1958  -2.1698  -2.1459  -2.1369  -2.1256  -2.0718  -2.0613  -2.0435
    -2.0132  -1.9936  -1.9840  -1.9675  -1.8683  -1.7841  -1.7544  -1.7275
    -1.6234  -1.6190  -1.5388  -1.5228  -1.4916  -1.4508  -1.4381  -1.4173
    -1.2354  -1.2056  -1.1746  -1.1615  -1.1531  -1.0139  -1.0001  -0.9441
    -0.9029  -0.8971  -0.7880  -0.7640  -0.7390  -0.6629  -0.6271  -0.5934
    -0.5410  -0.4362  -0.4191  -0.4083  -0.3750  -0.3709  -0.3149  -0.3028
    -0.2277  -0.1855  -0.1526  -0.1387  -0.0959   0.0921   0.1155   0.1305
     0.2737   0.3295   0.4230   0.5220   0.5324   0.5886   0.6277   0.6940
     0.7551   0.8244   0.8719   0.8902   0.8909   0.9694   0.9871   1.0407
     1.0426   1.9802   1.9808   2.0670   2.0674   3.8219   3.9305   3.9417
     3.9822   4.0657   4.1228   4.1956   4.2240   4.2629   4.2652   4.3307

     the Fermi energy is     3.7413 ev

!    total energy              =   -2940.36662429 Ry
     estimated scf accuracy    <       0.00000006 Ry
     smearing contrib. (-TS)   =      -0.03727749 Ry
     internal energy E=F+TS    =   -2940.32934680 Ry

     The total energy is F=E-TS. E is the sum of the following terms:
     one-electron contribution =  -23759.44108239 Ry
     hartree contribution      =   11971.04149059 Ry
     xc contribution           =    -486.11172701 Ry
     ewald contribution        =    9334.17896385 Ry
     electric field correction =       0.00300816 Ry

     convergence has been achieved in  74 iterations

     Forces acting on atoms (cartesian axes, Ry/au):

     atom    1 type  1   force =     0.00006842   -0.00013931    0.09327275
     atom    2 type  1   force =    -0.00005747   -0.00026219   -0.17806765
     atom    3 type  2   force =     0.00002165   -0.00015297   -0.02024936
     atom    4 type  2   force =     0.00000807   -0.00195998    0.05850079
     atom    5 type  2   force =    -0.01065490   -0.00127050    0.00870214
     atom    6 type  2   force =     0.01174861   -0.00061598    0.00682396
     atom    7 type  1   force =    -0.00091865    0.00298721   -0.01444747
     atom    8 type  1   force =     0.00063703   -0.00050170   -0.00372863
     atom    9 type  2   force =     0.00014510    0.00010543    0.00010171
     atom   10 type  2   force =    -0.00209544   -0.00121168    0.00064576
     atom   11 type  2   force =     0.00008340    0.00022342   -0.00011511
     atom   12 type  2   force =     0.00056877    0.00029328   -0.00006451
     atom   13 type  1   force =    -0.00013778    0.00029209    0.00009403
     atom   14 type  1   force =     0.00013146    0.00046859   -0.00040213
     atom   15 type  2   force =    -0.00000035    0.00038466   -0.00007688
     atom   16 type  2   force =     0.00042986    0.00015377   -0.00031065
     atom   17 type  2   force =     0.00028418   -0.00033509   -0.00042396
     atom   18 type  2   force =     0.00021335   -0.00054725    0.00001839
     atom   19 type  1   force =    -0.00114943   -0.00030426    0.00016219
     atom   20 type  1   force =     0.00024470   -0.00001598   -0.00003464
     atom   21 type  2   force =     0.00009606    0.00000045    0.10393766
     atom   22 type  2   force =    -0.00020694    0.00007795    0.00001424
     atom   23 type  2   force =    -0.07040131   -0.00012506   -0.02689151
     atom   24 type  2   force =     0.07033296    0.00033173   -0.02693107
     atom   25 type  1   force =     0.00008945   -0.00022086    0.09281574
     atom   26 type  1   force =    -0.00005232   -0.00034173   -0.17806157
     atom   27 type  2   force =     0.00011080   -0.00037129   -0.01930571
     atom   28 type  2   force =     0.00003966   -0.00165388    0.05793037
     atom   29 type  2   force =    -0.01064654   -0.00128621    0.00802918
     atom   30 type  2   force =     0.01164881   -0.00089346    0.00608777
     atom   31 type  1   force =    -0.00090026    0.00489998   -0.01543693
     atom   32 type  1   force =     0.00083193    0.00019494   -0.00393259
     atom   33 type  2   force =     0.00010384    0.00046293    0.00022651
     atom   34 type  2   force =    -0.00177199    0.00108988    0.00070145
     atom   35 type  2   force =     0.00031800    0.00005807    0.00008549
     atom   36 type  2   force =     0.00025883   -0.00025477    0.00020006
     atom   37 type  1   force =    -0.00035484    0.00002182   -0.00009984
     atom   38 type  1   force =    -0.00024309    0.00049963   -0.00017092
     atom   39 type  2   force =     0.00047285   -0.00072248   -0.00005898
     atom   40 type  2   force =    -0.00014986    0.00008277    0.00000727
     atom   41 type  2   force =     0.00027931   -0.00024530    0.00000352
     atom   42 type  2   force =     0.00020543    0.00011023   -0.00006719
     atom   43 type  1   force =    -0.00041082    0.00009264    0.00015022
     atom   44 type  1   force =     0.00035566    0.00018082   -0.00016395
     atom   45 type  2   force =     0.00010818   -0.00003244    0.10390711
     atom   46 type  2   force =    -0.07041250   -0.00005352   -0.02689329
     atom   47 type  2   force =     0.07036221    0.00037206   -0.02690147
     atom   48 type  3   force =    -0.00034328   -0.00020600    0.00006236
     atom   49 type  4   force =     0.00138914   -0.00048885    0.00002706
     atom   50 type  5   force =     0.00054327   -0.00015556    0.00044355
     atom   51 type  5   force =    -0.00032127   -0.00004434   -0.00033372
     atom   52 type  3   force =    -0.00454902    0.00479429   -0.00921546
     atom   53 type  5   force =    -0.00058983    0.00026031    0.00045199
     atom   54 type  5   force =     0.00423691   -0.00402630    0.00898191

     Total force =     0.366210     Total SCF correction =     0.000412
  @ DRIVER MODE: Message from server: STATUS
  @ DRIVER MODE: Message from server: GETFORCE
  @ DRIVER MODE: Returning v,forces,stress,ensemble

     Writing output data file ./calc.save/
  @ DRIVER MODE: Message from server: EXIT
  @ DRIVE MODE: Exiting

     General routines

     Parallel routines

   This run was terminated on:  15:59:33  24Aug2021

   JOB DONE.