     Program PWSCF v.6.7GPU starts on 28Sep2021 at  9:53:23

     R & G space division:  proc/nbgrp/npool/nimage =       8
     Reading input from /storage/home/hcoda1/3/ntian30/research/carbon/CxH_vib/CH_calc/ads_slab/CHONH_a/out_0030/pw.inp
Warning: card &CELL ignored
Warning: card   CELL_DYNAMICS='IPI', ignored
Warning: card / ignored

     Current dimensions of program PWSCF are:
     Max number of different atomic species (ntypx) = 10
     Max number of k-points (npk) =  40000
     Max angular momentum in pseudopotentials (lmaxx) =  3
     Presently no symmetry can be used with electric field

     Message from routine cell_base_init:
     DEPRECATED: use true lattice parameter, not A to a.u. conversion factor

     IMPORTANT: XC functional enforced from input :
     Exchange-correlation= BEEF-VDW
                           (   1   4  43  14   2   0   0)
     Any further DFT definition will be discarded
     Please, verify this is what you really want

  @ DRIVER MODE: Connecting to
 qe_1139763_3003539.sched-torque.pace.gatech.edu2ye3jbn5_scratch
  using UNIX socket
  @ DRIVER MODE: Message from server: STATUS
  @ DRIVER MODE: Message from server: INIT
  @ DRIVER MODE: Receiving replica           0          -1
  @ DRIVER MODE: Receiving encoded integer          25
  @ DRIVER MODE:  SCF:  T  FORCE:  T  STRESS:  F  VC:  F  ENSEMBLE:  F
  @ DRIVER MODE:  SCF:  T  FORCE:  T  STRESS:  F  VC:  F  ENSEMBLE:  F

     Using Slab Decomposition

     bravais-lattice index     =            0
     lattice parameter (alat)  =       1.8897  a.u.
     unit-cell volume          =    6658.9804 (a.u.)^3
     number of atoms/cell      =           52
     number of atomic types    =            5
     number of electrons       =       395.00
     number of Kohn-Sham states=          207
     kinetic-energy cutoff     =      29.3995  Ry
     charge density cutoff     =     293.9946  Ry
     scf convergence threshold =      7.3E-08
     mixing beta               =       0.0500
     number of iterations used =            8  plain     mixing
     Exchange-correlation= BEEF-VDW
                           (   1   4  43  14   2   0   0)

     celldm(1)=   1.889726  celldm(2)=   0.000000  celldm(3)=   0.000000
     celldm(4)=   0.000000  celldm(5)=   0.000000  celldm(6)=   0.000000

     crystal axes: (cart. coord. in units of alat)
               a(1) = (   6.579727   0.000000   0.000000 )
               a(2) = (  -0.000775   5.961596   0.000000 )
               a(3) = (   0.000000   0.000000  25.155947 )

     reciprocal axes: (cart. coord. in units 2 pi/alat)
               b(1) = (  0.151982  0.000020  0.000000 )
               b(2) = (  0.000000  0.167740  0.000000 )
               b(3) = (  0.000000  0.000000  0.039752 )

     PseudoPot. # 1 for O  read from file:
     /storage/coda1/p-amedford6/0/shared/rich_project_chbe-medford/medford-share/data/pseudos_module/espresso/nninc/pbe/van/O.UPF
     MD5 check sum: 78c19812648e8988a0fe644b0f25305e
     Pseudo is Ultrasoft, Zval =  6.0
     Generated by new atomic code, or converted to UPF format
     Using radial grid of  737 points,  4 beta functions with:
                l(1) =   0
                l(2) =   0
                l(3) =   1
                l(4) =   1
     Q(r) pseudized with  8 coefficients,  rinner =    0.800   0.800   0.800

     PseudoPot. # 2 for Ti read from file:
     /storage/coda1/p-amedford6/0/shared/rich_project_chbe-medford/medford-share/data/pseudos_module/espresso/nninc/pbe/van/Ti.UPF
     MD5 check sum: 8e4df49b7f0d34bbd5052bf3f5ea0213
     Pseudo is Ultrasoft, Zval = 12.0
     Generated by new atomic code, or converted to UPF format
     Using radial grid of  851 points,  6 beta functions with:
                l(1) =   0
                l(2) =   0
                l(3) =   1
                l(4) =   1
                l(5) =   2
                l(6) =   2
     Q(r) pseudized with  8 coefficients,  rinner =    1.000   1.000   1.000
                                                       1.000   1.000

     PseudoPot. # 3 for N  read from file:
     /storage/coda1/p-amedford6/0/shared/rich_project_chbe-medford/medford-share/data/pseudos_module/espresso/nninc/pbe/van/N.UPF
     MD5 check sum: 90d10febe142ad51ac9d5be1deb811c4
     Pseudo is Ultrasoft, Zval =  5.0
     Generated by new atomic code, or converted to UPF format
     Using radial grid of  729 points,  4 beta functions with:
                l(1) =   0
                l(2) =   0
                l(3) =   1
                l(4) =   1
     Q(r) pseudized with  8 coefficients,  rinner =    0.800   0.800   0.800

     PseudoPot. # 4 for H  read from file:
     /storage/coda1/p-amedford6/0/shared/rich_project_chbe-medford/medford-share/data/pseudos_module/espresso/nninc/pbe/van/H.UPF
     MD5 check sum: b5ee9d7bfd3a09ee7748110bda690ff7
     Pseudo is Ultrasoft, Zval =  1.0
     Generated by new atomic code, or converted to UPF format
     Using radial grid of  615 points,  1 beta functions with:
                l(1) =   0
     Q(r) pseudized with  8 coefficients,  rinner =    0.800

     PseudoPot. # 5 for C  read from file:
     /storage/coda1/p-amedford6/0/shared/rich_project_chbe-medford/medford-share/data/pseudos_module/espresso/nninc/pbe/van/C.UPF
     MD5 check sum: 1a69bf6b8db32088f5b2163dbdb77a27
     Pseudo is Ultrasoft, Zval =  4.0
     Generated by new atomic code, or converted to UPF format
     Using radial grid of  721 points,  4 beta functions with:
                l(1) =   0
                l(2) =   0
                l(3) =   1
                l(4) =   1
     Q(r) pseudized with  8 coefficients,  rinner =    0.800   0.800   0.800

     atomic species   valence    mass     pseudopotential
        O1             6.00    15.99900     O ( 1.00)
        Ti1           12.00    47.86700     Ti( 1.00)
        N1             5.00    14.00700     N ( 1.00)
        H1             1.00     1.00800     H ( 1.00)
        C1             4.00    12.01100     C ( 1.00)

     No symmetry found

   Cartesian axes

     site n.     atom                  positions (alat units)
         1           O1  tau(   1) = (   3.2904802   0.0005063   4.7018136  )
         2           O1  tau(   2) = (   3.2900926   2.9813045   4.7018136  )
         3           Ti1 tau(   3) = (   0.0004258   2.9801865   6.0000000  )
         4           Ti1 tau(   4) = (   0.0000382   5.9609847   6.0000000  )
         5           Ti1 tau(   5) = (   3.2906075   1.4906267   6.0002472  )
         6           Ti1 tau(   6) = (   3.2902200   4.4714249   6.0002472  )
         7           O1  tau(   7) = (   1.3043587   1.4918075   6.0039043  )
         8           O1  tau(   8) = (   1.3039711   4.4726057   6.0039043  )
         9           O1  tau(   9) = (   5.2767064   1.4903225   6.0039473  )
        10           O1  tau(  10) = (   5.2763189   4.4711207   6.0039473  )
        11           O1  tau(  11) = (   3.2906025   0.0005020   7.3038282  )
        12           O1  tau(  12) = (   3.2902150   2.9813002   7.3038282  )
        13           O1  tau(  13) = (   0.0006271   0.0005054   7.9858123  )
        14           O1  tau(  14) = (   0.0002396   2.9813036   7.9858123  )
        15           Ti1 tau(  15) = (   3.2907910   2.8959150   9.1758416  )
        16           Ti1 tau(  16) = (   3.2891106   5.8743827   9.1763621  )
        17           Ti1 tau(  17) = (   0.0015273   1.4827037   9.2680791  )
        18           Ti1 tau(  18) = (   0.0006254   4.4649316   9.2693709  )
        19           O1  tau(  19) = (   4.5942328   1.4918067   9.2879030  )
        20           O1  tau(  20) = (   4.5938453   4.4726049   9.2879030  )
        21           O1  tau(  21) = (   1.9868534   1.4903216   9.2879459  )
        22           O1  tau(  22) = (   1.9864658   4.4711199   9.2879459  )
        23           O1  tau(  23) = (   0.0116148   5.9584955  10.6183126  )
        24           O1  tau(  24) = (   0.0092240   2.9805883  10.6323155  )
        25           O1  tau(  25) = (   3.2907787   2.9729778  11.3304428  )
        26           O1  tau(  26) = (   3.2919079   5.9474133  11.3321580  )
        27           Ti1 tau(  27) = (   3.2097987   4.4572658  12.4865812  )
        28           Ti1 tau(  28) = (   3.2119315   1.4761680  12.4799496  )
        29           Ti1 tau(  29) = (   6.5264509   5.9216213  12.6328416  )
        30           O1  tau(  30) = (   5.2968352   1.4901136  12.6152109  )
        31           O1  tau(  31) = (   1.3135328   1.4919602  12.6192607  )
        32           O1  tau(  32) = (   5.3002941   4.4568025  12.6330795  )
        33           O1  tau(  33) = (   1.3069994   4.4674097  12.6333468  )
        34           Ti1 tau(  34) = (   6.5276633   2.9456522  12.5459445  )
        35           O1  tau(  35) = (   3.2998384   2.9660209  13.9106595  )
        36           O1  tau(  36) = (   3.3025942   5.9420417  13.9122833  )
        37           O1  tau(  37) = (   6.5640883   0.0415230  14.6395465  )
        38           O1  tau(  38) = (   0.0106891   2.9491072  14.6900936  )
        39           Ti1 tau(  39) = (   3.2736000   2.9502234  15.7069571  )
        40           Ti1 tau(  40) = (   3.3003751   5.9266233  15.7109206  )
        41           Ti1 tau(  41) = (   6.5634422   4.2760099  16.1499291  )
        42           O1  tau(  42) = (   2.0584629   4.4329444  16.0623798  )
        43           O1  tau(  43) = (   4.5473560   4.4405029  16.0785460  )
        44           O1  tau(  44) = (   2.0586626   1.4574935  16.0341320  )
        45           O1  tau(  45) = (   4.5465401   1.4531303  16.0599029  )
        46           Ti1 tau(  46) = (   6.5663670   1.4428561  15.8472210  )
        47           O1  tau(  47) = (   0.0528285   5.9376273  17.3175539  )
        48           N1  tau(  48) = (   2.9241058   0.2315137  18.9516947  )
        49           H1  tau(  49) = (   0.7823102   0.0278888  17.9584184  )
        50           H1  tau(  50) = (   4.9006910   1.2352932  19.1031722  )
        51           C1  tau(  51) = (   3.9482889   0.7533229  19.0539995  )
        52           O1  tau(  52) = (   0.0046524   2.9249380  17.2471169  )

     number of k points=    10  Fermi-Dirac smearing, width (Ry)=  0.0073
                       cart. coord. in units 2pi/alat
        k(    1) = (   0.0000000   0.0000000   0.0000000), wk =   0.1250000
        k(    2) = (   0.0000000   0.0419351   0.0000000), wk =   0.2500000
        k(    3) = (   0.0000000  -0.0838702   0.0000000), wk =   0.1250000
        k(    4) = (   0.0379955   0.0000049   0.0000000), wk =   0.2500000
        k(    5) = (   0.0379955   0.0419400   0.0000000), wk =   0.2500000
        k(    6) = (   0.0379955  -0.0838652   0.0000000), wk =   0.2500000
        k(    7) = (   0.0379955  -0.0419301   0.0000000), wk =   0.2500000
        k(    8) = (  -0.0759910  -0.0000099   0.0000000), wk =   0.1250000
        k(    9) = (  -0.0759910   0.0419252   0.0000000), wk =   0.2500000
        k(   10) = (  -0.0759910  -0.0838800   0.0000000), wk =   0.1250000

     Initial potential from superposition of free atoms

     starting charge  378.99918, renormalised to  395.00000

     negative rho (up, down):  1.730E-02 0.000E+00

     %%%%%%%%%%%%%%%%%%%%%%%%%%%%%%%%%%%%%%%%%%%%%%%%%%%%%%%%%%%%%%%%%%%%%%%%
     %                                                                      %
     % You are using vdW-DF, which was implemented by the Thonhauser group. %
     % Please cite the following two papers that made this development      %
     % possible and the two reviews that describe the various versions:     %
     %                                                                      %
     %   T. Thonhauser et al., PRL 115, 136402 (2015).                      %
     %   T. Thonhauser et al., PRB 76, 125112 (2007).                       %
     %   K. Berland et al., Rep. Prog. Phys. 78, 066501 (2015).             %
     %   D.C. Langreth et al., J. Phys.: Condens. Matter 21, 084203 (2009). %
     %                                                                      %
     %                                                                      %
     % If you are calculating the stress with vdW-DF, please also cite:     %
     %                                                                      %
     %   R. Sabatini et al., J. Phys.: Condens. Matter 24, 424209 (2012).   %
     %                                                                      %
     %%%%%%%%%%%%%%%%%%%%%%%%%%%%%%%%%%%%%%%%%%%%%%%%%%%%%%%%%%%%%%%%%%%%%%%%

     Adding external electric field

     Computed dipole along edir(3) :
        Dipole               -8.2799 Ry au,        -21.0454 Debye
        Dipole field         -0.0156 Ry au,

        Potential amp.        1.4484 Ry
        Total length         46.3494 bohr

     Starting wfcs are  298 atomic wfcs
  @ DRIVER MODE: Message from server: STATUS
  @ DRIVER MODE: Message from server: POSDATA
  @ DRIVER MODE: Reading and sharing cell
  @ DRIVER MODE: Reading and sharing positions
  @ DRIVER MODE: Received positions

     Self-consistent Calculation

     iteration #  1     ecut=    29.40 Ry     beta= 0.05
     Davidson diagonalization with overlap
     c_bands:  1 eigenvalues not converged
     c_bands:  1 eigenvalues not converged
     c_bands:  1 eigenvalues not converged
     c_bands:  3 eigenvalues not converged
     c_bands:  3 eigenvalues not converged
     c_bands:  2 eigenvalues not converged
     c_bands:  1 eigenvalues not converged
     ethr =  1.00E-05,  avg # of iterations = 19.3

[...]

     total energy              =   -2630.96364103 Ry
     estimated scf accuracy    <    3535.15906762 Ry

[...]

     iteration #  3     ecut=    29.40 Ry     beta= 0.05
     Davidson diagonalization with overlap
     ethr =  1.00E-02,  avg # of iterations = 15.0

[...]

     iteration # 68     ecut=    29.40 Ry     beta= 0.05
     Davidson diagonalization with overlap
     c_bands:  1 eigenvalues not converged
     ethr =  3.23E-09,  avg # of iterations =  8.3

[...]

     total energy              =   -2950.31361811 Ry
     estimated scf accuracy    <       0.00000012 Ry

     iteration # 79     ecut=    29.40 Ry     beta= 0.05
     Davidson diagonalization with overlap
     ethr =  2.92E-11,  avg # of iterations =  8.8

     negative rho (up, down):  1.724E-02 0.000E+00

     Adding external electric field

     Computed dipole along edir(3) :
        Dipole                0.6353 Ry au,          1.6147 Debye
        Dipole field          0.0012 Ry au,

        Potential amp.       -0.1111 Ry
        Total length         46.3494 bohr

     End of self-consistent calculation

          k = 0.0000 0.0000 0.0000 ( 18029 PWs)   bands (ev):

   -55.9788 -55.9717 -55.9447 -55.9356 -55.8523 -55.8305 -55.8139 -55.7960
   -55.7871 -55.7531 -55.7521 -55.7182 -55.6768 -55.4440 -54.9560 -54.9219
   -32.5256 -32.4613 -32.3298 -32.3108 -32.2865 -32.2829 -32.2716 -32.2428
   -32.2214 -32.1955 -32.1857 -32.1746 -32.1513 -32.1308 -32.1226 -32.1190
   -32.1110 -32.0908 -32.0832 -32.0688 -32.0423 -32.0360 -32.0357 -31.9888
   -31.9866 -31.9837 -31.9767 -31.9755 -31.9678 -31.9540 -31.9440 -31.9272
   -31.9206 -31.9203 -31.9050 -31.8948 -31.8915 -31.8880 -31.8642 -31.7010
   -31.6769 -31.6600 -31.3632 -31.2748 -31.2523 -31.1798 -31.0933 -30.9823
   -17.0728 -16.7133 -16.4501 -16.2073 -16.1461 -16.1131 -16.0951 -15.9850
   -15.8191 -15.6995 -15.6463 -15.5454 -15.5375 -15.5148 -15.4805 -15.4623
   -15.4278 -15.4220 -15.4113 -15.4005 -15.3867 -15.3381 -15.3184 -15.3020
   -15.2029 -15.1532 -15.1133 -15.0911 -15.0353 -15.0211 -14.6380 -13.4583
   -13.3419  -7.8226  -4.8090  -4.0942  -3.9360  -3.8847  -3.8346  -3.8157
    -3.5873  -3.5283  -3.2181  -3.1634  -3.1484  -3.1292  -3.0991  -2.8872
    -2.8570  -2.8039  -2.7885  -2.7673  -2.7556  -2.7376  -2.7217  -2.7040
    -2.6701  -2.6166  -2.5339  -2.4779  -2.3974  -2.3696  -2.3453  -2.3085
    -2.2908  -2.2480  -2.2275  -2.2168  -2.2124  -2.1750  -2.1690  -2.0972
    -2.0476  -1.9986  -1.9705  -1.8974  -1.8202  -1.7734  -1.7086  -1.5857
    -1.4644  -1.4487  -1.4064  -1.3775  -1.3700  -1.2803  -1.2200  -1.1548
    -1.1335  -1.1285  -1.0393  -0.9970  -0.9562  -0.9432  -0.8553  -0.8221
    -0.7425  -0.7388  -0.7246  -0.6732  -0.4657  -0.4294  -0.3972  -0.3737
    -0.3220  -0.2632  -0.2304  -0.1947  -0.1563  -0.0983  -0.0792  -0.0334
    -0.0124  -0.0040   0.0164   0.0398   0.0629   0.1795   0.2122   0.2716
     0.3036   0.3750   0.4321   0.5650   0.6138   0.6792   0.7904   0.9926
     1.0661   1.1539   1.2584   1.6374   1.6830   3.1569   3.2431   3.2891
     3.2967   3.3983   3.4042   3.6083   3.6303   3.6426   3.7002

[...]

          k = 0.0380-0.0419 0.0000 ( 17876 PWs)   bands (ev):

[...]

          k =-0.0760-0.0000 0.0000 ( 17886 PWs)   bands (ev):

[...]

          k =-0.0760-0.0839 0.0000 ( 17948 PWs)   bands (ev):

   -55.9625 -55.9608 -55.9552 -55.9518 -55.8415 -55.8246 -55.8155 -55.8110
   -55.7706 -55.7691 -55.7375 -55.7331 -55.6757 -55.4450 -54.9389 -54.9389
   -32.3307 -32.3266 -32.2770 -32.2762 -32.2575 -32.2565 -32.2378 -32.2313
   -32.1805 -32.1744 -32.1673 -32.1619 -32.1216 -32.1104 -32.1063 -32.1003
   -32.0887 -32.0863 -32.0820 -32.0800 -32.0763 -32.0712 -32.0469 -32.0363
   -32.0349 -32.0240 -32.0222 -32.0099 -31.9877 -31.9716 -31.9689 -31.9681
   -31.9650 -31.9523 -31.9484 -31.9459 -31.9429 -31.8944 -31.8923 -31.7633
   -31.6923 -31.6777 -31.2651 -31.2650 -31.1760 -31.1758 -31.1366 -31.1365
   -17.0098 -16.1582 -16.1483 -16.1320 -15.9243 -15.8994 -15.8866 -15.8807
   -15.7621 -15.6836 -15.6730 -15.6709 -15.5963 -15.5724 -15.5671 -15.5176
   -15.5099 -15.5020 -15.4915 -15.4624 -15.4397 -15.4338 -15.4153 -15.4100
   -15.3294 -15.2950 -15.2917 -15.2657 -15.1435 -15.0215 -14.7964 -13.4439
   -13.4435  -7.8207  -4.7650  -3.4393  -3.4312  -3.1768  -3.1346  -3.1270
    -3.0704  -2.9183  -2.8836  -2.8779  -2.8427  -2.8230  -2.8058  -2.7989
    -2.7864  -2.7653  -2.7367  -2.7178  -2.7089  -2.6711  -2.6476  -2.6368
    -2.6231  -2.6068  -2.5910  -2.5731  -2.5557  -2.5319  -2.5142  -2.5001
    -2.4580  -2.3101  -2.2271  -2.1786  -2.1206  -2.1085  -2.0965  -2.0898
    -2.0598  -2.0419  -2.0319  -1.9757  -1.9328  -1.8319  -1.7611  -1.7080
    -1.6751  -1.6613  -1.5857  -1.5332  -1.4716  -1.4059  -1.3823  -1.3640
    -1.3150  -1.2588  -1.1934  -1.1777  -1.1451  -1.1009  -1.0518  -0.9710
    -0.9635  -0.9375  -0.9338  -0.8926  -0.8290  -0.7642  -0.7421  -0.7413
    -0.7135  -0.6543  -0.5929  -0.5743  -0.4680  -0.4619  -0.3418  -0.3014
    -0.0490   0.0036   0.0492   0.0937   0.1084   0.1734   0.2134   0.3271
     0.3398   0.3520   0.3927   0.4069   0.4293   0.5547   0.5685   0.5973
     0.7354   1.4302   1.4304   1.5024   1.5032   3.4582   3.4664   3.4929
     3.5104   3.6651   3.6685   3.6889   3.6901   3.8123   3.8329

     the Fermi energy is     3.1555 ev

!    total energy              =   -2950.31362827 Ry
     estimated scf accuracy    <       0.00000006 Ry
     smearing contrib. (-TS)   =      -0.02172036 Ry
     internal energy E=F+TS    =   -2950.29190790 Ry

     The total energy is F=E-TS. E is the sum of the following terms:
     one-electron contribution =  -24383.67082954 Ry
     hartree contribution      =   12278.82626479 Ry
     xc contribution           =    -486.33110586 Ry
     ewald contribution        =    9640.88300108 Ry
     electric field correction =       0.00076163 Ry

     convergence has been achieved in  79 iterations

     Forces acting on atoms (cartesian axes, Ry/au):

     atom    1 type  1   force =     0.00006578    0.00002312    0.10326995
     atom    2 type  1   force =     0.00007285    0.00004802    0.10323710
     atom    3 type  2   force =     0.00013709   -0.00031508    0.09679850
     atom    4 type  2   force =    -0.00007795   -0.00021673    0.09609060
     atom    5 type  2   force =     0.00012367   -0.00039850   -0.17539972
     atom    6 type  2   force =    -0.00001291   -0.00040448   -0.17549740
     atom    7 type  1   force =    -0.07150507   -0.00009567   -0.02769912
     atom    8 type  1   force =    -0.07154306   -0.00003611   -0.02771542
     atom    9 type  1   force =     0.07141626    0.00035180   -0.02776978
     atom   10 type  1   force =     0.07143951    0.00042885   -0.02776099
     atom   11 type  1   force =    -0.00001210   -0.00141112    0.05312980
     atom   12 type  1   force =     0.00001158   -0.00120128    0.05251089
     atom   13 type  1   force =     0.00008988   -0.00013944   -0.02457087
     atom   14 type  1   force =     0.00019603   -0.00012183   -0.02391234
     atom   15 type  2   force =     0.00042863    0.00061881   -0.01181087
     atom   16 type  2   force =     0.00057593    0.00307168   -0.01203891
     atom   17 type  2   force =     0.00035160   -0.01477615    0.02783599
     atom   18 type  2   force =     0.00037165    0.01324912    0.02790601
     atom   19 type  1   force =    -0.01207668    0.00073254    0.00326484
     atom   20 type  1   force =    -0.01219819   -0.00138365    0.00305126
     atom   21 type  1   force =     0.01357727    0.00131347    0.00277786
     atom   22 type  1   force =     0.01356980   -0.00098543    0.00248739
     atom   23 type  1   force =    -0.00336260    0.00070767   -0.01808606
     atom   24 type  1   force =    -0.00198417    0.00035941   -0.02008363
     atom   25 type  1   force =    -0.00013987   -0.00000009    0.00003447
     atom   26 type  1   force =    -0.00002009    0.00009963    0.00003143
     atom   27 type  2   force =     0.00006053   -0.00004397   -0.00004171
     atom   28 type  2   force =     0.00011614    0.00004994    0.00003201
     atom   29 type  2   force =    -0.00010536    0.00000426   -0.00022861
     atom   30 type  1   force =     0.00007296   -0.00003755    0.00003325
     atom   31 type  1   force =     0.00003478   -0.00000565    0.00006306
     atom   32 type  1   force =     0.00002515   -0.00010075   -0.00002645
     atom   33 type  1   force =     0.00001145    0.00004421    0.00008780
     atom   34 type  2   force =    -0.00006200   -0.00009469   -0.00014069
     atom   35 type  1   force =     0.00004278    0.00006366   -0.00013160
     atom   36 type  1   force =    -0.00003192    0.00002406   -0.00026530
     atom   37 type  1   force =    -0.00001670   -0.00003896    0.00037060
     atom   38 type  1   force =     0.00011525    0.00015419    0.00127454
     atom   39 type  2   force =    -0.00004203    0.00002364    0.00011571
     atom   40 type  2   force =     0.00008583    0.00007549    0.00031653
     atom   41 type  2   force =     0.00016708   -0.00408424    0.00474989
     atom   42 type  1   force =    -0.00007870    0.00003822   -0.00019759
     atom   43 type  1   force =     0.00021426    0.00001495   -0.00014705
     atom   44 type  1   force =     0.00002734    0.00006654   -0.00004843
     atom   45 type  1   force =     0.00015887    0.00008687   -0.00018275
     atom   46 type  2   force =     0.00007584    0.00053816    0.00185319
     atom   47 type  1   force =     0.00010439   -0.00013509   -0.00045282
     atom   48 type  3   force =    -0.00034544    0.00144384    0.00082853
     atom   49 type  4   force =    -0.00016564    0.00005139    0.00013509
     atom   50 type  4   force =     0.00018736   -0.00055645   -0.00022739
     atom   51 type  5   force =    -0.00015782   -0.00058809   -0.00023586
     atom   52 type  1   force =     0.00001075    0.00348746   -0.00761493

     Total force =     0.368203     Total SCF correction =     0.000456
  @ DRIVER MODE: Message from server: STATUS
  @ DRIVER MODE: Message from server: GETFORCE
  @ DRIVER MODE: Returning v,forces,stress,ensemble

     Writing output data file ./calc.save/
  @ DRIVER MODE: Message from server: EXIT
  @ DRIVE MODE: Exiting

     General routines

     Parallel routines

   This run was terminated on:  10:20:24  28Sep2021

   JOB DONE.