     Program PWSCF v.6.7GPU starts on 25Sep2021 at 20:25:32

     R & G space division:  proc/nbgrp/npool/nimage =       8
     Reading input from /storage/home/hcoda1/3/ntian30/research/carbon/CxH_vib/H2O_calc/ads_slab/CH3OHN2HO_a/out_0011/pw.inp
Warning: card &CELL ignored
Warning: card   CELL_DYNAMICS='IPI', ignored
Warning: card / ignored

     Current dimensions of program PWSCF are:
     Max number of different atomic species (ntypx) = 10
     Max number of k-points (npk) =  40000
     Max angular momentum in pseudopotentials (lmaxx) =  3
     Presently no symmetry can be used with electric field

     Message from routine cell_base_init:
     DEPRECATED: use true lattice parameter, not A to a.u. conversion factor

     IMPORTANT: XC functional enforced from input :
     Exchange-correlation= BEEF-VDW
                           (   1   4  43  14   2   0   0)
     Any further DFT definition will be discarded
     Please, verify this is what you really want

  @ DRIVER MODE: Connecting to
 qe_1139763_2971668.sched-torque.pace.gatech.edu7bb57faz_scratch
  using UNIX socket
  @ DRIVER MODE: Message from server: STATUS
  @ DRIVER MODE: Message from server: INIT
  @ DRIVER MODE: Receiving replica           0          -1
  @ DRIVER MODE: Receiving encoded integer          25
  @ DRIVER MODE:  SCF:  T  FORCE:  T  STRESS:  F  VC:  F  ENSEMBLE:  F
  @ DRIVER MODE:  SCF:  T  FORCE:  T  STRESS:  F  VC:  F  ENSEMBLE:  F

     Using Slab Decomposition

     bravais-lattice index     =            0
     lattice parameter (alat)  =       1.8897  a.u.
     unit-cell volume          =    6658.9804 (a.u.)^3
     number of atoms/cell      =           57
     number of atomic types    =            5
     number of electrons       =       409.00
     number of Kohn-Sham states=          214
     kinetic-energy cutoff     =      29.3995  Ry
     charge density cutoff     =     293.9946  Ry
     scf convergence threshold =      7.3E-08
     mixing beta               =       0.0500
     number of iterations used =            8  plain     mixing
     Exchange-correlation= BEEF-VDW
                           (   1   4  43  14   2   0   0)

     celldm(1)=   1.889726  celldm(2)=   0.000000  celldm(3)=   0.000000
     celldm(4)=   0.000000  celldm(5)=   0.000000  celldm(6)=   0.000000

     crystal axes: (cart. coord. in units of alat)
               a(1) = (   6.579727   0.000000   0.000000 )
               a(2) = (  -0.000775   5.961596   0.000000 )
               a(3) = (   0.000000   0.000000  25.155947 )

     reciprocal axes: (cart. coord. in units 2 pi/alat)
               b(1) = (  0.151982  0.000020  0.000000 )
               b(2) = (  0.000000  0.167740  0.000000 )
               b(3) = (  0.000000  0.000000  0.039752 )

     PseudoPot. # 1 for Ti read from file:
     /storage/coda1/p-amedford6/0/shared/rich_project_chbe-medford/medford-share/data/pseudos_module/espresso/nninc/pbe/van/Ti.UPF
     MD5 check sum: 8e4df49b7f0d34bbd5052bf3f5ea0213
     Pseudo is Ultrasoft, Zval = 12.0
     Generated by new atomic code, or converted to UPF format
     Using radial grid of  851 points,  6 beta functions with:
                l(1) =   0
                l(2) =   0
                l(3) =   1
                l(4) =   1
                l(5) =   2
                l(6) =   2
     Q(r) pseudized with  8 coefficients,  rinner =    1.000   1.000   1.000
                                                       1.000   1.000

     PseudoPot. # 2 for O  read from file:
     /storage/coda1/p-amedford6/0/shared/rich_project_chbe-medford/medford-share/data/pseudos_module/espresso/nninc/pbe/van/O.UPF
     MD5 check sum: 78c19812648e8988a0fe644b0f25305e
     Pseudo is Ultrasoft, Zval =  6.0
     Generated by new atomic code, or converted to UPF format
     Using radial grid of  737 points,  4 beta functions with:
                l(1) =   0
                l(2) =   0
                l(3) =   1
                l(4) =   1
     Q(r) pseudized with  8 coefficients,  rinner =    0.800   0.800   0.800

     PseudoPot. # 3 for C  read from file:
     /storage/coda1/p-amedford6/0/shared/rich_project_chbe-medford/medford-share/data/pseudos_module/espresso/nninc/pbe/van/C.UPF
     MD5 check sum: 1a69bf6b8db32088f5b2163dbdb77a27
     Pseudo is Ultrasoft, Zval =  4.0
     Generated by new atomic code, or converted to UPF format
     Using radial grid of  721 points,  4 beta functions with:
                l(1) =   0
                l(2) =   0
                l(3) =   1
                l(4) =   1
     Q(r) pseudized with  8 coefficients,  rinner =    0.800   0.800   0.800

     PseudoPot. # 4 for H  read from file:
     /storage/coda1/p-amedford6/0/shared/rich_project_chbe-medford/medford-share/data/pseudos_module/espresso/nninc/pbe/van/H.UPF
     MD5 check sum: b5ee9d7bfd3a09ee7748110bda690ff7
     Pseudo is Ultrasoft, Zval =  1.0
     Generated by new atomic code, or converted to UPF format
     Using radial grid of  615 points,  1 beta functions with:
                l(1) =   0
     Q(r) pseudized with  8 coefficients,  rinner =    0.800

     PseudoPot. # 5 for N  read from file:
     /storage/coda1/p-amedford6/0/shared/rich_project_chbe-medford/medford-share/data/pseudos_module/espresso/nninc/pbe/van/N.UPF
     MD5 check sum: 90d10febe142ad51ac9d5be1deb811c4
     Pseudo is Ultrasoft, Zval =  5.0
     Generated by new atomic code, or converted to UPF format
     Using radial grid of  729 points,  4 beta functions with:
                l(1) =   0
                l(2) =   0
                l(3) =   1
                l(4) =   1
     Q(r) pseudized with  8 coefficients,  rinner =    0.800   0.800   0.800

     atomic species   valence    mass     pseudopotential
        Ti1           12.00    47.86700     Ti( 1.00)
        O1             6.00    15.99900     O ( 1.00)
        C1             4.00    12.01100     C ( 1.00)
        H1             1.00     1.00800     H ( 1.00)
        N1             5.00    14.00700     N ( 1.00)

     No symmetry found

   Cartesian axes

     site n.     atom                  positions (alat units)
         1           Ti1 tau(   1) = (   0.0004258   2.9801865   6.0000000  )
         2           Ti1 tau(   2) = (   3.2906075   1.4906267   6.0002472  )
         3           O1  tau(   3) = (   0.0006271   0.0005054   7.9858123  )
         4           O1  tau(   4) = (   3.2906025   0.0005020   7.3038282  )
         5           O1  tau(   5) = (   4.5942328   1.4918067   9.2879030  )
         6           O1  tau(   6) = (   1.9868534   1.4903216   9.2879459  )
         7           Ti1 tau(   7) = (   3.3371032   3.0268772   9.1887580  )
         8           Ti1 tau(   8) = (   0.0611061   1.5258697   9.2809523  )
         9           O1  tau(   9) = (   3.3143856   0.0188946  11.3581724  )
        10           O1  tau(  10) = (   0.0164151   0.0031400  10.5895864  )
        11           O1  tau(  11) = (   1.3088961   1.4994640  12.6347600  )
        12           O1  tau(  12) = (   5.3347766   1.4946156  12.6347356  )
        13           Ti1 tau(  13) = (   0.0202478   3.0292801  12.5720800  )
        14           Ti1 tau(  14) = (   3.3188568   1.5851219  12.4260843  )
        15           O1  tau(  15) = (   0.0445434   5.9450813  14.6510506  )
        16           O1  tau(  16) = (   3.3207065   5.8849141  14.0104376  )
        17           O1  tau(  17) = (   4.6249962   1.5116716  16.1313945  )
        18           O1  tau(  18) = (   2.0639035   1.5439872  16.0680944  )
        19           Ti1 tau(  19) = (   3.3360141   2.9454253  15.6763505  )
        20           Ti1 tau(  20) = (   0.0686920   1.3314864  15.9334539  )
        21           O1  tau(  21) = (   3.2904802   0.0005063   4.7018136  )
        22           O1  tau(  22) = (   0.0979609   0.0039778  17.1657837  )
        23           O1  tau(  23) = (   1.3043587   1.4918075   6.0039043  )
        24           O1  tau(  24) = (   5.2767064   1.4903225   6.0039473  )
        25           Ti1 tau(  25) = (   0.0000382   5.9609847   6.0000000  )
        26           Ti1 tau(  26) = (   3.2902200   4.4714249   6.0002472  )
        27           O1  tau(  27) = (   0.0002396   2.9813036   7.9858123  )
        28           O1  tau(  28) = (   3.2902150   2.9813002   7.3038282  )
        29           O1  tau(  29) = (   4.5938453   4.4726049   9.2879030  )
        30           O1  tau(  30) = (   1.9864658   4.4711199   9.2879459  )
        31           Ti1 tau(  31) = (   3.3368545   0.0404040   9.1664313  )
        32           Ti1 tau(  32) = (   0.0604674   4.4799263   9.2696248  )
        33           O1  tau(  33) = (   3.3137611   2.9662427  11.3084074  )
        34           O1  tau(  34) = (   0.0134136   2.9850836  10.6046154  )
        35           O1  tau(  35) = (   1.3054726   4.4719986  12.6384794  )
        36           O1  tau(  36) = (   5.3362180   4.4781181  12.6390536  )
        37           Ti1 tau(  37) = (   0.0365240   0.0487139  12.4702884  )
        38           Ti1 tau(  38) = (   3.3180881   4.6653017  12.7087268  )
        39           O1  tau(  39) = (   0.0228105   2.9918545  14.7761892  )
        40           O1  tau(  40) = (   3.3431522   2.9700269  13.9040455  )
        41           O1  tau(  41) = (   4.6265974   4.4152401  16.1544535  )
        42           O1  tau(  42) = (   2.0571238   4.3592187  16.1146037  )
        43           Ti1 tau(  43) = (   3.3848590   5.9294639  16.2700006  )
        44           Ti1 tau(  44) = (   0.0517009   4.5268197  15.8466567  )
        45           O1  tau(  45) = (   3.2900926   2.9813045   4.7018136  )
        46           O1  tau(  46) = (   1.3039711   4.4726057   6.0039043  )
        47           O1  tau(  47) = (   5.2763189   4.4711207   6.0039473  )
        48           C1  tau(  48) = (   5.9450987   3.0517216  18.8599509  )
        49           O1  tau(  49) = (   0.1802289   3.0084098  17.6384507  )
        50           H1  tau(  50) = (   4.9625852   2.6832861  18.5889656  )
        51           H1  tau(  51) = (   1.1163247   3.1442434  17.8758057  )
        52           H1  tau(  52) = (   6.3899442   2.3914015  19.6026461  )
        53           H1  tau(  53) = (   5.8846647   4.0795385  19.2151274  )
        54           N1  tau(  54) = (   5.7598779   3.1323611  22.9045362  )
        55           N1  tau(  55) = (   4.9845974   3.1850264  22.1203839  )
        56           O1  tau(  56) = (   3.1467188   0.0118795  18.1166202  )
        57           H1  tau(  57) = (   2.2164505   0.0865285  18.3868412  )

     number of k points=    10  Fermi-Dirac smearing, width (Ry)=  0.0073
                       cart. coord. in units 2pi/alat
        k(    1) = (   0.0000000   0.0000000   0.0000000), wk =   0.1250000
        k(    2) = (   0.0000000   0.0419351   0.0000000), wk =   0.2500000
        k(    3) = (   0.0000000  -0.0838702   0.0000000), wk =   0.1250000
        k(    4) = (   0.0379955   0.0000049   0.0000000), wk =   0.2500000
        k(    5) = (   0.0379955   0.0419400   0.0000000), wk =   0.2500000
        k(    6) = (   0.0379955  -0.0838652   0.0000000), wk =   0.2500000
        k(    7) = (   0.0379955  -0.0419301   0.0000000), wk =   0.2500000
        k(    8) = (  -0.0759910  -0.0000099   0.0000000), wk =   0.1250000
        k(    9) = (  -0.0759910   0.0419252   0.0000000), wk =   0.2500000
        k(   10) = (  -0.0759910  -0.0838800   0.0000000), wk =   0.1250000

     Initial potential from superposition of free atoms

     starting charge  392.99914, renormalised to  409.00000

     negative rho (up, down):  9.139E-03 0.000E+00

     %%%%%%%%%%%%%%%%%%%%%%%%%%%%%%%%%%%%%%%%%%%%%%%%%%%%%%%%%%%%%%%%%%%%%%%%
     %                                                                      %
     % You are using vdW-DF, which was implemented by the Thonhauser group. %
     % Please cite the following two papers that made this development      %
     % possible and the two reviews that describe the various versions:     %
     %                                                                      %
     %   T. Thonhauser et al., PRL 115, 136402 (2015).                      %
     %   T. Thonhauser et al., PRB 76, 125112 (2007).                       %
     %   K. Berland et al., Rep. Prog. Phys. 78, 066501 (2015).             %
     %   D.C. Langreth et al., J. Phys.: Condens. Matter 21, 084203 (2009). %
     %                                                                      %
     %                                                                      %
     % If you are calculating the stress with vdW-DF, please also cite:     %
     %                                                                      %
     %   R. Sabatini et al., J. Phys.: Condens. Matter 24, 424209 (2012).   %
     %                                                                      %
     %%%%%%%%%%%%%%%%%%%%%%%%%%%%%%%%%%%%%%%%%%%%%%%%%%%%%%%%%%%%%%%%%%%%%%%%

     Adding external electric field

     Computed dipole along edir(3) :
        Dipole              -18.8641 Ry au,        -47.9477 Debye
        Dipole field         -0.0356 Ry au,

        Potential amp.        3.3000 Ry
        Total length         46.3494 bohr

     Starting wfcs are  309 atomic wfcs
  @ DRIVER MODE: Message from server: STATUS
  @ DRIVER MODE: Message from server: POSDATA
  @ DRIVER MODE: Reading and sharing cell
  @ DRIVER MODE: Reading and sharing positions
  @ DRIVER MODE: Received positions

     Self-consistent Calculation

     iteration #  1     ecut=    29.40 Ry     beta= 0.05
     Davidson diagonalization with overlap
     c_bands:  5 eigenvalues not converged
     c_bands:  5 eigenvalues not converged
     c_bands:  1 eigenvalues not converged
     c_bands:  4 eigenvalues not converged
     c_bands:  1 eigenvalues not converged
     c_bands:  4 eigenvalues not converged
     ethr =  1.00E-05,  avg # of iterations = 27.3

[...]

     total energy              =   -2113.24268799 Ry
     estimated scf accuracy    <   10330.31520762 Ry

     iteration #  2     ecut=    29.40 Ry     beta= 0.05
     Davidson diagonalization with overlap
     ethr =  1.00E-02,  avg # of iterations = 29.4

[...]

     iteration # 71     ecut=    29.40 Ry     beta= 0.05
     Davidson diagonalization with overlap
     c_bands:  1 eigenvalues not converged
     ethr =  3.41E-11,  avg # of iterations = 13.9

[...]

     total energy              =   -3006.45822294 Ry
     estimated scf accuracy    <       0.00000009 Ry

     iteration # 76     ecut=    29.40 Ry     beta= 0.05
     Davidson diagonalization with overlap
     ethr =  2.11E-11,  avg # of iterations =  5.9

     negative rho (up, down):  1.064E-02 0.000E+00

     Adding external electric field

     Computed dipole along edir(3) :
        Dipole                1.0594 Ry au,          2.6927 Debye
        Dipole field          0.0020 Ry au,

        Potential amp.       -0.1853 Ry
        Total length         46.3494 bohr

     End of self-consistent calculation

          k = 0.0000 0.0000 0.0000 ( 18029 PWs)   bands (ev):

   -55.3218 -55.2450 -55.2098 -55.1355 -55.1129 -55.0790 -55.0430 -55.0380
   -55.0364 -55.0175 -55.0075 -54.9776 -54.8906 -54.8144 -54.2046 -54.1706
   -31.7230 -31.7138 -31.6277 -31.6151 -31.5751 -31.5607 -31.5375 -31.5342
   -31.4995 -31.4879 -31.4767 -31.4113 -31.3987 -31.3986 -31.3718 -31.3534
   -31.3451 -31.3282 -31.3264 -31.3152 -31.3084 -31.3038 -31.2578 -31.2556
   -31.2538 -31.2472 -31.2443 -31.2314 -31.2249 -31.2062 -31.1996 -31.1891
   -31.1874 -31.1675 -31.1628 -31.1549 -31.1531 -31.1197 -31.0793 -31.0598
   -31.0287 -31.0183 -30.6108 -30.5245 -30.5019 -30.4278 -30.3415 -30.2298
   -21.5232 -19.6718 -16.1323 -15.8971 -15.7177 -15.5158 -15.4585 -15.3927
   -15.2049 -15.1319 -14.9761 -14.8507 -14.8371 -14.7795 -14.7786 -14.7684
   -14.7392 -14.7145 -14.6692 -14.6578 -14.6524 -14.6489 -14.5872 -14.5449
   -14.5427 -14.5151 -14.4944 -14.3673 -14.3201 -14.2657 -14.0956 -14.0739
   -12.7044 -12.5882 -10.5662  -6.7009  -6.3944  -4.6779  -4.6463  -4.5863
    -4.3995  -3.6490  -3.3872  -3.2463  -3.1459  -3.1272  -3.0629  -3.0124
    -2.7969  -2.7085  -2.6276  -2.5154  -2.3875  -2.3551  -2.3190  -2.2696
    -2.1779  -2.1611  -2.1275  -2.1005  -2.0431  -2.0144  -2.0068  -1.9966
    -1.9198  -1.9118  -1.7824  -1.7771  -1.7214  -1.6293  -1.6115  -1.5894
    -1.5825  -1.5465  -1.5452  -1.5019  -1.4783  -1.4555  -1.4322  -1.3533
    -1.3322  -1.2697  -1.2306  -1.0031  -0.8461  -0.8209  -0.7400  -0.7243
    -0.6963  -0.6625  -0.6428  -0.6329  -0.5952  -0.5794  -0.4757  -0.3736
    -0.3652  -0.3042  -0.2667  -0.2616  -0.1259  -0.0821  -0.0069   0.0158
     0.0479   0.0692   0.1533   0.2024   0.2239   0.2903   0.3214   0.4276
     0.4648   0.4842   0.5252   0.5811   0.6413   0.6743   0.7147   0.7181
     0.7508   0.7999   0.8288   0.8642   0.8862   0.9337   1.0363   1.0734
     1.0841   1.2231   1.2354   1.3181   1.4428   1.4946   1.7677   1.8202
     1.8670   2.0126   2.3890   2.4359   3.8788   3.9810   4.0024   4.0237
     4.0915   4.1734   4.3387   4.3617   4.4257   4.5273

[...]

          k = 0.0380-0.0419 0.0000 ( 17876 PWs)   bands (ev):

[...]

          k =-0.0760-0.0000 0.0000 ( 17886 PWs)   bands (ev):

[...]

          k =-0.0760-0.0839 0.0000 ( 17948 PWs)   bands (ev):

   -55.3210 -55.2320 -55.2228 -55.1295 -55.1085 -55.0847 -55.0417 -55.0376
   -55.0291 -55.0208 -55.0085 -54.9868 -54.8869 -54.8180 -54.1878 -54.1873
   -31.6331 -31.5713 -31.5615 -31.5430 -31.5351 -31.5340 -31.5281 -31.5122
   -31.4498 -31.4455 -31.4063 -31.3846 -31.3735 -31.3682 -31.3519 -31.3496
   -31.3461 -31.3438 -31.3375 -31.3315 -31.3264 -31.3246 -31.3092 -31.3071
   -31.2879 -31.2775 -31.2479 -31.2415 -31.2390 -31.2348 -31.2269 -31.2255
   -31.2189 -31.2142 -31.2103 -31.2059 -31.2035 -31.1650 -31.1464 -31.0834
   -31.0658 -31.0222 -30.5148 -30.5145 -30.4246 -30.4230 -30.3848 -30.3838
   -21.5231 -19.6679 -16.1092 -15.5254 -15.3707 -15.1996 -15.1856 -15.1064
   -15.0148 -14.9972 -14.9671 -14.9538 -14.9361 -14.9117 -14.9037 -14.8683
   -14.8054 -14.7635 -14.7403 -14.7320 -14.6851 -14.6799 -14.6764 -14.6136
   -14.6063 -14.5882 -14.5635 -14.5036 -14.4937 -14.3942 -14.3802 -14.2069
   -12.6905 -12.6897 -10.5682  -6.7012  -6.3967  -4.6755  -4.6532  -4.5709
    -4.3920  -3.6142  -3.3776  -2.6751  -2.5976  -2.5651  -2.4234  -2.3450
    -2.2937  -2.2426  -2.2211  -2.1755  -2.1546  -2.0851  -2.0501  -2.0412
    -2.0223  -2.0201  -1.9898  -1.9738  -1.9606  -1.9404  -1.9118  -1.8947
    -1.8842  -1.8634  -1.8431  -1.8183  -1.8052  -1.7955  -1.7806  -1.7652
    -1.6542  -1.6377  -1.6044  -1.4453  -1.4318  -1.3613  -1.3295  -1.3035
    -1.3004  -1.2696  -1.2558  -1.2162  -1.1118  -1.0789  -1.0295  -1.0056
    -0.8964  -0.8790  -0.8280  -0.7777  -0.7313  -0.7029  -0.6717  -0.6573
    -0.6048  -0.4648  -0.4436  -0.3996  -0.2800  -0.2065  -0.1908  -0.1783
    -0.1566  -0.1336  -0.0872  -0.0789  -0.0169  -0.0047   0.0662   0.0704
     0.0996   0.1209   0.2237   0.3454   0.4241   0.4685   0.5130   0.5624
     0.5950   0.6773   0.7546   0.8412   0.9169   0.9468   0.9606   1.0781
     1.1103   1.1629   1.2087   1.2293   1.2876   1.3234   1.3636   1.3968
     2.1813   2.1949   2.2512   2.2569   4.0598   4.3092   4.3696   4.3866
     4.3963   4.4286   4.4498   4.5013   4.5180   4.5415

     the Fermi energy is     3.8889 ev

!    total energy              =   -3006.45823470 Ry
     estimated scf accuracy    <       0.00000006 Ry
     smearing contrib. (-TS)   =      -0.02082942 Ry
     internal energy E=F+TS    =   -3006.43740529 Ry

     The total energy is F=E-TS. E is the sum of the following terms:
     one-electron contribution =  -22320.77599474 Ry
     hartree contribution      =   11259.96885705 Ry
     xc contribution           =    -501.13910410 Ry
     ewald contribution        =    8555.50671862 Ry
     electric field correction =       0.00211788 Ry

     convergence has been achieved in  76 iterations

     Forces acting on atoms (cartesian axes, Ry/au):

     atom    1 type  1   force =    -0.00037843   -0.00017358    0.09500069
     atom    2 type  1   force =    -0.00035675    0.00512843   -0.17480889
     atom    3 type  2   force =     0.00070982    0.00013022   -0.02672671
     atom    4 type  2   force =     0.00128940    0.00083248    0.05206807
     atom    5 type  2   force =    -0.01097054   -0.00256365    0.00076381
     atom    6 type  2   force =     0.01193463   -0.00381214    0.00177317
     atom    7 type  1   force =    -0.00021609    0.00039140    0.00065968
     atom    8 type  1   force =     0.00013627    0.00022608    0.00016957
     atom    9 type  2   force =     0.00024853    0.00075980   -0.00066235
     atom   10 type  2   force =    -0.00039156    0.00016071    0.00010389
     atom   11 type  2   force =     0.00045534   -0.00015051    0.00008770
     atom   12 type  2   force =    -0.00086303   -0.00015148    0.00034185
     atom   13 type  1   force =     0.00044186    0.00035540   -0.00014335
     atom   14 type  1   force =    -0.00034108   -0.00071063    0.00094320
     atom   15 type  2   force =    -0.00013727   -0.00046461   -0.00113503
     atom   16 type  2   force =    -0.00026339    0.00000814   -0.00019923
     atom   17 type  2   force =    -0.00103381    0.00028840    0.00004952
     atom   18 type  2   force =     0.00067863    0.00056647   -0.00012885
     atom   19 type  1   force =     0.00016105   -0.00080082    0.00007630
     atom   20 type  1   force =    -0.00018937    0.00016029    0.00003728
     atom   21 type  2   force =    -0.00000481    0.00007576    0.10305043
     atom   22 type  2   force =    -0.00002158   -0.00012917    0.00127514
     atom   23 type  2   force =    -0.07195745    0.00013857   -0.02801519
     atom   24 type  2   force =     0.07179369    0.00063472   -0.02811870
     atom   25 type  1   force =    -0.00036063    0.00025631    0.10244997
     atom   26 type  1   force =    -0.00010767   -0.00474860   -0.17505359
     atom   27 type  2   force =     0.00085021    0.00117091   -0.02484578
     atom   28 type  2   force =     0.00119721    0.00025447    0.05169959
     atom   29 type  2   force =    -0.01193070    0.00381318    0.00170842
     atom   30 type  2   force =     0.01376294    0.00146539    0.00243864
     atom   31 type  1   force =    -0.00029054   -0.00016175    0.00080917
     atom   32 type  1   force =     0.00028182    0.00028722    0.00059528
     atom   33 type  2   force =     0.00000645    0.00020712    0.00008334
     atom   34 type  2   force =    -0.00027273   -0.00032554   -0.00061327
     atom   35 type  2   force =    -0.00021295    0.00004776   -0.00049093
     atom   36 type  2   force =    -0.00039653    0.00009334   -0.00010858
     atom   37 type  1   force =    -0.00005425   -0.00034621    0.00012908
     atom   38 type  1   force =    -0.00057506    0.00027800    0.00000784
     atom   39 type  2   force =    -0.00027743   -0.00023102    0.00040915
     atom   40 type  2   force =    -0.00019843    0.00011964    0.00030751
     atom   41 type  2   force =    -0.00149259   -0.00022367   -0.00001010
     atom   42 type  2   force =     0.00136232    0.00003545   -0.00060179
     atom   43 type  1   force =    -0.00024549    0.00051531   -0.00025137
     atom   44 type  1   force =    -0.00004231    0.00001364   -0.00034452
     atom   45 type  2   force =     0.00000178    0.00013985    0.10263725
     atom   46 type  2   force =    -0.07185052   -0.00062522   -0.02796312
     atom   47 type  2   force =     0.07170867   -0.00013460   -0.02803707
     atom   48 type  3   force =     0.00016065   -0.00046546   -0.00533817
     atom   49 type  2   force =    -0.00014055    0.00025973    0.01173314
     atom   50 type  4   force =    -0.00000337   -0.00042159   -0.00013762
     atom   51 type  4   force =    -0.00318750   -0.00035823   -0.00366140
     atom   52 type  4   force =     0.00078548   -0.00003327   -0.00168302
     atom   53 type  4   force =     0.00062026   -0.00040523   -0.00196409
     atom   54 type  5   force =     0.00016368   -0.00008194    0.00039384
     atom   55 type  5   force =    -0.00051338    0.00006461   -0.00035929
     atom   56 type  2   force =     0.00081332   -0.00055411    0.00087823
     atom   57 type  4   force =    -0.00028623   -0.00080581   -0.00127872

     Total force =     0.365098     Total SCF correction =     0.000686
  @ DRIVER MODE: Message from server: STATUS
  @ DRIVER MODE: Message from server: GETFORCE
  @ DRIVER MODE: Returning v,forces,stress,ensemble

     Writing output data file ./calc.save/
  @ DRIVER MODE: Message from server: EXIT
  @ DRIVE MODE: Exiting

     General routines

     Parallel routines

   This run was terminated on:  20:58:18  25Sep2021

   JOB DONE.