     Program PWSCF v.6.7GPU starts on 26Sep2021 at  8:45:21

     R & G space division:  proc/nbgrp/npool/nimage =       8
     Reading input from /storage/home/hcoda1/3/ntian30/research/carbon/CxH_vib/H2O_calc/ads_slab/CH3ON2H2O_a/out_0036/pw.inp
Warning: card &CELL ignored
Warning: card   CELL_DYNAMICS='IPI', ignored
Warning: card / ignored

     Current dimensions of program PWSCF are:
     Max number of different atomic species (ntypx) = 10
     Max number of k-points (npk) =  40000
     Max angular momentum in pseudopotentials (lmaxx) =  3
     Presently no symmetry can be used with electric field

     Message from routine cell_base_init:
     DEPRECATED: use true lattice parameter, not A to a.u. conversion factor

     IMPORTANT: XC functional enforced from input :
     Exchange-correlation= BEEF-VDW
                           (   1   4  43  14   2   0   0)
     Any further DFT definition will be discarded
     Please, verify this is what you really want

  @ DRIVER MODE: Connecting to
 qe_1139763_2971672.sched-torque.pace.gatech.edujgfq276n_scratch
  using UNIX socket
  @ DRIVER MODE: Message from server: STATUS
  @ DRIVER MODE: Message from server: INIT
  @ DRIVER MODE: Receiving replica           0          -1
  @ DRIVER MODE: Receiving encoded integer          25
  @ DRIVER MODE:  SCF:  T  FORCE:  T  STRESS:  F  VC:  F  ENSEMBLE:  F
  @ DRIVER MODE:  SCF:  T  FORCE:  T  STRESS:  F  VC:  F  ENSEMBLE:  F

     Using Slab Decomposition

     bravais-lattice index     =            0
     lattice parameter (alat)  =       1.8897  a.u.
     unit-cell volume          =    6658.9804 (a.u.)^3
     number of atoms/cell      =           57
     number of atomic types    =            5
     number of electrons       =       409.00
     number of Kohn-Sham states=          214
     kinetic-energy cutoff     =      29.3995  Ry
     charge density cutoff     =     293.9946  Ry
     scf convergence threshold =      7.3E-08
     mixing beta               =       0.0500
     number of iterations used =            8  plain     mixing
     Exchange-correlation= BEEF-VDW
                           (   1   4  43  14   2   0   0)

     celldm(1)=   1.889726  celldm(2)=   0.000000  celldm(3)=   0.000000
     celldm(4)=   0.000000  celldm(5)=   0.000000  celldm(6)=   0.000000

     crystal axes: (cart. coord. in units of alat)
               a(1) = (   6.579727   0.000000   0.000000 )
               a(2) = (  -0.000775   5.961596   0.000000 )
               a(3) = (   0.000000   0.000000  25.155947 )

     reciprocal axes: (cart. coord. in units 2 pi/alat)
               b(1) = (  0.151982  0.000020  0.000000 )
               b(2) = (  0.000000  0.167740  0.000000 )
               b(3) = (  0.000000  0.000000  0.039752 )

     PseudoPot. # 1 for Ti read from file:
     /storage/coda1/p-amedford6/0/shared/rich_project_chbe-medford/medford-share/data/pseudos_module/espresso/nninc/pbe/van/Ti.UPF
     MD5 check sum: 8e4df49b7f0d34bbd5052bf3f5ea0213
     Pseudo is Ultrasoft, Zval = 12.0
     Generated by new atomic code, or converted to UPF format
     Using radial grid of  851 points,  6 beta functions with:
                l(1) =   0
                l(2) =   0
                l(3) =   1
                l(4) =   1
                l(5) =   2
                l(6) =   2
     Q(r) pseudized with  8 coefficients,  rinner =    1.000   1.000   1.000
                                                       1.000   1.000

     PseudoPot. # 2 for O  read from file:
     /storage/coda1/p-amedford6/0/shared/rich_project_chbe-medford/medford-share/data/pseudos_module/espresso/nninc/pbe/van/O.UPF
     MD5 check sum: 78c19812648e8988a0fe644b0f25305e
     Pseudo is Ultrasoft, Zval =  6.0
     Generated by new atomic code, or converted to UPF format
     Using radial grid of  737 points,  4 beta functions with:
                l(1) =   0
                l(2) =   0
                l(3) =   1
                l(4) =   1
     Q(r) pseudized with  8 coefficients,  rinner =    0.800   0.800   0.800

     PseudoPot. # 3 for C  read from file:
     /storage/coda1/p-amedford6/0/shared/rich_project_chbe-medford/medford-share/data/pseudos_module/espresso/nninc/pbe/van/C.UPF
     MD5 check sum: 1a69bf6b8db32088f5b2163dbdb77a27
     Pseudo is Ultrasoft, Zval =  4.0
     Generated by new atomic code, or converted to UPF format
     Using radial grid of  721 points,  4 beta functions with:
                l(1) =   0
                l(2) =   0
                l(3) =   1
                l(4) =   1
     Q(r) pseudized with  8 coefficients,  rinner =    0.800   0.800   0.800

     PseudoPot. # 4 for H  read from file:
     /storage/coda1/p-amedford6/0/shared/rich_project_chbe-medford/medford-share/data/pseudos_module/espresso/nninc/pbe/van/H.UPF
     MD5 check sum: b5ee9d7bfd3a09ee7748110bda690ff7
     Pseudo is Ultrasoft, Zval =  1.0
     Generated by new atomic code, or converted to UPF format
     Using radial grid of  615 points,  1 beta functions with:
                l(1) =   0
     Q(r) pseudized with  8 coefficients,  rinner =    0.800

     PseudoPot. # 5 for N  read from file:
     /storage/coda1/p-amedford6/0/shared/rich_project_chbe-medford/medford-share/data/pseudos_module/espresso/nninc/pbe/van/N.UPF
     MD5 check sum: 90d10febe142ad51ac9d5be1deb811c4
     Pseudo is Ultrasoft, Zval =  5.0
     Generated by new atomic code, or converted to UPF format
     Using radial grid of  729 points,  4 beta functions with:
                l(1) =   0
                l(2) =   0
                l(3) =   1
                l(4) =   1
     Q(r) pseudized with  8 coefficients,  rinner =    0.800   0.800   0.800

     atomic species   valence    mass     pseudopotential
        Ti1           12.00    47.86700     Ti( 1.00)
        O1             6.00    15.99900     O ( 1.00)
        C1             4.00    12.01100     C ( 1.00)
        H1             1.00     1.00800     H ( 1.00)
        N1             5.00    14.00700     N ( 1.00)

     No symmetry found

   Cartesian axes

     site n.     atom                  positions (alat units)
         1           Ti1 tau(   1) = (   0.0004258   2.9801865   6.0000000  )
         2           Ti1 tau(   2) = (   3.2906075   1.4906267   6.0002472  )
         3           O1  tau(   3) = (   0.0006271   0.0005054   7.9858123  )
         4           O1  tau(   4) = (   3.2906025   0.0005020   7.3038282  )
         5           O1  tau(   5) = (   4.5942328   1.4918067   9.2879030  )
         6           O1  tau(   6) = (   1.9868534   1.4903216   9.2879459  )
         7           Ti1 tau(   7) = (   3.3113259   3.0354369   9.1618307  )
         8           Ti1 tau(   8) = (   0.0141821   1.6139659   9.3625064  )
         9           O1  tau(   9) = (   3.2964399   0.0287090  11.3517035  )
        10           O1  tau(  10) = (   0.0046459   0.0167322  10.6079620  )
        11           O1  tau(  11) = (   1.2916403   1.5142126  12.6509924  )
        12           O1  tau(  12) = (   5.2954765   1.5212855  12.6445515  )
        13           Ti1 tau(  13) = (   0.0303381   3.0181167  12.7741416  )
        14           Ti1 tau(  14) = (   3.3376880   1.5190318  12.5019279  )
        15           O1  tau(  15) = (   6.5702980   0.0162101  14.7136675  )
        16           O1  tau(  16) = (   3.3118210   0.0215951  13.9605728  )
        17           O1  tau(  17) = (   4.5586303   1.5408398  16.0643691  )
        18           O1  tau(  18) = (   2.0376984   1.5397913  16.0346728  )
        19           Ti1 tau(  19) = (   3.2806018   3.0126274  15.6982083  )
        20           Ti1 tau(  20) = (   0.0204579   1.3876160  16.0921805  )
        21           O1  tau(  21) = (   3.2904802   0.0005063   4.7018136  )
        22           O1  tau(  22) = (   0.0362274   0.0182013  17.2505027  )
        23           O1  tau(  23) = (   1.3043587   1.4918075   6.0039043  )
        24           O1  tau(  24) = (   5.2767064   1.4903225   6.0039473  )
        25           Ti1 tau(  25) = (   0.0000382   5.9609847   6.0000000  )
        26           Ti1 tau(  26) = (   3.2902200   4.4714249   6.0002472  )
        27           O1  tau(  27) = (   0.0002396   2.9813036   7.9858123  )
        28           O1  tau(  28) = (   3.2902150   2.9813002   7.3038282  )
        29           O1  tau(  29) = (   4.5938453   4.4726049   9.2879030  )
        30           O1  tau(  30) = (   1.9864658   4.4711199   9.2879459  )
        31           Ti1 tau(  31) = (   3.2918133   0.0584897   9.1554610  )
        32           Ti1 tau(  32) = (   0.0176696   4.5429683   9.2683582  )
        33           O1  tau(  33) = (   3.2944385   3.0046939  11.3531965  )
        34           O1  tau(  34) = (   0.0071923   2.9964285  10.5824339  )
        35           O1  tau(  35) = (   1.2923070   4.5060354  12.6395470  )
        36           O1  tau(  36) = (   5.2930342   4.4972821  12.6335129  )
        37           Ti1 tau(  37) = (   0.0360028   0.0369787  12.5252624  )
        38           Ti1 tau(  38) = (   3.3378333   4.5109478  12.5016189  )
        39           O1  tau(  39) = (   0.0182598   3.0415135  14.6926035  )
        40           O1  tau(  40) = (   3.2973286   3.0139918  13.9115332  )
        41           O1  tau(  41) = (   4.5518717   4.4752506  16.0920674  )
        42           O1  tau(  42) = (   2.0385343   4.4722040  16.0556704  )
        43           Ti1 tau(  43) = (   3.3273276   0.0437280  15.7880462  )
        44           Ti1 tau(  44) = (   0.0148993   4.5306414  15.9319406  )
        45           O1  tau(  45) = (   3.2900926   2.9813045   4.7018136  )
        46           O1  tau(  46) = (   1.3039711   4.4726057   6.0039043  )
        47           O1  tau(  47) = (   5.2763189   4.4711207   6.0039473  )
        48           C1  tau(  48) = (   6.0619278   3.0088867  18.6555636  )
        49           O1  tau(  49) = (   6.5788924   2.9994598  17.3400993  )
        50           H1  tau(  50) = (   4.9713474   2.8828304  18.6515055  )
        51           H1  tau(  51) = (   6.4909130   2.1836263  19.2313859  )
        52           H1  tau(  52) = (   6.3070107   3.9563896  19.1453893  )
        53           N1  tau(  53) = (   5.9950546   3.0301018  22.7259517  )
        54           N1  tau(  54) = (   5.2276613   3.1827328  21.9368001  )
        55           O1  tau(  55) = (   3.1818816   0.0591848  18.2205797  )
        56           H1  tau(  56) = (   3.8437189   5.3938241  18.5518935  )
        57           H1  tau(  57) = (   2.3086839   5.6188137  18.3735615  )

     number of k points=    10  Fermi-Dirac smearing, width (Ry)=  0.0073
                       cart. coord. in units 2pi/alat
        k(    1) = (   0.0000000   0.0000000   0.0000000), wk =   0.1250000
        k(    2) = (   0.0000000   0.0419351   0.0000000), wk =   0.2500000
        k(    3) = (   0.0000000  -0.0838702   0.0000000), wk =   0.1250000
        k(    4) = (   0.0379955   0.0000049   0.0000000), wk =   0.2500000
        k(    5) = (   0.0379955   0.0419400   0.0000000), wk =   0.2500000
        k(    6) = (   0.0379955  -0.0838652   0.0000000), wk =   0.2500000
        k(    7) = (   0.0379955  -0.0419301   0.0000000), wk =   0.2500000
        k(    8) = (  -0.0759910  -0.0000099   0.0000000), wk =   0.1250000
        k(    9) = (  -0.0759910   0.0419252   0.0000000), wk =   0.2500000
        k(   10) = (  -0.0759910  -0.0838800   0.0000000), wk =   0.1250000

     Initial potential from superposition of free atoms

     starting charge  392.99914, renormalised to  409.00000

     negative rho (up, down):  9.724E-03 0.000E+00

     %%%%%%%%%%%%%%%%%%%%%%%%%%%%%%%%%%%%%%%%%%%%%%%%%%%%%%%%%%%%%%%%%%%%%%%%
     %                                                                      %
     % You are using vdW-DF, which was implemented by the Thonhauser group. %
     % Please cite the following two papers that made this development      %
     % possible and the two reviews that describe the various versions:     %
     %                                                                      %
     %   T. Thonhauser et al., PRL 115, 136402 (2015).                      %
     %   T. Thonhauser et al., PRB 76, 125112 (2007).                       %
     %   K. Berland et al., Rep. Prog. Phys. 78, 066501 (2015).             %
     %   D.C. Langreth et al., J. Phys.: Condens. Matter 21, 084203 (2009). %
     %                                                                      %
     %                                                                      %
     % If you are calculating the stress with vdW-DF, please also cite:     %
     %                                                                      %
     %   R. Sabatini et al., J. Phys.: Condens. Matter 24, 424209 (2012).   %
     %                                                                      %
     %%%%%%%%%%%%%%%%%%%%%%%%%%%%%%%%%%%%%%%%%%%%%%%%%%%%%%%%%%%%%%%%%%%%%%%%

     Adding external electric field

     Computed dipole along edir(3) :
        Dipole              -18.5754 Ry au,        -47.2140 Debye
        Dipole field         -0.0351 Ry au,

        Potential amp.        3.2495 Ry
        Total length         46.3494 bohr

     Starting wfcs are  309 atomic wfcs
  @ DRIVER MODE: Message from server: STATUS
  @ DRIVER MODE: Message from server: POSDATA
  @ DRIVER MODE: Reading and sharing cell
  @ DRIVER MODE: Reading and sharing positions
  @ DRIVER MODE: Received positions

     Self-consistent Calculation

     iteration #  1     ecut=    29.40 Ry     beta= 0.05
     Davidson diagonalization with overlap
     c_bands:  3 eigenvalues not converged
     c_bands:  2 eigenvalues not converged
     c_bands:  2 eigenvalues not converged
     c_bands:  5 eigenvalues not converged
     c_bands:  5 eigenvalues not converged
     c_bands:  5 eigenvalues not converged
     c_bands:  1 eigenvalues not converged
     c_bands:  2 eigenvalues not converged
     ethr =  1.00E-05,  avg # of iterations = 28.5

[...]

     total energy              =   -2113.22880733 Ry
     estimated scf accuracy    <   10297.04983648 Ry

     iteration #  2     ecut=    29.40 Ry     beta= 0.05
     Davidson diagonalization with overlap
     ethr =  1.00E-02,  avg # of iterations = 30.9

[...]

     iteration # 91     ecut=    29.40 Ry     beta= 0.05
     Davidson diagonalization with overlap
     c_bands:  1 eigenvalues not converged
     ethr =  2.25E-10,  avg # of iterations = 14.8

[...]

     total energy              =   -3006.52105925 Ry
     estimated scf accuracy    <       0.00000012 Ry

     iteration # 95     ecut=    29.40 Ry     beta= 0.05
     Davidson diagonalization with overlap
     ethr =  2.90E-11,  avg # of iterations = 11.4

     negative rho (up, down):  1.091E-02 0.000E+00

     Adding external electric field

     Computed dipole along edir(3) :
        Dipole                0.9971 Ry au,          2.5344 Debye
        Dipole field          0.0019 Ry au,

        Potential amp.       -0.1744 Ry
        Total length         46.3494 bohr

     End of self-consistent calculation

          k = 0.0000 0.0000 0.0000 ( 18029 PWs)   bands (ev):

   -55.2848 -55.2501 -55.2489 -55.2137 -55.1911 -55.1756 -55.1680 -55.1324
   -55.0816 -55.0634 -55.0480 -55.0402 -55.0063 -54.9523 -54.2917 -54.2576
   -31.8071 -31.7541 -31.6769 -31.6450 -31.6235 -31.5766 -31.5593 -31.5556
   -31.5195 -31.5144 -31.4776 -31.4640 -31.4574 -31.4484 -31.4444 -31.4314
   -31.4253 -31.3892 -31.3839 -31.3764 -31.3720 -31.3531 -31.3494 -31.3403
   -31.3325 -31.3264 -31.3107 -31.2893 -31.2788 -31.2731 -31.2699 -31.2627
   -31.2597 -31.2440 -31.2312 -31.2211 -31.2194 -31.1847 -31.1697 -31.1493
   -31.1370 -31.1356 -30.7010 -30.6052 -30.5828 -30.5176 -30.4315 -30.3204
   -21.3129 -18.7334 -17.1970 -15.9993 -15.7290 -15.5686 -15.4376 -15.4024
   -15.2152 -15.0937 -14.9610 -14.9368 -14.8832 -14.8557 -14.8214 -14.8108
   -14.8060 -14.7936 -14.7853 -14.7388 -14.7042 -14.6870 -14.6864 -14.6630
   -14.6143 -14.5607 -14.4956 -14.4307 -14.4023 -14.3604 -14.2913 -14.2832
   -12.7926 -12.6747  -9.1218  -6.6509  -6.5268  -4.5053  -4.4937  -3.9147
    -3.7648  -3.4698  -3.3629  -3.2792  -3.2112  -3.1889  -3.1673  -3.0919
    -2.9811  -2.8449  -2.7493  -2.5102  -2.4548  -2.4121  -2.3804  -2.3513
    -2.1946  -2.1699  -2.1013  -2.0901  -2.0814  -2.0707  -2.0436  -2.0145
    -1.9888  -1.9570  -1.8979  -1.8737  -1.8034  -1.6724  -1.6639  -1.6319
    -1.5857  -1.5692  -1.5674  -1.5410  -1.4968  -1.4779  -1.4535  -1.4480
    -1.3510  -1.2587  -1.2159  -1.1216  -1.0421  -0.9693  -0.8464  -0.8078
    -0.7346  -0.7014  -0.6855  -0.6316  -0.5824  -0.5718  -0.5134  -0.4665
    -0.3590  -0.3162  -0.2745  -0.2372  -0.1862  -0.1420  -0.0712  -0.0377
    -0.0054  -0.0009   0.0202   0.2186   0.2300   0.2812   0.2940   0.3910
     0.4434   0.4781   0.4912   0.5004   0.5385   0.6142   0.6696   0.6781
     0.7098   0.7458   0.7651   0.8114   0.8523   0.9045   0.9340   0.9688
     1.0354   1.0759   1.2297   1.3247   1.3682   1.4845   1.6410   1.7322
     1.8064   1.9063   2.3190   2.3764   3.8968   3.9310   3.9576   3.9761
     4.0440   4.1430   4.2597   4.3505   4.3601   4.3906

[...]

          k = 0.0380-0.0419 0.0000 ( 17876 PWs)   bands (ev):

[...]

          k =-0.0760-0.0000 0.0000 ( 17886 PWs)   bands (ev):

[...]

          k =-0.0760-0.0839 0.0000 ( 17948 PWs)   bands (ev):

   -55.2726 -55.2609 -55.2341 -55.2295 -55.1879 -55.1734 -55.1573 -55.1432
   -55.0842 -55.0604 -55.0502 -55.0255 -55.0211 -54.9549 -54.2752 -54.2740
   -31.6189 -31.6024 -31.5769 -31.5748 -31.5648 -31.5635 -31.5460 -31.5128
   -31.5059 -31.4891 -31.4857 -31.4754 -31.4402 -31.4298 -31.4093 -31.4051
   -31.4002 -31.3983 -31.3966 -31.3907 -31.3877 -31.3843 -31.3728 -31.3644
   -31.3582 -31.3496 -31.3488 -31.3470 -31.3418 -31.3161 -31.2902 -31.2773
   -31.2748 -31.2735 -31.2707 -31.2619 -31.2531 -31.2408 -31.2312 -31.2218
   -31.1802 -31.1465 -30.5962 -30.5948 -30.5144 -30.5135 -30.4751 -30.4741
   -21.3128 -18.7325 -17.1666 -15.4673 -15.3582 -15.2293 -15.1647 -15.1420
   -15.1153 -15.0624 -15.0461 -14.9906 -14.9864 -14.9358 -14.9296 -14.8864
   -14.8796 -14.8257 -14.7975 -14.7886 -14.7595 -14.7269 -14.7109 -14.7098
   -14.6699 -14.6483 -14.6398 -14.6093 -14.6021 -14.5400 -14.5027 -14.4696
   -12.7770 -12.7751  -9.1237  -6.6517  -6.5201  -4.5057  -4.5011  -3.8246
    -3.7237  -3.4959  -3.2657  -3.0018  -2.7528  -2.5701  -2.4789  -2.4099
    -2.3568  -2.3389  -2.2293  -2.2048  -2.1749  -2.1402  -2.1179  -2.1072
    -2.0894  -2.0805  -2.0733  -2.0557  -2.0222  -2.0024  -1.9763  -1.9516
    -1.9365  -1.9130  -1.8955  -1.8880  -1.8633  -1.8355  -1.8286  -1.8259
    -1.7629  -1.7229  -1.5648  -1.5198  -1.4986  -1.4087  -1.3892  -1.3727
    -1.3472  -1.3332  -1.3166  -1.1973  -1.1466  -1.1181  -1.0101  -0.9921
    -0.9662  -0.8276  -0.8039  -0.7715  -0.7432  -0.7012  -0.6315  -0.6079
    -0.5526  -0.5397  -0.4384  -0.4012  -0.3763  -0.3631  -0.2671  -0.2450
    -0.2396  -0.2137  -0.1504  -0.1185  -0.0732  -0.0436  -0.0128   0.0117
     0.0576   0.0776   0.1714   0.1917   0.2280   0.2709   0.3648   0.5316
     0.6244   0.7344   0.7606   0.8075   0.8676   0.9101   0.9605   1.0139
     1.0615   1.0685   1.1309   1.1680   1.2529   1.2667   1.2700   1.3384
     2.0935   2.0938   2.1817   2.1908   4.1384   4.1467   4.2038   4.2234
     4.3625   4.3686   4.3822   4.3897   4.4846   4.5428

     the Fermi energy is     3.8668 ev

!    total energy              =   -3006.52106153 Ry
     estimated scf accuracy    <       0.00000005 Ry
     smearing contrib. (-TS)   =      -0.02294565 Ry
     internal energy E=F+TS    =   -3006.49811589 Ry

     The total energy is F=E-TS. E is the sum of the following terms:
     one-electron contribution =  -22562.24778721 Ry
     hartree contribution      =   11380.47440379 Ry
     xc contribution           =    -501.12946825 Ry
     ewald contribution        =    8676.40285952 Ry
     electric field correction =       0.00187627 Ry

     convergence has been achieved in  95 iterations

     Forces acting on atoms (cartesian axes, Ry/au):

     atom    1 type  1   force =    -0.00014907   -0.00166855    0.10541523
     atom    2 type  1   force =    -0.00022668    0.00114432   -0.17916796
     atom    3 type  2   force =     0.00020672   -0.00553341   -0.03235567
     atom    4 type  2   force =     0.00010372    0.00071868    0.04628326
     atom    5 type  2   force =    -0.01803233    0.00052614    0.00423406
     atom    6 type  2   force =     0.01843162   -0.00044753    0.00410390
     atom    7 type  1   force =     0.00007638    0.00020535    0.00006522
     atom    8 type  1   force =     0.00007395    0.00030687   -0.00013421
     atom    9 type  2   force =     0.00017380    0.00035065   -0.00009129
     atom   10 type  2   force =     0.00017090   -0.00000547    0.00005017
     atom   11 type  2   force =     0.00005143   -0.00034582   -0.00037803
     atom   12 type  2   force =    -0.00005739   -0.00052055   -0.00051666
     atom   13 type  1   force =     0.00048030    0.00024232    0.00006452
     atom   14 type  1   force =    -0.00026555   -0.00048188   -0.00041588
     atom   15 type  2   force =     0.00004283   -0.00054993    0.00032079
     atom   16 type  2   force =    -0.00008711    0.00030392   -0.00023004
     atom   17 type  2   force =    -0.00042887   -0.00061648    0.00007320
     atom   18 type  2   force =     0.00004506   -0.00049274    0.00019607
     atom   19 type  1   force =     0.00041934   -0.00027993   -0.00012367
     atom   20 type  1   force =    -0.00009506   -0.00075655   -0.00083434
     atom   21 type  2   force =    -0.00003482    0.00010108    0.10395002
     atom   22 type  2   force =    -0.00001406   -0.00053846    0.00053384
     atom   23 type  2   force =    -0.06943015    0.00051753   -0.02945400
     atom   24 type  2   force =     0.06918536    0.00097514   -0.02950751
     atom   25 type  1   force =    -0.00002746    0.00156351    0.11483539
     atom   26 type  1   force =    -0.00021980   -0.00047717   -0.17916957
     atom   27 type  2   force =     0.00021434    0.00414119   -0.02605895
     atom   28 type  2   force =     0.00042948    0.00092890    0.04806849
     atom   29 type  2   force =    -0.01630747    0.00162439    0.00384484
     atom   30 type  2   force =     0.01736318    0.00217445    0.00361704
     atom   31 type  1   force =    -0.00014623    0.00010733   -0.00021370
     atom   32 type  1   force =     0.00010552   -0.00008426    0.00025410
     atom   33 type  2   force =     0.00028825   -0.00051104    0.00018007
     atom   34 type  2   force =    -0.00003962   -0.00030833   -0.00024818
     atom   35 type  2   force =    -0.00045884   -0.00013457    0.00001612
     atom   36 type  2   force =     0.00054448    0.00001952    0.00000796
     atom   37 type  1   force =     0.00046459   -0.00073024   -0.00005824
     atom   38 type  1   force =    -0.00037553   -0.00002580   -0.00035627
     atom   39 type  2   force =    -0.00041988   -0.00049475   -0.00048516
     atom   40 type  2   force =     0.00035963   -0.00040817   -0.00025920
     atom   41 type  2   force =    -0.00018645   -0.00003237    0.00005746
     atom   42 type  2   force =    -0.00032778   -0.00021670    0.00004942
     atom   43 type  1   force =     0.00026205    0.00010515    0.00135937
     atom   44 type  1   force =     0.00004004   -0.00033884   -0.00077072
     atom   45 type  2   force =    -0.00003750    0.00007755    0.10400010
     atom   46 type  2   force =    -0.06903808   -0.00107233   -0.02950877
     atom   47 type  2   force =     0.06885250   -0.00062738   -0.02958711
     atom   48 type  3   force =    -0.00022762    0.00001295    0.00032071
     atom   49 type  2   force =    -0.00000862    0.00026043   -0.00084483
     atom   50 type  4   force =    -0.00043014   -0.00005816    0.00002613
     atom   51 type  4   force =     0.00028810   -0.00027154    0.00014992
     atom   52 type  4   force =    -0.00004854    0.00036100   -0.00042771
     atom   53 type  5   force =    -0.02895355    0.00537917   -0.02984878
     atom   54 type  5   force =     0.02839025   -0.00516536    0.02945598
     atom   55 type  2   force =     0.00070756   -0.00006015    0.00039441
     atom   56 type  4   force =    -0.00156801    0.00013973   -0.00066346
     atom   57 type  4   force =    -0.00012918    0.00096722   -0.00021789

     Total force =     0.379130     Total SCF correction =     0.000630
  @ DRIVER MODE: Message from server: STATUS
  @ DRIVER MODE: Message from server: GETFORCE
  @ DRIVER MODE: Returning v,forces,stress,ensemble

     Writing output data file ./calc.save/
  @ DRIVER MODE: Message from server: EXIT
  @ DRIVE MODE: Exiting

     General routines

     Parallel routines

   This run was terminated on:   9:20:44  26Sep2021

   JOB DONE.