     Program PWSCF v.6.7GPU starts on 15Sep2021 at 18:34:22

     R & G space division:  proc/nbgrp/npool/nimage =      10
     Reading input from /storage/home/hcoda1/3/ntian30/research/carbon/CxH_vib/H2O_calc/ads_slab/CHOHH2O_a/out_0009/pw.inp
Warning: card &CELL ignored
Warning: card   CELL_DYNAMICS='IPI', ignored
Warning: card / ignored

     Current dimensions of program PWSCF are:
     Max number of different atomic species (ntypx) = 10
     Max number of k-points (npk) =  40000
     Max angular momentum in pseudopotentials (lmaxx) =  3
     Presently no symmetry can be used with electric field

     Message from routine cell_base_init:
     DEPRECATED: use true lattice parameter, not A to a.u. conversion factor

     IMPORTANT: XC functional enforced from input :
     Exchange-correlation= BEEF-VDW
                           (   1   4  43  14   2   0   0)
     Any further DFT definition will be discarded
     Please, verify this is what you really want

  @ DRIVER MODE: Connecting to
 qe_1139763_2852632.sched-torque.pace.gatech.edu9nwukprj_scratch
  using UNIX socket
  @ DRIVER MODE: Message from server: STATUS
  @ DRIVER MODE: Message from server: INIT
  @ DRIVER MODE: Receiving replica           0          -1
  @ DRIVER MODE: Receiving encoded integer          25
  @ DRIVER MODE:  SCF:  T  FORCE:  T  STRESS:  F  VC:  F  ENSEMBLE:  F
  @ DRIVER MODE:  SCF:  T  FORCE:  T  STRESS:  F  VC:  F  ENSEMBLE:  F

     Using Slab Decomposition

     bravais-lattice index     =            0
     lattice parameter (alat)  =       1.8897  a.u.
     unit-cell volume          =    6658.9804 (a.u.)^3
     number of atoms/cell      =           54
     number of atomic types    =            4
     number of electrons       =       398.00
     number of Kohn-Sham states=          209
     kinetic-energy cutoff     =      29.3995  Ry
     charge density cutoff     =     293.9946  Ry
     scf convergence threshold =      7.3E-08
     mixing beta               =       0.0500
     number of iterations used =            8  plain     mixing
     Exchange-correlation= BEEF-VDW
                           (   1   4  43  14   2   0   0)

     celldm(1)=   1.889726  celldm(2)=   0.000000  celldm(3)=   0.000000
     celldm(4)=   0.000000  celldm(5)=   0.000000  celldm(6)=   0.000000

     crystal axes: (cart. coord. in units of alat)
               a(1) = (   6.579727   0.000000   0.000000 )
               a(2) = (  -0.000775   5.961596   0.000000 )
               a(3) = (   0.000000   0.000000  25.155947 )

     reciprocal axes: (cart. coord. in units 2 pi/alat)
               b(1) = (  0.151982  0.000020  0.000000 )
               b(2) = (  0.000000  0.167740  0.000000 )
               b(3) = (  0.000000  0.000000  0.039752 )

     PseudoPot. # 1 for Ti read from file:
     /storage/coda1/p-amedford6/0/shared/rich_project_chbe-medford/medford-share/data/pseudos_module/espresso/nninc/pbe/van/Ti.UPF
     MD5 check sum: 8e4df49b7f0d34bbd5052bf3f5ea0213
     Pseudo is Ultrasoft, Zval = 12.0
     Generated by new atomic code, or converted to UPF format
     Using radial grid of  851 points,  6 beta functions with:
                l(1) =   0
                l(2) =   0
                l(3) =   1
                l(4) =   1
                l(5) =   2
                l(6) =   2
     Q(r) pseudized with  8 coefficients,  rinner =    1.000   1.000   1.000
                                                       1.000   1.000

     PseudoPot. # 2 for O  read from file:
     /storage/coda1/p-amedford6/0/shared/rich_project_chbe-medford/medford-share/data/pseudos_module/espresso/nninc/pbe/van/O.UPF
     MD5 check sum: 78c19812648e8988a0fe644b0f25305e
     Pseudo is Ultrasoft, Zval =  6.0
     Generated by new atomic code, or converted to UPF format
     Using radial grid of  737 points,  4 beta functions with:
                l(1) =   0
                l(2) =   0
                l(3) =   1
                l(4) =   1
     Q(r) pseudized with  8 coefficients,  rinner =    0.800   0.800   0.800

     PseudoPot. # 3 for C  read from file:
     /storage/coda1/p-amedford6/0/shared/rich_project_chbe-medford/medford-share/data/pseudos_module/espresso/nninc/pbe/van/C.UPF
     MD5 check sum: 1a69bf6b8db32088f5b2163dbdb77a27
     Pseudo is Ultrasoft, Zval =  4.0
     Generated by new atomic code, or converted to UPF format
     Using radial grid of  721 points,  4 beta functions with:
                l(1) =   0
                l(2) =   0
                l(3) =   1
                l(4) =   1
     Q(r) pseudized with  8 coefficients,  rinner =    0.800   0.800   0.800

     PseudoPot. # 4 for H  read from file:
     /storage/coda1/p-amedford6/0/shared/rich_project_chbe-medford/medford-share/data/pseudos_module/espresso/nninc/pbe/van/H.UPF
     MD5 check sum: b5ee9d7bfd3a09ee7748110bda690ff7
     Pseudo is Ultrasoft, Zval =  1.0
     Generated by new atomic code, or converted to UPF format
     Using radial grid of  615 points,  1 beta functions with:
                l(1) =   0
     Q(r) pseudized with  8 coefficients,  rinner =    0.800

     atomic species   valence    mass     pseudopotential
        Ti1           12.00    47.86700     Ti( 1.00)
        O1             6.00    15.99900     O ( 1.00)
        C1             4.00    12.01100     C ( 1.00)
        H1             1.00     1.00800     H ( 1.00)

     No symmetry found

   Cartesian axes

     site n.     atom                  positions (alat units)
         1           Ti1 tau(   1) = (   0.0004258   2.9801865   6.0000000  )
         2           Ti1 tau(   2) = (   3.2906075   1.4906267   6.0002472  )
         3           O1  tau(   3) = (   0.0006271   0.0005054   7.9858123  )
         4           O1  tau(   4) = (   3.2906025   0.0005020   7.3038282  )
         5           O1  tau(   5) = (   4.5942328   1.4918067   9.2879030  )
         6           O1  tau(   6) = (   1.9868534   1.4903216   9.2879459  )
         7           Ti1 tau(   7) = (   3.3203992   3.0065636   9.1614972  )
         8           Ti1 tau(   8) = (   0.0364112   1.5055733   9.2692997  )
         9           O1  tau(   9) = (   3.3037507   0.0048223  11.3846665  )
        10           O1  tau(  10) = (   0.0023770   0.0017864  10.5989407  )
        11           O1  tau(  11) = (   1.2986710   1.4943985  12.6419360  )
        12           O1  tau(  12) = (   5.3019195   1.4930987  12.6558330  )
        13           Ti1 tau(  13) = (   0.0201679   2.9954199  12.5459836  )
        14           Ti1 tau(  14) = (   3.3085843   1.4996073  12.5278567  )
        15           O1  tau(  15) = (   0.0306707   0.0063333  14.6434371  )
        16           O1  tau(  16) = (   3.2901280   5.9588824  14.0411263  )
        17           O1  tau(  17) = (   4.5937705   1.5245028  16.1210063  )
        18           O1  tau(  18) = (   2.0412355   1.5396885  16.1535958  )
        19           Ti1 tau(  19) = (   3.3250740   2.9785215  15.7238461  )
        20           Ti1 tau(  20) = (   0.0142243   1.3716099  15.9029131  )
        21           O1  tau(  21) = (   3.2904802   0.0005063   4.7018136  )
        22           O1  tau(  22) = (   0.0234726   5.9563001  17.1693433  )
        23           O1  tau(  23) = (   1.3043587   1.4918075   6.0039043  )
        24           O1  tau(  24) = (   5.2767064   1.4903225   6.0039473  )
        25           Ti1 tau(  25) = (   0.0000382   5.9609847   6.0000000  )
        26           Ti1 tau(  26) = (   3.2902200   4.4714249   6.0002472  )
        27           O1  tau(  27) = (   0.0002396   2.9813036   7.9858123  )
        28           O1  tau(  28) = (   3.2902150   2.9813002   7.3038282  )
        29           O1  tau(  29) = (   4.5938453   4.4726049   9.2879030  )
        30           O1  tau(  30) = (   1.9864658   4.4711199   9.2879459  )
        31           Ti1 tau(  31) = (   3.3166040   0.0254347   9.1556988  )
        32           Ti1 tau(  32) = (   0.0362352   4.4699824   9.2670842  )
        33           O1  tau(  33) = (   3.3035804   2.9865095  11.3763011  )
        34           O1  tau(  34) = (   0.0042610   2.9829788  10.6236548  )
        35           O1  tau(  35) = (   1.2977823   4.4749822  12.6434080  )
        36           O1  tau(  36) = (   5.3021498   4.4756442  12.6578133  )
        37           Ti1 tau(  37) = (   0.0128731   0.0155586  12.4748574  )
        38           Ti1 tau(  38) = (   3.3087006   4.4877506  12.5360639  )
        39           O1  tau(  39) = (   0.0289868   2.9802581  14.8446641  )
        40           O1  tau(  40) = (   3.2975897   2.9808645  13.9396156  )
        41           O1  tau(  41) = (   4.5936103   4.4348319  16.1149158  )
        42           O1  tau(  42) = (   2.0365336   4.4144103  16.1518429  )
        43           Ti1 tau(  43) = (   3.2980932   5.9591119  15.8729608  )
        44           Ti1 tau(  44) = (   0.0070259   4.5936845  15.8821292  )
        45           O1  tau(  45) = (   3.2900926   2.9813045   4.7018136  )
        46           O1  tau(  46) = (   1.3039711   4.4726057   6.0039043  )
        47           O1  tau(  47) = (   5.2763189   4.4711207   6.0039473  )
        48           C1  tau(  48) = (   6.0563806   2.9601134  19.0478501  )
        49           O1  tau(  49) = (   0.1703025   2.9620528  17.8813388  )
        50           H1  tau(  50) = (   5.0099104   2.8626262  18.6876999  )
        51           H1  tau(  51) = (   1.1251272   3.0566160  18.0647747  )
        52           O1  tau(  52) = (   3.2803433   5.9178330  18.2983259  )
        53           H1  tau(  53) = (   4.0549949   5.9397654  18.8787675  )
        54           H1  tau(  54) = (   2.4787048   0.0262026  18.8357284  )

     number of k points=    10  Fermi-Dirac smearing, width (Ry)=  0.0073
                       cart. coord. in units 2pi/alat
        k(    1) = (   0.0000000   0.0000000   0.0000000), wk =   0.1250000
        k(    2) = (   0.0000000   0.0419351   0.0000000), wk =   0.2500000
        k(    3) = (   0.0000000  -0.0838702   0.0000000), wk =   0.1250000
        k(    4) = (   0.0379955   0.0000049   0.0000000), wk =   0.2500000
        k(    5) = (   0.0379955   0.0419400   0.0000000), wk =   0.2500000
        k(    6) = (   0.0379955  -0.0838652   0.0000000), wk =   0.2500000
        k(    7) = (   0.0379955  -0.0419301   0.0000000), wk =   0.2500000
        k(    8) = (  -0.0759910  -0.0000099   0.0000000), wk =   0.1250000
        k(    9) = (  -0.0759910   0.0419252   0.0000000), wk =   0.2500000
        k(   10) = (  -0.0759910  -0.0838800   0.0000000), wk =   0.1250000

     Initial potential from superposition of free atoms

     starting charge  381.99917, renormalised to  398.00000

     negative rho (up, down):  1.670E-02 0.000E+00

     %%%%%%%%%%%%%%%%%%%%%%%%%%%%%%%%%%%%%%%%%%%%%%%%%%%%%%%%%%%%%%%%%%%%%%%%
     %                                                                      %
     % You are using vdW-DF, which was implemented by the Thonhauser group. %
     % Please cite the following two papers that made this development      %
     % possible and the two reviews that describe the various versions:     %
     %                                                                      %
     %   T. Thonhauser et al., PRL 115, 136402 (2015).                      %
     %   T. Thonhauser et al., PRB 76, 125112 (2007).                       %
     %   K. Berland et al., Rep. Prog. Phys. 78, 066501 (2015).             %
     %   D.C. Langreth et al., J. Phys.: Condens. Matter 21, 084203 (2009). %
     %                                                                      %
     %                                                                      %
     % If you are calculating the stress with vdW-DF, please also cite:     %
     %                                                                      %
     %   R. Sabatini et al., J. Phys.: Condens. Matter 24, 424209 (2012).   %
     %                                                                      %
     %%%%%%%%%%%%%%%%%%%%%%%%%%%%%%%%%%%%%%%%%%%%%%%%%%%%%%%%%%%%%%%%%%%%%%%%

     Adding external electric field

     Computed dipole along edir(3) :
        Dipole              -10.5131 Ry au,        -26.7216 Debye
        Dipole field         -0.0198 Ry au,

        Potential amp.        1.8391 Ry
        Total length         46.3494 bohr

     Starting wfcs are  300 atomic wfcs
  @ DRIVER MODE: Message from server: STATUS
  @ DRIVER MODE: Message from server: POSDATA
  @ DRIVER MODE: Reading and sharing cell
  @ DRIVER MODE: Reading and sharing positions
  @ DRIVER MODE: Received positions

     Self-consistent Calculation

     iteration #  1     ecut=    29.40 Ry     beta= 0.05
     Davidson diagonalization with overlap
     c_bands:  2 eigenvalues not converged
     c_bands:  3 eigenvalues not converged
     c_bands:  1 eigenvalues not converged
     c_bands:  4 eigenvalues not converged
     c_bands:  4 eigenvalues not converged
     c_bands:  4 eigenvalues not converged
     c_bands:  1 eigenvalues not converged
     c_bands:  3 eigenvalues not converged
     c_bands:  4 eigenvalues not converged
     ethr =  1.00E-05,  avg # of iterations = 19.9

[...]

     total energy              =   -2479.43161780 Ry
     estimated scf accuracy    <    5441.07981115 Ry

     iteration #  2     ecut=    29.40 Ry     beta= 0.05
     Davidson diagonalization with overlap
     ethr =  1.00E-02,  avg # of iterations = 25.4

[...]

     iteration # 67     ecut=    29.40 Ry     beta= 0.05
     Davidson diagonalization with overlap
     c_bands:  1 eigenvalues not converged
     ethr =  3.07E-11,  avg # of iterations = 13.5

[...]

     total energy              =   -2964.77947212 Ry
     estimated scf accuracy    <       0.00000009 Ry

     iteration # 68     ecut=    29.40 Ry     beta= 0.05
     Davidson diagonalization with overlap
     ethr =  2.14E-11,  avg # of iterations = 11.0

     negative rho (up, down):  1.518E-02 0.000E+00

     Adding external electric field

     Computed dipole along edir(3) :
        Dipole                0.7114 Ry au,          1.8081 Debye
        Dipole field          0.0013 Ry au,

        Potential amp.       -0.1244 Ry
        Total length         46.3494 bohr

     End of self-consistent calculation

          k = 0.0000 0.0000 0.0000 ( 18029 PWs)   bands (ev):

   -55.7040 -55.6915 -55.6677 -55.6660 -55.6571 -55.6059 -55.5544 -55.5529
   -55.5405 -55.5200 -55.5073 -55.4860 -55.4852 -55.4734 -54.7720 -54.7379
   -32.2645 -32.1857 -32.1821 -32.0871 -32.0500 -32.0300 -32.0190 -32.0087
   -31.9804 -31.9449 -31.9351 -31.9199 -31.8957 -31.8886 -31.8811 -31.8623
   -31.8451 -31.8439 -31.8409 -31.8336 -31.8177 -31.8066 -31.8064 -31.7969
   -31.7950 -31.7795 -31.7764 -31.7485 -31.7363 -31.7226 -31.7113 -31.7102
   -31.7056 -31.7012 -31.6948 -31.6868 -31.6546 -31.6533 -31.6484 -31.6445
   -31.6181 -31.5619 -31.1837 -31.0822 -31.0605 -30.9999 -30.9135 -30.8025
   -21.1342 -19.2601 -16.5229 -16.2810 -16.1381 -16.0350 -15.9303 -15.7977
   -15.7108 -15.5873 -15.5242 -15.3972 -15.3579 -15.3524 -15.3459 -15.3174
   -15.2963 -15.2734 -15.2493 -15.2085 -15.2040 -15.2004 -15.1714 -15.1594
   -15.1017 -15.0890 -15.0450 -14.9270 -14.8756 -14.8145 -14.4963 -13.2729
   -13.1538 -10.3360  -7.2207  -5.7035  -4.7237  -4.0150  -3.9432  -3.8136
    -3.7168  -3.6484  -3.6108  -3.5426  -3.4633  -3.2603  -3.1300  -3.1218
    -2.9893  -2.9526  -2.9080  -2.8066  -2.7409  -2.6787  -2.6685  -2.5928
    -2.5886  -2.5805  -2.5673  -2.4748  -2.4686  -2.4200  -2.3784  -2.2996
    -2.2639  -2.1466  -2.1159  -2.1070  -2.0633  -2.0476  -2.0410  -2.0283
    -1.9786  -1.9529  -1.9350  -1.9336  -1.7919  -1.7499  -1.6040  -1.4790
    -1.4464  -1.4319  -1.3037  -1.2660  -1.2495  -1.1919  -1.1714  -1.1616
    -1.1227  -1.0414  -0.9585  -0.9344  -0.8622  -0.8193  -0.7151  -0.6209
    -0.5764  -0.5275  -0.5052  -0.4958  -0.4764  -0.4117  -0.3639  -0.2773
    -0.2233  -0.1603  -0.1333  -0.1265  -0.0719  -0.0417   0.0381   0.0851
     0.1193   0.1335   0.2192   0.2336   0.2464   0.2777   0.2801   0.3931
     0.4469   0.5040   0.5106   0.6589   0.8259   0.8512   0.9306   1.1451
     1.2535   1.2559   1.4168   1.4721   1.8385   1.8928   3.3833   3.4534
     3.4879   3.5019   3.5113   3.5891   3.8191   3.8710   3.9028   3.9218
     3.9309

[...]

          k = 0.0380-0.0419 0.0000 ( 17876 PWs)   bands (ev):

[...]

          k =-0.0760-0.0000 0.0000 ( 17886 PWs)   bands (ev):

[...]

          k =-0.0760-0.0839 0.0000 ( 17948 PWs)   bands (ev):

   -55.6885 -55.6831 -55.6765 -55.6720 -55.6643 -55.5997 -55.5592 -55.5391
   -55.5350 -55.5336 -55.4919 -55.4914 -55.4893 -55.4875 -54.7549 -54.7548
   -32.1071 -32.0748 -32.0637 -32.0028 -31.9984 -31.9792 -31.9704 -31.9613
   -31.9590 -31.9346 -31.9334 -31.9086 -31.8991 -31.8710 -31.8574 -31.8555
   -31.8541 -31.8459 -31.8410 -31.8369 -31.8291 -31.8217 -31.8045 -31.8017
   -31.7988 -31.7966 -31.7964 -31.7955 -31.7921 -31.7839 -31.7817 -31.7523
   -31.7376 -31.7372 -31.7217 -31.7127 -31.7109 -31.7058 -31.6803 -31.6755
   -31.6743 -31.6512 -31.0731 -31.0731 -30.9965 -30.9961 -30.9568 -30.9566
   -21.1329 -19.2596 -16.1538 -15.9587 -15.8083 -15.7240 -15.7173 -15.6582
   -15.5781 -15.5369 -15.4911 -15.4792 -15.4690 -15.4344 -15.4253 -15.4140
   -15.3514 -15.3013 -15.2978 -15.2823 -15.2331 -15.2256 -15.2152 -15.2095
   -15.2008 -15.1578 -15.1535 -15.1389 -15.1282 -14.9846 -14.8280 -13.2552
   -13.2544 -10.3393  -7.2183  -5.7065  -4.7023  -3.9445  -3.8713  -3.2340
    -3.2313  -2.9697  -2.9476  -2.8889  -2.8775  -2.8133  -2.7822  -2.7063
    -2.7000  -2.6548  -2.6144  -2.6061  -2.5932  -2.5688  -2.5356  -2.5224
    -2.4803  -2.4706  -2.4446  -2.4402  -2.4211  -2.4051  -2.3802  -2.3743
    -2.3421  -2.3219  -2.3138  -2.3103  -2.2334  -2.1711  -2.0481  -2.0262
    -1.9856  -1.9363  -1.9207  -1.8502  -1.8145  -1.7997  -1.7421  -1.7075
    -1.6811  -1.5079  -1.4960  -1.4756  -1.3846  -1.3518  -1.3392  -1.3112
    -1.2548  -1.2259  -1.2218  -1.1442  -1.0329  -1.0100  -0.9114  -0.8659
    -0.8647  -0.7763  -0.7427  -0.7044  -0.7023  -0.6652  -0.6086  -0.5869
    -0.5299  -0.5242  -0.4766  -0.4560  -0.4325  -0.4015  -0.2288  -0.1737
    -0.1180  -0.0208   0.0079   0.2356   0.2665   0.2735   0.3392   0.3697
     0.4758   0.4972   0.5602   0.5752   0.6764   0.7078   0.7247   0.7296
     0.7760   1.4789   1.6053   1.6079   1.7068   1.7105   3.5328   3.5467
     3.6484   3.7004   3.7378   3.8413   3.8901   3.9223   3.9299   3.9450
     4.0250

     the Fermi energy is     3.4313 ev

!    total energy              =   -2964.77949474 Ry
     estimated scf accuracy    <       0.00000004 Ry
     smearing contrib. (-TS)   =      -0.03745245 Ry
     internal energy E=F+TS    =   -2964.74204229 Ry

     The total energy is F=E-TS. E is the sum of the following terms:
     one-electron contribution =  -24112.40680609 Ry
     hartree contribution      =   12146.42441588 Ry
     xc contribution           =    -490.02015364 Ry
     ewald contribution        =    9491.25954663 Ry
     electric field correction =       0.00095493 Ry

     convergence has been achieved in  68 iterations

     Forces acting on atoms (cartesian axes, Ry/au):

     atom    1 type  1   force =    -0.00035521   -0.00002096    0.09253321
     atom    2 type  1   force =    -0.00033092    0.00121611   -0.18262841
     atom    3 type  2   force =     0.00043816    0.00023381   -0.02455577
     atom    4 type  2   force =     0.00073407    0.00044936    0.05161894
     atom    5 type  2   force =    -0.01466200   -0.00007630    0.00466864
     atom    6 type  2   force =     0.01553284   -0.00056996    0.00542104
     atom    7 type  1   force =    -0.00050270   -0.00015926    0.00011440
     atom    8 type  1   force =     0.00022091    0.00004961    0.00020771
     atom    9 type  2   force =    -0.00016769   -0.00017616   -0.00033396
     atom   10 type  2   force =     0.00006363   -0.00004173    0.00031557
     atom   11 type  2   force =    -0.00032064    0.00021022    0.00003543
     atom   12 type  2   force =     0.00039111    0.00007892   -0.00021010
     atom   13 type  1   force =    -0.00020819   -0.00025408    0.00021746
     atom   14 type  1   force =     0.00013257   -0.00021141   -0.00045953
     atom   15 type  2   force =    -0.00032322    0.00009407   -0.00013507
     atom   16 type  2   force =     0.00008292    0.00000272   -0.00026305
     atom   17 type  2   force =    -0.00015563   -0.00015314    0.00014205
     atom   18 type  2   force =     0.00027994   -0.00015331   -0.00041018
     atom   19 type  1   force =    -0.00096552   -0.00003947   -0.00034610
     atom   20 type  1   force =     0.00041792    0.00033663    0.00031970
     atom   21 type  2   force =    -0.00009738    0.00005982    0.10490895
     atom   22 type  2   force =    -0.00033692   -0.00064287    0.00042299
     atom   23 type  2   force =    -0.06834428    0.00002788   -0.02693935
     atom   24 type  2   force =     0.06803862    0.00046284   -0.02701772
     atom   25 type  1   force =    -0.00030542   -0.00001965    0.09721336
     atom   26 type  1   force =    -0.00030524   -0.00120153   -0.18267615
     atom   27 type  2   force =     0.00035165    0.00023612   -0.02297217
     atom   28 type  2   force =     0.00081294    0.00042547    0.05200257
     atom   29 type  2   force =    -0.01464699    0.00065053    0.00459684
     atom   30 type  2   force =     0.01566026    0.00040176    0.00532575
     atom   31 type  1   force =    -0.00046464   -0.00000413    0.00013757
     atom   32 type  1   force =     0.00022184    0.00007884    0.00018544
     atom   33 type  2   force =    -0.00008964    0.00013256    0.00014173
     atom   34 type  2   force =     0.00001374    0.00001233    0.00016339
     atom   35 type  2   force =    -0.00015804   -0.00030696    0.00012273
     atom   36 type  2   force =     0.00022644   -0.00020113   -0.00011042
     atom   37 type  1   force =    -0.00029235    0.00016346   -0.00046573
     atom   38 type  1   force =     0.00012802    0.00037396   -0.00035731
     atom   39 type  2   force =    -0.00035488   -0.00027486   -0.00018711
     atom   40 type  2   force =     0.00018218   -0.00007524   -0.00001263
     atom   41 type  2   force =    -0.00027634   -0.00014851   -0.00014365
     atom   42 type  2   force =     0.00020558   -0.00024285   -0.00047494
     atom   43 type  1   force =    -0.00088932   -0.00013581    0.00004719
     atom   44 type  1   force =     0.00032348   -0.00031599   -0.00028344
     atom   45 type  2   force =    -0.00007158    0.00005416    0.10480607
     atom   46 type  2   force =    -0.06832764   -0.00060370   -0.02693082
     atom   47 type  2   force =     0.06802368   -0.00013502   -0.02700583
     atom   48 type  3   force =    -0.00036343    0.00035196   -0.00041244
     atom   49 type  2   force =     0.00168196    0.00167586    0.00043450
     atom   50 type  4   force =     0.00010803   -0.00045801    0.00002436
     atom   51 type  4   force =    -0.00127437   -0.00111068   -0.00062367
     atom   52 type  2   force =     0.00004851   -0.00112594    0.00085365
     atom   53 type  4   force =    -0.00025407    0.00057552   -0.00042661
     atom   54 type  4   force =     0.00052328    0.00050413   -0.00059909

     Total force =     0.368479     Total SCF correction =     0.000341
  @ DRIVER MODE: Message from server: STATUS
  @ DRIVER MODE: Message from server: GETFORCE
  @ DRIVER MODE: Returning v,forces,stress,ensemble

     Writing output data file ./calc.save/
  @ DRIVER MODE: Message from server: EXIT
  @ DRIVE MODE: Exiting

     General routines

     Parallel routines

   This run was terminated on:  18:52:24  15Sep2021

   JOB DONE.