     Program PWSCF v.6.7GPU starts on 23Sep2021 at 19:14:33

     R & G space division:  proc/nbgrp/npool/nimage =       8
     Reading input from /storage/home/hcoda1/3/ntian30/research/carbon/CxH_vib/H2O_calc/ads_slab/CH2NHNH2HO_a/out_0019/pw.inp
Warning: card &CELL ignored
Warning: card   CELL_DYNAMICS='IPI', ignored
Warning: card / ignored

     Current dimensions of program PWSCF are:
     Max number of different atomic species (ntypx) = 10
     Max number of k-points (npk) =  40000
     Max angular momentum in pseudopotentials (lmaxx) =  3
     Presently no symmetry can be used with electric field

     Message from routine cell_base_init:
     DEPRECATED: use true lattice parameter, not A to a.u. conversion factor

     IMPORTANT: XC functional enforced from input :
     Exchange-correlation= BEEF-VDW
                           (   1   4  43  14   2   0   0)
     Any further DFT definition will be discarded
     Please, verify this is what you really want

  @ DRIVER MODE: Connecting to
 qe_1139763_2947313.sched-torque.pace.gatech.edub8rb4tn9_scratch
  using UNIX socket
  @ DRIVER MODE: Message from server: STATUS
  @ DRIVER MODE: Message from server: INIT
  @ DRIVER MODE: Receiving replica           0          -1
  @ DRIVER MODE: Receiving encoded integer          25
  @ DRIVER MODE:  SCF:  T  FORCE:  T  STRESS:  F  VC:  F  ENSEMBLE:  F
  @ DRIVER MODE:  SCF:  T  FORCE:  T  STRESS:  F  VC:  F  ENSEMBLE:  F

     Using Slab Decomposition

     bravais-lattice index     =            0
     lattice parameter (alat)  =       1.8897  a.u.
     unit-cell volume          =    6658.9804 (a.u.)^3
     number of atoms/cell      =           57
     number of atomic types    =            5
     number of electrons       =       404.00
     number of Kohn-Sham states=          212
     kinetic-energy cutoff     =      29.3995  Ry
     charge density cutoff     =     293.9946  Ry
     scf convergence threshold =      7.3E-08
     mixing beta               =       0.0500
     number of iterations used =            8  plain     mixing
     Exchange-correlation= BEEF-VDW
                           (   1   4  43  14   2   0   0)

     celldm(1)=   1.889726  celldm(2)=   0.000000  celldm(3)=   0.000000
     celldm(4)=   0.000000  celldm(5)=   0.000000  celldm(6)=   0.000000

     crystal axes: (cart. coord. in units of alat)
               a(1) = (   6.579727   0.000000   0.000000 )
               a(2) = (  -0.000775   5.961596   0.000000 )
               a(3) = (   0.000000   0.000000  25.155947 )

     reciprocal axes: (cart. coord. in units 2 pi/alat)
               b(1) = (  0.151982  0.000020  0.000000 )
               b(2) = (  0.000000  0.167740  0.000000 )
               b(3) = (  0.000000  0.000000  0.039752 )

     PseudoPot. # 1 for Ti read from file:
     /storage/coda1/p-amedford6/0/shared/rich_project_chbe-medford/medford-share/data/pseudos_module/espresso/nninc/pbe/van/Ti.UPF
     MD5 check sum: 8e4df49b7f0d34bbd5052bf3f5ea0213
     Pseudo is Ultrasoft, Zval = 12.0
     Generated by new atomic code, or converted to UPF format
     Using radial grid of  851 points,  6 beta functions with:
                l(1) =   0
                l(2) =   0
                l(3) =   1
                l(4) =   1
                l(5) =   2
                l(6) =   2
     Q(r) pseudized with  8 coefficients,  rinner =    1.000   1.000   1.000
                                                       1.000   1.000

     PseudoPot. # 2 for O  read from file:
     /storage/coda1/p-amedford6/0/shared/rich_project_chbe-medford/medford-share/data/pseudos_module/espresso/nninc/pbe/van/O.UPF
     MD5 check sum: 78c19812648e8988a0fe644b0f25305e
     Pseudo is Ultrasoft, Zval =  6.0
     Generated by new atomic code, or converted to UPF format
     Using radial grid of  737 points,  4 beta functions with:
                l(1) =   0
                l(2) =   0
                l(3) =   1
                l(4) =   1
     Q(r) pseudized with  8 coefficients,  rinner =    0.800   0.800   0.800

     PseudoPot. # 3 for N  read from file:
     /storage/coda1/p-amedford6/0/shared/rich_project_chbe-medford/medford-share/data/pseudos_module/espresso/nninc/pbe/van/N.UPF
     MD5 check sum: 90d10febe142ad51ac9d5be1deb811c4
     Pseudo is Ultrasoft, Zval =  5.0
     Generated by new atomic code, or converted to UPF format
     Using radial grid of  729 points,  4 beta functions with:
                l(1) =   0
                l(2) =   0
                l(3) =   1
                l(4) =   1
     Q(r) pseudized with  8 coefficients,  rinner =    0.800   0.800   0.800

     PseudoPot. # 4 for C  read from file:
     /storage/coda1/p-amedford6/0/shared/rich_project_chbe-medford/medford-share/data/pseudos_module/espresso/nninc/pbe/van/C.UPF
     MD5 check sum: 1a69bf6b8db32088f5b2163dbdb77a27
     Pseudo is Ultrasoft, Zval =  4.0
     Generated by new atomic code, or converted to UPF format
     Using radial grid of  721 points,  4 beta functions with:
                l(1) =   0
                l(2) =   0
                l(3) =   1
                l(4) =   1
     Q(r) pseudized with  8 coefficients,  rinner =    0.800   0.800   0.800

     PseudoPot. # 5 for H  read from file:
     /storage/coda1/p-amedford6/0/shared/rich_project_chbe-medford/medford-share/data/pseudos_module/espresso/nninc/pbe/van/H.UPF
     MD5 check sum: b5ee9d7bfd3a09ee7748110bda690ff7
     Pseudo is Ultrasoft, Zval =  1.0
     Generated by new atomic code, or converted to UPF format
     Using radial grid of  615 points,  1 beta functions with:
                l(1) =   0
     Q(r) pseudized with  8 coefficients,  rinner =    0.800

     atomic species   valence    mass     pseudopotential
        Ti1           12.00    47.86700     Ti( 1.00)
        O1             6.00    15.99900     O ( 1.00)
        N1             5.00    14.00700     N ( 1.00)
        C1             4.00    12.01100     C ( 1.00)
        H1             1.00     1.00800     H ( 1.00)

     No symmetry found

   Cartesian axes

     site n.     atom                  positions (alat units)
         1           Ti1 tau(   1) = (   0.0004258   2.9801865   6.0000000  )
         2           Ti1 tau(   2) = (   3.2906075   1.4906267   6.0002472  )
         3           O1  tau(   3) = (   0.0006271   0.0005054   7.9858123  )
         4           O1  tau(   4) = (   3.2906025   0.0005020   7.3038282  )
         5           O1  tau(   5) = (   4.5942328   1.4918067   9.2879030  )
         6           O1  tau(   6) = (   1.9868534   1.4903216   9.2879459  )
         7           Ti1 tau(   7) = (   3.2907910   2.8959150   9.1758416  )
         8           Ti1 tau(   8) = (   0.0015273   1.4827037   9.2680791  )
         9           O1  tau(   9) = (   3.2769995   5.9424463  11.3879711  )
        10           O1  tau(  10) = (   0.0116148   5.9584955  10.6183126  )
        11           O1  tau(  11) = (   1.2559300   1.4809235  12.6914295  )
        12           O1  tau(  12) = (   5.2914439   1.4888754  12.6824943  )
        13           Ti1 tau(  13) = (   6.5693074   2.9549812  12.5071532  )
        14           Ti1 tau(  14) = (   3.2720578   1.2926143  12.7373905  )
        15           O1  tau(  15) = (   6.5263330   5.9075480  14.6758232  )
        16           O1  tau(  16) = (   3.2750150   0.0724425  14.0538047  )
        17           O1  tau(  17) = (   4.5404297   1.6145126  16.1214498  )
        18           O1  tau(  18) = (   1.9612862   1.5681812  16.1371236  )
        19           Ti1 tau(  19) = (   3.2615978   3.0295928  15.7214328  )
        20           Ti1 tau(  20) = (   6.4910920   1.3289874  15.8500745  )
        21           O1  tau(  21) = (   3.2904802   0.0005063   4.7018136  )
        22           O1  tau(  22) = (   6.5149858   0.1606772  17.2625446  )
        23           O1  tau(  23) = (   1.3043587   1.4918075   6.0039043  )
        24           O1  tau(  24) = (   5.2767064   1.4903225   6.0039473  )
        25           Ti1 tau(  25) = (   0.0000382   5.9609847   6.0000000  )
        26           Ti1 tau(  26) = (   3.2902200   4.4714249   6.0002472  )
        27           O1  tau(  27) = (   0.0002396   2.9813036   7.9858123  )
        28           O1  tau(  28) = (   3.2902150   2.9813002   7.3038282  )
        29           O1  tau(  29) = (   4.5938453   4.4726049   9.2879030  )
        30           O1  tau(  30) = (   1.9864658   4.4711199   9.2879459  )
        31           Ti1 tau(  31) = (   3.2891106   5.8743827   9.1763621  )
        32           Ti1 tau(  32) = (   0.0006254   4.4649316   9.2693709  )
        33           O1  tau(  33) = (   3.2749377   2.9871965  11.3337082  )
        34           O1  tau(  34) = (   0.0092240   2.9805883  10.6323155  )
        35           O1  tau(  35) = (   1.2597673   4.4587344  12.6634223  )
        36           O1  tau(  36) = (   5.2866262   4.4511231  12.6493885  )
        37           Ti1 tau(  37) = (   6.5604603   5.9292220  12.4937940  )
        38           Ti1 tau(  38) = (   3.2724722   4.3622713  12.4512132  )
        39           O1  tau(  39) = (   6.5737517   3.0258615  14.9025115  )
        40           O1  tau(  40) = (   3.2593133   3.0063273  13.9441864  )
        41           O1  tau(  41) = (   4.5441350   4.4310557  16.1689449  )
        42           O1  tau(  42) = (   1.9655774   4.4762250  16.2070539  )
        43           Ti1 tau(  43) = (   3.1776431   0.0563557  16.2565842  )
        44           Ti1 tau(  44) = (   6.5216753   4.5226504  15.9439936  )
        45           O1  tau(  45) = (   3.2900926   2.9813045   4.7018136  )
        46           O1  tau(  46) = (   1.3039711   4.4726057   6.0039043  )
        47           O1  tau(  47) = (   5.2763189   4.4711207   6.0039473  )
        48           N1  tau(  48) = (   0.8157702   2.5297039  18.7633901  )
        49           N1  tau(  49) = (   6.4302604   3.3580032  18.1334362  )
        50           C1  tau(  50) = (   1.9549655   3.0231469  19.2293773  )
        51           H1  tau(  51) = (   2.0801252   4.0892486  19.3254668  )
        52           H1  tau(  52) = (   2.7239663   2.3052050  19.4587972  )
        53           H1  tau(  53) = (   0.7490178   1.5515861  18.4517582  )
        54           H1  tau(  54) = (   6.4535031   4.2829477  18.5696568  )
        55           H1  tau(  55) = (   5.5068980   2.9516776  18.2836589  )
        56           O1  tau(  56) = (   3.3967406   0.0908776  18.1493316  )
        57           H1  tau(  57) = (   4.3453859   0.1513423  18.3540861  )

     number of k points=    10  Fermi-Dirac smearing, width (Ry)=  0.0073
                       cart. coord. in units 2pi/alat
        k(    1) = (   0.0000000   0.0000000   0.0000000), wk =   0.1250000
        k(    2) = (   0.0000000   0.0419351   0.0000000), wk =   0.2500000
        k(    3) = (   0.0000000  -0.0838702   0.0000000), wk =   0.1250000
        k(    4) = (   0.0379955   0.0000049   0.0000000), wk =   0.2500000
        k(    5) = (   0.0379955   0.0419400   0.0000000), wk =   0.2500000
        k(    6) = (   0.0379955  -0.0838652   0.0000000), wk =   0.2500000
        k(    7) = (   0.0379955  -0.0419301   0.0000000), wk =   0.2500000
        k(    8) = (  -0.0759910  -0.0000099   0.0000000), wk =   0.1250000
        k(    9) = (  -0.0759910   0.0419252   0.0000000), wk =   0.2500000
        k(   10) = (  -0.0759910  -0.0838800   0.0000000), wk =   0.1250000

     Initial potential from superposition of free atoms

     starting charge  387.99913, renormalised to  404.00000

     negative rho (up, down):  1.608E-02 0.000E+00

     %%%%%%%%%%%%%%%%%%%%%%%%%%%%%%%%%%%%%%%%%%%%%%%%%%%%%%%%%%%%%%%%%%%%%%%%
     %                                                                      %
     % You are using vdW-DF, which was implemented by the Thonhauser group. %
     % Please cite the following two papers that made this development      %
     % possible and the two reviews that describe the various versions:     %
     %                                                                      %
     %   T. Thonhauser et al., PRL 115, 136402 (2015).                      %
     %   T. Thonhauser et al., PRB 76, 125112 (2007).                       %
     %   K. Berland et al., Rep. Prog. Phys. 78, 066501 (2015).             %
     %   D.C. Langreth et al., J. Phys.: Condens. Matter 21, 084203 (2009). %
     %                                                                      %
     %                                                                      %
     % If you are calculating the stress with vdW-DF, please also cite:     %
     %                                                                      %
     %   R. Sabatini et al., J. Phys.: Condens. Matter 24, 424209 (2012).   %
     %                                                                      %
     %%%%%%%%%%%%%%%%%%%%%%%%%%%%%%%%%%%%%%%%%%%%%%%%%%%%%%%%%%%%%%%%%%%%%%%%

     Adding external electric field

     Computed dipole along edir(3) :
        Dipole              -13.8429 Ry au,        -35.1851 Debye
        Dipole field         -0.0261 Ry au,

        Potential amp.        2.4216 Ry
        Total length         46.3494 bohr

     Starting wfcs are  306 atomic wfcs
  @ DRIVER MODE: Message from server: STATUS
  @ DRIVER MODE: Message from server: POSDATA
  @ DRIVER MODE: Reading and sharing cell
  @ DRIVER MODE: Reading and sharing positions
  @ DRIVER MODE: Received positions

     Self-consistent Calculation

     iteration #  1     ecut=    29.40 Ry     beta= 0.05
     Davidson diagonalization with overlap
     c_bands:  1 eigenvalues not converged
     c_bands:  2 eigenvalues not converged
     c_bands:  1 eigenvalues not converged
     c_bands:  1 eigenvalues not converged
     c_bands:  1 eigenvalues not converged
     c_bands:  2 eigenvalues not converged
     c_bands:  5 eigenvalues not converged
     c_bands:  3 eigenvalues not converged
     ethr =  1.00E-05,  avg # of iterations = 32.8

[...]

     total energy              =   -2231.89569349 Ry
     estimated scf accuracy    <    8426.12901683 Ry

     iteration #  2     ecut=    29.40 Ry     beta= 0.05
     Davidson diagonalization with overlap
     ethr =  1.00E-02,  avg # of iterations = 27.2

[...]

     iteration # 49     ecut=    29.40 Ry     beta= 0.05
     Davidson diagonalization with overlap
     c_bands:  1 eigenvalues not converged
     c_bands:  1 eigenvalues not converged
     ethr =  2.37E-08,  avg # of iterations = 16.6

[...]

     total energy              =   -2975.15009855 Ry
     estimated scf accuracy    <       0.00000011 Ry

     iteration # 68     ecut=    29.40 Ry     beta= 0.05
     Davidson diagonalization with overlap
     ethr =  2.02E-11,  avg # of iterations =  9.1

     negative rho (up, down):  1.524E-02 0.000E+00

     Adding external electric field

     Computed dipole along edir(3) :
        Dipole                1.1816 Ry au,          3.0032 Debye
        Dipole field          0.0022 Ry au,

        Potential amp.       -0.2067 Ry
        Total length         46.3494 bohr

     End of self-consistent calculation

          k = 0.0000 0.0000 0.0000 ( 18029 PWs)   bands (ev):

   -55.4165 -55.3344 -55.3003 -55.2296 -55.1915 -55.1803 -55.1656 -55.1644
   -55.1495 -55.1298 -55.1016 -55.0306 -55.0223 -54.9962 -54.3285 -54.2945
   -31.8223 -31.7717 -31.7432 -31.7154 -31.6686 -31.6681 -31.6331 -31.6241
   -31.6204 -31.6083 -31.5797 -31.5418 -31.5043 -31.4873 -31.4714 -31.4636
   -31.4467 -31.4440 -31.4428 -31.4082 -31.3919 -31.3804 -31.3746 -31.3709
   -31.3663 -31.3603 -31.3568 -31.3349 -31.3293 -31.3260 -31.3260 -31.3025
   -31.2943 -31.2904 -31.2783 -31.2542 -31.2359 -31.2326 -31.2103 -31.2001
   -31.1966 -31.1935 -30.7356 -30.6466 -30.6243 -30.5528 -30.4663 -30.3547
   -19.3741 -16.2693 -16.0494 -15.8839 -15.6686 -15.6223 -15.5321 -15.3698
   -15.2577 -15.1873 -15.0784 -15.0029 -14.9288 -14.8943 -14.8853 -14.8716
   -14.8664 -14.8153 -14.8064 -14.7925 -14.7821 -14.7719 -14.7649 -14.7308
   -14.6967 -14.6483 -14.6100 -14.4933 -14.4548 -14.4182 -14.2947 -14.2752
   -12.8277 -12.7109 -10.1911  -7.8213  -6.5593  -5.3860  -4.1900  -3.8177
    -3.6674  -3.3922  -3.2838  -3.2522  -3.1888  -3.1572  -2.9027  -2.8033
    -2.7844  -2.6482  -2.5294  -2.4828  -2.4222  -2.3517  -2.3202  -2.2972
    -2.2719  -2.2155  -2.1519  -2.1381  -2.1243  -2.0479  -2.0434  -1.9688
    -1.9200  -1.9072  -1.8023  -1.7296  -1.6984  -1.6853  -1.6738  -1.6572
    -1.6323  -1.6253  -1.6016  -1.5395  -1.4737  -1.4647  -1.3993  -1.3731
    -1.1018  -1.0368  -0.9717  -0.9421  -0.8656  -0.8263  -0.8095  -0.7859
    -0.7428  -0.7395  -0.7180  -0.6575  -0.5595  -0.5048  -0.4737  -0.4549
    -0.4023  -0.2888  -0.2686  -0.1579  -0.1290  -0.1218  -0.0828  -0.0347
     0.0068   0.0460   0.1084   0.1780   0.2283   0.2791   0.3114   0.3373
     0.3777   0.4132   0.4732   0.5508   0.5747   0.6192   0.6492   0.6695
     0.6790   0.7358   0.7527   0.8405   0.9213   0.9328   1.0314   1.0626
     1.1124   1.2975   1.3344   1.6335   1.6800   1.6976   1.8862   2.2674
     2.3138   3.7329   3.8573   3.8873   3.8975   3.9363   3.9697   4.0253
     4.2202   4.2315   4.3432   4.4236

[...]

          k = 0.0380-0.0419 0.0000 ( 17876 PWs)   bands (ev):

[...]

          k =-0.0760-0.0000 0.0000 ( 17886 PWs)   bands (ev):

[...]

          k =-0.0760-0.0839 0.0000 ( 17948 PWs)   bands (ev):

   -55.4157 -55.3175 -55.3170 -55.2183 -55.2027 -55.1778 -55.1665 -55.1469
   -55.1465 -55.1432 -55.1085 -55.0245 -55.0193 -55.0074 -54.3119 -54.3110
   -31.6840 -31.6743 -31.6560 -31.6376 -31.6374 -31.6210 -31.6097 -31.6093
   -31.5683 -31.5372 -31.5215 -31.4964 -31.4870 -31.4787 -31.4671 -31.4543
   -31.4527 -31.4474 -31.4442 -31.4373 -31.4369 -31.4271 -31.4115 -31.4034
   -31.3995 -31.3816 -31.3676 -31.3673 -31.3610 -31.3586 -31.3536 -31.3438
   -31.3292 -31.3251 -31.3239 -31.3205 -31.2856 -31.2850 -31.2464 -31.2393
   -31.2144 -31.2059 -30.6373 -30.6366 -30.5489 -30.5477 -30.5099 -30.5092
   -19.3696 -16.2400 -15.7540 -15.4857 -15.3605 -15.3486 -15.2273 -15.2109
   -15.1486 -15.1403 -15.1109 -15.0979 -15.0871 -15.0428 -15.0139 -14.9308
   -14.9152 -14.8744 -14.8710 -14.8252 -14.8229 -14.8213 -14.7995 -14.7779
   -14.7720 -14.7469 -14.7225 -14.6839 -14.6705 -14.5333 -14.4403 -14.3982
   -12.8129 -12.8123 -10.1623  -7.7877  -6.5509  -5.4697  -4.1486  -3.8359
    -3.6274  -2.8413  -2.6985  -2.5970  -2.4870  -2.4549  -2.4063  -2.3572
    -2.3436  -2.3120  -2.2399  -2.2119  -2.1967  -2.1607  -2.1594  -2.1364
    -2.1266  -2.1069  -2.0785  -2.0587  -2.0489  -2.0423  -2.0155  -1.9998
    -1.9857  -1.9603  -1.9325  -1.9116  -1.8982  -1.8905  -1.8397  -1.7344
    -1.6458  -1.5670  -1.5306  -1.5048  -1.4922  -1.4460  -1.4327  -1.4208
    -1.3855  -1.3620  -1.2272  -1.2055  -1.0673  -1.0124  -0.9784  -0.9325
    -0.8786  -0.8701  -0.8530  -0.8132  -0.7737  -0.6413  -0.6099  -0.5751
    -0.5075  -0.4441  -0.3570  -0.3429  -0.3185  -0.3015  -0.2659  -0.2464
    -0.2323  -0.2024  -0.1729  -0.0947  -0.0608  -0.0487  -0.0298   0.0690
     0.1686   0.2083   0.2721   0.3416   0.3833   0.4082   0.4373   0.6220
     0.6516   0.7951   0.8037   0.8081   0.9535   0.9537   1.0023   1.0511
     1.0809   1.1232   1.1522   1.1669   1.2019   2.0565   2.0648   2.1340
     2.1342   3.7694   3.9349   4.1581   4.1805   4.2390   4.2503   4.2812
     4.3068   4.3360   4.3770   4.3963

     the Fermi energy is     3.7827 ev

!    total energy              =   -2975.15012017 Ry
     estimated scf accuracy    <       0.00000003 Ry
     smearing contrib. (-TS)   =      -0.03328926 Ry
     internal energy E=F+TS    =   -2975.11683092 Ry

     The total energy is F=E-TS. E is the sum of the following terms:
     one-electron contribution =  -23379.80221428 Ry
     hartree contribution      =   11787.15048462 Ry
     xc contribution           =    -494.90394789 Ry
     ewald contribution        =    9112.43621204 Ry
     electric field correction =       0.00263459 Ry

     convergence has been achieved in  68 iterations

     Forces acting on atoms (cartesian axes, Ry/au):

     atom    1 type  1   force =     0.00028711   -0.00019772    0.09347926
     atom    2 type  1   force =    -0.00005366    0.00053174   -0.17631669
     atom    3 type  2   force =     0.00004337   -0.00029746   -0.02069441
     atom    4 type  2   force =     0.00001625   -0.00222429    0.05686423
     atom    5 type  2   force =    -0.00785716   -0.00263240    0.00513469
     atom    6 type  2   force =     0.00892444   -0.00211511    0.00325221
     atom    7 type  1   force =    -0.00078264   -0.00333093    0.00575701
     atom    8 type  1   force =     0.00086573    0.00107487   -0.00174282
     atom    9 type  2   force =    -0.00018600    0.00014848    0.00006565
     atom   10 type  2   force =    -0.00342015    0.00105573   -0.00644828
     atom   11 type  2   force =     0.00018457   -0.00013452    0.00031090
     atom   12 type  2   force =    -0.00011763   -0.00023106    0.00003560
     atom   13 type  1   force =     0.00000916   -0.00005144   -0.00020727
     atom   14 type  1   force =     0.00052929   -0.00037325   -0.00026052
     atom   15 type  2   force =    -0.00002947   -0.00099278   -0.00044569
     atom   16 type  2   force =     0.00021208    0.00064076    0.00083626
     atom   17 type  2   force =    -0.00128357    0.00035458   -0.00041056
     atom   18 type  2   force =     0.00134439   -0.00000998   -0.00071851
     atom   19 type  1   force =     0.00005831    0.00059401   -0.00001783
     atom   20 type  1   force =     0.00053207    0.00021047   -0.00055610
     atom   21 type  2   force =     0.00011605    0.00004841    0.10357425
     atom   22 type  2   force =     0.00009810    0.00006448    0.00061973
     atom   23 type  2   force =    -0.07136439   -0.00017956   -0.02700373
     atom   24 type  2   force =     0.07136038    0.00027111   -0.02703461
     atom   25 type  1   force =     0.00007148   -0.00017767    0.09323658
     atom   26 type  1   force =     0.00008076   -0.00126331   -0.17653159
     atom   27 type  2   force =     0.00007722   -0.00015033   -0.01946025
     atom   28 type  2   force =     0.00001899   -0.00060141    0.05222969
     atom   29 type  2   force =    -0.00742725    0.00176871    0.00489375
     atom   30 type  2   force =     0.00835587    0.00235439    0.00299515
     atom   31 type  1   force =    -0.00098115    0.00886186   -0.00436597
     atom   32 type  1   force =     0.00094506   -0.00222315   -0.00240624
     atom   33 type  2   force =    -0.00022331   -0.00134226   -0.00063303
     atom   34 type  2   force =    -0.00214537   -0.00210475   -0.00764995
     atom   35 type  2   force =    -0.00001973    0.00016573    0.00026894
     atom   36 type  2   force =     0.00018120    0.00016046    0.00020754
     atom   37 type  1   force =     0.00003662   -0.00030165    0.00014447
     atom   38 type  1   force =     0.00035029    0.00046358    0.00018722
     atom   39 type  2   force =    -0.00000563    0.00073759   -0.00017107
     atom   40 type  2   force =     0.00021441   -0.00016603    0.00041249
     atom   41 type  2   force =    -0.00046601   -0.00012962    0.00018759
     atom   42 type  2   force =     0.00082559   -0.00024469    0.00004574
     atom   43 type  1   force =     0.00039044   -0.00065549   -0.00007612
     atom   44 type  1   force =     0.00007284    0.00093529    0.00023150
     atom   45 type  2   force =     0.00010030   -0.00008947    0.10333596
     atom   46 type  2   force =    -0.07140432   -0.00003072   -0.02704033
     atom   47 type  2   force =     0.07137965    0.00038656   -0.02707285
     atom   48 type  3   force =    -0.00103672   -0.00133536   -0.00028589
     atom   49 type  3   force =     0.00049133    0.00051524    0.00046349
     atom   50 type  4   force =    -0.00162190   -0.00036524   -0.00055004
     atom   51 type  5   force =     0.00260191    0.00039995    0.00025029
     atom   52 type  5   force =     0.00020613    0.00074531   -0.00001151
     atom   53 type  5   force =    -0.00025181    0.00054062   -0.00004607
     atom   54 type  5   force =    -0.00021007    0.00025362   -0.00037887
     atom   55 type  5   force =     0.00001379    0.00039351    0.00051382
     atom   56 type  2   force =     0.00076591    0.00096799   -0.00022690
     atom   57 type  5   force =    -0.00087312   -0.00069341   -0.00077033

     Total force =     0.363097     Total SCF correction =     0.000542
  @ DRIVER MODE: Message from server: STATUS
  @ DRIVER MODE: Message from server: GETFORCE
  @ DRIVER MODE: Returning v,forces,stress,ensemble

     Writing output data file ./calc.save/
  @ DRIVER MODE: Message from server: EXIT
  @ DRIVE MODE: Exiting

     General routines

     Parallel routines

   This run was terminated on:  19:38:11  23Sep2021

   JOB DONE.