     Program PWSCF v.6.7GPU starts on 24Aug2021 at 11:59: 5

     R & G space division:  proc/nbgrp/npool/nimage =      72
     Reading input from /storage/home/hcoda1/3/ntian30/research/carbon/CH2_vib/ads_slab/CH2N_a/out_0008/pw.inp
Warning: card &CELL ignored
Warning: card   CELL_DYNAMICS='IPI', ignored
Warning: card / ignored

     Current dimensions of program PWSCF are:
     Max number of different atomic species (ntypx) = 10
     Max number of k-points (npk) =  40000
     Max angular momentum in pseudopotentials (lmaxx) =  3
     Presently no symmetry can be used with electric field

     Message from routine cell_base_init:
     DEPRECATED: use true lattice parameter, not A to a.u. conversion factor

     IMPORTANT: XC functional enforced from input :
     Exchange-correlation= BEEF-VDW
                           (   1   4  43  14   2   0   0)
     Any further DFT definition will be discarded
     Please, verify this is what you really want

  @ DRIVER MODE: Connecting to
 qe_1139763_2641441.sched-torque.pace.gatech.edu33_xz73f_scratch
  using UNIX socket
  @ DRIVER MODE: Message from server: STATUS
  @ DRIVER MODE: Message from server: INIT
  @ DRIVER MODE: Receiving replica           0          -1
  @ DRIVER MODE: Receiving encoded integer          25
  @ DRIVER MODE:  SCF:  T  FORCE:  T  STRESS:  F  VC:  F  ENSEMBLE:  F
  @ DRIVER MODE:  SCF:  T  FORCE:  T  STRESS:  F  VC:  F  ENSEMBLE:  F

     Using Slab Decomposition

     bravais-lattice index     =            0
     lattice parameter (alat)  =       1.8897  a.u.
     unit-cell volume          =    6658.9804 (a.u.)^3
     number of atoms/cell      =           51
     number of atomic types    =            5
     number of electrons       =       389.00
     number of Kohn-Sham states=          204
     kinetic-energy cutoff     =      29.3995  Ry
     charge density cutoff     =     293.9946  Ry
     scf convergence threshold =      7.3E-08
     mixing beta               =       0.0500
     number of iterations used =            8  plain     mixing
     Exchange-correlation= BEEF-VDW
                           (   1   4  43  14   2   0   0)

     celldm(1)=   1.889726  celldm(2)=   0.000000  celldm(3)=   0.000000
     celldm(4)=   0.000000  celldm(5)=   0.000000  celldm(6)=   0.000000

     crystal axes: (cart. coord. in units of alat)
               a(1) = (   6.579727   0.000000   0.000000 )
               a(2) = (  -0.000775   5.961596   0.000000 )
               a(3) = (   0.000000   0.000000  25.155947 )

     reciprocal axes: (cart. coord. in units 2 pi/alat)
               b(1) = (  0.151982  0.000020  0.000000 )
               b(2) = (  0.000000  0.167740  0.000000 )
               b(3) = (  0.000000  0.000000  0.039752 )

     PseudoPot. # 1 for Ti read from file:
     /storage/coda1/p-amedford6/0/shared/rich_project_chbe-medford/medford-share/data/pseudos_module/espresso/nninc/pbe/van/Ti.UPF
     MD5 check sum: 8e4df49b7f0d34bbd5052bf3f5ea0213
     Pseudo is Ultrasoft, Zval = 12.0
     Generated by new atomic code, or converted to UPF format
     Using radial grid of  851 points,  6 beta functions with:
                l(1) =   0
                l(2) =   0
                l(3) =   1
                l(4) =   1
                l(5) =   2
                l(6) =   2
     Q(r) pseudized with  8 coefficients,  rinner =    1.000   1.000   1.000
                                                       1.000   1.000

     PseudoPot. # 2 for O  read from file:
     /storage/coda1/p-amedford6/0/shared/rich_project_chbe-medford/medford-share/data/pseudos_module/espresso/nninc/pbe/van/O.UPF
     MD5 check sum: 78c19812648e8988a0fe644b0f25305e
     Pseudo is Ultrasoft, Zval =  6.0
     Generated by new atomic code, or converted to UPF format
     Using radial grid of  737 points,  4 beta functions with:
                l(1) =   0
                l(2) =   0
                l(3) =   1
                l(4) =   1
     Q(r) pseudized with  8 coefficients,  rinner =    0.800   0.800   0.800

     PseudoPot. # 3 for N  read from file:
     /storage/coda1/p-amedford6/0/shared/rich_project_chbe-medford/medford-share/data/pseudos_module/espresso/nninc/pbe/van/N.UPF
     MD5 check sum: 90d10febe142ad51ac9d5be1deb811c4
     Pseudo is Ultrasoft, Zval =  5.0
     Generated by new atomic code, or converted to UPF format
     Using radial grid of  729 points,  4 beta functions with:
                l(1) =   0
                l(2) =   0
                l(3) =   1
                l(4) =   1
     Q(r) pseudized with  8 coefficients,  rinner =    0.800   0.800   0.800

     PseudoPot. # 4 for C  read from file:
     /storage/coda1/p-amedford6/0/shared/rich_project_chbe-medford/medford-share/data/pseudos_module/espresso/nninc/pbe/van/C.UPF
     MD5 check sum: 1a69bf6b8db32088f5b2163dbdb77a27
     Pseudo is Ultrasoft, Zval =  4.0
     Generated by new atomic code, or converted to UPF format
     Using radial grid of  721 points,  4 beta functions with:
                l(1) =   0
                l(2) =   0
                l(3) =   1
                l(4) =   1
     Q(r) pseudized with  8 coefficients,  rinner =    0.800   0.800   0.800

     PseudoPot. # 5 for H  read from file:
     /storage/coda1/p-amedford6/0/shared/rich_project_chbe-medford/medford-share/data/pseudos_module/espresso/nninc/pbe/van/H.UPF
     MD5 check sum: b5ee9d7bfd3a09ee7748110bda690ff7
     Pseudo is Ultrasoft, Zval =  1.0
     Generated by new atomic code, or converted to UPF format
     Using radial grid of  615 points,  1 beta functions with:
                l(1) =   0
     Q(r) pseudized with  8 coefficients,  rinner =    0.800

     atomic species   valence    mass     pseudopotential
        Ti1           12.00    47.86700     Ti( 1.00)
        O1             6.00    15.99900     O ( 1.00)
        N1             5.00    14.00700     N ( 1.00)
        C1             4.00    12.01100     C ( 1.00)
        H1             1.00     1.00800     H ( 1.00)

     No symmetry found

   Cartesian axes

     site n.     atom                  positions (alat units)
         1           Ti1 tau(   1) = (   0.0004258   2.9801865   6.0000000  )
         2           Ti1 tau(   2) = (   3.2906075   1.4906267   6.0002472  )
         3           O1  tau(   3) = (   0.0006271   0.0005054   7.9858123  )
         4           O1  tau(   4) = (   3.2906025   0.0005020   7.3038282  )
         5           O1  tau(   5) = (   4.5942328   1.4918067   9.2879030  )
         6           O1  tau(   6) = (   1.9868534   1.4903216   9.2879459  )
         7           Ti1 tau(   7) = (   3.2907910   2.8959150   9.1758416  )
         8           Ti1 tau(   8) = (   0.0015273   1.4827037   9.2680791  )
         9           O1  tau(   9) = (   3.3121109   0.0111249  11.3310253  )
        10           O1  tau(  10) = (   0.0116148   5.9584955  10.6183126  )
        11           O1  tau(  11) = (   1.3329579   1.5011098  12.6063046  )
        12           O1  tau(  12) = (   5.3158149   1.4916659  12.6245769  )
        13           Ti1 tau(  13) = (   6.5431557   2.9598450  12.6156978  )
        14           Ti1 tau(  14) = (   3.2273839   1.5049138  12.4779161  )
        15           O1  tau(  15) = (   0.0471551   0.0364395  14.6528705  )
        16           O1  tau(  16) = (   3.3160098   0.0207640  13.9215624  )
        17           O1  tau(  17) = (   4.5810600   1.5471256  16.0564497  )
        18           O1  tau(  18) = (   2.0947546   1.5446786  16.0656860  )
        19           Ti1 tau(  19) = (   3.3354243   3.0239694  15.7034691  )
        20           Ti1 tau(  20) = (   0.0419518   1.5622418  15.8401859  )
        21           O1  tau(  21) = (   3.2904802   0.0005063   4.7018136  )
        22           O1  tau(  22) = (   0.0415632   0.0558952  17.2248266  )
        23           O1  tau(  23) = (   1.3043587   1.4918075   6.0039043  )
        24           O1  tau(  24) = (   5.2767064   1.4903225   6.0039473  )
        25           Ti1 tau(  25) = (   0.0000382   5.9609847   6.0000000  )
        26           Ti1 tau(  26) = (   3.2902200   4.4714249   6.0002472  )
        27           O1  tau(  27) = (   0.0002396   2.9813036   7.9858123  )
        28           O1  tau(  28) = (   3.2902150   2.9813002   7.3038282  )
        29           O1  tau(  29) = (   4.5938453   4.4726049   9.2879030  )
        30           O1  tau(  30) = (   1.9864658   4.4711199   9.2879459  )
        31           Ti1 tau(  31) = (   3.2891106   5.8743827   9.1763621  )
        32           Ti1 tau(  32) = (   0.0006254   4.4649316   9.2693709  )
        33           O1  tau(  33) = (   3.3101407   2.9955762  11.3294870  )
        34           O1  tau(  34) = (   0.0092240   2.9805883  10.6323155  )
        35           O1  tau(  35) = (   1.3272401   4.4878838  12.6173354  )
        36           O1  tau(  36) = (   5.3164082   4.4812184  12.6342743  )
        37           Ti1 tau(  37) = (   6.5430856   5.9365306  12.5602028  )
        38           Ti1 tau(  38) = (   3.2246414   4.4845729  12.4831641  )
        39           O1  tau(  39) = (   0.0420920   2.9623338  14.6463429  )
        40           O1  tau(  40) = (   3.3182946   3.0055568  13.9055467  )
        41           O1  tau(  41) = (   4.5797692   4.5125808  16.0776662  )
        42           O1  tau(  42) = (   2.0972274   4.5146901  16.0918111  )
        43           Ti1 tau(  43) = (   3.3319946   0.0399457  15.7186693  )
        44           Ti1 tau(  44) = (   0.0407629   4.6953510  16.1098173  )
        45           O1  tau(  45) = (   3.2900926   2.9813045   4.7018136  )
        46           O1  tau(  46) = (   1.3039711   4.4726057   6.0039043  )
        47           O1  tau(  47) = (   5.2763189   4.4711207   6.0039473  )
        48           N1  tau(  48) = (   0.0554023   2.9932257  17.3910969  )
        49           C1  tau(  49) = (   0.1190839   2.9222626  18.6472186  )
        50           H1  tau(  50) = (   0.1225839   3.8204711  19.2773028  )
        51           H1  tau(  51) = (   0.1417253   1.9549180  19.1625725  )

     number of k points=    10  Fermi-Dirac smearing, width (Ry)=  0.0073
                       cart. coord. in units 2pi/alat
        k(    1) = (   0.0000000   0.0000000   0.0000000), wk =   0.1250000
        k(    2) = (   0.0000000   0.0419351   0.0000000), wk =   0.2500000
        k(    3) = (   0.0000000  -0.0838702   0.0000000), wk =   0.1250000
        k(    4) = (   0.0379955   0.0000049   0.0000000), wk =   0.2500000
        k(    5) = (   0.0379955   0.0419400   0.0000000), wk =   0.2500000
        k(    6) = (   0.0379955  -0.0838652   0.0000000), wk =   0.2500000
        k(    7) = (   0.0379955  -0.0419301   0.0000000), wk =   0.2500000
        k(    8) = (  -0.0759910  -0.0000099   0.0000000), wk =   0.1250000
        k(    9) = (  -0.0759910   0.0419252   0.0000000), wk =   0.2500000
        k(   10) = (  -0.0759910  -0.0838800   0.0000000), wk =   0.1250000

     Initial potential from superposition of free atoms

     starting charge  372.99918, renormalised to  389.00000

     negative rho (up, down):  1.813E-02 0.000E+00

     %%%%%%%%%%%%%%%%%%%%%%%%%%%%%%%%%%%%%%%%%%%%%%%%%%%%%%%%%%%%%%%%%%%%%%%%
     %                                                                      %
     % You are using vdW-DF, which was implemented by the Thonhauser group. %
     % Please cite the following two papers that made this development      %
     % possible and the two reviews that describe the various versions:     %
     %                                                                      %
     %   T. Thonhauser et al., PRL 115, 136402 (2015).                      %
     %   T. Thonhauser et al., PRB 76, 125112 (2007).                       %
     %   K. Berland et al., Rep. Prog. Phys. 78, 066501 (2015).             %
     %   D.C. Langreth et al., J. Phys.: Condens. Matter 21, 084203 (2009). %
     %                                                                      %
     %                                                                      %
     % If you are calculating the stress with vdW-DF, please also cite:     %
     %                                                                      %
     %   R. Sabatini et al., J. Phys.: Condens. Matter 24, 424209 (2012).   %
     %                                                                      %
     %%%%%%%%%%%%%%%%%%%%%%%%%%%%%%%%%%%%%%%%%%%%%%%%%%%%%%%%%%%%%%%%%%%%%%%%

     Adding external electric field

     Computed dipole along edir(3) :
        Dipole               -4.6856 Ry au,        -11.9097 Debye
        Dipole field         -0.0088 Ry au,

        Potential amp.        0.8197 Ry
        Total length         46.3494 bohr

     Starting wfcs are  294 atomic wfcs
  @ DRIVER MODE: Message from server: STATUS
  @ DRIVER MODE: Message from server: POSDATA
  @ DRIVER MODE: Reading and sharing cell
  @ DRIVER MODE: Reading and sharing positions
  @ DRIVER MODE: Received positions

     Self-consistent Calculation

     iteration #  1     ecut=    29.40 Ry     beta= 0.05
     Davidson diagonalization with overlap
     c_bands:  3 eigenvalues not converged
     c_bands:  1 eigenvalues not converged
     c_bands:  1 eigenvalues not converged
     c_bands:  3 eigenvalues not converged
     c_bands:  3 eigenvalues not converged
     c_bands:  2 eigenvalues not converged
     c_bands:  2 eigenvalues not converged
     ethr =  1.00E-05,  avg # of iterations = 19.9

[...]

     total energy              =   -2865.76291900 Ry
     estimated scf accuracy    <     594.52601378 Ry

     iteration #  2     ecut=    29.40 Ry     beta= 0.05
     Davidson diagonalization with overlap
     ethr =  1.00E-02,  avg # of iterations = 14.5

[...]

     iteration # 64     ecut=    29.40 Ry     beta= 0.05
     Davidson diagonalization with overlap
     c_bands:  1 eigenvalues not converged
     ethr =  2.83E-11,  avg # of iterations = 12.1

[...]

     total energy              =   -2917.92289555 Ry
     estimated scf accuracy    <       0.00000009 Ry

     iteration # 65     ecut=    29.40 Ry     beta= 0.05
     Davidson diagonalization with overlap
     ethr =  2.21E-11,  avg # of iterations =  7.3

     negative rho (up, down):  1.844E-02 0.000E+00

     Adding external electric field

     Computed dipole along edir(3) :
        Dipole                0.7708 Ry au,          1.9592 Debye
        Dipole field          0.0015 Ry au,

        Potential amp.       -0.1348 Ry
        Total length         46.3494 bohr

     End of self-consistent calculation

          k = 0.0000 0.0000 0.0000 ( 18029 PWs)   bands (ev):

   -55.9935 -55.9847 -55.9594 -55.9483 -55.8714 -55.8416 -55.8215 -55.8072
   -55.8028 -55.7689 -55.7672 -55.7335 -55.5205 -55.2468 -54.9711 -54.9371
   -32.5391 -32.4758 -32.3428 -32.3236 -32.3016 -32.2965 -32.2866 -32.2578
   -32.2363 -32.2114 -32.2045 -32.1825 -32.1649 -32.1457 -32.1378 -32.1246
   -32.1039 -32.0977 -32.0841 -32.0506 -32.0503 -32.0474 -32.0012 -31.9999
   -31.9988 -31.9975 -31.9908 -31.9830 -31.9694 -31.9565 -31.9488 -31.9425
   -31.9332 -31.9330 -31.9204 -31.9103 -31.8794 -31.7702 -31.7026 -31.5359
   -31.5015 -31.4591 -31.3782 -31.2899 -31.2675 -31.1950 -31.1085 -30.9974
   -16.7363 -16.4679 -16.2427 -16.1459 -16.1149 -15.9984 -15.8328 -15.7143
   -15.6632 -15.5651 -15.5514 -15.5296 -15.4963 -15.4654 -15.4632 -15.4374
   -15.4337 -15.4141 -15.4009 -15.3535 -15.3312 -15.2964 -15.1987 -15.1678
   -15.1278 -15.0998 -15.0588 -15.0498 -14.9210 -14.5607 -13.4734 -13.3570
    -7.5605  -4.3339  -4.1138  -4.0017  -3.9487  -3.8991  -3.8407  -3.6338
    -3.5428  -3.5191  -3.2242  -3.1778  -3.1603  -3.1478  -3.1093  -2.8940
    -2.8402  -2.8086  -2.7875  -2.7734  -2.7623  -2.7545  -2.7341  -2.7074
    -2.5939  -2.5382  -2.5348  -2.4117  -2.3841  -2.3271  -2.3056  -2.2588
    -2.2434  -2.2348  -2.2076  -2.1966  -2.1835  -2.1530  -2.0756  -1.9618
    -1.8109  -1.7919  -1.7563  -1.6289  -1.6011  -1.5397  -1.4494  -1.4340
    -1.4195  -1.3851  -1.3679  -1.2967  -1.1708  -1.1465  -1.1369  -1.0360
    -0.9895  -0.9710  -0.8744  -0.8390  -0.7690  -0.7579  -0.7464  -0.7092
    -0.5482  -0.4914  -0.4622  -0.3956  -0.3658  -0.3065  -0.2941  -0.2652
    -0.1830  -0.1306  -0.1104  -0.1039  -0.0555  -0.0189  -0.0023   0.0073
     0.0184   0.0325   0.2051   0.2779   0.2849   0.3639   0.3737   0.5346
     0.5958   0.6633   0.7714   0.9765   1.0511   1.1401   1.2434   1.4373
     1.6223   1.6679   3.1427   3.2262   3.2743   3.2838   3.3849   3.4219
     3.5960   3.6020   3.6163   3.6904

[...]

          k = 0.0380-0.0419 0.0000 ( 17876 PWs)   bands (ev):

[...]

          k =-0.0760-0.0000 0.0000 ( 17886 PWs)   bands (ev):

[...]

          k =-0.0760-0.0839 0.0000 ( 17948 PWs)   bands (ev):

   -55.9769 -55.9759 -55.9691 -55.9637 -55.8644 -55.8283 -55.8248 -55.8240
   -55.7864 -55.7848 -55.7513 -55.7496 -55.5196 -55.2477 -54.9541 -54.9539
   -32.3449 -32.3398 -32.2915 -32.2907 -32.2725 -32.2714 -32.2545 -32.2425
   -32.1944 -32.1883 -32.1820 -32.1753 -32.1384 -32.1201 -32.1152 -32.1138
   -32.1046 -32.0986 -32.0964 -32.0954 -32.0901 -32.0876 -32.0678 -32.0437
   -32.0402 -32.0296 -32.0201 -32.0065 -31.9856 -31.9852 -31.9827 -31.9812
   -31.9659 -31.9651 -31.9606 -31.9575 -31.8827 -31.7728 -31.6988 -31.6013
   -31.5031 -31.4799 -31.2803 -31.2802 -31.1911 -31.1909 -31.1518 -31.1518
   -16.1685 -16.1493 -15.9376 -15.9104 -15.9054 -15.8939 -15.7655 -15.7050
   -15.6885 -15.6865 -15.6077 -15.5859 -15.5646 -15.5371 -15.5255 -15.5131
   -15.5070 -15.4983 -15.4556 -15.4495 -15.4299 -15.4228 -15.3199 -15.3105
   -15.3064 -15.2504 -15.1767 -15.0379 -14.9379 -14.7289 -13.4589 -13.4587
    -7.5563  -4.3162  -3.6863  -3.4589  -3.4362  -3.1678  -3.1508  -3.1418
    -3.0817  -2.9090  -2.8930  -2.8700  -2.8491  -2.8204  -2.8186  -2.7973
    -2.7952  -2.7844  -2.7400  -2.7330  -2.7075  -2.6708  -2.6608  -2.6493
    -2.6404  -2.6166  -2.6063  -2.5643  -2.5348  -2.5277  -2.5128  -2.4891
    -2.3039  -2.2209  -2.1945  -2.1316  -2.1243  -2.0890  -2.0574  -2.0454
    -2.0295  -1.9790  -1.9010  -1.7269  -1.6941  -1.6759  -1.6177  -1.5894
    -1.5485  -1.4623  -1.3943  -1.3697  -1.3636  -1.3151  -1.2064  -1.1846
    -1.1709  -1.0974  -1.0616  -1.0436  -1.0021  -0.9872  -0.9539  -0.9485
    -0.8554  -0.8060  -0.7592  -0.7568  -0.7114  -0.6450  -0.6321  -0.6045
    -0.4956  -0.4767  -0.4054  -0.3773  -0.2757  -0.2075  -0.0100   0.0524
     0.0779   0.1363   0.2165   0.2973   0.3118   0.3257   0.3261   0.3734
     0.4426   0.5384   0.5478   0.6015   0.7063   1.3313   1.4148   1.4154
     1.4878   1.4878   3.4283   3.4381   3.4774   3.4992   3.6352   3.6510
     3.6742   3.6755   3.7299   3.8146

     the Fermi energy is     3.1403 ev

!    total energy              =   -2917.92292039 Ry
     estimated scf accuracy    <       0.00000005 Ry
     smearing contrib. (-TS)   =      -0.02181348 Ry
     internal energy E=F+TS    =   -2917.90110691 Ry

     The total energy is F=E-TS. E is the sum of the following terms:
     one-electron contribution =  -24778.20826152 Ry
     hartree contribution      =   12472.77106771 Ry
     xc contribution           =    -479.18478633 Ry
     ewald contribution        =    9866.71975195 Ry
     electric field correction =       0.00112127 Ry

     convergence has been achieved in  65 iterations

     Forces acting on atoms (cartesian axes, Ry/au):

     atom    1 type  1   force =     0.00017048   -0.00023798    0.09668357
     atom    2 type  1   force =     0.00006785   -0.00053451   -0.17544408
     atom    3 type  2   force =     0.00017849    0.00000378   -0.02477601
     atom    4 type  2   force =     0.00005726   -0.00133492    0.05295057
     atom    5 type  2   force =    -0.01179570    0.00012271    0.00259530
     atom    6 type  2   force =     0.01396786    0.00051154    0.00339667
     atom    7 type  1   force =     0.00129177    0.00069894   -0.01177042
     atom    8 type  1   force =    -0.00005460    0.00767987    0.02821177
     atom    9 type  2   force =    -0.00024172   -0.00023335   -0.00011746
     atom   10 type  2   force =    -0.00220575    0.00207315   -0.01527500
     atom   11 type  2   force =     0.00000877   -0.00009419    0.00023733
     atom   12 type  2   force =    -0.00004123    0.00014397   -0.00005354
     atom   13 type  1   force =    -0.00104596   -0.00025552   -0.00002559
     atom   14 type  1   force =    -0.00022719   -0.00026215    0.00058017
     atom   15 type  2   force =    -0.00029357   -0.00002615   -0.00020647
     atom   16 type  2   force =     0.00025686    0.00007720   -0.00051705
     atom   17 type  2   force =     0.00009333    0.00009364   -0.00019658
     atom   18 type  2   force =    -0.00010339    0.00029486   -0.00054926
     atom   19 type  1   force =    -0.00064457    0.00011048   -0.00035130
     atom   20 type  1   force =     0.00009479   -0.00101732    0.00023256
     atom   21 type  2   force =     0.00008820   -0.00004675    0.10324157
     atom   22 type  2   force =     0.00043941   -0.00028131   -0.00002213
     atom   23 type  2   force =    -0.07147110   -0.00015831   -0.02769994
     atom   24 type  2   force =     0.07146353    0.00033417   -0.02778494
     atom   25 type  1   force =     0.00018443   -0.00022604    0.09619461
     atom   26 type  1   force =     0.00011298   -0.00029222   -0.17558403
     atom   27 type  2   force =     0.00022402   -0.00011414   -0.02385475
     atom   28 type  2   force =     0.00009079   -0.00110126    0.05289667
     atom   29 type  2   force =    -0.01200113    0.00067787    0.00233852
     atom   30 type  2   force =     0.01403795    0.00103000    0.00319051
     atom   31 type  1   force =     0.00114887    0.00334661   -0.01209824
     atom   32 type  1   force =    -0.00024548   -0.00973383    0.02865822
     atom   33 type  2   force =    -0.00017391    0.00031551   -0.00008647
     atom   34 type  2   force =    -0.00172755    0.00175448   -0.02356531
     atom   35 type  2   force =     0.00000601    0.00009443    0.00023488
     atom   36 type  2   force =     0.00055475    0.00012388    0.00022102
     atom   37 type  1   force =    -0.00099315   -0.00039189    0.00025833
     atom   38 type  1   force =     0.00022975   -0.00011466    0.00051440
     atom   39 type  2   force =    -0.00006760   -0.00054208   -0.00073474
     atom   40 type  2   force =    -0.00004378    0.00025820    0.00048095
     atom   41 type  2   force =    -0.00064266   -0.00047928   -0.00015584
     atom   42 type  2   force =    -0.00010161   -0.00072446   -0.00075766
     atom   43 type  1   force =    -0.00050248    0.00000511   -0.00012834
     atom   44 type  1   force =     0.00007605    0.00031929    0.00044039
     atom   45 type  2   force =     0.00006616   -0.00006845    0.10325571
     atom   46 type  2   force =    -0.07147768   -0.00008147   -0.02771174
     atom   47 type  2   force =     0.07149300    0.00033386   -0.02778739
     atom   48 type  3   force =     0.00284538   -0.00065587    0.00115126
     atom   49 type  4   force =    -0.00676856   -0.00038610   -0.00147616
     atom   50 type  5   force =     0.00205305   -0.00014912    0.00015973
     atom   51 type  5   force =     0.00156859   -0.00086022    0.00060575

     Total force =     0.368099     Total SCF correction =     0.000744
  @ DRIVER MODE: Message from server: STATUS
  @ DRIVER MODE: Message from server: GETFORCE
  @ DRIVER MODE: Returning v,forces,stress,ensemble

     Writing output data file ./calc.save/
  @ DRIVER MODE: Message from server: EXIT
  @ DRIVE MODE: Exiting

     General routines

     Parallel routines

   This run was terminated on:  12:16:19  24Aug2021

   JOB DONE.