     Program PWSCF v.6.7GPU starts on 16Sep2021 at  2:37:49

     R & G space division:  proc/nbgrp/npool/nimage =      10
     Reading input from /storage/home/hcoda1/3/ntian30/research/carbon/CxH_vib/H2O_calc/ads_slab/CH2NHH2O_a/out_0033/pw.inp
Warning: card &CELL ignored
Warning: card   CELL_DYNAMICS='IPI', ignored
Warning: card / ignored

     Current dimensions of program PWSCF are:
     Max number of different atomic species (ntypx) = 10
     Max number of k-points (npk) =  40000
     Max angular momentum in pseudopotentials (lmaxx) =  3
     Presently no symmetry can be used with electric field

     Message from routine cell_base_init:
     DEPRECATED: use true lattice parameter, not A to a.u. conversion factor

     IMPORTANT: XC functional enforced from input :
     Exchange-correlation= BEEF-VDW
                           (   1   4  43  14   2   0   0)
     Any further DFT definition will be discarded
     Please, verify this is what you really want

  @ DRIVER MODE: Connecting to
 qe_1139763_2852608.sched-torque.pace.gatech.edu9t7x3b3w_scratch
  using UNIX socket
  @ DRIVER MODE: Message from server: STATUS
  @ DRIVER MODE: Message from server: INIT
  @ DRIVER MODE: Receiving replica           0          -1
  @ DRIVER MODE: Receiving encoded integer          25
  @ DRIVER MODE:  SCF:  T  FORCE:  T  STRESS:  F  VC:  F  ENSEMBLE:  F
  @ DRIVER MODE:  SCF:  T  FORCE:  T  STRESS:  F  VC:  F  ENSEMBLE:  F

     Using Slab Decomposition

     bravais-lattice index     =            0
     lattice parameter (alat)  =       1.8897  a.u.
     unit-cell volume          =    6658.9804 (a.u.)^3
     number of atoms/cell      =           55
     number of atomic types    =            5
     number of electrons       =       398.00
     number of Kohn-Sham states=          209
     kinetic-energy cutoff     =      29.3995  Ry
     charge density cutoff     =     293.9946  Ry
     scf convergence threshold =      7.3E-08
     mixing beta               =       0.0500
     number of iterations used =            8  plain     mixing
     Exchange-correlation= BEEF-VDW
                           (   1   4  43  14   2   0   0)

     celldm(1)=   1.889726  celldm(2)=   0.000000  celldm(3)=   0.000000
     celldm(4)=   0.000000  celldm(5)=   0.000000  celldm(6)=   0.000000

     crystal axes: (cart. coord. in units of alat)
               a(1) = (   6.579727   0.000000   0.000000 )
               a(2) = (  -0.000775   5.961596   0.000000 )
               a(3) = (   0.000000   0.000000  25.155947 )

     reciprocal axes: (cart. coord. in units 2 pi/alat)
               b(1) = (  0.151982  0.000020  0.000000 )
               b(2) = (  0.000000  0.167740  0.000000 )
               b(3) = (  0.000000  0.000000  0.039752 )

     PseudoPot. # 1 for Ti read from file:
     /storage/coda1/p-amedford6/0/shared/rich_project_chbe-medford/medford-share/data/pseudos_module/espresso/nninc/pbe/van/Ti.UPF
     MD5 check sum: 8e4df49b7f0d34bbd5052bf3f5ea0213
     Pseudo is Ultrasoft, Zval = 12.0
     Generated by new atomic code, or converted to UPF format
     Using radial grid of  851 points,  6 beta functions with:
                l(1) =   0
                l(2) =   0
                l(3) =   1
                l(4) =   1
                l(5) =   2
                l(6) =   2
     Q(r) pseudized with  8 coefficients,  rinner =    1.000   1.000   1.000
                                                       1.000   1.000

     PseudoPot. # 2 for O  read from file:
     /storage/coda1/p-amedford6/0/shared/rich_project_chbe-medford/medford-share/data/pseudos_module/espresso/nninc/pbe/van/O.UPF
     MD5 check sum: 78c19812648e8988a0fe644b0f25305e
     Pseudo is Ultrasoft, Zval =  6.0
     Generated by new atomic code, or converted to UPF format
     Using radial grid of  737 points,  4 beta functions with:
                l(1) =   0
                l(2) =   0
                l(3) =   1
                l(4) =   1
     Q(r) pseudized with  8 coefficients,  rinner =    0.800   0.800   0.800

     PseudoPot. # 3 for N  read from file:
     /storage/coda1/p-amedford6/0/shared/rich_project_chbe-medford/medford-share/data/pseudos_module/espresso/nninc/pbe/van/N.UPF
     MD5 check sum: 90d10febe142ad51ac9d5be1deb811c4
     Pseudo is Ultrasoft, Zval =  5.0
     Generated by new atomic code, or converted to UPF format
     Using radial grid of  729 points,  4 beta functions with:
                l(1) =   0
                l(2) =   0
                l(3) =   1
                l(4) =   1
     Q(r) pseudized with  8 coefficients,  rinner =    0.800   0.800   0.800

     PseudoPot. # 4 for C  read from file:
     /storage/coda1/p-amedford6/0/shared/rich_project_chbe-medford/medford-share/data/pseudos_module/espresso/nninc/pbe/van/C.UPF
     MD5 check sum: 1a69bf6b8db32088f5b2163dbdb77a27
     Pseudo is Ultrasoft, Zval =  4.0
     Generated by new atomic code, or converted to UPF format
     Using radial grid of  721 points,  4 beta functions with:
                l(1) =   0
                l(2) =   0
                l(3) =   1
                l(4) =   1
     Q(r) pseudized with  8 coefficients,  rinner =    0.800   0.800   0.800

     PseudoPot. # 5 for H  read from file:
     /storage/coda1/p-amedford6/0/shared/rich_project_chbe-medford/medford-share/data/pseudos_module/espresso/nninc/pbe/van/H.UPF
     MD5 check sum: b5ee9d7bfd3a09ee7748110bda690ff7
     Pseudo is Ultrasoft, Zval =  1.0
     Generated by new atomic code, or converted to UPF format
     Using radial grid of  615 points,  1 beta functions with:
                l(1) =   0
     Q(r) pseudized with  8 coefficients,  rinner =    0.800

     atomic species   valence    mass     pseudopotential
        Ti1           12.00    47.86700     Ti( 1.00)
        O1             6.00    15.99900     O ( 1.00)
        N1             5.00    14.00700     N ( 1.00)
        C1             4.00    12.01100     C ( 1.00)
        H1             1.00     1.00800     H ( 1.00)

     No symmetry found

   Cartesian axes

     site n.     atom                  positions (alat units)
         1           Ti1 tau(   1) = (   0.0004258   2.9801865   6.0000000  )
         2           Ti1 tau(   2) = (   3.2906075   1.4906267   6.0002472  )
         3           O1  tau(   3) = (   0.0006271   0.0005054   7.9858123  )
         4           O1  tau(   4) = (   3.2906025   0.0005020   7.3038282  )
         5           O1  tau(   5) = (   4.5942328   1.4918067   9.2879030  )
         6           O1  tau(   6) = (   1.9868534   1.4903216   9.2879459  )
         7           Ti1 tau(   7) = (   3.2907910   2.8959150   9.1758416  )
         8           Ti1 tau(   8) = (   0.0015273   1.4827037   9.2680791  )
         9           O1  tau(   9) = (   3.2898722   0.0008919  11.3582996  )
        10           O1  tau(  10) = (   0.0116148   5.9584955  10.6183126  )
        11           O1  tau(  11) = (   1.2941175   1.4997011  12.6415926  )
        12           O1  tau(  12) = (   5.2900041   1.4988670  12.6311679  )
        13           Ti1 tau(  13) = (   0.0286627   2.9677426  12.5549903  )
        14           Ti1 tau(  14) = (   3.3305619   1.4761135  12.5169476  )
        15           O1  tau(  15) = (   0.0011522   0.0488603  14.6479508  )
        16           O1  tau(  16) = (   3.3026717   0.0283160  13.9913086  )
        17           O1  tau(  17) = (   4.5493611   1.5432082  16.1208237  )
        18           O1  tau(  18) = (   2.0202358   1.5417912  16.1150647  )
        19           Ti1 tau(  19) = (   3.2887705   3.0075965  15.7001020  )
        20           Ti1 tau(  20) = (   0.0091052   1.4341126  16.0176487  )
        21           O1  tau(  21) = (   3.2904802   0.0005063   4.7018136  )
        22           O1  tau(  22) = (   6.5755782   5.8726442  17.1894482  )
        23           O1  tau(  23) = (   1.3043587   1.4918075   6.0039043  )
        24           O1  tau(  24) = (   5.2767064   1.4903225   6.0039473  )
        25           Ti1 tau(  25) = (   0.0000382   5.9609847   6.0000000  )
        26           Ti1 tau(  26) = (   3.2902200   4.4714249   6.0002472  )
        27           O1  tau(  27) = (   0.0002396   2.9813036   7.9858123  )
        28           O1  tau(  28) = (   3.2902150   2.9813002   7.3038282  )
        29           O1  tau(  29) = (   4.5938453   4.4726049   9.2879030  )
        30           O1  tau(  30) = (   1.9864658   4.4711199   9.2879459  )
        31           Ti1 tau(  31) = (   3.2891106   5.8743827   9.1763621  )
        32           Ti1 tau(  32) = (   0.0006254   4.4649316   9.2693709  )
        33           O1  tau(  33) = (   3.2934734   2.9861727  11.3537610  )
        34           O1  tau(  34) = (   0.0092240   2.9805883  10.6323155  )
        35           O1  tau(  35) = (   1.2909626   4.4766429  12.6619247  )
        36           O1  tau(  36) = (   5.2900193   4.4803912  12.6490267  )
        37           Ti1 tau(  37) = (   0.0281377   5.9553508  12.5047683  )
        38           Ti1 tau(  38) = (   3.3302429   4.4653876  12.5079491  )
        39           O1  tau(  39) = (   6.5693844   2.9599090  14.8264494  )
        40           O1  tau(  40) = (   3.2969629   2.9925989  13.9157470  )
        41           O1  tau(  41) = (   4.5484520   4.4472025  16.1223275  )
        42           O1  tau(  42) = (   2.0280084   4.4594140  16.0867804  )
        43           Ti1 tau(  43) = (   3.2969344   0.0408593  15.8189202  )
        44           Ti1 tau(  44) = (   0.0203989   4.6198729  15.8219907  )
        45           O1  tau(  45) = (   3.2900926   2.9813045   4.7018136  )
        46           O1  tau(  46) = (   1.3039711   4.4726057   6.0039043  )
        47           O1  tau(  47) = (   5.2763189   4.4711207   6.0039473  )
        48           N1  tau(  48) = (   6.4956655   2.7544209  17.8339637  )
        49           C1  tau(  49) = (   0.7364952   2.7663736  18.8366375  )
        50           H1  tau(  50) = (   0.4484493   3.1383336  19.8159577  )
        51           H1  tau(  51) = (   1.7396475   2.3816028  18.7013769  )
        52           H1  tau(  52) = (   5.5670006   3.0916272  18.0761613  )
        53           O1  tau(  53) = (   3.3072362   0.0902980  18.2711691  )
        54           H1  tau(  54) = (   4.1501014   5.6086691  18.4387546  )
        55           H1  tau(  55) = (   2.5909652   5.4478326  18.5068232  )

     number of k points=    10  Fermi-Dirac smearing, width (Ry)=  0.0073
                       cart. coord. in units 2pi/alat
        k(    1) = (   0.0000000   0.0000000   0.0000000), wk =   0.1250000
        k(    2) = (   0.0000000   0.0419351   0.0000000), wk =   0.2500000
        k(    3) = (   0.0000000  -0.0838702   0.0000000), wk =   0.1250000
        k(    4) = (   0.0379955   0.0000049   0.0000000), wk =   0.2500000
        k(    5) = (   0.0379955   0.0419400   0.0000000), wk =   0.2500000
        k(    6) = (   0.0379955  -0.0838652   0.0000000), wk =   0.2500000
        k(    7) = (   0.0379955  -0.0419301   0.0000000), wk =   0.2500000
        k(    8) = (  -0.0759910  -0.0000099   0.0000000), wk =   0.1250000
        k(    9) = (  -0.0759910   0.0419252   0.0000000), wk =   0.2500000
        k(   10) = (  -0.0759910  -0.0838800   0.0000000), wk =   0.1250000

     Initial potential from superposition of free atoms

     starting charge  381.99915, renormalised to  398.00000

     negative rho (up, down):  1.643E-02 0.000E+00

     %%%%%%%%%%%%%%%%%%%%%%%%%%%%%%%%%%%%%%%%%%%%%%%%%%%%%%%%%%%%%%%%%%%%%%%%
     %                                                                      %
     % You are using vdW-DF, which was implemented by the Thonhauser group. %
     % Please cite the following two papers that made this development      %
     % possible and the two reviews that describe the various versions:     %
     %                                                                      %
     %   T. Thonhauser et al., PRL 115, 136402 (2015).                      %
     %   T. Thonhauser et al., PRB 76, 125112 (2007).                       %
     %   K. Berland et al., Rep. Prog. Phys. 78, 066501 (2015).             %
     %   D.C. Langreth et al., J. Phys.: Condens. Matter 21, 084203 (2009). %
     %                                                                      %
     %                                                                      %
     % If you are calculating the stress with vdW-DF, please also cite:     %
     %                                                                      %
     %   R. Sabatini et al., J. Phys.: Condens. Matter 24, 424209 (2012).   %
     %                                                                      %
     %%%%%%%%%%%%%%%%%%%%%%%%%%%%%%%%%%%%%%%%%%%%%%%%%%%%%%%%%%%%%%%%%%%%%%%%

     Adding external electric field

     Computed dipole along edir(3) :
        Dipole              -10.4007 Ry au,        -26.4360 Debye
        Dipole field         -0.0196 Ry au,

        Potential amp.        1.8194 Ry
        Total length         46.3494 bohr

     Starting wfcs are  301 atomic wfcs
  @ DRIVER MODE: Message from server: STATUS
  @ DRIVER MODE: Message from server: POSDATA
  @ DRIVER MODE: Reading and sharing cell
  @ DRIVER MODE: Reading and sharing positions
  @ DRIVER MODE: Received positions

     Self-consistent Calculation

     iteration #  1     ecut=    29.40 Ry     beta= 0.05
     Davidson diagonalization with overlap
     c_bands:  3 eigenvalues not converged
     c_bands:  3 eigenvalues not converged
     c_bands:  1 eigenvalues not converged
     c_bands:  4 eigenvalues not converged
     c_bands:  4 eigenvalues not converged
     c_bands:  4 eigenvalues not converged
     c_bands:  2 eigenvalues not converged
     c_bands:  3 eigenvalues not converged
     c_bands:  2 eigenvalues not converged
     ethr =  1.00E-05,  avg # of iterations = 19.9

[...]

     total energy              =   -2485.29701132 Ry
     estimated scf accuracy    <    5245.66753137 Ry

     iteration #  2     ecut=    29.40 Ry     beta= 0.05
     Davidson diagonalization with overlap
     ethr =  1.00E-02,  avg # of iterations = 24.5

[...]

     iteration # 61     ecut=    29.40 Ry     beta= 0.05
     Davidson diagonalization with overlap
     c_bands:  1 eigenvalues not converged
     c_bands:  1 eigenvalues not converged
     ethr =  3.91E-09,  avg # of iterations = 16.4

[...]

     total energy              =   -2953.94951301 Ry
     estimated scf accuracy    <       0.00000021 Ry

     iteration # 71     ecut=    29.40 Ry     beta= 0.05
     Davidson diagonalization with overlap
     ethr =  3.20E-11,  avg # of iterations =  8.5

     negative rho (up, down):  1.568E-02 0.000E+00

     Adding external electric field

     Computed dipole along edir(3) :
        Dipole                1.2830 Ry au,          3.2610 Debye
        Dipole field          0.0024 Ry au,

        Potential amp.       -0.2244 Ry
        Total length         46.3494 bohr

     End of self-consistent calculation

          k = 0.0000 0.0000 0.0000 ( 18029 PWs)   bands (ev):

   -55.3915 -55.3716 -55.3554 -55.3387 -55.3375 -55.2715 -55.2268 -55.2066
   -55.1968 -55.1878 -55.1710 -55.1642 -55.1216 -54.9931 -54.3816 -54.3476
   -31.9518 -31.8608 -31.7593 -31.7450 -31.6996 -31.6968 -31.6951 -31.6616
   -31.6550 -31.6220 -31.6161 -31.6052 -31.5853 -31.5685 -31.5678 -31.5336
   -31.5309 -31.5243 -31.5099 -31.5069 -31.4824 -31.4549 -31.4518 -31.4347
   -31.4286 -31.4057 -31.4045 -31.4014 -31.3997 -31.3931 -31.3735 -31.3670
   -31.3609 -31.3564 -31.3470 -31.3301 -31.3279 -31.3214 -31.3040 -31.2932
   -31.2197 -31.1070 -30.7900 -30.6982 -30.6760 -30.6066 -30.5199 -30.4089
   -19.2119 -16.2518 -16.1573 -15.9136 -15.7326 -15.6440 -15.5821 -15.3929
   -15.3514 -15.2607 -15.1778 -15.0863 -15.0313 -14.9879 -14.9779 -14.9573
   -14.9314 -14.9214 -14.8836 -14.8689 -14.8673 -14.8205 -14.8182 -14.7795
   -14.7706 -14.7266 -14.7042 -14.5958 -14.5399 -14.4857 -14.0583 -12.8840
   -12.7669  -9.0953  -7.0773  -5.9826  -4.4636  -3.5486  -3.3897  -3.3879
    -3.3016  -3.2951  -3.2200  -3.1167  -2.9272  -2.7734  -2.6872  -2.6439
    -2.5929  -2.5682  -2.5091  -2.4554  -2.3606  -2.2894  -2.2597  -2.2263
    -2.2087  -2.1896  -2.1658  -2.1412  -2.1040  -2.0780  -2.0412  -1.9390
    -1.8514  -1.7992  -1.7846  -1.7141  -1.6913  -1.6854  -1.6770  -1.6674
    -1.6627  -1.6547  -1.6020  -1.5785  -1.5369  -1.4092  -1.3387  -1.2339
    -1.1213  -1.0710  -1.0304  -1.0122  -0.9244  -0.9186  -0.8637  -0.7872
    -0.7544  -0.7137  -0.7006  -0.5736  -0.4915  -0.4821  -0.4294  -0.3558
    -0.2977  -0.2569  -0.2010  -0.1763  -0.1536  -0.1372   0.0041   0.0359
     0.0793   0.1076   0.1363   0.2110   0.2477   0.3100   0.3576   0.3653
     0.4126   0.4993   0.5129   0.5627   0.5669   0.6116   0.6306   0.7264
     0.7611   0.7698   0.8356   0.8698   1.0122   1.2282   1.2357   1.2832
     1.5559   1.6178   1.6410   1.8280   2.2152   2.2624   3.7023   3.7932
     3.8321   3.8508   3.8636   3.9380   4.0770   4.1927   4.1971   4.2270
     4.2403

[...]

          k = 0.0380-0.0419 0.0000 ( 17876 PWs)   bands (ev):

[...]

          k =-0.0760-0.0000 0.0000 ( 17886 PWs)   bands (ev):

[...]

          k =-0.0760-0.0839 0.0000 ( 17948 PWs)   bands (ev):

   -55.3753 -55.3714 -55.3546 -55.3543 -55.3367 -55.2634 -55.2349 -55.1906
   -55.1896 -55.1855 -55.1815 -55.1808 -55.1193 -54.9954 -54.3646 -54.3644
   -31.7616 -31.7506 -31.6761 -31.6758 -31.6590 -31.6481 -31.6471 -31.6468
   -31.6197 -31.6079 -31.5895 -31.5855 -31.5780 -31.5592 -31.5398 -31.5251
   -31.5238 -31.5208 -31.5163 -31.5115 -31.5058 -31.4931 -31.4741 -31.4737
   -31.4674 -31.4659 -31.4641 -31.4339 -31.4230 -31.4154 -31.4050 -31.4010
   -31.4003 -31.4000 -31.3884 -31.3830 -31.3609 -31.3592 -31.3385 -31.2894
   -31.2231 -31.1927 -30.6887 -30.6886 -30.6027 -30.6025 -30.5633 -30.5633
   -19.2112 -16.1945 -15.6503 -15.5910 -15.5210 -15.3661 -15.3600 -15.3349
   -15.2730 -15.1745 -15.1609 -15.1289 -15.1212 -15.0867 -15.0753 -15.0548
   -15.0328 -14.9610 -14.9530 -14.9482 -14.9255 -14.8943 -14.8795 -14.8706
   -14.8487 -14.8441 -14.7885 -14.7415 -14.7385 -14.5470 -14.3537 -12.8686
   -12.8684  -9.1005  -7.0757  -5.9812  -4.4453  -3.3112  -2.9258  -2.7953
    -2.7418  -2.5938  -2.5666  -2.5194  -2.4619  -2.4017  -2.3746  -2.3557
    -2.3076  -2.3015  -2.2542  -2.2409  -2.2199  -2.2183  -2.2096  -2.1632
    -2.1463  -2.1410  -2.1198  -2.1048  -2.0938  -2.0753  -2.0464  -2.0375
    -2.0027  -1.9726  -1.9592  -1.9373  -1.8820  -1.7655  -1.7351  -1.6934
    -1.5824  -1.5744  -1.5687  -1.5269  -1.4805  -1.4753  -1.4467  -1.4173
    -1.3481  -1.3206  -1.1295  -1.1172  -1.1035  -1.0381  -1.0121  -0.9139
    -0.8953  -0.8284  -0.8107  -0.7958  -0.7093  -0.6781  -0.5732  -0.5647
    -0.5481  -0.5135  -0.4072  -0.3590  -0.3511  -0.3465  -0.3248  -0.2409
    -0.2268  -0.2090  -0.1748  -0.1467  -0.1134  -0.1000  -0.0163   0.1536
     0.1635   0.2512   0.3509   0.4452   0.5660   0.6371   0.6457   0.7006
     0.7435   0.8249   0.8687   0.9064   0.9258   1.0368   1.0691   1.0851
     1.0916   1.1471   2.0002   2.0016   2.0823   2.0826   3.7828   3.9326
     4.0016   4.0188   4.0588   4.1845   4.2237   4.2756   4.2773   4.2824
     4.3692

     the Fermi energy is     3.7480 ev

!    total energy              =   -2953.94953131 Ry
     estimated scf accuracy    <       0.00000007 Ry
     smearing contrib. (-TS)   =      -0.03631899 Ry
     internal energy E=F+TS    =   -2953.91321232 Ry

     The total energy is F=E-TS. E is the sum of the following terms:
     one-electron contribution =  -24165.84155850 Ry
     hartree contribution      =   12176.31158063 Ry
     xc contribution           =    -488.90391296 Ry
     ewald contribution        =    9524.51757226 Ry
     electric field correction =       0.00310625 Ry

     convergence has been achieved in  71 iterations

     Forces acting on atoms (cartesian axes, Ry/au):

     atom    1 type  1   force =     0.00006399   -0.00021233    0.09432780
     atom    2 type  1   force =    -0.00029300   -0.00033578   -0.17715834
     atom    3 type  2   force =     0.00001591   -0.00013502   -0.02177949
     atom    4 type  2   force =    -0.00002300   -0.00175211    0.05661903
     atom    5 type  2   force =    -0.01065406   -0.00110635    0.00625353
     atom    6 type  2   force =     0.01215267   -0.00035965    0.00529989
     atom    7 type  1   force =    -0.00069367    0.00164637   -0.01076555
     atom    8 type  1   force =     0.00018948    0.00660207    0.00670495
     atom    9 type  2   force =     0.00024950   -0.00039348   -0.00053580
     atom   10 type  2   force =    -0.00109495    0.00064730   -0.01011382
     atom   11 type  2   force =    -0.00026548   -0.00016487   -0.00021237
     atom   12 type  2   force =     0.00038245   -0.00023681    0.00002225
     atom   13 type  1   force =     0.00019238   -0.00050085    0.00122012
     atom   14 type  1   force =    -0.00008297    0.00040020    0.00042655
     atom   15 type  2   force =     0.00008711    0.00019490    0.00120900
     atom   16 type  2   force =    -0.00018186   -0.00066194    0.00024819
     atom   17 type  2   force =    -0.00014684   -0.00018754   -0.00004235
     atom   18 type  2   force =    -0.00095220   -0.00008067    0.00063327
     atom   19 type  1   force =     0.00110748   -0.00017378   -0.00048307
     atom   20 type  1   force =    -0.00136284    0.00073174   -0.00061447
     atom   21 type  2   force =     0.00000425   -0.00004658    0.10368994
     atom   22 type  2   force =    -0.00003776    0.00053923    0.00075925
     atom   23 type  2   force =    -0.07089135   -0.00014410   -0.02715751
     atom   24 type  2   force =     0.07073474    0.00029566   -0.02722602
     atom   25 type  1   force =     0.00001071   -0.00014550    0.09409629
     atom   26 type  1   force =    -0.00022463   -0.00035496   -0.17730863
     atom   27 type  2   force =     0.00005522   -0.00031952   -0.02069939
     atom   28 type  2   force =     0.00004987   -0.00136195    0.05586772
     atom   29 type  2   force =    -0.01087967    0.00029447    0.00603387
     atom   30 type  2   force =     0.01228108    0.00055225    0.00507271
     atom   31 type  1   force =    -0.00057435    0.00496107   -0.01403135
     atom   32 type  1   force =     0.00030632   -0.00742921    0.00637364
     atom   33 type  2   force =     0.00025038    0.00012734   -0.00019893
     atom   34 type  2   force =    -0.00066533    0.00182416   -0.00595226
     atom   35 type  2   force =    -0.00002418   -0.00024284    0.00003594
     atom   36 type  2   force =     0.00025446   -0.00031722    0.00019659
     atom   37 type  1   force =     0.00022075    0.00090120    0.00051654
     atom   38 type  1   force =    -0.00008877    0.00005506    0.00068823
     atom   39 type  2   force =     0.00034346    0.00025722    0.00007607
     atom   40 type  2   force =    -0.00012134   -0.00038060    0.00054522
     atom   41 type  2   force =    -0.00049414   -0.00037438   -0.00060180
     atom   42 type  2   force =    -0.00034226    0.00002551    0.00019927
     atom   43 type  1   force =     0.00075384   -0.00169421   -0.00052274
     atom   44 type  1   force =    -0.00106907    0.00031321   -0.00157581
     atom   45 type  2   force =     0.00000381   -0.00009671    0.10367495
     atom   46 type  2   force =    -0.07091628   -0.00009711   -0.02716217
     atom   47 type  2   force =     0.07075657    0.00033134   -0.02721293
     atom   48 type  3   force =     0.00124195   -0.00040427    0.00015745
     atom   49 type  4   force =     0.00008577   -0.00038583    0.00005055
     atom   50 type  5   force =    -0.00005369   -0.00023551   -0.00020631
     atom   51 type  5   force =     0.00038093   -0.00031883   -0.00014321
     atom   52 type  5   force =    -0.00125964    0.00103823    0.00047546
     atom   53 type  2   force =     0.00199946    0.01282946   -0.00447963
     atom   54 type  5   force =     0.00569809   -0.00474302    0.00191904
     atom   55 type  5   force =    -0.00647931   -0.00917445    0.00279064

     Total force =     0.366158     Total SCF correction =     0.000689
  @ DRIVER MODE: Message from server: STATUS
  @ DRIVER MODE: Message from server: GETFORCE
  @ DRIVER MODE: Returning v,forces,stress,ensemble

     Writing output data file ./calc.save/
  @ DRIVER MODE: Message from server: EXIT
  @ DRIVE MODE: Exiting

     General routines

     Parallel routines

   This run was terminated on:   2:56:28  16Sep2021

   JOB DONE.