     Program PWSCF v.6.7GPU starts on 18Oct2021 at 11:27:12

     R & G space division:  proc/nbgrp/npool/nimage =       8
     Reading input from /storage/home/hcoda1/3/ntian30/research/carbon/CxH_vib/Thiel_calc/ads_slab/NH2NH2_perslab/out_0000/pw.inp
Warning: card &CELL ignored
Warning: card   CELL_DYNAMICS='IPI', ignored
Warning: card / ignored

     Current dimensions of program PWSCF are:
     Max number of different atomic species (ntypx) = 10
     Max number of k-points (npk) =  40000
     Max angular momentum in pseudopotentials (lmaxx) =  3
     Presently no symmetry can be used with electric field

     Message from routine cell_base_init:
     DEPRECATED: use true lattice parameter, not A to a.u. conversion factor

     IMPORTANT: XC functional enforced from input :
     Exchange-correlation= BEEF-VDW
                           (   1   4  43  14   2   0   0)
     Any further DFT definition will be discarded
     Please, verify this is what you really want

  @ DRIVER MODE: Connecting to
 qe_1139763_3255136.sched-torque.pace.gatech.eduvdcf0izw_scratch
  using UNIX socket
  @ DRIVER MODE: Message from server: STATUS
  @ DRIVER MODE: Message from server: INIT
  @ DRIVER MODE: Receiving replica           0          -1
  @ DRIVER MODE: Receiving encoded integer          25
  @ DRIVER MODE:  SCF:  T  FORCE:  T  STRESS:  F  VC:  F  ENSEMBLE:  F
  @ DRIVER MODE:  SCF:  T  FORCE:  T  STRESS:  F  VC:  F  ENSEMBLE:  F

     Using Slab Decomposition

     bravais-lattice index     =            0
     lattice parameter (alat)  =       1.8897  a.u.
     unit-cell volume          =    9988.4706 (a.u.)^3
     number of atoms/cell      =           59
     number of atomic types    =            4
     number of electrons       =       440.00
     number of Kohn-Sham states=          230
     kinetic-energy cutoff     =      29.3995  Ry
     charge density cutoff     =     293.9946  Ry
     scf convergence threshold =      7.3E-08
     mixing beta               =       0.0500
     number of iterations used =            8  plain     mixing
     Exchange-correlation= BEEF-VDW
                           (   1   4  43  14   2   0   0)

     celldm(1)=   1.889726  celldm(2)=   0.000000  celldm(3)=   0.000000
     celldm(4)=   0.000000  celldm(5)=   0.000000  celldm(6)=   0.000000

     crystal axes: (cart. coord. in units of alat)
               a(1) = (   6.579727   0.000000   0.000000 )
               a(2) = (  -0.001163   8.942395   0.000000 )
               a(3) = (   0.000000   0.000000  25.155947 )

     reciprocal axes: (cart. coord. in units 2 pi/alat)
               b(1) = (  0.151982  0.000020  0.000000 )
               b(2) = (  0.000000  0.111827  0.000000 )
               b(3) = (  0.000000  0.000000  0.039752 )

     PseudoPot. # 1 for O  read from file:
     /storage/coda1/p-amedford6/0/shared/rich_project_chbe-medford/medford-share/data/pseudos_module/espresso/nninc/pbe/van/O.UPF
     MD5 check sum: 78c19812648e8988a0fe644b0f25305e
     Pseudo is Ultrasoft, Zval =  6.0
     Generated by new atomic code, or converted to UPF format
     Using radial grid of  737 points,  4 beta functions with:
                l(1) =   0
                l(2) =   0
                l(3) =   1
                l(4) =   1
     Q(r) pseudized with  8 coefficients,  rinner =    0.800   0.800   0.800

     PseudoPot. # 2 for Ti read from file:
     /storage/coda1/p-amedford6/0/shared/rich_project_chbe-medford/medford-share/data/pseudos_module/espresso/nninc/pbe/van/Ti.UPF
     MD5 check sum: 8e4df49b7f0d34bbd5052bf3f5ea0213
     Pseudo is Ultrasoft, Zval = 12.0
     Generated by new atomic code, or converted to UPF format
     Using radial grid of  851 points,  6 beta functions with:
                l(1) =   0
                l(2) =   0
                l(3) =   1
                l(4) =   1
                l(5) =   2
                l(6) =   2
     Q(r) pseudized with  8 coefficients,  rinner =    1.000   1.000   1.000
                                                       1.000   1.000

     PseudoPot. # 3 for N  read from file:
     /storage/coda1/p-amedford6/0/shared/rich_project_chbe-medford/medford-share/data/pseudos_module/espresso/nninc/pbe/van/N.UPF
     MD5 check sum: 90d10febe142ad51ac9d5be1deb811c4
     Pseudo is Ultrasoft, Zval =  5.0
     Generated by new atomic code, or converted to UPF format
     Using radial grid of  729 points,  4 beta functions with:
                l(1) =   0
                l(2) =   0
                l(3) =   1
                l(4) =   1
     Q(r) pseudized with  8 coefficients,  rinner =    0.800   0.800   0.800

     PseudoPot. # 4 for H  read from file:
     /storage/coda1/p-amedford6/0/shared/rich_project_chbe-medford/medford-share/data/pseudos_module/espresso/nninc/pbe/van/H.UPF
     MD5 check sum: b5ee9d7bfd3a09ee7748110bda690ff7
     Pseudo is Ultrasoft, Zval =  1.0
     Generated by new atomic code, or converted to UPF format
     Using radial grid of  615 points,  1 beta functions with:
                l(1) =   0
     Q(r) pseudized with  8 coefficients,  rinner =    0.800

     atomic species   valence    mass     pseudopotential
        O1             6.00    15.99900     O ( 1.00)
        Ti1           12.00    47.86700     Ti( 1.00)
        N1             5.00    14.00700     N ( 1.00)
        H1             1.00     1.00800     H ( 1.00)

     No symmetry found

   Cartesian axes

     site n.     atom                  positions (alat units)
         1           O1  tau(   1) = (   0.0007354   0.0005023  10.5931620  )
         2           O1  tau(   2) = (   3.2892726   8.9022636  13.7900476  )
         3           O1  tau(   3) = (  -0.0000012   0.0159539  17.0845323  )
         4           O1  tau(   4) = (   0.0006271   0.0005054   7.9858123  )
         5           O1  tau(   5) = (   3.2903981   0.0001071  11.1466942  )
         6           O1  tau(   6) = (   6.5796972   0.0370899  14.4522764  )
         7           O1  tau(   7) = (   1.9868534   1.4903216   9.2879459  )
         8           O1  tau(   8) = (   5.2071659   1.5879261  12.5336177  )
         9           O1  tau(   9) = (   2.0150580   1.5800225  15.9505780  )
        10           Ti1 tau(  10) = (   0.0007404   1.4906270   9.2895810  )
        11           Ti1 tau(  11) = (   3.2907621   1.2831726  12.4565622  )
        12           Ti1 tau(  12) = (   6.5792216   1.1939559  15.8009323  )
        13           O1  tau(  13) = (   4.5942328   1.4918067   9.2879030  )
        14           O1  tau(  14) = (   1.3733293   1.5875306  12.5337771  )
        15           O1  tau(  15) = (   4.5635363   1.5794237  15.9511286  )
        16           Ti1 tau(  16) = (   3.2902859   2.9801868   9.2893338  )
        17           Ti1 tau(  17) = (   0.0006963   2.7899128  12.4910476  )
        18           Ti1 tau(  18) = (   3.2889055   2.8853182  15.6510148  )
        19           O1  tau(  19) = (   0.0003479   2.9813005  10.5931620  )
        20           O1  tau(  20) = (   3.2901137   2.9323735  13.8075185  )
        21           O1  tau(  21) = (   0.0002396   2.9813036   7.9858123  )
        22           O1  tau(  22) = (   3.2901566   2.9796509  11.1657827  )
        23           O1  tau(  23) = (  -0.0001005   3.0518452  14.6148139  )
        24           O1  tau(  24) = (   1.9864658   4.4711199   9.2879459  )
        25           O1  tau(  25) = (   5.2244327   4.5330399  12.5550231  )
        26           O1  tau(  26) = (   2.0317078   4.4891842  16.0144209  )
        27           Ti1 tau(  27) = (   0.0003529   4.4714252   9.2895810  )
        28           Ti1 tau(  28) = (   3.2908221   4.3047718  12.5439168  )
        29           Ti1 tau(  29) = (   0.0007318   4.2809743  15.9563396  )
        30           O1  tau(  30) = (   4.5938453   4.4726049   9.2879030  )
        31           O1  tau(  31) = (   1.3553747   4.5324408  12.5551093  )
        32           O1  tau(  32) = (   4.5484712   4.4888783  16.0159471  )
        33           Ti1 tau(  33) = (   3.2898983   5.9609850   9.2893338  )
        34           Ti1 tau(  34) = (   0.0004637   5.7541984  12.5654138  )
        35           Ti1 tau(  35) = (   3.2913524   5.8154114  16.2798070  )
        36           O1  tau(  36) = (  -0.0000397   5.9620987  10.5931620  )
        37           O1  tau(  37) = (   3.2897947   5.8994426  13.7907643  )
        38           O1  tau(  38) = (   0.0001798   5.9238570  17.1594641  )
        39           O1  tau(  39) = (  -0.0001480   5.9621018   7.9858123  )
        40           O1  tau(  40) = (   3.2896433   5.9245955  11.1661191  )
        41           O1  tau(  41) = (   0.0000838   5.9808129  14.5563373  )
        42           O1  tau(  42) = (   1.9860782   7.4519181   9.2879459  )
        43           O1  tau(  43) = (   5.2244350   7.5051086  12.5363475  )
        44           O1  tau(  44) = (   2.0177701   7.5673364  15.9764862  )
        45           Ti1 tau(  45) = (  -0.0000347   7.4522234   9.2895810  )
        46           Ti1 tau(  46) = (   3.2896674   7.1828241  12.5854878  )
        47           Ti1 tau(  47) = (   0.0003403   7.2137487  16.0183084  )
        48           O1  tau(  48) = (   4.5934577   7.4534031   9.2879030  )
        49           O1  tau(  49) = (   1.3543201   7.5047529  12.5365769  )
        50           O1  tau(  50) = (   4.5609347   7.5656990  15.9757490  )
        51           Ti1 tau(  51) = (   3.2895107   8.9417832   9.2893338  )
        52           Ti1 tau(  52) = (  -0.0005834   8.7067995  12.4790564  )
        53           Ti1 tau(  53) = (   3.2900135   8.8028796  15.6464995  )
        54           N1  tau(  54) = (   3.2900669   5.9334594  18.1702238  )
        55           H1  tau(  55) = (   3.2900466   5.1481598  18.8081281  )
        56           H1  tau(  56) = (   3.2872703   6.8047138  18.6863891  )
        57           N1  tau(  57) = (   0.0002662   3.1405291  17.5522950  )
        58           H1  tau(  58) = (   0.0007553   2.2326612  18.0099153  )
        59           H1  tau(  59) = (   6.5771877   3.8386968  18.2941669  )

     number of k points=    10  Fermi-Dirac smearing, width (Ry)=  0.0073
                       cart. coord. in units 2pi/alat
        k(    1) = (   0.0000000   0.0000000   0.0000000), wk =   0.1250000
        k(    2) = (   0.0000000   0.0279567   0.0000000), wk =   0.2500000
        k(    3) = (   0.0000000  -0.0559134   0.0000000), wk =   0.1250000
        k(    4) = (   0.0379955   0.0000049   0.0000000), wk =   0.2500000
        k(    5) = (   0.0379955   0.0279617   0.0000000), wk =   0.2500000
        k(    6) = (   0.0379955  -0.0559085   0.0000000), wk =   0.2500000
        k(    7) = (   0.0379955  -0.0279518   0.0000000), wk =   0.2500000
        k(    8) = (  -0.0759910  -0.0000099   0.0000000), wk =   0.1250000
        k(    9) = (  -0.0759910   0.0279468   0.0000000), wk =   0.2500000
        k(   10) = (  -0.0759910  -0.0559233   0.0000000), wk =   0.1250000

     Initial potential from superposition of free atoms

     starting charge  421.99910, renormalised to  440.00000

     negative rho (up, down):  3.741E-02 0.000E+00

     %%%%%%%%%%%%%%%%%%%%%%%%%%%%%%%%%%%%%%%%%%%%%%%%%%%%%%%%%%%%%%%%%%%%%%%%
     %                                                                      %
     % You are using vdW-DF, which was implemented by the Thonhauser group. %
     % Please cite the following two papers that made this development      %
     % possible and the two reviews that describe the various versions:     %
     %                                                                      %
     %   T. Thonhauser et al., PRL 115, 136402 (2015).                      %
     %   T. Thonhauser et al., PRB 76, 125112 (2007).                       %
     %   K. Berland et al., Rep. Prog. Phys. 78, 066501 (2015).             %
     %   D.C. Langreth et al., J. Phys.: Condens. Matter 21, 084203 (2009). %
     %                                                                      %
     %                                                                      %
     % If you are calculating the stress with vdW-DF, please also cite:     %
     %                                                                      %
     %   R. Sabatini et al., J. Phys.: Condens. Matter 24, 424209 (2012).   %
     %                                                                      %
     %%%%%%%%%%%%%%%%%%%%%%%%%%%%%%%%%%%%%%%%%%%%%%%%%%%%%%%%%%%%%%%%%%%%%%%%

     Adding external electric field

     Computed dipole along edir(3) :
        Dipole               -3.9767 Ry au,        -10.1078 Debye
        Dipole field         -0.0050 Ry au,

        Potential amp.        0.4638 Ry
        Total length         46.3494 bohr

     Starting wfcs are  332 atomic wfcs
  @ DRIVER MODE: Message from server: STATUS
  @ DRIVER MODE: Message from server: POSDATA
  @ DRIVER MODE: Reading and sharing cell
  @ DRIVER MODE: Reading and sharing positions
  @ DRIVER MODE: Received positions

     Self-consistent Calculation

     iteration #  1     ecut=    29.40 Ry     beta= 0.05
     Davidson diagonalization with overlap
     ethr =  1.00E-02,  avg # of iterations =  2.0

[...]

     total energy              =   -3293.44783870 Ry
     estimated scf accuracy    <      28.05146604 Ry

[...]

     iteration #  5     ecut=    29.40 Ry     beta= 0.05
     Davidson diagonalization with overlap
     c_bands:  2 eigenvalues not converged
     c_bands:  2 eigenvalues not converged
     c_bands:  4 eigenvalues not converged
     c_bands:  5 eigenvalues not converged
     c_bands:  1 eigenvalues not converged
     c_bands:  2 eigenvalues not converged
     ethr =  3.02E-04,  avg # of iterations = 19.6

[...]

     iteration # 16     ecut=    29.40 Ry     beta= 0.05
     Davidson diagonalization with overlap
     c_bands:  1 eigenvalues not converged
     c_bands:  4 eigenvalues not converged
     c_bands:  1 eigenvalues not converged
     ethr =  2.14E-06,  avg # of iterations = 14.7

[...]

     total energy              =   -3293.29556578 Ry
     estimated scf accuracy    <       0.00000011 Ry

     iteration # 50     ecut=    29.40 Ry     beta= 0.05
     Davidson diagonalization with overlap
     ethr =  2.49E-11,  avg # of iterations =  3.4

     negative rho (up, down):  3.610E-02 0.000E+00

     Adding external electric field

     Computed dipole along edir(3) :
        Dipole                0.9500 Ry au,          2.4146 Debye
        Dipole field          0.0012 Ry au,

        Potential amp.       -0.1108 Ry
        Total length         46.3494 bohr

     End of self-consistent calculation

          k = 0.0000 0.0000 0.0000 ( 26871 PWs)   bands (ev):

   -58.4699 -58.4464 -58.4405 -58.4026 -58.3577 -58.0052 -57.9662 -57.9631
   -57.8790 -57.7593 -57.6861 -57.5725 -57.4752 -57.2234 -57.1423 -57.0727
   -57.0325 -57.0196 -34.8704 -34.8350 -34.8079 -34.7915 -34.7882 -34.7817
   -34.7329 -34.6723 -34.6454 -34.5946 -34.5820 -34.5795 -34.5737 -34.5519
   -34.5068 -34.4069 -34.3711 -34.3458 -34.3223 -34.3179 -34.2736 -34.2406
   -34.2285 -34.2241 -34.1893 -34.1866 -34.1538 -34.0566 -34.0454 -33.9868
   -33.9832 -33.9541 -33.8985 -33.8830 -33.8636 -33.8045 -33.7407 -33.7263
   -33.6848 -33.6721 -33.5819 -33.4611 -33.4478 -33.4170 -33.4150 -33.3804
   -33.3746 -33.3702 -33.3548 -33.3449 -33.2766 -33.2121 -33.1910 -33.0710
   -19.0220 -18.5589 -18.5001 -18.3505 -18.3015 -18.2812 -18.2750 -18.1243
   -17.9076 -17.8624 -17.8480 -17.8268 -17.7437 -17.7238 -17.7080 -17.6860
   -17.6710 -17.6501 -17.5614 -17.5557 -17.5349 -17.5103 -17.4905 -17.4358
   -17.3763 -17.3545 -17.2667 -17.1917 -17.1515 -16.9286 -16.6712 -16.5919
   -15.5386 -15.4974 -15.4890 -15.2745 -15.1461  -6.7510  -6.5938  -6.3568
    -6.1626  -5.9503  -5.8142  -5.6966  -5.6432  -5.5620  -5.4961  -5.4584
    -5.4563  -5.3956  -5.3488  -5.2549  -5.2487  -5.1567  -5.1071  -5.0907
    -5.0614  -5.0126  -4.9665  -4.9209  -4.9056  -4.8444  -4.8006  -4.7905
    -4.7409  -4.6792  -4.6755  -4.6550  -4.6529  -4.6188  -4.5848  -4.4636
    -4.4603  -4.4154  -4.3520  -4.3006  -4.2634  -4.2228  -4.1898  -4.1891
    -4.1725  -4.1282  -4.0933  -3.9214  -3.8680  -3.8300  -3.7978  -3.7194
    -3.6520  -3.5948  -3.5594  -3.5166  -3.4281  -3.3590  -3.3514  -3.3427
    -3.2762  -3.2330  -3.1954  -3.1641  -3.1456  -3.0825  -3.0298  -3.0295
    -2.9881  -2.9717  -2.9575  -2.9118  -2.8572  -2.8334  -2.8311  -2.7919
    -2.7852  -2.7429  -2.6453  -2.6160  -2.5555  -2.5171  -2.4624  -2.4145
    -2.4083  -2.3736  -2.3363  -2.2680  -2.1758  -2.1256  -1.9947  -1.9898
    -1.9124  -1.9021  -1.8354  -1.8070  -1.7907  -1.7437  -1.7164  -1.6023
    -1.5265  -1.4078  -1.1942  -0.9903  -0.8441  -0.7653  -0.7507  -0.7068
    -0.5677  -0.5486  -0.4628  -0.4518   0.8060   0.9416   1.1014   1.1193
     1.3192   1.4483   1.4662   1.5086   1.5653   1.6955

[...]

          k = 0.0380-0.0280 0.0000 ( 26873 PWs)   bands (ev):

[...]

          k =-0.0760-0.0000 0.0000 ( 26902 PWs)   bands (ev):

[...]

          k =-0.0760-0.0559 0.0000 ( 26868 PWs)   bands (ev):

   -58.4640 -58.4579 -58.4347 -58.4024 -58.3578 -58.0051 -57.9663 -57.9630
   -57.8789 -57.7595 -57.6859 -57.5724 -57.4752 -57.2235 -57.1422 -57.0714
   -57.0365 -57.0169 -34.8985 -34.8829 -34.8387 -34.8102 -34.7789 -34.6882
   -34.6717 -34.6235 -34.6170 -34.6049 -34.6025 -34.5912 -34.5766 -34.5552
   -34.5538 -34.4351 -34.3790 -34.3590 -34.3445 -34.3242 -34.2560 -34.2227
   -34.2190 -34.1887 -34.1801 -34.1640 -34.1176 -34.0646 -34.0566 -34.0304
   -33.9906 -33.9744 -33.9032 -33.8974 -33.8760 -33.7895 -33.7406 -33.7044
   -33.6829 -33.6579 -33.5699 -33.4810 -33.4519 -33.4505 -33.4186 -33.4160
   -33.3856 -33.3670 -33.3652 -33.2684 -33.2336 -33.1827 -33.1808 -33.1519
   -18.8088 -18.6603 -18.4148 -18.3161 -18.1529 -18.1057 -18.0527 -18.0424
   -18.0366 -17.9408 -17.9235 -17.8790 -17.8724 -17.8226 -17.7979 -17.7862
   -17.7793 -17.7475 -17.6803 -17.6241 -17.5387 -17.4465 -17.4341 -17.4183
   -17.4116 -17.3323 -17.2340 -17.1885 -17.1513 -16.9515 -16.6808 -16.5539
   -15.5504 -15.5373 -15.4277 -15.2696 -15.1469  -6.7468  -6.6049  -6.1207
    -5.9256  -5.8939  -5.8530  -5.5354  -5.4926  -5.3880  -5.3590  -5.3553
    -5.3281  -5.2839  -5.2455  -5.1904  -5.1552  -5.1373  -5.1288  -5.1111
    -5.0842  -5.0363  -5.0113  -4.9689  -4.9636  -4.9485  -4.9184  -4.8953
    -4.8462  -4.8372  -4.7657  -4.7562  -4.7221  -4.5277  -4.4737  -4.4116
    -4.3624  -4.2962  -4.2468  -4.1894  -4.1888  -4.1067  -4.1020  -4.0379
    -3.9779  -3.8913  -3.8109  -3.8032  -3.7805  -3.7525  -3.7196  -3.6869
    -3.6637  -3.6434  -3.6040  -3.5559  -3.5183  -3.4448  -3.4121  -3.4060
    -3.3651  -3.3459  -3.3347  -3.3306  -3.3140  -3.2103  -3.2031  -3.1431
    -3.1092  -3.1037  -3.0335  -3.0274  -2.9761  -2.9503  -2.8811  -2.8442
    -2.8340  -2.7454  -2.7381  -2.7343  -2.6526  -2.6432  -2.5431  -2.5098
    -2.4252  -2.3003  -2.1803  -2.1785  -2.1691  -2.0475  -2.0456  -2.0338
    -1.9898  -1.9270  -1.9023  -1.7196  -1.7162  -1.6710  -1.6007  -1.5794
    -1.5553  -1.5405  -1.4241  -1.4025  -0.9979  -0.7161  -0.6827  -0.6776
    -0.6438  -0.6151  -0.5820  -0.5731   0.8577   1.0183   1.0961   1.1617
     1.1873   1.2310   1.2628   1.4372   1.5004   1.5064

     the Fermi energy is     0.2185 ev

!    total energy              =   -3293.29567172 Ry
     estimated scf accuracy    <       0.00000007 Ry
     smearing contrib. (-TS)   =      -0.00052604 Ry
     internal energy E=F+TS    =   -3293.29514567 Ry

     The total energy is F=E-TS. E is the sum of the following terms:
     one-electron contribution =  -34586.24898642 Ry
     hartree contribution      =   17354.95547036 Ry
     xc contribution           =    -542.07686161 Ry
     ewald contribution        =   14480.07409661 Ry
     electric field correction =       0.00113538 Ry

     convergence has been achieved in  50 iterations

     Forces acting on atoms (cartesian axes, Ry/au):

     atom    1 type  1   force =    -0.00000733    0.00891919    0.04220044
     atom    2 type  1   force =     0.00002308   -0.00248133   -0.00298906
     atom    3 type  1   force =    -0.00003232   -0.00631534   -0.00116661
     atom    4 type  1   force =     0.00004706    0.00395507    0.10167632
     atom    5 type  1   force =     0.00002084   -0.00059398    0.00718275
     atom    6 type  1   force =    -0.00002351    0.00084831    0.00284516
     atom    7 type  1   force =     0.07635277    0.00120021   -0.03508198
     atom    8 type  1   force =     0.00753417   -0.02413018    0.00123286
     atom    9 type  1   force =     0.00788085   -0.02073835    0.00175381
     atom   10 type  2   force =    -0.00003422   -0.00384377   -0.16973007
     atom   11 type  2   force =    -0.00011551    0.02225574   -0.00322864
     atom   12 type  2   force =    -0.00000276    0.02018633   -0.00569676
     atom   13 type  1   force =    -0.07644585    0.00074714   -0.03503225
     atom   14 type  1   force =    -0.00761392   -0.02400499    0.00122817
     atom   15 type  1   force =    -0.00782731   -0.02082216    0.00176004
     atom   16 type  2   force =     0.00010229    0.00207863    0.07523633
     atom   17 type  2   force =     0.00020920    0.02912294    0.00186796
     atom   18 type  2   force =    -0.00009566    0.02414302    0.00016217
     atom   19 type  1   force =     0.00000443    0.00222800    0.05609447
     atom   20 type  1   force =     0.00000376   -0.00075899   -0.00271888
     atom   21 type  1   force =     0.00004797   -0.00273332    0.10231019
     atom   22 type  1   force =     0.00000944   -0.00166234    0.00634252
     atom   23 type  1   force =    -0.00001730   -0.00392406    0.00176811
     atom   24 type  1   force =     0.07834681   -0.00055492   -0.03675882
     atom   25 type  1   force =     0.00978059   -0.02949584   -0.00097159
     atom   26 type  1   force =     0.01102585   -0.02685214   -0.00659803
     atom   27 type  2   force =    -0.00005955    0.01459047   -0.15611712
     atom   28 type  2   force =    -0.00013465    0.02624702   -0.00047588
     atom   29 type  2   force =     0.00003787    0.02326317    0.00311182
     atom   30 type  1   force =    -0.07844199   -0.00098335   -0.03670761
     atom   31 type  1   force =    -0.00984306   -0.02935220   -0.00097299
     atom   32 type  1   force =    -0.01089773   -0.02691646   -0.00664961
     atom   33 type  2   force =     0.00009978   -0.00383441    0.07804222
     atom   34 type  2   force =     0.00019467    0.03435798    0.00328570
     atom   35 type  2   force =    -0.00012035    0.03156924    0.00676217
     atom   36 type  1   force =     0.00001976    0.00148999    0.05145979
     atom   37 type  1   force =     0.00002352   -0.00167020   -0.00237580
     atom   38 type  1   force =    -0.00002202   -0.00346204    0.00000594
     atom   39 type  1   force =     0.00004919    0.00037609    0.09993772
     atom   40 type  1   force =     0.00001685   -0.00069675    0.00653993
     atom   41 type  1   force =    -0.00002508   -0.00091947    0.00423536
     atom   42 type  1   force =     0.07942448    0.00172587   -0.03465151
     atom   43 type  1   force =     0.00606407   -0.02326010    0.00044147
     atom   44 type  1   force =     0.00710693   -0.02149561    0.00387711
     atom   45 type  2   force =    -0.00005333   -0.01583497   -0.15540500
     atom   46 type  2   force =    -0.00010930    0.01693953    0.00086229
     atom   47 type  2   force =     0.00002220    0.02050705   -0.00089822
     atom   48 type  1   force =    -0.07951610    0.00128638   -0.03459735
     atom   49 type  1   force =    -0.00617761   -0.02314630    0.00043176
     atom   50 type  1   force =    -0.00696957   -0.02152346    0.00387517
     atom   51 type  2   force =     0.00008261   -0.00446432    0.06173234
     atom   52 type  2   force =     0.00020122    0.02907660    0.00061265
     atom   53 type  2   force =    -0.00014338    0.02937651    0.00015888
     atom   54 type  3   force =     0.00001304    0.00162619   -0.00123553
     atom   55 type  4   force =     0.00002886   -0.00044670    0.00023946
     atom   56 type  4   force =    -0.00005393   -0.00007999   -0.00009030
     atom   57 type  3   force =    -0.00000392   -0.00118944    0.00117909
     atom   58 type  4   force =     0.00005974    0.00186090   -0.00059963
     atom   59 type  4   force =    -0.00004661   -0.00179009    0.00029705

     Total force =     0.439066     Total SCF correction =     0.000487
  @ DRIVER MODE: Message from server: STATUS
  @ DRIVER MODE: Message from server: GETFORCE
  @ DRIVER MODE: Returning v,forces,stress,ensemble

     Writing output data file ./calc.save/
  @ DRIVER MODE: Message from server: EXIT
  @ DRIVE MODE: Exiting

     General routines

     Parallel routines

   This run was terminated on:  11:50:34  18Oct2021

   JOB DONE.