     Program PWSCF v.6.7GPU starts on 16Jul2021 at 11:31: 3

     R & G space division:  proc/nbgrp/npool/nimage =      16
     Reading input from /storage/home/hcoda1/3/ntian30/research/carbon/15Jul_vib/ads_slab/CH3N2H_a/out_0026/pw.inp
Warning: card &CELL ignored
Warning: card   CELL_DYNAMICS='IPI', ignored
Warning: card / ignored

     Current dimensions of program PWSCF are:
     Max number of different atomic species (ntypx) = 10
     Max number of k-points (npk) =  40000
     Max angular momentum in pseudopotentials (lmaxx) =  3
     Presently no symmetry can be used with electric field

     Message from routine cell_base_init:
     DEPRECATED: use true lattice parameter, not A to a.u. conversion factor

     IMPORTANT: XC functional enforced from input :
     Exchange-correlation= BEEF-VDW
                           (   1   4  43  14   2   0   0)
     Any further DFT definition will be discarded
     Please, verify this is what you really want

  @ DRIVER MODE: Connecting to
 qe_1139763_2351646.sched-torque.pace.gatech.edu4xywm2p8_scratch
  using UNIX socket
  @ DRIVER MODE: Message from server: STATUS
  @ DRIVER MODE: Message from server: INIT
  @ DRIVER MODE: Receiving replica           0          -1
  @ DRIVER MODE: Receiving encoded integer          25
  @ DRIVER MODE:  SCF:  T  FORCE:  T  STRESS:  F  VC:  F  ENSEMBLE:  F
  @ DRIVER MODE:  SCF:  T  FORCE:  T  STRESS:  F  VC:  F  ENSEMBLE:  F

     Using Slab Decomposition

     bravais-lattice index     =            0
     lattice parameter (alat)  =       1.8897  a.u.
     unit-cell volume          =    6658.9804 (a.u.)^3
     number of atoms/cell      =           54
     number of atomic types    =            5
     number of electrons       =       396.00
     number of Kohn-Sham states=          208
     kinetic-energy cutoff     =      29.3995  Ry
     charge density cutoff     =     293.9946  Ry
     scf convergence threshold =      7.3E-08
     mixing beta               =       0.0500
     number of iterations used =            8  plain     mixing
     Exchange-correlation= BEEF-VDW
                           (   1   4  43  14   2   0   0)

     celldm(1)=   1.889726  celldm(2)=   0.000000  celldm(3)=   0.000000
     celldm(4)=   0.000000  celldm(5)=   0.000000  celldm(6)=   0.000000

     crystal axes: (cart. coord. in units of alat)
               a(1) = (   6.579727   0.000000   0.000000 )
               a(2) = (  -0.000775   5.961596   0.000000 )
               a(3) = (   0.000000   0.000000  25.155947 )

     reciprocal axes: (cart. coord. in units 2 pi/alat)
               b(1) = (  0.151982  0.000020  0.000000 )
               b(2) = (  0.000000  0.167740  0.000000 )
               b(3) = (  0.000000  0.000000  0.039752 )

     PseudoPot. # 1 for Ti read from file:
     /storage/coda1/p-amedford6/0/shared/rich_project_chbe-medford/medford-share/data/pseudos_module/espresso/nninc/pbe/van/Ti.UPF
     MD5 check sum: 8e4df49b7f0d34bbd5052bf3f5ea0213
     Pseudo is Ultrasoft, Zval = 12.0
     Generated by new atomic code, or converted to UPF format
     Using radial grid of  851 points,  6 beta functions with:
                l(1) =   0
                l(2) =   0
                l(3) =   1
                l(4) =   1
                l(5) =   2
                l(6) =   2
     Q(r) pseudized with  8 coefficients,  rinner =    1.000   1.000   1.000
                                                       1.000   1.000

     PseudoPot. # 2 for O  read from file:
     /storage/coda1/p-amedford6/0/shared/rich_project_chbe-medford/medford-share/data/pseudos_module/espresso/nninc/pbe/van/O.UPF
     MD5 check sum: 78c19812648e8988a0fe644b0f25305e
     Pseudo is Ultrasoft, Zval =  6.0
     Generated by new atomic code, or converted to UPF format
     Using radial grid of  737 points,  4 beta functions with:
                l(1) =   0
                l(2) =   0
                l(3) =   1
                l(4) =   1
     Q(r) pseudized with  8 coefficients,  rinner =    0.800   0.800   0.800

     PseudoPot. # 3 for N  read from file:
     /storage/coda1/p-amedford6/0/shared/rich_project_chbe-medford/medford-share/data/pseudos_module/espresso/nninc/pbe/van/N.UPF
     MD5 check sum: 90d10febe142ad51ac9d5be1deb811c4
     Pseudo is Ultrasoft, Zval =  5.0
     Generated by new atomic code, or converted to UPF format
     Using radial grid of  729 points,  4 beta functions with:
                l(1) =   0
                l(2) =   0
                l(3) =   1
                l(4) =   1
     Q(r) pseudized with  8 coefficients,  rinner =    0.800   0.800   0.800

     PseudoPot. # 4 for C  read from file:
     /storage/coda1/p-amedford6/0/shared/rich_project_chbe-medford/medford-share/data/pseudos_module/espresso/nninc/pbe/van/C.UPF
     MD5 check sum: 1a69bf6b8db32088f5b2163dbdb77a27
     Pseudo is Ultrasoft, Zval =  4.0
     Generated by new atomic code, or converted to UPF format
     Using radial grid of  721 points,  4 beta functions with:
                l(1) =   0
                l(2) =   0
                l(3) =   1
                l(4) =   1
     Q(r) pseudized with  8 coefficients,  rinner =    0.800   0.800   0.800

     PseudoPot. # 5 for H  read from file:
     /storage/coda1/p-amedford6/0/shared/rich_project_chbe-medford/medford-share/data/pseudos_module/espresso/nninc/pbe/van/H.UPF
     MD5 check sum: b5ee9d7bfd3a09ee7748110bda690ff7
     Pseudo is Ultrasoft, Zval =  1.0
     Generated by new atomic code, or converted to UPF format
     Using radial grid of  615 points,  1 beta functions with:
                l(1) =   0
     Q(r) pseudized with  8 coefficients,  rinner =    0.800

     atomic species   valence    mass     pseudopotential
        Ti1           12.00    47.86700     Ti( 1.00)
        O1             6.00    15.99900     O ( 1.00)
        N1             5.00    14.00700     N ( 1.00)
        C1             4.00    12.01100     C ( 1.00)
        H1             1.00     1.00800     H ( 1.00)

     Starting magnetic structure
     atomic species   magnetization
        Ti1          0.000
        O1           0.000
        N1           0.000
        C1           0.025
        H1           0.000

     No symmetry found

   Cartesian axes

     site n.     atom                  positions (alat units)
         1           Ti1 tau(   1) = (   0.0004258   2.9801865   6.0000000  )
         2           Ti1 tau(   2) = (   3.2906075   1.4906267   6.0002472  )
         3           O1  tau(   3) = (   0.0006271   0.0005054   7.9858123  )
         4           O1  tau(   4) = (   3.2906025   0.0005020   7.3038282  )
         5           O1  tau(   5) = (   4.5942328   1.4918067   9.2879030  )
         6           O1  tau(   6) = (   1.9868534   1.4903216   9.2879459  )
         7           Ti1 tau(   7) = (   3.2907910   2.8959150   9.1758416  )
         8           Ti1 tau(   8) = (   0.0015273   1.4827037   9.2680791  )
         9           O1  tau(   9) = (   3.3106937   0.0084137  11.2927479  )
        10           O1  tau(  10) = (   0.0116148   5.9584955  10.6183126  )
        11           O1  tau(  11) = (   1.3255326   1.5151957  12.5859258  )
        12           O1  tau(  12) = (   5.3246634   1.4871208  12.6441624  )
        13           Ti1 tau(  13) = (   6.5358624   2.9940264  12.7507449  )
        14           Ti1 tau(  14) = (   3.1828407   1.5032771  12.4528579  )
        15           O1  tau(  15) = (   0.1336207   0.0073438  14.6266748  )
        16           O1  tau(  16) = (   3.2550344   0.0288700  13.8306396  )
        17           O1  tau(  17) = (   4.6334483   1.5013943  15.9792279  )
        18           O1  tau(  18) = (   2.1409664   1.5470880  15.9954950  )
        19           Ti1 tau(  19) = (   3.4798582   3.0305884  15.6593850  )
        20           Ti1 tau(  20) = (   0.1386493   1.3724552  15.8613965  )
        21           O1  tau(  21) = (   3.2904802   0.0005063   4.7018136  )
        22           O1  tau(  22) = (   0.1429122   0.0333940  17.1908172  )
        23           O1  tau(  23) = (   1.3043587   1.4918075   6.0039043  )
        24           O1  tau(  24) = (   5.2767064   1.4903225   6.0039473  )
        25           Ti1 tau(  25) = (   0.0000382   5.9609847   6.0000000  )
        26           Ti1 tau(  26) = (   3.2902200   4.4714249   6.0002472  )
        27           O1  tau(  27) = (   0.0002396   2.9813036   7.9858123  )
        28           O1  tau(  28) = (   3.2902150   2.9813002   7.3038282  )
        29           O1  tau(  29) = (   4.5938453   4.4726049   9.2879030  )
        30           O1  tau(  30) = (   1.9864658   4.4711199   9.2879459  )
        31           Ti1 tau(  31) = (   3.2891106   5.8743827   9.1763621  )
        32           Ti1 tau(  32) = (   0.0006254   4.4649316   9.2693709  )
        33           O1  tau(  33) = (   3.3137399   2.9960163  11.2943833  )
        34           O1  tau(  34) = (   0.0092240   2.9805883  10.6323155  )
        35           O1  tau(  35) = (   1.3234708   4.4688006  12.5930975  )
        36           O1  tau(  36) = (   5.3222282   4.4932535  12.6449723  )
        37           Ti1 tau(  37) = (   6.5041614   0.0053836  12.5833808  )
        38           Ti1 tau(  38) = (   3.1843229   4.4812189  12.4522442  )
        39           O1  tau(  39) = (   0.0584892   2.9792810  14.6723703  )
        40           O1  tau(  40) = (   3.3232524   2.9928384  13.8523860  )
        41           O1  tau(  41) = (   4.6237859   4.5837569  15.7472905  )
        42           O1  tau(  42) = (   2.1882403   4.4693611  16.1038286  )
        43           Ti1 tau(  43) = (   3.3015484   0.0242660  15.6383815  )
        44           Ti1 tau(  44) = (   0.0181797   4.4930750  16.1931172  )
        45           O1  tau(  45) = (   3.2900926   2.9813045   4.7018136  )
        46           O1  tau(  46) = (   1.3039711   4.4726057   6.0039043  )
        47           O1  tau(  47) = (   5.2763189   4.4711207   6.0039473  )
        48           N1  tau(  48) = (   0.2677213   2.8760844  17.5655548  )
        49           C1  tau(  49) = (   1.2271684   2.7639891  18.6598760  )
        50           H1  tau(  50) = (   1.2930054   3.7106696  19.2072709  )
        51           H1  tau(  51) = (   0.8976878   1.9730418  19.3402421  )
        52           H1  tau(  52) = (   2.2202292   2.4972526  18.2850250  )
        53           N1  tau(  53) = (   5.6732178   3.4927010  17.8452151  )
        54           H1  tau(  54) = (   5.7345573   4.0058295  18.7343860  )

     number of k points=    10  Fermi-Dirac smearing, width (Ry)=  0.0073
                       cart. coord. in units 2pi/alat
        k(    1) = (   0.0000000   0.0000000   0.0000000), wk =   0.0625000
        k(    2) = (   0.0000000   0.0419351   0.0000000), wk =   0.1250000
        k(    3) = (   0.0000000  -0.0838702   0.0000000), wk =   0.0625000
        k(    4) = (   0.0379955   0.0000049   0.0000000), wk =   0.1250000
        k(    5) = (   0.0379955   0.0419400   0.0000000), wk =   0.1250000
        k(    6) = (   0.0379955  -0.0838652   0.0000000), wk =   0.1250000
        k(    7) = (   0.0379955  -0.0419301   0.0000000), wk =   0.1250000
[...]
     % You are using vdW-DF, which was implemented by the Thonhauser group. %
     % Please cite the following two papers that made this development      %
     % possible and the two reviews that describe the various versions:     %
     %                                                                      %
     %   T. Thonhauser et al., PRL 115, 136402 (2015).                      %
     %   T. Thonhauser et al., PRB 76, 125112 (2007).                       %
     %   K. Berland et al., Rep. Prog. Phys. 78, 066501 (2015).             %
     %   D.C. Langreth et al., J. Phys.: Condens. Matter 21, 084203 (2009). %
     %                                                                      %
     %                                                                      %
     % If you are calculating the stress with vdW-DF, please also cite:     %
     %                                                                      %
     %   R. Sabatini et al., J. Phys.: Condens. Matter 24, 424209 (2012).   %
     %                                                                      %
     %%%%%%%%%%%%%%%%%%%%%%%%%%%%%%%%%%%%%%%%%%%%%%%%%%%%%%%%%%%%%%%%%%%%%%%%

     Adding external electric field

     Computed dipole along edir(3) :
        Dipole               -8.2222 Ry au,        -20.8988 Debye
        Dipole field         -0.0155 Ry au,

        Potential amp.        1.4384 Ry
        Total length         46.3494 bohr

[...]

     Starting wfcs are  300 atomic wfcs
  @ DRIVER MODE: Message from server: STATUS
  @ DRIVER MODE: Message from server: POSDATA
  @ DRIVER MODE: Reading and sharing cell
  @ DRIVER MODE: Reading and sharing positions
  @ DRIVER MODE: Received positions

     Self-consistent Calculation

     iteration #  1     ecut=    29.40 Ry     beta= 0.05
     Davidson diagonalization with overlap
     c_bands:  1 eigenvalues not converged
     c_bands:  1 eigenvalues not converged
     c_bands:  1 eigenvalues not converged
     c_bands:  1 eigenvalues not converged
     c_bands:  2 eigenvalues not converged
     c_bands:  1 eigenvalues not converged
     c_bands:  4 eigenvalues not converged
     c_bands:  2 eigenvalues not converged
     c_bands:  1 eigenvalues not converged
     c_bands:  1 eigenvalues not converged
     c_bands:  1 eigenvalues not converged
     c_bands:  1 eigenvalues not converged
     c_bands:  1 eigenvalues not converged
     c_bands:  1 eigenvalues not converged
     c_bands:  2 eigenvalues not converged
     c_bands:  1 eigenvalues not converged
     c_bands:  4 eigenvalues not converged
     c_bands:  2 eigenvalues not converged
     c_bands:  1 eigenvalues not converged
     c_bands:  1 eigenvalues not converged
     ethr =  1.00E-05,  avg # of iterations = 20.0

[...]

     total energy              =   -2607.57360748 Ry
     estimated scf accuracy    <    3675.59242544 Ry

     total magnetization       =     0.00 Bohr mag/cell
     absolute magnetization    =     0.03 Bohr mag/cell

[...]

     iteration #  3     ecut=    29.40 Ry     beta= 0.05
     Davidson diagonalization with overlap
     ethr =  1.00E-02,  avg # of iterations = 13.7

[...]

     iteration # 58     ecut=    29.40 Ry     beta= 0.05
     Davidson diagonalization with overlap
     c_bands:  1 eigenvalues not converged
     c_bands:  1 eigenvalues not converged
     c_bands:  2 eigenvalues not converged
     ethr =  1.02E-07,  avg # of iterations = 11.1

[...]

     total energy              =   -2940.35265961 Ry
     estimated scf accuracy    <       0.00000011 Ry

[...]

     iteration #132     ecut=    29.40 Ry     beta= 0.05
     Davidson diagonalization with overlap
     ethr =  2.09E-11,  avg # of iterations =  5.8

     negative rho (up, down):  8.756E-03 8.757E-03

[...]

     Adding external electric field

     Computed dipole along edir(3) :
        Dipole                0.7383 Ry au,          1.8766 Debye
        Dipole field          0.0014 Ry au,

        Potential amp.       -0.1292 Ry
        Total length         46.3494 bohr

     Magnetic moment per site  (integrated on atomic sphere of radius R)
     atom   1 (R=0.746)  charge=  8.1023  magn=  0.0046
     atom   2 (R=0.746)  charge=  8.0882  magn=  0.0002
     atom   3 (R=0.746)  charge=  5.0689  magn= -0.0003
     atom   4 (R=0.746)  charge=  5.1050  magn= -0.0000
     atom   5 (R=0.746)  charge=  5.0706  magn= -0.0000
     atom   6 (R=0.746)  charge=  5.0718  magn= -0.0000
     atom   7 (R=0.746)  charge=  8.0835  magn=  0.0001
     atom   8 (R=0.746)  charge=  8.0700  magn=  0.0007
     atom   9 (R=0.746)  charge=  5.0893  magn= -0.0000
     atom  10 (R=0.746)  charge=  5.0576  magn= -0.0001
     atom  11 (R=0.746)  charge=  5.0764  magn= -0.0000
     atom  12 (R=0.746)  charge=  5.0718  magn= -0.0000
     atom  13 (R=0.746)  charge=  8.0705  magn=  0.0001
     atom  14 (R=0.746)  charge=  8.0890  magn=  0.0000
     atom  15 (R=0.746)  charge=  5.0553  magn=  0.0000
     atom  16 (R=0.746)  charge=  5.0986  magn=  0.0000
     atom  17 (R=0.746)  charge=  5.0495  magn=  0.0000
     atom  18 (R=0.746)  charge=  5.0673  magn=  0.0000
     atom  19 (R=0.746)  charge=  8.1077  magn= -0.0000
     atom  20 (R=0.746)  charge=  8.0960  magn=  0.0000
     atom  21 (R=0.746)  charge=  4.9490  magn= -0.0001
     atom  22 (R=0.746)  charge=  5.0409  magn=  0.0000
     atom  23 (R=0.746)  charge=  5.0611  magn= -0.0006
     atom  24 (R=0.746)  charge=  5.0612  magn= -0.0006
     atom  25 (R=0.746)  charge=  8.1022  magn=  0.0046
     atom  26 (R=0.746)  charge=  8.0882  magn=  0.0002
     atom  27 (R=0.746)  charge=  5.0670  magn= -0.0003
     atom  28 (R=0.746)  charge=  5.1051  magn= -0.0000
     atom  29 (R=0.746)  charge=  5.0714  magn= -0.0000
     atom  30 (R=0.746)  charge=  5.0726  magn= -0.0000
     atom  31 (R=0.746)  charge=  8.0844  magn=  0.0001
     atom  32 (R=0.746)  charge=  8.0704  magn=  0.0007
     atom  33 (R=0.746)  charge=  5.0889  magn= -0.0000
     atom  34 (R=0.746)  charge=  5.0200  magn= -0.0001
     atom  35 (R=0.746)  charge=  5.0760  magn= -0.0000
     atom  36 (R=0.746)  charge=  5.0724  magn= -0.0000
     atom  37 (R=0.746)  charge=  8.0776  magn=  0.0001
     atom  38 (R=0.746)  charge=  8.0890  magn=  0.0000
     atom  39 (R=0.746)  charge=  5.0527  magn=  0.0000
     atom  40 (R=0.746)  charge=  5.0891  magn=  0.0000
     atom  41 (R=0.746)  charge=  5.0851  magn=  0.0000
     atom  42 (R=0.746)  charge=  5.0438  magn=  0.0000
     atom  43 (R=0.746)  charge=  8.1144  magn=  0.0000
     atom  44 (R=0.746)  charge=  8.1352  magn=  0.0001
     atom  45 (R=0.746)  charge=  4.9490  magn= -0.0001
     atom  46 (R=0.746)  charge=  5.0611  magn= -0.0006
     atom  47 (R=0.746)  charge=  5.0612  magn= -0.0006
     atom  48 (R=0.424)  charge=  1.3499  magn=  0.0002
     atom  49 (R=0.451)  charge=  0.8593  magn= -0.0000
     atom  50 (R=0.424)  charge=  0.4506  magn=  0.0000
     atom  51 (R=0.424)  charge=  0.4491  magn=  0.0000
     atom  52 (R=0.424)  charge=  0.4503  magn=  0.0000
     atom  53 (R=0.424)  charge=  1.3504  magn=  0.0002
     atom  54 (R=0.424)  charge=  0.4592  magn=  0.0000

     End of self-consistent calculation

 ------ SPIN UP ------------

          k = 0.0000 0.0000 0.0000 ( 18029 PWs)   bands (ev):

   -56.0272 -55.9932 -55.8040 -55.7651 -55.7254 -55.6910 -55.6633 -55.6391
   -55.6291 -55.6044 -55.5752 -55.4954 -55.2404 -54.9193 -54.8853 -54.7885
   -32.4912 -32.3460 -32.3215 -32.2978 -32.1926 -32.1828 -32.1658 -32.1285
   -32.1140 -32.0987 -32.0889 -32.0448 -32.0209 -31.9815 -31.9758 -31.9728
   -31.9419 -31.9306 -31.9193 -31.8965 -31.8866 -31.8690 -31.8641 -31.8585
   -31.8393 -31.8371 -31.8292 -31.8246 -31.8197 -31.8011 -31.7938 -31.7932
   -31.7758 -31.7517 -31.6916 -31.6643 -31.6159 -31.4668 -31.4637 -31.3224
   -31.2433 -31.2203 -31.2057 -31.1399 -31.0539 -30.9927 -30.9425 -30.9127
   -17.3101 -16.5586 -16.3678 -16.0778 -15.9269 -15.9071 -15.7879 -15.6909
   -15.6133 -15.5133 -15.4605 -15.4060 -15.3936 -15.3683 -15.3096 -15.2878
   -15.2464 -15.2290 -15.1863 -15.1754 -15.1295 -15.1073 -15.0850 -15.0504
   -14.9860 -14.9155 -14.9030 -14.7462 -14.6072 -14.4544 -13.4199 -13.3050
   -11.5404  -8.3317  -5.0119  -3.9981  -3.9453  -3.8758  -3.8389  -3.7736
    -3.6923  -3.4406  -3.4151  -3.3563  -3.0704  -3.0229  -2.9989  -2.9943
    -2.8963  -2.7574  -2.7263  -2.6664  -2.6605  -2.6399  -2.6200  -2.6031
    -2.5459  -2.4895  -2.4718  -2.4297  -2.2981  -2.2709  -2.2670  -2.2450
    -2.1748  -2.1657  -2.1013  -2.0838  -2.0609  -2.0427  -2.0052  -1.8725
    -1.8389  -1.7733  -1.6924  -1.6038  -1.5240  -1.4878  -1.3991  -1.3864
    -1.3375  -1.2604  -1.2527  -1.1772  -1.1454  -1.0690  -1.0441  -1.0064
    -0.8977  -0.8704  -0.8110  -0.7546  -0.7099  -0.6969  -0.6555  -0.6310
    -0.6249  -0.6109  -0.5978  -0.4025  -0.3733  -0.2308  -0.1849  -0.1605
    -0.1197  -0.0969  -0.0385  -0.0153  -0.0097   0.0300   0.0480   0.0907
     0.1468   0.1613   0.1874   0.2814   0.3135   0.3683   0.4944   0.5081
     0.5960   0.6630   0.7692   0.7816   0.8330   0.9645   1.0602   1.0822
     1.1034   1.3088   1.4139   1.6676   1.7099   3.0249   3.1681   3.2604
     3.3740   3.4949   3.5706   3.6058   3.7839   3.8216   3.8628   3.9208

[...]

          k =-0.0760-0.0000 0.0000 ( 17886 PWs)   bands (ev):

[...]

 ------ SPIN DOWN ----------

[...]

          k = 0.0380-0.0419 0.0000 ( 17876 PWs)   bands (ev):

[...]

          k =-0.0760-0.0839 0.0000 ( 17948 PWs)   bands (ev):

   -56.0023 -56.0003 -55.7918 -55.7770 -55.7104 -55.7030 -55.6476 -55.6443
   -55.6255 -55.6176 -55.5713 -55.4992 -55.2398 -54.9021 -54.9019 -54.7892
   -32.3037 -32.3025 -32.2978 -32.2960 -32.1534 -32.1413 -32.1241 -32.1220
   -32.0498 -32.0370 -32.0268 -32.0225 -32.0157 -32.0132 -31.9700 -31.9645
   -31.9552 -31.9431 -31.9124 -31.9016 -31.8895 -31.8851 -31.8807 -31.8795
   -31.8748 -31.8711 -31.8551 -31.8495 -31.8434 -31.8401 -31.8350 -31.8163
   -31.7967 -31.7938 -31.7641 -31.7055 -31.6061 -31.4693 -31.4632 -31.2558
   -31.2329 -31.2327 -31.1357 -31.1355 -31.0967 -31.0966 -31.0051 -30.9170
   -17.2905 -15.9757 -15.9473 -15.8405 -15.8212 -15.7322 -15.7190 -15.6045
   -15.5966 -15.5835 -15.5173 -15.4720 -15.4613 -15.3785 -15.3517 -15.3403
   -15.3160 -15.3062 -15.2997 -15.2887 -15.2756 -15.1967 -15.1915 -15.1886
   -15.1133 -15.0909 -14.9046 -14.8614 -14.6634 -14.6182 -13.4076 -13.4072
   -11.5436  -8.3112  -5.0182  -3.8967  -3.8292  -3.2778  -3.2417  -3.0262
    -3.0001  -2.9798  -2.9506  -2.7657  -2.7519  -2.7457  -2.7283  -2.7153
    -2.6781  -2.6590  -2.6456  -2.5800  -2.5704  -2.5503  -2.5455  -2.5349
    -2.5166  -2.5010  -2.4932  -2.4740  -2.4589  -2.4134  -2.3596  -2.3375
    -2.2871  -2.1929  -2.0850  -2.0430  -2.0294  -2.0213  -1.9982  -1.9890
    -1.9483  -1.9355  -1.8498  -1.6645  -1.6177  -1.5570  -1.5509  -1.5397
    -1.4835  -1.4272  -1.3858  -1.3102  -1.2445  -1.1916  -1.1625  -1.1381
    -1.1033  -1.0369  -0.9706  -0.9511  -0.9384  -0.9095  -0.9066  -0.8870
    -0.8096  -0.7260  -0.6854  -0.6547  -0.6323  -0.6185  -0.6031  -0.5798
    -0.4729  -0.4049  -0.3570  -0.3114  -0.2684  -0.2271  -0.1086  -0.0937
     0.1011   0.1667   0.1917   0.2708   0.3675   0.3926   0.4027   0.4681
     0.5431   0.6061   0.6406   0.6951   0.7102   0.7315   0.7985   1.0132
     1.0689   1.4775   1.4791   1.5281   1.5292   2.9893   3.6727   3.6812
     3.6843   3.6950   3.7145   3.7373   3.7906   3.8246   3.9277   3.9465

     the Fermi energy is     3.1354 ev

!    total energy              =   -2940.35265971 Ry
     estimated scf accuracy    <       0.00000005 Ry
     smearing contrib. (-TS)   =      -0.01867958 Ry
     internal energy E=F+TS    =   -2940.33398012 Ry

     The total energy is F=E-TS. E is the sum of the following terms:
     one-electron contribution =  -24661.60743282 Ry
     hartree contribution      =   12419.94053573 Ry
     xc contribution           =    -486.04474798 Ry
     ewald contribution        =    9787.37663622 Ry
     electric field correction =       0.00102873 Ry

     total magnetization       =     0.02 Bohr mag/cell
     absolute magnetization    =     0.02 Bohr mag/cell

     convergence has been achieved in 132 iterations

     Forces acting on atoms (cartesian axes, Ry/au):

     atom    1 type  1   force =     0.00023600   -0.00036308    0.10152110
     atom    2 type  1   force =     0.00001261   -0.00086242   -0.17142039
     atom    3 type  2   force =     0.00029131    0.00021814   -0.03325579
     atom    4 type  2   force =     0.00003259   -0.00078744    0.04481630
     atom    5 type  2   force =    -0.01194652   -0.00021243   -0.00232379
     atom    6 type  2   force =     0.01437948    0.00038165   -0.00112387
     atom    7 type  1   force =     0.00140380   -0.00131520   -0.00427937
     atom    8 type  1   force =    -0.00077183    0.02219437    0.05622028
     atom    9 type  2   force =     0.00002927   -0.00032637    0.00045823
     atom   10 type  2   force =    -0.00266527    0.00207159   -0.02595008
     atom   11 type  2   force =     0.00003403    0.00024445   -0.00005836
     atom   12 type  2   force =     0.00008786    0.00073372    0.00001825
     atom   13 type  1   force =    -0.00003563    0.00014081    0.00026216
     atom   14 type  1   force =     0.00028161    0.00029783    0.00002502
     atom   15 type  2   force =     0.00018953   -0.00022854   -0.00001802
     atom   16 type  2   force =    -0.00002052   -0.00013556    0.00073799
     atom   17 type  2   force =    -0.00010016   -0.00077146    0.00003174
     atom   18 type  2   force =     0.00049671   -0.00077576    0.00016239
     atom   19 type  1   force =    -0.00018061   -0.00050968    0.00022049
     atom   20 type  1   force =     0.00004645    0.00010529   -0.00014839
     atom   21 type  2   force =     0.00006399   -0.00001026    0.10210344
     atom   22 type  2   force =    -0.00002187   -0.00030544    0.00029753
     atom   23 type  2   force =    -0.07328470   -0.00015767   -0.02888048
     atom   24 type  2   force =     0.07323578    0.00033651   -0.02892780
     atom   25 type  1   force =    -0.00026908   -0.00029829    0.10195183
     atom   26 type  1   force =     0.00003285   -0.00020358   -0.17141474
     atom   27 type  2   force =     0.00036516   -0.00023061   -0.03197230
     atom   28 type  2   force =     0.00009298   -0.00057511    0.04543393
     atom   29 type  2   force =    -0.01209433    0.00212929   -0.00287990
     atom   30 type  2   force =     0.01440612    0.00229018   -0.00162174
     atom   31 type  1   force =     0.00158550    0.00092659   -0.00558512
     atom   32 type  1   force =    -0.00059761   -0.02475725    0.05724949
     atom   33 type  2   force =     0.00015247    0.00035952    0.00061992
     atom   34 type  2   force =    -0.00420743    0.00211942   -0.04832945
     atom   35 type  2   force =     0.00062493   -0.00058249    0.00000863
     atom   36 type  2   force =    -0.00040594   -0.00074558    0.00013524
     atom   37 type  1   force =     0.00005850    0.00062141   -0.00001879
     atom   38 type  1   force =     0.00003780   -0.00011385   -0.00010554
     atom   39 type  2   force =     0.00018541   -0.00003173   -0.00068775
     atom   40 type  2   force =    -0.00008342   -0.00003078   -0.00035983
     atom   41 type  2   force =     0.00006993    0.00046477   -0.00004032
     atom   42 type  2   force =     0.00002232    0.00040310    0.00065887
     atom   43 type  1   force =    -0.00029770   -0.00008411    0.00017860
     atom   44 type  1   force =     0.00004001    0.00014795    0.00024056
     atom   45 type  2   force =     0.00004711   -0.00004960    0.10216794
     atom   46 type  2   force =    -0.07329045   -0.00009484   -0.02885124
     atom   47 type  2   force =     0.07324311    0.00027933   -0.02888892
     atom   48 type  3   force =     0.00044412    0.00031250    0.00034466
     atom   49 type  4   force =     0.00912104   -0.00254464   -0.00311120
     atom   50 type  5   force =    -0.00018867   -0.00016445   -0.00008572
     atom   51 type  5   force =    -0.00019757   -0.00056216    0.00036006
     atom   52 type  5   force =    -0.01064849    0.00190732    0.00355905
     atom   53 type  3   force =    -0.00001552   -0.00049563    0.00093316
     atom   54 type  5   force =    -0.00002703   -0.00035973   -0.00037795

     Total force =     0.378098     Total SCF correction =     0.000509
  @ DRIVER MODE: Message from server: STATUS
  @ DRIVER MODE: Message from server: GETFORCE
  @ DRIVER MODE: Returning v,forces,stress,ensemble

     Writing output data file ./calc.save/
  @ DRIVER MODE: Message from server: EXIT
  @ DRIVE MODE: Exiting

     General routines

     Parallel routines

   This run was terminated on:  12:16: 2  16Jul2021

   JOB DONE.