     Program PWSCF v.6.7GPU starts on 23Sep2021 at  5:16:26

     R & G space division:  proc/nbgrp/npool/nimage =      10
     Reading input from /storage/home/hcoda1/3/ntian30/research/carbon/CxH_vib/H2O_calc/ads_slab/CH3NHO_a/out_0042/pw.inp
Warning: card &CELL ignored
Warning: card   CELL_DYNAMICS='IPI', ignored
Warning: card / ignored

     Current dimensions of program PWSCF are:
     Max number of different atomic species (ntypx) = 10
     Max number of k-points (npk) =  40000
     Max angular momentum in pseudopotentials (lmaxx) =  3
     Presently no symmetry can be used with electric field

     Message from routine cell_base_init:
     DEPRECATED: use true lattice parameter, not A to a.u. conversion factor

     IMPORTANT: XC functional enforced from input :
     Exchange-correlation= BEEF-VDW
                           (   1   4  43  14   2   0   0)
     Any further DFT definition will be discarded
     Please, verify this is what you really want

  @ DRIVER MODE: Connecting to
 qe_1139763_2937319.sched-torque.pace.gatech.edumif95ns3_scratch
  using UNIX socket
  @ DRIVER MODE: Message from server: STATUS
  @ DRIVER MODE: Message from server: INIT
  @ DRIVER MODE: Receiving replica           0          -1
  @ DRIVER MODE: Receiving encoded integer          25
  @ DRIVER MODE:  SCF:  T  FORCE:  T  STRESS:  F  VC:  F  ENSEMBLE:  F
  @ DRIVER MODE:  SCF:  T  FORCE:  T  STRESS:  F  VC:  F  ENSEMBLE:  F

     Using Slab Decomposition

     bravais-lattice index     =            0
     lattice parameter (alat)  =       1.8897  a.u.
     unit-cell volume          =    6658.9804 (a.u.)^3
     number of atoms/cell      =           54
     number of atomic types    =            5
     number of electrons       =       397.00
     number of Kohn-Sham states=          208
     kinetic-energy cutoff     =      29.3995  Ry
     charge density cutoff     =     293.9946  Ry
     scf convergence threshold =      7.3E-08
     mixing beta               =       0.0500
     number of iterations used =            8  plain     mixing
     Exchange-correlation= BEEF-VDW
                           (   1   4  43  14   2   0   0)

     celldm(1)=   1.889726  celldm(2)=   0.000000  celldm(3)=   0.000000
     celldm(4)=   0.000000  celldm(5)=   0.000000  celldm(6)=   0.000000

     crystal axes: (cart. coord. in units of alat)
               a(1) = (   6.579727   0.000000   0.000000 )
               a(2) = (  -0.000775   5.961596   0.000000 )
               a(3) = (   0.000000   0.000000  25.155947 )

     reciprocal axes: (cart. coord. in units 2 pi/alat)
               b(1) = (  0.151982  0.000020  0.000000 )
               b(2) = (  0.000000  0.167740  0.000000 )
               b(3) = (  0.000000  0.000000  0.039752 )

     PseudoPot. # 1 for Ti read from file:
     /storage/coda1/p-amedford6/0/shared/rich_project_chbe-medford/medford-share/data/pseudos_module/espresso/nninc/pbe/van/Ti.UPF
     MD5 check sum: 8e4df49b7f0d34bbd5052bf3f5ea0213
     Pseudo is Ultrasoft, Zval = 12.0
     Generated by new atomic code, or converted to UPF format
     Using radial grid of  851 points,  6 beta functions with:
                l(1) =   0
                l(2) =   0
                l(3) =   1
                l(4) =   1
                l(5) =   2
                l(6) =   2
     Q(r) pseudized with  8 coefficients,  rinner =    1.000   1.000   1.000
                                                       1.000   1.000

     PseudoPot. # 2 for O  read from file:
     /storage/coda1/p-amedford6/0/shared/rich_project_chbe-medford/medford-share/data/pseudos_module/espresso/nninc/pbe/van/O.UPF
     MD5 check sum: 78c19812648e8988a0fe644b0f25305e
     Pseudo is Ultrasoft, Zval =  6.0
     Generated by new atomic code, or converted to UPF format
     Using radial grid of  737 points,  4 beta functions with:
                l(1) =   0
                l(2) =   0
                l(3) =   1
                l(4) =   1
     Q(r) pseudized with  8 coefficients,  rinner =    0.800   0.800   0.800

     PseudoPot. # 3 for N  read from file:
     /storage/coda1/p-amedford6/0/shared/rich_project_chbe-medford/medford-share/data/pseudos_module/espresso/nninc/pbe/van/N.UPF
     MD5 check sum: 90d10febe142ad51ac9d5be1deb811c4
     Pseudo is Ultrasoft, Zval =  5.0
     Generated by new atomic code, or converted to UPF format
     Using radial grid of  729 points,  4 beta functions with:
                l(1) =   0
                l(2) =   0
                l(3) =   1
                l(4) =   1
     Q(r) pseudized with  8 coefficients,  rinner =    0.800   0.800   0.800

     PseudoPot. # 4 for C  read from file:
     /storage/coda1/p-amedford6/0/shared/rich_project_chbe-medford/medford-share/data/pseudos_module/espresso/nninc/pbe/van/C.UPF
     MD5 check sum: 1a69bf6b8db32088f5b2163dbdb77a27
     Pseudo is Ultrasoft, Zval =  4.0
     Generated by new atomic code, or converted to UPF format
     Using radial grid of  721 points,  4 beta functions with:
                l(1) =   0
                l(2) =   0
                l(3) =   1
                l(4) =   1
     Q(r) pseudized with  8 coefficients,  rinner =    0.800   0.800   0.800

     PseudoPot. # 5 for H  read from file:
     /storage/coda1/p-amedford6/0/shared/rich_project_chbe-medford/medford-share/data/pseudos_module/espresso/nninc/pbe/van/H.UPF
     MD5 check sum: b5ee9d7bfd3a09ee7748110bda690ff7
     Pseudo is Ultrasoft, Zval =  1.0
     Generated by new atomic code, or converted to UPF format
     Using radial grid of  615 points,  1 beta functions with:
                l(1) =   0
     Q(r) pseudized with  8 coefficients,  rinner =    0.800

     atomic species   valence    mass     pseudopotential
        Ti1           12.00    47.86700     Ti( 1.00)
        O1             6.00    15.99900     O ( 1.00)
        N1             5.00    14.00700     N ( 1.00)
        C1             4.00    12.01100     C ( 1.00)
        H1             1.00     1.00800     H ( 1.00)

     No symmetry found

   Cartesian axes

     site n.     atom                  positions (alat units)
         1           Ti1 tau(   1) = (   0.0004258   2.9801865   6.0000000  )
         2           Ti1 tau(   2) = (   3.2906075   1.4906267   6.0002472  )
         3           O1  tau(   3) = (   0.0006271   0.0005054   7.9858123  )
         4           O1  tau(   4) = (   3.2906025   0.0005020   7.3038282  )
         5           O1  tau(   5) = (   4.5942328   1.4918067   9.2879030  )
         6           O1  tau(   6) = (   1.9868534   1.4903216   9.2879459  )
         7           Ti1 tau(   7) = (   3.2907910   2.8959150   9.1758416  )
         8           Ti1 tau(   8) = (   0.0015273   1.4827037   9.2680791  )
         9           O1  tau(   9) = (   3.2880966   5.9442215  11.2779904  )
        10           O1  tau(  10) = (   0.0116148   5.9584955  10.6183126  )
        11           O1  tau(  11) = (   1.2901275   1.4920942  12.6240107  )
        12           O1  tau(  12) = (   5.2966278   1.4852543  12.6143030  )
        13           Ti1 tau(  13) = (   0.0031916   3.1007002  12.7073671  )
        14           Ti1 tau(  14) = (   3.2978183   1.3116672  12.6600973  )
        15           O1  tau(  15) = (   6.5743189   0.0224225  14.6379036  )
        16           O1  tau(  16) = (   3.2931419   0.0435670  13.8892854  )
        17           O1  tau(  17) = (   4.5409235   1.5821231  16.0748620  )
        18           O1  tau(  18) = (   2.0417342   1.5698890  16.0900686  )
        19           Ti1 tau(  19) = (   3.2746960   3.0378214  15.6558348  )
        20           Ti1 tau(  20) = (   6.4705883   1.5381531  15.9030332  )
        21           O1  tau(  21) = (   3.2904802   0.0005063   4.7018136  )
        22           O1  tau(  22) = (   6.5584422   0.0457650  17.1906971  )
        23           O1  tau(  23) = (   1.3043587   1.4918075   6.0039043  )
        24           O1  tau(  24) = (   5.2767064   1.4903225   6.0039473  )
        25           Ti1 tau(  25) = (   0.0000382   5.9609847   6.0000000  )
        26           Ti1 tau(  26) = (   3.2902200   4.4714249   6.0002472  )
        27           O1  tau(  27) = (   0.0002396   2.9813036   7.9858123  )
        28           O1  tau(  28) = (   3.2902150   2.9813002   7.3038282  )
        29           O1  tau(  29) = (   4.5938453   4.4726049   9.2879030  )
        30           O1  tau(  30) = (   1.9864658   4.4711199   9.2879459  )
        31           Ti1 tau(  31) = (   3.2891106   5.8743827   9.1763621  )
        32           Ti1 tau(  32) = (   0.0006254   4.4649316   9.2693709  )
        33           O1  tau(  33) = (   3.2918970   3.0256722  11.2465752  )
        34           O1  tau(  34) = (   0.0092240   2.9805883  10.6323155  )
        35           O1  tau(  35) = (   1.2932338   4.4650182  12.6342030  )
        36           O1  tau(  36) = (   5.2897350   4.4662865  12.6224893  )
        37           Ti1 tau(  37) = (   0.0112454   0.1207271  12.6557084  )
        38           Ti1 tau(  38) = (   3.2993242   4.4067673  12.4119285  )
        39           O1  tau(  39) = (   6.5542949   2.9732608  14.6543823  )
        40           O1  tau(  40) = (   3.2957262   2.9928748  13.8751945  )
        41           O1  tau(  41) = (   4.5169628   4.4726675  16.1294972  )
        42           O1  tau(  42) = (   2.0179035   4.4711894  16.0655614  )
        43           Ti1 tau(  43) = (   3.1791666   0.0518155  16.3463265  )
        44           Ti1 tau(  44) = (   6.5235282   4.6410908  16.0777984  )
        45           O1  tau(  45) = (   3.2900926   2.9813045   4.7018136  )
        46           O1  tau(  46) = (   1.3039711   4.4726057   6.0039043  )
        47           O1  tau(  47) = (   5.2763189   4.4711207   6.0039473  )
        48           N1  tau(  48) = (   0.0679940   2.9882472  17.3287890  )
        49           C1  tau(  49) = (   0.3445104   2.8919884  18.7043053  )
        50           H1  tau(  50) = (   0.5935414   3.8503421  19.1719745  )
        51           H1  tau(  51) = (   6.0379261   2.4644003  19.2136804  )
        52           H1  tau(  52) = (   1.1315070   2.1426081  18.8955932  )
        53           O1  tau(  53) = (   3.2362511   0.0690349  18.1809703  )
        54           H1  tau(  54) = (   3.8186072   5.4079590  18.6500750  )

     number of k points=    10  Fermi-Dirac smearing, width (Ry)=  0.0073
                       cart. coord. in units 2pi/alat
        k(    1) = (   0.0000000   0.0000000   0.0000000), wk =   0.1250000
        k(    2) = (   0.0000000   0.0419351   0.0000000), wk =   0.2500000
        k(    3) = (   0.0000000  -0.0838702   0.0000000), wk =   0.1250000
        k(    4) = (   0.0379955   0.0000049   0.0000000), wk =   0.2500000
        k(    5) = (   0.0379955   0.0419400   0.0000000), wk =   0.2500000
        k(    6) = (   0.0379955  -0.0838652   0.0000000), wk =   0.2500000
        k(    7) = (   0.0379955  -0.0419301   0.0000000), wk =   0.2500000
        k(    8) = (  -0.0759910  -0.0000099   0.0000000), wk =   0.1250000
        k(    9) = (  -0.0759910   0.0419252   0.0000000), wk =   0.2500000
        k(   10) = (  -0.0759910  -0.0838800   0.0000000), wk =   0.1250000

     Initial potential from superposition of free atoms

     starting charge  380.99916, renormalised to  397.00000

     negative rho (up, down):  1.676E-02 0.000E+00

     %%%%%%%%%%%%%%%%%%%%%%%%%%%%%%%%%%%%%%%%%%%%%%%%%%%%%%%%%%%%%%%%%%%%%%%%
     %                                                                      %
     % You are using vdW-DF, which was implemented by the Thonhauser group. %
     % Please cite the following two papers that made this development      %
     % possible and the two reviews that describe the various versions:     %
     %                                                                      %
     %   T. Thonhauser et al., PRL 115, 136402 (2015).                      %
     %   T. Thonhauser et al., PRB 76, 125112 (2007).                       %
     %   K. Berland et al., Rep. Prog. Phys. 78, 066501 (2015).             %
     %   D.C. Langreth et al., J. Phys.: Condens. Matter 21, 084203 (2009). %
     %                                                                      %
     %                                                                      %
     % If you are calculating the stress with vdW-DF, please also cite:     %
     %                                                                      %
     %   R. Sabatini et al., J. Phys.: Condens. Matter 24, 424209 (2012).   %
     %                                                                      %
     %%%%%%%%%%%%%%%%%%%%%%%%%%%%%%%%%%%%%%%%%%%%%%%%%%%%%%%%%%%%%%%%%%%%%%%%

     Adding external electric field

     Computed dipole along edir(3) :
        Dipole               -8.2929 Ry au,        -21.0784 Debye
        Dipole field         -0.0156 Ry au,

        Potential amp.        1.4507 Ry
        Total length         46.3494 bohr

     Starting wfcs are  300 atomic wfcs
  @ DRIVER MODE: Message from server: STATUS
  @ DRIVER MODE: Message from server: POSDATA
  @ DRIVER MODE: Reading and sharing cell
  @ DRIVER MODE: Reading and sharing positions
  @ DRIVER MODE: Received positions

     Self-consistent Calculation

     iteration #  1     ecut=    29.40 Ry     beta= 0.05
     Davidson diagonalization with overlap
     c_bands:  1 eigenvalues not converged
     c_bands:  1 eigenvalues not converged
     c_bands:  1 eigenvalues not converged
     c_bands:  3 eigenvalues not converged
     c_bands:  2 eigenvalues not converged
     c_bands:  1 eigenvalues not converged
     c_bands:  1 eigenvalues not converged
     ethr =  1.00E-05,  avg # of iterations = 19.2

[...]

     total energy              =   -2606.43751752 Ry
     estimated scf accuracy    <    3821.05226071 Ry

     iteration #  2     ecut=    29.40 Ry     beta= 0.05
     Davidson diagonalization with overlap
     ethr =  1.00E-02,  avg # of iterations = 24.0

[...]

     iteration # 42     ecut=    29.40 Ry     beta= 0.05
     Davidson diagonalization with overlap
     c_bands:  1 eigenvalues not converged
     c_bands:  1 eigenvalues not converged
     ethr =  2.18E-06,  avg # of iterations =  5.3

[...]

     total energy              =   -2952.64743324 Ry
     estimated scf accuracy    <       0.00000012 Ry

     iteration # 71     ecut=    29.40 Ry     beta= 0.05
     Davidson diagonalization with overlap
     ethr =  2.98E-11,  avg # of iterations =  5.0

     negative rho (up, down):  1.695E-02 0.000E+00

     Adding external electric field

     Computed dipole along edir(3) :
        Dipole                0.3645 Ry au,          0.9265 Debye
        Dipole field          0.0007 Ry au,

        Potential amp.       -0.0638 Ry
        Total length         46.3494 bohr

     End of self-consistent calculation

          k = 0.0000 0.0000 0.0000 ( 18029 PWs)   bands (ev):

   -56.8737 -56.8401 -55.9438 -55.9083 -55.7333 -55.6685 -55.5476 -55.4249
   -55.3910 -55.3107 -55.3087 -55.2381 -55.2163 -55.1136 -55.0445 -54.9173
   -33.2924 -33.1439 -33.1158 -33.0534 -32.9632 -32.9195 -32.4250 -32.2085
   -32.1640 -32.1438 -32.0883 -32.0799 -32.0543 -31.9671 -31.9457 -31.9034
   -31.8886 -31.8711 -31.8307 -31.8028 -31.7936 -31.7910 -31.7783 -31.7720
   -31.7475 -31.7274 -31.6626 -31.6290 -31.5890 -31.5797 -31.5487 -31.5258
   -31.5133 -31.5056 -31.4721 -31.4632 -31.4372 -31.4278 -31.4058 -31.3914
   -31.3542 -31.3032 -31.2967 -31.2801 -31.2482 -31.1893 -31.1538 -31.1006
   -16.9765 -16.4317 -16.4135 -16.1900 -16.0675 -16.0615 -16.0161 -15.9534
   -15.7811 -15.7264 -15.6870 -15.6235 -15.4722 -15.3620 -15.2650 -15.0693
   -15.0339 -15.0023 -14.9999 -14.9869 -14.9561 -14.9438 -14.8684 -14.8173
   -14.7866 -14.7046 -14.6972 -14.5365 -14.3080 -14.2846 -13.9224 -13.8154
   -13.7954  -8.0336  -4.5523  -4.0825  -3.8829  -3.7078  -3.5583  -3.4938
    -3.4603  -3.3923  -3.3784  -3.2422  -3.2331  -3.2270  -3.2203  -3.1360
    -3.0717  -3.0134  -2.9241  -2.9085  -2.8177  -2.7673  -2.6083  -2.5737
    -2.4860  -2.4075  -2.4019  -2.3356  -2.3163  -2.2747  -2.2394  -2.2082
    -2.1788  -2.1357  -2.0811  -2.0714  -1.9763  -1.9695  -1.8878  -1.8722
    -1.8664  -1.7446  -1.7057  -1.6462  -1.5064  -1.4850  -1.4679  -1.4366
    -1.3984  -1.3380  -1.2332  -1.1755  -1.1463  -1.0930  -1.0225  -0.9661
    -0.9460  -0.8717  -0.8454  -0.7710  -0.7269  -0.7123  -0.6922  -0.6662
    -0.5290  -0.4469  -0.4121  -0.3594  -0.3445  -0.3056  -0.2797  -0.2260
    -0.1673  -0.1438  -0.0470  -0.0445   0.0921   0.1601   0.1622   0.2608
     0.3054   0.3120   0.3688   0.4371   0.4489   0.5127   0.5331   0.5908
     0.5963   0.6390   0.7226   0.7996   0.8431   0.8728   0.9131   0.9336
     1.0457   1.0704   1.1337   1.1899   1.5001   1.5726   2.1801   2.4209
     2.5927   2.8702   3.0657   3.3654   3.4068   3.4249   3.4251   3.7356

[...]

          k = 0.0380-0.0419 0.0000 ( 17876 PWs)   bands (ev):

[...]

          k =-0.0760-0.0000 0.0000 ( 17886 PWs)   bands (ev):

[...]

          k =-0.0760-0.0839 0.0000 ( 17948 PWs)   bands (ev):

   -56.8576 -56.8561 -55.9318 -55.9201 -55.7285 -55.6732 -55.5468 -55.4085
   -55.4073 -55.3113 -55.3042 -55.2423 -55.2149 -55.1121 -55.0460 -54.9187
   -33.1304 -33.1289 -33.1104 -33.1090 -33.0075 -33.0063 -32.2500 -32.2398
   -32.1264 -32.1222 -32.1143 -32.1133 -32.0267 -31.9860 -31.9603 -31.9465
   -31.8988 -31.8973 -31.8325 -31.7897 -31.7697 -31.7610 -31.7601 -31.6837
   -31.6337 -31.6287 -31.6272 -31.6022 -31.5920 -31.5886 -31.5876 -31.5815
   -31.5329 -31.5248 -31.5084 -31.4831 -31.4777 -31.4621 -31.4324 -31.4078
   -31.3911 -31.3570 -31.3053 -31.2909 -31.2579 -31.2540 -31.1562 -31.1384
   -16.4193 -16.3343 -16.3325 -16.2899 -16.2884 -16.0247 -16.0203 -15.7721
   -15.7430 -15.5670 -15.4554 -15.4333 -15.3916 -15.3511 -15.2737 -15.2226
   -15.2095 -15.1812 -15.1548 -15.0826 -15.0482 -14.9476 -14.9121 -14.8502
   -14.8157 -14.7423 -14.7020 -14.6734 -14.4787 -14.4179 -13.9200 -13.9194
   -13.8187  -8.0324  -4.0862  -3.4761  -3.4113  -3.4070  -3.3715  -3.3644
    -3.2901  -3.1601  -3.1567  -3.0408  -2.9557  -2.9289  -2.8993  -2.8451
    -2.8315  -2.7354  -2.6858  -2.6809  -2.6654  -2.6309  -2.5999  -2.5928
    -2.5350  -2.4084  -2.3640  -2.3267  -2.2865  -2.2179  -2.1877  -2.1799
    -2.1470  -2.1076  -2.0893  -2.0604  -2.0478  -2.0411  -2.0306  -1.9440
    -1.7965  -1.7697  -1.6765  -1.6736  -1.6635  -1.6239  -1.5941  -1.5801
    -1.5600  -1.5262  -1.4496  -1.4237  -1.3594  -1.2235  -1.2109  -1.1762
    -1.1227  -1.0196  -1.0049  -0.9083  -0.8912  -0.8813  -0.8172  -0.7942
    -0.7778  -0.7155  -0.6776  -0.5578  -0.4867  -0.4782  -0.4603  -0.4509
    -0.4009  -0.3534  -0.2805  -0.2766  -0.2602  -0.1521  -0.0562   0.0381
     0.0457   0.1126   0.1286   0.1842   0.3402   0.3513   0.3930   0.4548
     0.5707   0.6626   0.7162   0.8159   0.8488   0.9546   0.9732   0.9783
     0.9976   1.0064   1.0499   1.1058   1.1693   1.4821   1.9795   3.0136
     3.0167   3.0751   3.0806   3.3919   3.3941   3.5062   3.5111   3.8431

     the Fermi energy is     2.0773 ev

!    total energy              =   -2952.64744952 Ry
     estimated scf accuracy    <       0.00000007 Ry
     smearing contrib. (-TS)   =      -0.01068441 Ry
     internal energy E=F+TS    =   -2952.63676511 Ry

     The total energy is F=E-TS. E is the sum of the following terms:
     one-electron contribution =  -24060.70321582 Ry
     hartree contribution      =   12120.83393117 Ry
     xc contribution           =    -487.77231748 Ry
     ewald contribution        =    9475.00458628 Ry
     electric field correction =       0.00025074 Ry

     convergence has been achieved in  71 iterations

     Forces acting on atoms (cartesian axes, Ry/au):

     atom    1 type  1   force =     0.00005635   -0.00036568    0.12636095
     atom    2 type  1   force =    -0.00006013    0.00038959   -0.15473152
     atom    3 type  2   force =     0.00003719    0.00023023   -0.06867300
     atom    4 type  2   force =     0.00004385    0.00001128    0.01722487
     atom    5 type  2   force =    -0.00541773   -0.00183433   -0.01283459
     atom    6 type  2   force =     0.00700098   -0.00107340   -0.01373501
     atom    7 type  1   force =    -0.00029622   -0.00640682    0.05894626
     atom    8 type  1   force =     0.00058483    0.00674966    0.10098438
     atom    9 type  2   force =     0.00031912    0.00037780    0.00013736
     atom   10 type  2   force =    -0.00198454    0.00132309   -0.06336719
     atom   11 type  2   force =    -0.00015502   -0.00065436    0.00022636
     atom   12 type  2   force =    -0.00037916   -0.00040033    0.00004710
     atom   13 type  1   force =     0.00057601   -0.00074513    0.00026380
     atom   14 type  1   force =    -0.00003274   -0.00050707    0.00117764
     atom   15 type  2   force =     0.00000021    0.00000455    0.00024962
     atom   16 type  2   force =     0.00005529   -0.00022400   -0.00077440
     atom   17 type  2   force =    -0.00040274   -0.00054769   -0.00044194
     atom   18 type  2   force =    -0.00046159   -0.00053521   -0.00064314
     atom   19 type  1   force =     0.00128929    0.00044571   -0.00078601
     atom   20 type  1   force =    -0.00078413    0.00087892   -0.00070691
     atom   21 type  2   force =     0.00009658    0.00015025    0.09788245
     atom   22 type  2   force =    -0.00008758   -0.00004116   -0.00032229
     atom   23 type  2   force =    -0.08271188    0.00003311   -0.03314223
     atom   24 type  2   force =     0.08268189    0.00046333   -0.03320557
     atom   25 type  1   force =     0.00005353   -0.00040107    0.12672622
     atom   26 type  1   force =    -0.00004688   -0.00139669   -0.15488489
     atom   27 type  2   force =     0.00011973   -0.00036924   -0.06707670
     atom   28 type  2   force =     0.00007211    0.00177220    0.01244286
     atom   29 type  2   force =    -0.00383979    0.00476499   -0.01597906
     atom   30 type  2   force =     0.00536944    0.00500410   -0.01690735
     atom   31 type  1   force =    -0.00028936    0.00187909    0.04203606
     atom   32 type  1   force =     0.00074703   -0.00886735    0.10190779
     atom   33 type  2   force =    -0.00004766   -0.00035799   -0.00058564
     atom   34 type  2   force =    -0.00187797    0.00205807   -0.07568522
     atom   35 type  2   force =     0.00013634   -0.00012910   -0.00048619
     atom   36 type  2   force =    -0.00030717    0.00006811   -0.00020726
     atom   37 type  1   force =     0.00046932    0.00055375    0.00036866
     atom   38 type  1   force =    -0.00034761   -0.00077374   -0.00037762
     atom   39 type  2   force =     0.00002611   -0.00049847    0.00060398
     atom   40 type  2   force =    -0.00008788   -0.00057682   -0.00051086
     atom   41 type  2   force =     0.00052553   -0.00042661   -0.00077656
     atom   42 type  2   force =    -0.00135973    0.00022181   -0.00008591
     atom   43 type  1   force =     0.00109614   -0.00101525   -0.00018966
     atom   44 type  1   force =    -0.00120942   -0.00065463   -0.00013796
     atom   45 type  2   force =     0.00008333   -0.00002738    0.09773794
     atom   46 type  2   force =    -0.08274714    0.00001757   -0.03315427
     atom   47 type  2   force =     0.08271118    0.00043117   -0.03320112
     atom   48 type  3   force =     0.00031803   -0.00078137   -0.00068929
     atom   49 type  4   force =    -0.00059517   -0.00047997   -0.00051296
     atom   50 type  5   force =    -0.00012315   -0.00005728    0.00071287
     atom   51 type  5   force =     0.00050661    0.00011941   -0.00020370
     atom   52 type  5   force =    -0.00060283    0.00071476    0.00018244
     atom   53 type  2   force =     0.00563715   -0.00535725    0.00383691
     atom   54 type  5   force =    -0.00435793    0.00684280   -0.00504052

     Total force =     0.421360     Total SCF correction =     0.000705
  @ DRIVER MODE: Message from server: STATUS
  @ DRIVER MODE: Message from server: GETFORCE
  @ DRIVER MODE: Returning v,forces,stress,ensemble

     Writing output data file ./calc.save/
  @ DRIVER MODE: Message from server: EXIT
  @ DRIVE MODE: Exiting

     General routines

     Parallel routines

   This run was terminated on:   5:34:27  23Sep2021

   JOB DONE.