     Program PWSCF v.6.7GPU starts on 24Sep2021 at  3:23:29

     R & G space division:  proc/nbgrp/npool/nimage =       8
     Reading input from /storage/home/hcoda1/3/ntian30/research/carbon/CxH_vib/H2O_calc/ads_slab/CH3NHHO_a/out_0044/pw.inp
Warning: card &CELL ignored
Warning: card   CELL_DYNAMICS='IPI', ignored
Warning: card / ignored

     Current dimensions of program PWSCF are:
     Max number of different atomic species (ntypx) = 10
     Max number of k-points (npk) =  40000
     Max angular momentum in pseudopotentials (lmaxx) =  3
     Presently no symmetry can be used with electric field

     Message from routine cell_base_init:
     DEPRECATED: use true lattice parameter, not A to a.u. conversion factor

     IMPORTANT: XC functional enforced from input :
     Exchange-correlation= BEEF-VDW
                           (   1   4  43  14   2   0   0)
     Any further DFT definition will be discarded
     Please, verify this is what you really want

  @ DRIVER MODE: Connecting to
 qe_1139763_2947309.sched-torque.pace.gatech.edu40u5l6cx_scratch
  using UNIX socket
  @ DRIVER MODE: Message from server: STATUS
  @ DRIVER MODE: Message from server: INIT
  @ DRIVER MODE: Receiving replica           0          -1
  @ DRIVER MODE: Receiving encoded integer          25
  @ DRIVER MODE:  SCF:  T  FORCE:  T  STRESS:  F  VC:  F  ENSEMBLE:  F
  @ DRIVER MODE:  SCF:  T  FORCE:  T  STRESS:  F  VC:  F  ENSEMBLE:  F

     Using Slab Decomposition

     bravais-lattice index     =            0
     lattice parameter (alat)  =       1.8897  a.u.
     unit-cell volume          =    6658.9804 (a.u.)^3
     number of atoms/cell      =           55
     number of atomic types    =            5
     number of electrons       =       398.00
     number of Kohn-Sham states=          209
     kinetic-energy cutoff     =      29.3995  Ry
     charge density cutoff     =     293.9946  Ry
     scf convergence threshold =      7.3E-08
     mixing beta               =       0.0500
     number of iterations used =            8  plain     mixing
     Exchange-correlation= BEEF-VDW
                           (   1   4  43  14   2   0   0)

     celldm(1)=   1.889726  celldm(2)=   0.000000  celldm(3)=   0.000000
     celldm(4)=   0.000000  celldm(5)=   0.000000  celldm(6)=   0.000000

     crystal axes: (cart. coord. in units of alat)
               a(1) = (   6.579727   0.000000   0.000000 )
               a(2) = (  -0.000775   5.961596   0.000000 )
               a(3) = (   0.000000   0.000000  25.155947 )

     reciprocal axes: (cart. coord. in units 2 pi/alat)
               b(1) = (  0.151982  0.000020  0.000000 )
               b(2) = (  0.000000  0.167740  0.000000 )
               b(3) = (  0.000000  0.000000  0.039752 )

     PseudoPot. # 1 for Ti read from file:
     /storage/coda1/p-amedford6/0/shared/rich_project_chbe-medford/medford-share/data/pseudos_module/espresso/nninc/pbe/van/Ti.UPF
     MD5 check sum: 8e4df49b7f0d34bbd5052bf3f5ea0213
     Pseudo is Ultrasoft, Zval = 12.0
     Generated by new atomic code, or converted to UPF format
     Using radial grid of  851 points,  6 beta functions with:
                l(1) =   0
                l(2) =   0
                l(3) =   1
                l(4) =   1
                l(5) =   2
                l(6) =   2
     Q(r) pseudized with  8 coefficients,  rinner =    1.000   1.000   1.000
                                                       1.000   1.000

     PseudoPot. # 2 for O  read from file:
     /storage/coda1/p-amedford6/0/shared/rich_project_chbe-medford/medford-share/data/pseudos_module/espresso/nninc/pbe/van/O.UPF
     MD5 check sum: 78c19812648e8988a0fe644b0f25305e
     Pseudo is Ultrasoft, Zval =  6.0
     Generated by new atomic code, or converted to UPF format
     Using radial grid of  737 points,  4 beta functions with:
                l(1) =   0
                l(2) =   0
                l(3) =   1
                l(4) =   1
     Q(r) pseudized with  8 coefficients,  rinner =    0.800   0.800   0.800

     PseudoPot. # 3 for H  read from file:
     /storage/coda1/p-amedford6/0/shared/rich_project_chbe-medford/medford-share/data/pseudos_module/espresso/nninc/pbe/van/H.UPF
     MD5 check sum: b5ee9d7bfd3a09ee7748110bda690ff7
     Pseudo is Ultrasoft, Zval =  1.0
     Generated by new atomic code, or converted to UPF format
     Using radial grid of  615 points,  1 beta functions with:
                l(1) =   0
     Q(r) pseudized with  8 coefficients,  rinner =    0.800

     PseudoPot. # 4 for N  read from file:
     /storage/coda1/p-amedford6/0/shared/rich_project_chbe-medford/medford-share/data/pseudos_module/espresso/nninc/pbe/van/N.UPF
     MD5 check sum: 90d10febe142ad51ac9d5be1deb811c4
     Pseudo is Ultrasoft, Zval =  5.0
     Generated by new atomic code, or converted to UPF format
     Using radial grid of  729 points,  4 beta functions with:
                l(1) =   0
                l(2) =   0
                l(3) =   1
                l(4) =   1
     Q(r) pseudized with  8 coefficients,  rinner =    0.800   0.800   0.800

     PseudoPot. # 5 for C  read from file:
     /storage/coda1/p-amedford6/0/shared/rich_project_chbe-medford/medford-share/data/pseudos_module/espresso/nninc/pbe/van/C.UPF
     MD5 check sum: 1a69bf6b8db32088f5b2163dbdb77a27
     Pseudo is Ultrasoft, Zval =  4.0
     Generated by new atomic code, or converted to UPF format
     Using radial grid of  721 points,  4 beta functions with:
                l(1) =   0
                l(2) =   0
                l(3) =   1
                l(4) =   1
     Q(r) pseudized with  8 coefficients,  rinner =    0.800   0.800   0.800

     atomic species   valence    mass     pseudopotential
        Ti1           12.00    47.86700     Ti( 1.00)
        O1             6.00    15.99900     O ( 1.00)
        H1             1.00     1.00800     H ( 1.00)
        N1             5.00    14.00700     N ( 1.00)
        C1             4.00    12.01100     C ( 1.00)

     No symmetry found

   Cartesian axes

     site n.     atom                  positions (alat units)
         1           Ti1 tau(   1) = (   0.0004258   2.9801865   6.0000000  )
         2           Ti1 tau(   2) = (   3.2906075   1.4906267   6.0002472  )
         3           O1  tau(   3) = (   0.0006271   0.0005054   7.9858123  )
         4           O1  tau(   4) = (   3.2906025   0.0005020   7.3038282  )
         5           O1  tau(   5) = (   4.5942328   1.4918067   9.2879030  )
         6           O1  tau(   6) = (   1.9868534   1.4903216   9.2879459  )
         7           Ti1 tau(   7) = (   3.2907910   2.8959150   9.1758416  )
         8           Ti1 tau(   8) = (   0.0015273   1.4827037   9.2680791  )
         9           O1  tau(   9) = (   3.2831040   5.9360571  11.2641146  )
        10           O1  tau(  10) = (   0.0116148   5.9584955  10.6183126  )
        11           O1  tau(  11) = (   1.2851963   1.4867209  12.6255510  )
        12           O1  tau(  12) = (   5.2924406   1.4772461  12.6192171  )
        13           Ti1 tau(  13) = (   0.0036382   2.8404764  12.7021481  )
        14           Ti1 tau(  14) = (   3.2814461   1.2926050  12.6442039  )
        15           O1  tau(  15) = (   6.5789252   5.9354829  14.6389027  )
        16           O1  tau(  16) = (   3.2852549   0.0163589  13.8648689  )
        17           O1  tau(  17) = (   4.5445832   1.5164849  16.0197972  )
        18           O1  tau(  18) = (   2.0258823   1.4930055  16.0750729  )
        19           Ti1 tau(  19) = (   3.3156224   2.9699746  15.6194889  )
        20           Ti1 tau(  20) = (   0.0515760   1.3234122  16.0730098  )
        21           O1  tau(  21) = (   3.2904802   0.0005063   4.7018136  )
        22           O1  tau(  22) = (   6.5454194   5.9222349  17.1870725  )
        23           O1  tau(  23) = (   1.3043587   1.4918075   6.0039043  )
        24           O1  tau(  24) = (   5.2767064   1.4903225   6.0039473  )
        25           Ti1 tau(  25) = (   0.0000382   5.9609847   6.0000000  )
        26           Ti1 tau(  26) = (   3.2902200   4.4714249   6.0002472  )
        27           O1  tau(  27) = (   0.0002396   2.9813036   7.9858123  )
        28           O1  tau(  28) = (   3.2902150   2.9813002   7.3038282  )
        29           O1  tau(  29) = (   4.5938453   4.4726049   9.2879030  )
        30           O1  tau(  30) = (   1.9864658   4.4711199   9.2879459  )
        31           Ti1 tau(  31) = (   3.2891106   5.8743827   9.1763621  )
        32           Ti1 tau(  32) = (   0.0006254   4.4649316   9.2693709  )
        33           O1  tau(  33) = (   3.2861177   3.0127509  11.2320142  )
        34           O1  tau(  34) = (   0.0092240   2.9805883  10.6323155  )
        35           O1  tau(  35) = (   1.2872320   4.4646868  12.6147789  )
        36           O1  tau(  36) = (   5.2799320   4.4658550  12.6114028  )
        37           Ti1 tau(  37) = (   6.5510365   5.8261734  12.6423015  )
        38           Ti1 tau(  38) = (   3.2652589   4.3917841  12.4002916  )
        39           O1  tau(  39) = (   0.0003569   2.9920414  14.6539809  )
        40           O1  tau(  40) = (   3.2835110   2.9651371  13.8409569  )
        41           O1  tau(  41) = (   4.5245492   4.4030193  16.0142317  )
        42           O1  tau(  42) = (   2.0132503   4.4096711  16.0494848  )
        43           Ti1 tau(  43) = (   3.3389516   5.9588577  16.2858146  )
        44           Ti1 tau(  44) = (   0.0865397   4.4271626  15.8895714  )
        45           O1  tau(  45) = (   3.2900926   2.9813045   4.7018136  )
        46           O1  tau(  46) = (   1.3039711   4.4726057   6.0039043  )
        47           O1  tau(  47) = (   5.2763189   4.4711207   6.0039473  )
        48           H1  tau(  48) = (   5.5649379   3.0085428  17.7754687  )
        49           N1  tau(  49) = (   6.5266086   2.9804045  17.4451690  )
        50           C1  tau(  50) = (   0.8252436   3.0135910  18.6253707  )
        51           H1  tau(  51) = (   0.7415300   3.9712607  19.1474969  )
        52           H1  tau(  52) = (   0.5789590   2.2014881  19.3161603  )
        53           H1  tau(  53) = (   1.8636945   2.8847911  18.3311598  )
        54           O1  tau(  54) = (   3.4430348   5.9447220  18.1074838  )
        55           H1  tau(  55) = (   4.3235669   5.8364121  18.5244127  )

     number of k points=    10  Fermi-Dirac smearing, width (Ry)=  0.0073
                       cart. coord. in units 2pi/alat
        k(    1) = (   0.0000000   0.0000000   0.0000000), wk =   0.1250000
        k(    2) = (   0.0000000   0.0419351   0.0000000), wk =   0.2500000
        k(    3) = (   0.0000000  -0.0838702   0.0000000), wk =   0.1250000
        k(    4) = (   0.0379955   0.0000049   0.0000000), wk =   0.2500000
        k(    5) = (   0.0379955   0.0419400   0.0000000), wk =   0.2500000
        k(    6) = (   0.0379955  -0.0838652   0.0000000), wk =   0.2500000
        k(    7) = (   0.0379955  -0.0419301   0.0000000), wk =   0.2500000
        k(    8) = (  -0.0759910  -0.0000099   0.0000000), wk =   0.1250000
        k(    9) = (  -0.0759910   0.0419252   0.0000000), wk =   0.2500000
        k(   10) = (  -0.0759910  -0.0838800   0.0000000), wk =   0.1250000

     Initial potential from superposition of free atoms

     starting charge  381.99915, renormalised to  398.00000

     negative rho (up, down):  1.687E-02 0.000E+00

     %%%%%%%%%%%%%%%%%%%%%%%%%%%%%%%%%%%%%%%%%%%%%%%%%%%%%%%%%%%%%%%%%%%%%%%%
     %                                                                      %
     % You are using vdW-DF, which was implemented by the Thonhauser group. %
     % Please cite the following two papers that made this development      %
     % possible and the two reviews that describe the various versions:     %
     %                                                                      %
     %   T. Thonhauser et al., PRL 115, 136402 (2015).                      %
     %   T. Thonhauser et al., PRB 76, 125112 (2007).                       %
     %   K. Berland et al., Rep. Prog. Phys. 78, 066501 (2015).             %
     %   D.C. Langreth et al., J. Phys.: Condens. Matter 21, 084203 (2009). %
     %                                                                      %
     %                                                                      %
     % If you are calculating the stress with vdW-DF, please also cite:     %
     %                                                                      %
     %   R. Sabatini et al., J. Phys.: Condens. Matter 24, 424209 (2012).   %
     %                                                                      %
     %%%%%%%%%%%%%%%%%%%%%%%%%%%%%%%%%%%%%%%%%%%%%%%%%%%%%%%%%%%%%%%%%%%%%%%%

     Adding external electric field

     Computed dipole along edir(3) :
        Dipole               -8.7629 Ry au,        -22.2732 Debye
        Dipole field         -0.0165 Ry au,

        Potential amp.        1.5329 Ry
        Total length         46.3494 bohr

     Starting wfcs are  301 atomic wfcs
  @ DRIVER MODE: Message from server: STATUS
  @ DRIVER MODE: Message from server: POSDATA
  @ DRIVER MODE: Reading and sharing cell
  @ DRIVER MODE: Reading and sharing positions
  @ DRIVER MODE: Received positions

     Self-consistent Calculation

     iteration #  1     ecut=    29.40 Ry     beta= 0.05
     Davidson diagonalization with overlap
     c_bands:  1 eigenvalues not converged
     c_bands:  1 eigenvalues not converged
     c_bands:  1 eigenvalues not converged
     c_bands:  2 eigenvalues not converged
     ethr =  1.00E-05,  avg # of iterations = 18.0

[...]

     total energy              =   -2565.55213958 Ry
     estimated scf accuracy    <    4291.65063170 Ry

     iteration #  2     ecut=    29.40 Ry     beta= 0.05
     Davidson diagonalization with overlap
     ethr =  1.00E-02,  avg # of iterations = 22.5

[...]

     iteration # 42     ecut=    29.40 Ry     beta= 0.05
     Davidson diagonalization with overlap
     c_bands:  1 eigenvalues not converged
     c_bands:  1 eigenvalues not converged
     c_bands:  3 eigenvalues not converged
     ethr =  7.51E-06,  avg # of iterations = 12.5

[...]

     total energy              =   -2954.01275006 Ry
     estimated scf accuracy    <       0.00000012 Ry

     iteration # 70     ecut=    29.40 Ry     beta= 0.05
     Davidson diagonalization with overlap
     ethr =  3.05E-11,  avg # of iterations =  5.0

     negative rho (up, down):  1.730E-02 0.000E+00

     Adding external electric field

     Computed dipole along edir(3) :
        Dipole                0.2162 Ry au,          0.5496 Debye
        Dipole field          0.0004 Ry au,

        Potential amp.       -0.0378 Ry
        Total length         46.3494 bohr

     End of self-consistent calculation

          k = 0.0000 0.0000 0.0000 ( 18029 PWs)   bands (ev):

   -56.9292 -56.8957 -56.0283 -55.9934 -55.7931 -55.7251 -55.6346 -55.4807
   -55.4468 -55.4072 -55.3940 -55.3292 -55.3234 -55.2788 -55.1320 -55.0561
   -33.3484 -33.2011 -33.1731 -33.1078 -33.0175 -32.9754 -32.5111 -32.2688
   -32.2491 -32.2230 -32.1707 -32.1657 -32.1401 -32.0288 -32.0089 -31.9618
   -31.9422 -31.9297 -31.9101 -31.8903 -31.8883 -31.8633 -31.8597 -31.8279
   -31.8279 -31.8034 -31.7581 -31.7183 -31.6850 -31.6773 -31.6178 -31.6079
   -31.6045 -31.5871 -31.5757 -31.5471 -31.5267 -31.5211 -31.5074 -31.5008
   -31.4928 -31.4422 -31.3977 -31.3743 -31.3357 -31.3114 -31.3053 -31.2386
   -17.0355 -16.4896 -16.3935 -16.2470 -16.1435 -16.1245 -16.0873 -16.0360
   -15.8381 -15.7864 -15.7503 -15.6845 -15.5868 -15.4307 -15.3337 -15.1605
   -15.1107 -15.0791 -15.0618 -15.0558 -15.0491 -15.0365 -14.9820 -14.9259
   -14.8855 -14.8029 -14.7477 -14.6375 -14.4114 -14.3830 -13.9780 -13.8709
   -13.8091  -8.4912  -4.6093  -4.0824  -3.9663  -3.9344  -3.7799  -3.6267
    -3.5014  -3.4489  -3.4229  -3.3144  -3.2980  -3.2883  -3.1988  -3.0696
    -2.9990  -2.9877  -2.9198  -2.9027  -2.8743  -2.8599  -2.6961  -2.6637
    -2.5696  -2.5175  -2.4957  -2.4153  -2.4059  -2.3461  -2.2957  -2.2841
    -2.2616  -2.2028  -2.1991  -2.1280  -2.1012  -2.0245  -1.9999  -1.9680
    -1.9449  -1.8738  -1.7977  -1.7631  -1.6087  -1.5721  -1.5396  -1.5041
    -1.4874  -1.4069  -1.3363  -1.2541  -1.2199  -1.1530  -1.1043  -1.0642
    -1.0512  -0.9358  -0.9116  -0.8536  -0.7905  -0.7743  -0.7674  -0.7203
    -0.6077  -0.5285  -0.5187  -0.4969  -0.4349  -0.4147  -0.3773  -0.3529
    -0.2764  -0.2601  -0.1516  -0.0786  -0.0472  -0.0220   0.0788   0.1578
     0.1789   0.2214   0.2637   0.3068   0.3362   0.3795   0.4474   0.4957
     0.5186   0.5410   0.5707   0.6662   0.7166   0.7535   0.8091   0.8248
     0.8905   0.9603   0.9870   1.0759   1.1202   1.4863   1.6369   2.3640
     2.5346   2.8106   2.9841   3.2999   3.3497   3.3656   3.3671   3.6535
     3.7773

[...]

          k = 0.0380-0.0419 0.0000 ( 17876 PWs)   bands (ev):

[...]

          k =-0.0760-0.0000 0.0000 ( 17886 PWs)   bands (ev):

[...]

          k =-0.0760-0.0839 0.0000 ( 17948 PWs)   bands (ev):

   -56.9130 -56.9117 -56.0155 -56.0060 -55.7885 -55.7295 -55.6338 -55.4643
   -55.4631 -55.4031 -55.3946 -55.3329 -55.3221 -55.2775 -55.1334 -55.0572
   -33.1875 -33.1862 -33.1662 -33.1650 -33.0618 -33.0607 -32.3352 -32.3270
   -32.2105 -32.2008 -32.1999 -32.1940 -32.0920 -32.0463 -32.0220 -32.0077
   -31.9566 -31.9557 -31.9067 -31.8747 -31.8629 -31.8169 -31.8161 -31.7723
   -31.7350 -31.7023 -31.6842 -31.6826 -31.6779 -31.6747 -31.6455 -31.6444
   -31.6341 -31.6294 -31.6076 -31.5976 -31.5746 -31.5659 -31.5351 -31.5246
   -31.5156 -31.4830 -31.4378 -31.3992 -31.3748 -31.3401 -31.3134 -31.2662
   -16.3963 -16.3943 -16.3770 -16.3471 -16.3455 -16.0908 -16.0862 -15.8402
   -15.8082 -15.6864 -15.5339 -15.5046 -15.4672 -15.4176 -15.3714 -15.3009
   -15.2827 -15.2416 -15.2078 -15.1528 -15.1271 -15.0492 -15.0152 -14.9563
   -14.9202 -14.8314 -14.7846 -14.7783 -14.5597 -14.5414 -13.9755 -13.9749
   -13.8259  -8.4962  -4.0426  -3.9898  -3.4693  -3.4642  -3.4434  -3.4341
    -3.2196  -3.2139  -3.0460  -3.0031  -2.9839  -2.9427  -2.9265  -2.8390
    -2.8205  -2.7909  -2.7501  -2.7452  -2.7367  -2.7186  -2.6714  -2.6629
    -2.6223  -2.4853  -2.4710  -2.4511  -2.3921  -2.3284  -2.2976  -2.2459
    -2.2186  -2.2051  -2.1784  -2.1704  -2.1653  -2.1362  -2.1082  -1.9519
    -1.9102  -1.8088  -1.7762  -1.7513  -1.7299  -1.6754  -1.6719  -1.6419
    -1.6190  -1.5871  -1.5267  -1.4934  -1.4517  -1.3269  -1.3056  -1.2657
    -1.2483  -1.1896  -1.0929  -1.0038  -0.9910  -0.9478  -0.9289  -0.8826
    -0.8688  -0.8392  -0.7587  -0.7020  -0.5949  -0.5655  -0.5533  -0.5303
    -0.5004  -0.4584  -0.4108  -0.3424  -0.3269  -0.2081  -0.1390  -0.0935
    -0.0276   0.0388   0.0784   0.1188   0.1713   0.2685   0.2863   0.3617
     0.3753   0.4948   0.6037   0.6220   0.7741   0.8078   0.8759   0.9160
     0.9208   0.9314   0.9491   0.9606   1.0132   1.0896   1.5859   2.9555
     2.9585   3.0157   3.0215   3.3314   3.3324   3.4423   3.4442   3.7598
     3.7696

     the Fermi energy is     2.0642 ev

!    total energy              =   -2954.01277644 Ry
     estimated scf accuracy    <       0.00000006 Ry
     smearing contrib. (-TS)   =      -0.00173311 Ry
     internal energy E=F+TS    =   -2954.01104334 Ry

     The total energy is F=E-TS. E is the sum of the following terms:
     one-electron contribution =  -24213.94372365 Ry
     hartree contribution      =   12197.06598943 Ry
     xc contribution           =    -488.74129513 Ry
     ewald contribution        =    9551.60789778 Ry
     electric field correction =       0.00008824 Ry

     convergence has been achieved in  70 iterations

     Forces acting on atoms (cartesian axes, Ry/au):

     atom    1 type  1   force =     0.00017779   -0.00052584    0.12568136
     atom    2 type  1   force =     0.00000488    0.00026658   -0.15442505
     atom    3 type  2   force =     0.00002209   -0.00022371   -0.06671724
     atom    4 type  2   force =    -0.00002007    0.00008650    0.01671798
     atom    5 type  2   force =    -0.00391359   -0.00229116   -0.01290120
     atom    6 type  2   force =     0.00530923   -0.00149507   -0.01431072
     atom    7 type  1   force =    -0.00049423   -0.00698716    0.05723930
     atom    8 type  1   force =     0.00071814    0.00723251    0.09829743
     atom    9 type  2   force =     0.00002827    0.00009479   -0.00009916
     atom   10 type  2   force =    -0.00290142    0.00059490   -0.06192299
     atom   11 type  2   force =    -0.00002773   -0.00005446   -0.00000870
     atom   12 type  2   force =    -0.00005778    0.00016204    0.00016287
     atom   13 type  1   force =     0.00010288    0.00014232   -0.00010383
     atom   14 type  1   force =     0.00001126   -0.00006935    0.00013593
     atom   15 type  2   force =    -0.00002213    0.00006153    0.00003092
     atom   16 type  2   force =     0.00005631    0.00016989   -0.00024286
     atom   17 type  2   force =     0.00008455    0.00016612    0.00017540
     atom   18 type  2   force =    -0.00010412    0.00028095   -0.00001747
     atom   19 type  1   force =    -0.00007523    0.00001359    0.00012450
     atom   20 type  1   force =     0.00025003    0.00031807    0.00002816
     atom   21 type  2   force =     0.00007168    0.00021693    0.09781302
     atom   22 type  2   force =     0.00032565   -0.00004782    0.00020720
     atom   23 type  2   force =    -0.08272856    0.00009456   -0.03303068
     atom   24 type  2   force =     0.08268581    0.00051070   -0.03308019
     atom   25 type  1   force =     0.00010419   -0.00059802    0.12553120
     atom   26 type  1   force =     0.00000127   -0.00169937   -0.15483880
     atom   27 type  2   force =     0.00008835   -0.00076904   -0.06515594
     atom   28 type  2   force =     0.00004993    0.00188488    0.01156837
     atom   29 type  2   force =    -0.00251225    0.00468025   -0.01584803
     atom   30 type  2   force =     0.00368140    0.00501680   -0.01727715
     atom   31 type  1   force =    -0.00029216    0.00180694    0.04011543
     atom   32 type  1   force =     0.00091422   -0.01042263    0.09796307
     atom   33 type  2   force =    -0.00004317   -0.00003048    0.00011115
     atom   34 type  2   force =    -0.00230083    0.00077910   -0.07401917
     atom   35 type  2   force =     0.00010468    0.00002910    0.00002642
     atom   36 type  2   force =    -0.00008637   -0.00007527   -0.00002838
     atom   37 type  1   force =     0.00034882    0.00005969    0.00009203
     atom   38 type  1   force =     0.00012104   -0.00006490   -0.00027131
     atom   39 type  2   force =     0.00016966   -0.00010930   -0.00004264
     atom   40 type  2   force =     0.00001446    0.00003322   -0.00016052
     atom   41 type  2   force =     0.00006156    0.00008460    0.00006526
     atom   42 type  2   force =    -0.00007794    0.00002325    0.00012947
     atom   43 type  1   force =     0.00025927   -0.00019883   -0.00001532
     atom   44 type  1   force =     0.00029972    0.00004213    0.00011705
     atom   45 type  2   force =     0.00004658    0.00004487    0.09760251
     atom   46 type  2   force =    -0.08279012    0.00004633   -0.03304699
     atom   47 type  2   force =     0.08271606    0.00047987   -0.03306649
     atom   48 type  3   force =    -0.00018885    0.00003864    0.00007275
     atom   49 type  4   force =     0.00009407    0.00013424    0.00005870
     atom   50 type  5   force =    -0.00015897   -0.00064524    0.00022575
     atom   51 type  3   force =    -0.00009001    0.00007660    0.00021080
     atom   52 type  3   force =    -0.00017497    0.00051475    0.00004229
     atom   53 type  3   force =     0.00021564    0.00029152    0.00012151
     atom   54 type  2   force =     0.01509092   -0.00243515    0.00809858
     atom   55 type  3   force =    -0.01516992    0.00226404   -0.00813560

     Total force =     0.417930     Total SCF correction =     0.000745
  @ DRIVER MODE: Message from server: STATUS
  @ DRIVER MODE: Message from server: GETFORCE
  @ DRIVER MODE: Returning v,forces,stress,ensemble

     Writing output data file ./calc.save/
  @ DRIVER MODE: Message from server: EXIT
  @ DRIVE MODE: Exiting

     General routines

     Parallel routines

   This run was terminated on:   3:46: 9  24Sep2021

   JOB DONE.