     Program PWSCF v.6.7GPU starts on 23Aug2021 at 18:51:56

     R & G space division:  proc/nbgrp/npool/nimage =       6
     Reading input from /storage/home/hcoda1/3/ntian30/research/carbon/CH_vib/ads_slab/CHN2H_a/out_0012/pw.inp
Warning: card &CELL ignored
Warning: card   CELL_DYNAMICS='IPI', ignored
Warning: card / ignored

     Current dimensions of program PWSCF are:
     Max number of different atomic species (ntypx) = 10
     Max number of k-points (npk) =  40000
     Max angular momentum in pseudopotentials (lmaxx) =  3
     Presently no symmetry can be used with electric field

     Message from routine cell_base_init:
     DEPRECATED: use true lattice parameter, not A to a.u. conversion factor

     IMPORTANT: XC functional enforced from input :
     Exchange-correlation= BEEF-VDW
                           (   1   4  43  14   2   0   0)
     Any further DFT definition will be discarded
     Please, verify this is what you really want

  @ DRIVER MODE: Connecting to
 qe_1139763_2632792.sched-torque.pace.gatech.eduk6acp6ab_scratch
  using UNIX socket
  @ DRIVER MODE: Message from server: STATUS
  @ DRIVER MODE: Message from server: INIT
  @ DRIVER MODE: Receiving replica           0          -1
  @ DRIVER MODE: Receiving encoded integer          25
  @ DRIVER MODE:  SCF:  T  FORCE:  T  STRESS:  F  VC:  F  ENSEMBLE:  F
  @ DRIVER MODE:  SCF:  T  FORCE:  T  STRESS:  F  VC:  F  ENSEMBLE:  F

     Using Slab Decomposition

     bravais-lattice index     =            0
     lattice parameter (alat)  =       1.8897  a.u.
     unit-cell volume          =    6658.9804 (a.u.)^3
     number of atoms/cell      =           52
     number of atomic types    =            5
     number of electrons       =       394.00
     number of Kohn-Sham states=          207
     kinetic-energy cutoff     =      29.3995  Ry
     charge density cutoff     =     293.9946  Ry
     scf convergence threshold =      7.3E-08
     mixing beta               =       0.0500
     number of iterations used =            8  plain     mixing
     Exchange-correlation= BEEF-VDW
                           (   1   4  43  14   2   0   0)

     celldm(1)=   1.889726  celldm(2)=   0.000000  celldm(3)=   0.000000
     celldm(4)=   0.000000  celldm(5)=   0.000000  celldm(6)=   0.000000

     crystal axes: (cart. coord. in units of alat)
               a(1) = (   6.579727   0.000000   0.000000 )
               a(2) = (  -0.000775   5.961596   0.000000 )
               a(3) = (   0.000000   0.000000  25.155947 )

     reciprocal axes: (cart. coord. in units 2 pi/alat)
               b(1) = (  0.151982  0.000020  0.000000 )
               b(2) = (  0.000000  0.167740  0.000000 )
               b(3) = (  0.000000  0.000000  0.039752 )

     PseudoPot. # 1 for Ti read from file:
     /storage/coda1/p-amedford6/0/shared/rich_project_chbe-medford/medford-share/data/pseudos_module/espresso/nninc/pbe/van/Ti.UPF
     MD5 check sum: 8e4df49b7f0d34bbd5052bf3f5ea0213
     Pseudo is Ultrasoft, Zval = 12.0
     Generated by new atomic code, or converted to UPF format
     Using radial grid of  851 points,  6 beta functions with:
                l(1) =   0
                l(2) =   0
                l(3) =   1
                l(4) =   1
                l(5) =   2
                l(6) =   2
     Q(r) pseudized with  8 coefficients,  rinner =    1.000   1.000   1.000
                                                       1.000   1.000

     PseudoPot. # 2 for O  read from file:
     /storage/coda1/p-amedford6/0/shared/rich_project_chbe-medford/medford-share/data/pseudos_module/espresso/nninc/pbe/van/O.UPF
     MD5 check sum: 78c19812648e8988a0fe644b0f25305e
     Pseudo is Ultrasoft, Zval =  6.0
     Generated by new atomic code, or converted to UPF format
     Using radial grid of  737 points,  4 beta functions with:
                l(1) =   0
                l(2) =   0
                l(3) =   1
                l(4) =   1
     Q(r) pseudized with  8 coefficients,  rinner =    0.800   0.800   0.800

     PseudoPot. # 3 for N  read from file:
     /storage/coda1/p-amedford6/0/shared/rich_project_chbe-medford/medford-share/data/pseudos_module/espresso/nninc/pbe/van/N.UPF
     MD5 check sum: 90d10febe142ad51ac9d5be1deb811c4
     Pseudo is Ultrasoft, Zval =  5.0
     Generated by new atomic code, or converted to UPF format
     Using radial grid of  729 points,  4 beta functions with:
                l(1) =   0
                l(2) =   0
                l(3) =   1
                l(4) =   1
     Q(r) pseudized with  8 coefficients,  rinner =    0.800   0.800   0.800

     PseudoPot. # 4 for C  read from file:
     /storage/coda1/p-amedford6/0/shared/rich_project_chbe-medford/medford-share/data/pseudos_module/espresso/nninc/pbe/van/C.UPF
     MD5 check sum: 1a69bf6b8db32088f5b2163dbdb77a27
     Pseudo is Ultrasoft, Zval =  4.0
     Generated by new atomic code, or converted to UPF format
     Using radial grid of  721 points,  4 beta functions with:
                l(1) =   0
                l(2) =   0
                l(3) =   1
                l(4) =   1
     Q(r) pseudized with  8 coefficients,  rinner =    0.800   0.800   0.800

     PseudoPot. # 5 for H  read from file:
     /storage/coda1/p-amedford6/0/shared/rich_project_chbe-medford/medford-share/data/pseudos_module/espresso/nninc/pbe/van/H.UPF
     MD5 check sum: b5ee9d7bfd3a09ee7748110bda690ff7
     Pseudo is Ultrasoft, Zval =  1.0
     Generated by new atomic code, or converted to UPF format
     Using radial grid of  615 points,  1 beta functions with:
                l(1) =   0
     Q(r) pseudized with  8 coefficients,  rinner =    0.800

     atomic species   valence    mass     pseudopotential
        Ti1           12.00    47.86700     Ti( 1.00)
        O1             6.00    15.99900     O ( 1.00)
        N1             5.00    14.00700     N ( 1.00)
        C1             4.00    12.01100     C ( 1.00)
        H1             1.00     1.00800     H ( 1.00)

     No symmetry found

   Cartesian axes

     site n.     atom                  positions (alat units)
         1           Ti1 tau(   1) = (   0.0004258   2.9801865   6.0000000  )
         2           Ti1 tau(   2) = (   3.2906075   1.4906267   6.0002472  )
         3           O1  tau(   3) = (   0.0006271   0.0005054   7.9858123  )
         4           O1  tau(   4) = (   3.2906025   0.0005020   7.3038282  )
         5           O1  tau(   5) = (   4.5942328   1.4918067   9.2879030  )
         6           O1  tau(   6) = (   1.9868534   1.4903216   9.2879459  )
         7           Ti1 tau(   7) = (   3.2907910   2.8959150   9.1758416  )
         8           Ti1 tau(   8) = (   0.0015273   1.4827037   9.2680791  )
         9           O1  tau(   9) = (   3.3079035   5.9465650  11.3667630  )
        10           O1  tau(  10) = (   0.0116148   5.9584955  10.6183126  )
        11           O1  tau(  11) = (   1.3159687   1.4802111  12.6598234  )
        12           O1  tau(  12) = (   5.3141237   1.4785834  12.6569702  )
        13           Ti1 tau(  13) = (   0.0356438   2.9569522  12.5500042  )
        14           Ti1 tau(  14) = (   3.3321116   1.4682926  12.5176941  )
        15           O1  tau(  15) = (   0.0287262   5.9365737  14.6848071  )
        16           O1  tau(  16) = (   3.3260766   5.9477468  13.9918032  )
        17           O1  tau(  17) = (   4.5788076   1.5006004  16.1778977  )
        18           O1  tau(  18) = (   2.0653823   1.4932191  16.1519216  )
        19           Ti1 tau(  19) = (   3.3252840   2.9629899  15.7366588  )
        20           Ti1 tau(  20) = (   0.0567170   1.3280226  15.9864722  )
        21           O1  tau(  21) = (   3.2904802   0.0005063   4.7018136  )
        22           O1  tau(  22) = (   0.0395201   5.9563027  17.2132275  )
        23           O1  tau(  23) = (   1.3043587   1.4918075   6.0039043  )
        24           O1  tau(  24) = (   5.2767064   1.4903225   6.0039473  )
        25           Ti1 tau(  25) = (   0.0000382   5.9609847   6.0000000  )
        26           Ti1 tau(  26) = (   3.2902200   4.4714249   6.0002472  )
        27           O1  tau(  27) = (   0.0002396   2.9813036   7.9858123  )
        28           O1  tau(  28) = (   3.2902150   2.9813002   7.3038282  )
        29           O1  tau(  29) = (   4.5938453   4.4726049   9.2879030  )
        30           O1  tau(  30) = (   1.9864658   4.4711199   9.2879459  )
        31           Ti1 tau(  31) = (   3.2891106   5.8743827   9.1763621  )
        32           Ti1 tau(  32) = (   0.0006254   4.4649316   9.2693709  )
        33           O1  tau(  33) = (   3.3109971   2.9638951  11.3609806  )
        34           O1  tau(  34) = (   0.0092240   2.9805883  10.6323155  )
        35           O1  tau(  35) = (   1.3172493   4.4579999  12.6547637  )
        36           O1  tau(  36) = (   5.3123203   4.4599931  12.6537913  )
        37           Ti1 tau(  37) = (   0.0349292   5.9384232  12.5038109  )
        38           Ti1 tau(  38) = (   3.3308216   4.4462378  12.5132791  )
        39           O1  tau(  39) = (   0.0262156   2.9786664  14.8481040  )
        40           O1  tau(  40) = (   3.3240488   2.9673873  13.9486158  )
        41           O1  tau(  41) = (   4.5778164   4.4375445  16.1741249  )
        42           O1  tau(  42) = (   2.0647505   4.4412733  16.1578575  )
        43           Ti1 tau(  43) = (   3.3314326   5.9455663  15.7867969  )
        44           Ti1 tau(  44) = (   0.0345939   4.5236910  15.9072353  )
        45           O1  tau(  45) = (   3.2900926   2.9813045   4.7018136  )
        46           O1  tau(  46) = (   1.3039711   4.4726057   6.0039043  )
        47           O1  tau(  47) = (   5.2763189   4.4711207   6.0039473  )
        48           N1  tau(  48) = (   0.8843530   3.1395628  18.6524426  )
        49           C1  tau(  49) = (   1.8908588   3.1194352  19.2934450  )
        50           H1  tau(  50) = (   2.4245030   3.8971110  19.8100181  )
        51           N1  tau(  51) = (   6.5588057   2.9807634  17.7841789  )
        52           H1  tau(  52) = (   5.6432114   2.8891999  18.2270943  )

     number of k points=    10  Fermi-Dirac smearing, width (Ry)=  0.0073
                       cart. coord. in units 2pi/alat
        k(    1) = (   0.0000000   0.0000000   0.0000000), wk =   0.1250000
        k(    2) = (   0.0000000   0.0419351   0.0000000), wk =   0.2500000
        k(    3) = (   0.0000000  -0.0838702   0.0000000), wk =   0.1250000
        k(    4) = (   0.0379955   0.0000049   0.0000000), wk =   0.2500000
        k(    5) = (   0.0379955   0.0419400   0.0000000), wk =   0.2500000
        k(    6) = (   0.0379955  -0.0838652   0.0000000), wk =   0.2500000
        k(    7) = (   0.0379955  -0.0419301   0.0000000), wk =   0.2500000
        k(    8) = (  -0.0759910  -0.0000099   0.0000000), wk =   0.1250000
        k(    9) = (  -0.0759910   0.0419252   0.0000000), wk =   0.2500000
        k(   10) = (  -0.0759910  -0.0838800   0.0000000), wk =   0.1250000

     Initial potential from superposition of free atoms

     starting charge  377.99917, renormalised to  394.00000

     negative rho (up, down):  1.651E-02 0.000E+00

     %%%%%%%%%%%%%%%%%%%%%%%%%%%%%%%%%%%%%%%%%%%%%%%%%%%%%%%%%%%%%%%%%%%%%%%%
     %                                                                      %
     % You are using vdW-DF, which was implemented by the Thonhauser group. %
     % Please cite the following two papers that made this development      %
     % possible and the two reviews that describe the various versions:     %
     %                                                                      %
     %   T. Thonhauser et al., PRL 115, 136402 (2015).                      %
     %   T. Thonhauser et al., PRB 76, 125112 (2007).                       %
     %   K. Berland et al., Rep. Prog. Phys. 78, 066501 (2015).             %
     %   D.C. Langreth et al., J. Phys.: Condens. Matter 21, 084203 (2009). %
     %                                                                      %
     %                                                                      %
     % If you are calculating the stress with vdW-DF, please also cite:     %
     %                                                                      %
     %   R. Sabatini et al., J. Phys.: Condens. Matter 24, 424209 (2012).   %
     %                                                                      %
     %%%%%%%%%%%%%%%%%%%%%%%%%%%%%%%%%%%%%%%%%%%%%%%%%%%%%%%%%%%%%%%%%%%%%%%%

     Adding external electric field

     Computed dipole along edir(3) :
        Dipole               -8.5027 Ry au,        -21.6117 Debye
        Dipole field         -0.0160 Ry au,

        Potential amp.        1.4874 Ry
        Total length         46.3494 bohr

     Starting wfcs are  298 atomic wfcs
  @ DRIVER MODE: Message from server: STATUS
  @ DRIVER MODE: Message from server: POSDATA
  @ DRIVER MODE: Reading and sharing cell
  @ DRIVER MODE: Reading and sharing positions
  @ DRIVER MODE: Received positions

     Self-consistent Calculation

     iteration #  1     ecut=    29.40 Ry     beta= 0.05
     Davidson diagonalization with overlap
     c_bands:  1 eigenvalues not converged
     c_bands:  1 eigenvalues not converged
     c_bands:  2 eigenvalues not converged
     c_bands:  2 eigenvalues not converged
     c_bands:  2 eigenvalues not converged
     c_bands:  1 eigenvalues not converged
     ethr =  1.00E-05,  avg # of iterations = 19.0

[...]

     total energy              =   -2624.26856432 Ry
     estimated scf accuracy    <    3488.57723640 Ry

[...]

     iteration #  3     ecut=    29.40 Ry     beta= 0.05
     Davidson diagonalization with overlap
     ethr =  1.00E-02,  avg # of iterations = 15.5

[...]

     iteration # 57     ecut=    29.40 Ry     beta= 0.05
     Davidson diagonalization with overlap
     c_bands:  1 eigenvalues not converged
     ethr =  8.16E-11,  avg # of iterations =  9.6

[...]

     total energy              =   -2937.80841349 Ry
     estimated scf accuracy    <       0.00000009 Ry

     iteration # 60     ecut=    29.40 Ry     beta= 0.05
     Davidson diagonalization with overlap
     ethr =  1.98E-11,  avg # of iterations =  7.0

     negative rho (up, down):  1.628E-02 0.000E+00

     Adding external electric field

     Computed dipole along edir(3) :
        Dipole                1.2875 Ry au,          3.2725 Debye
        Dipole field          0.0024 Ry au,

        Potential amp.       -0.2252 Ry
        Total length         46.3494 bohr

     End of self-consistent calculation

          k = 0.0000 0.0000 0.0000 ( 18029 PWs)   bands (ev):

   -55.4384 -55.4024 -55.4021 -55.3680 -55.3318 -55.3159 -55.2728 -55.2511
   -55.2463 -55.2361 -55.2286 -55.2166 -55.1952 -55.1687 -54.4201 -54.3861
   -32.0074 -31.8927 -31.8320 -31.8016 -31.7577 -31.7499 -31.7403 -31.7315
   -31.6918 -31.6850 -31.6475 -31.6467 -31.6393 -31.6121 -31.5928 -31.5745
   -31.5701 -31.5638 -31.5555 -31.5498 -31.5147 -31.5141 -31.5046 -31.4961
   -31.4815 -31.4592 -31.4534 -31.4519 -31.4462 -31.4426 -31.4396 -31.4252
   -31.4173 -31.4108 -31.4053 -31.4003 -31.3792 -31.3657 -31.3639 -31.3579
   -31.3373 -31.2754 -30.8290 -30.7361 -30.7140 -30.6455 -30.5587 -30.4478
   -20.2197 -16.2530 -15.9805 -15.8363 -15.7134 -15.6287 -15.5021 -15.4619
   -15.3445 -15.3098 -15.2303 -15.1551 -15.0877 -15.0854 -15.0688 -15.0411
   -14.9901 -14.9736 -14.9710 -14.9287 -14.9266 -14.8846 -14.8651 -14.8311
   -14.8132 -14.7943 -14.7766 -14.6545 -14.5849 -14.5262 -14.1650 -12.9230
   -12.8057  -8.8335  -7.1756  -5.4189  -4.7081  -3.5980  -3.4381  -3.3510
    -3.3347  -3.3319  -3.1662  -3.0385  -2.8109  -2.7726  -2.6995  -2.6451
    -2.6272  -2.6053  -2.4275  -2.4031  -2.3435  -2.3162  -2.2788  -2.2486
    -2.2237  -2.2029  -2.1961  -2.1778  -2.1642  -2.0031  -1.9046  -1.8736
    -1.8381  -1.8241  -1.7645  -1.7314  -1.7257  -1.7236  -1.7146  -1.6714
    -1.6521  -1.6039  -1.5021  -1.4687  -1.4413  -1.3193  -1.3037  -1.1562
    -1.0710  -0.9864  -0.9790  -0.9122  -0.9064  -0.8735  -0.8221  -0.7977
    -0.7738  -0.6402  -0.5699  -0.5116  -0.4972  -0.4528  -0.4075  -0.3715
    -0.2781  -0.2140  -0.2062  -0.1942  -0.0294  -0.0152   0.0317   0.0813
     0.1056   0.1544   0.1793   0.2490   0.2832   0.3286   0.3589   0.4555
     0.4946   0.5155   0.5290   0.5488   0.5611   0.6217   0.6884   0.7069
     0.7551   0.8108   0.9232   1.1207   1.1827   1.1958   1.5120   1.5460
     1.6023   1.7875   2.1773   2.2250   3.6618   3.7332   3.7970   3.8121
     3.8210   3.8974   4.0713   4.1449   4.1607   4.1672   4.1785

[...]

          k = 0.0380-0.0419 0.0000 ( 17876 PWs)   bands (ev):

[...]

          k =-0.0760-0.0000 0.0000 ( 17886 PWs)   bands (ev):

[...]

          k =-0.0760-0.0839 0.0000 ( 17948 PWs)   bands (ev):

   -55.4215 -55.4190 -55.3851 -55.3849 -55.3285 -55.3074 -55.2812 -55.2418
   -55.2394 -55.2346 -55.2324 -55.2125 -55.2117 -55.1729 -54.4031 -54.4030
   -31.8124 -31.8094 -31.7505 -31.7309 -31.7078 -31.7077 -31.6959 -31.6772
   -31.6770 -31.6489 -31.6396 -31.6340 -31.6310 -31.5905 -31.5686 -31.5655
   -31.5654 -31.5575 -31.5569 -31.5464 -31.5336 -31.5244 -31.5140 -31.5101
   -31.5060 -31.5046 -31.5043 -31.4991 -31.4756 -31.4678 -31.4673 -31.4652
   -31.4483 -31.4456 -31.4451 -31.4363 -31.4353 -31.4302 -31.3926 -31.3917
   -31.3870 -31.3668 -30.7267 -30.7266 -30.6416 -30.6415 -30.6021 -30.6021
   -20.2184 -15.7087 -15.6883 -15.6294 -15.4231 -15.4193 -15.4084 -15.3944
   -15.3441 -15.2357 -15.2135 -15.2005 -15.1829 -15.1407 -15.1371 -15.1209
   -15.1113 -15.0119 -15.0097 -15.0076 -15.0062 -14.9437 -14.9358 -14.9220
   -14.8875 -14.8844 -14.8553 -14.7854 -14.7825 -14.6503 -14.4854 -12.9073
   -12.9072  -8.8187  -7.1952  -5.4173  -4.6910  -2.9636  -2.8933  -2.8502
    -2.6406  -2.6178  -2.6032  -2.5199  -2.4710  -2.4089  -2.4014  -2.3952
    -2.3358  -2.3005  -2.2870  -2.2687  -2.2607  -2.2435  -2.2218  -2.2108
    -2.1648  -2.1534  -2.1438  -2.1091  -2.0955  -2.0772  -2.0520  -2.0330
    -2.0187  -2.0131  -1.9930  -1.8332  -1.7814  -1.7348  -1.6807  -1.6738
    -1.6302  -1.6227  -1.5286  -1.4939  -1.4651  -1.4376  -1.4290  -1.2371
    -1.2223  -1.1698  -1.1652  -1.1415  -0.9856  -0.9656  -0.9496  -0.9326
    -0.8871  -0.8045  -0.7980  -0.7609  -0.6535  -0.6235  -0.6158  -0.5663
    -0.4460  -0.4230  -0.4008  -0.3950  -0.3892  -0.2962  -0.2791  -0.2700
    -0.2380  -0.2046  -0.1538  -0.1474  -0.0947   0.0877   0.1323   0.1978
     0.2770   0.4449   0.4850   0.5121   0.5533   0.6146   0.6875   0.7032
     0.7683   0.8623   0.8770   0.9070   0.9792   1.0322   1.0400   1.0643
     1.9603   1.9611   2.0449   2.0450   3.8335   3.8433   3.9063   3.9434
     3.9916   4.0779   4.1807   4.1956   4.2404   4.2415   4.3237

     the Fermi energy is     3.7156 ev

!    total energy              =   -2937.80845453 Ry
     estimated scf accuracy    <       0.00000005 Ry
     smearing contrib. (-TS)   =      -0.03815230 Ry
     internal energy E=F+TS    =   -2937.77030223 Ry

     The total energy is F=E-TS. E is the sum of the following terms:
     one-electron contribution =  -24090.37934361 Ry
     hartree contribution      =   12135.22786319 Ry
     xc contribution           =    -484.37953597 Ry
     ewald contribution        =    9501.75758585 Ry
     electric field correction =       0.00312831 Ry

     convergence has been achieved in  60 iterations

     Forces acting on atoms (cartesian axes, Ry/au):

     atom    1 type  1   force =     0.00005887   -0.00012042    0.09406884
     atom    2 type  1   force =    -0.00015836   -0.00023115   -0.17762194
     atom    3 type  2   force =     0.00011090   -0.00019363   -0.02136301
     atom    4 type  2   force =     0.00002589   -0.00183814    0.05753413
     atom    5 type  2   force =    -0.01068057   -0.00139231    0.00632877
     atom    6 type  2   force =     0.01275014   -0.00074609    0.00661120
     atom    7 type  1   force =     0.00011276    0.00198363   -0.01406819
     atom    8 type  1   force =    -0.00046328    0.00582430    0.00395004
     atom    9 type  2   force =     0.00036216    0.00023068   -0.00007888
     atom   10 type  2   force =    -0.00023992    0.00022909   -0.00512474
     atom   11 type  2   force =     0.00003901   -0.00015926   -0.00045182
     atom   12 type  2   force =    -0.00028289    0.00000355    0.00008187
     atom   13 type  1   force =    -0.00025736    0.00002011   -0.00031415
     atom   14 type  1   force =    -0.00008351    0.00014666   -0.00017390
     atom   15 type  2   force =    -0.00049850   -0.00038832   -0.00012413
     atom   16 type  2   force =    -0.00017924    0.00019201    0.00003933
     atom   17 type  2   force =     0.00001134   -0.00015957   -0.00009006
     atom   18 type  2   force =    -0.00040001   -0.00012547   -0.00048469
     atom   19 type  1   force =    -0.00027267    0.00015834   -0.00020843
     atom   20 type  1   force =    -0.00034595   -0.00024446    0.00046374
     atom   21 type  2   force =     0.00001987    0.00002066    0.10380537
     atom   22 type  2   force =    -0.00000743    0.00009333   -0.00008458
     atom   23 type  2   force =    -0.07064472   -0.00008128   -0.02704970
     atom   24 type  2   force =     0.07053973    0.00036337   -0.02710034
     atom   25 type  1   force =     0.00001758   -0.00009007    0.09369809
     atom   26 type  1   force =    -0.00013464   -0.00016142   -0.17768302
     atom   27 type  2   force =     0.00013634   -0.00025288   -0.02035949
     atom   28 type  2   force =     0.00006837   -0.00155565    0.05700676
     atom   29 type  2   force =    -0.01103457   -0.00053492    0.00635274
     atom   30 type  2   force =     0.01295724   -0.00027256    0.00664448
     atom   31 type  1   force =     0.00029703    0.00520812   -0.01483901
     atom   32 type  1   force =    -0.00039313   -0.00657862    0.00413289
     atom   33 type  2   force =     0.00015658    0.00008288   -0.00031187
     atom   34 type  2   force =     0.00035712   -0.00103917   -0.00202997
     atom   35 type  2   force =    -0.00032093    0.00015554   -0.00021626
     atom   36 type  2   force =    -0.00002920    0.00000682    0.00011630
     atom   37 type  1   force =    -0.00007854    0.00024684   -0.00016378
     atom   38 type  1   force =     0.00005965    0.00025733    0.00019862
     atom   39 type  2   force =    -0.00007638    0.00019611    0.00014965
     atom   40 type  2   force =    -0.00029843    0.00009417   -0.00020425
     atom   41 type  2   force =    -0.00017870   -0.00011370    0.00014375
     atom   42 type  2   force =    -0.00019925    0.00015280   -0.00021824
     atom   43 type  1   force =    -0.00019968    0.00011268   -0.00008226
     atom   44 type  1   force =     0.00004949   -0.00018816   -0.00033874
     atom   45 type  2   force =     0.00001148   -0.00000621    0.10381620
     atom   46 type  2   force =    -0.07065959   -0.00004059   -0.02706367
     atom   47 type  2   force =     0.07053731    0.00039842   -0.02709973
     atom   48 type  3   force =     0.01553189    0.00085771    0.01131778
     atom   49 type  4   force =    -0.02007381   -0.00538185   -0.01481421
     atom   50 type  5   force =     0.00265741    0.00508646    0.00295315
     atom   51 type  3   force =     0.00171684   -0.00074094    0.00011535
     atom   52 type  5   force =    -0.00039375    0.00051525    0.00023398

     Total force =     0.367432     Total SCF correction =     0.000968
  @ DRIVER MODE: Message from server: STATUS
  @ DRIVER MODE: Message from server: GETFORCE
  @ DRIVER MODE: Returning v,forces,stress,ensemble

     Writing output data file ./calc.save/
  @ DRIVER MODE: Message from server: EXIT
  @ DRIVE MODE: Exiting

     General routines

     Parallel routines

   This run was terminated on:  19:19:55  23Aug2021

   JOB DONE.