     Program PWSCF v.6.7GPU starts on  9Sep2021 at  1:59:16

     R & G space division:  proc/nbgrp/npool/nimage =      10
     Reading input from /storage/home/hcoda1/3/ntian30/research/carbon/CxH_vib/CH3_calc/ads_slab/CH3OH_e/out_0013/pw.inp
Warning: card &CELL ignored
Warning: card   CELL_DYNAMICS='IPI', ignored
Warning: card / ignored

     Current dimensions of program PWSCF are:
     Max number of different atomic species (ntypx) = 10
     Max number of k-points (npk) =  40000
     Max angular momentum in pseudopotentials (lmaxx) =  3
     Presently no symmetry can be used with electric field

     Message from routine cell_base_init:
     DEPRECATED: use true lattice parameter, not A to a.u. conversion factor

     IMPORTANT: XC functional enforced from input :
     Exchange-correlation= BEEF-VDW
                           (   1   4  43  14   2   0   0)
     Any further DFT definition will be discarded
     Please, verify this is what you really want

  @ DRIVER MODE: Connecting to
 qe_1139763_2767404.sched-torque.pace.gatech.edu7r4alrx7_scratch
  using UNIX socket
  @ DRIVER MODE: Message from server: STATUS
  @ DRIVER MODE: Message from server: INIT
  @ DRIVER MODE: Receiving replica           0          -1
  @ DRIVER MODE: Receiving encoded integer          25
  @ DRIVER MODE:  SCF:  T  FORCE:  T  STRESS:  F  VC:  F  ENSEMBLE:  F
  @ DRIVER MODE:  SCF:  T  FORCE:  T  STRESS:  F  VC:  F  ENSEMBLE:  F

     Using Slab Decomposition

     bravais-lattice index     =            0
     lattice parameter (alat)  =       1.8897  a.u.
     unit-cell volume          =    6658.9804 (a.u.)^3
     number of atoms/cell      =           53
     number of atomic types    =            4
     number of electrons       =       392.00
     number of Kohn-Sham states=          206
     kinetic-energy cutoff     =      29.3995  Ry
     charge density cutoff     =     293.9946  Ry
     scf convergence threshold =      7.3E-08
     mixing beta               =       0.0500
     number of iterations used =            8  plain     mixing
     Exchange-correlation= BEEF-VDW
                           (   1   4  43  14   2   0   0)

     celldm(1)=   1.889726  celldm(2)=   0.000000  celldm(3)=   0.000000
     celldm(4)=   0.000000  celldm(5)=   0.000000  celldm(6)=   0.000000

     crystal axes: (cart. coord. in units of alat)
               a(1) = (   6.579727   0.000000   0.000000 )
               a(2) = (  -0.000775   5.961596   0.000000 )
               a(3) = (   0.000000   0.000000  25.155947 )

     reciprocal axes: (cart. coord. in units 2 pi/alat)
               b(1) = (  0.151982  0.000020  0.000000 )
               b(2) = (  0.000000  0.167740  0.000000 )
               b(3) = (  0.000000  0.000000  0.039752 )

     PseudoPot. # 1 for Ti read from file:
     /storage/coda1/p-amedford6/0/shared/rich_project_chbe-medford/medford-share/data/pseudos_module/espresso/nninc/pbe/van/Ti.UPF
     MD5 check sum: 8e4df49b7f0d34bbd5052bf3f5ea0213
     Pseudo is Ultrasoft, Zval = 12.0
     Generated by new atomic code, or converted to UPF format
     Using radial grid of  851 points,  6 beta functions with:
                l(1) =   0
                l(2) =   0
                l(3) =   1
                l(4) =   1
                l(5) =   2
                l(6) =   2
     Q(r) pseudized with  8 coefficients,  rinner =    1.000   1.000   1.000
                                                       1.000   1.000

     PseudoPot. # 2 for O  read from file:
     /storage/coda1/p-amedford6/0/shared/rich_project_chbe-medford/medford-share/data/pseudos_module/espresso/nninc/pbe/van/O.UPF
     MD5 check sum: 78c19812648e8988a0fe644b0f25305e
     Pseudo is Ultrasoft, Zval =  6.0
     Generated by new atomic code, or converted to UPF format
     Using radial grid of  737 points,  4 beta functions with:
                l(1) =   0
                l(2) =   0
                l(3) =   1
                l(4) =   1
     Q(r) pseudized with  8 coefficients,  rinner =    0.800   0.800   0.800

     PseudoPot. # 3 for C  read from file:
     /storage/coda1/p-amedford6/0/shared/rich_project_chbe-medford/medford-share/data/pseudos_module/espresso/nninc/pbe/van/C.UPF
     MD5 check sum: 1a69bf6b8db32088f5b2163dbdb77a27
     Pseudo is Ultrasoft, Zval =  4.0
     Generated by new atomic code, or converted to UPF format
     Using radial grid of  721 points,  4 beta functions with:
                l(1) =   0
                l(2) =   0
                l(3) =   1
                l(4) =   1
     Q(r) pseudized with  8 coefficients,  rinner =    0.800   0.800   0.800

     PseudoPot. # 4 for H  read from file:
     /storage/coda1/p-amedford6/0/shared/rich_project_chbe-medford/medford-share/data/pseudos_module/espresso/nninc/pbe/van/H.UPF
     MD5 check sum: b5ee9d7bfd3a09ee7748110bda690ff7
     Pseudo is Ultrasoft, Zval =  1.0
     Generated by new atomic code, or converted to UPF format
     Using radial grid of  615 points,  1 beta functions with:
                l(1) =   0
     Q(r) pseudized with  8 coefficients,  rinner =    0.800

     atomic species   valence    mass     pseudopotential
        Ti1           12.00    47.86700     Ti( 1.00)
        O1             6.00    15.99900     O ( 1.00)
        C1             4.00    12.01100     C ( 1.00)
        H1             1.00     1.00800     H ( 1.00)

     No symmetry found

   Cartesian axes

     site n.     atom                  positions (alat units)
         1           Ti1 tau(   1) = (   0.0004258   2.9801865   6.0000000  )
         2           Ti1 tau(   2) = (   3.2906075   1.4906267   6.0002472  )
         3           O1  tau(   3) = (   0.0006271   0.0005054   7.9858123  )
         4           O1  tau(   4) = (   3.2906025   0.0005020   7.3038282  )
         5           O1  tau(   5) = (   4.5942328   1.4918067   9.2879030  )
         6           O1  tau(   6) = (   1.9868534   1.4903216   9.2879459  )
         7           Ti1 tau(   7) = (   3.3184627   3.0104606   9.1553648  )
         8           Ti1 tau(   8) = (   0.0346466   1.5145919   9.2725854  )
         9           O1  tau(   9) = (   3.3323670   0.0074739  11.3628161  )
        10           O1  tau(  10) = (   0.0072146   0.0022432  10.6032180  )
        11           O1  tau(  11) = (   1.3334854   1.5010653  12.6312402  )
        12           O1  tau(  12) = (   5.3322653   1.4967215  12.6661074  )
        13           Ti1 tau(  13) = (   0.0399007   3.0049294  12.5399032  )
        14           Ti1 tau(  14) = (   3.3257882   1.5006484  12.5017209  )
        15           O1  tau(  15) = (   0.0958175   0.0109015  14.6781201  )
        16           O1  tau(  16) = (   3.3209445   0.0065530  13.9947117  )
        17           O1  tau(  17) = (   4.6470289   1.5235192  16.1521327  )
        18           O1  tau(  18) = (   2.1274687   1.5288575  16.1863263  )
        19           Ti1 tau(  19) = (   3.3866828   2.9872137  15.7186651  )
        20           Ti1 tau(  20) = (   0.0851359   1.3433488  15.9962781  )
        21           O1  tau(  21) = (   3.2904802   0.0005063   4.7018136  )
        22           O1  tau(  22) = (   0.0861787   0.0156205  17.2101336  )
        23           O1  tau(  23) = (   1.3043587   1.4918075   6.0039043  )
        24           O1  tau(  24) = (   5.2767064   1.4903225   6.0039473  )
        25           Ti1 tau(  25) = (   0.0000382   5.9609847   6.0000000  )
        26           Ti1 tau(  26) = (   3.2902200   4.4714249   6.0002472  )
        27           O1  tau(  27) = (   0.0002396   2.9813036   7.9858123  )
        28           O1  tau(  28) = (   3.2902150   2.9813002   7.3038282  )
        29           O1  tau(  29) = (   4.5938453   4.4726049   9.2879030  )
        30           O1  tau(  30) = (   1.9864658   4.4711199   9.2879459  )
        31           Ti1 tau(  31) = (   3.3160408   0.0312979   9.1533790  )
        32           Ti1 tau(  32) = (   0.0342031   4.4824714   9.2635914  )
        33           O1  tau(  33) = (   3.3296961   2.9874083  11.3532073  )
        34           O1  tau(  34) = (   0.0071558   2.9827229  10.6249429  )
        35           O1  tau(  35) = (   1.3339759   4.4780823  12.6303471  )
        36           O1  tau(  36) = (   5.3316377   4.4803543  12.6653953  )
        37           Ti1 tau(  37) = (   0.0318003   0.0267859  12.4824326  )
        38           Ti1 tau(  38) = (   3.3243002   4.4792164  12.4996646  )
        39           O1  tau(  39) = (   0.1017966   3.0039049  14.8467192  )
        40           O1  tau(  40) = (   3.3365867   2.9884115  13.9371009  )
        41           O1  tau(  41) = (   4.6519449   4.4651455  16.1366910  )
        42           O1  tau(  42) = (   2.1329502   4.4467914  16.2189938  )
        43           Ti1 tau(  43) = (   3.3530478   0.0116223  15.7847896  )
        44           Ti1 tau(  44) = (   0.0420906   4.5503417  15.8661587  )
        45           O1  tau(  45) = (   3.2900926   2.9813045   4.7018136  )
        46           O1  tau(  46) = (   1.3039711   4.4726057   6.0039043  )
        47           O1  tau(  47) = (   5.2763189   4.4711207   6.0039473  )
        48           C1  tau(  48) = (   6.0571888   3.1179766  18.9039971  )
        49           O1  tau(  49) = (   0.2335693   3.0433622  17.6694830  )
        50           H1  tau(  50) = (   5.0184728   2.8969007  18.6408099  )
        51           H1  tau(  51) = (   1.1757692   3.2348548  17.8288520  )
        52           H1  tau(  52) = (   6.4315421   2.3664480  19.5988381  )
        53           H1  tau(  53) = (   6.1352977   4.1238860  19.3131673  )

     number of k points=    10  Fermi-Dirac smearing, width (Ry)=  0.0073
                       cart. coord. in units 2pi/alat
        k(    1) = (   0.0000000   0.0000000   0.0000000), wk =   0.1250000
        k(    2) = (   0.0000000   0.0419351   0.0000000), wk =   0.2500000
        k(    3) = (   0.0000000  -0.0838702   0.0000000), wk =   0.1250000
        k(    4) = (   0.0379955   0.0000049   0.0000000), wk =   0.2500000
        k(    5) = (   0.0379955   0.0419400   0.0000000), wk =   0.2500000
        k(    6) = (   0.0379955  -0.0838652   0.0000000), wk =   0.2500000
        k(    7) = (   0.0379955  -0.0419301   0.0000000), wk =   0.2500000
        k(    8) = (  -0.0759910  -0.0000099   0.0000000), wk =   0.1250000
        k(    9) = (  -0.0759910   0.0419252   0.0000000), wk =   0.2500000
        k(   10) = (  -0.0759910  -0.0838800   0.0000000), wk =   0.1250000

     Initial potential from superposition of free atoms

     starting charge  375.99917, renormalised to  392.00000

     negative rho (up, down):  1.694E-02 0.000E+00

     %%%%%%%%%%%%%%%%%%%%%%%%%%%%%%%%%%%%%%%%%%%%%%%%%%%%%%%%%%%%%%%%%%%%%%%%
     %                                                                      %
     % You are using vdW-DF, which was implemented by the Thonhauser group. %
     % Please cite the following two papers that made this development      %
     % possible and the two reviews that describe the various versions:     %
     %                                                                      %
     %   T. Thonhauser et al., PRL 115, 136402 (2015).                      %
     %   T. Thonhauser et al., PRB 76, 125112 (2007).                       %
     %   K. Berland et al., Rep. Prog. Phys. 78, 066501 (2015).             %
     %   D.C. Langreth et al., J. Phys.: Condens. Matter 21, 084203 (2009). %
     %                                                                      %
     %                                                                      %
     % If you are calculating the stress with vdW-DF, please also cite:     %
     %                                                                      %
     %   R. Sabatini et al., J. Phys.: Condens. Matter 24, 424209 (2012).   %
     %                                                                      %
     %%%%%%%%%%%%%%%%%%%%%%%%%%%%%%%%%%%%%%%%%%%%%%%%%%%%%%%%%%%%%%%%%%%%%%%%

     Adding external electric field

     Computed dipole along edir(3) :
        Dipole               -7.1856 Ry au,        -18.2640 Debye
        Dipole field         -0.0136 Ry au,

        Potential amp.        1.2570 Ry
        Total length         46.3494 bohr

     Starting wfcs are  296 atomic wfcs
  @ DRIVER MODE: Message from server: STATUS
  @ DRIVER MODE: Message from server: POSDATA
  @ DRIVER MODE: Reading and sharing cell
  @ DRIVER MODE: Reading and sharing positions
  @ DRIVER MODE: Received positions

     Self-consistent Calculation

     iteration #  1     ecut=    29.40 Ry     beta= 0.05
     Davidson diagonalization with overlap
     c_bands:  1 eigenvalues not converged
     c_bands:  1 eigenvalues not converged
     c_bands:  2 eigenvalues not converged
     c_bands:  1 eigenvalues not converged
     c_bands:  1 eigenvalues not converged
     c_bands:  1 eigenvalues not converged
     ethr =  1.00E-05,  avg # of iterations = 19.1

[...]

     total energy              =   -2696.73516751 Ry
     estimated scf accuracy    <    2609.12091417 Ry

[...]

     iteration #  3     ecut=    29.40 Ry     beta= 0.05
     Davidson diagonalization with overlap
     ethr =  1.00E-02,  avg # of iterations = 15.4

[...]

     iteration # 56     ecut=    29.40 Ry     beta= 0.05
     Davidson diagonalization with overlap
     c_bands:  1 eigenvalues not converged
     c_bands:  1 eigenvalues not converged
     ethr =  1.44E-10,  avg # of iterations = 11.5

[...]

     total energy              =   -2932.64520935 Ry
     estimated scf accuracy    <       0.00000010 Ry

     iteration # 60     ecut=    29.40 Ry     beta= 0.05
     Davidson diagonalization with overlap
     ethr =  2.67E-11,  avg # of iterations = 10.7

     negative rho (up, down):  1.737E-02 0.000E+00

     Adding external electric field

     Computed dipole along edir(3) :
        Dipole                1.3730 Ry au,          3.4898 Debye
        Dipole field          0.0026 Ry au,

        Potential amp.       -0.2402 Ry
        Total length         46.3494 bohr

     End of self-consistent calculation

          k = 0.0000 0.0000 0.0000 ( 18029 PWs)   bands (ev):

   -55.4005 -55.3682 -55.3643 -55.3339 -55.2951 -55.2888 -55.2871 -55.2430
   -55.2271 -55.2265 -55.1926 -55.1848 -55.1810 -55.1507 -54.4588 -54.4247
   -31.9761 -31.9077 -31.8633 -31.7737 -31.7280 -31.7044 -31.6971 -31.6959
   -31.6572 -31.6565 -31.6119 -31.6110 -31.6076 -31.6008 -31.5785 -31.5569
   -31.5525 -31.5350 -31.5301 -31.5223 -31.5202 -31.5090 -31.4852 -31.4845
   -31.4841 -31.4646 -31.4592 -31.4559 -31.4256 -31.4192 -31.4105 -31.3908
   -31.3889 -31.3886 -31.3688 -31.3632 -31.3543 -31.3436 -31.3288 -31.3214
   -31.3107 -31.2965 -30.8708 -30.7684 -30.7468 -30.6873 -30.6010 -30.4898
   -20.2590 -16.2478 -15.9810 -15.8461 -15.7417 -15.6196 -15.4914 -15.4794
   -15.3471 -15.2201 -15.1536 -15.1319 -15.0953 -15.0792 -15.0465 -15.0415
   -15.0263 -14.9551 -14.9289 -14.9098 -14.8839 -14.8801 -14.8424 -14.8314
   -14.7908 -14.7840 -14.6380 -14.5588 -14.4977 -14.2592 -12.9593 -12.8398
   -11.2237  -7.0014  -5.2016  -5.0644  -3.5823  -3.4110  -3.3563  -3.3316
    -3.3261  -3.1923  -3.0819  -3.0352  -2.8287  -2.7011  -2.6667  -2.6578
    -2.6236  -2.5842  -2.4704  -2.3807  -2.3544  -2.3414  -2.2948  -2.2882
    -2.2714  -2.2179  -2.1962  -2.1764  -2.1705  -2.0108  -1.9463  -1.8978
    -1.8851  -1.8385  -1.8003  -1.7406  -1.7373  -1.7220  -1.6845  -1.6803
    -1.6597  -1.6271  -1.6124  -1.4400  -1.3929  -1.3634  -1.2696  -1.1764
    -1.0890  -0.9899  -0.9736  -0.9595  -0.9146  -0.8471  -0.8386  -0.8053
    -0.7670  -0.6471  -0.5799  -0.5327  -0.4795  -0.4022  -0.4016  -0.3425
    -0.2048  -0.1904  -0.1823  -0.1666  -0.0632   0.0163   0.0290   0.0885
     0.1380   0.1607   0.2334   0.2531   0.3183   0.3415   0.4066   0.4237
     0.5110   0.5321   0.5462   0.5660   0.5837   0.6755   0.7017   0.7487
     0.7558   0.9108   1.0389   1.1621   1.1762   1.4566   1.5480   1.5674
     1.7266   2.1535   2.2083   3.6974   3.7618   3.8103   3.8189   3.8300
     3.9079   4.1866   4.1931   4.1987   4.2140   4.2231

[...]

          k = 0.0380-0.0419 0.0000 ( 17876 PWs)   bands (ev):

[...]

          k =-0.0760-0.0000 0.0000 ( 17886 PWs)   bands (ev):

[...]

          k =-0.0760-0.0839 0.0000 ( 17948 PWs)   bands (ev):

   -55.3833 -55.3813 -55.3529 -55.3490 -55.2889 -55.2853 -55.2811 -55.2507
   -55.2315 -55.2117 -55.2075 -55.1837 -55.1700 -55.1656 -54.4417 -54.4417
   -31.8258 -31.7792 -31.7776 -31.7040 -31.6800 -31.6764 -31.6639 -31.6461
   -31.6388 -31.6190 -31.6058 -31.6015 -31.5965 -31.5783 -31.5504 -31.5405
   -31.5314 -31.5281 -31.5280 -31.5251 -31.5238 -31.5204 -31.5124 -31.4854
   -31.4788 -31.4757 -31.4730 -31.4725 -31.4709 -31.4693 -31.4652 -31.4508
   -31.4420 -31.4366 -31.4230 -31.4120 -31.4104 -31.3921 -31.3875 -31.3709
   -31.3577 -31.3536 -30.7594 -30.7593 -30.6836 -30.6834 -30.6442 -30.6442
   -20.2555 -15.7759 -15.6848 -15.6101 -15.4210 -15.4099 -15.4009 -15.3943
   -15.2817 -15.2529 -15.2213 -15.1805 -15.1645 -15.1606 -15.1440 -15.1362
   -14.9991 -14.9953 -14.9902 -14.9887 -14.9180 -14.9131 -14.8986 -14.8840
   -14.8457 -14.8411 -14.8254 -14.8195 -14.7188 -14.5769 -12.9413 -12.9403
   -11.2254  -7.0018  -5.1916  -5.0540  -3.0877  -2.9626  -2.8816  -2.8710
    -2.6352  -2.6285  -2.5885  -2.5276  -2.4766  -2.4248  -2.3995  -2.3965
    -2.3187  -2.3149  -2.3081  -2.3026  -2.2702  -2.2667  -2.2234  -2.1994
    -2.1761  -2.1214  -2.1040  -2.0938  -2.0705  -2.0660  -2.0571  -2.0320
    -2.0271  -2.0086  -1.9407  -1.8613  -1.7902  -1.7729  -1.7381  -1.6248
    -1.6146  -1.5787  -1.5378  -1.4947  -1.4740  -1.4493  -1.4032  -1.3504
    -1.2483  -1.1953  -1.1876  -1.1475  -1.0800  -1.0338  -1.0006  -0.9516
    -0.9025  -0.8702  -0.8291  -0.7621  -0.7118  -0.6220  -0.6160  -0.5724
    -0.4321  -0.4266  -0.4013  -0.3907  -0.3879  -0.3021  -0.2883  -0.2428
    -0.1969  -0.1427  -0.1182  -0.1098   0.0863   0.0957   0.1806   0.2728
     0.2829   0.4381   0.4537   0.5203   0.5921   0.6356   0.6759   0.7391
     0.8385   0.8707   0.8938   0.9877   1.0294   1.0350   1.0617   1.9193
     1.9206   2.0224   2.0256   3.8390   3.9114   3.9439   4.0154   4.0761
     4.2063   4.2190   4.2493   4.2551   4.3307   4.3437

     the Fermi energy is     3.7523 ev

!    total energy              =   -2932.64524893 Ry
     estimated scf accuracy    <       0.00000003 Ry
     smearing contrib. (-TS)   =      -0.03689814 Ry
     internal energy E=F+TS    =   -2932.60835080 Ry

     The total energy is F=E-TS. E is the sum of the following terms:
     one-electron contribution =  -24389.29103249 Ry
     hartree contribution      =   12284.41609334 Ry
     xc contribution           =    -483.01134918 Ry
     ewald contribution        =    9655.27438007 Ry
     electric field correction =       0.00355746 Ry

     convergence has been achieved in  60 iterations

     Forces acting on atoms (cartesian axes, Ry/au):

     atom    1 type  1   force =    -0.00034501   -0.00014366    0.09278309
     atom    2 type  1   force =    -0.00023533    0.00067462   -0.18342492
     atom    3 type  2   force =     0.00047509    0.00086342   -0.02412807
     atom    4 type  2   force =     0.00075524    0.00051841    0.04951572
     atom    5 type  2   force =    -0.01311451    0.00029533    0.00325582
     atom    6 type  2   force =     0.01564185   -0.00028205    0.00544798
     atom    7 type  1   force =     0.00018526    0.00090143    0.00001311
     atom    8 type  1   force =    -0.00021282   -0.00026906   -0.00037982
     atom    9 type  2   force =    -0.00006519    0.00023105   -0.00021471
     atom   10 type  2   force =     0.00013858    0.00049044    0.00162849
     atom   11 type  2   force =    -0.00001232   -0.00046634    0.00003240
     atom   12 type  2   force =    -0.00054904    0.00040762   -0.00027753
     atom   13 type  1   force =     0.00101627   -0.00065734    0.00010609
     atom   14 type  1   force =    -0.00080856    0.00093916    0.00067274
     atom   15 type  2   force =    -0.00065314   -0.00023317   -0.00022972
     atom   16 type  2   force =     0.00064994   -0.00024051   -0.00045582
     atom   17 type  2   force =    -0.00064168    0.00002667    0.00088423
     atom   18 type  2   force =    -0.00044872   -0.00020171    0.00017443
     atom   19 type  1   force =    -0.00008127   -0.00086036    0.00004948
     atom   20 type  1   force =    -0.00044895    0.00014669   -0.00015332
     atom   21 type  2   force =    -0.00005287    0.00001535    0.10496896
     atom   22 type  2   force =    -0.00018836   -0.00134150    0.00099324
     atom   23 type  2   force =    -0.06796297   -0.00004238   -0.02680114
     atom   24 type  2   force =     0.06773977    0.00039914   -0.02689040
     atom   25 type  1   force =    -0.00037808    0.00013364    0.09637289
     atom   26 type  1   force =    -0.00021925   -0.00048507   -0.18355574
     atom   27 type  2   force =     0.00041966    0.00058823   -0.02277031
     atom   28 type  2   force =     0.00079603    0.00033198    0.04921373
     atom   29 type  2   force =    -0.01325824    0.00068007    0.00322094
     atom   30 type  2   force =     0.01572369    0.00023551    0.00537128
     atom   31 type  1   force =     0.00029690   -0.00138592   -0.00015064
     atom   32 type  1   force =    -0.00005312   -0.00014239    0.00031316
     atom   33 type  2   force =     0.00034105   -0.00009999    0.00080055
     atom   34 type  2   force =     0.00036372    0.00035926    0.00036847
     atom   35 type  2   force =    -0.00036699    0.00005138    0.00013326
     atom   36 type  2   force =    -0.00025219    0.00028342    0.00001316
     atom   37 type  1   force =     0.00136589   -0.00001861   -0.00051556
     atom   38 type  1   force =    -0.00076761   -0.00078208    0.00093017
     atom   39 type  2   force =    -0.00065249    0.00019515   -0.00056491
     atom   40 type  2   force =    -0.00062639    0.00037225   -0.00014841
     atom   41 type  2   force =    -0.00065299   -0.00005466    0.00067458
     atom   42 type  2   force =    -0.00079283   -0.00027597    0.00024097
     atom   43 type  1   force =    -0.00035720    0.00097955    0.00033661
     atom   44 type  1   force =     0.00027337    0.00022071    0.00060758
     atom   45 type  2   force =    -0.00005399    0.00003018    0.10496099
     atom   46 type  2   force =    -0.06792154   -0.00057316   -0.02681365
     atom   47 type  2   force =     0.06769290   -0.00010207   -0.02688798
     atom   48 type  3   force =    -0.01036125   -0.00278828   -0.00281875
     atom   49 type  2   force =    -0.00155616   -0.00086545   -0.00012668
     atom   50 type  4   force =     0.01146239    0.00186325    0.00334431
     atom   51 type  4   force =    -0.00016175   -0.00025422    0.00051191
     atom   52 type  4   force =    -0.00084894    0.00021779   -0.00033780
     atom   53 type  4   force =    -0.00023586    0.00011424   -0.00029448

     Total force =     0.368451     Total SCF correction =     0.000415
  @ DRIVER MODE: Message from server: STATUS
  @ DRIVER MODE: Message from server: GETFORCE
  @ DRIVER MODE: Returning v,forces,stress,ensemble

     Writing output data file ./calc.save/
  @ DRIVER MODE: Message from server: EXIT
  @ DRIVE MODE: Exiting

     General routines

     Parallel routines

   This run was terminated on:   2:16:10   9Sep2021

   JOB DONE.