     Program PWSCF v.6.7GPU starts on 18Oct2021 at 15: 1:42

     R & G space division:  proc/nbgrp/npool/nimage =       8
     Reading input from /storage/home/hcoda1/3/ntian30/research/carbon/CxH_vib/Thiel_calc/ads_slab/NH2NHH_perslab/out_0008/pw.inp
Warning: card &CELL ignored
Warning: card   CELL_DYNAMICS='IPI', ignored
Warning: card / ignored

     Current dimensions of program PWSCF are:
     Max number of different atomic species (ntypx) = 10
     Max number of k-points (npk) =  40000
     Max angular momentum in pseudopotentials (lmaxx) =  3
     Presently no symmetry can be used with electric field

     Message from routine cell_base_init:
     DEPRECATED: use true lattice parameter, not A to a.u. conversion factor

     IMPORTANT: XC functional enforced from input :
     Exchange-correlation= BEEF-VDW
                           (   1   4  43  14   2   0   0)
     Any further DFT definition will be discarded
     Please, verify this is what you really want

  @ DRIVER MODE: Connecting to
 qe_1139763_3255134.sched-torque.pace.gatech.edu7dlaxkaf_scratch
  using UNIX socket
  @ DRIVER MODE: Message from server: STATUS
  @ DRIVER MODE: Message from server: INIT
  @ DRIVER MODE: Receiving replica           0          -1
  @ DRIVER MODE: Receiving encoded integer          25
  @ DRIVER MODE:  SCF:  T  FORCE:  T  STRESS:  F  VC:  F  ENSEMBLE:  F
  @ DRIVER MODE:  SCF:  T  FORCE:  T  STRESS:  F  VC:  F  ENSEMBLE:  F

     Using Slab Decomposition

     bravais-lattice index     =            0
     lattice parameter (alat)  =       1.8897  a.u.
     unit-cell volume          =    9988.4706 (a.u.)^3
     number of atoms/cell      =           59
     number of atomic types    =            4
     number of electrons       =       440.00
     number of Kohn-Sham states=          230
     kinetic-energy cutoff     =      29.3995  Ry
     charge density cutoff     =     293.9946  Ry
     scf convergence threshold =      7.3E-08
     mixing beta               =       0.0500
     number of iterations used =            8  plain     mixing
     Exchange-correlation= BEEF-VDW
                           (   1   4  43  14   2   0   0)

     celldm(1)=   1.889726  celldm(2)=   0.000000  celldm(3)=   0.000000
     celldm(4)=   0.000000  celldm(5)=   0.000000  celldm(6)=   0.000000

     crystal axes: (cart. coord. in units of alat)
               a(1) = (   6.579727   0.000000   0.000000 )
               a(2) = (  -0.001163   8.942395   0.000000 )
               a(3) = (   0.000000   0.000000  25.155947 )

     reciprocal axes: (cart. coord. in units 2 pi/alat)
               b(1) = (  0.151982  0.000020  0.000000 )
               b(2) = (  0.000000  0.111827  0.000000 )
               b(3) = (  0.000000  0.000000  0.039752 )

     PseudoPot. # 1 for O  read from file:
     /storage/coda1/p-amedford6/0/shared/rich_project_chbe-medford/medford-share/data/pseudos_module/espresso/nninc/pbe/van/O.UPF
     MD5 check sum: 78c19812648e8988a0fe644b0f25305e
     Pseudo is Ultrasoft, Zval =  6.0
     Generated by new atomic code, or converted to UPF format
     Using radial grid of  737 points,  4 beta functions with:
                l(1) =   0
                l(2) =   0
                l(3) =   1
                l(4) =   1
     Q(r) pseudized with  8 coefficients,  rinner =    0.800   0.800   0.800

     PseudoPot. # 2 for Ti read from file:
     /storage/coda1/p-amedford6/0/shared/rich_project_chbe-medford/medford-share/data/pseudos_module/espresso/nninc/pbe/van/Ti.UPF
     MD5 check sum: 8e4df49b7f0d34bbd5052bf3f5ea0213
     Pseudo is Ultrasoft, Zval = 12.0
     Generated by new atomic code, or converted to UPF format
     Using radial grid of  851 points,  6 beta functions with:
                l(1) =   0
                l(2) =   0
                l(3) =   1
                l(4) =   1
                l(5) =   2
                l(6) =   2
     Q(r) pseudized with  8 coefficients,  rinner =    1.000   1.000   1.000
                                                       1.000   1.000

     PseudoPot. # 3 for H  read from file:
     /storage/coda1/p-amedford6/0/shared/rich_project_chbe-medford/medford-share/data/pseudos_module/espresso/nninc/pbe/van/H.UPF
     MD5 check sum: b5ee9d7bfd3a09ee7748110bda690ff7
     Pseudo is Ultrasoft, Zval =  1.0
     Generated by new atomic code, or converted to UPF format
     Using radial grid of  615 points,  1 beta functions with:
                l(1) =   0
     Q(r) pseudized with  8 coefficients,  rinner =    0.800

     PseudoPot. # 4 for N  read from file:
     /storage/coda1/p-amedford6/0/shared/rich_project_chbe-medford/medford-share/data/pseudos_module/espresso/nninc/pbe/van/N.UPF
     MD5 check sum: 90d10febe142ad51ac9d5be1deb811c4
     Pseudo is Ultrasoft, Zval =  5.0
     Generated by new atomic code, or converted to UPF format
     Using radial grid of  729 points,  4 beta functions with:
                l(1) =   0
                l(2) =   0
                l(3) =   1
                l(4) =   1
     Q(r) pseudized with  8 coefficients,  rinner =    0.800   0.800   0.800

     atomic species   valence    mass     pseudopotential
        O1             6.00    15.99900     O ( 1.00)
        Ti1           12.00    47.86700     Ti( 1.00)
        H1             1.00     1.00800     H ( 1.00)
        N1             5.00    14.00700     N ( 1.00)

     No symmetry found

   Cartesian axes

     site n.     atom                  positions (alat units)
         1           O1  tau(   1) = (   0.0007354   0.0005023  10.5931620  )
         2           O1  tau(   2) = (   3.2887669   8.9343558  13.7857904  )
         3           O1  tau(   3) = (  -0.0004435   8.9037079  17.1656601  )
         4           O1  tau(   4) = (   0.0006271   0.0005054   7.9858123  )
         5           O1  tau(   5) = (   3.2907596   0.0056730  11.1454013  )
         6           O1  tau(   6) = (   0.0000918   8.9024801  14.5153886  )
         7           O1  tau(   7) = (   1.9868534   1.4903216   9.2879459  )
         8           O1  tau(   8) = (   5.2129768   1.5767634  12.5412193  )
         9           O1  tau(   9) = (   2.0410104   1.4081166  15.9738913  )
        10           Ti1 tau(  10) = (   0.0007404   1.4906270   9.2895810  )
        11           Ti1 tau(  11) = (   3.2923993   1.3029312  12.4395176  )
        12           Ti1 tau(  12) = (   6.5786190   1.6682186  16.0479855  )
        13           O1  tau(  13) = (   4.5942328   1.4918067   9.2879030  )
        14           O1  tau(  14) = (   1.3693608   1.5763615  12.5409223  )
        15           O1  tau(  15) = (   4.5388119   1.4066068  15.9736107  )
        16           Ti1 tau(  16) = (   3.2902859   2.9801868   9.2893338  )
        17           Ti1 tau(  17) = (   0.0025983   2.7818652  12.5490862  )
        18           Ti1 tau(  18) = (   3.2890997   3.0957086  15.6341045  )
        19           O1  tau(  19) = (   0.0003479   2.9813005  10.5931620  )
        20           O1  tau(  20) = (   3.2906043   2.9558292  13.7911244  )
        21           O1  tau(  21) = (   0.0002396   2.9813036   7.9858123  )
        22           O1  tau(  22) = (   3.2907828   2.9846389  11.1656624  )
        23           O1  tau(  23) = (   0.0000664   2.9755257  14.5967958  )
        24           O1  tau(  24) = (   1.9864658   4.4711199   9.2879459  )
        25           O1  tau(  25) = (   5.2254851   4.5442098  12.5530165  )
        26           O1  tau(  26) = (   2.0413797   4.3804877  15.9810922  )
        27           Ti1 tau(  27) = (   0.0003529   4.4714252   9.2895810  )
        28           Ti1 tau(  28) = (   3.2927641   4.3249026  12.5337624  )
        29           Ti1 tau(  29) = (  -0.0001393   4.3779101  16.0758329  )
        30           O1  tau(  30) = (   4.5938453   4.4726049   9.2879030  )
        31           O1  tau(  31) = (   1.3554856   4.5423027  12.5528228  )
        32           O1  tau(  32) = (   4.5375453   4.3808357  15.9816482  )
        33           Ti1 tau(  33) = (   3.2898983   5.9609850   9.2893338  )
        34           Ti1 tau(  34) = (   0.0022780   5.7553130  12.5179661  )
        35           Ti1 tau(  35) = (   3.2911749   6.0723021  16.2828521  )
        36           O1  tau(  36) = (  -0.0000397   5.9620987  10.5931620  )
        37           O1  tau(  37) = (   3.2898444   5.9099340  13.7874885  )
        38           O1  tau(  38) = (  -0.0002305   5.9963729  17.1613877  )
        39           O1  tau(  39) = (  -0.0001480   5.9621018   7.9858123  )
        40           O1  tau(  40) = (   3.2898933   5.9403142  11.1650959  )
        41           O1  tau(  41) = (   0.0001730   6.0398540  14.5337486  )
        42           O1  tau(  42) = (   1.9860782   7.4519181   9.2879459  )
        43           O1  tau(  43) = (   5.2203866   7.5240042  12.5266709  )
        44           O1  tau(  44) = (   2.0308607   7.4363189  15.9936472  )
        45           Ti1 tau(  45) = (  -0.0000347   7.4522234   9.2895810  )
        46           Ti1 tau(  46) = (   3.2897547   7.2013570  12.5904776  )
        47           Ti1 tau(  47) = (  -0.0001197   7.5007381  15.6461876  )
        48           O1  tau(  48) = (   4.5934577   7.4534031   9.2879030  )
        49           O1  tau(  49) = (   1.3580612   7.5226468  12.5263262  )
        50           O1  tau(  50) = (   4.5486487   7.4363691  15.9933312  )
        51           Ti1 tau(  51) = (   3.2895107   8.9417832   9.2893338  )
        52           Ti1 tau(  52) = (  -0.0005051   8.7269297  12.4809553  )
        53           Ti1 tau(  53) = (   3.2886672   0.0795926  15.6360096  )
        54           H1  tau(  54) = (   6.5784023   6.0277306  18.1241331  )
        55           H1  tau(  55) = (   0.0087183   8.8634660  18.1266539  )
        56           N1  tau(  56) = (   6.5791914   3.0063145  17.2269018  )
        57           N1  tau(  57) = (   3.2902358   5.9939226  18.1904466  )
        58           H1  tau(  58) = (   3.2886139   5.1344262  18.7255412  )
        59           H1  tau(  59) = (   3.2892998   6.7958846  18.8069972  )

     number of k points=    10  Fermi-Dirac smearing, width (Ry)=  0.0073
                       cart. coord. in units 2pi/alat
        k(    1) = (   0.0000000   0.0000000   0.0000000), wk =   0.1250000
        k(    2) = (   0.0000000   0.0279567   0.0000000), wk =   0.2500000
        k(    3) = (   0.0000000  -0.0559134   0.0000000), wk =   0.1250000
        k(    4) = (   0.0379955   0.0000049   0.0000000), wk =   0.2500000
        k(    5) = (   0.0379955   0.0279617   0.0000000), wk =   0.2500000
        k(    6) = (   0.0379955  -0.0559085   0.0000000), wk =   0.2500000
        k(    7) = (   0.0379955  -0.0279518   0.0000000), wk =   0.2500000
        k(    8) = (  -0.0759910  -0.0000099   0.0000000), wk =   0.1250000
        k(    9) = (  -0.0759910   0.0279468   0.0000000), wk =   0.2500000
        k(   10) = (  -0.0759910  -0.0559233   0.0000000), wk =   0.1250000

     Initial potential from superposition of free atoms

     starting charge  421.99910, renormalised to  440.00000

     negative rho (up, down):  3.748E-02 0.000E+00

     %%%%%%%%%%%%%%%%%%%%%%%%%%%%%%%%%%%%%%%%%%%%%%%%%%%%%%%%%%%%%%%%%%%%%%%%
     %                                                                      %
     % You are using vdW-DF, which was implemented by the Thonhauser group. %
     % Please cite the following two papers that made this development      %
     % possible and the two reviews that describe the various versions:     %
     %                                                                      %
     %   T. Thonhauser et al., PRL 115, 136402 (2015).                      %
     %   T. Thonhauser et al., PRB 76, 125112 (2007).                       %
     %   K. Berland et al., Rep. Prog. Phys. 78, 066501 (2015).             %
     %   D.C. Langreth et al., J. Phys.: Condens. Matter 21, 084203 (2009). %
     %                                                                      %
     %                                                                      %
     % If you are calculating the stress with vdW-DF, please also cite:     %
     %                                                                      %
     %   R. Sabatini et al., J. Phys.: Condens. Matter 24, 424209 (2012).   %
     %                                                                      %
     %%%%%%%%%%%%%%%%%%%%%%%%%%%%%%%%%%%%%%%%%%%%%%%%%%%%%%%%%%%%%%%%%%%%%%%%

     Adding external electric field

     Computed dipole along edir(3) :
        Dipole               -3.9322 Ry au,         -9.9948 Debye
        Dipole field         -0.0049 Ry au,

        Potential amp.        0.4586 Ry
        Total length         46.3494 bohr

     Starting wfcs are  332 atomic wfcs
  @ DRIVER MODE: Message from server: STATUS
  @ DRIVER MODE: Message from server: POSDATA
  @ DRIVER MODE: Reading and sharing cell
  @ DRIVER MODE: Reading and sharing positions
  @ DRIVER MODE: Received positions

     Self-consistent Calculation

     iteration #  1     ecut=    29.40 Ry     beta= 0.05
     Davidson diagonalization with overlap
     c_bands:  2 eigenvalues not converged
     c_bands:  3 eigenvalues not converged
     c_bands:  5 eigenvalues not converged
     c_bands:  4 eigenvalues not converged
     c_bands:  1 eigenvalues not converged
     c_bands:  4 eigenvalues not converged
     c_bands:  5 eigenvalues not converged
     c_bands:  3 eigenvalues not converged
     c_bands:  3 eigenvalues not converged
     ethr =  1.00E-05,  avg # of iterations = 19.8

[...]

     total energy              =   -3294.69842117 Ry
     estimated scf accuracy    <      19.95547688 Ry

     iteration #  2     ecut=    29.40 Ry     beta= 0.05
     Davidson diagonalization with overlap
     ethr =  4.54E-03,  avg # of iterations =  1.4

[...]

     iteration # 31     ecut=    29.40 Ry     beta= 0.05
     Davidson diagonalization with overlap
     c_bands:  1 eigenvalues not converged
     c_bands:  1 eigenvalues not converged
     ethr =  1.08E-06,  avg # of iterations = 11.7

[...]

     total energy              =   -3293.27276559 Ry
     estimated scf accuracy    <       0.00000061 Ry

     iteration # 57     ecut=    29.40 Ry     beta= 0.05
     Davidson diagonalization with overlap
     ethr =  4.10E-11,  avg # of iterations =  5.0

     negative rho (up, down):  3.595E-02 0.000E+00

     Adding external electric field

     Computed dipole along edir(3) :
        Dipole                1.3178 Ry au,          3.3494 Debye
        Dipole field          0.0017 Ry au,

        Potential amp.       -0.1537 Ry
        Total length         46.3494 bohr

     End of self-consistent calculation

          k = 0.0000 0.0000 0.0000 ( 26871 PWs)   bands (ev):

   -58.2797 -58.2564 -58.2510 -58.2263 -58.1669 -57.7777 -57.7739 -57.7541
   -57.6691 -57.5728 -57.5682 -57.5456 -57.3359 -56.8614 -56.8375 -56.8207
   -56.7384 -56.6384 -34.6897 -34.6501 -34.6174 -34.6018 -34.5976 -34.5962
   -34.5470 -34.4925 -34.4549 -34.4115 -34.4052 -34.3889 -34.3840 -34.3638
   -34.3162 -34.1920 -34.1411 -34.1346 -34.1258 -34.1214 -34.0766 -34.0547
   -34.0537 -34.0134 -34.0009 -33.9573 -33.9559 -33.8577 -33.8536 -33.8261
   -33.8189 -33.8033 -33.7694 -33.7572 -33.7514 -33.7324 -33.6838 -33.5759
   -33.5442 -33.2336 -33.2062 -33.1880 -33.1713 -33.1653 -33.1481 -33.0695
   -33.0566 -33.0110 -32.9926 -32.9835 -32.9506 -32.8878 -32.8701 -32.7664
   -18.9497 -18.8273 -18.7364 -18.3605 -18.3011 -18.1683 -18.1113 -18.1043
   -18.0108 -17.9417 -17.7179 -17.6698 -17.6579 -17.6334 -17.5377 -17.5250
   -17.5156 -17.4836 -17.4593 -17.4534 -17.3509 -17.3135 -17.2990 -17.2940
   -17.2625 -17.1838 -17.1345 -17.0394 -17.0064 -17.0040 -16.8345 -16.7944
   -15.3384 -15.2974 -15.2886 -15.2484 -11.6041  -6.9828  -6.8104  -6.6991
    -6.1799  -5.9691  -5.7727  -5.6106  -5.5134  -5.4468  -5.3769  -5.3103
    -5.2754  -5.2541  -5.2030  -5.1628  -5.0627  -5.0544  -4.9618  -4.9056
    -4.8761  -4.8449  -4.7664  -4.7443  -4.7279  -4.6785  -4.6178  -4.6082
    -4.5691  -4.4936  -4.4851  -4.4704  -4.4319  -4.4257  -4.3715  -4.2825
    -4.1941  -4.1635  -4.1537  -4.1128  -4.0406  -4.0314  -4.0084  -3.9813
    -3.9748  -3.9446  -3.8682  -3.8423  -3.7359  -3.6446  -3.6153  -3.6000
    -3.5113  -3.4296  -3.3730  -3.3466  -3.1722  -3.1457  -3.1028  -3.0393
    -3.0287  -2.9672  -2.9439  -2.9198  -2.8904  -2.8679  -2.8032  -2.7942
    -2.7931  -2.7727  -2.7481  -2.7008  -2.6510  -2.6303  -2.5679  -2.5383
    -2.5238  -2.4994  -2.4543  -2.4341  -2.3189  -2.2685  -2.2562  -2.2375
    -2.2321  -2.1528  -2.0751  -2.0176  -1.9990  -1.8716  -1.8663  -1.7510
    -1.7080  -1.7021  -1.6491  -1.5763  -1.5306  -1.4830  -1.3720  -1.2406
    -1.1753  -1.0927  -1.0280  -0.7639  -0.6708  -0.5546  -0.5477  -0.5349
    -0.5149  -0.3664  -0.3520  -0.2556   0.9956   1.1316   1.2896   1.3130
     1.5133   1.6013   1.6246   1.6668   1.7666   1.8609

[...]

          k = 0.0380-0.0280 0.0000 ( 26873 PWs)   bands (ev):

[...]

          k =-0.0760-0.0000 0.0000 ( 26902 PWs)   bands (ev):

[...]

          k =-0.0760-0.0559 0.0000 ( 26868 PWs)   bands (ev):

   -58.2733 -58.2687 -58.2450 -58.2262 -58.1670 -57.7774 -57.7738 -57.7545
   -57.6689 -57.5727 -57.5691 -57.5449 -57.3359 -56.8583 -56.8434 -56.8179
   -56.7384 -56.6383 -34.7180 -34.6926 -34.6508 -34.6231 -34.5916 -34.5059
   -34.4913 -34.4323 -34.4274 -34.4177 -34.4098 -34.4062 -34.4014 -34.3654
   -34.3637 -34.2323 -34.1725 -34.1585 -34.1288 -34.1210 -34.0604 -34.0076
   -33.9936 -33.9893 -33.9664 -33.9584 -33.9257 -33.9013 -33.8830 -33.8748
   -33.8304 -33.8029 -33.7693 -33.7550 -33.7502 -33.7333 -33.6857 -33.5755
   -33.5489 -33.2486 -33.2205 -33.2072 -33.1934 -33.1686 -33.0591 -33.0558
   -33.0387 -32.9834 -32.9812 -32.9733 -32.9582 -32.9511 -32.8883 -32.7734
   -18.9095 -18.7519 -18.6280 -18.4709 -18.2343 -18.1316 -17.9702 -17.8866
   -17.8624 -17.8596 -17.8437 -17.7442 -17.7383 -17.7030 -17.6455 -17.6185
   -17.6080 -17.6036 -17.5546 -17.5516 -17.3566 -17.3471 -17.2919 -17.2505
   -17.2259 -17.2036 -17.1036 -17.1021 -17.0317 -16.9569 -16.8534 -16.7703
   -15.3490 -15.3384 -15.2488 -15.2274 -11.6010  -6.9234  -6.8334  -6.6998
    -5.9555  -5.7457  -5.7182  -5.6690  -5.3506  -5.2965  -5.1957  -5.1677
    -5.1291  -5.1127  -5.0723  -5.0703  -5.0003  -4.9559  -4.9420  -4.9152
    -4.9010  -4.8713  -4.8409  -4.8160  -4.7536  -4.7495  -4.7345  -4.6912
    -4.6442  -4.5592  -4.5363  -4.5180  -4.4675  -4.4282  -4.2537  -4.2076
    -4.1814  -4.1665  -4.0808  -4.0560  -3.9794  -3.9495  -3.9058  -3.8301
    -3.7356  -3.6882  -3.6384  -3.5831  -3.5575  -3.5267  -3.5213  -3.4688
    -3.4404  -3.3908  -3.3584  -3.3527  -3.3017  -3.2451  -3.1990  -3.1802
    -3.1539  -3.1489  -3.1259  -3.1001  -3.0696  -3.0469  -3.0423  -2.9843
    -2.9367  -2.9239  -2.8493  -2.8174  -2.7634  -2.7101  -2.6866  -2.6305
    -2.6234  -2.5695  -2.5638  -2.4994  -2.4714  -2.4230  -2.4100  -2.3387
    -2.1599  -2.0958  -1.9910  -1.9463  -1.9354  -1.8662  -1.8330  -1.8206
    -1.6811  -1.6706  -1.6075  -1.6043  -1.5792  -1.3672  -1.3397  -1.3037
    -1.2736  -1.2354  -1.2022  -1.0899  -0.7975  -0.7098  -0.6738  -0.4838
    -0.4618  -0.4177  -0.3869  -0.3725   1.0407   1.2091   1.2775   1.3587
     1.3798   1.4220   1.4519   1.6381   1.6691   1.7002

     the Fermi energy is     0.3954 ev

!    total energy              =   -3293.27281816 Ry
     estimated scf accuracy    <       0.00000006 Ry
     smearing contrib. (-TS)   =      -0.00047481 Ry
     internal energy E=F+TS    =   -3293.27234335 Ry

     The total energy is F=E-TS. E is the sum of the following terms:
     one-electron contribution =  -34645.89657214 Ry
     hartree contribution      =   17387.48067582 Ry
     xc contribution           =    -542.13017226 Ry
     ewald contribution        =   14507.27154056 Ry
     electric field correction =       0.00218467 Ry

     convergence has been achieved in  57 iterations

     Forces acting on atoms (cartesian axes, Ry/au):

     atom    1 type  1   force =     0.00002206    0.00608926    0.04335290
     atom    2 type  1   force =     0.00000383   -0.00402956   -0.00309358
     atom    3 type  1   force =    -0.00013994    0.00280005   -0.00199301
     atom    4 type  1   force =     0.00005082   -0.00044806    0.10165004
     atom    5 type  1   force =    -0.00000517    0.00014154    0.00748295
     atom    6 type  1   force =    -0.00005638    0.00311316    0.00046026
     atom    7 type  1   force =     0.07786459    0.00122615   -0.03552966
     atom    8 type  1   force =     0.00795452   -0.02605905    0.00024518
     atom    9 type  1   force =     0.00932970    0.01907616    0.00061090
     atom   10 type  2   force =    -0.00006626    0.00812049   -0.15938694
     atom   11 type  2   force =    -0.00006602    0.02226818   -0.00327787
     atom   12 type  2   force =    -0.00002103   -0.02376385   -0.00519005
     atom   13 type  1   force =    -0.07795234    0.00076102   -0.03552010
     atom   14 type  1   force =    -0.00807815   -0.02593609    0.00026358
     atom   15 type  1   force =    -0.00940344    0.01913285    0.00059456
     atom   16 type  2   force =     0.00010037    0.00152003    0.07236511
     atom   17 type  2   force =     0.00009005    0.03130174    0.00147643
     atom   18 type  2   force =     0.00002623   -0.02630825    0.00310827
     atom   19 type  1   force =     0.00005477    0.00277578    0.05721413
     atom   20 type  1   force =     0.00000699   -0.00178487    0.00095894
     atom   21 type  1   force =     0.00005032   -0.00089369    0.10058006
     atom   22 type  1   force =     0.00000546   -0.00255924    0.00650642
     atom   23 type  1   force =    -0.00002617    0.00310684    0.00434583
     atom   24 type  1   force =     0.07898161    0.00059605   -0.03634608
     atom   25 type  1   force =     0.00962249   -0.02997190    0.00062939
     atom   26 type  1   force =     0.01028160    0.01558016    0.00400656
     atom   27 type  2   force =    -0.00008578   -0.00571231   -0.15461360
     atom   28 type  2   force =     0.00001369    0.02796526   -0.00280273
     atom   29 type  2   force =     0.00002864   -0.01128170   -0.01283135
     atom   30 type  1   force =    -0.07906442    0.00019365   -0.03635160
     atom   31 type  1   force =    -0.00970176   -0.02980919    0.00063047
     atom   32 type  1   force =    -0.01026608    0.01554210    0.00400502
     atom   33 type  2   force =     0.00011872   -0.00295066    0.07718124
     atom   34 type  2   force =     0.00004120    0.03528926    0.00329889
     atom   35 type  2   force =    -0.00002691   -0.01751172   -0.00023259
     atom   36 type  1   force =     0.00008537    0.00417124    0.05150228
     atom   37 type  1   force =    -0.00000238   -0.00283430   -0.00287610
     atom   38 type  1   force =     0.00003517    0.00202624    0.00345088
     atom   39 type  1   force =     0.00004494    0.00293499    0.10098449
     atom   40 type  1   force =    -0.00000555   -0.00195160    0.00748445
     atom   41 type  1   force =     0.00003255    0.00063645    0.00073340
     atom   42 type  1   force =     0.07839056    0.00162856   -0.03444919
     atom   43 type  1   force =     0.00609014   -0.02323232   -0.00032873
     atom   44 type  1   force =     0.01009912    0.01582135   -0.00664767
     atom   45 type  2   force =    -0.00005548   -0.00739878   -0.16392784
     atom   46 type  2   force =    -0.00002824    0.01847241    0.00056770
     atom   47 type  2   force =    -0.00000894   -0.01468830    0.01692580
     atom   48 type  1   force =    -0.07849381    0.00118503   -0.03443326
     atom   49 type  1   force =    -0.00608018   -0.02325653   -0.00032224
     atom   50 type  1   force =    -0.01009435    0.01584279   -0.00668087
     atom   51 type  2   force =     0.00010199   -0.00344114    0.06017382
     atom   52 type  2   force =     0.00004586    0.02832190    0.00339710
     atom   53 type  2   force =     0.00015280   -0.02106169    0.00089877
     atom   54 type  3   force =    -0.00006032    0.00068959   -0.00179154
     atom   55 type  3   force =     0.00005333   -0.00074061   -0.00051333
     atom   56 type  4   force =     0.00001370    0.00037026    0.00163370
     atom   57 type  4   force =    -0.00001039   -0.00076016    0.00052131
     atom   58 type  3   force =    -0.00002401   -0.00045936   -0.00034244
     atom   59 type  3   force =     0.00003029    0.00014442    0.00024156

     Total force =     0.434776     Total SCF correction =     0.000810
  @ DRIVER MODE: Message from server: STATUS
  @ DRIVER MODE: Message from server: GETFORCE
  @ DRIVER MODE: Returning v,forces,stress,ensemble

     Writing output data file ./calc.save/
  @ DRIVER MODE: Message from server: EXIT
  @ DRIVE MODE: Exiting

     General routines

     Parallel routines

   This run was terminated on:  15:28:49  18Oct2021

   JOB DONE.