     Program PWSCF v.6.7GPU starts on 24Sep2021 at  4: 0:43

     R & G space division:  proc/nbgrp/npool/nimage =       8
     Reading input from /storage/home/hcoda1/3/ntian30/research/carbon/CxH_vib/H2O_calc/ads_slab/CH2NNHHHHO_a/out_0039/pw.inp
Warning: card &CELL ignored
Warning: card   CELL_DYNAMICS='IPI', ignored
Warning: card / ignored

     Current dimensions of program PWSCF are:
     Max number of different atomic species (ntypx) = 10
     Max number of k-points (npk) =  40000
     Max angular momentum in pseudopotentials (lmaxx) =  3
     Presently no symmetry can be used with electric field

     Message from routine cell_base_init:
     DEPRECATED: use true lattice parameter, not A to a.u. conversion factor

     IMPORTANT: XC functional enforced from input :
     Exchange-correlation= BEEF-VDW
                           (   1   4  43  14   2   0   0)
     Any further DFT definition will be discarded
     Please, verify this is what you really want

  @ DRIVER MODE: Connecting to
 qe_1139763_2947316.sched-torque.pace.gatech.edu_is44d57_scratch
  using UNIX socket
  @ DRIVER MODE: Message from server: STATUS
  @ DRIVER MODE: Message from server: INIT
  @ DRIVER MODE: Receiving replica           0          -1
  @ DRIVER MODE: Receiving encoded integer          25
  @ DRIVER MODE:  SCF:  T  FORCE:  T  STRESS:  F  VC:  F  ENSEMBLE:  F
  @ DRIVER MODE:  SCF:  T  FORCE:  T  STRESS:  F  VC:  F  ENSEMBLE:  F

     Using Slab Decomposition

     bravais-lattice index     =            0
     lattice parameter (alat)  =       1.8897  a.u.
     unit-cell volume          =    6658.9804 (a.u.)^3
     number of atoms/cell      =           57
     number of atomic types    =            5
     number of electrons       =       404.00
     number of Kohn-Sham states=          212
     kinetic-energy cutoff     =      29.3995  Ry
     charge density cutoff     =     293.9946  Ry
     scf convergence threshold =      7.3E-08
     mixing beta               =       0.0500
     number of iterations used =            8  plain     mixing
     Exchange-correlation= BEEF-VDW
                           (   1   4  43  14   2   0   0)

     celldm(1)=   1.889726  celldm(2)=   0.000000  celldm(3)=   0.000000
     celldm(4)=   0.000000  celldm(5)=   0.000000  celldm(6)=   0.000000

     crystal axes: (cart. coord. in units of alat)
               a(1) = (   6.579727   0.000000   0.000000 )
               a(2) = (  -0.000775   5.961596   0.000000 )
               a(3) = (   0.000000   0.000000  25.155947 )

     reciprocal axes: (cart. coord. in units 2 pi/alat)
               b(1) = (  0.151982  0.000020  0.000000 )
               b(2) = (  0.000000  0.167740  0.000000 )
               b(3) = (  0.000000  0.000000  0.039752 )

     PseudoPot. # 1 for Ti read from file:
     /storage/coda1/p-amedford6/0/shared/rich_project_chbe-medford/medford-share/data/pseudos_module/espresso/nninc/pbe/van/Ti.UPF
     MD5 check sum: 8e4df49b7f0d34bbd5052bf3f5ea0213
     Pseudo is Ultrasoft, Zval = 12.0
     Generated by new atomic code, or converted to UPF format
     Using radial grid of  851 points,  6 beta functions with:
                l(1) =   0
                l(2) =   0
                l(3) =   1
                l(4) =   1
                l(5) =   2
                l(6) =   2
     Q(r) pseudized with  8 coefficients,  rinner =    1.000   1.000   1.000
                                                       1.000   1.000

     PseudoPot. # 2 for O  read from file:
     /storage/coda1/p-amedford6/0/shared/rich_project_chbe-medford/medford-share/data/pseudos_module/espresso/nninc/pbe/van/O.UPF
     MD5 check sum: 78c19812648e8988a0fe644b0f25305e
     Pseudo is Ultrasoft, Zval =  6.0
     Generated by new atomic code, or converted to UPF format
     Using radial grid of  737 points,  4 beta functions with:
                l(1) =   0
                l(2) =   0
                l(3) =   1
                l(4) =   1
     Q(r) pseudized with  8 coefficients,  rinner =    0.800   0.800   0.800

     PseudoPot. # 3 for N  read from file:
     /storage/coda1/p-amedford6/0/shared/rich_project_chbe-medford/medford-share/data/pseudos_module/espresso/nninc/pbe/van/N.UPF
     MD5 check sum: 90d10febe142ad51ac9d5be1deb811c4
     Pseudo is Ultrasoft, Zval =  5.0
     Generated by new atomic code, or converted to UPF format
     Using radial grid of  729 points,  4 beta functions with:
                l(1) =   0
                l(2) =   0
                l(3) =   1
                l(4) =   1
     Q(r) pseudized with  8 coefficients,  rinner =    0.800   0.800   0.800

     PseudoPot. # 4 for C  read from file:
     /storage/coda1/p-amedford6/0/shared/rich_project_chbe-medford/medford-share/data/pseudos_module/espresso/nninc/pbe/van/C.UPF
     MD5 check sum: 1a69bf6b8db32088f5b2163dbdb77a27
     Pseudo is Ultrasoft, Zval =  4.0
     Generated by new atomic code, or converted to UPF format
     Using radial grid of  721 points,  4 beta functions with:
                l(1) =   0
                l(2) =   0
                l(3) =   1
                l(4) =   1
     Q(r) pseudized with  8 coefficients,  rinner =    0.800   0.800   0.800

     PseudoPot. # 5 for H  read from file:
     /storage/coda1/p-amedford6/0/shared/rich_project_chbe-medford/medford-share/data/pseudos_module/espresso/nninc/pbe/van/H.UPF
     MD5 check sum: b5ee9d7bfd3a09ee7748110bda690ff7
     Pseudo is Ultrasoft, Zval =  1.0
     Generated by new atomic code, or converted to UPF format
     Using radial grid of  615 points,  1 beta functions with:
                l(1) =   0
     Q(r) pseudized with  8 coefficients,  rinner =    0.800

     atomic species   valence    mass     pseudopotential
        Ti1           12.00    47.86700     Ti( 1.00)
        O1             6.00    15.99900     O ( 1.00)
        N1             5.00    14.00700     N ( 1.00)
        C1             4.00    12.01100     C ( 1.00)
        H1             1.00     1.00800     H ( 1.00)

     No symmetry found

   Cartesian axes

     site n.     atom                  positions (alat units)
         1           Ti1 tau(   1) = (   0.0004258   2.9801865   6.0000000  )
         2           Ti1 tau(   2) = (   3.2906075   1.4906267   6.0002472  )
         3           O1  tau(   3) = (   0.0006271   0.0005054   7.9858123  )
         4           O1  tau(   4) = (   3.2906025   0.0005020   7.3038282  )
         5           O1  tau(   5) = (   4.5942328   1.4918067   9.2879030  )
         6           O1  tau(   6) = (   1.9868534   1.4903216   9.2879459  )
         7           Ti1 tau(   7) = (   3.2907910   2.8959150   9.1758416  )
         8           Ti1 tau(   8) = (   0.0015273   1.4827037   9.2680791  )
         9           O1  tau(   9) = (   3.3027076   5.9092304  11.3732431  )
        10           O1  tau(  10) = (   0.0116148   5.9584955  10.6183126  )
        11           O1  tau(  11) = (   1.2953868   1.4751764  12.6403503  )
        12           O1  tau(  12) = (   5.3168701   1.4807623  12.6366210  )
        13           Ti1 tau(  13) = (   0.0172323   2.9996225  12.5311828  )
        14           Ti1 tau(  14) = (   3.3257086   1.2755711  12.7138078  )
        15           O1  tau(  15) = (   6.5733368   0.1082846  14.6600873  )
        16           O1  tau(  16) = (   3.3238075   0.0838359  14.0473399  )
        17           O1  tau(  17) = (   4.5575128   1.5393005  16.2317518  )
        18           O1  tau(  18) = (   2.0302387   1.4963625  16.2670071  )
        19           Ti1 tau(  19) = (   3.2366114   2.9448900  15.6849520  )
        20           Ti1 tau(  20) = (   6.5300729   1.3987400  16.1165465  )
        21           O1  tau(  21) = (   3.2904802   0.0005063   4.7018136  )
        22           O1  tau(  22) = (   0.0022030   5.7760056  17.1861099  )
        23           O1  tau(  23) = (   1.3043587   1.4918075   6.0039043  )
        24           O1  tau(  24) = (   5.2767064   1.4903225   6.0039473  )
        25           Ti1 tau(  25) = (   0.0000382   5.9609847   6.0000000  )
        26           Ti1 tau(  26) = (   3.2902200   4.4714249   6.0002472  )
        27           O1  tau(  27) = (   0.0002396   2.9813036   7.9858123  )
        28           O1  tau(  28) = (   3.2902150   2.9813002   7.3038282  )
        29           O1  tau(  29) = (   4.5938453   4.4726049   9.2879030  )
        30           O1  tau(  30) = (   1.9864658   4.4711199   9.2879459  )
        31           Ti1 tau(  31) = (   3.2891106   5.8743827   9.1763621  )
        32           Ti1 tau(  32) = (   0.0006254   4.4649316   9.2693709  )
        33           O1  tau(  33) = (   3.3012885   2.9833904  11.3212188  )
        34           O1  tau(  34) = (   0.0092240   2.9805883  10.6323155  )
        35           O1  tau(  35) = (   1.2895456   4.4501540  12.7025460  )
        36           O1  tau(  36) = (   5.3143371   4.4382646  12.6927937  )
        37           Ti1 tau(  37) = (   0.0343555   0.0433052  12.5107970  )
        38           Ti1 tau(  38) = (   3.3217552   4.3482123  12.4486840  )
        39           O1  tau(  39) = (   0.0141661   2.9064423  14.8877341  )
        40           O1  tau(  40) = (   3.2920978   2.9424077  13.9176102  )
        41           O1  tau(  41) = (   4.5506947   4.3398720  16.1100615  )
        42           O1  tau(  42) = (   2.0210198   4.4131678  16.0160425  )
        43           Ti1 tau(  43) = (   3.3132698   5.9358869  16.2610495  )
        44           Ti1 tau(  44) = (   0.0826266   4.5979890  15.7080129  )
        45           O1  tau(  45) = (   3.2900926   2.9813045   4.7018136  )
        46           O1  tau(  46) = (   1.3039711   4.4726057   6.0039043  )
        47           O1  tau(  47) = (   5.2763189   4.4711207   6.0039473  )
        48           N1  tau(  48) = (   6.5643472   2.7424576  18.0625816  )
        49           C1  tau(  49) = (   0.8744728   2.5686873  19.0232366  )
        50           H1  tau(  50) = (   0.8543601   3.1364980  19.9465443  )
        51           H1  tau(  51) = (   1.6733950   1.8773151  18.8242213  )
        52           N1  tau(  52) = (   5.5366205   3.6779994  18.4753393  )
        53           H1  tau(  53) = (   5.9486539   4.6347284  18.5635686  )
        54           H1  tau(  54) = (   4.8775701   3.8134783  17.6645784  )
        55           H1  tau(  55) = (   5.0440791   3.3775604  19.3232938  )
        56           O1  tau(  56) = (   3.4091604   5.6710612  18.1544331  )
        57           H1  tau(  57) = (   3.1368125   0.4262250  18.7404830  )

     number of k points=    10  Fermi-Dirac smearing, width (Ry)=  0.0073
                       cart. coord. in units 2pi/alat
        k(    1) = (   0.0000000   0.0000000   0.0000000), wk =   0.1250000
        k(    2) = (   0.0000000   0.0419351   0.0000000), wk =   0.2500000
        k(    3) = (   0.0000000  -0.0838702   0.0000000), wk =   0.1250000
        k(    4) = (   0.0379955   0.0000049   0.0000000), wk =   0.2500000
        k(    5) = (   0.0379955   0.0419400   0.0000000), wk =   0.2500000
        k(    6) = (   0.0379955  -0.0838652   0.0000000), wk =   0.2500000
        k(    7) = (   0.0379955  -0.0419301   0.0000000), wk =   0.2500000
        k(    8) = (  -0.0759910  -0.0000099   0.0000000), wk =   0.1250000
        k(    9) = (  -0.0759910   0.0419252   0.0000000), wk =   0.2500000
        k(   10) = (  -0.0759910  -0.0838800   0.0000000), wk =   0.1250000

     Initial potential from superposition of free atoms

     starting charge  387.99913, renormalised to  404.00000

     negative rho (up, down):  1.546E-02 0.000E+00

     %%%%%%%%%%%%%%%%%%%%%%%%%%%%%%%%%%%%%%%%%%%%%%%%%%%%%%%%%%%%%%%%%%%%%%%%
     %                                                                      %
     % You are using vdW-DF, which was implemented by the Thonhauser group. %
     % Please cite the following two papers that made this development      %
     % possible and the two reviews that describe the various versions:     %
     %                                                                      %
     %   T. Thonhauser et al., PRL 115, 136402 (2015).                      %
     %   T. Thonhauser et al., PRB 76, 125112 (2007).                       %
     %   K. Berland et al., Rep. Prog. Phys. 78, 066501 (2015).             %
     %   D.C. Langreth et al., J. Phys.: Condens. Matter 21, 084203 (2009). %
     %                                                                      %
     %                                                                      %
     % If you are calculating the stress with vdW-DF, please also cite:     %
     %                                                                      %
     %   R. Sabatini et al., J. Phys.: Condens. Matter 24, 424209 (2012).   %
     %                                                                      %
     %%%%%%%%%%%%%%%%%%%%%%%%%%%%%%%%%%%%%%%%%%%%%%%%%%%%%%%%%%%%%%%%%%%%%%%%

     Adding external electric field

     Computed dipole along edir(3) :
        Dipole              -13.5862 Ry au,        -34.5326 Debye
        Dipole field         -0.0256 Ry au,

        Potential amp.        2.3767 Ry
        Total length         46.3494 bohr

     Starting wfcs are  306 atomic wfcs
  @ DRIVER MODE: Message from server: STATUS
  @ DRIVER MODE: Message from server: POSDATA
  @ DRIVER MODE: Reading and sharing cell
  @ DRIVER MODE: Reading and sharing positions
  @ DRIVER MODE: Received positions

     Self-consistent Calculation

     iteration #  1     ecut=    29.40 Ry     beta= 0.05
     Davidson diagonalization with overlap
     c_bands:  4 eigenvalues not converged
     c_bands:  1 eigenvalues not converged
     c_bands:  1 eigenvalues not converged
     c_bands:  1 eigenvalues not converged
     c_bands:  2 eigenvalues not converged
     c_bands:  4 eigenvalues not converged
     c_bands:  5 eigenvalues not converged
     c_bands:  2 eigenvalues not converged
     ethr =  1.00E-05,  avg # of iterations = 29.7

[...]

     total energy              =   -2247.85228575 Ry
     estimated scf accuracy    <    8242.53850813 Ry

     iteration #  2     ecut=    29.40 Ry     beta= 0.05
     Davidson diagonalization with overlap
     ethr =  1.00E-02,  avg # of iterations = 25.4

[...]

     iteration # 73     ecut=    29.40 Ry     beta= 0.05
     Davidson diagonalization with overlap
     c_bands:  1 eigenvalues not converged
     ethr =  9.79E-09,  avg # of iterations = 12.4

[...]

     total energy              =   -2975.12441986 Ry
     estimated scf accuracy    <       0.00000010 Ry

     iteration # 85     ecut=    29.40 Ry     beta= 0.05
     Davidson diagonalization with overlap
     ethr =  2.36E-11,  avg # of iterations =  6.5

     negative rho (up, down):  1.380E-02 0.000E+00

     Adding external electric field

     Computed dipole along edir(3) :
        Dipole                1.3751 Ry au,          3.4952 Debye
        Dipole field          0.0026 Ry au,

        Potential amp.       -0.2406 Ry
        Total length         46.3494 bohr

     End of self-consistent calculation

          k = 0.0000 0.0000 0.0000 ( 18029 PWs)   bands (ev):

   -55.3854 -55.2461 -55.2120 -55.1207 -55.0855 -55.0792 -55.0756 -55.0416
   -55.0352 -54.9870 -54.9595 -54.9227 -54.8703 -54.7414 -54.2264 -54.1924
   -31.7315 -31.7146 -31.6128 -31.6050 -31.5836 -31.5774 -31.5369 -31.5282
   -31.5189 -31.4920 -31.4490 -31.4444 -31.3986 -31.3709 -31.3694 -31.3594
   -31.3534 -31.3123 -31.3035 -31.3013 -31.2841 -31.2741 -31.2695 -31.2643
   -31.2624 -31.2234 -31.2195 -31.2191 -31.2153 -31.2028 -31.1934 -31.1883
   -31.1811 -31.1481 -31.1412 -31.1101 -31.1021 -31.0866 -31.0803 -31.0763
   -31.0025 -30.9090 -30.6328 -30.5455 -30.5231 -30.4501 -30.3637 -30.2520
   -19.1942 -16.3119 -15.9247 -15.7684 -15.5872 -15.4489 -15.4085 -15.1851
   -15.1291 -15.0426 -15.0199 -14.9044 -14.7878 -14.7873 -14.7664 -14.7597
   -14.7439 -14.6991 -14.6936 -14.6910 -14.6721 -14.6505 -14.6297 -14.6198
   -14.5823 -14.5408 -14.3901 -14.3688 -14.3502 -14.3070 -14.1698 -14.0024
   -12.7254 -12.6088  -9.1917  -7.6809  -6.9213  -6.1352  -4.3062  -3.6067
    -3.2733  -3.1757  -3.1530  -3.1425  -3.0097  -2.8390  -2.6440  -2.5822
    -2.5197  -2.4050  -2.3763  -2.2805  -2.2581  -2.2177  -2.1617  -2.1387
    -2.1110  -2.0567  -2.0437  -2.0354  -1.9451  -1.9255  -1.8235  -1.8019
    -1.7692  -1.7105  -1.6838  -1.6170  -1.5852  -1.5629  -1.5608  -1.5529
    -1.5300  -1.5161  -1.4939  -1.4416  -1.4106  -1.3476  -1.2825  -1.2067
    -1.1330  -0.9097  -0.8631  -0.8429  -0.7900  -0.7511  -0.6887  -0.6640
    -0.6442  -0.6314  -0.5628  -0.4525  -0.4040  -0.3637  -0.3086  -0.2841
    -0.2525  -0.1462  -0.0693  -0.0514  -0.0058   0.0333   0.0593   0.1243
     0.1598   0.2011   0.2702   0.2837   0.3606   0.4007   0.4236   0.4709
     0.5103   0.5738   0.6190   0.6681   0.6755   0.7052   0.7225   0.7540
     0.8397   0.8573   0.8987   0.9328   0.9935   1.0477   1.0726   1.2469
     1.3714   1.4060   1.4754   1.7420   1.7997   1.8157   1.9904   2.3680
     2.4136   3.8402   3.9804   3.9915   3.9991   4.0680   4.1217   4.1441
     4.3263   4.3660   4.4843   4.5226

[...]

          k = 0.0380-0.0419 0.0000 ( 17876 PWs)   bands (ev):

[...]

          k =-0.0760-0.0000 0.0000 ( 17886 PWs)   bands (ev):

[...]

          k =-0.0760-0.0839 0.0000 ( 17948 PWs)   bands (ev):

   -55.3847 -55.2291 -55.2288 -55.1062 -55.0999 -55.0797 -55.0588 -55.0579
   -55.0284 -54.9939 -54.9582 -54.9170 -54.8760 -54.7425 -54.2097 -54.2089
   -31.6541 -31.5956 -31.5866 -31.5469 -31.5467 -31.5225 -31.5222 -31.5013
   -31.4403 -31.4150 -31.3940 -31.3818 -31.3780 -31.3750 -31.3673 -31.3491
   -31.3484 -31.3445 -31.3415 -31.3311 -31.3276 -31.3089 -31.3016 -31.2802
   -31.2679 -31.2604 -31.2541 -31.2446 -31.2356 -31.2337 -31.2303 -31.2233
   -31.2152 -31.2096 -31.1832 -31.1461 -31.1199 -31.1064 -31.0940 -31.0827
   -31.0042 -30.9811 -30.5360 -30.5355 -30.4461 -30.4450 -30.4072 -30.4066
   -19.1904 -16.2987 -15.4558 -15.4087 -15.2217 -15.2183 -15.1913 -15.1306
   -15.0919 -15.0406 -15.0241 -14.9881 -14.9496 -14.9332 -14.9084 -14.8370
   -14.7933 -14.7670 -14.7556 -14.7193 -14.7035 -14.7027 -14.6712 -14.6488
   -14.6385 -14.5725 -14.5601 -14.4928 -14.4367 -14.4118 -14.2827 -14.2406
   -12.7109 -12.7104  -9.1795  -7.6923  -6.9066  -6.1441  -4.3361  -3.5953
    -2.6462  -2.6422  -2.4439  -2.4108  -2.3453  -2.2744  -2.2410  -2.2209
    -2.1738  -2.1666  -2.1274  -2.1051  -2.0683  -2.0398  -2.0326  -2.0152
    -1.9986  -1.9758  -1.9541  -1.9369  -1.9311  -1.9015  -1.8804  -1.8700
    -1.8274  -1.8201  -1.7954  -1.7769  -1.7427  -1.6797  -1.6186  -1.4987
    -1.4600  -1.4321  -1.4116  -1.3970  -1.3689  -1.3328  -1.3171  -1.3033
    -1.2736  -1.2606  -1.1520  -1.0038  -0.9923  -0.8978  -0.8634  -0.8583
    -0.7528  -0.7205  -0.6868  -0.6610  -0.6088  -0.5674  -0.4674  -0.4559
    -0.4136  -0.3459  -0.2488  -0.2390  -0.2236  -0.1948  -0.1715  -0.1650
    -0.1069  -0.0686  -0.0319   0.0195   0.0393   0.0617   0.0943   0.1887
     0.2177   0.3315   0.4548   0.4924   0.5180   0.5482   0.6829   0.7369
     0.7813   0.8548   0.9179   0.9379   1.0412   1.0596   1.0910   1.1469
     1.2172   1.2666   1.2826   1.3108   1.3236   2.1607   2.1688   2.2338
     2.2342   3.7970   4.0033   4.2550   4.3280   4.3492   4.3786   4.4009
     4.4332   4.4590   4.5030   4.5342

     the Fermi energy is     3.8759 ev

!    total energy              =   -2975.12443069 Ry
     estimated scf accuracy    <       0.00000006 Ry
     smearing contrib. (-TS)   =      -0.03101900 Ry
     internal energy E=F+TS    =   -2975.09341169 Ry

     The total energy is F=E-TS. E is the sum of the following terms:
     one-electron contribution =  -23510.27278108 Ry
     hartree contribution      =   11853.44552212 Ry
     xc contribution           =    -494.85868110 Ry
     ewald contribution        =    9176.58895996 Ry
     electric field correction =       0.00356842 Ry

     convergence has been achieved in  85 iterations

     Forces acting on atoms (cartesian axes, Ry/au):

     atom    1 type  1   force =     0.00014309   -0.00021090    0.09449882
     atom    2 type  1   force =    -0.00007862    0.00039858   -0.17564583
     atom    3 type  2   force =     0.00003344   -0.00002848   -0.02142982
     atom    4 type  2   force =     0.00000326   -0.00223291    0.05508894
     atom    5 type  2   force =    -0.00782777   -0.00314096    0.00369087
     atom    6 type  2   force =     0.00955027   -0.00256866    0.00358224
     atom    7 type  1   force =     0.00003291   -0.00298545    0.00576877
     atom    8 type  1   force =    -0.00023313    0.00257289    0.00565529
     atom    9 type  2   force =    -0.00035263   -0.00027735    0.00000796
     atom   10 type  2   force =    -0.00116006   -0.00256927   -0.00856837
     atom   11 type  2   force =    -0.00071924   -0.00069730   -0.00014594
     atom   12 type  2   force =     0.00031929   -0.00070246   -0.00006084
     atom   13 type  1   force =     0.00008675    0.00005999    0.00043865
     atom   14 type  1   force =    -0.00015693   -0.00035100    0.00018510
     atom   15 type  2   force =     0.00011975   -0.00040718    0.00006997
     atom   16 type  2   force =     0.00005785   -0.00070459   -0.00029980
     atom   17 type  2   force =     0.00013338    0.00040044   -0.00021541
     atom   18 type  2   force =    -0.00048424    0.00032463   -0.00040930
     atom   19 type  1   force =     0.00032305    0.00050425   -0.00019475
     atom   20 type  1   force =     0.00028365   -0.00056492   -0.00013508
     atom   21 type  2   force =     0.00005579    0.00002552    0.10330236
     atom   22 type  2   force =     0.00002226    0.00088097   -0.00071469
     atom   23 type  2   force =    -0.07175384   -0.00020072   -0.02725333
     atom   24 type  2   force =     0.07158964    0.00024108   -0.02731656
     atom   25 type  1   force =     0.00006414   -0.00034080    0.09388463
     atom   26 type  1   force =    -0.00017021   -0.00123275   -0.17592218
     atom   27 type  2   force =     0.00013745   -0.00024339   -0.02015748
     atom   28 type  2   force =     0.00003635   -0.00055974    0.05061444
     atom   29 type  2   force =    -0.00677936    0.00147420    0.00205472
     atom   30 type  2   force =     0.00847494    0.00182893    0.00196942
     atom   31 type  1   force =     0.00015157    0.00700757   -0.00368571
     atom   32 type  1   force =    -0.00027643   -0.00258112    0.00512019
     atom   33 type  2   force =    -0.00000497    0.00030704   -0.00013825
     atom   34 type  2   force =    -0.00011954    0.00279121   -0.00829152
     atom   35 type  2   force =     0.00025554    0.00067061   -0.00029332
     atom   36 type  2   force =    -0.00100868    0.00054510   -0.00044397
     atom   37 type  1   force =     0.00013174   -0.00043603    0.00014198
     atom   38 type  1   force =    -0.00015534   -0.00009216   -0.00007241
     atom   39 type  2   force =    -0.00008410   -0.00004104    0.00014322
     atom   40 type  2   force =    -0.00047578    0.00012752   -0.00007682
     atom   41 type  2   force =    -0.00017552    0.00007169   -0.00060030
     atom   42 type  2   force =     0.00039726    0.00027544    0.00025594
     atom   43 type  1   force =     0.00040697    0.00034861    0.00018523
     atom   44 type  1   force =    -0.00019928   -0.00033300    0.00004077
     atom   45 type  2   force =     0.00001763   -0.00010972    0.10306241
     atom   46 type  2   force =    -0.07181662   -0.00004030   -0.02731126
     atom   47 type  2   force =     0.07165361    0.00035358   -0.02735122
     atom   48 type  3   force =     0.00095455    0.00000889   -0.00030135
     atom   49 type  4   force =     0.00043150   -0.00000328   -0.00018367
     atom   50 type  5   force =     0.00026296   -0.00037828   -0.00069200
     atom   51 type  5   force =    -0.00119716    0.00027615   -0.00032358
     atom   52 type  3   force =     0.00048919   -0.00202363   -0.00048318
     atom   53 type  5   force =    -0.00149015    0.00059819   -0.00143731
     atom   54 type  5   force =    -0.00007051    0.00260002    0.00079988
     atom   55 type  5   force =     0.00047410    0.00015431    0.00040625
     atom   56 type  2   force =     0.00039881    0.00147392    0.00022304
     atom   57 type  5   force =    -0.00070258   -0.00026396   -0.00103584

     Total force =     0.362700     Total SCF correction =     0.000589
  @ DRIVER MODE: Message from server: STATUS
  @ DRIVER MODE: Message from server: GETFORCE
  @ DRIVER MODE: Returning v,forces,stress,ensemble

     Writing output data file ./calc.save/
  @ DRIVER MODE: Message from server: EXIT
  @ DRIVE MODE: Exiting

     General routines

     Parallel routines

   This run was terminated on:   4:30:27  24Sep2021

   JOB DONE.