     Program PWSCF v.6.7GPU starts on  9Sep2021 at  6:14:41

     R & G space division:  proc/nbgrp/npool/nimage =      10
     Reading input from /storage/home/hcoda1/3/ntian30/research/carbon/CxH_vib/CH2_calc/ads_slab/CH2NNHH_a/out_0025/pw.inp
Warning: card &CELL ignored
Warning: card   CELL_DYNAMICS='IPI', ignored
Warning: card / ignored

     Current dimensions of program PWSCF are:
     Max number of different atomic species (ntypx) = 10
     Max number of k-points (npk) =  40000
     Max angular momentum in pseudopotentials (lmaxx) =  3
     Presently no symmetry can be used with electric field

     Message from routine cell_base_init:
     DEPRECATED: use true lattice parameter, not A to a.u. conversion factor

     IMPORTANT: XC functional enforced from input :
     Exchange-correlation= BEEF-VDW
                           (   1   4  43  14   2   0   0)
     Any further DFT definition will be discarded
     Please, verify this is what you really want

  @ DRIVER MODE: Connecting to
 qe_1139763_2767391.sched-torque.pace.gatech.eduugttm9ai_scratch
  using UNIX socket
  @ DRIVER MODE: Message from server: STATUS
  @ DRIVER MODE: Message from server: INIT
  @ DRIVER MODE: Receiving replica           0          -1
  @ DRIVER MODE: Receiving encoded integer          25
  @ DRIVER MODE:  SCF:  T  FORCE:  T  STRESS:  F  VC:  F  ENSEMBLE:  F
  @ DRIVER MODE:  SCF:  T  FORCE:  T  STRESS:  F  VC:  F  ENSEMBLE:  F

     Using Slab Decomposition

     bravais-lattice index     =            0
     lattice parameter (alat)  =       1.8897  a.u.
     unit-cell volume          =    6658.9804 (a.u.)^3
     number of atoms/cell      =           54
     number of atomic types    =            5
     number of electrons       =       396.00
     number of Kohn-Sham states=          208
     kinetic-energy cutoff     =      29.3995  Ry
     charge density cutoff     =     293.9946  Ry
     scf convergence threshold =      7.3E-08
     mixing beta               =       0.0500
     number of iterations used =            8  plain     mixing
     Exchange-correlation= BEEF-VDW
                           (   1   4  43  14   2   0   0)

     celldm(1)=   1.889726  celldm(2)=   0.000000  celldm(3)=   0.000000
     celldm(4)=   0.000000  celldm(5)=   0.000000  celldm(6)=   0.000000

     crystal axes: (cart. coord. in units of alat)
               a(1) = (   6.579727   0.000000   0.000000 )
               a(2) = (  -0.000775   5.961596   0.000000 )
               a(3) = (   0.000000   0.000000  25.155947 )

     reciprocal axes: (cart. coord. in units 2 pi/alat)
               b(1) = (  0.151982  0.000020  0.000000 )
               b(2) = (  0.000000  0.167740  0.000000 )
               b(3) = (  0.000000  0.000000  0.039752 )

     PseudoPot. # 1 for Ti read from file:
     /storage/coda1/p-amedford6/0/shared/rich_project_chbe-medford/medford-share/data/pseudos_module/espresso/nninc/pbe/van/Ti.UPF
     MD5 check sum: 8e4df49b7f0d34bbd5052bf3f5ea0213
     Pseudo is Ultrasoft, Zval = 12.0
     Generated by new atomic code, or converted to UPF format
     Using radial grid of  851 points,  6 beta functions with:
                l(1) =   0
                l(2) =   0
                l(3) =   1
                l(4) =   1
                l(5) =   2
                l(6) =   2
     Q(r) pseudized with  8 coefficients,  rinner =    1.000   1.000   1.000
                                                       1.000   1.000

     PseudoPot. # 2 for O  read from file:
     /storage/coda1/p-amedford6/0/shared/rich_project_chbe-medford/medford-share/data/pseudos_module/espresso/nninc/pbe/van/O.UPF
     MD5 check sum: 78c19812648e8988a0fe644b0f25305e
     Pseudo is Ultrasoft, Zval =  6.0
     Generated by new atomic code, or converted to UPF format
     Using radial grid of  737 points,  4 beta functions with:
                l(1) =   0
                l(2) =   0
                l(3) =   1
                l(4) =   1
     Q(r) pseudized with  8 coefficients,  rinner =    0.800   0.800   0.800

     PseudoPot. # 3 for N  read from file:
     /storage/coda1/p-amedford6/0/shared/rich_project_chbe-medford/medford-share/data/pseudos_module/espresso/nninc/pbe/van/N.UPF
     MD5 check sum: 90d10febe142ad51ac9d5be1deb811c4
     Pseudo is Ultrasoft, Zval =  5.0
     Generated by new atomic code, or converted to UPF format
     Using radial grid of  729 points,  4 beta functions with:
                l(1) =   0
                l(2) =   0
                l(3) =   1
                l(4) =   1
     Q(r) pseudized with  8 coefficients,  rinner =    0.800   0.800   0.800

     PseudoPot. # 4 for C  read from file:
     /storage/coda1/p-amedford6/0/shared/rich_project_chbe-medford/medford-share/data/pseudos_module/espresso/nninc/pbe/van/C.UPF
     MD5 check sum: 1a69bf6b8db32088f5b2163dbdb77a27
     Pseudo is Ultrasoft, Zval =  4.0
     Generated by new atomic code, or converted to UPF format
     Using radial grid of  721 points,  4 beta functions with:
                l(1) =   0
                l(2) =   0
                l(3) =   1
                l(4) =   1
     Q(r) pseudized with  8 coefficients,  rinner =    0.800   0.800   0.800

     PseudoPot. # 5 for H  read from file:
     /storage/coda1/p-amedford6/0/shared/rich_project_chbe-medford/medford-share/data/pseudos_module/espresso/nninc/pbe/van/H.UPF
     MD5 check sum: b5ee9d7bfd3a09ee7748110bda690ff7
     Pseudo is Ultrasoft, Zval =  1.0
     Generated by new atomic code, or converted to UPF format
     Using radial grid of  615 points,  1 beta functions with:
                l(1) =   0
     Q(r) pseudized with  8 coefficients,  rinner =    0.800

     atomic species   valence    mass     pseudopotential
        Ti1           12.00    47.86700     Ti( 1.00)
        O1             6.00    15.99900     O ( 1.00)
        N1             5.00    14.00700     N ( 1.00)
        C1             4.00    12.01100     C ( 1.00)
        H1             1.00     1.00800     H ( 1.00)

     No symmetry found

   Cartesian axes

     site n.     atom                  positions (alat units)
         1           Ti1 tau(   1) = (   0.0004258   2.9801865   6.0000000  )
         2           Ti1 tau(   2) = (   3.2906075   1.4906267   6.0002472  )
         3           O1  tau(   3) = (   0.0006271   0.0005054   7.9858123  )
         4           O1  tau(   4) = (   3.2906025   0.0005020   7.3038282  )
         5           O1  tau(   5) = (   4.5942328   1.4918067   9.2879030  )
         6           O1  tau(   6) = (   1.9868534   1.4903216   9.2879459  )
         7           Ti1 tau(   7) = (   3.2907910   2.8959150   9.1758416  )
         8           Ti1 tau(   8) = (   0.0015273   1.4827037   9.2680791  )
         9           O1  tau(   9) = (   3.2741875   5.9357071  11.3735532  )
        10           O1  tau(  10) = (   0.0116148   5.9584955  10.6183126  )
        11           O1  tau(  11) = (   1.2759687   1.4857368  12.6615302  )
        12           O1  tau(  12) = (   5.2764777   1.4850508  12.6403612  )
        13           Ti1 tau(  13) = (   6.5724762   2.9646551  12.5117882  )
        14           Ti1 tau(  14) = (   3.2886223   1.4652571  12.5194246  )
        15           O1  tau(  15) = (   6.5416971   0.0664024  14.6986244  )
        16           O1  tau(  16) = (   3.2828258   5.9593040  13.9967703  )
        17           O1  tau(  17) = (   4.5136565   1.4796660  16.2299008  )
        18           O1  tau(  18) = (   2.0038615   1.4742267  16.2123189  )
        19           Ti1 tau(  19) = (   3.2480181   2.9445974  15.7466143  )
        20           Ti1 tau(  20) = (   6.5118905   1.3801257  16.1190456  )
        21           O1  tau(  21) = (   3.2904802   0.0005063   4.7018136  )
        22           O1  tau(  22) = (   6.5538845   5.8109167  17.2256470  )
        23           O1  tau(  23) = (   1.3043587   1.4918075   6.0039043  )
        24           O1  tau(  24) = (   5.2767064   1.4903225   6.0039473  )
        25           Ti1 tau(  25) = (   0.0000382   5.9609847   6.0000000  )
        26           Ti1 tau(  26) = (   3.2902200   4.4714249   6.0002472  )
        27           O1  tau(  27) = (   0.0002396   2.9813036   7.9858123  )
        28           O1  tau(  28) = (   3.2902150   2.9813002   7.3038282  )
        29           O1  tau(  29) = (   4.5938453   4.4726049   9.2879030  )
        30           O1  tau(  30) = (   1.9864658   4.4711199   9.2879459  )
        31           Ti1 tau(  31) = (   3.2891106   5.8743827   9.1763621  )
        32           Ti1 tau(  32) = (   0.0006254   4.4649316   9.2693709  )
        33           O1  tau(  33) = (   3.2754078   2.9701464  11.3677572  )
        34           O1  tau(  34) = (   0.0092240   2.9805883  10.6323155  )
        35           O1  tau(  35) = (   1.2711598   4.4556272  12.7031535  )
        36           O1  tau(  36) = (   5.2783420   4.4558858  12.6781970  )
        37           Ti1 tau(  37) = (   0.0002938   5.9583472  12.5066983  )
        38           Ti1 tau(  38) = (   3.2916940   4.4447674  12.5292973  )
        39           O1  tau(  39) = (   6.5347695   2.9176514  14.9891124  )
        40           O1  tau(  40) = (   3.2818703   2.9467213  13.9608579  )
        41           O1  tau(  41) = (   4.5039121   4.4250859  16.1805084  )
        42           O1  tau(  42) = (   2.0002864   4.4376668  16.1101511  )
        43           Ti1 tau(  43) = (   3.2613398   5.9375382  15.7939200  )
        44           Ti1 tau(  44) = (   0.0097882   4.6113729  15.8292928  )
        45           O1  tau(  45) = (   3.2900926   2.9813045   4.7018136  )
        46           O1  tau(  46) = (   1.3039711   4.4726057   6.0039043  )
        47           O1  tau(  47) = (   5.2763189   4.4711207   6.0039473  )
        48           N1  tau(  48) = (   6.5527080   2.6566917  18.2311642  )
        49           C1  tau(  49) = (   0.9950107   2.5313988  18.9921798  )
        50           H1  tau(  50) = (   0.9966315   2.9146593  20.0110098  )
        51           H1  tau(  51) = (   1.8622571   2.0164067  18.6108951  )
        52           N1  tau(  52) = (   5.3994651   3.2293427  18.7544413  )
        53           H1  tau(  53) = (   5.6216840   3.8708726  19.5154782  )
        54           H1  tau(  54) = (   4.9168071   3.7283298  18.0160565  )

     number of k points=    10  Fermi-Dirac smearing, width (Ry)=  0.0073
                       cart. coord. in units 2pi/alat
        k(    1) = (   0.0000000   0.0000000   0.0000000), wk =   0.1250000
        k(    2) = (   0.0000000   0.0419351   0.0000000), wk =   0.2500000
        k(    3) = (   0.0000000  -0.0838702   0.0000000), wk =   0.1250000
        k(    4) = (   0.0379955   0.0000049   0.0000000), wk =   0.2500000
        k(    5) = (   0.0379955   0.0419400   0.0000000), wk =   0.2500000
        k(    6) = (   0.0379955  -0.0838652   0.0000000), wk =   0.2500000
        k(    7) = (   0.0379955  -0.0419301   0.0000000), wk =   0.2500000
        k(    8) = (  -0.0759910  -0.0000099   0.0000000), wk =   0.1250000
        k(    9) = (  -0.0759910   0.0419252   0.0000000), wk =   0.2500000
        k(   10) = (  -0.0759910  -0.0838800   0.0000000), wk =   0.1250000

     Initial potential from superposition of free atoms

     starting charge  379.99915, renormalised to  396.00000

     negative rho (up, down):  1.579E-02 0.000E+00

     %%%%%%%%%%%%%%%%%%%%%%%%%%%%%%%%%%%%%%%%%%%%%%%%%%%%%%%%%%%%%%%%%%%%%%%%
     %                                                                      %
     % You are using vdW-DF, which was implemented by the Thonhauser group. %
     % Please cite the following two papers that made this development      %
     % possible and the two reviews that describe the various versions:     %
     %                                                                      %
     %   T. Thonhauser et al., PRL 115, 136402 (2015).                      %
     %   T. Thonhauser et al., PRB 76, 125112 (2007).                       %
     %   K. Berland et al., Rep. Prog. Phys. 78, 066501 (2015).             %
     %   D.C. Langreth et al., J. Phys.: Condens. Matter 21, 084203 (2009). %
     %                                                                      %
     %                                                                      %
     % If you are calculating the stress with vdW-DF, please also cite:     %
     %                                                                      %
     %   R. Sabatini et al., J. Phys.: Condens. Matter 24, 424209 (2012).   %
     %                                                                      %
     %%%%%%%%%%%%%%%%%%%%%%%%%%%%%%%%%%%%%%%%%%%%%%%%%%%%%%%%%%%%%%%%%%%%%%%%

     Adding external electric field

     Computed dipole along edir(3) :
        Dipole               -9.9798 Ry au,        -25.3661 Debye
        Dipole field         -0.0188 Ry au,

        Potential amp.        1.7458 Ry
        Total length         46.3494 bohr

     Starting wfcs are  300 atomic wfcs
  @ DRIVER MODE: Message from server: STATUS
  @ DRIVER MODE: Message from server: POSDATA
  @ DRIVER MODE: Reading and sharing cell
  @ DRIVER MODE: Reading and sharing positions
  @ DRIVER MODE: Received positions

     Self-consistent Calculation

     iteration #  1     ecut=    29.40 Ry     beta= 0.05
     Davidson diagonalization with overlap
     c_bands:  1 eigenvalues not converged
     c_bands:  2 eigenvalues not converged
     c_bands:  2 eigenvalues not converged
     c_bands:  1 eigenvalues not converged
     c_bands:  3 eigenvalues not converged
     c_bands:  2 eigenvalues not converged
     c_bands:  3 eigenvalues not converged
     c_bands:  2 eigenvalues not converged
     c_bands:  1 eigenvalues not converged
     c_bands:  1 eigenvalues not converged
     ethr =  1.00E-05,  avg # of iterations = 20.0

[...]

     total energy              =   -2515.82358152 Ry
     estimated scf accuracy    <    4740.86361327 Ry

     iteration #  2     ecut=    29.40 Ry     beta= 0.05
     Davidson diagonalization with overlap
     ethr =  1.00E-02,  avg # of iterations = 23.6

[...]

     iteration # 72     ecut=    29.40 Ry     beta= 0.05
     Davidson diagonalization with overlap
     c_bands:  1 eigenvalues not converged
     c_bands:  1 eigenvalues not converged
     ethr =  4.49E-10,  avg # of iterations = 16.5

[...]

     total energy              =   -2940.36654310 Ry
     estimated scf accuracy    <       0.00000008 Ry

     iteration # 78     ecut=    29.40 Ry     beta= 0.05
     Davidson diagonalization with overlap
     ethr =  2.06E-11,  avg # of iterations = 12.6

     negative rho (up, down):  1.644E-02 0.000E+00

     Adding external electric field

     Computed dipole along edir(3) :
        Dipole                1.2652 Ry au,          3.2159 Debye
        Dipole field          0.0024 Ry au,

        Potential amp.       -0.2213 Ry
        Total length         46.3494 bohr

     End of self-consistent calculation

          k = 0.0000 0.0000 0.0000 ( 18029 PWs)   bands (ev):

   -55.4178 -55.3811 -55.3698 -55.3357 -55.2969 -55.2930 -55.2866 -55.2624
   -55.2356 -55.2194 -55.2013 -55.2009 -55.1675 -55.0498 -54.3973 -54.3633
   -31.9869 -31.8622 -31.8182 -31.7851 -31.7311 -31.7253 -31.7204 -31.7066
   -31.6589 -31.6512 -31.6280 -31.6268 -31.6147 -31.5880 -31.5729 -31.5676
   -31.5550 -31.5545 -31.5333 -31.5268 -31.5221 -31.5119 -31.4836 -31.4743
   -31.4663 -31.4633 -31.4381 -31.4278 -31.4268 -31.4199 -31.4185 -31.3997
   -31.3988 -31.3935 -31.3862 -31.3837 -31.3496 -31.3364 -31.3293 -31.3123
   -31.2714 -31.2140 -30.8066 -30.7126 -30.6906 -30.6230 -30.5363 -30.4253
   -18.5218 -16.2494 -15.9806 -15.8379 -15.7137 -15.6150 -15.4903 -15.4680
   -15.3407 -15.2558 -15.1424 -15.0970 -15.0868 -15.0832 -15.0503 -15.0228
   -14.9593 -14.9547 -14.9369 -14.9107 -14.8999 -14.8569 -14.8537 -14.8123
   -14.7918 -14.7895 -14.6633 -14.5745 -14.5041 -14.1801 -13.6933 -12.9000
   -12.7826  -8.7232  -6.4810  -6.0327  -4.0170  -3.5903  -3.4344  -3.3764
    -3.3363  -3.3096  -3.1857  -3.1601  -3.0230  -2.8257  -2.7764  -2.6874
    -2.6252  -2.6167  -2.5976  -2.4168  -2.4088  -2.3524  -2.3022  -2.2607
    -2.2381  -2.2241  -2.2050  -2.1796  -2.1690  -2.1590  -1.9854  -1.9690
    -1.8990  -1.8251  -1.8154  -1.7651  -1.7442  -1.7131  -1.7055  -1.6975
    -1.6521  -1.6322  -1.6026  -1.5539  -1.4289  -1.3374  -1.3051  -1.2221
    -1.0975  -1.0531  -1.0010  -0.9978  -0.9049  -0.8993  -0.8798  -0.7952
    -0.7618  -0.7111  -0.6398  -0.5714  -0.5145  -0.4562  -0.4087  -0.3985
    -0.3436  -0.2265  -0.2011  -0.1823  -0.1600  -0.0397  -0.0211   0.0188
     0.0936   0.1239   0.1247   0.2413   0.2677   0.3252   0.3293   0.4067
     0.4668   0.5117   0.5202   0.5397   0.5688   0.5718   0.6452   0.6595
     0.6898   0.7590   0.8070   0.9180   1.1482   1.1840   1.1971   1.5301
     1.5320   1.6254   1.8091   2.2012   2.2493   3.6814   3.7514   3.8260
     3.8323   3.8508   3.9189   4.1555   4.1738   4.1817   4.1871   4.2302

[...]

          k = 0.0380-0.0419 0.0000 ( 17876 PWs)   bands (ev):

[...]

          k =-0.0760-0.0000 0.0000 ( 17886 PWs)   bands (ev):

[...]

          k =-0.0760-0.0839 0.0000 ( 17948 PWs)   bands (ev):

   -55.4031 -55.3956 -55.3528 -55.3525 -55.2878 -55.2861 -55.2814 -55.2778
   -55.2235 -55.2200 -55.2163 -55.1846 -55.1842 -55.0510 -54.3804 -54.3801
   -31.7932 -31.7877 -31.7453 -31.6937 -31.6801 -31.6774 -31.6772 -31.6442
   -31.6441 -31.6279 -31.6188 -31.6141 -31.6096 -31.5627 -31.5554 -31.5532
   -31.5508 -31.5490 -31.5437 -31.5383 -31.5230 -31.5096 -31.4936 -31.4932
   -31.4890 -31.4750 -31.4730 -31.4724 -31.4720 -31.4701 -31.4533 -31.4492
   -31.4423 -31.4331 -31.4297 -31.4149 -31.4139 -31.4103 -31.3652 -31.3649
   -31.2923 -31.2750 -30.7033 -30.7031 -30.6192 -30.6191 -30.5798 -30.5795
   -18.5192 -15.7110 -15.6786 -15.6212 -15.4409 -15.4132 -15.4065 -15.3874
   -15.2572 -15.2401 -15.2094 -15.1802 -15.1488 -15.1240 -15.1198 -15.1022
   -15.0321 -15.0212 -15.0131 -14.9955 -14.9302 -14.9263 -14.9174 -14.9126
   -14.8658 -14.8630 -14.7677 -14.7662 -14.6649 -14.5492 -13.6993 -12.8841
   -12.8840  -8.7043  -6.4550  -6.0473  -4.0280  -3.2407  -2.9448  -2.8781
    -2.8490  -2.6527  -2.6290  -2.5864  -2.5306  -2.4508  -2.4249  -2.4180
    -2.4093  -2.3379  -2.3268  -2.2767  -2.2680  -2.2491  -2.2337  -2.2230
    -2.1934  -2.1672  -2.1438  -2.1349  -2.1235  -2.0693  -2.0590  -2.0411
    -2.0108  -1.9911  -1.9823  -1.9653  -1.8659  -1.7819  -1.7519  -1.7249
    -1.6213  -1.6170  -1.5359  -1.5200  -1.4886  -1.4486  -1.4352  -1.4146
    -1.2328  -1.2031  -1.1718  -1.1595  -1.1510  -1.0110  -0.9979  -0.9414
    -0.9006  -0.8947  -0.7862  -0.7601  -0.7368  -0.6600  -0.6249  -0.5903
    -0.5394  -0.4341  -0.4164  -0.4058  -0.3728  -0.3687  -0.3126  -0.3006
    -0.2255  -0.1834  -0.1505  -0.1366  -0.0937   0.0942   0.1179   0.1329
     0.2759   0.3318   0.4244   0.5254   0.5356   0.5908   0.6287   0.6957
     0.7566   0.8001   0.8658   0.8912   0.8930   0.9716   0.9893   1.0427
     1.0446   1.9822   1.9829   2.0691   2.0695   3.8242   3.9323   3.9439
     3.9844   4.0640   4.1249   4.1977   4.2262   4.2649   4.2674   4.3335

     the Fermi energy is     3.7433 ev

!    total energy              =   -2940.36655827 Ry
     estimated scf accuracy    <       0.00000006 Ry
     smearing contrib. (-TS)   =      -0.03729233 Ry
     internal energy E=F+TS    =   -2940.32926594 Ry

     The total energy is F=E-TS. E is the sum of the following terms:
     one-electron contribution =  -23758.77464353 Ry
     hartree contribution      =   11970.73194343 Ry
     xc contribution           =    -486.11059703 Ry
     ewald contribution        =    9333.82101026 Ry
     electric field correction =       0.00302093 Ry

     convergence has been achieved in  78 iterations

     Forces acting on atoms (cartesian axes, Ry/au):

     atom    1 type  1   force =     0.00006666   -0.00013647    0.09330363
     atom    2 type  1   force =    -0.00004807   -0.00026596   -0.17805206
     atom    3 type  2   force =     0.00002279   -0.00015488   -0.02025322
     atom    4 type  2   force =     0.00001039   -0.00195413    0.05850388
     atom    5 type  2   force =    -0.01066253   -0.00127420    0.00870081
     atom    6 type  2   force =     0.01175894   -0.00062120    0.00682162
     atom    7 type  1   force =    -0.00091062    0.00298624   -0.01444386
     atom    8 type  1   force =     0.00063984   -0.00049903   -0.00371197
     atom    9 type  2   force =     0.00014336    0.00010372    0.00008962
     atom   10 type  2   force =    -0.00209262   -0.00121369    0.00063659
     atom   11 type  2   force =     0.00007646    0.00022002   -0.00012869
     atom   12 type  2   force =     0.00057555    0.00029012   -0.00007499
     atom   13 type  1   force =    -0.00014496    0.00028648    0.00011245
     atom   14 type  1   force =     0.00013241    0.00045754   -0.00037658
     atom   15 type  2   force =     0.00003918    0.00041781   -0.00010278
     atom   16 type  2   force =     0.00041017    0.00017575   -0.00034456
     atom   17 type  2   force =     0.00022859   -0.00039343   -0.00047326
     atom   18 type  2   force =     0.00018070   -0.00051418    0.00016485
     atom   19 type  1   force =    -0.00080066   -0.00003099    0.00023275
     atom   20 type  1   force =     0.00009754    0.00009504   -0.00006875
     atom   21 type  2   force =     0.00009700    0.00000382    0.10393404
     atom   22 type  2   force =    -0.00015776    0.00006058    0.00024208
     atom   23 type  2   force =    -0.07040185   -0.00011823   -0.02689576
     atom   24 type  2   force =     0.07033748    0.00033805   -0.02693308
     atom   25 type  1   force =     0.00008971   -0.00021582    0.09285561
     atom   26 type  1   force =    -0.00005149   -0.00033741   -0.17805583
     atom   27 type  2   force =     0.00011274   -0.00037227   -0.01931155
     atom   28 type  2   force =     0.00004415   -0.00165902    0.05792499
     atom   29 type  2   force =    -0.01064908   -0.00127978    0.00802946
     atom   30 type  2   force =     0.01165553   -0.00088677    0.00608940
     atom   31 type  1   force =    -0.00089659    0.00489719   -0.01543110
     atom   32 type  1   force =     0.00083605    0.00020944   -0.00391937
     atom   33 type  2   force =     0.00010307    0.00046298    0.00021744
     atom   34 type  2   force =    -0.00177094    0.00108956    0.00068854
     atom   35 type  2   force =     0.00031495    0.00006130    0.00007169
     atom   36 type  2   force =     0.00026570   -0.00025122    0.00018146
     atom   37 type  1   force =    -0.00036579    0.00002178   -0.00007865
     atom   38 type  1   force =    -0.00023361    0.00049796   -0.00014747
     atom   39 type  2   force =     0.00050764   -0.00070615   -0.00009370
     atom   40 type  2   force =    -0.00016317    0.00006567   -0.00002683
     atom   41 type  2   force =     0.00001457   -0.00002270   -0.00038919
     atom   42 type  2   force =     0.00018243    0.00008656    0.00000873
     atom   43 type  1   force =    -0.00010562   -0.00018065    0.00012808
     atom   44 type  1   force =     0.00003641    0.00001354   -0.00014148
     atom   45 type  2   force =     0.00010717   -0.00003636    0.10391058
     atom   46 type  2   force =    -0.07041382   -0.00005973   -0.02689567
     atom   47 type  2   force =     0.07036829    0.00036507   -0.02690155
     atom   48 type  3   force =    -0.00671438    0.00142990   -0.00059779
     atom   49 type  4   force =    -0.00196774    0.00085677    0.00051077
     atom   50 type  5   force =     0.00064282   -0.00024430    0.00065589
     atom   51 type  5   force =    -0.00023452    0.00000905   -0.00061902
     atom   52 type  3   force =     0.01539238   -0.00514249    0.00770995
     atom   53 type  5   force =    -0.00291636   -0.00141002   -0.00173453
     atom   54 type  5   force =    -0.00378848    0.00447914   -0.00552159

     Total force =     0.366503     Total SCF correction =     0.000329
  @ DRIVER MODE: Message from server: STATUS
  @ DRIVER MODE: Message from server: GETFORCE
  @ DRIVER MODE: Returning v,forces,stress,ensemble

     Writing output data file ./calc.save/
  @ DRIVER MODE: Message from server: EXIT
  @ DRIVE MODE: Exiting

     General routines

     Parallel routines

   This run was terminated on:   6:35:58   9Sep2021

   JOB DONE.