     Program PWSCF v.6.7GPU starts on 24Aug2021 at 16:32:22

     R & G space division:  proc/nbgrp/npool/nimage =      72
     Reading input from /storage/home/hcoda1/3/ntian30/research/carbon/CH2_vib/ads_slab/CH2NH_a/out_0019/pw.inp
Warning: card &CELL ignored
Warning: card   CELL_DYNAMICS='IPI', ignored
Warning: card / ignored

     Current dimensions of program PWSCF are:
     Max number of different atomic species (ntypx) = 10
     Max number of k-points (npk) =  40000
     Max angular momentum in pseudopotentials (lmaxx) =  3
     Presently no symmetry can be used with electric field

     Message from routine cell_base_init:
     DEPRECATED: use true lattice parameter, not A to a.u. conversion factor

     IMPORTANT: XC functional enforced from input :
     Exchange-correlation= BEEF-VDW
                           (   1   4  43  14   2   0   0)
     Any further DFT definition will be discarded
     Please, verify this is what you really want

  @ DRIVER MODE: Connecting to
 qe_1139763_2641438.sched-torque.pace.gatech.edu3njxkg8u_scratch
  using UNIX socket
  @ DRIVER MODE: Message from server: STATUS
  @ DRIVER MODE: Message from server: INIT
  @ DRIVER MODE: Receiving replica           0          -1
  @ DRIVER MODE: Receiving encoded integer          25
  @ DRIVER MODE:  SCF:  T  FORCE:  T  STRESS:  F  VC:  F  ENSEMBLE:  F
  @ DRIVER MODE:  SCF:  T  FORCE:  T  STRESS:  F  VC:  F  ENSEMBLE:  F

     Using Slab Decomposition

     bravais-lattice index     =            0
     lattice parameter (alat)  =       1.8897  a.u.
     unit-cell volume          =    6658.9804 (a.u.)^3
     number of atoms/cell      =           52
     number of atomic types    =            5
     number of electrons       =       390.00
     number of Kohn-Sham states=          205
     kinetic-energy cutoff     =      29.3995  Ry
     charge density cutoff     =     293.9946  Ry
     scf convergence threshold =      7.3E-08
     mixing beta               =       0.0500
     number of iterations used =            8  plain     mixing
     Exchange-correlation= BEEF-VDW
                           (   1   4  43  14   2   0   0)

     celldm(1)=   1.889726  celldm(2)=   0.000000  celldm(3)=   0.000000
     celldm(4)=   0.000000  celldm(5)=   0.000000  celldm(6)=   0.000000

     crystal axes: (cart. coord. in units of alat)
               a(1) = (   6.579727   0.000000   0.000000 )
               a(2) = (  -0.000775   5.961596   0.000000 )
               a(3) = (   0.000000   0.000000  25.155947 )

     reciprocal axes: (cart. coord. in units 2 pi/alat)
               b(1) = (  0.151982  0.000020  0.000000 )
               b(2) = (  0.000000  0.167740  0.000000 )
               b(3) = (  0.000000  0.000000  0.039752 )

     PseudoPot. # 1 for Ti read from file:
     /storage/coda1/p-amedford6/0/shared/rich_project_chbe-medford/medford-share/data/pseudos_module/espresso/nninc/pbe/van/Ti.UPF
     MD5 check sum: 8e4df49b7f0d34bbd5052bf3f5ea0213
     Pseudo is Ultrasoft, Zval = 12.0
     Generated by new atomic code, or converted to UPF format
     Using radial grid of  851 points,  6 beta functions with:
                l(1) =   0
                l(2) =   0
                l(3) =   1
                l(4) =   1
                l(5) =   2
                l(6) =   2
     Q(r) pseudized with  8 coefficients,  rinner =    1.000   1.000   1.000
                                                       1.000   1.000

     PseudoPot. # 2 for O  read from file:
     /storage/coda1/p-amedford6/0/shared/rich_project_chbe-medford/medford-share/data/pseudos_module/espresso/nninc/pbe/van/O.UPF
     MD5 check sum: 78c19812648e8988a0fe644b0f25305e
     Pseudo is Ultrasoft, Zval =  6.0
     Generated by new atomic code, or converted to UPF format
     Using radial grid of  737 points,  4 beta functions with:
                l(1) =   0
                l(2) =   0
                l(3) =   1
                l(4) =   1
     Q(r) pseudized with  8 coefficients,  rinner =    0.800   0.800   0.800

     PseudoPot. # 3 for N  read from file:
     /storage/coda1/p-amedford6/0/shared/rich_project_chbe-medford/medford-share/data/pseudos_module/espresso/nninc/pbe/van/N.UPF
     MD5 check sum: 90d10febe142ad51ac9d5be1deb811c4
     Pseudo is Ultrasoft, Zval =  5.0
     Generated by new atomic code, or converted to UPF format
     Using radial grid of  729 points,  4 beta functions with:
                l(1) =   0
                l(2) =   0
                l(3) =   1
                l(4) =   1
     Q(r) pseudized with  8 coefficients,  rinner =    0.800   0.800   0.800

     PseudoPot. # 4 for C  read from file:
     /storage/coda1/p-amedford6/0/shared/rich_project_chbe-medford/medford-share/data/pseudos_module/espresso/nninc/pbe/van/C.UPF
     MD5 check sum: 1a69bf6b8db32088f5b2163dbdb77a27
     Pseudo is Ultrasoft, Zval =  4.0
     Generated by new atomic code, or converted to UPF format
     Using radial grid of  721 points,  4 beta functions with:
                l(1) =   0
                l(2) =   0
                l(3) =   1
                l(4) =   1
     Q(r) pseudized with  8 coefficients,  rinner =    0.800   0.800   0.800

     PseudoPot. # 5 for H  read from file:
     /storage/coda1/p-amedford6/0/shared/rich_project_chbe-medford/medford-share/data/pseudos_module/espresso/nninc/pbe/van/H.UPF
     MD5 check sum: b5ee9d7bfd3a09ee7748110bda690ff7
     Pseudo is Ultrasoft, Zval =  1.0
     Generated by new atomic code, or converted to UPF format
     Using radial grid of  615 points,  1 beta functions with:
                l(1) =   0
     Q(r) pseudized with  8 coefficients,  rinner =    0.800

     atomic species   valence    mass     pseudopotential
        Ti1           12.00    47.86700     Ti( 1.00)
        O1             6.00    15.99900     O ( 1.00)
        N1             5.00    14.00700     N ( 1.00)
        C1             4.00    12.01100     C ( 1.00)
        H1             1.00     1.00800     H ( 1.00)

     No symmetry found

   Cartesian axes

     site n.     atom                  positions (alat units)
         1           Ti1 tau(   1) = (   0.0004258   2.9801865   6.0000000  )
         2           Ti1 tau(   2) = (   3.2906075   1.4906267   6.0002472  )
         3           O1  tau(   3) = (   0.0006271   0.0005054   7.9858123  )
         4           O1  tau(   4) = (   3.2906025   0.0005020   7.3038282  )
         5           O1  tau(   5) = (   4.5942328   1.4918067   9.2879030  )
         6           O1  tau(   6) = (   1.9868534   1.4903216   9.2879459  )
         7           Ti1 tau(   7) = (   3.2907910   2.8959150   9.1758416  )
         8           Ti1 tau(   8) = (   0.0015273   1.4827037   9.2680791  )
         9           O1  tau(   9) = (   3.2859541   5.9290403  11.3715426  )
        10           O1  tau(  10) = (   0.0116148   5.9584955  10.6183126  )
        11           O1  tau(  11) = (   1.2917987   1.4688796  12.6526629  )
        12           O1  tau(  12) = (   5.2888266   1.4686376  12.6403033  )
        13           Ti1 tau(  13) = (   0.0074927   2.9495069  12.5376589  )
        14           Ti1 tau(  14) = (   3.2957121   1.4606513  12.5174744  )
        15           O1  tau(  15) = (   6.5702453   0.0264740  14.6787910  )
        16           O1  tau(  16) = (   3.3001739   5.9406727  13.9930656  )
        17           O1  tau(  17) = (   4.5367710   1.4643441  16.2106543  )
        18           O1  tau(  18) = (   2.0349547   1.4576396  16.1973481  )
        19           Ti1 tau(  19) = (   3.2821410   2.9383233  15.7467721  )
        20           Ti1 tau(  20) = (   6.5624771   1.3975196  16.0657228  )
        21           O1  tau(  21) = (   3.2904802   0.0005063   4.7018136  )
        22           O1  tau(  22) = (   0.0049924   5.8117904  17.2112648  )
        23           O1  tau(  23) = (   1.3043587   1.4918075   6.0039043  )
        24           O1  tau(  24) = (   5.2767064   1.4903225   6.0039473  )
        25           Ti1 tau(  25) = (   0.0000382   5.9609847   6.0000000  )
        26           Ti1 tau(  26) = (   3.2902200   4.4714249   6.0002472  )
        27           O1  tau(  27) = (   0.0002396   2.9813036   7.9858123  )
        28           O1  tau(  28) = (   3.2902150   2.9813002   7.3038282  )
        29           O1  tau(  29) = (   4.5938453   4.4726049   9.2879030  )
        30           O1  tau(  30) = (   1.9864658   4.4711199   9.2879459  )
        31           Ti1 tau(  31) = (   3.2891106   5.8743827   9.1763621  )
        32           Ti1 tau(  32) = (   0.0006254   4.4649316   9.2693709  )
        33           O1  tau(  33) = (   3.2878059   2.9597088  11.3652031  )
        34           O1  tau(  34) = (   0.0092240   2.9805883  10.6323155  )
        35           O1  tau(  35) = (   1.2887225   4.4431869  12.6829221  )
        36           O1  tau(  36) = (   5.2901277   4.4428847  12.6690855  )
        37           Ti1 tau(  37) = (   0.0035388   5.9380168  12.5099366  )
        38           Ti1 tau(  38) = (   3.2962120   4.4389810  12.5267566  )
        39           O1  tau(  39) = (   6.5655450   2.9014274  14.9049457  )
        40           O1  tau(  40) = (   3.2937888   2.9365130  13.9572806  )
        41           O1  tau(  41) = (   4.5374039   4.4072578  16.1608974  )
        42           O1  tau(  42) = (   2.0345115   4.4188705  16.1151926  )
        43           Ti1 tau(  43) = (   3.2925710   5.9161036  15.7896908  )
        44           Ti1 tau(  44) = (   0.0121651   4.6006060  15.8502786  )
        45           O1  tau(  45) = (   3.2900926   2.9813045   4.7018136  )
        46           O1  tau(  46) = (   1.3039711   4.4726057   6.0039043  )
        47           O1  tau(  47) = (   5.2763189   4.4711207   6.0039473  )
        48           N1  tau(  48) = (   6.5581919   2.6818180  17.9522317  )
        49           C1  tau(  49) = (   0.8403426   2.5546117  18.8965076  )
        50           H1  tau(  50) = (   0.6793733   2.9585088  19.8916666  )
        51           H1  tau(  51) = (   1.7484391   2.0155774  18.6961775  )
        52           H1  tau(  52) = (   5.7198555   3.1867788  18.2393814  )

     number of k points=    10  Fermi-Dirac smearing, width (Ry)=  0.0073
                       cart. coord. in units 2pi/alat
        k(    1) = (   0.0000000   0.0000000   0.0000000), wk =   0.1250000
        k(    2) = (   0.0000000   0.0419351   0.0000000), wk =   0.2500000
        k(    3) = (   0.0000000  -0.0838702   0.0000000), wk =   0.1250000
        k(    4) = (   0.0379955   0.0000049   0.0000000), wk =   0.2500000
        k(    5) = (   0.0379955   0.0419400   0.0000000), wk =   0.2500000
        k(    6) = (   0.0379955  -0.0838652   0.0000000), wk =   0.2500000
        k(    7) = (   0.0379955  -0.0419301   0.0000000), wk =   0.2500000
        k(    8) = (  -0.0759910  -0.0000099   0.0000000), wk =   0.1250000
        k(    9) = (  -0.0759910   0.0419252   0.0000000), wk =   0.2500000
        k(   10) = (  -0.0759910  -0.0838800   0.0000000), wk =   0.1250000

     Initial potential from superposition of free atoms

     starting charge  373.99917, renormalised to  390.00000

     negative rho (up, down):  1.699E-02 0.000E+00

     %%%%%%%%%%%%%%%%%%%%%%%%%%%%%%%%%%%%%%%%%%%%%%%%%%%%%%%%%%%%%%%%%%%%%%%%
     %                                                                      %
     % You are using vdW-DF, which was implemented by the Thonhauser group. %
     % Please cite the following two papers that made this development      %
     % possible and the two reviews that describe the various versions:     %
     %                                                                      %
     %   T. Thonhauser et al., PRL 115, 136402 (2015).                      %
     %   T. Thonhauser et al., PRB 76, 125112 (2007).                       %
     %   K. Berland et al., Rep. Prog. Phys. 78, 066501 (2015).             %
     %   D.C. Langreth et al., J. Phys.: Condens. Matter 21, 084203 (2009). %
     %                                                                      %
     %                                                                      %
     % If you are calculating the stress with vdW-DF, please also cite:     %
     %                                                                      %
     %   R. Sabatini et al., J. Phys.: Condens. Matter 24, 424209 (2012).   %
     %                                                                      %
     %%%%%%%%%%%%%%%%%%%%%%%%%%%%%%%%%%%%%%%%%%%%%%%%%%%%%%%%%%%%%%%%%%%%%%%%

     Adding external electric field

     Computed dipole along edir(3) :
        Dipole               -6.0480 Ry au,        -15.3725 Debye
        Dipole field         -0.0114 Ry au,

        Potential amp.        1.0580 Ry
        Total length         46.3494 bohr

     Starting wfcs are  295 atomic wfcs
  @ DRIVER MODE: Message from server: STATUS
  @ DRIVER MODE: Message from server: POSDATA
  @ DRIVER MODE: Reading and sharing cell
  @ DRIVER MODE: Reading and sharing positions
  @ DRIVER MODE: Received positions

     Self-consistent Calculation

     iteration #  1     ecut=    29.40 Ry     beta= 0.05
     Davidson diagonalization with overlap
     c_bands:  1 eigenvalues not converged
     c_bands:  1 eigenvalues not converged
     ethr =  1.00E-05,  avg # of iterations = 16.8

[...]

     total energy              =   -2758.77266371 Ry
     estimated scf accuracy    <    1760.33413037 Ry

     iteration #  2     ecut=    29.40 Ry     beta= 0.05
     Davidson diagonalization with overlap
     ethr =  1.00E-02,  avg # of iterations = 18.3

[...]

     iteration # 85     ecut=    29.40 Ry     beta= 0.05
     Davidson diagonalization with overlap
     c_bands:  1 eigenvalues not converged
     ethr =  2.44E-11,  avg # of iterations = 14.5

[...]

     total energy              =   -2919.11580791 Ry
     estimated scf accuracy    <       0.00000008 Ry

     iteration # 86     ecut=    29.40 Ry     beta= 0.05
     Davidson diagonalization with overlap
     ethr =  2.14E-11,  avg # of iterations = 12.3

     negative rho (up, down):  1.722E-02 0.000E+00

     Adding external electric field

     Computed dipole along edir(3) :
        Dipole                1.2619 Ry au,          3.2075 Debye
        Dipole field          0.0024 Ry au,

        Potential amp.       -0.2208 Ry
        Total length         46.3494 bohr

     End of self-consistent calculation

          k = 0.0000 0.0000 0.0000 ( 18029 PWs)   bands (ev):

   -55.5458 -55.5091 -55.5075 -55.4734 -55.4381 -55.4210 -55.3836 -55.3610
   -55.3609 -55.3358 -55.3264 -55.3124 -55.3024 -55.1301 -54.5279 -54.4939
   -32.1124 -31.9985 -31.9086 -31.8671 -31.8607 -31.8501 -31.8405 -31.8356
   -31.7971 -31.7856 -31.7539 -31.7523 -31.7520 -31.7166 -31.6991 -31.6810
   -31.6759 -31.6679 -31.6619 -31.6579 -31.6200 -31.6165 -31.6011 -31.5910
   -31.5646 -31.5628 -31.5611 -31.5527 -31.5480 -31.5423 -31.5321 -31.5238
   -31.5141 -31.5131 -31.5098 -31.4821 -31.4751 -31.4686 -31.4643 -31.4456
   -31.3537 -31.2713 -30.9369 -30.8438 -30.8217 -30.7534 -30.6666 -30.5556
   -16.5483 -16.3415 -16.0753 -15.8986 -15.7948 -15.7347 -15.5983 -15.5222
   -15.4446 -15.3421 -15.2516 -15.1850 -15.1688 -15.1483 -15.1434 -15.0826
   -15.0791 -15.0546 -15.0376 -15.0360 -14.9816 -14.9742 -14.9425 -14.9303
   -14.9195 -14.8466 -14.7629 -14.6942 -14.6340 -14.2067 -13.0308 -12.9135
    -9.3285  -6.2692  -4.7095  -3.7002  -3.5470  -3.4529  -3.4417  -3.4202
    -3.2714  -3.1334  -2.9273  -2.8473  -2.8004  -2.7511  -2.7231  -2.7055
    -2.6202  -2.5204  -2.4451  -2.4006  -2.3757  -2.3626  -2.3518  -2.3245
    -2.3128  -2.2791  -2.2400  -2.1982  -2.0941  -2.0061  -1.9651  -1.9301
    -1.8735  -1.8622  -1.8357  -1.8296  -1.8229  -1.8013  -1.7628  -1.7527
    -1.7055  -1.5664  -1.5532  -1.4354  -1.3995  -1.2857  -1.1863  -1.1799
    -1.0932  -1.0902  -1.0215  -0.9673  -0.9369  -0.9289  -0.8781  -0.8298
    -0.7404  -0.6472  -0.5856  -0.5437  -0.5089  -0.4798  -0.4125  -0.3215
    -0.3163  -0.3058  -0.2031  -0.1243  -0.1020  -0.0491  -0.0169   0.0263
     0.0424   0.1528   0.1956   0.2372   0.2552   0.3342   0.3558   0.4114
     0.4166   0.4517   0.4608   0.5268   0.5741   0.5936   0.6434   0.6624
     0.8207   1.0733   1.0805   1.1280   1.4034   1.4336   1.4943   1.6794
     2.0697   2.1175   3.5539   3.6264   3.6914   3.7042   3.7458   3.7907
     3.9578   4.0387   4.0550   4.0594   4.0909

[...]

          k = 0.0380-0.0419 0.0000 ( 17876 PWs)   bands (ev):

[...]

          k =-0.0760-0.0000 0.0000 ( 17886 PWs)   bands (ev):

[...]

          k =-0.0760-0.0839 0.0000 ( 17948 PWs)   bands (ev):

   -55.5312 -55.5234 -55.4904 -55.4903 -55.4340 -55.4099 -55.3947 -55.3649
   -55.3446 -55.3420 -55.3198 -55.3188 -55.3108 -55.1317 -54.5108 -54.5108
   -31.9189 -31.9137 -31.8297 -31.8137 -31.8135 -31.8050 -31.7827 -31.7824
   -31.7587 -31.7522 -31.7452 -31.7433 -31.7381 -31.7000 -31.6783 -31.6750
   -31.6708 -31.6664 -31.6626 -31.6578 -31.6533 -31.6341 -31.6199 -31.6195
   -31.6100 -31.6098 -31.6069 -31.5899 -31.5774 -31.5744 -31.5639 -31.5580
   -31.5552 -31.5539 -31.5442 -31.5442 -31.5111 -31.4993 -31.4982 -31.4863
   -31.3585 -31.3527 -30.8343 -30.8343 -30.7495 -30.7494 -30.7101 -30.7100
   -16.5252 -15.7800 -15.7460 -15.7305 -15.5268 -15.5185 -15.5107 -15.4928
   -15.3324 -15.3187 -15.2920 -15.2760 -15.2443 -15.2407 -15.2105 -15.1777
   -15.1247 -15.1203 -15.1119 -15.1096 -15.0498 -15.0456 -15.0253 -14.9968
   -14.9948 -14.9886 -14.8938 -14.8919 -14.7194 -14.5268 -13.0151 -13.0150
    -9.3328  -6.2649  -4.6923  -3.0550  -2.9937  -2.9334  -2.7364  -2.7329
    -2.7020  -2.6201  -2.5503  -2.5398  -2.5121  -2.4838  -2.4813  -2.4328
    -2.3886  -2.3788  -2.3676  -2.3602  -2.3419  -2.3279  -2.2988  -2.2623
    -2.2534  -2.2227  -2.2095  -2.1842  -2.1824  -2.1460  -2.1223  -2.1078
    -2.0962  -2.0345  -1.9329  -1.8809  -1.7947  -1.7678  -1.7394  -1.7334
    -1.6524  -1.6246  -1.5977  -1.5568  -1.5448  -1.5105  -1.3072  -1.2774
    -1.2681  -1.2543  -1.2308  -1.0805  -1.0714  -1.0211  -0.9898  -0.9423
    -0.8848  -0.8489  -0.8342  -0.7527  -0.7213  -0.6773  -0.6385  -0.5152
    -0.5109  -0.5039  -0.5023  -0.4842  -0.3977  -0.3859  -0.3428  -0.3095
    -0.2684  -0.2542  -0.1891  -0.0071   0.0099   0.0758   0.1828   0.2772
     0.3714   0.4506   0.4708   0.5217   0.5645   0.5848   0.6639   0.7569
     0.7688   0.8371   0.8831   0.9243   0.9285   0.9336   1.8522   1.8528
     1.9374   1.9376   3.6773   3.8020   3.8225   3.8604   3.8787   4.0278
     4.0737   4.1114   4.1336   4.1360   4.2188

     the Fermi energy is     3.6093 ev

!    total energy              =   -2919.11581384 Ry
     estimated scf accuracy    <       0.00000004 Ry
     smearing contrib. (-TS)   =      -0.03731646 Ry
     internal energy E=F+TS    =   -2919.07849738 Ry

     The total energy is F=E-TS. E is the sum of the following terms:
     one-electron contribution =  -24307.33253992 Ry
     hartree contribution      =   12241.07125313 Ry
     xc contribution           =    -480.02130010 Ry
     ewald contribution        =    9627.20108426 Ry
     electric field correction =       0.00300525 Ry

     convergence has been achieved in  86 iterations

     Forces acting on atoms (cartesian axes, Ry/au):

     atom    1 type  1   force =     0.00004738   -0.00014963    0.09377314
     atom    2 type  1   force =    -0.00018057   -0.00018513   -0.17778146
     atom    3 type  2   force =     0.00002542   -0.00021315   -0.02114473
     atom    4 type  2   force =    -0.00001628   -0.00198667    0.05775139
     atom    5 type  2   force =    -0.01106685   -0.00164814    0.00749963
     atom    6 type  2   force =     0.01242904   -0.00098428    0.00638319
     atom    7 type  1   force =    -0.00048117    0.00246735   -0.01335574
     atom    8 type  1   force =     0.00030015    0.00293129    0.00275887
     atom    9 type  2   force =     0.00007442   -0.00008094    0.00012614
     atom   10 type  2   force =    -0.00176295   -0.00226551   -0.00366504
     atom   11 type  2   force =     0.00017519    0.00059733   -0.00027180
     atom   12 type  2   force =     0.00043564    0.00053432   -0.00009054
     atom   13 type  1   force =    -0.00071676   -0.00095621   -0.00030964
     atom   14 type  1   force =     0.00082348    0.00027208   -0.00049557
     atom   15 type  2   force =     0.00026019    0.00017957   -0.00006101
     atom   16 type  2   force =    -0.00008228    0.00034516   -0.00062046
     atom   17 type  2   force =     0.00001946    0.00009894    0.00027108
     atom   18 type  2   force =     0.00052858    0.00001996    0.00024967
     atom   19 type  1   force =     0.00026248   -0.00096131    0.00039665
     atom   20 type  1   force =    -0.00013106    0.00059652    0.00046132
     atom   21 type  2   force =     0.00004398   -0.00002373    0.10380547
     atom   22 type  2   force =     0.00004461   -0.00065394    0.00008809
     atom   23 type  2   force =    -0.07058216   -0.00014555   -0.02706115
     atom   24 type  2   force =     0.07046137    0.00032176   -0.02710476
     atom   25 type  1   force =     0.00008369   -0.00019057    0.09356865
     atom   26 type  1   force =    -0.00009515   -0.00027128   -0.17782576
     atom   27 type  2   force =     0.00008247   -0.00046112   -0.02017620
     atom   28 type  2   force =     0.00002711   -0.00169000    0.05724119
     atom   29 type  2   force =    -0.01116098   -0.00114968    0.00696038
     atom   30 type  2   force =     0.01241318   -0.00080893    0.00582379
     atom   31 type  1   force =    -0.00038892    0.00466772   -0.01443052
     atom   32 type  1   force =     0.00037305   -0.00361476    0.00247197
     atom   33 type  2   force =    -0.00000448    0.00057611    0.00038753
     atom   34 type  2   force =    -0.00117753   -0.00059654   -0.00103730
     atom   35 type  2   force =     0.00040309    0.00025691    0.00022083
     atom   36 type  2   force =     0.00013105    0.00032835    0.00018808
     atom   37 type  1   force =    -0.00053333    0.00131016    0.00009742
     atom   38 type  1   force =     0.00087053    0.00007243   -0.00085700
     atom   39 type  2   force =     0.00013177    0.00046218    0.00028373
     atom   40 type  2   force =     0.00017802    0.00020266   -0.00053445
     atom   41 type  2   force =     0.00021556    0.00010244   -0.00072947
     atom   42 type  2   force =    -0.00009349    0.00005120   -0.00074052
     atom   43 type  1   force =     0.00002868    0.00105512    0.00012706
     atom   44 type  1   force =    -0.00017447    0.00029264   -0.00063494
     atom   45 type  2   force =     0.00004603   -0.00003808    0.10377775
     atom   46 type  2   force =    -0.07060067   -0.00006779   -0.02705401
     atom   47 type  2   force =     0.07047552    0.00035168   -0.02708487
     atom   48 type  3   force =    -0.00168786   -0.00018564   -0.00128524
     atom   49 type  4   force =    -0.01037274    0.00489303    0.00164094
     atom   50 type  5   force =    -0.00015944    0.00135102    0.00024305
     atom   51 type  5   force =     0.00983670   -0.00519808   -0.00118095
     atom   52 type  5   force =     0.00024132    0.00018870   -0.00106387

     Total force =     0.366228     Total SCF correction =     0.000412
  @ DRIVER MODE: Message from server: STATUS
  @ DRIVER MODE: Message from server: GETFORCE
  @ DRIVER MODE: Returning v,forces,stress,ensemble

     Writing output data file ./calc.save/
  @ DRIVER MODE: Message from server: EXIT
  @ DRIVE MODE: Exiting

     General routines

     Parallel routines

   This run was terminated on:  16:58:10  24Aug2021

   JOB DONE.