     Program PWSCF v.6.7GPU starts on 22Sep2021 at 22:35:39

     R & G space division:  proc/nbgrp/npool/nimage =      10
     Reading input from /storage/home/hcoda1/3/ntian30/research/carbon/CxH_vib/H2O_calc/ads_slab/CHNHHHO_a/out_0021/pw.inp
Warning: card &CELL ignored
Warning: card   CELL_DYNAMICS='IPI', ignored
Warning: card / ignored

     Current dimensions of program PWSCF are:
     Max number of different atomic species (ntypx) = 10
     Max number of k-points (npk) =  40000
     Max angular momentum in pseudopotentials (lmaxx) =  3
     Presently no symmetry can be used with electric field

     Message from routine cell_base_init:
     DEPRECATED: use true lattice parameter, not A to a.u. conversion factor

     IMPORTANT: XC functional enforced from input :
     Exchange-correlation= BEEF-VDW
                           (   1   4  43  14   2   0   0)
     Any further DFT definition will be discarded
     Please, verify this is what you really want

  @ DRIVER MODE: Connecting to
 qe_1139763_2937313.sched-torque.pace.gatech.edumlsf0eup_scratch
  using UNIX socket
  @ DRIVER MODE: Message from server: STATUS
  @ DRIVER MODE: Message from server: INIT
  @ DRIVER MODE: Receiving replica           0          -1
  @ DRIVER MODE: Receiving encoded integer          25
  @ DRIVER MODE:  SCF:  T  FORCE:  T  STRESS:  F  VC:  F  ENSEMBLE:  F
  @ DRIVER MODE:  SCF:  T  FORCE:  T  STRESS:  F  VC:  F  ENSEMBLE:  F

     Using Slab Decomposition

     bravais-lattice index     =            0
     lattice parameter (alat)  =       1.8897  a.u.
     unit-cell volume          =    6658.9804 (a.u.)^3
     number of atoms/cell      =           54
     number of atomic types    =            5
     number of electrons       =       397.00
     number of Kohn-Sham states=          208
     kinetic-energy cutoff     =      29.3995  Ry
     charge density cutoff     =     293.9946  Ry
     scf convergence threshold =      7.3E-08
     mixing beta               =       0.0500
     number of iterations used =            8  plain     mixing
     Exchange-correlation= BEEF-VDW
                           (   1   4  43  14   2   0   0)

     celldm(1)=   1.889726  celldm(2)=   0.000000  celldm(3)=   0.000000
     celldm(4)=   0.000000  celldm(5)=   0.000000  celldm(6)=   0.000000

     crystal axes: (cart. coord. in units of alat)
               a(1) = (   6.579727   0.000000   0.000000 )
               a(2) = (  -0.000775   5.961596   0.000000 )
               a(3) = (   0.000000   0.000000  25.155947 )

     reciprocal axes: (cart. coord. in units 2 pi/alat)
               b(1) = (  0.151982  0.000020  0.000000 )
               b(2) = (  0.000000  0.167740  0.000000 )
               b(3) = (  0.000000  0.000000  0.039752 )

     PseudoPot. # 1 for Ti read from file:
     /storage/coda1/p-amedford6/0/shared/rich_project_chbe-medford/medford-share/data/pseudos_module/espresso/nninc/pbe/van/Ti.UPF
     MD5 check sum: 8e4df49b7f0d34bbd5052bf3f5ea0213
     Pseudo is Ultrasoft, Zval = 12.0
     Generated by new atomic code, or converted to UPF format
     Using radial grid of  851 points,  6 beta functions with:
                l(1) =   0
                l(2) =   0
                l(3) =   1
                l(4) =   1
                l(5) =   2
                l(6) =   2
     Q(r) pseudized with  8 coefficients,  rinner =    1.000   1.000   1.000
                                                       1.000   1.000

     PseudoPot. # 2 for O  read from file:
     /storage/coda1/p-amedford6/0/shared/rich_project_chbe-medford/medford-share/data/pseudos_module/espresso/nninc/pbe/van/O.UPF
     MD5 check sum: 78c19812648e8988a0fe644b0f25305e
     Pseudo is Ultrasoft, Zval =  6.0
     Generated by new atomic code, or converted to UPF format
     Using radial grid of  737 points,  4 beta functions with:
                l(1) =   0
                l(2) =   0
                l(3) =   1
                l(4) =   1
     Q(r) pseudized with  8 coefficients,  rinner =    0.800   0.800   0.800

     PseudoPot. # 3 for N  read from file:
     /storage/coda1/p-amedford6/0/shared/rich_project_chbe-medford/medford-share/data/pseudos_module/espresso/nninc/pbe/van/N.UPF
     MD5 check sum: 90d10febe142ad51ac9d5be1deb811c4
     Pseudo is Ultrasoft, Zval =  5.0
     Generated by new atomic code, or converted to UPF format
     Using radial grid of  729 points,  4 beta functions with:
                l(1) =   0
                l(2) =   0
                l(3) =   1
                l(4) =   1
     Q(r) pseudized with  8 coefficients,  rinner =    0.800   0.800   0.800

     PseudoPot. # 4 for C  read from file:
     /storage/coda1/p-amedford6/0/shared/rich_project_chbe-medford/medford-share/data/pseudos_module/espresso/nninc/pbe/van/C.UPF
     MD5 check sum: 1a69bf6b8db32088f5b2163dbdb77a27
     Pseudo is Ultrasoft, Zval =  4.0
     Generated by new atomic code, or converted to UPF format
     Using radial grid of  721 points,  4 beta functions with:
                l(1) =   0
                l(2) =   0
                l(3) =   1
                l(4) =   1
     Q(r) pseudized with  8 coefficients,  rinner =    0.800   0.800   0.800

     PseudoPot. # 5 for H  read from file:
     /storage/coda1/p-amedford6/0/shared/rich_project_chbe-medford/medford-share/data/pseudos_module/espresso/nninc/pbe/van/H.UPF
     MD5 check sum: b5ee9d7bfd3a09ee7748110bda690ff7
     Pseudo is Ultrasoft, Zval =  1.0
     Generated by new atomic code, or converted to UPF format
     Using radial grid of  615 points,  1 beta functions with:
                l(1) =   0
     Q(r) pseudized with  8 coefficients,  rinner =    0.800

     atomic species   valence    mass     pseudopotential
        Ti1           12.00    47.86700     Ti( 1.00)
        O1             6.00    15.99900     O ( 1.00)
        N1             5.00    14.00700     N ( 1.00)
        C1             4.00    12.01100     C ( 1.00)
        H1             1.00     1.00800     H ( 1.00)

     No symmetry found

   Cartesian axes

     site n.     atom                  positions (alat units)
         1           Ti1 tau(   1) = (   0.0004258   2.9801865   6.0000000  )
         2           Ti1 tau(   2) = (   3.2906075   1.4906267   6.0002472  )
         3           O1  tau(   3) = (   0.0006271   0.0005054   7.9858123  )
         4           O1  tau(   4) = (   3.2906025   0.0005020   7.3038282  )
         5           O1  tau(   5) = (   4.5942328   1.4918067   9.2879030  )
         6           O1  tau(   6) = (   1.9868534   1.4903216   9.2879459  )
         7           Ti1 tau(   7) = (   3.2907910   2.8959150   9.1758416  )
         8           Ti1 tau(   8) = (   0.0015273   1.4827037   9.2680791  )
         9           O1  tau(   9) = (   3.2973591   5.9237820  11.3497511  )
        10           O1  tau(  10) = (   0.0116148   5.9584955  10.6183126  )
        11           O1  tau(  11) = (   1.2811460   1.4768824  12.6391447  )
        12           O1  tau(  12) = (   5.3079631   1.4871840  12.6405626  )
        13           Ti1 tau(  13) = (   6.5754896   2.9244875  12.5445406  )
        14           Ti1 tau(  14) = (   3.3102182   1.2813077  12.7057081  )
        15           O1  tau(  15) = (   6.5763362   0.0566486  14.6337039  )
        16           O1  tau(  16) = (   3.2990834   0.0566264  13.9960278  )
        17           O1  tau(  17) = (   4.5749688   1.5338778  16.1314031  )
        18           O1  tau(  18) = (   2.0677763   1.5208417  16.2171153  )
        19           Ti1 tau(  19) = (   3.2830944   2.9922577  15.6820260  )
        20           Ti1 tau(  20) = (   6.5002293   1.4748383  16.0237708  )
        21           O1  tau(  21) = (   3.2904802   0.0005063   4.7018136  )
        22           O1  tau(  22) = (   0.0234767   5.8639946  17.1540191  )
        23           O1  tau(  23) = (   1.3043587   1.4918075   6.0039043  )
        24           O1  tau(  24) = (   5.2767064   1.4903225   6.0039473  )
        25           Ti1 tau(  25) = (   0.0000382   5.9609847   6.0000000  )
        26           Ti1 tau(  26) = (   3.2902200   4.4714249   6.0002472  )
        27           O1  tau(  27) = (   0.0002396   2.9813036   7.9858123  )
        28           O1  tau(  28) = (   3.2902150   2.9813002   7.3038282  )
        29           O1  tau(  29) = (   4.5938453   4.4726049   9.2879030  )
        30           O1  tau(  30) = (   1.9864658   4.4711199   9.2879459  )
        31           Ti1 tau(  31) = (   3.2891106   5.8743827   9.1763621  )
        32           Ti1 tau(  32) = (   0.0006254   4.4649316   9.2693709  )
        33           O1  tau(  33) = (   3.2952530   2.9960894  11.3054589  )
        34           O1  tau(  34) = (   0.0092240   2.9805883  10.6323155  )
        35           O1  tau(  35) = (   1.2848436   4.4566134  12.6628561  )
        36           O1  tau(  36) = (   5.3073415   4.4462911  12.6631571  )
        37           Ti1 tau(  37) = (   0.0411484   5.9123939  12.5136797  )
        38           Ti1 tau(  38) = (   3.3147701   4.3652790  12.4361622  )
        39           O1  tau(  39) = (   0.0290229   2.9306538  14.8412286  )
        40           O1  tau(  40) = (   3.2875986   2.9640914  13.9120161  )
        41           O1  tau(  41) = (   4.5659564   4.3862643  16.1232528  )
        42           O1  tau(  42) = (   2.0245242   4.4195217  16.0560026  )
        43           Ti1 tau(  43) = (   3.2475481   5.9608109  16.2864591  )
        44           Ti1 tau(  44) = (   0.0132903   4.6514137  15.7972829  )
        45           O1  tau(  45) = (   3.2900926   2.9813045   4.7018136  )
        46           O1  tau(  46) = (   1.3039711   4.4726057   6.0039043  )
        47           O1  tau(  47) = (   5.2763189   4.4711207   6.0039473  )
        48           N1  tau(  48) = (   5.7184149   3.3872802  18.6644769  )
        49           C1  tau(  49) = (   6.5536674   2.6142045  18.0347456  )
        50           H1  tau(  50) = (   0.7520291   2.2354638  18.7052436  )
        51           H1  tau(  51) = (   4.9873861   3.8828837  18.1615307  )
        52           H1  tau(  52) = (   5.8197376   3.6397576  19.6419508  )
        53           O1  tau(  53) = (   3.3578172   5.8156178  18.1613732  )
        54           H1  tau(  54) = (   2.9124532   0.5526369  18.6599525  )

     number of k points=    10  Fermi-Dirac smearing, width (Ry)=  0.0073
                       cart. coord. in units 2pi/alat
        k(    1) = (   0.0000000   0.0000000   0.0000000), wk =   0.1250000
        k(    2) = (   0.0000000   0.0419351   0.0000000), wk =   0.2500000
        k(    3) = (   0.0000000  -0.0838702   0.0000000), wk =   0.1250000
        k(    4) = (   0.0379955   0.0000049   0.0000000), wk =   0.2500000
        k(    5) = (   0.0379955   0.0419400   0.0000000), wk =   0.2500000
        k(    6) = (   0.0379955  -0.0838652   0.0000000), wk =   0.2500000
        k(    7) = (   0.0379955  -0.0419301   0.0000000), wk =   0.2500000
        k(    8) = (  -0.0759910  -0.0000099   0.0000000), wk =   0.1250000
        k(    9) = (  -0.0759910   0.0419252   0.0000000), wk =   0.2500000
        k(   10) = (  -0.0759910  -0.0838800   0.0000000), wk =   0.1250000

     Initial potential from superposition of free atoms

     starting charge  380.99916, renormalised to  397.00000

     negative rho (up, down):  1.674E-02 0.000E+00

     %%%%%%%%%%%%%%%%%%%%%%%%%%%%%%%%%%%%%%%%%%%%%%%%%%%%%%%%%%%%%%%%%%%%%%%%
     %                                                                      %
     % You are using vdW-DF, which was implemented by the Thonhauser group. %
     % Please cite the following two papers that made this development      %
     % possible and the two reviews that describe the various versions:     %
     %                                                                      %
     %   T. Thonhauser et al., PRL 115, 136402 (2015).                      %
     %   T. Thonhauser et al., PRB 76, 125112 (2007).                       %
     %   K. Berland et al., Rep. Prog. Phys. 78, 066501 (2015).             %
     %   D.C. Langreth et al., J. Phys.: Condens. Matter 21, 084203 (2009). %
     %                                                                      %
     %                                                                      %
     % If you are calculating the stress with vdW-DF, please also cite:     %
     %                                                                      %
     %   R. Sabatini et al., J. Phys.: Condens. Matter 24, 424209 (2012).   %
     %                                                                      %
     %%%%%%%%%%%%%%%%%%%%%%%%%%%%%%%%%%%%%%%%%%%%%%%%%%%%%%%%%%%%%%%%%%%%%%%%

     Adding external electric field

     Computed dipole along edir(3) :
        Dipole               -9.3089 Ry au,        -23.6608 Debye
        Dipole field         -0.0176 Ry au,

        Potential amp.        1.6284 Ry
        Total length         46.3494 bohr

     Starting wfcs are  300 atomic wfcs
  @ DRIVER MODE: Message from server: STATUS
  @ DRIVER MODE: Message from server: POSDATA
  @ DRIVER MODE: Reading and sharing cell
  @ DRIVER MODE: Reading and sharing positions
  @ DRIVER MODE: Received positions

     Self-consistent Calculation

     iteration #  1     ecut=    29.40 Ry     beta= 0.05
     Davidson diagonalization with overlap
     c_bands:  1 eigenvalues not converged
     c_bands:  2 eigenvalues not converged
     c_bands:  1 eigenvalues not converged
     c_bands:  1 eigenvalues not converged
     c_bands:  1 eigenvalues not converged
     c_bands:  2 eigenvalues not converged
     c_bands:  1 eigenvalues not converged
     c_bands:  1 eigenvalues not converged
     c_bands:  2 eigenvalues not converged
     ethr =  1.00E-05,  avg # of iterations = 19.6

[...]

     total energy              =   -2539.06843479 Ry
     estimated scf accuracy    <    4593.62893920 Ry

     iteration #  2     ecut=    29.40 Ry     beta= 0.05
     Davidson diagonalization with overlap
     ethr =  1.00E-02,  avg # of iterations = 23.7

[...]

     iteration # 66     ecut=    29.40 Ry     beta= 0.05
     Davidson diagonalization with overlap
     c_bands:  1 eigenvalues not converged
     c_bands:  1 eigenvalues not converged
     c_bands:  1 eigenvalues not converged
     ethr =  9.22E-07,  avg # of iterations = 16.1

[...]

     total energy              =   -2952.67095544 Ry
     estimated scf accuracy    <       0.00000011 Ry

     iteration # 91     ecut=    29.40 Ry     beta= 0.05
     Davidson diagonalization with overlap
     ethr =  2.70E-11,  avg # of iterations =  9.6

     negative rho (up, down):  1.682E-02 0.000E+00

     Adding external electric field

     Computed dipole along edir(3) :
        Dipole                1.3075 Ry au,          3.3234 Debye
        Dipole field          0.0025 Ry au,

        Potential amp.       -0.2287 Ry
        Total length         46.3494 bohr

     End of self-consistent calculation

          k = 0.0000 0.0000 0.0000 ( 18029 PWs)   bands (ev):

   -55.6239 -55.5456 -55.5116 -55.3626 -55.3385 -55.3285 -55.3031 -55.2948
   -55.2783 -55.2279 -55.1407 -55.1056 -55.0288 -55.0031 -54.4970 -54.4630
   -32.0271 -31.9561 -31.8647 -31.8472 -31.8374 -31.8248 -31.8226 -31.7904
   -31.7619 -31.7175 -31.6980 -31.6689 -31.6492 -31.6259 -31.6200 -31.6086
   -31.6033 -31.5858 -31.5521 -31.5369 -31.5204 -31.5170 -31.5022 -31.5015
   -31.4906 -31.4801 -31.4754 -31.4752 -31.4464 -31.4352 -31.4253 -31.4024
   -31.3856 -31.3844 -31.3828 -31.3062 -31.2958 -31.2747 -31.2424 -31.2335
   -31.2222 -31.1516 -30.9018 -30.8184 -30.7958 -30.7196 -30.6334 -30.5214
   -17.3200 -16.4819 -16.1304 -15.9656 -15.7686 -15.6642 -15.5947 -15.4062
   -15.3218 -15.2647 -15.0727 -15.0703 -15.0389 -15.0210 -14.9945 -14.9652
   -14.9579 -14.9523 -14.9252 -14.8918 -14.8749 -14.8468 -14.8292 -14.7712
   -14.7426 -14.7267 -14.6669 -14.5710 -14.5072 -14.2943 -14.1454 -12.9950
   -12.8791  -9.6437  -7.3427  -4.7810  -4.0609  -3.4996  -3.4326  -3.3711
    -3.3222  -3.2469  -3.0152  -2.8678  -2.7636  -2.7346  -2.6505  -2.6171
    -2.5702  -2.4912  -2.4239  -2.4006  -2.3544  -2.3173  -2.2865  -2.2635
    -2.2388  -2.2163  -2.1614  -2.1228  -2.0457  -1.9968  -1.9274  -1.9053
    -1.8488  -1.8102  -1.8077  -1.7928  -1.7560  -1.7506  -1.7421  -1.7223
    -1.6155  -1.5838  -1.5338  -1.4913  -1.3271  -1.1394  -1.1193  -1.0241
    -0.9866  -0.9499  -0.9224  -0.9072  -0.8814  -0.8571  -0.7631  -0.7440
    -0.6627  -0.6006  -0.5561  -0.5062  -0.4063  -0.3386  -0.3116  -0.2654
    -0.2601  -0.2285  -0.2128  -0.1247  -0.0477  -0.0005   0.0124   0.0639
     0.1496   0.1678   0.2226   0.2536   0.2947   0.3291   0.4015   0.4276
     0.4497   0.4613   0.4791   0.5362   0.5751   0.6081   0.6778   0.7796
     0.7888   0.8620   0.8635   0.8737   1.0748   1.1631   1.1832   1.2651
     1.4886   1.5297   1.6214   1.7258   2.0942   2.1385   3.5576   3.7010
     3.7188   3.7841   3.8321   3.9443   3.9565   4.0424   4.1707   4.2570

[...]

          k = 0.0380-0.0419 0.0000 ( 17876 PWs)   bands (ev):

[...]

          k =-0.0760-0.0000 0.0000 ( 17886 PWs)   bands (ev):

[...]

          k =-0.0760-0.0839 0.0000 ( 17948 PWs)   bands (ev):

   -55.6232 -55.5289 -55.5282 -55.3457 -55.3451 -55.3250 -55.3164 -55.2953
   -55.2718 -55.2343 -55.1385 -55.1020 -55.0324 -55.0052 -54.4805 -54.4794
   -31.9016 -31.8427 -31.8422 -31.8360 -31.8251 -31.8232 -31.8225 -31.6984
   -31.6708 -31.6645 -31.6488 -31.6480 -31.6422 -31.6334 -31.6202 -31.6014
   -31.5946 -31.5916 -31.5577 -31.5570 -31.5394 -31.5378 -31.5236 -31.5213
   -31.5143 -31.5097 -31.5016 -31.4995 -31.4899 -31.4838 -31.4580 -31.4518
   -31.4063 -31.3879 -31.3798 -31.3627 -31.3100 -31.2994 -31.2822 -31.2430
   -31.2373 -31.2244 -30.8089 -30.8081 -30.7155 -30.7141 -30.6770 -30.6761
   -17.3158 -16.4721 -15.5922 -15.5821 -15.4719 -15.4551 -15.3528 -15.2858
   -15.2520 -15.2278 -15.2079 -15.1767 -15.1715 -15.1242 -15.0792 -15.0628
   -15.0327 -15.0070 -14.9898 -14.9526 -14.9222 -14.9055 -14.8817 -14.8440
   -14.8375 -14.8227 -14.8093 -14.6395 -14.5928 -14.4468 -14.4209 -12.9813
   -12.9808  -9.6454  -7.3423  -4.7755  -4.0576  -2.8575  -2.7981  -2.6822
    -2.6490  -2.5844  -2.5099  -2.4766  -2.4628  -2.3762  -2.3654  -2.3612
    -2.3230  -2.2980  -2.2793  -2.2511  -2.2477  -2.2386  -2.2035  -2.1967
    -2.1793  -2.1583  -2.1419  -2.1264  -2.1119  -2.1031  -2.0800  -2.0574
    -2.0308  -1.9877  -1.8303  -1.7922  -1.7647  -1.6487  -1.6391  -1.6213
    -1.6102  -1.5971  -1.5652  -1.4990  -1.4806  -1.4742  -1.3159  -1.2302
    -1.1891  -1.1246  -1.1032  -1.0755  -0.9860  -0.9733  -0.9446  -0.9072
    -0.8593  -0.7868  -0.6881  -0.6810  -0.6364  -0.5292  -0.4785  -0.4665
    -0.4634  -0.4132  -0.4028  -0.3859  -0.3457  -0.2735  -0.2572  -0.2323
    -0.1999  -0.1844  -0.1431  -0.0748   0.0281   0.1090   0.2148   0.2511
     0.3326   0.3589   0.3734   0.5258   0.5887   0.6280   0.6764   0.6836
     0.7860   0.7969   0.8111   0.8923   0.9909   1.0095   1.0704   1.0875
     1.1069   1.1450   1.8950   1.9030   1.9587   1.9590   3.7459   4.0328
     4.0845   4.0947   4.1156   4.1304   4.1363   4.1649   4.2213   4.2515

     the Fermi energy is     3.5824 ev

!    total energy              =   -2952.67095830 Ry
     estimated scf accuracy    <       0.00000006 Ry
     smearing contrib. (-TS)   =      -0.02000732 Ry
     internal energy E=F+TS    =   -2952.65095098 Ry

     The total energy is F=E-TS. E is the sum of the following terms:
     one-electron contribution =  -23943.38854122 Ry
     hartree contribution      =   12064.63414645 Ry
     xc contribution           =    -487.98124672 Ry
     ewald contribution        =    9414.08146414 Ry
     electric field correction =       0.00322638 Ry

     convergence has been achieved in  91 iterations

     Forces acting on atoms (cartesian axes, Ry/au):

     atom    1 type  1   force =     0.00003804   -0.00030558    0.09544850
     atom    2 type  1   force =    -0.00013929    0.00031378   -0.17427236
     atom    3 type  2   force =    -0.00001912   -0.00015354   -0.02260363
     atom    4 type  2   force =     0.00003783   -0.00185606    0.05175916
     atom    5 type  2   force =    -0.00666664   -0.00270176    0.00168342
     atom    6 type  2   force =     0.00821970   -0.00219499    0.00116272
     atom    7 type  1   force =    -0.00012235   -0.00383553    0.01182671
     atom    8 type  1   force =     0.00015820    0.00376890    0.01274273
     atom    9 type  2   force =     0.00021087    0.00038399    0.00083205
     atom   10 type  2   force =    -0.00197434   -0.00130076   -0.01615129
     atom   11 type  2   force =     0.00117340   -0.00021214   -0.00029112
     atom   12 type  2   force =    -0.00061417    0.00012826   -0.00024581
     atom   13 type  1   force =    -0.00022182   -0.00147612    0.00057575
     atom   14 type  1   force =     0.00008638   -0.00042660   -0.00006844
     atom   15 type  2   force =     0.00009775    0.00036045   -0.00091209
     atom   16 type  2   force =     0.00005028    0.00106681   -0.00049066
     atom   17 type  2   force =    -0.00019327    0.00023497    0.00015220
     atom   18 type  2   force =     0.00009975    0.00024023   -0.00013231
     atom   19 type  1   force =    -0.00025119    0.00007903    0.00014401
     atom   20 type  1   force =     0.00018536    0.00015908   -0.00036777
     atom   21 type  2   force =     0.00006153    0.00010372    0.10286384
     atom   22 type  2   force =    -0.00028464    0.00048175    0.00042714
     atom   23 type  2   force =    -0.07252311   -0.00013454   -0.02754764
     atom   24 type  2   force =     0.07242653    0.00027328   -0.02757601
     atom   25 type  1   force =     0.00008970   -0.00014372    0.09505522
     atom   26 type  1   force =    -0.00011016   -0.00129040   -0.17428981
     atom   27 type  2   force =     0.00015785   -0.00026244   -0.02135876
     atom   28 type  2   force =     0.00004904   -0.00014773    0.04736430
     atom   29 type  2   force =    -0.00544658    0.00230888   -0.00004820
     atom   30 type  2   force =     0.00702137    0.00274338   -0.00055841
     atom   31 type  1   force =    -0.00016534    0.00659135    0.00051922
     atom   32 type  1   force =     0.00008202   -0.00557342    0.01180601
     atom   33 type  2   force =    -0.00014367   -0.00038897    0.00012578
     atom   34 type  2   force =    -0.00121554    0.00016231   -0.01568657
     atom   35 type  2   force =    -0.00037433    0.00043232    0.00015504
     atom   36 type  2   force =     0.00102515    0.00058793    0.00041733
     atom   37 type  1   force =    -0.00023426    0.00178187    0.00021696
     atom   38 type  1   force =    -0.00005810    0.00024555    0.00039422
     atom   39 type  2   force =    -0.00010237    0.00007843   -0.00022239
     atom   40 type  2   force =     0.00037532   -0.00033425   -0.00021662
     atom   41 type  2   force =    -0.00053922    0.00026552    0.00022461
     atom   42 type  2   force =     0.00067815    0.00017447    0.00026557
     atom   43 type  1   force =     0.00028401    0.00009210    0.00051251
     atom   44 type  1   force =     0.00024004    0.00020778    0.00086915
     atom   45 type  2   force =     0.00006195   -0.00008757    0.10265339
     atom   46 type  2   force =    -0.07257206   -0.00005029   -0.02757689
     atom   47 type  2   force =     0.07249969    0.00040326   -0.02760123
     atom   48 type  3   force =     0.00522083   -0.00507710    0.00239124
     atom   49 type  4   force =     0.00044728   -0.00064046   -0.00039083
     atom   50 type  5   force =    -0.00030859   -0.00010166   -0.00026501
     atom   51 type  5   force =    -0.00493805    0.00488460   -0.00283055
     atom   52 type  5   force =    -0.00064954    0.00082608    0.00007451
     atom   53 type  2   force =    -0.00010280    0.00003949   -0.00080502
     atom   54 type  5   force =    -0.00110749   -0.00072390   -0.00015386

     Total force =     0.362483     Total SCF correction =     0.000499
  @ DRIVER MODE: Message from server: STATUS
  @ DRIVER MODE: Message from server: GETFORCE
  @ DRIVER MODE: Returning v,forces,stress,ensemble

     Writing output data file ./calc.save/
  @ DRIVER MODE: Message from server: EXIT
  @ DRIVE MODE: Exiting

     General routines

     Parallel routines

   This run was terminated on:  22:58:18  22Sep2021

   JOB DONE.