     Program PWSCF v.6.7GPU starts on 15Sep2021 at 23:31:46

     R & G space division:  proc/nbgrp/npool/nimage =      10
     Reading input from /storage/home/hcoda1/3/ntian30/research/carbon/CxH_vib/H2O_calc/ads_slab/CH3NH2NHH2O_c/out_0022/pw.inp
Warning: card &CELL ignored
Warning: card   CELL_DYNAMICS='IPI', ignored
Warning: card / ignored

     Current dimensions of program PWSCF are:
     Max number of different atomic species (ntypx) = 10
     Max number of k-points (npk) =  40000
     Max angular momentum in pseudopotentials (lmaxx) =  3
     Presently no symmetry can be used with electric field

     Message from routine cell_base_init:
     DEPRECATED: use true lattice parameter, not A to a.u. conversion factor

     IMPORTANT: XC functional enforced from input :
     Exchange-correlation= BEEF-VDW
                           (   1   4  43  14   2   0   0)
     Any further DFT definition will be discarded
     Please, verify this is what you really want

  @ DRIVER MODE: Connecting to
 qe_1139763_2852614.sched-torque.pace.gatech.eduq10t4fl9_scratch
  using UNIX socket
  @ DRIVER MODE: Message from server: STATUS
  @ DRIVER MODE: Message from server: INIT
  @ DRIVER MODE: Receiving replica           0          -1
  @ DRIVER MODE: Receiving encoded integer          25
  @ DRIVER MODE:  SCF:  T  FORCE:  T  STRESS:  F  VC:  F  ENSEMBLE:  F
  @ DRIVER MODE:  SCF:  T  FORCE:  T  STRESS:  F  VC:  F  ENSEMBLE:  F

     Using Slab Decomposition

     bravais-lattice index     =            0
     lattice parameter (alat)  =       1.8897  a.u.
     unit-cell volume          =    6658.9804 (a.u.)^3
     number of atoms/cell      =           59
     number of atomic types    =            5
     number of electrons       =       406.00
     number of Kohn-Sham states=          213
     kinetic-energy cutoff     =      29.3995  Ry
     charge density cutoff     =     293.9946  Ry
     scf convergence threshold =      7.3E-08
     mixing beta               =       0.0500
     number of iterations used =            8  plain     mixing
     Exchange-correlation= BEEF-VDW
                           (   1   4  43  14   2   0   0)

     celldm(1)=   1.889726  celldm(2)=   0.000000  celldm(3)=   0.000000
     celldm(4)=   0.000000  celldm(5)=   0.000000  celldm(6)=   0.000000

     crystal axes: (cart. coord. in units of alat)
               a(1) = (   6.579727   0.000000   0.000000 )
               a(2) = (  -0.000775   5.961596   0.000000 )
               a(3) = (   0.000000   0.000000  25.155947 )

     reciprocal axes: (cart. coord. in units 2 pi/alat)
               b(1) = (  0.151982  0.000020  0.000000 )
               b(2) = (  0.000000  0.167740  0.000000 )
               b(3) = (  0.000000  0.000000  0.039752 )

     PseudoPot. # 1 for Ti read from file:
     /storage/coda1/p-amedford6/0/shared/rich_project_chbe-medford/medford-share/data/pseudos_module/espresso/nninc/pbe/van/Ti.UPF
     MD5 check sum: 8e4df49b7f0d34bbd5052bf3f5ea0213
     Pseudo is Ultrasoft, Zval = 12.0
     Generated by new atomic code, or converted to UPF format
     Using radial grid of  851 points,  6 beta functions with:
                l(1) =   0
                l(2) =   0
                l(3) =   1
                l(4) =   1
                l(5) =   2
                l(6) =   2
     Q(r) pseudized with  8 coefficients,  rinner =    1.000   1.000   1.000
                                                       1.000   1.000

     PseudoPot. # 2 for O  read from file:
     /storage/coda1/p-amedford6/0/shared/rich_project_chbe-medford/medford-share/data/pseudos_module/espresso/nninc/pbe/van/O.UPF
     MD5 check sum: 78c19812648e8988a0fe644b0f25305e
     Pseudo is Ultrasoft, Zval =  6.0
     Generated by new atomic code, or converted to UPF format
     Using radial grid of  737 points,  4 beta functions with:
                l(1) =   0
                l(2) =   0
                l(3) =   1
                l(4) =   1
     Q(r) pseudized with  8 coefficients,  rinner =    0.800   0.800   0.800

     PseudoPot. # 3 for N  read from file:
     /storage/coda1/p-amedford6/0/shared/rich_project_chbe-medford/medford-share/data/pseudos_module/espresso/nninc/pbe/van/N.UPF
     MD5 check sum: 90d10febe142ad51ac9d5be1deb811c4
     Pseudo is Ultrasoft, Zval =  5.0
     Generated by new atomic code, or converted to UPF format
     Using radial grid of  729 points,  4 beta functions with:
                l(1) =   0
                l(2) =   0
                l(3) =   1
                l(4) =   1
     Q(r) pseudized with  8 coefficients,  rinner =    0.800   0.800   0.800

     PseudoPot. # 4 for C  read from file:
     /storage/coda1/p-amedford6/0/shared/rich_project_chbe-medford/medford-share/data/pseudos_module/espresso/nninc/pbe/van/C.UPF
     MD5 check sum: 1a69bf6b8db32088f5b2163dbdb77a27
     Pseudo is Ultrasoft, Zval =  4.0
     Generated by new atomic code, or converted to UPF format
     Using radial grid of  721 points,  4 beta functions with:
                l(1) =   0
                l(2) =   0
                l(3) =   1
                l(4) =   1
     Q(r) pseudized with  8 coefficients,  rinner =    0.800   0.800   0.800

     PseudoPot. # 5 for H  read from file:
     /storage/coda1/p-amedford6/0/shared/rich_project_chbe-medford/medford-share/data/pseudos_module/espresso/nninc/pbe/van/H.UPF
     MD5 check sum: b5ee9d7bfd3a09ee7748110bda690ff7
     Pseudo is Ultrasoft, Zval =  1.0
     Generated by new atomic code, or converted to UPF format
     Using radial grid of  615 points,  1 beta functions with:
                l(1) =   0
     Q(r) pseudized with  8 coefficients,  rinner =    0.800

     atomic species   valence    mass     pseudopotential
        Ti1           12.00    47.86700     Ti( 1.00)
        O1             6.00    15.99900     O ( 1.00)
        N1             5.00    14.00700     N ( 1.00)
        C1             4.00    12.01100     C ( 1.00)
        H1             1.00     1.00800     H ( 1.00)

     No symmetry found

   Cartesian axes

     site n.     atom                  positions (alat units)
         1           Ti1 tau(   1) = (   0.0004258   2.9801865   6.0000000  )
         2           Ti1 tau(   2) = (   3.2906075   1.4906267   6.0002472  )
         3           O1  tau(   3) = (   0.0006271   0.0005054   7.9858123  )
         4           O1  tau(   4) = (   3.2906025   0.0005020   7.3038282  )
         5           O1  tau(   5) = (   4.5942328   1.4918067   9.2879030  )
         6           O1  tau(   6) = (   1.9868534   1.4903216   9.2879459  )
         7           Ti1 tau(   7) = (   3.2907910   2.8959150   9.1758416  )
         8           Ti1 tau(   8) = (   0.0015273   1.4827037   9.2680791  )
         9           O1  tau(   9) = (   3.2795193   0.0050042  11.3600746  )
        10           O1  tau(  10) = (   0.0116148   5.9584955  10.6183126  )
        11           O1  tau(  11) = (   1.2764768   1.4833402  12.6625751  )
        12           O1  tau(  12) = (   5.2691860   1.4824858  12.6730715  )
        13           Ti1 tau(  13) = (   6.5785005   2.9712200  12.5432933  )
        14           Ti1 tau(  14) = (   3.2815129   1.4861921  12.5133659  )
        15           O1  tau(  15) = (   0.0084525   5.9333602  14.7514412  )
        16           O1  tau(  16) = (   3.2474592   5.9449689  14.0025778  )
        17           O1  tau(  17) = (   4.5272503   1.5270814  16.0535473  )
        18           O1  tau(  18) = (   2.0088677   1.5398698  16.1918835  )
        19           Ti1 tau(  19) = (   3.2695027   3.0127370  15.7044713  )
        20           Ti1 tau(  20) = (   6.4897317   1.5391078  15.7731133  )
        21           O1  tau(  21) = (   3.2904802   0.0005063   4.7018136  )
        22           O1  tau(  22) = (   6.4943121   0.0104379  17.3746616  )
        23           O1  tau(  23) = (   1.3043587   1.4918075   6.0039043  )
        24           O1  tau(  24) = (   5.2767064   1.4903225   6.0039473  )
        25           Ti1 tau(  25) = (   0.0000382   5.9609847   6.0000000  )
        26           Ti1 tau(  26) = (   3.2902200   4.4714249   6.0002472  )
        27           O1  tau(  27) = (   0.0002396   2.9813036   7.9858123  )
        28           O1  tau(  28) = (   3.2902150   2.9813002   7.3038282  )
        29           O1  tau(  29) = (   4.5938453   4.4726049   9.2879030  )
        30           O1  tau(  30) = (   1.9864658   4.4711199   9.2879459  )
        31           Ti1 tau(  31) = (   3.2891106   5.8743827   9.1763621  )
        32           Ti1 tau(  32) = (   0.0006254   4.4649316   9.2693709  )
        33           O1  tau(  33) = (   3.2806081   2.9711243  11.3509633  )
        34           O1  tau(  34) = (   0.0092240   2.9805883  10.6323155  )
        35           O1  tau(  35) = (   1.2760424   4.4718827  12.6381679  )
        36           O1  tau(  36) = (   5.2690016   4.4731519  12.6446470  )
        37           Ti1 tau(  37) = (   6.5708669   5.9382087  12.5160675  )
        38           Ti1 tau(  38) = (   3.2845625   4.4656782  12.4980923  )
        39           O1  tau(  39) = (   6.5779858   3.0049062  14.7590937  )
        40           O1  tau(  40) = (   3.2501146   3.0001303  13.9242794  )
        41           O1  tau(  41) = (   4.5300198   4.4412671  16.1793791  )
        42           O1  tau(  42) = (   2.0030354   4.4482434  16.2507355  )
        43           Ti1 tau(  43) = (   3.2558399   0.0045369  15.7947069  )
        44           Ti1 tau(  44) = (   0.0024851   4.6597080  16.1671864  )
        45           O1  tau(  45) = (   3.2900926   2.9813045   4.7018136  )
        46           O1  tau(  46) = (   1.3039711   4.4726057   6.0039043  )
        47           O1  tau(  47) = (   5.2763189   4.4711207   6.0039473  )
        48           N1  tau(  48) = (   0.8610865   2.3037131  18.4629187  )
        49           N1  tau(  49) = (   6.4642385   2.8627238  17.5618644  )
        50           C1  tau(  50) = (   1.1134797   3.0572184  19.7121060  )
        51           H1  tau(  51) = (   0.2160447   3.0354214  20.3281890  )
        52           H1  tau(  52) = (   1.9467850   2.5864873  20.2353232  )
        53           H1  tau(  53) = (   1.3463996   4.0866186  19.4485780  )
        54           H1  tau(  54) = (   0.5832711   1.3114681  18.6183785  )
        55           H1  tau(  55) = (   5.5643591   2.7461405  18.0238738  )
        56           H1  tau(  56) = (   1.7079168   2.1891883  17.8702682  )
        57           O1  tau(  57) = (   4.0734316   0.3075885  18.7765601  )
        58           H1  tau(  58) = (   4.9241673   0.1787741  18.2816895  )
        59           H1  tau(  59) = (   3.8734322   5.3936830  19.1372508  )

     number of k points=    10  Fermi-Dirac smearing, width (Ry)=  0.0073
                       cart. coord. in units 2pi/alat
        k(    1) = (   0.0000000   0.0000000   0.0000000), wk =   0.1250000
        k(    2) = (   0.0000000   0.0419351   0.0000000), wk =   0.2500000
        k(    3) = (   0.0000000  -0.0838702   0.0000000), wk =   0.1250000
        k(    4) = (   0.0379955   0.0000049   0.0000000), wk =   0.2500000
        k(    5) = (   0.0379955   0.0419400   0.0000000), wk =   0.2500000
        k(    6) = (   0.0379955  -0.0838652   0.0000000), wk =   0.2500000
        k(    7) = (   0.0379955  -0.0419301   0.0000000), wk =   0.2500000
        k(    8) = (  -0.0759910  -0.0000099   0.0000000), wk =   0.1250000
        k(    9) = (  -0.0759910   0.0419252   0.0000000), wk =   0.2500000
        k(   10) = (  -0.0759910  -0.0838800   0.0000000), wk =   0.1250000

     Initial potential from superposition of free atoms

     starting charge  389.99912, renormalised to  406.00000

     negative rho (up, down):  1.392E-02 0.000E+00

     %%%%%%%%%%%%%%%%%%%%%%%%%%%%%%%%%%%%%%%%%%%%%%%%%%%%%%%%%%%%%%%%%%%%%%%%
     %                                                                      %
     % You are using vdW-DF, which was implemented by the Thonhauser group. %
     % Please cite the following two papers that made this development      %
     % possible and the two reviews that describe the various versions:     %
     %                                                                      %
     %   T. Thonhauser et al., PRL 115, 136402 (2015).                      %
     %   T. Thonhauser et al., PRB 76, 125112 (2007).                       %
     %   K. Berland et al., Rep. Prog. Phys. 78, 066501 (2015).             %
     %   D.C. Langreth et al., J. Phys.: Condens. Matter 21, 084203 (2009). %
     %                                                                      %
     %                                                                      %
     % If you are calculating the stress with vdW-DF, please also cite:     %
     %                                                                      %
     %   R. Sabatini et al., J. Phys.: Condens. Matter 24, 424209 (2012).   %
     %                                                                      %
     %%%%%%%%%%%%%%%%%%%%%%%%%%%%%%%%%%%%%%%%%%%%%%%%%%%%%%%%%%%%%%%%%%%%%%%%

     Adding external electric field

     Computed dipole along edir(3) :
        Dipole              -15.6809 Ry au,        -39.8568 Debye
        Dipole field         -0.0296 Ry au,

        Potential amp.        2.7431 Ry
        Total length         46.3494 bohr

     Starting wfcs are  308 atomic wfcs
  @ DRIVER MODE: Message from server: STATUS
  @ DRIVER MODE: Message from server: POSDATA
  @ DRIVER MODE: Reading and sharing cell
  @ DRIVER MODE: Reading and sharing positions
  @ DRIVER MODE: Received positions

     Self-consistent Calculation

     iteration #  1     ecut=    29.40 Ry     beta= 0.05
     Davidson diagonalization with overlap
     c_bands:  2 eigenvalues not converged
     c_bands:  5 eigenvalues not converged
     c_bands:  2 eigenvalues not converged
     c_bands:  4 eigenvalues not converged
     c_bands:  4 eigenvalues not converged
     c_bands:  5 eigenvalues not converged
     c_bands:  5 eigenvalues not converged
     c_bands:  1 eigenvalues not converged
     ethr =  1.00E-05,  avg # of iterations = 22.5

[...]

     total energy              =   -2140.13230370 Ry
     estimated scf accuracy    <    9575.49086478 Ry

     iteration #  2     ecut=    29.40 Ry     beta= 0.05
     Davidson diagonalization with overlap
     ethr =  1.00E-02,  avg # of iterations = 31.8

[...]

     iteration # 64     ecut=    29.40 Ry     beta= 0.05
     Davidson diagonalization with overlap
     c_bands:  2 eigenvalues not converged
     c_bands:  1 eigenvalues not converged
     ethr =  3.14E-11,  avg # of iterations = 11.5

[...]

     total energy              =   -2977.68490232 Ry
     estimated scf accuracy    <       0.00000012 Ry

     iteration # 65     ecut=    29.40 Ry     beta= 0.05
     Davidson diagonalization with overlap
     ethr =  3.01E-11,  avg # of iterations =  7.2

     negative rho (up, down):  1.243E-02 0.000E+00

     Adding external electric field

     Computed dipole along edir(3) :
        Dipole                1.6075 Ry au,          4.0859 Debye
        Dipole field          0.0030 Ry au,

        Potential amp.       -0.2812 Ry
        Total length         46.3494 bohr

     End of self-consistent calculation

          k = 0.0000 0.0000 0.0000 ( 18029 PWs)   bands (ev):

   -54.9541 -54.9178 -54.9148 -54.8837 -54.8441 -54.8340 -54.7938 -54.7623
   -54.7577 -54.7470 -54.7271 -54.7219 -54.7138 -54.6598 -53.9332 -53.8992
   -31.5261 -31.4080 -31.3205 -31.2819 -31.2650 -31.2517 -31.2492 -31.2440
   -31.2095 -31.2075 -31.1629 -31.1627 -31.1571 -31.1268 -31.1082 -31.0882
   -31.0779 -31.0721 -31.0709 -31.0635 -31.0295 -31.0248 -31.0184 -31.0124
   -30.9927 -30.9749 -30.9641 -30.9631 -30.9557 -30.9556 -30.9452 -30.9366
   -30.9206 -30.9203 -30.9116 -30.9100 -30.8844 -30.8778 -30.8759 -30.8751
   -30.8564 -30.8559 -30.3420 -30.2496 -30.2274 -30.1585 -30.0718 -29.9608
   -18.9624 -18.2085 -15.7894 -15.5218 -15.3965 -15.1963 -15.1432 -15.0382
   -14.8783 -14.8176 -14.7527 -14.7278 -14.7220 -14.6951 -14.6225 -14.5669
   -14.5380 -14.4857 -14.4852 -14.4489 -14.4418 -14.4369 -14.3823 -14.3785
   -14.3419 -14.3283 -14.3206 -14.1774 -14.0989 -14.0512 -14.0403 -13.1974
   -12.4358 -12.3186 -10.9864  -7.5839  -6.3977  -5.9732  -5.7682  -4.0015
    -3.8473  -3.1333  -2.9627  -2.9508  -2.8728  -2.8494  -2.6784  -2.6184
    -2.5098  -2.3939  -2.3182  -2.2207  -2.1768  -2.1587  -2.1449  -2.0315
    -1.9459  -1.9085  -1.8692  -1.8307  -1.8136  -1.7683  -1.7469  -1.7370
    -1.7042  -1.6790  -1.5259  -1.4513  -1.4148  -1.3807  -1.3404  -1.2833
    -1.2620  -1.2454  -1.2401  -1.2321  -1.2157  -1.1913  -1.1554  -1.1236
    -1.0557  -0.9714  -0.9622  -0.8506  -0.7667  -0.6340  -0.5808  -0.5228
    -0.4926  -0.4261  -0.3845  -0.3368  -0.3007  -0.2943  -0.2479  -0.1605
    -0.1474  -0.0900  -0.0716   0.0132   0.0595   0.0652   0.0761   0.2526
     0.2630   0.2807   0.3837   0.4645   0.5034   0.5201   0.5775   0.6400
     0.6424   0.6807   0.7027   0.7333   0.8163   0.9198   0.9448   0.9832
     0.9975   1.0230   1.0400   1.0671   1.1063   1.1875   1.1936   1.2708
     1.3631   1.3743   1.6372   1.6693   2.0001   2.0270   2.0894   2.2751
     2.6639   2.7113   4.1477   4.2097   4.2550   4.2805   4.2986   4.3801
     4.3998   4.6156   4.6419   4.6429   4.6521

[...]

          k = 0.0380-0.0419 0.0000 ( 17876 PWs)   bands (ev):

[...]

          k =-0.0760-0.0000 0.0000 ( 17886 PWs)   bands (ev):

[...]

          k =-0.0760-0.0839 0.0000 ( 17948 PWs)   bands (ev):

   -54.9423 -54.9264 -54.9007 -54.9006 -54.8416 -54.8244 -54.8034 -54.7552
   -54.7470 -54.7415 -54.7323 -54.7292 -54.7242 -54.6622 -53.9163 -53.9160
   -31.3349 -31.3235 -31.2578 -31.2231 -31.2231 -31.2165 -31.1930 -31.1929
   -31.1678 -31.1654 -31.1563 -31.1525 -31.1446 -31.0947 -31.0811 -31.0802
   -31.0762 -31.0747 -31.0716 -31.0689 -31.0418 -31.0317 -31.0294 -31.0229
   -31.0219 -31.0202 -31.0201 -31.0189 -30.9979 -30.9805 -30.9744 -30.9675
   -30.9612 -30.9556 -30.9541 -30.9499 -30.9496 -30.9225 -30.9155 -30.9126
   -30.9079 -30.8976 -30.2402 -30.2399 -30.1547 -30.1544 -30.1152 -30.1150
   -18.9574 -18.2091 -15.2801 -15.1532 -15.0544 -14.9987 -14.9519 -14.9364
   -14.9188 -14.8654 -14.8353 -14.7755 -14.7518 -14.7035 -14.6594 -14.6555
   -14.6277 -14.5481 -14.5330 -14.5204 -14.5130 -14.4621 -14.4482 -14.4253
   -14.4027 -14.3987 -14.3801 -14.3078 -14.2980 -14.2938 -14.2545 -13.2066
   -12.4203 -12.4201 -10.9870  -7.5950  -6.3881  -5.9727  -5.7530  -3.9821
    -3.8391  -2.5618  -2.5401  -2.4050  -2.3915  -2.2797  -2.1875  -2.1373
    -2.1315  -1.9927  -1.9598  -1.9439  -1.9287  -1.9162  -1.8675  -1.8443
    -1.8084  -1.7910  -1.7813  -1.7715  -1.7558  -1.7353  -1.6832  -1.6792
    -1.6686  -1.6542  -1.6102  -1.5946  -1.5636  -1.5528  -1.5246  -1.5020
    -1.4352  -1.3404  -1.2929  -1.2498  -1.1951  -1.1426  -1.1366  -1.0579
    -1.0402  -1.0086  -0.9776  -0.9527  -0.8570  -0.7835  -0.6890  -0.6866
    -0.6829  -0.5633  -0.5230  -0.5055  -0.4928  -0.4627  -0.3784  -0.3681
    -0.3085  -0.2341  -0.2078  -0.2030  -0.1771  -0.0577  -0.0324   0.0276
     0.0580   0.0903   0.0925   0.1719   0.1849   0.2440   0.2586   0.2720
     0.3169   0.3345   0.4329   0.5228   0.5584   0.6616   0.7544   0.7837
     0.8788   0.9366   1.0411   1.0618   1.0855   1.1819   1.1902   1.2251
     1.3541   1.3610   1.4770   1.5167   1.5267   1.5293   2.4475   2.4489
     2.5314   2.5315   4.2741   4.3970   4.4125   4.4587   4.5131   4.6544
     4.6778   4.7249   4.7265   4.8015   4.8103

     the Fermi energy is     4.1999 ev

!    total energy              =   -2977.68494893 Ry
     estimated scf accuracy    <       0.00000007 Ry
     smearing contrib. (-TS)   =      -0.03700452 Ry
     internal energy E=F+TS    =   -2977.64794441 Ry

     The total energy is F=E-TS. E is the sum of the following terms:
     one-electron contribution =  -23305.73623829 Ry
     hartree contribution      =   11753.86326790 Ry
     xc contribution           =    -496.60823737 Ry
     ewald contribution        =    9070.82838688 Ry
     electric field correction =       0.00487647 Ry

     convergence has been achieved in  65 iterations

     Forces acting on atoms (cartesian axes, Ry/au):

     atom    1 type  1   force =     0.00008510   -0.00025455    0.09412085
     atom    2 type  1   force =    -0.00008496   -0.00045950   -0.17747129
     atom    3 type  2   force =     0.00006237   -0.00033359   -0.02123480
     atom    4 type  2   force =     0.00003845   -0.00179283    0.05730287
     atom    5 type  2   force =    -0.01078793   -0.00102473    0.00668607
     atom    6 type  2   force =     0.01198803   -0.00033942    0.00503971
     atom    7 type  1   force =    -0.00060207    0.00106055   -0.01460233
     atom    8 type  1   force =     0.00086555    0.00331277    0.00459529
     atom    9 type  2   force =     0.00001065   -0.00005723    0.00012190
     atom   10 type  2   force =    -0.00368843    0.00210926   -0.00164774
     atom   11 type  2   force =    -0.00016964    0.00061804   -0.00008858
     atom   12 type  2   force =     0.00018834    0.00028507   -0.00020438
     atom   13 type  1   force =    -0.00019647   -0.00026585    0.00010807
     atom   14 type  1   force =     0.00024650   -0.00021752   -0.00036432
     atom   15 type  2   force =     0.00020524    0.00035367   -0.00011128
     atom   16 type  2   force =    -0.00012392    0.00025257   -0.00020003
     atom   17 type  2   force =    -0.00008477   -0.00028543    0.00033047
     atom   18 type  2   force =     0.00014278    0.00006524    0.00003325
     atom   19 type  1   force =     0.00001084    0.00022703   -0.00043390
     atom   20 type  1   force =     0.00039901   -0.00005022   -0.00006222
     atom   21 type  2   force =     0.00011787   -0.00008455    0.10374802
     atom   22 type  2   force =     0.00055724   -0.00029672   -0.00070148
     atom   23 type  2   force =    -0.07069379   -0.00015307   -0.02714419
     atom   24 type  2   force =     0.07065938    0.00031788   -0.02714809
     atom   25 type  1   force =     0.00011023   -0.00017535    0.09374598
     atom   26 type  1   force =    -0.00006458   -0.00053262   -0.17769382
     atom   27 type  2   force =     0.00006759   -0.00005076   -0.02033495
     atom   28 type  2   force =     0.00006590   -0.00145787    0.05630796
     atom   29 type  2   force =    -0.01129564   -0.00040088    0.00736833
     atom   30 type  2   force =     0.01240873   -0.00000350    0.00575546
     atom   31 type  1   force =    -0.00074683    0.00574386   -0.01563942
     atom   32 type  1   force =     0.00081894   -0.00459219    0.00434671
     atom   33 type  2   force =     0.00002067    0.00015532    0.00027640
     atom   34 type  2   force =    -0.00321263   -0.00103237   -0.00519201
     atom   35 type  2   force =    -0.00011027   -0.00039725    0.00008793
     atom   36 type  2   force =     0.00020900   -0.00006663   -0.00008630
     atom   37 type  1   force =    -0.00012052    0.00044316   -0.00011083
     atom   38 type  1   force =     0.00008487    0.00015474   -0.00013141
     atom   39 type  2   force =    -0.00045553   -0.00029704   -0.00016469
     atom   40 type  2   force =     0.00012850   -0.00008546    0.00028248
     atom   41 type  2   force =    -0.00001933    0.00021614   -0.00016528
     atom   42 type  2   force =     0.00044626    0.00008282   -0.00030101
     atom   43 type  1   force =    -0.00015587   -0.00002923   -0.00008913
     atom   44 type  1   force =     0.00035012    0.00038441    0.00030448
     atom   45 type  2   force =     0.00010692   -0.00006552    0.10372658
     atom   46 type  2   force =    -0.07068622   -0.00007116   -0.02711530
     atom   47 type  2   force =     0.07066268    0.00033770   -0.02714049
     atom   48 type  3   force =    -0.00015179   -0.00063664    0.00171459
     atom   49 type  3   force =    -0.00020826   -0.00042537    0.00042881
     atom   50 type  4   force =     0.00080588    0.00221661   -0.00055676
     atom   51 type  5   force =     0.00029049   -0.00105202   -0.00028376
     atom   52 type  5   force =    -0.00050960    0.00031966    0.00051795
     atom   53 type  5   force =     0.00108359   -0.00059779   -0.00110828
     atom   54 type  5   force =     0.00038762   -0.00013369    0.00018987
     atom   55 type  5   force =     0.00035478   -0.00059741   -0.00012801
     atom   56 type  5   force =     0.00029668   -0.00012762    0.00045032
     atom   57 type  2   force =    -0.00081022    0.00077468    0.00146324
     atom   58 type  5   force =     0.00032968   -0.00062338   -0.00103572
     atom   59 type  5   force =     0.00037279   -0.00036423   -0.00036180

     Total force =     0.365846     Total SCF correction =     0.000552
  @ DRIVER MODE: Message from server: STATUS
  @ DRIVER MODE: Message from server: GETFORCE
  @ DRIVER MODE: Returning v,forces,stress,ensemble

     Writing output data file ./calc.save/
  @ DRIVER MODE: Message from server: EXIT
  @ DRIVE MODE: Exiting

     General routines

     Parallel routines

   This run was terminated on:  23:50:48  15Sep2021

   JOB DONE.