     Program PWSCF v.6.7GPU starts on 23Sep2021 at  5:28:39

     R & G space division:  proc/nbgrp/npool/nimage =      10
     Reading input from /storage/home/hcoda1/3/ntian30/research/carbon/CxH_vib/H2O_calc/ads_slab/CHON2HO_d/out_0040/pw.inp
Warning: card &CELL ignored
Warning: card   CELL_DYNAMICS='IPI', ignored
Warning: card / ignored

     Current dimensions of program PWSCF are:
     Max number of different atomic species (ntypx) = 10
     Max number of k-points (npk) =  40000
     Max angular momentum in pseudopotentials (lmaxx) =  3
     Presently no symmetry can be used with electric field

     Message from routine cell_base_init:
     DEPRECATED: use true lattice parameter, not A to a.u. conversion factor

     IMPORTANT: XC functional enforced from input :
     Exchange-correlation= BEEF-VDW
                           (   1   4  43  14   2   0   0)
     Any further DFT definition will be discarded
     Please, verify this is what you really want

  @ DRIVER MODE: Connecting to
 qe_1139763_2937317.sched-torque.pace.gatech.eduytu_v1bn_scratch
  using UNIX socket
  @ DRIVER MODE: Message from server: STATUS
  @ DRIVER MODE: Message from server: INIT
  @ DRIVER MODE: Receiving replica           0          -1
  @ DRIVER MODE: Receiving encoded integer          25
  @ DRIVER MODE:  SCF:  T  FORCE:  T  STRESS:  F  VC:  F  ENSEMBLE:  F
  @ DRIVER MODE:  SCF:  T  FORCE:  T  STRESS:  F  VC:  F  ENSEMBLE:  F

     Using Slab Decomposition

     bravais-lattice index     =            0
     lattice parameter (alat)  =       1.8897  a.u.
     unit-cell volume          =    6658.9804 (a.u.)^3
     number of atoms/cell      =           54
     number of atomic types    =            5
     number of electrons       =       406.00
     number of Kohn-Sham states=          213
     kinetic-energy cutoff     =      29.3995  Ry
     charge density cutoff     =     293.9946  Ry
     scf convergence threshold =      7.3E-08
     mixing beta               =       0.0500
     number of iterations used =            8  plain     mixing
     Exchange-correlation= BEEF-VDW
                           (   1   4  43  14   2   0   0)

     celldm(1)=   1.889726  celldm(2)=   0.000000  celldm(3)=   0.000000
     celldm(4)=   0.000000  celldm(5)=   0.000000  celldm(6)=   0.000000

     crystal axes: (cart. coord. in units of alat)
               a(1) = (   6.579727   0.000000   0.000000 )
               a(2) = (  -0.000775   5.961596   0.000000 )
               a(3) = (   0.000000   0.000000  25.155947 )

     reciprocal axes: (cart. coord. in units 2 pi/alat)
               b(1) = (  0.151982  0.000020  0.000000 )
               b(2) = (  0.000000  0.167740  0.000000 )
               b(3) = (  0.000000  0.000000  0.039752 )

     PseudoPot. # 1 for O  read from file:
     /storage/coda1/p-amedford6/0/shared/rich_project_chbe-medford/medford-share/data/pseudos_module/espresso/nninc/pbe/van/O.UPF
     MD5 check sum: 78c19812648e8988a0fe644b0f25305e
     Pseudo is Ultrasoft, Zval =  6.0
     Generated by new atomic code, or converted to UPF format
     Using radial grid of  737 points,  4 beta functions with:
                l(1) =   0
                l(2) =   0
                l(3) =   1
                l(4) =   1
     Q(r) pseudized with  8 coefficients,  rinner =    0.800   0.800   0.800

     PseudoPot. # 2 for Ti read from file:
     /storage/coda1/p-amedford6/0/shared/rich_project_chbe-medford/medford-share/data/pseudos_module/espresso/nninc/pbe/van/Ti.UPF
     MD5 check sum: 8e4df49b7f0d34bbd5052bf3f5ea0213
     Pseudo is Ultrasoft, Zval = 12.0
     Generated by new atomic code, or converted to UPF format
     Using radial grid of  851 points,  6 beta functions with:
                l(1) =   0
                l(2) =   0
                l(3) =   1
                l(4) =   1
                l(5) =   2
                l(6) =   2
     Q(r) pseudized with  8 coefficients,  rinner =    1.000   1.000   1.000
                                                       1.000   1.000

     PseudoPot. # 3 for C  read from file:
     /storage/coda1/p-amedford6/0/shared/rich_project_chbe-medford/medford-share/data/pseudos_module/espresso/nninc/pbe/van/C.UPF
     MD5 check sum: 1a69bf6b8db32088f5b2163dbdb77a27
     Pseudo is Ultrasoft, Zval =  4.0
     Generated by new atomic code, or converted to UPF format
     Using radial grid of  721 points,  4 beta functions with:
                l(1) =   0
                l(2) =   0
                l(3) =   1
                l(4) =   1
     Q(r) pseudized with  8 coefficients,  rinner =    0.800   0.800   0.800

     PseudoPot. # 4 for H  read from file:
     /storage/coda1/p-amedford6/0/shared/rich_project_chbe-medford/medford-share/data/pseudos_module/espresso/nninc/pbe/van/H.UPF
     MD5 check sum: b5ee9d7bfd3a09ee7748110bda690ff7
     Pseudo is Ultrasoft, Zval =  1.0
     Generated by new atomic code, or converted to UPF format
     Using radial grid of  615 points,  1 beta functions with:
                l(1) =   0
     Q(r) pseudized with  8 coefficients,  rinner =    0.800

     PseudoPot. # 5 for N  read from file:
     /storage/coda1/p-amedford6/0/shared/rich_project_chbe-medford/medford-share/data/pseudos_module/espresso/nninc/pbe/van/N.UPF
     MD5 check sum: 90d10febe142ad51ac9d5be1deb811c4
     Pseudo is Ultrasoft, Zval =  5.0
     Generated by new atomic code, or converted to UPF format
     Using radial grid of  729 points,  4 beta functions with:
                l(1) =   0
                l(2) =   0
                l(3) =   1
                l(4) =   1
     Q(r) pseudized with  8 coefficients,  rinner =    0.800   0.800   0.800

     atomic species   valence    mass     pseudopotential
        O1             6.00    15.99900     O ( 1.00)
        Ti1           12.00    47.86700     Ti( 1.00)
        C1             4.00    12.01100     C ( 1.00)
        H1             1.00     1.00800     H ( 1.00)
        N1             5.00    14.00700     N ( 1.00)

     No symmetry found

   Cartesian axes

     site n.     atom                  positions (alat units)
         1           O1  tau(   1) = (   3.2904802   0.0005063   4.7018136  )
         2           O1  tau(   2) = (   3.2900926   2.9813045   4.7018136  )
         3           Ti1 tau(   3) = (   0.0004258   2.9801865   6.0000000  )
         4           Ti1 tau(   4) = (   0.0000382   5.9609847   6.0000000  )
         5           Ti1 tau(   5) = (   3.2906075   1.4906267   6.0002472  )
         6           Ti1 tau(   6) = (   3.2902200   4.4714249   6.0002472  )
         7           O1  tau(   7) = (   1.3043587   1.4918075   6.0039043  )
         8           O1  tau(   8) = (   1.3039711   4.4726057   6.0039043  )
         9           O1  tau(   9) = (   5.2767064   1.4903225   6.0039473  )
        10           O1  tau(  10) = (   5.2763189   4.4711207   6.0039473  )
        11           O1  tau(  11) = (   3.2906025   0.0005020   7.3038282  )
        12           O1  tau(  12) = (   3.2902150   2.9813002   7.3038282  )
        13           O1  tau(  13) = (   0.0006271   0.0005054   7.9858123  )
        14           O1  tau(  14) = (   0.0002396   2.9813036   7.9858123  )
        15           Ti1 tau(  15) = (   3.2350752   0.0608747   9.1773017  )
        16           Ti1 tau(  16) = (   3.2297482   3.0449837   9.2258248  )
        17           Ti1 tau(  17) = (   6.5035314   4.4790947   9.3419400  )
        18           O1  tau(  18) = (   4.5942328   1.4918067   9.2879030  )
        19           O1  tau(  19) = (   4.5938453   4.4726049   9.2879030  )
        20           O1  tau(  20) = (   1.9868534   1.4903216   9.2879459  )
        21           O1  tau(  21) = (   1.9864658   4.4711199   9.2879459  )
        22           Ti1 tau(  22) = (   6.5047199   1.5482117   9.3251357  )
        23           O1  tau(  23) = (   6.5709586   2.9893791  10.5365161  )
        24           O1  tau(  24) = (   6.5791863   0.0068326  10.5847705  )
        25           O1  tau(  25) = (   3.2737170   2.9471243  11.2864913  )
        26           O1  tau(  26) = (   3.2757665   0.0160177  11.3056520  )
        27           Ti1 tau(  27) = (   3.3024496   1.5456137  12.4328335  )
        28           Ti1 tau(  28) = (   0.0381823   0.0558990  12.5328616  )
        29           Ti1 tau(  29) = (   3.2867454   4.6490159  12.6676011  )
        30           O1  tau(  30) = (   1.2579511   1.4933188  12.6274103  )
        31           O1  tau(  31) = (   5.2930440   1.4968169  12.6131059  )
        32           O1  tau(  32) = (   1.2503383   4.4760527  12.6363980  )
        33           O1  tau(  33) = (   5.2887019   4.4660859  12.6249461  )
        34           Ti1 tau(  34) = (   6.5320965   3.0346479  12.8073368  )
        35           O1  tau(  35) = (   3.2762579   2.9735537  13.8874883  )
        36           O1  tau(  36) = (   3.2793791   5.9387796  13.8789893  )
        37           O1  tau(  37) = (   6.5412754   2.9812497  14.6926498  )
        38           O1  tau(  38) = (   6.5531526   0.0082392  14.6823945  )
        39           Ti1 tau(  39) = (   3.2668636   2.9663550  15.6683660  )
        40           Ti1 tau(  40) = (   3.2982107   5.9440960  16.3508785  )
        41           Ti1 tau(  41) = (   0.0141158   4.5598071  15.9269461  )
        42           O1  tau(  42) = (   4.5124726   4.4172202  16.0573870  )
        43           O1  tau(  43) = (   1.9821766   4.4208814  16.0404589  )
        44           O1  tau(  44) = (   4.4954461   1.5000296  16.1066544  )
        45           O1  tau(  45) = (   1.9782815   1.5221889  16.0619205  )
        46           Ti1 tau(  46) = (   0.0269324   1.3869748  16.0447141  )
        47           O1  tau(  47) = (   6.5379229   5.9414530  17.1901000  )
        48           O1  tau(  48) = (   6.5175113   2.9840192  17.3772383  )
        49           C1  tau(  49) = (   5.9742390   3.1768082  18.5865123  )
        50           H1  tau(  50) = (   5.8341806   4.1706531  18.9840957  )
        51           N1  tau(  51) = (   5.5886240   2.1683037  19.3003467  )
        52           N1  tau(  52) = (   5.2398892   1.2394158  19.8970451  )
        53           O1  tau(  53) = (   3.2183551   5.8834210  18.1446619  )
        54           H1  tau(  54) = (   3.7026433   0.4106729  18.8445816  )

     number of k points=    10  Fermi-Dirac smearing, width (Ry)=  0.0073
                       cart. coord. in units 2pi/alat
        k(    1) = (   0.0000000   0.0000000   0.0000000), wk =   0.1250000
        k(    2) = (   0.0000000   0.0419351   0.0000000), wk =   0.2500000
        k(    3) = (   0.0000000  -0.0838702   0.0000000), wk =   0.1250000
        k(    4) = (   0.0379955   0.0000049   0.0000000), wk =   0.2500000
        k(    5) = (   0.0379955   0.0419400   0.0000000), wk =   0.2500000
        k(    6) = (   0.0379955  -0.0838652   0.0000000), wk =   0.2500000
        k(    7) = (   0.0379955  -0.0419301   0.0000000), wk =   0.2500000
        k(    8) = (  -0.0759910  -0.0000099   0.0000000), wk =   0.1250000
        k(    9) = (  -0.0759910   0.0419252   0.0000000), wk =   0.2500000
        k(   10) = (  -0.0759910  -0.0838800   0.0000000), wk =   0.1250000

     Initial potential from superposition of free atoms

     starting charge  389.99917, renormalised to  406.00000

     negative rho (up, down):  1.659E-02 0.000E+00

     %%%%%%%%%%%%%%%%%%%%%%%%%%%%%%%%%%%%%%%%%%%%%%%%%%%%%%%%%%%%%%%%%%%%%%%%
     %                                                                      %
     % You are using vdW-DF, which was implemented by the Thonhauser group. %
     % Please cite the following two papers that made this development      %
     % possible and the two reviews that describe the various versions:     %
     %                                                                      %
     %   T. Thonhauser et al., PRL 115, 136402 (2015).                      %
     %   T. Thonhauser et al., PRB 76, 125112 (2007).                       %
     %   K. Berland et al., Rep. Prog. Phys. 78, 066501 (2015).             %
     %   D.C. Langreth et al., J. Phys.: Condens. Matter 21, 084203 (2009). %
     %                                                                      %
     %                                                                      %
     % If you are calculating the stress with vdW-DF, please also cite:     %
     %                                                                      %
     %   R. Sabatini et al., J. Phys.: Condens. Matter 24, 424209 (2012).   %
     %                                                                      %
     %%%%%%%%%%%%%%%%%%%%%%%%%%%%%%%%%%%%%%%%%%%%%%%%%%%%%%%%%%%%%%%%%%%%%%%%

     Adding external electric field

     Computed dipole along edir(3) :
        Dipole              -13.7787 Ry au,        -35.0219 Debye
        Dipole field         -0.0260 Ry au,

        Potential amp.        2.4104 Ry
        Total length         46.3494 bohr

     Starting wfcs are  306 atomic wfcs
  @ DRIVER MODE: Message from server: STATUS
  @ DRIVER MODE: Message from server: POSDATA
  @ DRIVER MODE: Reading and sharing cell
  @ DRIVER MODE: Reading and sharing positions
  @ DRIVER MODE: Received positions

     Self-consistent Calculation

     iteration #  1     ecut=    29.40 Ry     beta= 0.05
     Davidson diagonalization with overlap
     c_bands:  1 eigenvalues not converged
     c_bands:  1 eigenvalues not converged
     c_bands:  5 eigenvalues not converged
     c_bands:  5 eigenvalues not converged
     ethr =  1.00E-05,  avg # of iterations = 30.9

[...]

     total energy              =   -2306.62265060 Ry
     estimated scf accuracy    <    7908.71732181 Ry

     iteration #  2     ecut=    29.40 Ry     beta= 0.05
     Davidson diagonalization with overlap
     ethr =  1.00E-02,  avg # of iterations = 25.7

[...]

     iteration # 45     ecut=    29.40 Ry     beta= 0.05
     Davidson diagonalization with overlap
     c_bands:  1 eigenvalues not converged
     c_bands:  1 eigenvalues not converged
     c_bands:  1 eigenvalues not converged
     ethr =  2.73E-07,  avg # of iterations = 13.8

[...]

     total energy              =   -3002.64634125 Ry
     estimated scf accuracy    <       0.00000013 Ry

     iteration # 69     ecut=    29.40 Ry     beta= 0.05
     Davidson diagonalization with overlap
     ethr =  3.20E-11,  avg # of iterations =  4.6

     negative rho (up, down):  1.646E-02 0.000E+00

     Adding external electric field

     Computed dipole along edir(3) :
        Dipole                0.4152 Ry au,          1.0552 Debye
        Dipole field          0.0008 Ry au,

        Potential amp.       -0.0726 Ry
        Total length         46.3494 bohr

     End of self-consistent calculation

          k = 0.0000 0.0000 0.0000 ( 18029 PWs)   bands (ev):

   -56.2520 -56.1953 -55.7642 -55.7062 -55.7061 -55.6892 -55.6585 -55.6504
   -55.6213 -55.6119 -55.5711 -55.5530 -55.4890 -55.3177 -54.9025 -54.8686
   -32.6670 -32.5281 -32.4627 -32.4223 -32.3238 -32.2917 -32.2455 -32.2170
   -32.2007 -32.0987 -32.0636 -32.0053 -32.0013 -31.9938 -31.9789 -31.9610
   -31.9511 -31.9489 -31.9284 -31.9192 -31.8679 -31.8640 -31.8602 -31.8559
   -31.8538 -31.8367 -31.8341 -31.8156 -31.8137 -31.8095 -31.8022 -31.7715
   -31.7697 -31.7691 -31.7425 -31.7306 -31.7240 -31.7188 -31.6907 -31.5777
   -31.5363 -31.5279 -31.2990 -31.2405 -31.2163 -31.1156 -31.0304 -30.9191
   -20.5498 -18.6849 -16.4845 -16.4562 -16.3071 -16.1018 -15.9421 -15.8702
   -15.6788 -15.5914 -15.5317 -15.5020 -15.4700 -15.3882 -15.3536 -15.3016
   -15.2567 -15.2418 -15.2175 -15.2011 -15.1889 -15.1872 -15.1844 -15.1541
   -15.1128 -15.0150 -14.9476 -14.9100 -14.8911 -14.8811 -14.8407 -14.5318
   -13.5426 -13.4044 -13.2948  -6.9402  -5.8965  -4.9232  -4.3544  -3.9603
    -3.7852  -3.6925  -3.6305  -3.5663  -3.5286  -3.3390  -3.3065  -3.1489
    -3.0267  -2.9447  -2.8724  -2.8550  -2.8307  -2.7927  -2.7344  -2.6996
    -2.6685  -2.6384  -2.5810  -2.5410  -2.5130  -2.4812  -2.4677  -2.4310
    -2.4125  -2.4076  -2.2665  -2.2201  -2.1773  -2.1717  -2.1474  -2.1253
    -2.1029  -2.0691  -2.0562  -2.0070  -1.9281  -1.8431  -1.8270  -1.7446
    -1.7100  -1.5359  -1.4743  -1.3990  -1.3682  -1.2032  -1.1758  -1.1682
    -1.1464  -1.1259  -1.0027  -0.9703  -0.9341  -0.9232  -0.8872  -0.8658
    -0.8408  -0.7349  -0.6701  -0.6309  -0.6156  -0.5502  -0.4527  -0.3821
    -0.3535  -0.3204  -0.2875  -0.1838  -0.1529  -0.1115  -0.1039  -0.0423
    -0.0083   0.0144   0.0712   0.0982   0.1515   0.1665   0.1862   0.2256
     0.2355   0.2816   0.3502   0.4139   0.5106   0.5309   0.5554   0.5930
     0.6736   0.7481   0.8284   1.0103   1.1155   1.1557   1.3199   1.3658
     1.6661   1.7137   2.5279   3.0386   3.1907   3.4538   3.5059   3.5416
     3.5837   3.6383   3.7690   3.8795   3.9361

[...]

          k = 0.0380-0.0419 0.0000 ( 17876 PWs)   bands (ev):

[...]

          k =-0.0760-0.0000 0.0000 ( 17886 PWs)   bands (ev):

[...]

          k =-0.0760-0.0839 0.0000 ( 17948 PWs)   bands (ev):

   -56.2465 -56.2007 -55.7617 -55.7047 -55.6984 -55.6849 -55.6659 -55.6528
   -55.6258 -55.6028 -55.5802 -55.5541 -55.4873 -55.3193 -54.8857 -54.8852
   -32.5245 -32.5026 -32.4652 -32.4637 -32.3905 -32.3525 -32.1491 -32.0661
   -32.0572 -32.0199 -32.0092 -31.9782 -31.9761 -31.9736 -31.9509 -31.9454
   -31.9362 -31.9306 -31.9283 -31.9207 -31.9062 -31.9041 -31.8791 -31.8759
   -31.8727 -31.8667 -31.8661 -31.8598 -31.8423 -31.8368 -31.8218 -31.8192
   -31.8159 -31.8058 -31.7979 -31.7736 -31.7573 -31.7235 -31.6944 -31.6518
   -31.5764 -31.5306 -31.2294 -31.2292 -31.1146 -31.1124 -31.0724 -31.0713
   -20.5484 -18.6733 -16.4516 -15.8309 -15.8209 -15.7894 -15.7492 -15.7021
   -15.6882 -15.6203 -15.6112 -15.5832 -15.5031 -15.4396 -15.3853 -15.3618
   -15.3587 -15.3358 -15.3075 -15.2678 -15.2459 -15.2370 -15.2270 -15.1716
   -15.1498 -15.1471 -15.1212 -15.1004 -15.0757 -15.0330 -14.8960 -14.6900
   -13.5498 -13.3993 -13.3974  -6.9123  -5.9117  -4.9224  -4.3420  -3.6051
    -3.2925  -3.0898  -3.0595  -2.9796  -2.9227  -2.8252  -2.8058  -2.7873
    -2.7720  -2.7584  -2.7328  -2.7032  -2.6540  -2.6255  -2.5912  -2.5802
    -2.5726  -2.5525  -2.5450  -2.5135  -2.4971  -2.4793  -2.4610  -2.4431
    -2.4285  -2.4147  -2.3435  -2.3111  -2.2762  -2.1114  -2.0991  -2.0962
    -2.0701  -2.0524  -2.0426  -1.9821  -1.9200  -1.9106  -1.8595  -1.8443
    -1.7645  -1.6990  -1.5377  -1.4992  -1.4720  -1.3955  -1.3367  -1.3032
    -1.2809  -1.2474  -1.2147  -1.2050  -1.1622  -1.1108  -1.0323  -1.0099
    -0.9601  -0.9519  -0.9428  -0.8588  -0.7877  -0.7718  -0.7268  -0.7078
    -0.6837  -0.6454  -0.5914  -0.5574  -0.5441  -0.5310  -0.4343  -0.3835
    -0.3295  -0.2281  -0.1906  -0.1315  -0.0215   0.0636   0.0757   0.1730
     0.2147   0.3138   0.3522   0.4060   0.4440   0.4706   0.5005   0.6174
     0.6362   0.6827   0.7604   0.7774   0.8059   0.8557   1.5044   1.5117
     1.5223   1.5238   2.4471   3.5609   3.5886   3.6072   3.6460   3.8440
     3.8748   3.8927   3.9217   3.9403   3.9937

     the Fermi energy is     2.8402 ev

!    total energy              =   -3002.64636343 Ry
     estimated scf accuracy    <       0.00000006 Ry
     smearing contrib. (-TS)   =      -0.00424566 Ry
     internal energy E=F+TS    =   -3002.64211777 Ry

     The total energy is F=E-TS. E is the sum of the following terms:
     one-electron contribution =  -23370.25756506 Ry
     hartree contribution      =   11778.99071555 Ry
     xc contribution           =    -498.78640024 Ry
     ewald contribution        =    9087.41080671 Ry
     electric field correction =       0.00032527 Ry

     convergence has been achieved in  69 iterations

     Forces acting on atoms (cartesian axes, Ry/au):

     atom    1 type  1   force =     0.00016681    0.00010369    0.09958161
     atom    2 type  1   force =     0.00014879    0.00020759    0.09908811
     atom    3 type  2   force =     0.00018883    0.00034197    0.12392075
     atom    4 type  2   force =     0.00044521    0.00004461    0.13850241
     atom    5 type  2   force =    -0.00010056    0.00965392   -0.15996662
     atom    6 type  2   force =     0.00009512   -0.00873316   -0.15975745
     atom    7 type  1   force =    -0.07910235    0.00146164   -0.03322285
     atom    8 type  1   force =    -0.07913433   -0.00181760   -0.03326282
     atom    9 type  1   force =     0.07906184    0.00179108   -0.03330147
     atom   10 type  1   force =     0.07909113   -0.00147102   -0.03327951
     atom   11 type  1   force =    -0.00114127    0.00062763    0.04291970
     atom   12 type  1   force =    -0.00114830    0.00003555    0.04557591
     atom   13 type  1   force =    -0.00039606   -0.00173970   -0.05066589
     atom   14 type  1   force =    -0.00086032    0.00123502   -0.04787282
     atom   15 type  2   force =    -0.00034034   -0.00005040    0.00009474
     atom   16 type  2   force =    -0.00033142    0.00005358   -0.00017743
     atom   17 type  2   force =     0.00022648   -0.00038869   -0.00016063
     atom   18 type  1   force =    -0.01155035   -0.00689591   -0.00024734
     atom   19 type  1   force =    -0.01367857    0.00098272    0.00210855
     atom   20 type  1   force =     0.01285055   -0.00248346   -0.00226557
     atom   21 type  1   force =     0.01410599    0.00576679    0.00036049
     atom   22 type  2   force =     0.00030965    0.00005264    0.00024936
     atom   23 type  1   force =    -0.00010062   -0.00009030   -0.00007262
     atom   24 type  1   force =    -0.00025706   -0.00000136    0.00035366
     atom   25 type  1   force =     0.00023615    0.00032791   -0.00019883
     atom   26 type  1   force =     0.00035379    0.00012655   -0.00036658
     atom   27 type  2   force =    -0.00031110   -0.00044155    0.00037845
     atom   28 type  2   force =     0.00052289   -0.00029992   -0.00000429
     atom   29 type  2   force =    -0.00015259    0.00024965    0.00023970
     atom   30 type  1   force =    -0.00032300   -0.00035325   -0.00025628
     atom   31 type  1   force =     0.00048878   -0.00004363    0.00011611
     atom   32 type  1   force =    -0.00029894    0.00039909   -0.00000288
     atom   33 type  1   force =     0.00023793    0.00034444    0.00009734
     atom   34 type  2   force =     0.00041045    0.00018123   -0.00027242
     atom   35 type  1   force =     0.00005603   -0.00011821   -0.00048205
     atom   36 type  1   force =     0.00007516   -0.00004489    0.00019352
     atom   37 type  1   force =     0.00000320   -0.00021456    0.00054318
     atom   38 type  1   force =     0.00004501    0.00044812   -0.00007253
     atom   39 type  2   force =     0.00004770    0.00040248    0.00035398
     atom   40 type  2   force =    -0.00009811   -0.00021080   -0.00033742
     atom   41 type  2   force =    -0.00028627    0.00045092   -0.00014262
     atom   42 type  1   force =     0.00031253    0.00004982   -0.00011881
     atom   43 type  1   force =    -0.00045123    0.00008283   -0.00009305
     atom   44 type  1   force =     0.00048615    0.00006854    0.00049477
     atom   45 type  1   force =    -0.00074967    0.00010518    0.00039172
     atom   46 type  2   force =    -0.00007832    0.00022039   -0.00019847
     atom   47 type  1   force =     0.00000921    0.00024851    0.00007786
     atom   48 type  1   force =     0.00033127    0.00001227   -0.00041348
     atom   49 type  3   force =     0.00028765    0.00031045   -0.00030498
     atom   50 type  4   force =    -0.00013160    0.00030836    0.00061451
     atom   51 type  5   force =    -0.00010589   -0.00042099    0.00017623
     atom   52 type  5   force =     0.00008044   -0.00061070    0.00014966
     atom   53 type  1   force =     0.00457937    0.00472545    0.00668068
     atom   54 type  4   force =    -0.00412586   -0.00499052   -0.00574533

     Total force =     0.380473     Total SCF correction =     0.000542
  @ DRIVER MODE: Message from server: STATUS
  @ DRIVER MODE: Message from server: GETFORCE
  @ DRIVER MODE: Returning v,forces,stress,ensemble

     Writing output data file ./calc.save/
  @ DRIVER MODE: Message from server: EXIT
  @ DRIVE MODE: Exiting

     General routines

     Parallel routines

   This run was terminated on:   5:48:37  23Sep2021

   JOB DONE.