     Program PWSCF v.6.7GPU starts on  9Sep2021 at 13:47:24

     R & G space division:  proc/nbgrp/npool/nimage =      10
     Reading input from /storage/home/hcoda1/3/ntian30/research/carbon/CxH_vib/CH3_calc/ads_slab/CH3NH2NH_c/out_0047/pw.inp
Warning: card &CELL ignored
Warning: card   CELL_DYNAMICS='IPI', ignored
Warning: card / ignored

     Current dimensions of program PWSCF are:
     Max number of different atomic species (ntypx) = 10
     Max number of k-points (npk) =  40000
     Max angular momentum in pseudopotentials (lmaxx) =  3
     Presently no symmetry can be used with electric field

     Message from routine cell_base_init:
     DEPRECATED: use true lattice parameter, not A to a.u. conversion factor

     IMPORTANT: XC functional enforced from input :
     Exchange-correlation= BEEF-VDW
                           (   1   4  43  14   2   0   0)
     Any further DFT definition will be discarded
     Please, verify this is what you really want

  @ DRIVER MODE: Connecting to
 qe_1139763_2767400.sched-torque.pace.gatech.edu991dc_pq_scratch
  using UNIX socket
  @ DRIVER MODE: Message from server: STATUS
  @ DRIVER MODE: Message from server: INIT
  @ DRIVER MODE: Receiving replica           0          -1
  @ DRIVER MODE: Receiving encoded integer          25
  @ DRIVER MODE:  SCF:  T  FORCE:  T  STRESS:  F  VC:  F  ENSEMBLE:  F
  @ DRIVER MODE:  SCF:  T  FORCE:  T  STRESS:  F  VC:  F  ENSEMBLE:  F

     Using Slab Decomposition

     bravais-lattice index     =            0
     lattice parameter (alat)  =       1.8897  a.u.
     unit-cell volume          =    6658.9804 (a.u.)^3
     number of atoms/cell      =           56
     number of atomic types    =            5
     number of electrons       =       398.00
     number of Kohn-Sham states=          209
     kinetic-energy cutoff     =      29.3995  Ry
     charge density cutoff     =     293.9946  Ry
     scf convergence threshold =      7.3E-08
     mixing beta               =       0.0500
     number of iterations used =            8  plain     mixing
     Exchange-correlation= BEEF-VDW
                           (   1   4  43  14   2   0   0)

     celldm(1)=   1.889726  celldm(2)=   0.000000  celldm(3)=   0.000000
     celldm(4)=   0.000000  celldm(5)=   0.000000  celldm(6)=   0.000000

     crystal axes: (cart. coord. in units of alat)
               a(1) = (   6.579727   0.000000   0.000000 )
               a(2) = (  -0.000775   5.961596   0.000000 )
               a(3) = (   0.000000   0.000000  25.155947 )

     reciprocal axes: (cart. coord. in units 2 pi/alat)
               b(1) = (  0.151982  0.000020  0.000000 )
               b(2) = (  0.000000  0.167740  0.000000 )
               b(3) = (  0.000000  0.000000  0.039752 )

     PseudoPot. # 1 for Ti read from file:
     /storage/coda1/p-amedford6/0/shared/rich_project_chbe-medford/medford-share/data/pseudos_module/espresso/nninc/pbe/van/Ti.UPF
     MD5 check sum: 8e4df49b7f0d34bbd5052bf3f5ea0213
     Pseudo is Ultrasoft, Zval = 12.0
     Generated by new atomic code, or converted to UPF format
     Using radial grid of  851 points,  6 beta functions with:
                l(1) =   0
                l(2) =   0
                l(3) =   1
                l(4) =   1
                l(5) =   2
                l(6) =   2
     Q(r) pseudized with  8 coefficients,  rinner =    1.000   1.000   1.000
                                                       1.000   1.000

     PseudoPot. # 2 for O  read from file:
     /storage/coda1/p-amedford6/0/shared/rich_project_chbe-medford/medford-share/data/pseudos_module/espresso/nninc/pbe/van/O.UPF
     MD5 check sum: 78c19812648e8988a0fe644b0f25305e
     Pseudo is Ultrasoft, Zval =  6.0
     Generated by new atomic code, or converted to UPF format
     Using radial grid of  737 points,  4 beta functions with:
                l(1) =   0
                l(2) =   0
                l(3) =   1
                l(4) =   1
     Q(r) pseudized with  8 coefficients,  rinner =    0.800   0.800   0.800

     PseudoPot. # 3 for N  read from file:
     /storage/coda1/p-amedford6/0/shared/rich_project_chbe-medford/medford-share/data/pseudos_module/espresso/nninc/pbe/van/N.UPF
     MD5 check sum: 90d10febe142ad51ac9d5be1deb811c4
     Pseudo is Ultrasoft, Zval =  5.0
     Generated by new atomic code, or converted to UPF format
     Using radial grid of  729 points,  4 beta functions with:
                l(1) =   0
                l(2) =   0
                l(3) =   1
                l(4) =   1
     Q(r) pseudized with  8 coefficients,  rinner =    0.800   0.800   0.800

     PseudoPot. # 4 for C  read from file:
     /storage/coda1/p-amedford6/0/shared/rich_project_chbe-medford/medford-share/data/pseudos_module/espresso/nninc/pbe/van/C.UPF
     MD5 check sum: 1a69bf6b8db32088f5b2163dbdb77a27
     Pseudo is Ultrasoft, Zval =  4.0
     Generated by new atomic code, or converted to UPF format
     Using radial grid of  721 points,  4 beta functions with:
                l(1) =   0
                l(2) =   0
                l(3) =   1
                l(4) =   1
     Q(r) pseudized with  8 coefficients,  rinner =    0.800   0.800   0.800

     PseudoPot. # 5 for H  read from file:
     /storage/coda1/p-amedford6/0/shared/rich_project_chbe-medford/medford-share/data/pseudos_module/espresso/nninc/pbe/van/H.UPF
     MD5 check sum: b5ee9d7bfd3a09ee7748110bda690ff7
     Pseudo is Ultrasoft, Zval =  1.0
     Generated by new atomic code, or converted to UPF format
     Using radial grid of  615 points,  1 beta functions with:
                l(1) =   0
     Q(r) pseudized with  8 coefficients,  rinner =    0.800

     atomic species   valence    mass     pseudopotential
        Ti1           12.00    47.86700     Ti( 1.00)
        O1             6.00    15.99900     O ( 1.00)
        N1             5.00    14.00700     N ( 1.00)
        C1             4.00    12.01100     C ( 1.00)
        H1             1.00     1.00800     H ( 1.00)

     No symmetry found

   Cartesian axes

     site n.     atom                  positions (alat units)
         1           Ti1 tau(   1) = (   0.0004258   2.9801865   6.0000000  )
         2           Ti1 tau(   2) = (   3.2906075   1.4906267   6.0002472  )
         3           O1  tau(   3) = (   0.0006271   0.0005054   7.9858123  )
         4           O1  tau(   4) = (   3.2906025   0.0005020   7.3038282  )
         5           O1  tau(   5) = (   4.5942328   1.4918067   9.2879030  )
         6           O1  tau(   6) = (   1.9868534   1.4903216   9.2879459  )
         7           Ti1 tau(   7) = (   3.2907910   2.8959150   9.1758416  )
         8           Ti1 tau(   8) = (   0.0015273   1.4827037   9.2680791  )
         9           O1  tau(   9) = (   3.3032705   0.0110091  11.3485381  )
        10           O1  tau(  10) = (   0.0116148   5.9584955  10.6183126  )
        11           O1  tau(  11) = (   1.3020657   1.4959176  12.6398190  )
        12           O1  tau(  12) = (   5.2896457   1.4919019  12.6612249  )
        13           Ti1 tau(  13) = (   0.0353884   3.0012823  12.5523301  )
        14           Ti1 tau(  14) = (   3.3275346   1.5008247  12.4978572  )
        15           O1  tau(  15) = (   0.0424128   0.0047235  14.7277795  )
        16           O1  tau(  16) = (   3.2762846   0.0047332  13.9819514  )
        17           O1  tau(  17) = (   4.5591522   1.5298593  16.0930730  )
        18           O1  tau(  18) = (   2.0612242   1.5646392  16.2256692  )
        19           Ti1 tau(  19) = (   3.3170857   3.0293758  15.7013767  )
        20           Ti1 tau(  20) = (   6.5267591   1.5471840  15.7818195  )
        21           O1  tau(  21) = (   3.2904802   0.0005063   4.7018136  )
        22           O1  tau(  22) = (   0.0258072   0.0396315  17.3287798  )
        23           O1  tau(  23) = (   1.3043587   1.4918075   6.0039043  )
        24           O1  tau(  24) = (   5.2767064   1.4903225   6.0039473  )
        25           Ti1 tau(  25) = (   0.0000382   5.9609847   6.0000000  )
        26           Ti1 tau(  26) = (   3.2902200   4.4714249   6.0002472  )
        27           O1  tau(  27) = (   0.0002396   2.9813036   7.9858123  )
        28           O1  tau(  28) = (   3.2902150   2.9813002   7.3038282  )
        29           O1  tau(  29) = (   4.5938453   4.4726049   9.2879030  )
        30           O1  tau(  30) = (   1.9864658   4.4711199   9.2879459  )
        31           Ti1 tau(  31) = (   3.2891106   5.8743827   9.1763621  )
        32           Ti1 tau(  32) = (   0.0006254   4.4649316   9.2693709  )
        33           O1  tau(  33) = (   3.3047253   2.9863606  11.3412877  )
        34           O1  tau(  34) = (   0.0092240   2.9805883  10.6323155  )
        35           O1  tau(  35) = (   1.3023160   4.4818153  12.6295520  )
        36           O1  tau(  36) = (   5.2910779   4.4839738  12.6480862  )
        37           Ti1 tau(  37) = (   0.0306270   0.0097343  12.5156175  )
        38           Ti1 tau(  38) = (   3.3295341   4.4791655  12.4867326  )
        39           O1  tau(  39) = (   0.0319336   2.9935560  14.7343221  )
        40           O1  tau(  40) = (   3.2835893   3.0037955  13.9224844  )
        41           O1  tau(  41) = (   4.5669158   4.4809188  16.1713821  )
        42           O1  tau(  42) = (   2.0542530   4.4668402  16.2247519  )
        43           Ti1 tau(  43) = (   3.3000170   0.0150779  15.7669526  )
        44           Ti1 tau(  44) = (   0.0416703   4.6955124  16.1636639  )
        45           O1  tau(  45) = (   3.2900926   2.9813045   4.7018136  )
        46           O1  tau(  46) = (   1.3039711   4.4726057   6.0039043  )
        47           O1  tau(  47) = (   5.2763189   4.4711207   6.0039473  )
        48           N1  tau(  48) = (   0.9019483   2.4226080  18.4567899  )
        49           N1  tau(  49) = (   6.4923839   2.9153054  17.5348467  )
        50           C1  tau(  50) = (   1.2734633   3.3482217  19.5544901  )
        51           H1  tau(  51) = (   0.3921683   3.5464126  20.1615046  )
        52           H1  tau(  52) = (   2.0553077   2.8833093  20.1573268  )
        53           H1  tau(  53) = (   1.6239766   4.2728770  19.1044814  )
        54           H1  tau(  54) = (   0.5870980   1.4942747  18.7832689  )
        55           H1  tau(  55) = (   5.5983569   2.8486818  18.0059164  )
        56           H1  tau(  56) = (   1.7025450   2.1792920  17.8234971  )

     number of k points=    10  Fermi-Dirac smearing, width (Ry)=  0.0073
                       cart. coord. in units 2pi/alat
        k(    1) = (   0.0000000   0.0000000   0.0000000), wk =   0.1250000
        k(    2) = (   0.0000000   0.0419351   0.0000000), wk =   0.2500000
        k(    3) = (   0.0000000  -0.0838702   0.0000000), wk =   0.1250000
        k(    4) = (   0.0379955   0.0000049   0.0000000), wk =   0.2500000
        k(    5) = (   0.0379955   0.0419400   0.0000000), wk =   0.2500000
        k(    6) = (   0.0379955  -0.0838652   0.0000000), wk =   0.2500000
        k(    7) = (   0.0379955  -0.0419301   0.0000000), wk =   0.2500000
        k(    8) = (  -0.0759910  -0.0000099   0.0000000), wk =   0.1250000
        k(    9) = (  -0.0759910   0.0419252   0.0000000), wk =   0.2500000
        k(   10) = (  -0.0759910  -0.0838800   0.0000000), wk =   0.1250000

     Initial potential from superposition of free atoms

     starting charge  381.99914, renormalised to  398.00000

     negative rho (up, down):  1.484E-02 0.000E+00

     %%%%%%%%%%%%%%%%%%%%%%%%%%%%%%%%%%%%%%%%%%%%%%%%%%%%%%%%%%%%%%%%%%%%%%%%
     %                                                                      %
     % You are using vdW-DF, which was implemented by the Thonhauser group. %
     % Please cite the following two papers that made this development      %
     % possible and the two reviews that describe the various versions:     %
     %                                                                      %
     %   T. Thonhauser et al., PRL 115, 136402 (2015).                      %
     %   T. Thonhauser et al., PRB 76, 125112 (2007).                       %
     %   K. Berland et al., Rep. Prog. Phys. 78, 066501 (2015).             %
     %   D.C. Langreth et al., J. Phys.: Condens. Matter 21, 084203 (2009). %
     %                                                                      %
     %                                                                      %
     % If you are calculating the stress with vdW-DF, please also cite:     %
     %                                                                      %
     %   R. Sabatini et al., J. Phys.: Condens. Matter 24, 424209 (2012).   %
     %                                                                      %
     %%%%%%%%%%%%%%%%%%%%%%%%%%%%%%%%%%%%%%%%%%%%%%%%%%%%%%%%%%%%%%%%%%%%%%%%

     Adding external electric field

     Computed dipole along edir(3) :
        Dipole              -10.9098 Ry au,        -27.7300 Debye
        Dipole field         -0.0206 Ry au,

        Potential amp.        1.9085 Ry
        Total length         46.3494 bohr

     Starting wfcs are  302 atomic wfcs
  @ DRIVER MODE: Message from server: STATUS
  @ DRIVER MODE: Message from server: POSDATA
  @ DRIVER MODE: Reading and sharing cell
  @ DRIVER MODE: Reading and sharing positions
  @ DRIVER MODE: Received positions

     Self-consistent Calculation

     iteration #  1     ecut=    29.40 Ry     beta= 0.05
     Davidson diagonalization with overlap
     c_bands:  5 eigenvalues not converged
     c_bands:  4 eigenvalues not converged
     c_bands:  1 eigenvalues not converged
     c_bands:  2 eigenvalues not converged
     c_bands:  3 eigenvalues not converged
     c_bands:  4 eigenvalues not converged
     c_bands:  4 eigenvalues not converged
     ethr =  1.00E-05,  avg # of iterations = 24.5

[...]

     total energy              =   -2445.34346288 Ry
     estimated scf accuracy    <    5568.57842698 Ry

     iteration #  2     ecut=    29.40 Ry     beta= 0.05
     Davidson diagonalization with overlap
     ethr =  1.00E-02,  avg # of iterations = 22.5

[...]

     iteration # 88     ecut=    29.40 Ry     beta= 0.05
     Davidson diagonalization with overlap
     c_bands:  1 eigenvalues not converged
     ethr =  4.23E-11,  avg # of iterations = 13.1

[...]

     total energy              =   -2942.84149870 Ry
     estimated scf accuracy    <       0.00000013 Ry

     iteration # 89     ecut=    29.40 Ry     beta= 0.05
     Davidson diagonalization with overlap
     ethr =  3.20E-11,  avg # of iterations =  2.0

     negative rho (up, down):  1.047E-02 0.000E+00

     Adding external electric field

     Computed dipole along edir(3) :
        Dipole                1.5793 Ry au,          4.0142 Debye
        Dipole field          0.0030 Ry au,

        Potential amp.       -0.2763 Ry
        Total length         46.3494 bohr

     End of self-consistent calculation

          k = 0.0000 0.0000 0.0000 ( 18029 PWs)   bands (ev):

   -55.0903 -55.0548 -55.0512 -55.0207 -54.9675 -54.9649 -54.9274 -54.8908
   -54.8824 -54.8684 -54.8550 -54.8501 -54.8039 -54.7594 -54.0651 -54.0311
   -31.6643 -31.5443 -31.4544 -31.4247 -31.3856 -31.3811 -31.3793 -31.3499
   -31.3471 -31.3450 -31.3021 -31.2999 -31.2995 -31.2649 -31.2467 -31.2272
   -31.2073 -31.2036 -31.1943 -31.1926 -31.1659 -31.1485 -31.1470 -31.1210
   -31.1116 -31.0975 -31.0955 -31.0927 -31.0891 -31.0762 -31.0711 -31.0642
   -31.0514 -31.0406 -31.0227 -31.0140 -31.0064 -31.0016 -30.9964 -30.9904
   -30.9868 -30.9519 -30.4736 -30.3818 -30.3596 -30.2902 -30.2035 -30.0924
   -19.1643 -15.9333 -15.6590 -15.5363 -15.3254 -15.2757 -15.2029 -15.0076
   -14.9431 -14.8876 -14.8773 -14.8657 -14.8482 -14.7770 -14.6980 -14.6172
   -14.6147 -14.6084 -14.5983 -14.5795 -14.5720 -14.5094 -14.5023 -14.4703
   -14.4582 -14.4184 -14.3113 -14.2293 -14.1723 -14.0224 -13.3407 -12.5676
   -12.4505 -11.1167  -7.8839  -6.5596  -5.8853  -4.1170  -3.9452  -3.2783
    -3.0931  -3.0701  -3.0086  -2.9833  -2.8085  -2.7592  -2.5518  -2.4476
    -2.3602  -2.3212  -2.3089  -2.2923  -2.1424  -2.0745  -2.0403  -1.9926
    -1.9693  -1.9463  -1.9047  -1.8972  -1.8665  -1.8485  -1.8405  -1.6626
    -1.5866  -1.5364  -1.5070  -1.4702  -1.4203  -1.3918  -1.3738  -1.3693
    -1.3640  -1.3450  -1.3143  -1.2525  -1.2245  -1.1678  -1.0999  -1.0735
    -0.9836  -0.9022  -0.7139  -0.6692  -0.6507  -0.6144  -0.5541  -0.5058
    -0.4711  -0.4363  -0.4221  -0.3562  -0.2867  -0.2546  -0.1917  -0.1273
    -0.1169  -0.0539  -0.0470   0.1147   0.1267   0.1481   0.2386   0.3249
     0.3733   0.3811   0.4396   0.5138   0.5360   0.5456   0.5818   0.6022
     0.6792   0.7883   0.8131   0.8547   0.8664   0.9001   0.9230   0.9773
     1.0010   1.0642   1.0705   1.1745   1.2222   1.2564   1.5065   1.5397
     1.8701   1.9036   1.9575   2.1442   2.5314   2.5786   4.0180   4.0806
     4.0944   4.1436   4.1669   4.1858   4.2580   4.4787   4.5039   4.5101
     4.5176

[...]

          k = 0.0380-0.0419 0.0000 ( 17876 PWs)   bands (ev):

[...]

          k =-0.0760-0.0000 0.0000 ( 17886 PWs)   bands (ev):

[...]

          k =-0.0760-0.0839 0.0000 ( 17948 PWs)   bands (ev):

   -55.0782 -55.0631 -55.0377 -55.0377 -54.9644 -54.9538 -54.9384 -54.8737
   -54.8712 -54.8702 -54.8682 -54.8660 -54.7979 -54.7653 -54.0482 -54.0479
   -31.4719 -31.4624 -31.3996 -31.3595 -31.3594 -31.3582 -31.3305 -31.3303
   -31.2993 -31.2953 -31.2904 -31.2844 -31.2594 -31.2246 -31.2174 -31.2114
   -31.2093 -31.2055 -31.2047 -31.1959 -31.1640 -31.1627 -31.1590 -31.1569
   -31.1568 -31.1539 -31.1495 -31.1331 -31.1077 -31.1040 -31.0986 -31.0887
   -31.0868 -31.0848 -31.0838 -31.0680 -31.0494 -31.0481 -31.0378 -31.0320
   -31.0076 -30.9912 -30.3724 -30.3722 -30.2863 -30.2860 -30.2469 -30.2468
   -19.1603 -15.4166 -15.3262 -15.1783 -15.1586 -15.1092 -15.0611 -15.0447
   -15.0275 -14.9713 -14.9320 -14.8862 -14.8373 -14.7937 -14.7915 -14.7532
   -14.6811 -14.6596 -14.6574 -14.6429 -14.5918 -14.5811 -14.5536 -14.5348
   -14.5298 -14.4867 -14.4271 -14.4235 -14.3846 -14.2063 -13.3511 -12.5522
   -12.5521 -11.1191  -7.8941  -6.5432  -5.8744  -4.0891  -3.9386  -2.6854
    -2.5860  -2.5209  -2.4196  -2.3327  -2.2924  -2.2574  -2.1233  -2.1043
    -2.0851  -2.0590  -2.0460  -2.0124  -2.0045  -1.9565  -1.9268  -1.9164
    -1.9102  -1.8973  -1.8752  -1.8278  -1.8049  -1.7951  -1.7858  -1.7471
    -1.7332  -1.7012  -1.6953  -1.6562  -1.6348  -1.5500  -1.4606  -1.4210
    -1.3708  -1.3057  -1.2710  -1.2643  -1.1715  -1.1634  -1.1397  -1.1064
    -1.0613  -0.9412  -0.8838  -0.8205  -0.8164  -0.8033  -0.6968  -0.6587
    -0.6293  -0.5934  -0.5560  -0.5261  -0.4875  -0.4405  -0.3638  -0.3327
    -0.2930  -0.2574  -0.1849  -0.0967  -0.0777  -0.0463  -0.0421   0.0425
     0.0688   0.1071   0.1164   0.1356   0.1922   0.2055   0.2924   0.3825
     0.4466   0.5350   0.6485   0.6531   0.7300   0.8223   0.9089   0.9479
     0.9992   1.0652   1.0668   1.1010   1.2225   1.2298   1.3512   1.3901
     1.3989   1.4211   2.3165   2.3175   2.3987   2.3987   4.1469   4.2445
     4.2837   4.3248   4.3772   4.5222   4.5454   4.5911   4.5915   4.6622
     4.6752

     the Fermi energy is     4.0645 ev

!    total energy              =   -2942.84150205 Ry
     estimated scf accuracy    <       0.00000007 Ry
     smearing contrib. (-TS)   =      -0.03724926 Ry
     internal energy E=F+TS    =   -2942.80425279 Ry

     The total energy is F=E-TS. E is the sum of the following terms:
     one-electron contribution =  -23857.07289589 Ry
     hartree contribution      =   12023.87518900 Ry
     xc contribution           =    -487.75972951 Ry
     ewald contribution        =    9378.14847668 Ry
     electric field correction =       0.00470694 Ry

     convergence has been achieved in  89 iterations

     Forces acting on atoms (cartesian axes, Ry/au):

     atom    1 type  1   force =     0.00001795   -0.00023189    0.09431638
     atom    2 type  1   force =    -0.00016030   -0.00054952   -0.17708961
     atom    3 type  2   force =     0.00001750   -0.00024699   -0.02147629
     atom    4 type  2   force =    -0.00001674   -0.00167788    0.05643204
     atom    5 type  2   force =    -0.01049323   -0.00075641    0.00562828
     atom    6 type  2   force =     0.01225891   -0.00009969    0.00551845
     atom    7 type  1   force =    -0.00024144    0.00106446   -0.01571436
     atom    8 type  1   force =    -0.00006894    0.00525336    0.00655366
     atom    9 type  2   force =    -0.00030634    0.00055864    0.00020572
     atom   10 type  2   force =    -0.00199770    0.00265745   -0.00433513
     atom   11 type  2   force =     0.00040046   -0.00022537    0.00029612
     atom   12 type  2   force =    -0.00007905   -0.00029283   -0.00017909
     atom   13 type  1   force =    -0.00072891    0.00044898   -0.00006337
     atom   14 type  1   force =     0.00037162   -0.00017182    0.00001035
     atom   15 type  2   force =    -0.00018847   -0.00062736   -0.00039466
     atom   16 type  2   force =     0.00005514    0.00038473   -0.00027391
     atom   17 type  2   force =     0.00087619    0.00023786    0.00050719
     atom   18 type  2   force =    -0.00011095    0.00006514   -0.00010309
     atom   19 type  1   force =     0.00017032    0.00081316    0.00022504
     atom   20 type  1   force =    -0.00022916    0.00028076    0.00041988
     atom   21 type  2   force =    -0.00002178   -0.00011249    0.10366372
     atom   22 type  2   force =     0.00015634    0.00038622    0.00044010
     atom   23 type  2   force =    -0.07090080   -0.00022515   -0.02719352
     atom   24 type  2   force =     0.07069767    0.00022829   -0.02724324
     atom   25 type  1   force =     0.00002202   -0.00027132    0.09399457
     atom   26 type  1   force =    -0.00025276   -0.00055140   -0.17735905
     atom   27 type  2   force =     0.00005877   -0.00007975   -0.02060116
     atom   28 type  2   force =     0.00002334   -0.00136429    0.05572903
     atom   29 type  2   force =    -0.01079671   -0.00000492    0.00591955
     atom   30 type  2   force =     0.01248414    0.00028250    0.00577029
     atom   31 type  1   force =    -0.00016899    0.00516941   -0.01629357
     atom   32 type  1   force =    -0.00008996   -0.00625374    0.00668694
     atom   33 type  2   force =    -0.00009531   -0.00047884    0.00023566
     atom   34 type  2   force =    -0.00163523    0.00066738   -0.00773528
     atom   35 type  2   force =    -0.00033022    0.00005920    0.00043800
     atom   36 type  2   force =     0.00058313    0.00005884   -0.00005106
     atom   37 type  1   force =    -0.00081975   -0.00077906   -0.00011029
     atom   38 type  1   force =     0.00048049    0.00001778    0.00041110
     atom   39 type  2   force =    -0.00031340   -0.00020625    0.00055699
     atom   40 type  2   force =    -0.00005268   -0.00019822   -0.00018415
     atom   41 type  2   force =     0.00019885   -0.00054409    0.00035607
     atom   42 type  2   force =    -0.00017213   -0.00026484    0.00051068
     atom   43 type  1   force =    -0.00006972   -0.00071853   -0.00024666
     atom   44 type  1   force =     0.00042385    0.00032989    0.00030798
     atom   45 type  2   force =    -0.00002436   -0.00011815    0.10364848
     atom   46 type  2   force =    -0.07090612   -0.00013070   -0.02716476
     atom   47 type  2   force =     0.07070781    0.00029082   -0.02723410
     atom   48 type  3   force =    -0.00172979    0.00114684    0.00068625
     atom   49 type  3   force =     0.00733657    0.00000092   -0.00436761
     atom   50 type  4   force =     0.00066003   -0.00001403   -0.00008287
     atom   51 type  5   force =     0.00023334   -0.00054921    0.00064076
     atom   52 type  5   force =    -0.00041930    0.00039422    0.00005017
     atom   53 type  5   force =     0.00042148   -0.00045408    0.00024226
     atom   54 type  5   force =     0.00016516   -0.00026759    0.00001427
     atom   55 type  5   force =    -0.00580102   -0.00161277    0.00529995
     atom   56 type  5   force =     0.00040020   -0.00071764   -0.00021912

     Total force =     0.365839     Total SCF correction =     0.000542
  @ DRIVER MODE: Message from server: STATUS
  @ DRIVER MODE: Message from server: GETFORCE
  @ DRIVER MODE: Returning v,forces,stress,ensemble

     Writing output data file ./calc.save/
  @ DRIVER MODE: Message from server: EXIT
  @ DRIVE MODE: Exiting

     General routines

     Parallel routines

   This run was terminated on:  14:10:18   9Sep2021

   JOB DONE.