     Program PWSCF v.6.7GPU starts on 24Aug2021 at  5:41:31

     R & G space division:  proc/nbgrp/npool/nimage =       6
     Reading input from /storage/home/hcoda1/3/ntian30/research/carbon/CH_vib/ads_slab/CHNNHHH_a/out_0032/pw.inp
Warning: card &CELL ignored
Warning: card   CELL_DYNAMICS='IPI', ignored
Warning: card / ignored

     Current dimensions of program PWSCF are:
     Max number of different atomic species (ntypx) = 10
     Max number of k-points (npk) =  40000
     Max angular momentum in pseudopotentials (lmaxx) =  3
     Presently no symmetry can be used with electric field

     Message from routine cell_base_init:
     DEPRECATED: use true lattice parameter, not A to a.u. conversion factor

     IMPORTANT: XC functional enforced from input :
     Exchange-correlation= BEEF-VDW
                           (   1   4  43  14   2   0   0)
     Any further DFT definition will be discarded
     Please, verify this is what you really want

  @ DRIVER MODE: Connecting to
 qe_1139763_2632795.sched-torque.pace.gatech.eduk1p7cxg8_scratch
  using UNIX socket
  @ DRIVER MODE: Message from server: STATUS
  @ DRIVER MODE: Message from server: INIT
  @ DRIVER MODE: Receiving replica           0          -1
  @ DRIVER MODE: Receiving encoded integer          25
  @ DRIVER MODE:  SCF:  T  FORCE:  T  STRESS:  F  VC:  F  ENSEMBLE:  F
  @ DRIVER MODE:  SCF:  T  FORCE:  T  STRESS:  F  VC:  F  ENSEMBLE:  F

     Using Slab Decomposition

     bravais-lattice index     =            0
     lattice parameter (alat)  =       1.8897  a.u.
     unit-cell volume          =    6658.9804 (a.u.)^3
     number of atoms/cell      =           54
     number of atomic types    =            5
     number of electrons       =       396.00
     number of Kohn-Sham states=          208
     kinetic-energy cutoff     =      29.3995  Ry
     charge density cutoff     =     293.9946  Ry
     scf convergence threshold =      7.3E-08
     mixing beta               =       0.0500
     number of iterations used =            8  plain     mixing
     Exchange-correlation= BEEF-VDW
                           (   1   4  43  14   2   0   0)

     celldm(1)=   1.889726  celldm(2)=   0.000000  celldm(3)=   0.000000
     celldm(4)=   0.000000  celldm(5)=   0.000000  celldm(6)=   0.000000

     crystal axes: (cart. coord. in units of alat)
               a(1) = (   6.579727   0.000000   0.000000 )
               a(2) = (  -0.000775   5.961596   0.000000 )
               a(3) = (   0.000000   0.000000  25.155947 )

     reciprocal axes: (cart. coord. in units 2 pi/alat)
               b(1) = (  0.151982  0.000020  0.000000 )
               b(2) = (  0.000000  0.167740  0.000000 )
               b(3) = (  0.000000  0.000000  0.039752 )

     PseudoPot. # 1 for Ti read from file:
     /storage/coda1/p-amedford6/0/shared/rich_project_chbe-medford/medford-share/data/pseudos_module/espresso/nninc/pbe/van/Ti.UPF
     MD5 check sum: 8e4df49b7f0d34bbd5052bf3f5ea0213
     Pseudo is Ultrasoft, Zval = 12.0
     Generated by new atomic code, or converted to UPF format
     Using radial grid of  851 points,  6 beta functions with:
                l(1) =   0
                l(2) =   0
                l(3) =   1
                l(4) =   1
                l(5) =   2
                l(6) =   2
     Q(r) pseudized with  8 coefficients,  rinner =    1.000   1.000   1.000
                                                       1.000   1.000

     PseudoPot. # 2 for O  read from file:
     /storage/coda1/p-amedford6/0/shared/rich_project_chbe-medford/medford-share/data/pseudos_module/espresso/nninc/pbe/van/O.UPF
     MD5 check sum: 78c19812648e8988a0fe644b0f25305e
     Pseudo is Ultrasoft, Zval =  6.0
     Generated by new atomic code, or converted to UPF format
     Using radial grid of  737 points,  4 beta functions with:
                l(1) =   0
                l(2) =   0
                l(3) =   1
                l(4) =   1
     Q(r) pseudized with  8 coefficients,  rinner =    0.800   0.800   0.800

     PseudoPot. # 3 for N  read from file:
     /storage/coda1/p-amedford6/0/shared/rich_project_chbe-medford/medford-share/data/pseudos_module/espresso/nninc/pbe/van/N.UPF
     MD5 check sum: 90d10febe142ad51ac9d5be1deb811c4
     Pseudo is Ultrasoft, Zval =  5.0
     Generated by new atomic code, or converted to UPF format
     Using radial grid of  729 points,  4 beta functions with:
                l(1) =   0
                l(2) =   0
                l(3) =   1
                l(4) =   1
     Q(r) pseudized with  8 coefficients,  rinner =    0.800   0.800   0.800

     PseudoPot. # 4 for C  read from file:
     /storage/coda1/p-amedford6/0/shared/rich_project_chbe-medford/medford-share/data/pseudos_module/espresso/nninc/pbe/van/C.UPF
     MD5 check sum: 1a69bf6b8db32088f5b2163dbdb77a27
     Pseudo is Ultrasoft, Zval =  4.0
     Generated by new atomic code, or converted to UPF format
     Using radial grid of  721 points,  4 beta functions with:
                l(1) =   0
                l(2) =   0
                l(3) =   1
                l(4) =   1
     Q(r) pseudized with  8 coefficients,  rinner =    0.800   0.800   0.800

     PseudoPot. # 5 for H  read from file:
     /storage/coda1/p-amedford6/0/shared/rich_project_chbe-medford/medford-share/data/pseudos_module/espresso/nninc/pbe/van/H.UPF
     MD5 check sum: b5ee9d7bfd3a09ee7748110bda690ff7
     Pseudo is Ultrasoft, Zval =  1.0
     Generated by new atomic code, or converted to UPF format
     Using radial grid of  615 points,  1 beta functions with:
                l(1) =   0
     Q(r) pseudized with  8 coefficients,  rinner =    0.800

     atomic species   valence    mass     pseudopotential
        Ti1           12.00    47.86700     Ti( 1.00)
        O1             6.00    15.99900     O ( 1.00)
        N1             5.00    14.00700     N ( 1.00)
        C1             4.00    12.01100     C ( 1.00)
        H1             1.00     1.00800     H ( 1.00)

     No symmetry found

   Cartesian axes

     site n.     atom                  positions (alat units)
         1           Ti1 tau(   1) = (   0.0004258   2.9801865   6.0000000  )
         2           Ti1 tau(   2) = (   3.2906075   1.4906267   6.0002472  )
         3           O1  tau(   3) = (   0.0006271   0.0005054   7.9858123  )
         4           O1  tau(   4) = (   3.2906025   0.0005020   7.3038282  )
         5           O1  tau(   5) = (   4.5942328   1.4918067   9.2879030  )
         6           O1  tau(   6) = (   1.9868534   1.4903216   9.2879459  )
         7           Ti1 tau(   7) = (   3.2907910   2.8959150   9.1758416  )
         8           Ti1 tau(   8) = (   0.0015273   1.4827037   9.2680791  )
         9           O1  tau(   9) = (   3.3116888   5.9365513  11.3741315  )
        10           O1  tau(  10) = (   0.0116148   5.9584955  10.6183126  )
        11           O1  tau(  11) = (   1.3152863   1.4773744  12.6583839  )
        12           O1  tau(  12) = (   5.3185463   1.4781915  12.6604289  )
        13           Ti1 tau(  13) = (   0.0312267   2.9553392  12.5172039  )
        14           Ti1 tau(  14) = (   3.3247105   1.4628205  12.5237724  )
        15           O1  tau(  15) = (   0.0176705   0.0150782  14.7085838  )
        16           O1  tau(  16) = (   3.3263678   5.9469243  13.9928752  )
        17           O1  tau(  17) = (   4.5829619   1.4750097  16.2211409  )
        18           O1  tau(  18) = (   2.0801478   1.4636096  16.1819230  )
        19           Ti1 tau(  19) = (   3.3264833   2.9461821  15.7545810  )
        20           Ti1 tau(  20) = (   0.0064452   1.3478264  16.0581623  )
        21           O1  tau(  21) = (   3.2904802   0.0005063   4.7018136  )
        22           O1  tau(  22) = (   0.0393124   5.8647722  17.2449945  )
        23           O1  tau(  23) = (   1.3043587   1.4918075   6.0039043  )
        24           O1  tau(  24) = (   5.2767064   1.4903225   6.0039473  )
        25           Ti1 tau(  25) = (   0.0000382   5.9609847   6.0000000  )
        26           Ti1 tau(  26) = (   3.2902200   4.4714249   6.0002472  )
        27           O1  tau(  27) = (   0.0002396   2.9813036   7.9858123  )
        28           O1  tau(  28) = (   3.2902150   2.9813002   7.3038282  )
        29           O1  tau(  29) = (   4.5938453   4.4726049   9.2879030  )
        30           O1  tau(  30) = (   1.9864658   4.4711199   9.2879459  )
        31           Ti1 tau(  31) = (   3.2891106   5.8743827   9.1763621  )
        32           Ti1 tau(  32) = (   0.0006254   4.4649316   9.2693709  )
        33           O1  tau(  33) = (   3.3126387   2.9639063  11.3704323  )
        34           O1  tau(  34) = (   0.0092240   2.9805883  10.6323155  )
        35           O1  tau(  35) = (   1.3140505   4.4512041  12.6779488  )
        36           O1  tau(  36) = (   5.3186431   4.4503656  12.6784002  )
        37           Ti1 tau(  37) = (   0.0306983   5.9434578  12.5012515  )
        38           Ti1 tau(  38) = (   3.3249252   4.4426326  12.5284913  )
        39           O1  tau(  39) = (   0.0332616   2.9308952  14.9693926  )
        40           O1  tau(  40) = (   3.3269026   2.9510973  13.9662216  )
        41           O1  tau(  41) = (   4.5816979   4.4256876  16.1885362  )
        42           O1  tau(  42) = (   2.0739833   4.4348339  16.1471384  )
        43           Ti1 tau(  43) = (   3.3139036   5.9323143  15.7909994  )
        44           Ti1 tau(  44) = (   0.0257917   4.5791344  15.8913375  )
        45           O1  tau(  45) = (   3.2900926   2.9813045   4.7018136  )
        46           O1  tau(  46) = (   1.3039711   4.4726057   6.0039043  )
        47           O1  tau(  47) = (   5.2763189   4.4711207   6.0039473  )
        48           N1  tau(  48) = (   0.2611162   2.7486399  18.0384573  )
        49           C1  tau(  49) = (   1.0666652   3.1333113  18.7681872  )
        50           H1  tau(  50) = (   1.9496291   3.4674532  19.3170853  )
        51           N1  tau(  51) = (   3.9312863   3.7371558  19.5917579  )
        52           H1  tau(  52) = (   4.2637485   4.0673035  20.4913501  )
        53           H1  tau(  53) = (   4.3124207   4.3757745  18.8906580  )
        54           H1  tau(  54) = (   4.4024832   2.8518033  19.4177320  )

     number of k points=    10  Fermi-Dirac smearing, width (Ry)=  0.0073
                       cart. coord. in units 2pi/alat
        k(    1) = (   0.0000000   0.0000000   0.0000000), wk =   0.1250000
        k(    2) = (   0.0000000   0.0419351   0.0000000), wk =   0.2500000
        k(    3) = (   0.0000000  -0.0838702   0.0000000), wk =   0.1250000
        k(    4) = (   0.0379955   0.0000049   0.0000000), wk =   0.2500000
        k(    5) = (   0.0379955   0.0419400   0.0000000), wk =   0.2500000
        k(    6) = (   0.0379955  -0.0838652   0.0000000), wk =   0.2500000
        k(    7) = (   0.0379955  -0.0419301   0.0000000), wk =   0.2500000
        k(    8) = (  -0.0759910  -0.0000099   0.0000000), wk =   0.1250000
        k(    9) = (  -0.0759910   0.0419252   0.0000000), wk =   0.2500000
        k(   10) = (  -0.0759910  -0.0838800   0.0000000), wk =   0.1250000

     Initial potential from superposition of free atoms

     starting charge  379.99915, renormalised to  396.00000

     negative rho (up, down):  1.480E-02 0.000E+00

     %%%%%%%%%%%%%%%%%%%%%%%%%%%%%%%%%%%%%%%%%%%%%%%%%%%%%%%%%%%%%%%%%%%%%%%%
     %                                                                      %
     % You are using vdW-DF, which was implemented by the Thonhauser group. %
     % Please cite the following two papers that made this development      %
     % possible and the two reviews that describe the various versions:     %
     %                                                                      %
     %   T. Thonhauser et al., PRL 115, 136402 (2015).                      %
     %   T. Thonhauser et al., PRB 76, 125112 (2007).                       %
     %   K. Berland et al., Rep. Prog. Phys. 78, 066501 (2015).             %
     %   D.C. Langreth et al., J. Phys.: Condens. Matter 21, 084203 (2009). %
     %                                                                      %
     %                                                                      %
     % If you are calculating the stress with vdW-DF, please also cite:     %
     %                                                                      %
     %   R. Sabatini et al., J. Phys.: Condens. Matter 24, 424209 (2012).   %
     %                                                                      %
     %%%%%%%%%%%%%%%%%%%%%%%%%%%%%%%%%%%%%%%%%%%%%%%%%%%%%%%%%%%%%%%%%%%%%%%%

     Adding external electric field

     Computed dipole along edir(3) :
        Dipole              -10.3171 Ry au,        -26.2235 Debye
        Dipole field         -0.0195 Ry au,

        Potential amp.        1.8048 Ry
        Total length         46.3494 bohr

     Starting wfcs are  300 atomic wfcs
  @ DRIVER MODE: Message from server: STATUS
  @ DRIVER MODE: Message from server: POSDATA
  @ DRIVER MODE: Reading and sharing cell
  @ DRIVER MODE: Reading and sharing positions
  @ DRIVER MODE: Received positions

     Self-consistent Calculation

     iteration #  1     ecut=    29.40 Ry     beta= 0.05
     Davidson diagonalization with overlap
     c_bands:  1 eigenvalues not converged
     c_bands:  2 eigenvalues not converged
     c_bands:  2 eigenvalues not converged
     c_bands:  1 eigenvalues not converged
     c_bands:  3 eigenvalues not converged
     c_bands:  2 eigenvalues not converged
     c_bands:  3 eigenvalues not converged
     c_bands:  2 eigenvalues not converged
     c_bands:  2 eigenvalues not converged
     c_bands:  2 eigenvalues not converged
     ethr =  1.00E-05,  avg # of iterations = 20.0

[...]

     total energy              =   -2523.85013277 Ry
     estimated scf accuracy    <    4661.18585750 Ry

     iteration #  2     ecut=    29.40 Ry     beta= 0.05
     Davidson diagonalization with overlap
     ethr =  1.00E-02,  avg # of iterations = 23.9

[...]

     iteration # 68     ecut=    29.40 Ry     beta= 0.05
     Davidson diagonalization with overlap
     c_bands:  1 eigenvalues not converged
     ethr =  2.96E-11,  avg # of iterations = 12.4

[...]

     total energy              =   -2940.41309454 Ry
     estimated scf accuracy    <       0.00000008 Ry

     iteration # 70     ecut=    29.40 Ry     beta= 0.05
     Davidson diagonalization with overlap
     ethr =  1.99E-11,  avg # of iterations = 12.7

     negative rho (up, down):  1.578E-02 0.000E+00

     Adding external electric field

     Computed dipole along edir(3) :
        Dipole                1.4852 Ry au,          3.7750 Debye
        Dipole field          0.0028 Ry au,

        Potential amp.       -0.2598 Ry
        Total length         46.3494 bohr

     End of self-consistent calculation

          k = 0.0000 0.0000 0.0000 ( 18029 PWs)   bands (ev):

   -55.2551 -55.2191 -55.2066 -55.1724 -55.1325 -55.1241 -55.1001 -55.0971
   -55.0727 -55.0535 -55.0384 -55.0355 -55.0019 -54.9850 -54.2345 -54.2004
   -31.8236 -31.7033 -31.6989 -31.6202 -31.5644 -31.5623 -31.5537 -31.5409
   -31.4955 -31.4827 -31.4639 -31.4605 -31.4511 -31.4262 -31.4102 -31.4058
   -31.3914 -31.3798 -31.3709 -31.3695 -31.3590 -31.3467 -31.3203 -31.3178
   -31.3102 -31.3034 -31.2753 -31.2735 -31.2637 -31.2626 -31.2539 -31.2350
   -31.2340 -31.2258 -31.2220 -31.2203 -31.1866 -31.1865 -31.1688 -31.1634
   -31.1465 -31.0949 -30.6438 -30.5498 -30.5277 -30.4602 -30.3734 -30.2625
   -16.7752 -16.0799 -15.8102 -15.6677 -15.5617 -15.4506 -15.3356 -15.3153
   -15.1785 -15.1421 -15.0900 -14.9711 -14.9204 -14.9018 -14.8873 -14.8734
   -14.8668 -14.7958 -14.7906 -14.7673 -14.7469 -14.7343 -14.6913 -14.6895
   -14.6490 -14.6282 -14.5815 -14.4928 -14.4099 -14.3406 -14.0186 -12.7369
   -12.6195  -7.9767  -5.2429  -5.0088  -4.0140  -3.4188  -3.2684  -3.1725
    -3.1462  -3.1303  -3.0009  -2.8538  -2.8448  -2.7503  -2.6394  -2.5881
    -2.5056  -2.4568  -2.4445  -2.4261  -2.2430  -2.2261  -2.1731  -2.1249
    -2.0950  -2.0592  -2.0389  -2.0196  -2.0024  -1.9931  -1.9291  -1.8154
    -1.7798  -1.7276  -1.6762  -1.6509  -1.5968  -1.5762  -1.5402  -1.5342
    -1.5337  -1.4855  -1.4593  -1.4362  -1.3591  -1.2732  -1.1584  -1.1073
    -0.9523  -0.8901  -0.8338  -0.8214  -0.7576  -0.7380  -0.7080  -0.6319
    -0.6240  -0.5913  -0.4727  -0.3824  -0.3430  -0.3307  -0.2729  -0.2354
    -0.2079  -0.1612  -0.0648  -0.0327  -0.0159  -0.0115   0.1388   0.1525
     0.2217   0.2690   0.2906   0.2913   0.4042   0.4208   0.4932   0.5304
     0.5662   0.6395   0.6794   0.6953   0.6979   0.7316   0.7355   0.8265
     0.8486   0.8570   0.9292   1.0788   1.3051   1.3531   1.3610   1.6947
     1.6963   1.7885   1.9721   2.3643   2.4125   3.8435   3.9150   3.9893
     3.9959   4.0216   4.0817   4.3233   4.3336   4.3461   4.3493   4.3906

[...]

          k = 0.0380-0.0419 0.0000 ( 17876 PWs)   bands (ev):

[...]

          k =-0.0760-0.0000 0.0000 ( 17886 PWs)   bands (ev):

[...]

          k =-0.0760-0.0839 0.0000 ( 17948 PWs)   bands (ev):

   -55.2371 -55.2369 -55.1895 -55.1893 -55.1194 -55.1189 -55.1106 -55.0974
   -55.0578 -55.0566 -55.0541 -55.0191 -55.0185 -54.9879 -54.2174 -54.2174
   -31.6274 -31.6269 -31.6264 -31.5260 -31.5140 -31.5139 -31.5134 -31.4808
   -31.4808 -31.4625 -31.4552 -31.4495 -31.4451 -31.3943 -31.3896 -31.3875
   -31.3865 -31.3862 -31.3807 -31.3752 -31.3510 -31.3477 -31.3370 -31.3280
   -31.3270 -31.3209 -31.3125 -31.3092 -31.3090 -31.3028 -31.2897 -31.2871
   -31.2821 -31.2696 -31.2670 -31.2503 -31.2489 -31.2450 -31.1995 -31.1994
   -31.1936 -31.1872 -30.5404 -30.5403 -30.4563 -30.4562 -30.4168 -30.4168
   -16.7664 -15.6123 -15.4958 -15.4547 -15.2671 -15.2587 -15.2279 -15.2155
   -15.1485 -15.0646 -15.0377 -15.0274 -15.0143 -14.9625 -14.9564 -14.9510
   -14.9294 -14.8585 -14.8501 -14.8481 -14.8311 -14.7649 -14.7601 -14.7558
   -14.7449 -14.7020 -14.6990 -14.6047 -14.6027 -14.5085 -14.3855 -12.7210
   -12.7209  -7.9733  -5.2391  -5.0185  -4.0009  -2.7989  -2.7705  -2.7246
    -2.7144  -2.6978  -2.4786  -2.4557  -2.4187  -2.3688  -2.3074  -2.2561
    -2.2477  -2.2311  -2.1640  -2.1252  -2.1087  -2.0952  -2.0769  -2.0613
    -2.0469  -2.0213  -1.9789  -1.9714  -1.9502  -1.9297  -1.8999  -1.8916
    -1.8604  -1.8395  -1.8243  -1.8069  -1.6923  -1.6685  -1.6100  -1.5708
    -1.5294  -1.4571  -1.4519  -1.3548  -1.3474  -1.2932  -1.2814  -1.2550
    -1.1623  -1.0631  -1.0010  -0.9946  -0.9882  -0.8622  -0.8239  -0.7997
    -0.7627  -0.7345  -0.6755  -0.5970  -0.5756  -0.5412  -0.4568  -0.4486
    -0.3921  -0.3251  -0.2779  -0.2467  -0.2174  -0.2097  -0.1999  -0.1466
    -0.1402  -0.0690  -0.0190   0.0143   0.0255   0.0596   0.2643   0.2810
     0.3339   0.4322   0.5047   0.6251   0.6830   0.7042   0.7755   0.8156
     0.8595   0.9220   1.0243   1.0547   1.0576   1.1323   1.1640   1.2060
     1.2100   2.1454   2.1458   2.2324   2.2327   3.9876   4.0815   4.1036
     4.1518   4.2430   4.2780   4.3613   4.3793   4.4293   4.4309   4.4990

     the Fermi energy is     3.9066 ev

!    total energy              =   -2940.41311275 Ry
     estimated scf accuracy    <       0.00000006 Ry
     smearing contrib. (-TS)   =      -0.03731372 Ry
     internal energy E=F+TS    =   -2940.37579903 Ry

     The total energy is F=E-TS. E is the sum of the following terms:
     one-electron contribution =  -23553.16283241 Ry
     hartree contribution      =   11869.27310618 Ry
     xc contribution           =    -485.96572291 Ry
     ewald contribution        =    9229.47548754 Ry
     electric field correction =       0.00416256 Ry

     convergence has been achieved in  70 iterations

     Forces acting on atoms (cartesian axes, Ry/au):

     atom    1 type  1   force =    -0.00002491   -0.00018036    0.09329527
     atom    2 type  1   force =    -0.00014958   -0.00021964   -0.17811704
     atom    3 type  2   force =     0.00006616   -0.00019667   -0.02050428
     atom    4 type  2   force =     0.00000493   -0.00194798    0.05846545
     atom    5 type  2   force =    -0.01029470   -0.00134587    0.00735037
     atom    6 type  2   force =     0.01229412   -0.00074844    0.00784354
     atom    7 type  1   force =     0.00036191    0.00277429   -0.01404401
     atom    8 type  1   force =    -0.00055512    0.00105052   -0.00333914
     atom    9 type  2   force =     0.00004166    0.00050096   -0.00008412
     atom   10 type  2   force =    -0.00055170   -0.00102228   -0.00005430
     atom   11 type  2   force =     0.00009170    0.00010709    0.00003768
     atom   12 type  2   force =    -0.00025611    0.00015516   -0.00007558
     atom   13 type  1   force =    -0.00001951    0.00089694   -0.00028088
     atom   14 type  1   force =     0.00009925    0.00024948   -0.00017243
     atom   15 type  2   force =    -0.00013243    0.00011828    0.00095435
     atom   16 type  2   force =     0.00004749    0.00011587   -0.00006747
     atom   17 type  2   force =     0.00029058   -0.00030712    0.00002966
     atom   18 type  2   force =    -0.00023666   -0.00045776   -0.00047155
     atom   19 type  1   force =    -0.00064226   -0.00017631    0.00014083
     atom   20 type  1   force =    -0.00022702    0.00072479    0.00000451
     atom   21 type  2   force =    -0.00001802    0.00000828    0.10393963
     atom   22 type  2   force =    -0.00030754   -0.00069143   -0.00091678
     atom   23 type  2   force =    -0.07047012   -0.00008460   -0.02691399
     atom   24 type  2   force =     0.07030932    0.00035087   -0.02696812
     atom   25 type  1   force =     0.00004266   -0.00005919    0.09292244
     atom   26 type  1   force =    -0.00016758   -0.00018690   -0.17815482
     atom   27 type  2   force =     0.00012410   -0.00034353   -0.01950879
     atom   28 type  2   force =     0.00003460   -0.00168340    0.05803768
     atom   29 type  2   force =    -0.01041331   -0.00124566    0.00691811
     atom   30 type  2   force =     0.01229926   -0.00091845    0.00742980
     atom   31 type  1   force =     0.00034653    0.00516697   -0.01506958
     atom   32 type  1   force =    -0.00046519   -0.00160230   -0.00356865
     atom   33 type  2   force =    -0.00019377   -0.00021936   -0.00020272
     atom   34 type  2   force =     0.00029278   -0.00053642    0.00102614
     atom   35 type  2   force =    -0.00039879    0.00006175    0.00023017
     atom   36 type  2   force =     0.00033289   -0.00002233    0.00029230
     atom   37 type  1   force =    -0.00011722   -0.00042933   -0.00004540
     atom   38 type  1   force =     0.00013569    0.00033859   -0.00029932
     atom   39 type  2   force =    -0.00034365   -0.00043387    0.00116666
     atom   40 type  2   force =     0.00006878    0.00006803   -0.00019744
     atom   41 type  2   force =     0.00003378    0.00023749   -0.00033798
     atom   42 type  2   force =    -0.00016429    0.00000351   -0.00042999
     atom   43 type  1   force =    -0.00081829   -0.00019333    0.00016803
     atom   44 type  1   force =     0.00012229    0.00047844   -0.00005194
     atom   45 type  2   force =    -0.00000945    0.00000612    0.10392109
     atom   46 type  2   force =    -0.07048662   -0.00004461   -0.02691740
     atom   47 type  2   force =     0.07031213    0.00039771   -0.02698950
     atom   48 type  3   force =    -0.00000771   -0.00080601    0.00016604
     atom   49 type  4   force =    -0.00063839    0.00054054   -0.00056078
     atom   50 type  5   force =     0.00008517    0.00001931    0.00067943
     atom   51 type  3   force =     0.00282872    0.00288566   -0.00550798
     atom   52 type  5   force =     0.00071201    0.00054482    0.00137423
     atom   53 type  5   force =    -0.00259126   -0.00262817    0.00303921
     atom   54 type  5   force =    -0.00067732    0.00092987    0.00041941

     Total force =     0.366119     Total SCF correction =     0.001050
  @ DRIVER MODE: Message from server: STATUS
  @ DRIVER MODE: Message from server: GETFORCE
  @ DRIVER MODE: Returning v,forces,stress,ensemble

     Writing output data file ./calc.save/
  @ DRIVER MODE: Message from server: EXIT
  @ DRIVE MODE: Exiting

     General routines

     Parallel routines

   This run was terminated on:   6:11:14  24Aug2021

   JOB DONE.