     Program PWSCF v.6.7GPU starts on 28Sep2021 at  7:30:19

     R & G space division:  proc/nbgrp/npool/nimage =       8
     Reading input from /storage/home/hcoda1/3/ntian30/research/carbon/CxH_vib/H2O_calc/ads_slab/CH3OHN2H2O_a/out_0030/pw.inp
Warning: card &CELL ignored
Warning: card   CELL_DYNAMICS='IPI', ignored
Warning: card / ignored

     Current dimensions of program PWSCF are:
     Max number of different atomic species (ntypx) = 10
     Max number of k-points (npk) =  40000
     Max angular momentum in pseudopotentials (lmaxx) =  3
     Presently no symmetry can be used with electric field

     Message from routine cell_base_init:
     DEPRECATED: use true lattice parameter, not A to a.u. conversion factor

     IMPORTANT: XC functional enforced from input :
     Exchange-correlation= BEEF-VDW
                           (   1   4  43  14   2   0   0)
     Any further DFT definition will be discarded
     Please, verify this is what you really want

  @ DRIVER MODE: Connecting to
 qe_1139763_3000313.sched-torque.pace.gatech.edugjkso27e_scratch
  using UNIX socket
  @ DRIVER MODE: Message from server: STATUS
  @ DRIVER MODE: Message from server: INIT
  @ DRIVER MODE: Receiving replica           0          -1
  @ DRIVER MODE: Receiving encoded integer          25
  @ DRIVER MODE:  SCF:  T  FORCE:  T  STRESS:  F  VC:  F  ENSEMBLE:  F
  @ DRIVER MODE:  SCF:  T  FORCE:  T  STRESS:  F  VC:  F  ENSEMBLE:  F

     Using Slab Decomposition

     bravais-lattice index     =            0
     lattice parameter (alat)  =       1.8897  a.u.
     unit-cell volume          =    6658.9804 (a.u.)^3
     number of atoms/cell      =           58
     number of atomic types    =            5
     number of electrons       =       410.00
     number of Kohn-Sham states=          215
     kinetic-energy cutoff     =      29.3995  Ry
     charge density cutoff     =     293.9946  Ry
     scf convergence threshold =      7.3E-08
     mixing beta               =       0.0500
     number of iterations used =            8  plain     mixing
     Exchange-correlation= BEEF-VDW
                           (   1   4  43  14   2   0   0)

     celldm(1)=   1.889726  celldm(2)=   0.000000  celldm(3)=   0.000000
     celldm(4)=   0.000000  celldm(5)=   0.000000  celldm(6)=   0.000000

     crystal axes: (cart. coord. in units of alat)
               a(1) = (   6.579727   0.000000   0.000000 )
               a(2) = (  -0.000775   5.961596   0.000000 )
               a(3) = (   0.000000   0.000000  25.155947 )

     reciprocal axes: (cart. coord. in units 2 pi/alat)
               b(1) = (  0.151982  0.000020  0.000000 )
               b(2) = (  0.000000  0.167740  0.000000 )
               b(3) = (  0.000000  0.000000  0.039752 )

     PseudoPot. # 1 for Ti read from file:
     /storage/coda1/p-amedford6/0/shared/rich_project_chbe-medford/medford-share/data/pseudos_module/espresso/nninc/pbe/van/Ti.UPF
     MD5 check sum: 8e4df49b7f0d34bbd5052bf3f5ea0213
     Pseudo is Ultrasoft, Zval = 12.0
     Generated by new atomic code, or converted to UPF format
     Using radial grid of  851 points,  6 beta functions with:
                l(1) =   0
                l(2) =   0
                l(3) =   1
                l(4) =   1
                l(5) =   2
                l(6) =   2
     Q(r) pseudized with  8 coefficients,  rinner =    1.000   1.000   1.000
                                                       1.000   1.000

     PseudoPot. # 2 for O  read from file:
     /storage/coda1/p-amedford6/0/shared/rich_project_chbe-medford/medford-share/data/pseudos_module/espresso/nninc/pbe/van/O.UPF
     MD5 check sum: 78c19812648e8988a0fe644b0f25305e
     Pseudo is Ultrasoft, Zval =  6.0
     Generated by new atomic code, or converted to UPF format
     Using radial grid of  737 points,  4 beta functions with:
                l(1) =   0
                l(2) =   0
                l(3) =   1
                l(4) =   1
     Q(r) pseudized with  8 coefficients,  rinner =    0.800   0.800   0.800

     PseudoPot. # 3 for C  read from file:
     /storage/coda1/p-amedford6/0/shared/rich_project_chbe-medford/medford-share/data/pseudos_module/espresso/nninc/pbe/van/C.UPF
     MD5 check sum: 1a69bf6b8db32088f5b2163dbdb77a27
     Pseudo is Ultrasoft, Zval =  4.0
     Generated by new atomic code, or converted to UPF format
     Using radial grid of  721 points,  4 beta functions with:
                l(1) =   0
                l(2) =   0
                l(3) =   1
                l(4) =   1
     Q(r) pseudized with  8 coefficients,  rinner =    0.800   0.800   0.800

     PseudoPot. # 4 for H  read from file:
     /storage/coda1/p-amedford6/0/shared/rich_project_chbe-medford/medford-share/data/pseudos_module/espresso/nninc/pbe/van/H.UPF
     MD5 check sum: b5ee9d7bfd3a09ee7748110bda690ff7
     Pseudo is Ultrasoft, Zval =  1.0
     Generated by new atomic code, or converted to UPF format
     Using radial grid of  615 points,  1 beta functions with:
                l(1) =   0
     Q(r) pseudized with  8 coefficients,  rinner =    0.800

     PseudoPot. # 5 for N  read from file:
     /storage/coda1/p-amedford6/0/shared/rich_project_chbe-medford/medford-share/data/pseudos_module/espresso/nninc/pbe/van/N.UPF
     MD5 check sum: 90d10febe142ad51ac9d5be1deb811c4
     Pseudo is Ultrasoft, Zval =  5.0
     Generated by new atomic code, or converted to UPF format
     Using radial grid of  729 points,  4 beta functions with:
                l(1) =   0
                l(2) =   0
                l(3) =   1
                l(4) =   1
     Q(r) pseudized with  8 coefficients,  rinner =    0.800   0.800   0.800

     atomic species   valence    mass     pseudopotential
        Ti1           12.00    47.86700     Ti( 1.00)
        O1             6.00    15.99900     O ( 1.00)
        C1             4.00    12.01100     C ( 1.00)
        H1             1.00     1.00800     H ( 1.00)
        N1             5.00    14.00700     N ( 1.00)

     No symmetry found

   Cartesian axes

     site n.     atom                  positions (alat units)
         1           Ti1 tau(   1) = (   0.0004258   2.9801865   6.0000000  )
         2           Ti1 tau(   2) = (   3.2906075   1.4906267   6.0002472  )
         3           O1  tau(   3) = (   0.0006271   0.0005054   7.9858123  )
         4           O1  tau(   4) = (   3.2906025   0.0005020   7.3038282  )
         5           O1  tau(   5) = (   4.5942328   1.4918067   9.2879030  )
         6           O1  tau(   6) = (   1.9868534   1.4903216   9.2879459  )
         7           Ti1 tau(   7) = (   3.3250738   2.9918783   9.1599549  )
         8           Ti1 tau(   8) = (   0.0412716   1.4903975   9.2658274  )
         9           O1  tau(   9) = (   3.2852344   0.0116916  11.3753809  )
        10           O1  tau(  10) = (   6.5701620   0.0027176  10.6052010  )
        11           O1  tau(  11) = (   1.2758103   1.4969824  12.6410148  )
        12           O1  tau(  12) = (   5.2796941   1.4985041  12.6691897  )
        13           Ti1 tau(  13) = (   6.5531116   2.9870417  12.5348353  )
        14           Ti1 tau(  14) = (   3.2504356   1.4995581  12.5215122  )
        15           O1  tau(  15) = (   0.0383206   0.0046779  14.6787597  )
        16           O1  tau(  16) = (   3.2537876   0.0095675  14.0320577  )
        17           O1  tau(  17) = (   4.5855444   1.5609978  16.0639115  )
        18           O1  tau(  18) = (   2.0343745   1.5440679  16.2001998  )
        19           Ti1 tau(  19) = (   3.3058624   3.0043567  15.7064231  )
        20           Ti1 tau(  20) = (   6.5549511   1.4266458  15.8675638  )
        21           O1  tau(  21) = (   3.2904802   0.0005063   4.7018136  )
        22           O1  tau(  22) = (   6.4974171   0.0126247  17.2237355  )
        23           O1  tau(  23) = (   1.3043587   1.4918075   6.0039043  )
        24           O1  tau(  24) = (   5.2767064   1.4903225   6.0039473  )
        25           Ti1 tau(  25) = (   0.0000382   5.9609847   6.0000000  )
        26           Ti1 tau(  26) = (   3.2902200   4.4714249   6.0002472  )
        27           O1  tau(  27) = (   0.0002396   2.9813036   7.9858123  )
        28           O1  tau(  28) = (   3.2902150   2.9813002   7.3038282  )
        29           O1  tau(  29) = (   4.5938453   4.4726049   9.2879030  )
        30           O1  tau(  30) = (   1.9864658   4.4711199   9.2879459  )
        31           Ti1 tau(  31) = (   3.3194574   0.0113313   9.1541029  )
        32           Ti1 tau(  32) = (   0.0414074   4.4589881   9.2683624  )
        33           O1  tau(  33) = (   3.2821265   2.9896323  11.3676027  )
        34           O1  tau(  34) = (   6.5712111   2.9825298  10.6251173  )
        35           O1  tau(  35) = (   1.2751242   4.4805681  12.6359318  )
        36           O1  tau(  36) = (   5.2791817   4.4782367  12.6627471  )
        37           Ti1 tau(  37) = (   6.5506445   0.0032150  12.4806913  )
        38           Ti1 tau(  38) = (   3.2507345   4.4881811  12.5195668  )
        39           O1  tau(  39) = (   0.0469291   2.9928743  14.8464778  )
        40           O1  tau(  40) = (   3.2514374   2.9975957  13.9281162  )
        41           O1  tau(  41) = (   4.5866068   4.4203933  16.0984022  )
        42           O1  tau(  42) = (   2.0418857   4.4579080  16.2200674  )
        43           Ti1 tau(  43) = (   3.2648600   0.0292614  15.8571223  )
        44           Ti1 tau(  44) = (   6.5763064   4.6169283  15.9626260  )
        45           O1  tau(  45) = (   3.2900926   2.9813045   4.7018136  )
        46           O1  tau(  46) = (   1.3039711   4.4726057   6.0039043  )
        47           O1  tau(  47) = (   5.2763189   4.4711207   6.0039473  )
        48           C1  tau(  48) = (   6.0301898   2.9050411  18.9351799  )
        49           O1  tau(  49) = (   0.1575529   2.9516393  17.6723866  )
        50           H1  tau(  50) = (   4.9714676   2.8818909  18.6991823  )
        51           H1  tau(  51) = (   1.1132637   2.8218831  17.8130049  )
        52           H1  tau(  52) = (   6.2985093   1.9952365  19.4796065  )
        53           H1  tau(  53) = (   6.2732381   3.7939772  19.5169533  )
        54           N1  tau(  54) = (   4.8840950   3.1052494  22.6850861  )
        55           N1  tau(  55) = (   4.2680757   3.3403818  21.7970487  )
        56           O1  tau(  56) = (   3.8772584   0.1141246  18.3039653  )
        57           H1  tau(  57) = (   4.8407149   0.0692883  18.0716375  )
        58           H1  tau(  58) = (   3.6680196   5.2122673  18.6877519  )

     number of k points=    10  Fermi-Dirac smearing, width (Ry)=  0.0073
                       cart. coord. in units 2pi/alat
        k(    1) = (   0.0000000   0.0000000   0.0000000), wk =   0.1250000
        k(    2) = (   0.0000000   0.0419351   0.0000000), wk =   0.2500000
        k(    3) = (   0.0000000  -0.0838702   0.0000000), wk =   0.1250000
        k(    4) = (   0.0379955   0.0000049   0.0000000), wk =   0.2500000
        k(    5) = (   0.0379955   0.0419400   0.0000000), wk =   0.2500000
        k(    6) = (   0.0379955  -0.0838652   0.0000000), wk =   0.2500000
        k(    7) = (   0.0379955  -0.0419301   0.0000000), wk =   0.2500000
        k(    8) = (  -0.0759910  -0.0000099   0.0000000), wk =   0.1250000
        k(    9) = (  -0.0759910   0.0419252   0.0000000), wk =   0.2500000
        k(   10) = (  -0.0759910  -0.0838800   0.0000000), wk =   0.1250000

     Initial potential from superposition of free atoms

     starting charge  393.99913, renormalised to  410.00000

     negative rho (up, down):  9.552E-03 0.000E+00

     %%%%%%%%%%%%%%%%%%%%%%%%%%%%%%%%%%%%%%%%%%%%%%%%%%%%%%%%%%%%%%%%%%%%%%%%
     %                                                                      %
     % You are using vdW-DF, which was implemented by the Thonhauser group. %
     % Please cite the following two papers that made this development      %
     % possible and the two reviews that describe the various versions:     %
     %                                                                      %
     %   T. Thonhauser et al., PRL 115, 136402 (2015).                      %
     %   T. Thonhauser et al., PRB 76, 125112 (2007).                       %
     %   K. Berland et al., Rep. Prog. Phys. 78, 066501 (2015).             %
     %   D.C. Langreth et al., J. Phys.: Condens. Matter 21, 084203 (2009). %
     %                                                                      %
     %                                                                      %
     % If you are calculating the stress with vdW-DF, please also cite:     %
     %                                                                      %
     %   R. Sabatini et al., J. Phys.: Condens. Matter 24, 424209 (2012).   %
     %                                                                      %
     %%%%%%%%%%%%%%%%%%%%%%%%%%%%%%%%%%%%%%%%%%%%%%%%%%%%%%%%%%%%%%%%%%%%%%%%

     Adding external electric field

     Computed dipole along edir(3) :
        Dipole              -20.0792 Ry au,        -51.0361 Debye
        Dipole field         -0.0379 Ry au,

        Potential amp.        3.5125 Ry
        Total length         46.3494 bohr

     Starting wfcs are  310 atomic wfcs
  @ DRIVER MODE: Message from server: STATUS
  @ DRIVER MODE: Message from server: POSDATA
  @ DRIVER MODE: Reading and sharing cell
  @ DRIVER MODE: Reading and sharing positions
  @ DRIVER MODE: Received positions

     Self-consistent Calculation

     iteration #  1     ecut=    29.40 Ry     beta= 0.05
     Davidson diagonalization with overlap
     c_bands:  1 eigenvalues not converged
     c_bands:  1 eigenvalues not converged
     c_bands:  5 eigenvalues not converged
     c_bands:  1 eigenvalues not converged
     c_bands:  4 eigenvalues not converged
     c_bands:  3 eigenvalues not converged
     ethr =  1.00E-05,  avg # of iterations = 32.1

[...]

     total energy              =   -2098.62355168 Ry
     estimated scf accuracy    <   10668.34224652 Ry

     iteration #  2     ecut=    29.40 Ry     beta= 0.05
     Davidson diagonalization with overlap
     ethr =  1.00E-02,  avg # of iterations = 30.6

[...]

     iteration # 75     ecut=    29.40 Ry     beta= 0.05
     Davidson diagonalization with overlap
     ethr =  4.61E-11,  avg # of iterations =  6.6

[...]

     total energy              =   -3007.66316811 Ry
     estimated scf accuracy    <       0.00000025 Ry

     iteration # 76     ecut=    29.40 Ry     beta= 0.05
     Davidson diagonalization with overlap
     c_bands:  1 eigenvalues not converged
     ethr =  4.61E-11,  avg # of iterations = 14.4

     negative rho (up, down):  1.050E-02 0.000E+00

     Adding external electric field

     Computed dipole along edir(3) :
        Dipole                1.2308 Ry au,          3.1285 Debye
        Dipole field          0.0023 Ry au,

        Potential amp.       -0.2153 Ry
        Total length         46.3494 bohr

     End of self-consistent calculation

          k = 0.0000 0.0000 0.0000 ( 18029 PWs)   bands (ev):

   -54.9360 -54.9118 -54.9000 -54.8775 -54.8626 -54.8571 -54.8302 -54.8105
   -54.7828 -54.7806 -54.7462 -54.7252 -54.6938 -54.6913 -54.0005 -53.9664
   -31.5019 -31.4754 -31.4076 -31.3148 -31.2563 -31.2501 -31.2381 -31.2362
   -31.2005 -31.1661 -31.1567 -31.1546 -31.1504 -31.1274 -31.1205 -31.1148
   -31.0981 -31.0798 -31.0738 -31.0721 -31.0652 -31.0579 -31.0352 -31.0284
   -31.0281 -31.0222 -31.0075 -31.0053 -31.0048 -30.9683 -30.9514 -30.9315
   -30.9299 -30.9288 -30.9212 -30.9191 -30.9098 -30.8798 -30.8652 -30.8608
   -30.8562 -30.8368 -30.4125 -30.3101 -30.2885 -30.2286 -30.1423 -30.0313
   -21.6232 -19.8106 -18.2740 -15.7691 -15.5230 -15.3837 -15.2863 -15.1627
   -15.0326 -14.9588 -14.8384 -14.7664 -14.6724 -14.6588 -14.6409 -14.6192
   -14.5865 -14.5603 -14.5035 -14.4981 -14.4437 -14.4402 -14.4297 -14.4188
   -14.3857 -14.3697 -14.3394 -14.3303 -14.1678 -14.1020 -14.0426 -13.8976
   -12.5009 -12.3816 -10.8152  -6.8739  -6.5564  -6.0317  -4.8542  -4.7798
    -4.7261  -4.6130  -3.5459  -3.1024  -2.9513  -2.9151  -2.8937  -2.8720
    -2.7472  -2.6560  -2.6265  -2.4670  -2.3731  -2.2383  -2.2108  -2.1785
    -2.1405  -2.0722  -2.0160  -1.9295  -1.9002  -1.8596  -1.8399  -1.8163
    -1.8013  -1.7745  -1.7442  -1.6721  -1.6344  -1.5494  -1.5328  -1.4440
    -1.3931  -1.3848  -1.3416  -1.2787  -1.2753  -1.2646  -1.2244  -1.2107
    -1.2027  -1.1927  -1.1856  -1.0243  -0.9795  -0.9454  -0.8222  -0.7123
    -0.6197  -0.6097  -0.5065  -0.4930  -0.4300  -0.4255  -0.3861  -0.3465
    -0.2845  -0.1878  -0.1293  -0.0831  -0.0703   0.0402   0.1061   0.1210
     0.1823   0.2574   0.2726   0.2939   0.3235   0.4104   0.4782   0.5202
     0.5545   0.6193   0.6291   0.6765   0.7054   0.7465   0.8319   0.8857
     0.8895   0.9764   0.9936   1.0069   1.0322   1.0378   1.1360   1.1701
     1.2140   1.2421   1.3933   1.4291   1.6195   1.6552   1.9151   2.0137
     2.0255   2.1868   2.6115   2.6660   4.1540   4.2219   4.2584   4.2656
     4.2804   4.3599   4.6424   4.6529   4.6625   4.6741   4.6819

[...]

          k = 0.0380-0.0419 0.0000 ( 17876 PWs)   bands (ev):

[...]

          k =-0.0760-0.0000 0.0000 ( 17886 PWs)   bands (ev):

[...]

          k =-0.0760-0.0839 0.0000 ( 17948 PWs)   bands (ev):

   -54.9190 -54.9169 -54.8963 -54.8929 -54.8579 -54.8524 -54.8229 -54.8181
   -54.7901 -54.7656 -54.7609 -54.7096 -54.7070 -54.6954 -53.9834 -53.9834
   -31.3881 -31.3108 -31.3005 -31.2241 -31.2208 -31.1985 -31.1913 -31.1892
   -31.1825 -31.1597 -31.1452 -31.1432 -31.1355 -31.1297 -31.1103 -31.0966
   -31.0815 -31.0797 -31.0701 -31.0690 -31.0671 -31.0661 -31.0606 -31.0551
   -31.0302 -31.0255 -31.0208 -31.0154 -31.0152 -31.0127 -31.0120 -31.0118
   -31.0112 -30.9826 -30.9739 -30.9636 -30.9625 -30.9349 -30.9325 -30.8964
   -30.8933 -30.8787 -30.3010 -30.3010 -30.2253 -30.2249 -30.1855 -30.1853
   -21.6230 -19.8070 -18.2729 -15.3440 -15.2308 -15.0650 -14.9565 -14.9467
   -14.9182 -14.8589 -14.8158 -14.7847 -14.7445 -14.7343 -14.7049 -14.6870
   -14.6819 -14.6241 -14.5402 -14.5346 -14.5208 -14.4855 -14.4584 -14.4444
   -14.4424 -14.4279 -14.3912 -14.3893 -14.3701 -14.3590 -14.3023 -14.2090
   -12.4829 -12.4824 -10.8179  -6.8730  -6.5585  -6.0342  -4.8511  -4.7867
    -4.7204  -4.6003  -3.5375  -2.7663  -2.5385  -2.4983  -2.4252  -2.2592
    -2.1797  -2.1589  -2.0831  -2.0593  -2.0238  -1.9455  -1.9416  -1.9075
    -1.8677  -1.8433  -1.8374  -1.8192  -1.8006  -1.7676  -1.7471  -1.7255
    -1.7123  -1.6970  -1.6507  -1.6418  -1.6059  -1.6023  -1.5876  -1.5757
    -1.5565  -1.5457  -1.4648  -1.4367  -1.3958  -1.3096  -1.2937  -1.1643
    -1.1587  -1.1115  -1.0761  -1.0376  -1.0187  -0.9969  -0.9724  -0.9415
    -0.9104  -0.7385  -0.7174  -0.6740  -0.6227  -0.6164  -0.5439  -0.5283
    -0.4739  -0.4415  -0.3519  -0.3109  -0.2714  -0.1628  -0.1359  -0.1236
     0.0147   0.0205   0.0658   0.0674   0.1097   0.1480   0.1606   0.1675
     0.2425   0.2748   0.3111   0.3371   0.3609   0.5389   0.5751   0.6339
     0.7240   0.7415   0.9202   0.9504   0.9941   1.0750   1.1364   1.1903
     1.2125   1.3214   1.3284   1.3520   1.4432   1.4916   1.4929   1.5229
     2.3768   2.3797   2.4805   2.4832   4.2784   4.4092   4.4154   4.4953
     4.5692   4.6617   4.6677   4.6771   4.7067   4.7167   4.7229

     the Fermi energy is     4.2101 ev

!    total energy              =   -3007.66318082 Ry
     estimated scf accuracy    <       0.00000007 Ry
     smearing contrib. (-TS)   =      -0.03683151 Ry
     internal energy E=F+TS    =   -3007.62634932 Ry

     The total energy is F=E-TS. E is the sum of the following terms:
     one-electron contribution =  -22338.62812056 Ry
     hartree contribution      =   11271.10197036 Ry
     xc contribution           =    -502.07701085 Ry
     ewald contribution        =    8561.97395280 Ry
     electric field correction =       0.00285894 Ry

     convergence has been achieved in  76 iterations

     Forces acting on atoms (cartesian axes, Ry/au):

     atom    1 type  1   force =    -0.00027529   -0.00000655    0.09251058
     atom    2 type  1   force =    -0.00013925    0.00113841   -0.18323272
     atom    3 type  2   force =     0.00054882   -0.00040479   -0.02389701
     atom    4 type  2   force =     0.00079694    0.00021121    0.05088509
     atom    5 type  2   force =    -0.01551519   -0.00014342    0.00436890
     atom    6 type  2   force =     0.01423486   -0.00032711    0.00505150
     atom    7 type  1   force =    -0.00011015    0.00020882    0.00005280
     atom    8 type  1   force =    -0.00007120    0.00017341    0.00000504
     atom    9 type  2   force =     0.00006958    0.00004194    0.00012694
     atom   10 type  2   force =    -0.00000172    0.00001596   -0.00005275
     atom   11 type  2   force =     0.00017184    0.00001578   -0.00013432
     atom   12 type  2   force =     0.00003762    0.00003577   -0.00005985
     atom   13 type  1   force =     0.00017604    0.00011419   -0.00003897
     atom   14 type  1   force =     0.00026929    0.00016495   -0.00012124
     atom   15 type  2   force =     0.00027638    0.00038663    0.00001204
     atom   16 type  2   force =     0.00015294   -0.00001698    0.00017782
     atom   17 type  2   force =     0.00001147    0.00012809    0.00011052
     atom   18 type  2   force =     0.00018576    0.00001647    0.00027220
     atom   19 type  1   force =     0.00009452   -0.00015088    0.00009009
     atom   20 type  1   force =     0.00017281   -0.00018667   -0.00015541
     atom   21 type  2   force =     0.00002989    0.00001591    0.10487863
     atom   22 type  2   force =    -0.00022763   -0.00005367    0.00000069
     atom   23 type  2   force =    -0.06801610   -0.00011284   -0.02684615
     atom   24 type  2   force =     0.06787839    0.00034284   -0.02688788
     atom   25 type  1   force =    -0.00012185   -0.00002907    0.09596660
     atom   26 type  1   force =    -0.00011501   -0.00143611   -0.18314523
     atom   27 type  2   force =     0.00049906   -0.00019235   -0.02270398
     atom   28 type  2   force =     0.00086433    0.00017981    0.05127972
     atom   29 type  2   force =    -0.01542939    0.00050422    0.00453995
     atom   30 type  2   force =     0.01418743    0.00078106    0.00524104
     atom   31 type  1   force =    -0.00009907    0.00005375   -0.00000381
     atom   32 type  1   force =    -0.00007311    0.00015636   -0.00003832
     atom   33 type  2   force =     0.00012620   -0.00002719    0.00017623
     atom   34 type  2   force =    -0.00000220    0.00007432    0.00003896
     atom   35 type  2   force =     0.00013115   -0.00000307   -0.00003244
     atom   36 type  2   force =     0.00007784   -0.00000596    0.00009032
     atom   37 type  1   force =     0.00016645    0.00006101   -0.00010657
     atom   38 type  1   force =     0.00015669   -0.00003642    0.00002217
     atom   39 type  2   force =     0.00017004   -0.00008879   -0.00017852
     atom   40 type  2   force =     0.00002459   -0.00018051    0.00001722
     atom   41 type  2   force =     0.00020679    0.00000615    0.00003371
     atom   42 type  2   force =    -0.00007478    0.00000555    0.00013017
     atom   43 type  1   force =    -0.00002795   -0.00017929    0.00118201
     atom   44 type  1   force =     0.00003850    0.00030080    0.00031732
     atom   45 type  2   force =     0.00003330    0.00001914    0.10479877
     atom   46 type  2   force =    -0.06802795   -0.00050910   -0.02683540
     atom   47 type  2   force =     0.06788584   -0.00008827   -0.02691492
     atom   48 type  3   force =     0.00107545   -0.00360585    0.00354801
     atom   49 type  2   force =    -0.00035028   -0.00106955    0.00123738
     atom   50 type  4   force =     0.00000786   -0.00065732    0.00015840
     atom   51 type  4   force =     0.00016087   -0.00012527    0.00005596
     atom   52 type  4   force =    -0.00081117    0.00385183   -0.00443778
     atom   53 type  4   force =    -0.00006595    0.00065804   -0.00057057
     atom   54 type  5   force =    -0.00077405   -0.00002529   -0.00085994
     atom   55 type  5   force =     0.00021753   -0.00001694   -0.00001406
     atom   56 type  2   force =     0.00130445    0.00056370   -0.00082083
     atom   57 type  4   force =    -0.00100757   -0.00042712    0.00026789
     atom   58 type  4   force =    -0.00110467   -0.00011977    0.00044402

     Total force =     0.368223     Total SCF correction =     0.000506
  @ DRIVER MODE: Message from server: STATUS
  @ DRIVER MODE: Message from server: GETFORCE
  @ DRIVER MODE: Returning v,forces,stress,ensemble

     Writing output data file ./calc.save/
  @ DRIVER MODE: Message from server: EXIT
  @ DRIVE MODE: Exiting

     General routines

     Parallel routines

   This run was terminated on:   7:57: 7  28Sep2021

   JOB DONE.