     Program PWSCF v.6.7GPU starts on 14Sep2021 at 15:19:31

     R & G space division:  proc/nbgrp/npool/nimage =      10
     Reading input from /storage/home/hcoda1/3/ntian30/research/carbon/CxH_vib/CH2_calc/ads_slab/CH2ON2_b/out_0005/pw.inp
Warning: card &CELL ignored
Warning: card   CELL_DYNAMICS='IPI', ignored
Warning: card / ignored

     Current dimensions of program PWSCF are:
     Max number of different atomic species (ntypx) = 10
     Max number of k-points (npk) =  40000
     Max angular momentum in pseudopotentials (lmaxx) =  3
     Presently no symmetry can be used with electric field

     Message from routine cell_base_init:
     DEPRECATED: use true lattice parameter, not A to a.u. conversion factor

     IMPORTANT: XC functional enforced from input :
     Exchange-correlation= BEEF-VDW
                           (   1   4  43  14   2   0   0)
     Any further DFT definition will be discarded
     Please, verify this is what you really want

  @ DRIVER MODE: Connecting to
 qe_1139763_2840441.sched-torque.pace.gatech.edue010205y_scratch
  using UNIX socket
  @ DRIVER MODE: Message from server: STATUS
  @ DRIVER MODE: Message from server: INIT
  @ DRIVER MODE: Receiving replica           0          -1
  @ DRIVER MODE: Receiving encoded integer          25
  @ DRIVER MODE:  SCF:  T  FORCE:  T  STRESS:  F  VC:  F  ENSEMBLE:  F
  @ DRIVER MODE:  SCF:  T  FORCE:  T  STRESS:  F  VC:  F  ENSEMBLE:  F

     Using Slab Decomposition

     bravais-lattice index     =            0
     lattice parameter (alat)  =       1.8897  a.u.
     unit-cell volume          =    6658.9804 (a.u.)^3
     number of atoms/cell      =           53
     number of atomic types    =            5
     number of electrons       =       400.00
     number of Kohn-Sham states=          210
     kinetic-energy cutoff     =      29.3995  Ry
     charge density cutoff     =     293.9946  Ry
     scf convergence threshold =      7.3E-08
     mixing beta               =       0.0500
     number of iterations used =            8  plain     mixing
     Exchange-correlation= BEEF-VDW
                           (   1   4  43  14   2   0   0)

     celldm(1)=   1.889726  celldm(2)=   0.000000  celldm(3)=   0.000000
     celldm(4)=   0.000000  celldm(5)=   0.000000  celldm(6)=   0.000000

     crystal axes: (cart. coord. in units of alat)
               a(1) = (   6.579727   0.000000   0.000000 )
               a(2) = (  -0.000775   5.961596   0.000000 )
               a(3) = (   0.000000   0.000000  25.155947 )

     reciprocal axes: (cart. coord. in units 2 pi/alat)
               b(1) = (  0.151982  0.000020  0.000000 )
               b(2) = (  0.000000  0.167740  0.000000 )
               b(3) = (  0.000000  0.000000  0.039752 )

     PseudoPot. # 1 for C  read from file:
     /storage/coda1/p-amedford6/0/shared/rich_project_chbe-medford/medford-share/data/pseudos_module/espresso/nninc/pbe/van/C.UPF
     MD5 check sum: 1a69bf6b8db32088f5b2163dbdb77a27
     Pseudo is Ultrasoft, Zval =  4.0
     Generated by new atomic code, or converted to UPF format
     Using radial grid of  721 points,  4 beta functions with:
                l(1) =   0
                l(2) =   0
                l(3) =   1
                l(4) =   1
     Q(r) pseudized with  8 coefficients,  rinner =    0.800   0.800   0.800

     PseudoPot. # 2 for H  read from file:
     /storage/coda1/p-amedford6/0/shared/rich_project_chbe-medford/medford-share/data/pseudos_module/espresso/nninc/pbe/van/H.UPF
     MD5 check sum: b5ee9d7bfd3a09ee7748110bda690ff7
     Pseudo is Ultrasoft, Zval =  1.0
     Generated by new atomic code, or converted to UPF format
     Using radial grid of  615 points,  1 beta functions with:
                l(1) =   0
     Q(r) pseudized with  8 coefficients,  rinner =    0.800

     PseudoPot. # 3 for O  read from file:
     /storage/coda1/p-amedford6/0/shared/rich_project_chbe-medford/medford-share/data/pseudos_module/espresso/nninc/pbe/van/O.UPF
     MD5 check sum: 78c19812648e8988a0fe644b0f25305e
     Pseudo is Ultrasoft, Zval =  6.0
     Generated by new atomic code, or converted to UPF format
     Using radial grid of  737 points,  4 beta functions with:
                l(1) =   0
                l(2) =   0
                l(3) =   1
                l(4) =   1
     Q(r) pseudized with  8 coefficients,  rinner =    0.800   0.800   0.800

     PseudoPot. # 4 for Ti read from file:
     /storage/coda1/p-amedford6/0/shared/rich_project_chbe-medford/medford-share/data/pseudos_module/espresso/nninc/pbe/van/Ti.UPF
     MD5 check sum: 8e4df49b7f0d34bbd5052bf3f5ea0213
     Pseudo is Ultrasoft, Zval = 12.0
     Generated by new atomic code, or converted to UPF format
     Using radial grid of  851 points,  6 beta functions with:
                l(1) =   0
                l(2) =   0
                l(3) =   1
                l(4) =   1
                l(5) =   2
                l(6) =   2
     Q(r) pseudized with  8 coefficients,  rinner =    1.000   1.000   1.000
                                                       1.000   1.000

     PseudoPot. # 5 for N  read from file:
     /storage/coda1/p-amedford6/0/shared/rich_project_chbe-medford/medford-share/data/pseudos_module/espresso/nninc/pbe/van/N.UPF
     MD5 check sum: 90d10febe142ad51ac9d5be1deb811c4
     Pseudo is Ultrasoft, Zval =  5.0
     Generated by new atomic code, or converted to UPF format
     Using radial grid of  729 points,  4 beta functions with:
                l(1) =   0
                l(2) =   0
                l(3) =   1
                l(4) =   1
     Q(r) pseudized with  8 coefficients,  rinner =    0.800   0.800   0.800

     atomic species   valence    mass     pseudopotential
        C1             4.00    12.01100     C ( 1.00)
        H1             1.00     1.00800     H ( 1.00)
        O1             6.00    15.99900     O ( 1.00)
        Ti1           12.00    47.86700     Ti( 1.00)
        N1             5.00    14.00700     N ( 1.00)

     No symmetry found

   Cartesian axes

     site n.     atom                  positions (alat units)
         1           C1  tau(   1) = (   6.4247902   2.9910588  18.6917704  )
         2           H1  tau(   2) = (   6.3980358   3.9338040  19.2291268  )
         3           H1  tau(   3) = (   6.3671137   2.0386567  19.2103458  )
         4           O1  tau(   4) = (   3.2904802   0.0005063   4.7018136  )
         5           O1  tau(   5) = (   3.2900926   2.9813045   4.7018136  )
         6           O1  tau(   6) = (   1.3043587   1.4918075   6.0039043  )
         7           O1  tau(   7) = (   1.3039711   4.4726057   6.0039043  )
         8           O1  tau(   8) = (   5.2767064   1.4903225   6.0039473  )
         9           O1  tau(   9) = (   5.2763189   4.4711207   6.0039473  )
        10           O1  tau(  10) = (   3.2906025   0.0005020   7.3038282  )
        11           O1  tau(  11) = (   3.2902150   2.9813002   7.3038282  )
        12           O1  tau(  12) = (   0.0006271   0.0005054   7.9858123  )
        13           O1  tau(  13) = (   0.0002396   2.9813036   7.9858123  )
        14           O1  tau(  14) = (   4.5942328   1.4918067   9.2879030  )
        15           O1  tau(  15) = (   4.5938453   4.4726049   9.2879030  )
        16           O1  tau(  16) = (   1.9868534   1.4903216   9.2879459  )
        17           O1  tau(  17) = (   1.9864658   4.4711199   9.2879459  )
        18           O1  tau(  18) = (   0.0058113   2.9878523  10.5832334  )
        19           O1  tau(  19) = (   0.0062988   0.0093020  10.6005518  )
        20           O1  tau(  20) = (   3.2955317   2.9954032  11.3404818  )
        21           O1  tau(  21) = (   3.2944299   0.0136787  11.3445968  )
        22           O1  tau(  22) = (   5.2904553   1.5027675  12.6317203  )
        23           O1  tau(  23) = (   5.2914467   4.4836083  12.6349631  )
        24           O1  tau(  24) = (   1.2933861   1.5040032  12.6362007  )
        25           O1  tau(  25) = (   1.2922507   4.4849626  12.6395598  )
        26           O1  tau(  26) = (   3.2955364   2.9961609  13.9180299  )
        27           O1  tau(  27) = (   3.2969677   0.0155663  13.9438287  )
        28           O1  tau(  28) = (   0.0016464   0.0229801  14.6780835  )
        29           O1  tau(  29) = (   0.0078505   2.9966620  14.7218711  )
        30           O1  tau(  30) = (   4.5417949   4.4807699  16.1031406  )
        31           O1  tau(  31) = (   4.5422182   1.5234006  16.1020929  )
        32           O1  tau(  32) = (   2.0382733   4.4802786  16.1011463  )
        33           O1  tau(  33) = (   2.0385641   1.5240134  16.0993588  )
        34           O1  tau(  34) = (   6.5794991   0.0244991  17.1995468  )
        35           O1  tau(  35) = (   6.5588415   3.0026814  17.4289308  )
        36           Ti1 tau(  36) = (   0.0004258   2.9801865   6.0000000  )
        37           Ti1 tau(  37) = (   0.0000382   5.9609847   6.0000000  )
        38           Ti1 tau(  38) = (   3.2906075   1.4906267   6.0002472  )
        39           Ti1 tau(  39) = (   3.2902200   4.4714249   6.0002472  )
        40           Ti1 tau(  40) = (   3.2947477   0.0499856   9.1537742  )
        41           Ti1 tau(  41) = (   3.3215383   3.0289251   9.1580241  )
        42           Ti1 tau(  42) = (   0.0276872   4.5181110   9.2597866  )
        43           Ti1 tau(  43) = (   0.0223396   1.5961087   9.3523429  )
        44           Ti1 tau(  44) = (   3.3278215   4.4891914  12.4850086  )
        45           Ti1 tau(  45) = (   3.3277968   1.5111787  12.4828596  )
        46           Ti1 tau(  46) = (   0.0250534   0.0277200  12.4935153  )
        47           Ti1 tau(  47) = (   0.0290128   3.0118426  12.7617797  )
        48           Ti1 tau(  48) = (   3.2948489   3.0033751  15.7003116  )
        49           Ti1 tau(  49) = (   3.2995243   0.0226186  15.7353524  )
        50           Ti1 tau(  50) = (   0.0095488   1.4190105  15.9501391  )
        51           Ti1 tau(  51) = (   0.0117608   4.6113996  15.9785021  )
        52           N1  tau(  52) = (   3.7826193   3.0501191  20.3090129  )
        53           N1  tau(  53) = (   2.7364546   2.9530354  19.9655958  )

     number of k points=    10  Fermi-Dirac smearing, width (Ry)=  0.0073
                       cart. coord. in units 2pi/alat
        k(    1) = (   0.0000000   0.0000000   0.0000000), wk =   0.1250000
        k(    2) = (   0.0000000   0.0419351   0.0000000), wk =   0.2500000
        k(    3) = (   0.0000000  -0.0838702   0.0000000), wk =   0.1250000
        k(    4) = (   0.0379955   0.0000049   0.0000000), wk =   0.2500000
        k(    5) = (   0.0379955   0.0419400   0.0000000), wk =   0.2500000
        k(    6) = (   0.0379955  -0.0838652   0.0000000), wk =   0.2500000
        k(    7) = (   0.0379955  -0.0419301   0.0000000), wk =   0.2500000
        k(    8) = (  -0.0759910  -0.0000099   0.0000000), wk =   0.1250000
        k(    9) = (  -0.0759910   0.0419252   0.0000000), wk =   0.2500000
        k(   10) = (  -0.0759910  -0.0838800   0.0000000), wk =   0.1250000

     Initial potential from superposition of free atoms

     starting charge  383.99917, renormalised to  400.00000

     negative rho (up, down):  1.496E-02 0.000E+00

     %%%%%%%%%%%%%%%%%%%%%%%%%%%%%%%%%%%%%%%%%%%%%%%%%%%%%%%%%%%%%%%%%%%%%%%%
     %                                                                      %
     % You are using vdW-DF, which was implemented by the Thonhauser group. %
     % Please cite the following two papers that made this development      %
     % possible and the two reviews that describe the various versions:     %
     %                                                                      %
     %   T. Thonhauser et al., PRL 115, 136402 (2015).                      %
     %   T. Thonhauser et al., PRB 76, 125112 (2007).                       %
     %   K. Berland et al., Rep. Prog. Phys. 78, 066501 (2015).             %
     %   D.C. Langreth et al., J. Phys.: Condens. Matter 21, 084203 (2009). %
     %                                                                      %
     %                                                                      %
     % If you are calculating the stress with vdW-DF, please also cite:     %
     %                                                                      %
     %   R. Sabatini et al., J. Phys.: Condens. Matter 24, 424209 (2012).   %
     %                                                                      %
     %%%%%%%%%%%%%%%%%%%%%%%%%%%%%%%%%%%%%%%%%%%%%%%%%%%%%%%%%%%%%%%%%%%%%%%%

     Adding external electric field

     Computed dipole along edir(3) :
        Dipole              -12.3670 Ry au,        -31.4337 Debye
        Dipole field         -0.0233 Ry au,

        Potential amp.        2.1634 Ry
        Total length         46.3494 bohr

     Starting wfcs are  302 atomic wfcs
  @ DRIVER MODE: Message from server: STATUS
  @ DRIVER MODE: Message from server: POSDATA
  @ DRIVER MODE: Reading and sharing cell
  @ DRIVER MODE: Reading and sharing positions
  @ DRIVER MODE: Received positions

     Self-consistent Calculation

     iteration #  1     ecut=    29.40 Ry     beta= 0.05
     Davidson diagonalization with overlap
     c_bands:  2 eigenvalues not converged
     c_bands:  2 eigenvalues not converged
     c_bands:  2 eigenvalues not converged
     c_bands:  1 eigenvalues not converged
     c_bands:  5 eigenvalues not converged
     c_bands:  2 eigenvalues not converged
     c_bands:  5 eigenvalues not converged
     c_bands:  2 eigenvalues not converged
     c_bands:  4 eigenvalues not converged
     c_bands:  5 eigenvalues not converged
     ethr =  1.00E-05,  avg # of iterations = 22.0

[...]

     total energy              =   -2431.08560407 Ry
     estimated scf accuracy    <    6084.85278394 Ry

     iteration #  2     ecut=    29.40 Ry     beta= 0.05
     Davidson diagonalization with overlap
     ethr =  1.00E-02,  avg # of iterations = 22.0

[...]

     iteration # 62     ecut=    29.40 Ry     beta= 0.05
     Davidson diagonalization with overlap
     c_bands:  1 eigenvalues not converged
     ethr =  9.16E-09,  avg # of iterations = 10.4

[...]

     total energy              =   -2970.35113059 Ry
     estimated scf accuracy    <       0.00000010 Ry

     iteration # 75     ecut=    29.40 Ry     beta= 0.05
     Davidson diagonalization with overlap
     ethr =  2.44E-11,  avg # of iterations =  3.9

     negative rho (up, down):  1.507E-02 0.000E+00

     Adding external electric field

     Computed dipole along edir(3) :
        Dipole                0.9951 Ry au,          2.5293 Debye
        Dipole field          0.0019 Ry au,

        Potential amp.       -0.1741 Ry
        Total length         46.3494 bohr

     End of self-consistent calculation

          k = 0.0000 0.0000 0.0000 ( 18029 PWs)   bands (ev):

   -55.5227 -55.5165 -55.4856 -55.4802 -55.4190 -55.3989 -55.3772 -55.3069
   -55.3038 -55.2971 -55.2945 -55.2612 -55.2422 -55.2178 -54.5479 -54.5138
   -32.0888 -31.9957 -31.8972 -31.8867 -31.8345 -31.8219 -31.8210 -31.8012
   -31.7738 -31.7573 -31.7548 -31.7317 -31.7085 -31.6998 -31.6807 -31.6659
   -31.6495 -31.6481 -31.6344 -31.6174 -31.5984 -31.5949 -31.5851 -31.5802
   -31.5756 -31.5490 -31.5486 -31.5269 -31.5210 -31.5199 -31.4910 -31.4761
   -31.4707 -31.4455 -31.4388 -31.4319 -31.4312 -31.4250 -31.4048 -31.4004
   -31.3944 -31.3874 -30.9578 -30.8603 -30.8381 -30.7746 -30.6885 -30.5772
   -21.4007 -19.7421 -16.3139 -16.0063 -15.8596 -15.7400 -15.6776 -15.5797
   -15.4114 -15.3491 -15.2584 -15.2087 -15.1564 -15.1166 -15.1151 -15.0820
   -15.0744 -15.0560 -15.0535 -14.9880 -14.9755 -14.9381 -14.9255 -14.9251
   -14.8278 -14.7715 -14.7144 -14.6532 -14.5995 -14.5464 -14.5211 -13.0486
   -12.9302  -9.1253  -6.6635  -5.3901  -5.3881  -4.5544  -4.5443  -3.6629
    -3.4803  -3.4289  -3.4259  -3.3694  -3.3626  -3.2613  -3.1467  -3.1256
    -2.8261  -2.7411  -2.7127  -2.6927  -2.6851  -2.5521  -2.4930  -2.3765
    -2.3690  -2.3536  -2.3531  -2.3420  -2.3048  -2.2993  -2.2512  -2.2132
    -2.1361  -2.0760  -1.9718  -1.9554  -1.9312  -1.8638  -1.8328  -1.8119
    -1.8098  -1.7647  -1.7615  -1.7391  -1.7135  -1.6267  -1.5208  -1.4798
    -1.3918  -1.3554  -1.2380  -1.1009  -1.0284  -0.9897  -0.9354  -0.8858
    -0.8808  -0.8621  -0.8427  -0.8249  -0.8079  -0.6929  -0.5820  -0.5751
    -0.4736  -0.4395  -0.3948  -0.3815  -0.2824  -0.2654  -0.2576  -0.1783
    -0.0225  -0.0179  -0.0061   0.1145   0.1394   0.1599   0.2061   0.2241
     0.2673   0.2991   0.3491   0.4021   0.4134   0.4624   0.4686   0.4927
     0.5966   0.6547   0.6601   0.7207   0.7632   0.9509   0.9649   1.1051
     1.1623   1.3798   1.4768   1.5262   1.6458   2.0638   2.1230   3.6366
     3.6715   3.6935   3.7427   3.7743   3.8094   3.8726   4.0765   4.0966
     4.0990   4.1219

[...]

          k = 0.0380-0.0419 0.0000 ( 17876 PWs)   bands (ev):

[...]

          k =-0.0760-0.0000 0.0000 ( 17886 PWs)   bands (ev):

[...]

          k =-0.0760-0.0839 0.0000 ( 17948 PWs)   bands (ev):

   -55.5115 -55.4994 -55.4971 -55.4966 -55.4111 -55.3956 -55.3851 -55.3066
   -55.3028 -55.2912 -55.2783 -55.2778 -55.2483 -55.2211 -54.5313 -54.5303
   -31.8914 -31.8886 -31.8197 -31.8059 -31.8037 -31.8006 -31.7919 -31.7810
   -31.7741 -31.7451 -31.7295 -31.7168 -31.7043 -31.6614 -31.6527 -31.6467
   -31.6422 -31.6352 -31.6304 -31.6256 -31.6147 -31.6056 -31.6025 -31.5977
   -31.5968 -31.5963 -31.5796 -31.5727 -31.5447 -31.5353 -31.5310 -31.5114
   -31.5051 -31.4929 -31.4908 -31.4839 -31.4792 -31.4770 -31.4589 -31.4394
   -31.4278 -31.4152 -30.8513 -30.8501 -30.7711 -30.7704 -30.7320 -30.7311
   -21.4004 -19.7349 -15.7620 -15.7102 -15.6077 -15.4855 -15.4651 -15.4234
   -15.3809 -15.3232 -15.2621 -15.2598 -15.2184 -15.2000 -15.1887 -15.1509
   -15.1169 -15.0803 -15.0664 -15.0589 -15.0465 -14.9920 -14.9853 -14.9455
   -14.9265 -14.9201 -14.8758 -14.8683 -14.7935 -14.7503 -14.7313 -13.0328
   -13.0302  -9.1378  -6.6472  -5.3666  -5.3199  -4.5593  -4.5537  -3.5689
    -3.1667  -3.0526  -2.9938  -2.8322  -2.7049  -2.6894  -2.6314  -2.5421
    -2.5083  -2.4740  -2.4139  -2.3986  -2.3762  -2.3717  -2.3609  -2.3593
    -2.3497  -2.2980  -2.2812  -2.2487  -2.1812  -2.1724  -2.1647  -2.1614
    -2.1172  -2.1027  -2.0942  -2.0890  -2.0821  -2.0093  -1.9394  -1.8748
    -1.7862  -1.7477  -1.7222  -1.6847  -1.6492  -1.6142  -1.5917  -1.5740
    -1.4573  -1.4350  -1.3019  -1.2703  -1.2539  -1.2417  -1.2001  -1.1956
    -1.0610  -0.9853  -0.9754  -0.9506  -0.8941  -0.8613  -0.8268  -0.7944
    -0.7040  -0.6709  -0.6269  -0.5796  -0.4982  -0.4880  -0.4374  -0.4206
    -0.3348  -0.3261  -0.2940  -0.2913  -0.2253  -0.1798  -0.1046  -0.0987
    -0.0734   0.0358   0.0894   0.1017   0.2864   0.4622   0.4731   0.4851
     0.5921   0.5963   0.6524   0.7293   0.7364   0.8209   0.8755   0.9736
     0.9928   1.0026   1.0812   1.8358   1.8368   1.9264   1.9379   3.6344
     3.8518   3.8865   3.9046   3.9537   4.1142   4.1189   4.1323   4.1448
     4.2582   4.2749

     the Fermi energy is     3.6260 ev

!    total energy              =   -2970.35115067 Ry
     estimated scf accuracy    <       0.00000004 Ry
     smearing contrib. (-TS)   =      -0.03422109 Ry
     internal energy E=F+TS    =   -2970.31692958 Ry

     The total energy is F=E-TS. E is the sum of the following terms:
     one-electron contribution =  -23490.49011066 Ry
     hartree contribution      =   11837.86108897 Ry
     xc contribution           =    -491.51265657 Ry
     ewald contribution        =    9173.82288000 Ry
     electric field correction =       0.00186867 Ry

     convergence has been achieved in  75 iterations

     Forces acting on atoms (cartesian axes, Ry/au):

     atom    1 type  1   force =    -0.00016704    0.00009027   -0.00064051
     atom    2 type  2   force =    -0.00047424    0.00080388    0.00024005
     atom    3 type  2   force =     0.00014737   -0.00059139   -0.00032154
     atom    4 type  3   force =    -0.00007531    0.00001769    0.10420131
     atom    5 type  3   force =    -0.00005897   -0.00001588    0.10425728
     atom    6 type  3   force =    -0.06900549    0.00075544   -0.02906685
     atom    7 type  3   force =    -0.06855696   -0.00135778   -0.02907369
     atom    8 type  3   force =     0.06867247    0.00128403   -0.02914120
     atom    9 type  3   force =     0.06832206   -0.00098045   -0.02914877
     atom   10 type  3   force =     0.00016948    0.00038873    0.04598790
     atom   11 type  3   force =     0.00058705    0.00071802    0.04717200
     atom   12 type  3   force =     0.00031002   -0.00529076   -0.03191001
     atom   13 type  3   force =     0.00036123    0.00311036   -0.02589240
     atom   14 type  3   force =    -0.01816587   -0.00007901    0.00388643
     atom   15 type  3   force =    -0.01658646    0.00120666    0.00342416
     atom   16 type  3   force =     0.01843441   -0.00126220    0.00385602
     atom   17 type  3   force =     0.01759338    0.00142120    0.00329033
     atom   18 type  3   force =     0.00002210    0.00031309    0.00044996
     atom   19 type  3   force =     0.00003589   -0.00012181    0.00020806
     atom   20 type  3   force =    -0.00005488    0.00027060    0.00061693
     atom   21 type  3   force =    -0.00005867   -0.00029873   -0.00020716
     atom   22 type  3   force =     0.00009295    0.00044006    0.00038080
     atom   23 type  3   force =     0.00003130   -0.00040148    0.00036809
     atom   24 type  3   force =    -0.00006215    0.00050930    0.00024302
     atom   25 type  3   force =     0.00003085   -0.00043538    0.00021889
     atom   26 type  3   force =    -0.00019259    0.00011403   -0.00585755
     atom   27 type  3   force =    -0.00013320   -0.00008984   -0.00035662
     atom   28 type  3   force =     0.00007886   -0.00001589   -0.00029788
     atom   29 type  3   force =     0.00001201    0.00021189   -0.00072042
     atom   30 type  3   force =    -0.00046183   -0.00059259   -0.00083421
     atom   31 type  3   force =    -0.00069143    0.00066948   -0.00080327
     atom   32 type  3   force =     0.00063513   -0.00070322   -0.00054659
     atom   33 type  3   force =     0.00085698    0.00076968   -0.00053641
     atom   34 type  3   force =    -0.00014691    0.00000894    0.00072906
     atom   35 type  3   force =    -0.00041696   -0.00057135    0.00036682
     atom   36 type  4   force =    -0.00024667   -0.00176680    0.10176923
     atom   37 type  4   force =    -0.00009650    0.00136462    0.11450572
     atom   38 type  4   force =    -0.00031963    0.00052199   -0.18034428
     atom   39 type  4   force =    -0.00020687   -0.00039603   -0.18063810
     atom   40 type  4   force =     0.00025300    0.00081268   -0.00124986
     atom   41 type  4   force =     0.00021009   -0.00077934   -0.00105019
     atom   42 type  4   force =    -0.00022343    0.00086490   -0.00031196
     atom   43 type  4   force =    -0.00018571   -0.00019971   -0.00002046
     atom   44 type  4   force =     0.00000170    0.00150347   -0.00100135
     atom   45 type  4   force =     0.00004621   -0.00148859   -0.00095440
     atom   46 type  4   force =    -0.00020823    0.00046590   -0.00009769
     atom   47 type  4   force =    -0.00031916   -0.00046235    0.00028618
     atom   48 type  4   force =    -0.00056727   -0.00002052    0.01242996
     atom   49 type  4   force =    -0.00047900    0.00009920    0.00131395
     atom   50 type  4   force =     0.00023022    0.00001994   -0.00008639
     atom   51 type  4   force =     0.00021326   -0.00028700   -0.00029943
     atom   52 type  5   force =     0.00098326    0.00042865    0.00127506
     atom   53 type  5   force =    -0.00016987   -0.00097660   -0.00006799

     Total force =     0.374425     Total SCF correction =     0.000540
  @ DRIVER MODE: Message from server: STATUS
  @ DRIVER MODE: Message from server: GETFORCE
  @ DRIVER MODE: Returning v,forces,stress,ensemble

     Writing output data file ./calc.save/
  @ DRIVER MODE: Message from server: EXIT
  @ DRIVE MODE: Exiting

     General routines

     Parallel routines

   This run was terminated on:  15:41: 5  14Sep2021

   JOB DONE.