     Program PWSCF v.6.7GPU starts on 28Sep2021 at 14:54:45

     R & G space division:  proc/nbgrp/npool/nimage =       8
     Reading input from /storage/home/hcoda1/3/ntian30/research/carbon/CxH_vib/H2O_calc/ads_slab/CHHO_a/out_0004/pw.inp
Warning: card &CELL ignored
Warning: card   CELL_DYNAMICS='IPI', ignored
Warning: card / ignored

     Current dimensions of program PWSCF are:
     Max number of different atomic species (ntypx) = 10
     Max number of k-points (npk) =  40000
     Max angular momentum in pseudopotentials (lmaxx) =  3
     Presently no symmetry can be used with electric field

     Message from routine cell_base_init:
     DEPRECATED: use true lattice parameter, not A to a.u. conversion factor

     IMPORTANT: XC functional enforced from input :
     Exchange-correlation= BEEF-VDW
                           (   1   4  43  14   2   0   0)
     Any further DFT definition will be discarded
     Please, verify this is what you really want

  @ DRIVER MODE: Connecting to
 qe_1139763_3011330.sched-torque.pace.gatech.educ30si4hp_scratch
  using UNIX socket
  @ DRIVER MODE: Message from server: STATUS
  @ DRIVER MODE: Message from server: INIT
  @ DRIVER MODE: Receiving replica           0          -1
  @ DRIVER MODE: Receiving encoded integer          25
  @ DRIVER MODE:  SCF:  T  FORCE:  T  STRESS:  F  VC:  F  ENSEMBLE:  F
  @ DRIVER MODE:  SCF:  T  FORCE:  T  STRESS:  F  VC:  F  ENSEMBLE:  F

     Using Slab Decomposition

     bravais-lattice index     =            0
     lattice parameter (alat)  =       1.8897  a.u.
     unit-cell volume          =    6658.9804 (a.u.)^3
     number of atoms/cell      =           51
     number of atomic types    =            4
     number of electrons       =       390.00
     number of Kohn-Sham states=          205
     kinetic-energy cutoff     =      29.3995  Ry
     charge density cutoff     =     293.9946  Ry
     scf convergence threshold =      7.3E-08
     mixing beta               =       0.0500
     number of iterations used =            8  plain     mixing
     Exchange-correlation= BEEF-VDW
                           (   1   4  43  14   2   0   0)

     celldm(1)=   1.889726  celldm(2)=   0.000000  celldm(3)=   0.000000
     celldm(4)=   0.000000  celldm(5)=   0.000000  celldm(6)=   0.000000

     crystal axes: (cart. coord. in units of alat)
               a(1) = (   6.579727   0.000000   0.000000 )
               a(2) = (  -0.000775   5.961596   0.000000 )
               a(3) = (   0.000000   0.000000  25.155947 )

     reciprocal axes: (cart. coord. in units 2 pi/alat)
               b(1) = (  0.151982  0.000020  0.000000 )
               b(2) = (  0.000000  0.167740  0.000000 )
               b(3) = (  0.000000  0.000000  0.039752 )

     PseudoPot. # 1 for Ti read from file:
     /storage/coda1/p-amedford6/0/shared/rich_project_chbe-medford/medford-share/data/pseudos_module/espresso/nninc/pbe/van/Ti.UPF
     MD5 check sum: 8e4df49b7f0d34bbd5052bf3f5ea0213
     Pseudo is Ultrasoft, Zval = 12.0
     Generated by new atomic code, or converted to UPF format
     Using radial grid of  851 points,  6 beta functions with:
                l(1) =   0
                l(2) =   0
                l(3) =   1
                l(4) =   1
                l(5) =   2
                l(6) =   2
     Q(r) pseudized with  8 coefficients,  rinner =    1.000   1.000   1.000
                                                       1.000   1.000

     PseudoPot. # 2 for O  read from file:
     /storage/coda1/p-amedford6/0/shared/rich_project_chbe-medford/medford-share/data/pseudos_module/espresso/nninc/pbe/van/O.UPF
     MD5 check sum: 78c19812648e8988a0fe644b0f25305e
     Pseudo is Ultrasoft, Zval =  6.0
     Generated by new atomic code, or converted to UPF format
     Using radial grid of  737 points,  4 beta functions with:
                l(1) =   0
                l(2) =   0
                l(3) =   1
                l(4) =   1
     Q(r) pseudized with  8 coefficients,  rinner =    0.800   0.800   0.800

     PseudoPot. # 3 for C  read from file:
     /storage/coda1/p-amedford6/0/shared/rich_project_chbe-medford/medford-share/data/pseudos_module/espresso/nninc/pbe/van/C.UPF
     MD5 check sum: 1a69bf6b8db32088f5b2163dbdb77a27
     Pseudo is Ultrasoft, Zval =  4.0
     Generated by new atomic code, or converted to UPF format
     Using radial grid of  721 points,  4 beta functions with:
                l(1) =   0
                l(2) =   0
                l(3) =   1
                l(4) =   1
     Q(r) pseudized with  8 coefficients,  rinner =    0.800   0.800   0.800

     PseudoPot. # 4 for H  read from file:
     /storage/coda1/p-amedford6/0/shared/rich_project_chbe-medford/medford-share/data/pseudos_module/espresso/nninc/pbe/van/H.UPF
     MD5 check sum: b5ee9d7bfd3a09ee7748110bda690ff7
     Pseudo is Ultrasoft, Zval =  1.0
     Generated by new atomic code, or converted to UPF format
     Using radial grid of  615 points,  1 beta functions with:
                l(1) =   0
     Q(r) pseudized with  8 coefficients,  rinner =    0.800

     atomic species   valence    mass     pseudopotential
        Ti1           12.00    47.86700     Ti( 1.00)
        O1             6.00    15.99900     O ( 1.00)
        C1             4.00    12.01100     C ( 1.00)
        H1             1.00     1.00800     H ( 1.00)

     No symmetry found

   Cartesian axes

     site n.     atom                  positions (alat units)
         1           Ti1 tau(   1) = (   0.0004258   2.9801865   6.0000000  )
         2           Ti1 tau(   2) = (   3.2906075   1.4906267   6.0002472  )
         3           O1  tau(   3) = (   0.0006271   0.0005054   7.9858123  )
         4           O1  tau(   4) = (   3.2906025   0.0005020   7.3038282  )
         5           O1  tau(   5) = (   4.5942328   1.4918067   9.2879030  )
         6           O1  tau(   6) = (   1.9868534   1.4903216   9.2879459  )
         7           Ti1 tau(   7) = (   3.2576716   2.8711746   9.2039182  )
         8           Ti1 tau(   8) = (   6.5366639   1.4374725   9.3495247  )
         9           O1  tau(   9) = (   3.2654967   5.9220709  11.3209648  )
        10           O1  tau(  10) = (   0.0059489   5.9503157  10.5690854  )
        11           O1  tau(  11) = (   1.2710110   1.4830968  12.6026389  )
        12           O1  tau(  12) = (   5.2956248   1.4563849  12.6219738  )
        13           Ti1 tau(  13) = (   6.4707115   3.0232854  12.7046045  )
        14           Ti1 tau(  14) = (   3.3012427   1.2792539  12.6712786  )
        15           O1  tau(  15) = (   0.1208522   5.9439793  14.6184240  )
        16           O1  tau(  16) = (   3.2955454   0.0555021  13.9474554  )
        17           O1  tau(  17) = (   4.3710900   1.5417649  16.0729971  )
        18           O1  tau(  18) = (   1.7386421   2.0841158  16.4311239  )
        19           Ti1 tau(  19) = (   3.2301957   3.0269898  15.6570758  )
        20           Ti1 tau(  20) = (   6.3022331   1.4673853  15.8568112  )
        21           O1  tau(  21) = (   3.2904802   0.0005063   4.7018136  )
        22           O1  tau(  22) = (   6.3638003   5.9514110  17.1305022  )
        23           O1  tau(  23) = (   1.3043587   1.4918075   6.0039043  )
        24           O1  tau(  24) = (   5.2767064   1.4903225   6.0039473  )
        25           Ti1 tau(  25) = (   0.0000382   5.9609847   6.0000000  )
        26           Ti1 tau(  26) = (   3.2902200   4.4714249   6.0002472  )
        27           O1  tau(  27) = (   0.0002396   2.9813036   7.9858123  )
        28           O1  tau(  28) = (   3.2902150   2.9813002   7.3038282  )
        29           O1  tau(  29) = (   4.5938453   4.4726049   9.2879030  )
        30           O1  tau(  30) = (   1.9864658   4.4711199   9.2879459  )
        31           Ti1 tau(  31) = (   3.2576593   5.8570409   9.1743550  )
        32           Ti1 tau(  32) = (   6.5358986   4.4093296   9.3482377  )
        33           O1  tau(  33) = (   3.2940825   2.9875588  11.2901943  )
        34           O1  tau(  34) = (   6.5570357   2.9690702  10.5578446  )
        35           O1  tau(  35) = (   1.2556184   4.4285683  12.6007990  )
        36           O1  tau(  36) = (   5.2653856   4.4527926  12.6146307  )
        37           Ti1 tau(  37) = (   0.0986422   0.0400065  12.6561080  )
        38           Ti1 tau(  38) = (   3.2648468   4.3768915  12.4074939  )
        39           O1  tau(  39) = (   6.4357771   2.9845043  14.6319670  )
        40           O1  tau(  40) = (   3.2191030   2.9668167  13.8952198  )
        41           O1  tau(  41) = (   4.5664177   4.3244647  16.1555655  )
        42           O1  tau(  42) = (   2.0966903   4.6357478  16.0503417  )
        43           Ti1 tau(  43) = (   3.4732119   5.7943257  16.4097380  )
        44           Ti1 tau(  44) = (   0.0705528   4.5403211  16.0661977  )
        45           O1  tau(  45) = (   3.2900926   2.9813045   4.7018136  )
        46           O1  tau(  46) = (   1.3039711   4.4726057   6.0039043  )
        47           O1  tau(  47) = (   5.2763189   4.4711207   6.0039473  )
        48           C1  tau(  48) = (   0.6899253   2.7505959  17.1512775  )
        49           H1  tau(  49) = (   0.8031679   2.6269330  18.2321311  )
        50           O1  tau(  50) = (   3.3389373   5.9192928  18.2161996  )
        51           H1  tau(  51) = (   4.0498012   0.2866715  18.7870949  )

     number of k points=    10  Fermi-Dirac smearing, width (Ry)=  0.0073
                       cart. coord. in units 2pi/alat
        k(    1) = (   0.0000000   0.0000000   0.0000000), wk =   0.1250000
        k(    2) = (   0.0000000   0.0419351   0.0000000), wk =   0.2500000
        k(    3) = (   0.0000000  -0.0838702   0.0000000), wk =   0.1250000
        k(    4) = (   0.0379955   0.0000049   0.0000000), wk =   0.2500000
        k(    5) = (   0.0379955   0.0419400   0.0000000), wk =   0.2500000
        k(    6) = (   0.0379955  -0.0838652   0.0000000), wk =   0.2500000
        k(    7) = (   0.0379955  -0.0419301   0.0000000), wk =   0.2500000
        k(    8) = (  -0.0759910  -0.0000099   0.0000000), wk =   0.1250000
        k(    9) = (  -0.0759910   0.0419252   0.0000000), wk =   0.2500000
        k(   10) = (  -0.0759910  -0.0838800   0.0000000), wk =   0.1250000

     Initial potential from superposition of free atoms

     starting charge  373.99919, renormalised to  390.00000

     negative rho (up, down):  1.956E-02 0.000E+00

     %%%%%%%%%%%%%%%%%%%%%%%%%%%%%%%%%%%%%%%%%%%%%%%%%%%%%%%%%%%%%%%%%%%%%%%%
     %                                                                      %
     % You are using vdW-DF, which was implemented by the Thonhauser group. %
     % Please cite the following two papers that made this development      %
     % possible and the two reviews that describe the various versions:     %
     %                                                                      %
     %   T. Thonhauser et al., PRL 115, 136402 (2015).                      %
     %   T. Thonhauser et al., PRB 76, 125112 (2007).                       %
     %   K. Berland et al., Rep. Prog. Phys. 78, 066501 (2015).             %
     %   D.C. Langreth et al., J. Phys.: Condens. Matter 21, 084203 (2009). %
     %                                                                      %
     %                                                                      %
     % If you are calculating the stress with vdW-DF, please also cite:     %
     %                                                                      %
     %   R. Sabatini et al., J. Phys.: Condens. Matter 24, 424209 (2012).   %
     %                                                                      %
     %%%%%%%%%%%%%%%%%%%%%%%%%%%%%%%%%%%%%%%%%%%%%%%%%%%%%%%%%%%%%%%%%%%%%%%%

     Adding external electric field

     Computed dipole along edir(3) :
        Dipole               -3.9292 Ry au,         -9.9870 Debye
        Dipole field         -0.0074 Ry au,

        Potential amp.        0.6874 Ry
        Total length         46.3494 bohr

     Starting wfcs are  294 atomic wfcs
  @ DRIVER MODE: Message from server: STATUS
  @ DRIVER MODE: Message from server: POSDATA
  @ DRIVER MODE: Reading and sharing cell
  @ DRIVER MODE: Reading and sharing positions
  @ DRIVER MODE: Received positions

     Self-consistent Calculation

     iteration #  1     ecut=    29.40 Ry     beta= 0.05
     Davidson diagonalization with overlap
     c_bands:  5 eigenvalues not converged
     c_bands:  2 eigenvalues not converged
     c_bands:  4 eigenvalues not converged
     c_bands:  4 eigenvalues not converged
     c_bands:  1 eigenvalues not converged
     c_bands:  4 eigenvalues not converged
     c_bands:  1 eigenvalues not converged
     c_bands:  1 eigenvalues not converged
     c_bands:  3 eigenvalues not converged
     ethr =  1.00E-05,  avg # of iterations = 20.8

[...]

     total energy              =   -2904.74714313 Ry
     estimated scf accuracy    <     308.17816802 Ry

     iteration #  2     ecut=    29.40 Ry     beta= 0.05
     Davidson diagonalization with overlap
     ethr =  1.00E-02,  avg # of iterations = 12.2

[...]

     iteration # 53     ecut=    29.40 Ry     beta= 0.05
     Davidson diagonalization with overlap
     c_bands:  1 eigenvalues not converged
     c_bands:  2 eigenvalues not converged
     c_bands:  2 eigenvalues not converged
     ethr =  8.87E-07,  avg # of iterations = 15.0

[...]

     total energy              =   -2930.00842090 Ry
     estimated scf accuracy    <       0.00000009 Ry

     iteration # 70     ecut=    29.40 Ry     beta= 0.05
     Davidson diagonalization with overlap
     ethr =  2.29E-11,  avg # of iterations =  1.9

     negative rho (up, down):  1.952E-02 0.000E+00

     Adding external electric field

     Computed dipole along edir(3) :
        Dipole                0.5401 Ry au,          1.3729 Debye
        Dipole field          0.0010 Ry au,

        Potential amp.       -0.0945 Ry
        Total length         46.3494 bohr

     End of self-consistent calculation

          k = 0.0000 0.0000 0.0000 ( 18029 PWs)   bands (ev):

   -56.4356 -56.4005 -56.1640 -55.9798 -55.8996 -55.8767 -55.8619 -55.8337
   -55.7762 -55.7324 -55.7308 -55.5634 -55.4797 -55.4452 -55.1268 -55.0928
   -32.8605 -32.7002 -32.6698 -32.6375 -32.6161 -32.5355 -32.5248 -32.4871
   -32.3923 -32.3844 -32.3830 -32.3811 -32.2679 -32.2450 -32.2270 -32.2039
   -32.1713 -32.1415 -32.1179 -32.0843 -32.0751 -32.0653 -32.0370 -32.0353
   -32.0282 -32.0061 -31.9930 -31.9881 -31.9875 -31.9703 -31.9356 -31.9321
   -31.9206 -31.8905 -31.8327 -31.8161 -31.8028 -31.7997 -31.7732 -31.7120
   -31.6208 -31.5239 -31.5000 -31.4617 -31.4376 -31.3412 -31.2561 -31.1447
   -18.1233 -17.0963 -16.7788 -16.6506 -16.5136 -16.3160 -16.2656 -16.1378
   -15.9494 -15.8561 -15.7891 -15.7467 -15.6692 -15.6678 -15.5860 -15.5335
   -15.5182 -15.4840 -15.4637 -15.4346 -15.3847 -15.3825 -15.3231 -15.2859
   -15.2421 -15.1887 -15.1346 -15.0531 -15.0080 -14.8181 -13.6261 -13.5152
    -8.0189  -4.8139  -4.5361  -4.1600  -4.0388  -4.0152  -3.8952  -3.7514
    -3.7031  -3.6379  -3.4230  -3.4015  -3.2992  -3.2434  -3.2236  -3.1400
    -3.0880  -3.0332  -3.0271  -2.9620  -2.9184  -2.8836  -2.8378  -2.7873
    -2.6993  -2.6919  -2.6680  -2.6057  -2.5828  -2.4860  -2.4784  -2.3798
    -2.3634  -2.3567  -2.3336  -2.3030  -2.2753  -2.1751  -2.1589  -2.1192
    -2.0208  -2.0012  -1.8982  -1.7809  -1.6814  -1.6743  -1.6463  -1.5523
    -1.5071  -1.4954  -1.4580  -1.4140  -1.3855  -1.3281  -1.2793  -1.2248
    -1.1805  -1.0655  -1.0134  -0.9663  -0.8823  -0.8600  -0.7950  -0.7760
    -0.6756  -0.6436  -0.5896  -0.5771  -0.5382  -0.4672  -0.3861  -0.3527
    -0.3245  -0.2751  -0.2394  -0.1823  -0.1650  -0.1551  -0.1152  -0.0784
    -0.0435   0.0370   0.0485   0.1170   0.2031   0.2942   0.3237   0.4242
     0.4571   0.5909   0.6272   0.8614   0.8943   0.9038   1.0877   1.1342
     1.4550   1.5056   2.1927   2.8442   2.9935   3.2795   3.2829   3.3516
     3.3967   3.4923   3.5405   3.6330   3.7386

[...]

          k = 0.0380-0.0419 0.0000 ( 17876 PWs)   bands (ev):

[...]

          k =-0.0760-0.0000 0.0000 ( 17886 PWs)   bands (ev):

[...]

          k =-0.0760-0.0839 0.0000 ( 17948 PWs)   bands (ev):

   -56.4231 -56.4128 -56.1631 -55.9806 -55.8892 -55.8722 -55.8677 -55.8424
   -55.7682 -55.7401 -55.7294 -55.5649 -55.4701 -55.4547 -55.1100 -55.1095
   -32.6908 -32.6822 -32.6783 -32.6730 -32.5899 -32.5729 -32.5647 -32.5201
   -32.4090 -32.3646 -32.3035 -32.2133 -32.2077 -32.2044 -32.1961 -32.1820
   -32.1370 -32.1172 -32.1138 -32.1023 -32.1016 -32.0983 -32.0883 -32.0638
   -32.0514 -32.0342 -32.0214 -32.0132 -31.9888 -31.9863 -31.9686 -31.9439
   -31.9269 -31.9143 -31.9010 -31.8281 -31.8250 -31.8039 -31.7779 -31.7730
   -31.5988 -31.5561 -31.4508 -31.4504 -31.3390 -31.3374 -31.2986 -31.2977
   -18.0830 -17.0839 -16.4801 -16.4501 -16.2393 -16.1377 -15.9711 -15.9481
   -15.9439 -15.9113 -15.8556 -15.8418 -15.8252 -15.6766 -15.6529 -15.6371
   -15.5743 -15.5066 -15.4642 -15.4388 -15.4148 -15.3785 -15.3634 -15.3520
   -15.3501 -15.3349 -15.2810 -15.2014 -15.1842 -14.9380 -13.6188 -13.6180
    -8.0177  -4.8085  -4.3458  -3.7334  -3.5383  -3.4736  -3.4357  -3.2725
    -3.1875  -3.1772  -3.1072  -3.0928  -3.0459  -3.0084  -2.9705  -2.9374
    -2.9205  -2.8708  -2.8602  -2.8232  -2.7978  -2.7753  -2.7676  -2.7560
    -2.7307  -2.7241  -2.7044  -2.6931  -2.6741  -2.6525  -2.6172  -2.5739
    -2.5063  -2.4336  -2.3061  -2.2909  -2.2656  -2.1945  -2.1749  -2.1232
    -2.1066  -2.0822  -2.0693  -2.0182  -1.9818  -1.9559  -1.7067  -1.6834
    -1.6303  -1.5778  -1.5230  -1.4905  -1.4622  -1.4478  -1.3848  -1.2784
    -1.2405  -1.2043  -1.1859  -1.1651  -1.1602  -1.0815  -1.0568  -0.9938
    -0.9477  -0.9174  -0.8403  -0.8045  -0.7748  -0.7546  -0.6959  -0.6334
    -0.6175  -0.5411  -0.4926  -0.4719  -0.4127  -0.2783  -0.2444  -0.1451
    -0.0958  -0.0562   0.0508   0.1721   0.2369   0.2429   0.3540   0.3823
     0.3997   0.4979   0.5503   0.5700   0.6080   0.7502   1.2810   1.2955
     1.3053   1.3068   2.3398   3.3814   3.3948   3.4050   3.4102   3.4296
     3.5451   3.6142   3.6763   3.7501   3.7631

     the Fermi energy is     2.6266 ev

!    total energy              =   -2930.00843529 Ry
     estimated scf accuracy    <       0.00000007 Ry
     smearing contrib. (-TS)   =      -0.00362575 Ry
     internal energy E=F+TS    =   -2930.00480953 Ry

     The total energy is F=E-TS. E is the sum of the following terms:
     one-electron contribution =  -24472.95275533 Ry
     hartree contribution      =   12320.13416496 Ry
     xc contribution           =    -481.33498687 Ry
     ewald contribution        =    9704.14821718 Ry
     electric field correction =       0.00055053 Ry

     convergence has been achieved in  70 iterations

     Forces acting on atoms (cartesian axes, Ry/au):

     atom    1 type  1   force =     0.00045598   -0.00032759    0.13415382
     atom    2 type  1   force =     0.00011667    0.00528275   -0.16227191
     atom    3 type  2   force =    -0.00070359    0.00272349   -0.05112582
     atom    4 type  2   force =    -0.00084034   -0.00120316    0.04165243
     atom    5 type  2   force =    -0.01385081   -0.00296733    0.00210184
     atom    6 type  2   force =     0.01177176   -0.00439533    0.00137838
     atom    7 type  1   force =     0.00052615   -0.00030287   -0.00015270
     atom    8 type  1   force =    -0.00006813   -0.00038330    0.00025724
     atom    9 type  2   force =     0.00018252   -0.00024898   -0.00016665
     atom   10 type  2   force =    -0.00025733    0.00015612   -0.00042694
     atom   11 type  2   force =     0.00015081   -0.00092447    0.00004078
     atom   12 type  2   force =    -0.00070760    0.00015992    0.00013558
     atom   13 type  1   force =     0.00065128    0.00020357    0.00005691
     atom   14 type  1   force =    -0.00006572   -0.00015485    0.00057630
     atom   15 type  2   force =     0.00032798    0.00075597   -0.00049650
     atom   16 type  2   force =     0.00084726    0.00015679   -0.00037122
     atom   17 type  2   force =     0.00104716   -0.00016864    0.00026270
     atom   18 type  2   force =    -0.00182273    0.00129696    0.00066731
     atom   19 type  1   force =    -0.00038389    0.00104436    0.00021894
     atom   20 type  1   force =     0.00106304    0.00013571    0.00157278
     atom   21 type  2   force =     0.00019784    0.00006095    0.10035663
     atom   22 type  2   force =     0.00003169    0.00090675   -0.00019333
     atom   23 type  2   force =    -0.07799839    0.00019975   -0.03358678
     atom   24 type  2   force =     0.07804787    0.00071221   -0.03360245
     atom   25 type  1   force =     0.00017295   -0.00022497    0.13672933
     atom   26 type  1   force =     0.00017202   -0.00663571   -0.16251108
     atom   27 type  2   force =     0.00015057    0.00092990   -0.05029588
     atom   28 type  2   force =    -0.00050517   -0.00054881    0.04258542
     atom   29 type  2   force =    -0.01245636    0.00585200    0.00017118
     atom   30 type  2   force =     0.01099538   -0.00027669   -0.00036318
     atom   31 type  1   force =     0.00030229   -0.00026918   -0.00014823
     atom   32 type  1   force =    -0.00023587    0.00017046    0.00020451
     atom   33 type  2   force =    -0.00026978    0.00007061   -0.00003115
     atom   34 type  2   force =     0.00037305   -0.00021192   -0.00035803
     atom   35 type  2   force =     0.00135623    0.00034442   -0.00012359
     atom   36 type  2   force =    -0.00056266   -0.00014410   -0.00033391
     atom   37 type  1   force =    -0.00048132    0.00082863   -0.00023104
     atom   38 type  1   force =    -0.00028513    0.00037518   -0.00027739
     atom   39 type  2   force =     0.00060218   -0.00061400    0.00014658
     atom   40 type  2   force =    -0.00000468    0.00016566   -0.00068067
     atom   41 type  2   force =     0.00080299   -0.00042656    0.00030658
     atom   42 type  2   force =     0.00059483    0.00098359   -0.00063043
     atom   43 type  1   force =     0.00041457   -0.00097136    0.00187511
     atom   44 type  1   force =     0.00017861    0.00053532    0.00092742
     atom   45 type  2   force =     0.00016391   -0.00002131    0.09986821
     atom   46 type  2   force =    -0.07801621    0.00000839   -0.03359596
     atom   47 type  2   force =     0.07807157    0.00053667   -0.03363108
     atom   48 type  3   force =     0.00193157   -0.00429249    0.00159761
     atom   49 type  4   force =    -0.00173170    0.00102713   -0.00195176
     atom   50 type  2   force =    -0.00160401   -0.00059293    0.00084154
     atom   51 type  4   force =     0.00115069    0.00068328   -0.00112742

     Total force =     0.384547     Total SCF correction =     0.000923
  @ DRIVER MODE: Message from server: STATUS
  @ DRIVER MODE: Message from server: GETFORCE
  @ DRIVER MODE: Returning v,forces,stress,ensemble

     Writing output data file ./calc.save/
  @ DRIVER MODE: Message from server: EXIT
  @ DRIVE MODE: Exiting

     General routines

     Parallel routines

   This run was terminated on:  15:18:53  28Sep2021

   JOB DONE.