     Program PWSCF v.6.7GPU starts on  2Aug2021 at 23:26:10

     R & G space division:  proc/nbgrp/npool/nimage =      16
     Reading input from /storage/home/hcoda1/3/ntian30/research/carbon/02Aug_vib_paired/ads_slab/CH3NNHH_a/out_0039/pw.inp
Warning: card &CELL ignored
Warning: card   CELL_DYNAMICS='IPI', ignored
Warning: card / ignored

     Current dimensions of program PWSCF are:
     Max number of different atomic species (ntypx) = 10
     Max number of k-points (npk) =  40000
     Max angular momentum in pseudopotentials (lmaxx) =  3
     Presently no symmetry can be used with electric field

     Message from routine cell_base_init:
     DEPRECATED: use true lattice parameter, not A to a.u. conversion factor

     IMPORTANT: XC functional enforced from input :
     Exchange-correlation= BEEF-VDW
                           (   1   4  43  14   2   0   0)
     Any further DFT definition will be discarded
     Please, verify this is what you really want

  @ DRIVER MODE: Connecting to
 qe_1139763_2482543.sched-torque.pace.gatech.edu0vro_0jc_scratch
  using UNIX socket
  @ DRIVER MODE: Message from server: STATUS
  @ DRIVER MODE: Message from server: INIT
  @ DRIVER MODE: Receiving replica           0          -1
  @ DRIVER MODE: Receiving encoded integer          25
  @ DRIVER MODE:  SCF:  T  FORCE:  T  STRESS:  F  VC:  F  ENSEMBLE:  F
  @ DRIVER MODE:  SCF:  T  FORCE:  T  STRESS:  F  VC:  F  ENSEMBLE:  F

     Using Slab Decomposition

     bravais-lattice index     =            0
     lattice parameter (alat)  =       1.8897  a.u.
     unit-cell volume          =    6658.9804 (a.u.)^3
     number of atoms/cell      =           55
     number of atomic types    =            5
     number of electrons       =       397.00
     number of Kohn-Sham states=          208
     kinetic-energy cutoff     =      29.3995  Ry
     charge density cutoff     =     293.9946  Ry
     scf convergence threshold =      7.3E-08
     mixing beta               =       0.0500
     number of iterations used =            8  plain     mixing
     Exchange-correlation= BEEF-VDW
                           (   1   4  43  14   2   0   0)

     celldm(1)=   1.889726  celldm(2)=   0.000000  celldm(3)=   0.000000
     celldm(4)=   0.000000  celldm(5)=   0.000000  celldm(6)=   0.000000

     crystal axes: (cart. coord. in units of alat)
               a(1) = (   6.579727   0.000000   0.000000 )
               a(2) = (  -0.000775   5.961596   0.000000 )
               a(3) = (   0.000000   0.000000  25.155947 )

     reciprocal axes: (cart. coord. in units 2 pi/alat)
               b(1) = (  0.151982  0.000020  0.000000 )
               b(2) = (  0.000000  0.167740  0.000000 )
               b(3) = (  0.000000  0.000000  0.039752 )

     PseudoPot. # 1 for Ti read from file:
     /storage/coda1/p-amedford6/0/shared/rich_project_chbe-medford/medford-share/data/pseudos_module/espresso/nninc/pbe/van/Ti.UPF
     MD5 check sum: 8e4df49b7f0d34bbd5052bf3f5ea0213
     Pseudo is Ultrasoft, Zval = 12.0
     Generated by new atomic code, or converted to UPF format
     Using radial grid of  851 points,  6 beta functions with:
                l(1) =   0
                l(2) =   0
                l(3) =   1
                l(4) =   1
                l(5) =   2
                l(6) =   2
     Q(r) pseudized with  8 coefficients,  rinner =    1.000   1.000   1.000
                                                       1.000   1.000

     PseudoPot. # 2 for O  read from file:
     /storage/coda1/p-amedford6/0/shared/rich_project_chbe-medford/medford-share/data/pseudos_module/espresso/nninc/pbe/van/O.UPF
     MD5 check sum: 78c19812648e8988a0fe644b0f25305e
     Pseudo is Ultrasoft, Zval =  6.0
     Generated by new atomic code, or converted to UPF format
     Using radial grid of  737 points,  4 beta functions with:
                l(1) =   0
                l(2) =   0
                l(3) =   1
                l(4) =   1
     Q(r) pseudized with  8 coefficients,  rinner =    0.800   0.800   0.800

     PseudoPot. # 3 for N  read from file:
     /storage/coda1/p-amedford6/0/shared/rich_project_chbe-medford/medford-share/data/pseudos_module/espresso/nninc/pbe/van/N.UPF
     MD5 check sum: 90d10febe142ad51ac9d5be1deb811c4
     Pseudo is Ultrasoft, Zval =  5.0
     Generated by new atomic code, or converted to UPF format
     Using radial grid of  729 points,  4 beta functions with:
                l(1) =   0
                l(2) =   0
                l(3) =   1
                l(4) =   1
     Q(r) pseudized with  8 coefficients,  rinner =    0.800   0.800   0.800

     PseudoPot. # 4 for C  read from file:
     /storage/coda1/p-amedford6/0/shared/rich_project_chbe-medford/medford-share/data/pseudos_module/espresso/nninc/pbe/van/C.UPF
     MD5 check sum: 1a69bf6b8db32088f5b2163dbdb77a27
     Pseudo is Ultrasoft, Zval =  4.0
     Generated by new atomic code, or converted to UPF format
     Using radial grid of  721 points,  4 beta functions with:
                l(1) =   0
                l(2) =   0
                l(3) =   1
                l(4) =   1
     Q(r) pseudized with  8 coefficients,  rinner =    0.800   0.800   0.800

     PseudoPot. # 5 for H  read from file:
     /storage/coda1/p-amedford6/0/shared/rich_project_chbe-medford/medford-share/data/pseudos_module/espresso/nninc/pbe/van/H.UPF
     MD5 check sum: b5ee9d7bfd3a09ee7748110bda690ff7
     Pseudo is Ultrasoft, Zval =  1.0
     Generated by new atomic code, or converted to UPF format
     Using radial grid of  615 points,  1 beta functions with:
                l(1) =   0
     Q(r) pseudized with  8 coefficients,  rinner =    0.800

     atomic species   valence    mass     pseudopotential
        Ti1           12.00    47.86700     Ti( 1.00)
        O1             6.00    15.99900     O ( 1.00)
        N1             5.00    14.00700     N ( 1.00)
        C1             4.00    12.01100     C ( 1.00)
        H1             1.00     1.00800     H ( 1.00)

     No symmetry found

   Cartesian axes

     site n.     atom                  positions (alat units)
         1           Ti1 tau(   1) = (   0.0004258   2.9801865   6.0000000  )
         2           Ti1 tau(   2) = (   3.2906075   1.4906267   6.0002472  )
         3           O1  tau(   3) = (   0.0006271   0.0005054   7.9858123  )
         4           O1  tau(   4) = (   3.2906025   0.0005020   7.3038282  )
         5           O1  tau(   5) = (   4.5942328   1.4918067   9.2879030  )
         6           O1  tau(   6) = (   1.9868534   1.4903216   9.2879459  )
         7           Ti1 tau(   7) = (   3.2907910   2.8959150   9.1758416  )
         8           Ti1 tau(   8) = (   0.0015273   1.4827037   9.2680791  )
         9           O1  tau(   9) = (   3.3049802   0.0007868  11.3057318  )
        10           O1  tau(  10) = (   0.0116148   5.9584955  10.6183126  )
        11           O1  tau(  11) = (   1.3244024   1.4905818  12.6109357  )
        12           O1  tau(  12) = (   5.3168099   1.4893704  12.6271843  )
        13           Ti1 tau(  13) = (   6.5373159   3.0114403  12.6515439  )
        14           Ti1 tau(  14) = (   3.2156784   1.4952808  12.4541107  )
        15           O1  tau(  15) = (   0.0550716   5.9579553  14.6769760  )
        16           O1  tau(  16) = (   3.3119233   0.0240268  13.8744051  )
        17           O1  tau(  17) = (   4.5754650   1.5399768  16.1198157  )
        18           O1  tau(  18) = (   2.0928293   1.5118261  15.9950610  )
        19           Ti1 tau(  19) = (   3.3312717   3.0210965  15.6459898  )
        20           Ti1 tau(  20) = (   0.0837956   1.4057146  15.8023643  )
        21           O1  tau(  21) = (   3.2904802   0.0005063   4.7018136  )
        22           O1  tau(  22) = (   0.0662678   0.0194342  17.2484716  )
        23           O1  tau(  23) = (   1.3043587   1.4918075   6.0039043  )
        24           O1  tau(  24) = (   5.2767064   1.4903225   6.0039473  )
        25           Ti1 tau(  25) = (   0.0000382   5.9609847   6.0000000  )
        26           Ti1 tau(  26) = (   3.2902200   4.4714249   6.0002472  )
        27           O1  tau(  27) = (   0.0002396   2.9813036   7.9858123  )
        28           O1  tau(  28) = (   3.2902150   2.9813002   7.3038282  )
        29           O1  tau(  29) = (   4.5938453   4.4726049   9.2879030  )
        30           O1  tau(  30) = (   1.9864658   4.4711199   9.2879459  )
        31           Ti1 tau(  31) = (   3.2891106   5.8743827   9.1763621  )
        32           Ti1 tau(  32) = (   0.0006254   4.4649316   9.2693709  )
        33           O1  tau(  33) = (   3.3066024   2.9928613  11.3071500  )
        34           O1  tau(  34) = (   0.0092240   2.9805883  10.6323155  )
        35           O1  tau(  35) = (   1.3207996   4.4694119  12.6241097  )
        36           O1  tau(  36) = (   5.3140488   4.4801720  12.6365454  )
        37           Ti1 tau(  37) = (   6.5381296   0.0208815  12.5444857  )
        38           Ti1 tau(  38) = (   3.2183512   4.4801350  12.4586296  )
        39           O1  tau(  39) = (   0.0202472   2.9427232  14.7250097  )
        40           O1  tau(  40) = (   3.3152672   2.9848540  13.8607131  )
        41           O1  tau(  41) = (   4.5737023   4.5140360  15.9163038  )
        42           O1  tau(  42) = (   2.1295162   4.4918226  16.0779194  )
        43           Ti1 tau(  43) = (   3.3279662   0.0229233  15.6733299  )
        44           Ti1 tau(  44) = (   6.5520288   4.5036137  16.2892914  )
        45           O1  tau(  45) = (   3.2900926   2.9813045   4.7018136  )
        46           O1  tau(  46) = (   1.3039711   4.4726057   6.0039043  )
        47           O1  tau(  47) = (   5.2763189   4.4711207   6.0039473  )
        48           N1  tau(  48) = (   0.3708600   2.9881754  17.6030774  )
        49           C1  tau(  49) = (   1.3543844   2.7351176  18.6431602  )
        50           H1  tau(  50) = (   1.5086739   3.6319226  19.2591966  )
        51           H1  tau(  51) = (   1.0320479   1.9069190  19.2840631  )
        52           H1  tau(  52) = (   2.3019873   2.4496563  18.1994378  )
        53           N1  tau(  53) = (   5.7269228   3.4566738  18.1314761  )
        54           H1  tau(  54) = (   5.8315057   4.0192447  18.9662490  )
        55           H1  tau(  55) = (   5.0361168   2.7172796  18.2515220  )

     number of k points=    10  Fermi-Dirac smearing, width (Ry)=  0.0073
                       cart. coord. in units 2pi/alat
        k(    1) = (   0.0000000   0.0000000   0.0000000), wk =   0.1250000
        k(    2) = (   0.0000000   0.0419351   0.0000000), wk =   0.2500000
        k(    3) = (   0.0000000  -0.0838702   0.0000000), wk =   0.1250000
        k(    4) = (   0.0379955   0.0000049   0.0000000), wk =   0.2500000
        k(    5) = (   0.0379955   0.0419400   0.0000000), wk =   0.2500000
        k(    6) = (   0.0379955  -0.0838652   0.0000000), wk =   0.2500000
        k(    7) = (   0.0379955  -0.0419301   0.0000000), wk =   0.2500000
        k(    8) = (  -0.0759910  -0.0000099   0.0000000), wk =   0.1250000
        k(    9) = (  -0.0759910   0.0419252   0.0000000), wk =   0.2500000
        k(   10) = (  -0.0759910  -0.0838800   0.0000000), wk =   0.1250000

     Initial potential from superposition of free atoms

     starting charge  380.99914, renormalised to  397.00000

     negative rho (up, down):  1.666E-02 0.000E+00

     %%%%%%%%%%%%%%%%%%%%%%%%%%%%%%%%%%%%%%%%%%%%%%%%%%%%%%%%%%%%%%%%%%%%%%%%
     %                                                                      %
     % You are using vdW-DF, which was implemented by the Thonhauser group. %
     % Please cite the following two papers that made this development      %
     % possible and the two reviews that describe the various versions:     %
     %                                                                      %
     %   T. Thonhauser et al., PRL 115, 136402 (2015).                      %
     %   T. Thonhauser et al., PRB 76, 125112 (2007).                       %
     %   K. Berland et al., Rep. Prog. Phys. 78, 066501 (2015).             %
     %   D.C. Langreth et al., J. Phys.: Condens. Matter 21, 084203 (2009). %
     %                                                                      %
     %                                                                      %
     % If you are calculating the stress with vdW-DF, please also cite:     %
     %                                                                      %
     %   R. Sabatini et al., J. Phys.: Condens. Matter 24, 424209 (2012).   %
     %                                                                      %
     %%%%%%%%%%%%%%%%%%%%%%%%%%%%%%%%%%%%%%%%%%%%%%%%%%%%%%%%%%%%%%%%%%%%%%%%

     Adding external electric field

     Computed dipole along edir(3) :
        Dipole               -9.2540 Ry au,        -23.5213 Debye
        Dipole field         -0.0175 Ry au,

        Potential amp.        1.6188 Ry
        Total length         46.3494 bohr

     Starting wfcs are  301 atomic wfcs
  @ DRIVER MODE: Message from server: STATUS
  @ DRIVER MODE: Message from server: POSDATA
  @ DRIVER MODE: Reading and sharing cell
  @ DRIVER MODE: Reading and sharing positions
  @ DRIVER MODE: Received positions

     Self-consistent Calculation

     iteration #  1     ecut=    29.40 Ry     beta= 0.05
     Davidson diagonalization with overlap
     c_bands:  1 eigenvalues not converged
     c_bands:  2 eigenvalues not converged
     c_bands:  1 eigenvalues not converged
     c_bands:  2 eigenvalues not converged
     c_bands:  2 eigenvalues not converged
     c_bands:  1 eigenvalues not converged
     c_bands:  2 eigenvalues not converged
     c_bands:  2 eigenvalues not converged
     c_bands:  4 eigenvalues not converged
     ethr =  1.00E-05,  avg # of iterations = 19.7

[...]

     total energy              =   -2525.57706873 Ry
     estimated scf accuracy    <    4612.72444839 Ry

     iteration #  2     ecut=    29.40 Ry     beta= 0.05
     Davidson diagonalization with overlap
     ethr =  1.00E-02,  avg # of iterations = 23.0

[...]

     iteration # 71     ecut=    29.40 Ry     beta= 0.05
     Davidson diagonalization with overlap
     c_bands:  1 eigenvalues not converged
     ethr =  6.07E-11,  avg # of iterations = 11.9

[...]

     total energy              =   -2941.63746232 Ry
     estimated scf accuracy    <       0.00000011 Ry

     iteration # 73     ecut=    29.40 Ry     beta= 0.05
     Davidson diagonalization with overlap
     ethr =  2.81E-11,  avg # of iterations =  6.1

     negative rho (up, down):  1.675E-02 0.000E+00

     Adding external electric field

     Computed dipole along edir(3) :
        Dipole                1.1514 Ry au,          2.9266 Debye
        Dipole field          0.0022 Ry au,

        Potential amp.       -0.2014 Ry
        Total length         46.3494 bohr

     End of self-consistent calculation

          k = 0.0000 0.0000 0.0000 ( 18029 PWs)   bands (ev):

   -55.5716 -55.5687 -55.5348 -55.5346 -55.4581 -55.4219 -55.4202 -55.3867
   -55.3693 -55.3352 -55.3243 -55.2904 -55.0310 -54.8873 -54.5352 -54.5011
   -32.1344 -32.0498 -31.9554 -31.8912 -31.8861 -31.8713 -31.8612 -31.8169
   -31.8093 -31.8030 -31.7827 -31.7576 -31.7537 -31.7242 -31.7209 -31.7135
   -31.6718 -31.6589 -31.6560 -31.6470 -31.6461 -31.6260 -31.6100 -31.5943
   -31.5674 -31.5666 -31.5649 -31.5569 -31.5546 -31.5281 -31.5045 -31.5034
   -31.4978 -31.4911 -31.4788 -31.4727 -31.4379 -31.3074 -31.2560 -31.1578
   -31.1402 -31.0481 -30.9415 -30.8549 -30.8324 -30.7586 -30.6721 -30.5608
   -17.6051 -16.3605 -16.0471 -15.8361 -15.7248 -15.7204 -15.6365 -15.4154
   -15.2954 -15.2798 -15.1637 -15.1588 -15.0998 -15.0594 -15.0529 -15.0474
   -15.0126 -15.0004 -14.9818 -14.9517 -14.9132 -14.8956 -14.8756 -14.7696
   -14.7076 -14.6975 -14.6818 -14.6150 -14.5710 -14.2065 -13.0370 -12.9208
   -12.5558  -9.2184  -6.3570  -5.1043  -4.2007  -3.7387  -3.5477  -3.4718
    -3.4372  -3.3731  -3.3596  -3.1811  -3.1736  -2.7956  -2.7747  -2.7556
    -2.7340  -2.7314  -2.4635  -2.4101  -2.3942  -2.3916  -2.3741  -2.3563
    -2.3352  -2.3244  -2.2960  -2.2894  -2.1543  -2.1096  -2.0307  -2.0004
    -1.9903  -1.8767  -1.8537  -1.8321  -1.8212  -1.8068  -1.7784  -1.7706
    -1.7503  -1.6417  -1.5329  -1.4591  -1.4137  -1.3599  -1.3424  -1.1607
    -1.1110  -1.0516  -1.0264  -1.0013  -0.9861  -0.9525  -0.8787  -0.8564
    -0.7125  -0.6743  -0.6213  -0.5952  -0.5645  -0.5097  -0.4739  -0.4458
    -0.3496  -0.3366  -0.3248  -0.3118  -0.2527  -0.0642  -0.0167   0.0013
     0.0171   0.1169   0.1568   0.1781   0.2165   0.2722   0.2982   0.3649
     0.3948   0.4147   0.4244   0.4484   0.4708   0.6022   0.6285   0.6601
     0.7191   0.7730   0.8494   0.9613   1.0477   1.1007   1.2019   1.4203
     1.4875   1.5714   1.6813   1.7041   2.0569   2.1019   3.5665   3.6567
     3.6950   3.7089   3.8158   3.8675   4.0153   4.0252   4.0679   4.0969

[...]

          k = 0.0380-0.0419 0.0000 ( 17876 PWs)   bands (ev):

[...]

          k =-0.0760-0.0000 0.0000 ( 17886 PWs)   bands (ev):

[...]

          k =-0.0760-0.0839 0.0000 ( 17948 PWs)   bands (ev):

   -55.5564 -55.5522 -55.5509 -55.5498 -55.4473 -55.4310 -55.4068 -55.4017
   -55.3537 -55.3503 -55.3090 -55.3058 -55.0296 -54.8887 -54.5181 -54.5180
   -31.9394 -31.9306 -31.8656 -31.8648 -31.8471 -31.8461 -31.8416 -31.8264
   -31.7995 -31.7859 -31.7664 -31.7476 -31.7194 -31.7109 -31.7058 -31.6809
   -31.6785 -31.6718 -31.6704 -31.6662 -31.6633 -31.6504 -31.6472 -31.6432
   -31.6240 -31.6120 -31.6018 -31.5999 -31.5511 -31.5489 -31.5419 -31.5401
   -31.5330 -31.5295 -31.5243 -31.5227 -31.4129 -31.3198 -31.2579 -31.2188
   -31.1459 -31.0600 -30.8451 -30.8450 -30.7544 -30.7542 -30.7154 -30.7154
   -17.5934 -15.8181 -15.7825 -15.5247 -15.5172 -15.5155 -15.4738 -15.3512
   -15.3027 -15.2760 -15.2644 -15.2455 -15.2391 -15.1344 -15.1217 -15.1045
   -15.0946 -15.0687 -15.0250 -15.0193 -15.0120 -15.0017 -14.9899 -14.9256
   -14.8705 -14.8667 -14.7582 -14.6636 -14.5209 -14.4366 -13.0228 -13.0225
   -12.5751  -9.1797  -6.3159  -5.1335  -4.1338  -3.4302  -3.1192  -3.0753
    -2.7867  -2.7675  -2.7536  -2.6372  -2.5172  -2.5083  -2.4835  -2.4604
    -2.4276  -2.4133  -2.4049  -2.3966  -2.3781  -2.3593  -2.3483  -2.3100
    -2.2406  -2.2333  -2.2247  -2.2157  -2.1991  -2.1751  -2.1652  -2.1371
    -2.1128  -2.0797  -2.0204  -1.9894  -1.8390  -1.7926  -1.7388  -1.6942
    -1.6858  -1.6566  -1.6228  -1.6153  -1.5077  -1.4934  -1.4585  -1.3289
    -1.2673  -1.2592  -1.2262  -1.1408  -1.1015  -0.9715  -0.9584  -0.9226
    -0.8687  -0.8579  -0.8205  -0.7834  -0.7312  -0.6797  -0.6360  -0.6109
    -0.5947  -0.5224  -0.5216  -0.4759  -0.4181  -0.3496  -0.3248  -0.3171
    -0.2859  -0.2418  -0.1959  -0.1308  -0.0565  -0.0382  -0.0205   0.0774
     0.1536   0.3694   0.4152   0.5161   0.5367   0.5609   0.6251   0.6736
     0.7434   0.7574   0.7867   0.8602   0.8816   0.9734   0.9840   1.0003
     1.1791   1.6356   1.8529   1.8538   1.9216   1.9222   3.8605   3.8740
     3.9002   3.9242   4.0856   4.0894   4.1018   4.1044   4.2246   4.2560

     the Fermi energy is     3.5652 ev

!    total energy              =   -2941.63748427 Ry
     estimated scf accuracy    <       0.00000003 Ry
     smearing contrib. (-TS)   =      -0.02170729 Ry
     internal energy E=F+TS    =   -2941.61577698 Ry

     The total energy is F=E-TS. E is the sum of the following terms:
     one-electron contribution =  -24405.37647447 Ry
     hartree contribution      =   12294.64787774 Ry
     xc contribution           =    -486.94951044 Ry
     ewald contribution        =    9656.05982828 Ry
     electric field correction =       0.00250191 Ry

     convergence has been achieved in  73 iterations

     Forces acting on atoms (cartesian axes, Ry/au):

     atom    1 type  1   force =     0.00002729   -0.00018368    0.09685408
     atom    2 type  1   force =     0.00011017   -0.00066766   -0.17456313
     atom    3 type  2   force =     0.00019951   -0.00005094   -0.02505908
     atom    4 type  2   force =     0.00001420   -0.00122310    0.05109316
     atom    5 type  2   force =    -0.01108591   -0.00078588    0.00212560
     atom    6 type  2   force =     0.01303289   -0.00028899    0.00280228
     atom    7 type  1   force =     0.00114510    0.00019744   -0.01338161
     atom    8 type  1   force =    -0.00018448    0.01541845    0.02795394
     atom    9 type  2   force =    -0.00011480    0.00045178    0.00001625
     atom   10 type  2   force =    -0.00221779    0.00097674   -0.01127909
     atom   11 type  2   force =     0.00029207   -0.00011781    0.00016844
     atom   12 type  2   force =    -0.00026075   -0.00012681    0.00039615
     atom   13 type  1   force =    -0.00007273   -0.00027272    0.00010926
     atom   14 type  1   force =     0.00011976    0.00012916   -0.00005189
     atom   15 type  2   force =     0.00011292   -0.00057745   -0.00034926
     atom   16 type  2   force =    -0.00043823    0.00016867    0.00028635
     atom   17 type  2   force =    -0.00020244   -0.00003147   -0.00009189
     atom   18 type  2   force =    -0.00035513   -0.00001858    0.00019301
     atom   19 type  1   force =    -0.00002223    0.00034976   -0.00028422
     atom   20 type  1   force =    -0.00031033    0.00001054    0.00024387
     atom   21 type  2   force =     0.00005003   -0.00009598    0.10296466
     atom   22 type  2   force =    -0.00072347   -0.00040243    0.00028408
     atom   23 type  2   force =    -0.07179486   -0.00021902   -0.02779484
     atom   24 type  2   force =     0.07176604    0.00023676   -0.02784884
     atom   25 type  1   force =     0.00004090   -0.00022178    0.09637555
     atom   26 type  1   force =    -0.00001738   -0.00030747   -0.17481516
     atom   27 type  2   force =     0.00020059   -0.00025547   -0.02390698
     atom   28 type  2   force =     0.00007621   -0.00096221    0.05131425
     atom   29 type  2   force =    -0.01108444    0.00095893    0.00148943
     atom   30 type  2   force =     0.01288496    0.00119892    0.00211989
     atom   31 type  1   force =     0.00115532    0.00256897   -0.01569411
     atom   32 type  1   force =    -0.00001868   -0.01668459    0.02887391
     atom   33 type  2   force =    -0.00017702   -0.00045234    0.00044205
     atom   34 type  2   force =    -0.00258431    0.00114524   -0.01892309
     atom   35 type  2   force =    -0.00011277   -0.00011082    0.00003824
     atom   36 type  2   force =    -0.00003051   -0.00018707    0.00022647
     atom   37 type  1   force =    -0.00024307   -0.00016473    0.00049057
     atom   38 type  1   force =     0.00010173   -0.00053645    0.00034437
     atom   39 type  2   force =     0.00004949    0.00047870    0.00019937
     atom   40 type  2   force =    -0.00031908   -0.00012740   -0.00069803
     atom   41 type  2   force =     0.00021285   -0.00002697    0.00008271
     atom   42 type  2   force =    -0.00016544    0.00019119    0.00021552
     atom   43 type  1   force =     0.00005731   -0.00044700   -0.00078611
     atom   44 type  1   force =    -0.00050453    0.00153439   -0.00010945
     atom   45 type  2   force =     0.00006074   -0.00011365    0.10297369
     atom   46 type  2   force =    -0.07181340   -0.00017023   -0.02780925
     atom   47 type  2   force =     0.07177085    0.00021557   -0.02785452
     atom   48 type  3   force =     0.00001923   -0.00158368   -0.00064294
     atom   49 type  4   force =     0.00000302    0.00099200    0.00046655
     atom   50 type  5   force =     0.00011424   -0.00009958    0.00036552
     atom   51 type  5   force =    -0.00085461   -0.00069332   -0.00006633
     atom   52 type  5   force =     0.00134828   -0.00029479    0.00000221
     atom   53 type  3   force =    -0.00114669   -0.00475174   -0.00513843
     atom   54 type  5   force =     0.00190720    0.00562601    0.00815778
     atom   55 type  5   force =    -0.00001779    0.00040460   -0.00252097

     Total force =     0.367297     Total SCF correction =     0.000530
  @ DRIVER MODE: Message from server: STATUS
  @ DRIVER MODE: Message from server: GETFORCE
  @ DRIVER MODE: Returning v,forces,stress,ensemble

     Writing output data file ./calc.save/
  @ DRIVER MODE: Message from server: EXIT
  @ DRIVE MODE: Exiting

     General routines

     Parallel routines

   This run was terminated on:  23:41:14   2Aug2021

   JOB DONE.