     Program PWSCF v.6.7GPU starts on 23Sep2021 at 18: 5:54

     R & G space division:  proc/nbgrp/npool/nimage =       8
     Reading input from /storage/home/hcoda1/3/ntian30/research/carbon/CxH_vib/H2O_calc/ads_slab/CH3NHHHO_a/out_0018/pw.inp
Warning: card &CELL ignored
Warning: card   CELL_DYNAMICS='IPI', ignored
Warning: card / ignored

     Current dimensions of program PWSCF are:
     Max number of different atomic species (ntypx) = 10
     Max number of k-points (npk) =  40000
     Max angular momentum in pseudopotentials (lmaxx) =  3
     Presently no symmetry can be used with electric field

     Message from routine cell_base_init:
     DEPRECATED: use true lattice parameter, not A to a.u. conversion factor

     IMPORTANT: XC functional enforced from input :
     Exchange-correlation= BEEF-VDW
                           (   1   4  43  14   2   0   0)
     Any further DFT definition will be discarded
     Please, verify this is what you really want

  @ DRIVER MODE: Connecting to
 qe_1139763_2947311.sched-torque.pace.gatech.edunfx1r0e3_scratch
  using UNIX socket
  @ DRIVER MODE: Message from server: STATUS
  @ DRIVER MODE: Message from server: INIT
  @ DRIVER MODE: Receiving replica           0          -1
  @ DRIVER MODE: Receiving encoded integer          25
  @ DRIVER MODE:  SCF:  T  FORCE:  T  STRESS:  F  VC:  F  ENSEMBLE:  F
  @ DRIVER MODE:  SCF:  T  FORCE:  T  STRESS:  F  VC:  F  ENSEMBLE:  F

     Using Slab Decomposition

     bravais-lattice index     =            0
     lattice parameter (alat)  =       1.8897  a.u.
     unit-cell volume          =    6658.9804 (a.u.)^3
     number of atoms/cell      =           56
     number of atomic types    =            5
     number of electrons       =       399.00
     number of Kohn-Sham states=          209
     kinetic-energy cutoff     =      29.3995  Ry
     charge density cutoff     =     293.9946  Ry
     scf convergence threshold =      7.3E-08
     mixing beta               =       0.0500
     number of iterations used =            8  plain     mixing
     Exchange-correlation= BEEF-VDW
                           (   1   4  43  14   2   0   0)

     celldm(1)=   1.889726  celldm(2)=   0.000000  celldm(3)=   0.000000
     celldm(4)=   0.000000  celldm(5)=   0.000000  celldm(6)=   0.000000

     crystal axes: (cart. coord. in units of alat)
               a(1) = (   6.579727   0.000000   0.000000 )
               a(2) = (  -0.000775   5.961596   0.000000 )
               a(3) = (   0.000000   0.000000  25.155947 )

     reciprocal axes: (cart. coord. in units 2 pi/alat)
               b(1) = (  0.151982  0.000020  0.000000 )
               b(2) = (  0.000000  0.167740  0.000000 )
               b(3) = (  0.000000  0.000000  0.039752 )

     PseudoPot. # 1 for Ti read from file:
     /storage/coda1/p-amedford6/0/shared/rich_project_chbe-medford/medford-share/data/pseudos_module/espresso/nninc/pbe/van/Ti.UPF
     MD5 check sum: 8e4df49b7f0d34bbd5052bf3f5ea0213
     Pseudo is Ultrasoft, Zval = 12.0
     Generated by new atomic code, or converted to UPF format
     Using radial grid of  851 points,  6 beta functions with:
                l(1) =   0
                l(2) =   0
                l(3) =   1
                l(4) =   1
                l(5) =   2
                l(6) =   2
     Q(r) pseudized with  8 coefficients,  rinner =    1.000   1.000   1.000
                                                       1.000   1.000

     PseudoPot. # 2 for O  read from file:
     /storage/coda1/p-amedford6/0/shared/rich_project_chbe-medford/medford-share/data/pseudos_module/espresso/nninc/pbe/van/O.UPF
     MD5 check sum: 78c19812648e8988a0fe644b0f25305e
     Pseudo is Ultrasoft, Zval =  6.0
     Generated by new atomic code, or converted to UPF format
     Using radial grid of  737 points,  4 beta functions with:
                l(1) =   0
                l(2) =   0
                l(3) =   1
                l(4) =   1
     Q(r) pseudized with  8 coefficients,  rinner =    0.800   0.800   0.800

     PseudoPot. # 3 for N  read from file:
     /storage/coda1/p-amedford6/0/shared/rich_project_chbe-medford/medford-share/data/pseudos_module/espresso/nninc/pbe/van/N.UPF
     MD5 check sum: 90d10febe142ad51ac9d5be1deb811c4
     Pseudo is Ultrasoft, Zval =  5.0
     Generated by new atomic code, or converted to UPF format
     Using radial grid of  729 points,  4 beta functions with:
                l(1) =   0
                l(2) =   0
                l(3) =   1
                l(4) =   1
     Q(r) pseudized with  8 coefficients,  rinner =    0.800   0.800   0.800

     PseudoPot. # 4 for C  read from file:
     /storage/coda1/p-amedford6/0/shared/rich_project_chbe-medford/medford-share/data/pseudos_module/espresso/nninc/pbe/van/C.UPF
     MD5 check sum: 1a69bf6b8db32088f5b2163dbdb77a27
     Pseudo is Ultrasoft, Zval =  4.0
     Generated by new atomic code, or converted to UPF format
     Using radial grid of  721 points,  4 beta functions with:
                l(1) =   0
                l(2) =   0
                l(3) =   1
                l(4) =   1
     Q(r) pseudized with  8 coefficients,  rinner =    0.800   0.800   0.800

     PseudoPot. # 5 for H  read from file:
     /storage/coda1/p-amedford6/0/shared/rich_project_chbe-medford/medford-share/data/pseudos_module/espresso/nninc/pbe/van/H.UPF
     MD5 check sum: b5ee9d7bfd3a09ee7748110bda690ff7
     Pseudo is Ultrasoft, Zval =  1.0
     Generated by new atomic code, or converted to UPF format
     Using radial grid of  615 points,  1 beta functions with:
                l(1) =   0
     Q(r) pseudized with  8 coefficients,  rinner =    0.800

     atomic species   valence    mass     pseudopotential
        Ti1           12.00    47.86700     Ti( 1.00)
        O1             6.00    15.99900     O ( 1.00)
        N1             5.00    14.00700     N ( 1.00)
        C1             4.00    12.01100     C ( 1.00)
        H1             1.00     1.00800     H ( 1.00)

     No symmetry found

   Cartesian axes

     site n.     atom                  positions (alat units)
         1           Ti1 tau(   1) = (   0.0004258   2.9801865   6.0000000  )
         2           Ti1 tau(   2) = (   3.2906075   1.4906267   6.0002472  )
         3           O1  tau(   3) = (   0.0006271   0.0005054   7.9858123  )
         4           O1  tau(   4) = (   3.2906025   0.0005020   7.3038282  )
         5           O1  tau(   5) = (   4.5942328   1.4918067   9.2879030  )
         6           O1  tau(   6) = (   1.9868534   1.4903216   9.2879459  )
         7           Ti1 tau(   7) = (   3.2907910   2.8959150   9.1758416  )
         8           Ti1 tau(   8) = (   0.0015273   1.4827037   9.2680791  )
         9           O1  tau(   9) = (   3.2949530   5.9481847  11.3666340  )
        10           O1  tau(  10) = (   0.0116148   5.9584955  10.6183126  )
        11           O1  tau(  11) = (   1.2732546   1.4916747  12.6876809  )
        12           O1  tau(  12) = (   5.3119445   1.4892451  12.6851550  )
        13           Ti1 tau(  13) = (   6.5688325   2.9465269  12.5174317  )
        14           Ti1 tau(  14) = (   3.2996026   1.2975375  12.7241829  )
        15           O1  tau(  15) = (   0.0172205   5.8793003  14.6619373  )
        16           O1  tau(  16) = (   3.2917661   0.0702926  14.0149596  )
        17           O1  tau(  17) = (   4.5643074   1.5920826  16.1346482  )
        18           O1  tau(  18) = (   2.0131957   1.5841813  16.0575481  )
        19           Ti1 tau(  19) = (   3.2662748   3.0407108  15.6947786  )
        20           Ti1 tau(  20) = (   0.0618610   1.3206105  15.7998127  )
        21           O1  tau(  21) = (   3.2904802   0.0005063   4.7018136  )
        22           O1  tau(  22) = (   0.0233933   0.1570098  17.1842078  )
        23           O1  tau(  23) = (   1.3043587   1.4918075   6.0039043  )
        24           O1  tau(  24) = (   5.2767064   1.4903225   6.0039473  )
        25           Ti1 tau(  25) = (   0.0000382   5.9609847   6.0000000  )
        26           Ti1 tau(  26) = (   3.2902200   4.4714249   6.0002472  )
        27           O1  tau(  27) = (   0.0002396   2.9813036   7.9858123  )
        28           O1  tau(  28) = (   3.2902150   2.9813002   7.3038282  )
        29           O1  tau(  29) = (   4.5938453   4.4726049   9.2879030  )
        30           O1  tau(  30) = (   1.9864658   4.4711199   9.2879459  )
        31           Ti1 tau(  31) = (   3.2891106   5.8743827   9.1763621  )
        32           Ti1 tau(  32) = (   0.0006254   4.4649316   9.2693709  )
        33           O1  tau(  33) = (   3.2948289   2.9949798  11.3176834  )
        34           O1  tau(  34) = (   0.0092240   2.9805883  10.6323155  )
        35           O1  tau(  35) = (   1.2828652   4.4571597  12.6432593  )
        36           O1  tau(  36) = (   5.3079144   4.4605214  12.6419564  )
        37           Ti1 tau(  37) = (   0.0266940   5.9154698  12.5044250  )
        38           Ti1 tau(  38) = (   3.3008436   4.3760658  12.4353554  )
        39           O1  tau(  39) = (   6.5507285   3.0461080  14.9005035  )
        40           O1  tau(  40) = (   3.2938476   3.0131494  13.9233183  )
        41           O1  tau(  41) = (   4.5350990   4.4864192  16.1518712  )
        42           O1  tau(  42) = (   1.9883536   4.4285065  16.1690201  )
        43           Ti1 tau(  43) = (   3.3916644   0.0784854  16.2809578  )
        44           Ti1 tau(  44) = (   0.0590441   4.5159846  16.0209683  )
        45           O1  tau(  45) = (   3.2900926   2.9813045   4.7018136  )
        46           O1  tau(  46) = (   1.3039711   4.4726057   6.0039043  )
        47           O1  tau(  47) = (   5.2763189   4.4711207   6.0039473  )
        48           N1  tau(  48) = (   6.2706434   3.3837210  18.0754458  )
        49           C1  tau(  49) = (   0.7642246   3.1223808  19.0622891  )
        50           H1  tau(  50) = (   1.3158356   4.0410886  19.2509436  )
        51           H1  tau(  51) = (   0.3597117   2.7583523  20.0089400  )
        52           H1  tau(  52) = (   1.4517744   2.3810259  18.6668870  )
        53           H1  tau(  53) = (   5.6745199   4.1349376  18.4206214  )
        54           H1  tau(  54) = (   5.6587021   2.5696541  18.0151127  )
        55           O1  tau(  55) = (   3.1972372   0.0910451  18.1323504  )
        56           H1  tau(  56) = (   2.2767176   0.1080423  18.4377142  )

     number of k points=    10  Fermi-Dirac smearing, width (Ry)=  0.0073
                       cart. coord. in units 2pi/alat
        k(    1) = (   0.0000000   0.0000000   0.0000000), wk =   0.1250000
        k(    2) = (   0.0000000   0.0419351   0.0000000), wk =   0.2500000
        k(    3) = (   0.0000000  -0.0838702   0.0000000), wk =   0.1250000
        k(    4) = (   0.0379955   0.0000049   0.0000000), wk =   0.2500000
        k(    5) = (   0.0379955   0.0419400   0.0000000), wk =   0.2500000
        k(    6) = (   0.0379955  -0.0838652   0.0000000), wk =   0.2500000
        k(    7) = (   0.0379955  -0.0419301   0.0000000), wk =   0.2500000
        k(    8) = (  -0.0759910  -0.0000099   0.0000000), wk =   0.1250000
        k(    9) = (  -0.0759910   0.0419252   0.0000000), wk =   0.2500000
        k(   10) = (  -0.0759910  -0.0838800   0.0000000), wk =   0.1250000

     Initial potential from superposition of free atoms

     starting charge  382.99914, renormalised to  399.00000

     negative rho (up, down):  1.587E-02 0.000E+00

     %%%%%%%%%%%%%%%%%%%%%%%%%%%%%%%%%%%%%%%%%%%%%%%%%%%%%%%%%%%%%%%%%%%%%%%%
     %                                                                      %
     % You are using vdW-DF, which was implemented by the Thonhauser group. %
     % Please cite the following two papers that made this development      %
     % possible and the two reviews that describe the various versions:     %
     %                                                                      %
     %   T. Thonhauser et al., PRL 115, 136402 (2015).                      %
     %   T. Thonhauser et al., PRB 76, 125112 (2007).                       %
     %   K. Berland et al., Rep. Prog. Phys. 78, 066501 (2015).             %
     %   D.C. Langreth et al., J. Phys.: Condens. Matter 21, 084203 (2009). %
     %                                                                      %
     %                                                                      %
     % If you are calculating the stress with vdW-DF, please also cite:     %
     %                                                                      %
     %   R. Sabatini et al., J. Phys.: Condens. Matter 24, 424209 (2012).   %
     %                                                                      %
     %%%%%%%%%%%%%%%%%%%%%%%%%%%%%%%%%%%%%%%%%%%%%%%%%%%%%%%%%%%%%%%%%%%%%%%%

     Adding external electric field

     Computed dipole along edir(3) :
        Dipole              -10.6970 Ry au,        -27.1890 Debye
        Dipole field         -0.0202 Ry au,

        Potential amp.        1.8713 Ry
        Total length         46.3494 bohr

     Starting wfcs are  302 atomic wfcs
  @ DRIVER MODE: Message from server: STATUS
  @ DRIVER MODE: Message from server: POSDATA
  @ DRIVER MODE: Reading and sharing cell
  @ DRIVER MODE: Reading and sharing positions
  @ DRIVER MODE: Received positions

     Self-consistent Calculation

     iteration #  1     ecut=    29.40 Ry     beta= 0.05
     Davidson diagonalization with overlap
     c_bands:  3 eigenvalues not converged
     c_bands:  2 eigenvalues not converged
     c_bands:  2 eigenvalues not converged
     c_bands:  5 eigenvalues not converged
     c_bands:  2 eigenvalues not converged
     c_bands:  5 eigenvalues not converged
     c_bands:  4 eigenvalues not converged
     c_bands:  3 eigenvalues not converged
     ethr =  1.00E-05,  avg # of iterations = 21.6

[...]

     total energy              =   -2438.25377152 Ry
     estimated scf accuracy    <    5770.47454356 Ry

     iteration #  2     ecut=    29.40 Ry     beta= 0.05
     Davidson diagonalization with overlap
     ethr =  1.00E-02,  avg # of iterations = 24.3

[...]

     iteration # 68     ecut=    29.40 Ry     beta= 0.05
     Davidson diagonalization with overlap
     c_bands:  1 eigenvalues not converged
     ethr =  6.05E-08,  avg # of iterations = 15.1

[...]

     total energy              =   -2955.26291341 Ry
     estimated scf accuracy    <       0.00000014 Ry

     iteration # 88     ecut=    29.40 Ry     beta= 0.05
     Davidson diagonalization with overlap
     ethr =  1.86E-11,  avg # of iterations = 14.3

     negative rho (up, down):  1.646E-02 0.000E+00

     Adding external electric field

     Computed dipole along edir(3) :
        Dipole                0.9754 Ry au,          2.4792 Debye
        Dipole field          0.0018 Ry au,

        Potential amp.       -0.1706 Ry
        Total length         46.3494 bohr

     End of self-consistent calculation

          k = 0.0000 0.0000 0.0000 ( 18029 PWs)   bands (ev):

   -55.6829 -55.6364 -55.6024 -55.5120 -55.5021 -55.4663 -55.4657 -55.4638
   -55.4317 -55.4179 -55.3672 -55.2726 -55.2266 -55.2124 -54.6123 -54.5783
   -32.1218 -32.0197 -32.0118 -31.9882 -31.9686 -31.9563 -31.9271 -31.9011
   -31.8943 -31.8827 -31.8823 -31.7898 -31.7890 -31.7744 -31.7489 -31.7452
   -31.7437 -31.7427 -31.7419 -31.7057 -31.6939 -31.6647 -31.6619 -31.6558
   -31.6501 -31.6439 -31.6362 -31.6056 -31.6038 -31.5982 -31.5928 -31.5893
   -31.5786 -31.5632 -31.5489 -31.5234 -31.4640 -31.4553 -31.4456 -31.4223
   -31.4190 -31.4143 -31.0184 -30.9319 -30.9094 -30.8359 -30.7495 -30.6377
   -16.5112 -16.2961 -16.1495 -15.9789 -15.8392 -15.8104 -15.7694 -15.5988
   -15.5060 -15.4422 -15.2421 -15.2212 -15.1750 -15.1638 -15.1585 -15.1357
   -15.1261 -15.0810 -15.0625 -15.0590 -15.0492 -15.0316 -14.9952 -14.9530
   -14.9098 -14.8888 -14.7761 -14.7198 -14.6792 -14.4682 -14.4000 -13.1107
   -12.9943  -9.9866  -6.0187  -4.5921  -4.0622  -3.7610  -3.6440  -3.5465
    -3.5353  -3.4150  -3.4055  -3.1656  -3.0421  -2.9833  -2.9047  -2.7824
    -2.7505  -2.6785  -2.6391  -2.5875  -2.5686  -2.5321  -2.4924  -2.4483
    -2.4229  -2.3955  -2.3617  -2.3059  -2.2942  -2.1960  -2.1816  -2.1589
    -2.0534  -2.0123  -1.9722  -1.9541  -1.9488  -1.9300  -1.8913  -1.8850
    -1.8653  -1.7871  -1.7181  -1.6719  -1.6372  -1.6094  -1.3316  -1.2461
    -1.2026  -1.1882  -1.0841  -1.0604  -1.0319  -1.0185  -0.9816  -0.9654
    -0.8535  -0.8363  -0.7682  -0.7185  -0.7041  -0.6666  -0.5476  -0.5110
    -0.4602  -0.4202  -0.3701  -0.3523  -0.3476  -0.2530  -0.2263  -0.1914
    -0.0831  -0.0663  -0.0038   0.0815   0.0911   0.1425   0.1660   0.2263
     0.2308   0.2854   0.3151   0.3375   0.3907   0.4231   0.4594   0.4924
     0.5096   0.6118   0.6870   0.6999   0.7968   0.8715   0.9249   1.0291
     1.0968   1.3607   1.4144   1.4380   1.6063   1.9816   2.0270   3.4452
     3.5940   3.6097   3.6843   3.6970   3.7740   3.9346   3.9595   4.0945
     4.1338

[...]

          k = 0.0380-0.0419 0.0000 ( 17876 PWs)   bands (ev):

[...]

          k =-0.0760-0.0000 0.0000 ( 17886 PWs)   bands (ev):

[...]

          k =-0.0760-0.0839 0.0000 ( 17948 PWs)   bands (ev):

   -55.6820 -55.6196 -55.6191 -55.5108 -55.4909 -55.4749 -55.4672 -55.4493
   -55.4476 -55.4116 -55.3737 -55.2678 -55.2277 -55.2171 -54.5958 -54.5947
   -31.9528 -31.9449 -31.9373 -31.9369 -31.9300 -31.9128 -31.9123 -31.8967
   -31.8521 -31.8110 -31.7929 -31.7801 -31.7760 -31.7745 -31.7525 -31.7430
   -31.7395 -31.7388 -31.7285 -31.7249 -31.7171 -31.7163 -31.7017 -31.6778
   -31.6716 -31.6671 -31.6576 -31.6472 -31.6322 -31.6309 -31.6287 -31.6236
   -31.6220 -31.5964 -31.5959 -31.5551 -31.5305 -31.4952 -31.4683 -31.4634
   -31.4480 -31.4184 -30.9226 -30.9218 -30.8319 -30.8306 -30.7931 -30.7923
   -16.4811 -15.9395 -15.8579 -15.7445 -15.6213 -15.6080 -15.4970 -15.4141
   -15.4105 -15.3801 -15.3492 -15.3213 -15.3120 -15.2950 -15.2481 -15.2044
   -15.1692 -15.1415 -15.1395 -15.0936 -15.0866 -15.0753 -15.0626 -15.0403
   -15.0066 -14.9567 -14.9423 -14.9039 -14.7658 -14.6898 -14.5905 -13.0963
   -13.0959  -9.9886  -5.9986  -4.5894  -4.0264  -3.7175  -3.0560  -2.9598
    -2.8478  -2.7239  -2.7154  -2.7013  -2.6422  -2.6115  -2.5855  -2.5441
    -2.4866  -2.4687  -2.4467  -2.4299  -2.4084  -2.3904  -2.3816  -2.3764
    -2.3398  -2.3221  -2.3138  -2.2726  -2.2650  -2.2489  -2.2284  -2.2110
    -2.1805  -2.1761  -2.1468  -2.0952  -2.0458  -1.9720  -1.8791  -1.7977
    -1.7866  -1.7681  -1.7185  -1.7119  -1.6665  -1.6586  -1.6340  -1.5477
    -1.4364  -1.3860  -1.2752  -1.2555  -1.2285  -1.1888  -1.1361  -1.1219
    -1.0764  -1.0461  -0.9861  -0.8851  -0.8550  -0.7998  -0.6864  -0.6486
    -0.6103  -0.5903  -0.5782  -0.5531  -0.5365  -0.4968  -0.4686  -0.4203
    -0.3812  -0.3469  -0.3201  -0.2946  -0.2480  -0.1462  -0.0518  -0.0144
     0.0869   0.1334   0.1755   0.2072   0.2690   0.4039   0.4307   0.5268
     0.5415   0.5705   0.6722   0.6824   0.7834   0.8075   0.8456   0.8866
     0.9114   0.9325   0.9522   1.7760   1.7845   1.8474   1.8475   3.7380
     3.9305   3.9456   3.9618   4.0065   4.0137   4.0407   4.0464   4.1129
     4.1237

     the Fermi energy is     3.4840 ev

!    total energy              =   -2955.26292995 Ry
     estimated scf accuracy    <       0.00000003 Ry
     smearing contrib. (-TS)   =      -0.01953034 Ry
     internal energy E=F+TS    =   -2955.24339961 Ry

     The total energy is F=E-TS. E is the sum of the following terms:
     one-electron contribution =  -23741.10948129 Ry
     hartree contribution      =   11962.67091943 Ry
     xc contribution           =    -489.73575332 Ry
     ewald contribution        =    9312.92912013 Ry
     electric field correction =       0.00179544 Ry

     convergence has been achieved in  88 iterations

     Forces acting on atoms (cartesian axes, Ry/au):

     atom    1 type  1   force =     0.00008819   -0.00029231    0.09413489
     atom    2 type  1   force =    -0.00004286    0.00042483   -0.17542587
     atom    3 type  2   force =     0.00003926   -0.00033648   -0.02108882
     atom    4 type  2   force =     0.00002387   -0.00197606    0.05462405
     atom    5 type  2   force =    -0.00674582   -0.00245075    0.00301198
     atom    6 type  2   force =     0.00835085   -0.00187409    0.00243458
     atom    7 type  1   force =    -0.00017899   -0.00404702    0.00896856
     atom    8 type  1   force =     0.00031619    0.00082450    0.00311736
     atom    9 type  2   force =    -0.00058000    0.00058998   -0.00019487
     atom   10 type  2   force =    -0.00139082    0.00173069   -0.00927698
     atom   11 type  2   force =     0.00004986   -0.00015646    0.00037906
     atom   12 type  2   force =    -0.00006754   -0.00011189   -0.00030561
     atom   13 type  1   force =    -0.00049103   -0.00025212    0.00004311
     atom   14 type  1   force =     0.00001286   -0.00033516   -0.00007114
     atom   15 type  2   force =    -0.00031475   -0.00003452   -0.00015996
     atom   16 type  2   force =     0.00032472   -0.00054678   -0.00039593
     atom   17 type  2   force =     0.00046445   -0.00012908   -0.00075799
     atom   18 type  2   force =    -0.00047743    0.00015756   -0.00012195
     atom   19 type  1   force =     0.00046463   -0.00060490    0.00071531
     atom   20 type  1   force =     0.00050333    0.00025637    0.00040278
     atom   21 type  2   force =     0.00007585    0.00004888    0.10325238
     atom   22 type  2   force =    -0.00049944    0.00039637    0.00022437
     atom   23 type  2   force =    -0.07190181   -0.00018884   -0.02720005
     atom   24 type  2   force =     0.07183056    0.00024926   -0.02724767
     atom   25 type  1   force =     0.00002836   -0.00023838    0.09381517
     atom   26 type  1   force =    -0.00005789   -0.00131663   -0.17560733
     atom   27 type  2   force =     0.00015446   -0.00011373   -0.01985327
     atom   28 type  2   force =     0.00006867   -0.00032240    0.04990351
     atom   29 type  2   force =    -0.00613344    0.00232105    0.00251495
     atom   30 type  2   force =     0.00762581    0.00268643    0.00196748
     atom   31 type  1   force =     0.00002660    0.00839432   -0.00275835
     atom   32 type  1   force =     0.00011927   -0.00235743    0.00259609
     atom   33 type  2   force =     0.00005144   -0.00001942   -0.00006481
     atom   34 type  2   force =    -0.00211574   -0.00248788   -0.01004942
     atom   35 type  2   force =    -0.00013413   -0.00002234    0.00053304
     atom   36 type  2   force =    -0.00008224    0.00006962   -0.00007462
     atom   37 type  1   force =     0.00016652   -0.00009823   -0.00024764
     atom   38 type  1   force =     0.00005478   -0.00017077    0.00023393
     atom   39 type  2   force =    -0.00013753    0.00010239   -0.00028176
     atom   40 type  2   force =     0.00017290   -0.00025166   -0.00010397
     atom   41 type  2   force =    -0.00035398   -0.00074483    0.00064010
     atom   42 type  2   force =     0.00050321    0.00005070   -0.00020827
     atom   43 type  1   force =    -0.00080672   -0.00063721    0.00028506
     atom   44 type  1   force =     0.00043936    0.00048448   -0.00023138
     atom   45 type  2   force =     0.00006855   -0.00007204    0.10303738
     atom   46 type  2   force =    -0.07191705   -0.00004385   -0.02723327
     atom   47 type  2   force =     0.07187816    0.00039737   -0.02728146
     atom   48 type  3   force =     0.00046818    0.00113573    0.00055669
     atom   49 type  4   force =     0.00126971    0.00149130    0.00250855
     atom   50 type  5   force =    -0.00054357   -0.00049603   -0.00236716
     atom   51 type  5   force =    -0.00058401   -0.00019086   -0.00007329
     atom   52 type  5   force =     0.00055389    0.00019372   -0.00061362
     atom   53 type  5   force =    -0.00038280    0.00055242   -0.00073757
     atom   54 type  5   force =     0.00045301   -0.00006825    0.00010397
     atom   55 type  2   force =    -0.00043833    0.00039381    0.00046907
     atom   56 type  5   force =    -0.00026960    0.00003662   -0.00043941

     Total force =     0.362212     Total SCF correction =     0.000292
  @ DRIVER MODE: Message from server: STATUS
  @ DRIVER MODE: Message from server: GETFORCE
  @ DRIVER MODE: Returning v,forces,stress,ensemble

     Writing output data file ./calc.save/
  @ DRIVER MODE: Message from server: EXIT
  @ DRIVE MODE: Exiting

     General routines

     Parallel routines

   This run was terminated on:  18:33:38  23Sep2021

   JOB DONE.