     Program PWSCF v.6.7GPU starts on  8Sep2021 at 22:49: 1

     R & G space division:  proc/nbgrp/npool/nimage =      10
     Reading input from /storage/home/hcoda1/3/ntian30/research/carbon/CxH_vib/CH_calc/ads_slab/CH_a/out_0004/pw.inp
Warning: card &CELL ignored
Warning: card   CELL_DYNAMICS='IPI', ignored
Warning: card / ignored

     Current dimensions of program PWSCF are:
     Max number of different atomic species (ntypx) = 10
     Max number of k-points (npk) =  40000
     Max angular momentum in pseudopotentials (lmaxx) =  3
     Presently no symmetry can be used with electric field

     Message from routine cell_base_init:
     DEPRECATED: use true lattice parameter, not A to a.u. conversion factor

     IMPORTANT: XC functional enforced from input :
     Exchange-correlation= BEEF-VDW
                           (   1   4  43  14   2   0   0)
     Any further DFT definition will be discarded
     Please, verify this is what you really want

  @ DRIVER MODE: Connecting to
 qe_1139763_2767381.sched-torque.pace.gatech.edu82356p47_scratch
  using UNIX socket
  @ DRIVER MODE: Message from server: STATUS
  @ DRIVER MODE: Message from server: INIT
  @ DRIVER MODE: Receiving replica           0          -1
  @ DRIVER MODE: Receiving encoded integer          25
  @ DRIVER MODE:  SCF:  T  FORCE:  T  STRESS:  F  VC:  F  ENSEMBLE:  F
  @ DRIVER MODE:  SCF:  T  FORCE:  T  STRESS:  F  VC:  F  ENSEMBLE:  F

     Using Slab Decomposition

     bravais-lattice index     =            0
     lattice parameter (alat)  =       1.8897  a.u.
     unit-cell volume          =    6658.9804 (a.u.)^3
     number of atoms/cell      =           49
     number of atomic types    =            4
     number of electrons       =       383.00
     number of Kohn-Sham states=          201
     kinetic-energy cutoff     =      29.3995  Ry
     charge density cutoff     =     293.9946  Ry
     scf convergence threshold =      7.3E-08
     mixing beta               =       0.0500
     number of iterations used =            8  plain     mixing
     Exchange-correlation= BEEF-VDW
                           (   1   4  43  14   2   0   0)

     celldm(1)=   1.889726  celldm(2)=   0.000000  celldm(3)=   0.000000
     celldm(4)=   0.000000  celldm(5)=   0.000000  celldm(6)=   0.000000

     crystal axes: (cart. coord. in units of alat)
               a(1) = (   6.579727   0.000000   0.000000 )
               a(2) = (  -0.000775   5.961596   0.000000 )
               a(3) = (   0.000000   0.000000  25.155947 )

     reciprocal axes: (cart. coord. in units 2 pi/alat)
               b(1) = (  0.151982  0.000020  0.000000 )
               b(2) = (  0.000000  0.167740  0.000000 )
               b(3) = (  0.000000  0.000000  0.039752 )

     PseudoPot. # 1 for Ti read from file:
     /storage/coda1/p-amedford6/0/shared/rich_project_chbe-medford/medford-share/data/pseudos_module/espresso/nninc/pbe/van/Ti.UPF
     MD5 check sum: 8e4df49b7f0d34bbd5052bf3f5ea0213
     Pseudo is Ultrasoft, Zval = 12.0
     Generated by new atomic code, or converted to UPF format
     Using radial grid of  851 points,  6 beta functions with:
                l(1) =   0
                l(2) =   0
                l(3) =   1
                l(4) =   1
                l(5) =   2
                l(6) =   2
     Q(r) pseudized with  8 coefficients,  rinner =    1.000   1.000   1.000
                                                       1.000   1.000

     PseudoPot. # 2 for O  read from file:
     /storage/coda1/p-amedford6/0/shared/rich_project_chbe-medford/medford-share/data/pseudos_module/espresso/nninc/pbe/van/O.UPF
     MD5 check sum: 78c19812648e8988a0fe644b0f25305e
     Pseudo is Ultrasoft, Zval =  6.0
     Generated by new atomic code, or converted to UPF format
     Using radial grid of  737 points,  4 beta functions with:
                l(1) =   0
                l(2) =   0
                l(3) =   1
                l(4) =   1
     Q(r) pseudized with  8 coefficients,  rinner =    0.800   0.800   0.800

     PseudoPot. # 3 for C  read from file:
     /storage/coda1/p-amedford6/0/shared/rich_project_chbe-medford/medford-share/data/pseudos_module/espresso/nninc/pbe/van/C.UPF
     MD5 check sum: 1a69bf6b8db32088f5b2163dbdb77a27
     Pseudo is Ultrasoft, Zval =  4.0
     Generated by new atomic code, or converted to UPF format
     Using radial grid of  721 points,  4 beta functions with:
                l(1) =   0
                l(2) =   0
                l(3) =   1
                l(4) =   1
     Q(r) pseudized with  8 coefficients,  rinner =    0.800   0.800   0.800

     PseudoPot. # 4 for H  read from file:
     /storage/coda1/p-amedford6/0/shared/rich_project_chbe-medford/medford-share/data/pseudos_module/espresso/nninc/pbe/van/H.UPF
     MD5 check sum: b5ee9d7bfd3a09ee7748110bda690ff7
     Pseudo is Ultrasoft, Zval =  1.0
     Generated by new atomic code, or converted to UPF format
     Using radial grid of  615 points,  1 beta functions with:
                l(1) =   0
     Q(r) pseudized with  8 coefficients,  rinner =    0.800

     atomic species   valence    mass     pseudopotential
        Ti1           12.00    47.86700     Ti( 1.00)
        O1             6.00    15.99900     O ( 1.00)
        C1             4.00    12.01100     C ( 1.00)
        H1             1.00     1.00800     H ( 1.00)

     No symmetry found

   Cartesian axes

     site n.     atom                  positions (alat units)
         1           Ti1 tau(   1) = (   0.0004258   2.9801865   6.0000000  )
         2           Ti1 tau(   2) = (   3.2906075   1.4906267   6.0002472  )
         3           O1  tau(   3) = (   0.0006271   0.0005054   7.9858123  )
         4           O1  tau(   4) = (   3.2906025   0.0005020   7.3038282  )
         5           O1  tau(   5) = (   4.5942328   1.4918067   9.2879030  )
         6           O1  tau(   6) = (   1.9868534   1.4903216   9.2879459  )
         7           Ti1 tau(   7) = (   3.2921849   2.8658251   9.1648892  )
         8           Ti1 tau(   8) = (   0.0073351   1.4983988   9.3831490  )
         9           O1  tau(   9) = (   3.2842540   0.0070318  11.3521760  )
        10           O1  tau(  10) = (   0.0010487   0.0043113  10.5580200  )
        11           O1  tau(  11) = (   1.2736759   1.5124129  12.6486185  )
        12           O1  tau(  12) = (   5.2630300   1.5084811  12.6300625  )
        13           Ti1 tau(  13) = (   0.0799159   2.9885021  12.8537609  )
        14           Ti1 tau(  14) = (   3.3962166   1.4899997  12.4930974  )
        15           O1  tau(  15) = (   6.5670857   5.9608082  14.6055349  )
        16           O1  tau(  16) = (   3.2779887   0.0262294  13.9455360  )
        17           O1  tau(  17) = (   4.5047259   1.5524619  16.1062024  )
        18           O1  tau(  18) = (   2.0328015   1.5482461  16.0993997  )
        19           Ti1 tau(  19) = (   3.2588990   3.0258902  15.7259251  )
        20           Ti1 tau(  20) = (   6.5443225   1.5921241  16.1654916  )
        21           O1  tau(  21) = (   3.2904802   0.0005063   4.7018136  )
        22           O1  tau(  22) = (   6.5577444   0.0567680  17.2452940  )
        23           O1  tau(  23) = (   1.3043587   1.4918075   6.0039043  )
        24           O1  tau(  24) = (   5.2767064   1.4903225   6.0039473  )
        25           Ti1 tau(  25) = (   0.0000382   5.9609847   6.0000000  )
        26           Ti1 tau(  26) = (   3.2902200   4.4714249   6.0002472  )
        27           O1  tau(  27) = (   0.0002396   2.9813036   7.9858123  )
        28           O1  tau(  28) = (   3.2902150   2.9813002   7.3038282  )
        29           O1  tau(  29) = (   4.5938453   4.4726049   9.2879030  )
        30           O1  tau(  30) = (   1.9864658   4.4711199   9.2879459  )
        31           Ti1 tau(  31) = (   3.2960881   5.8478476   9.1648656  )
        32           Ti1 tau(  32) = (   0.0086818   4.4758218   9.3788328  )
        33           O1  tau(  33) = (   3.2854246   2.9850844  11.3450670  )
        34           O1  tau(  34) = (   0.0004502   2.9836692  10.5560002  )
        35           O1  tau(  35) = (   1.2751814   4.4662498  12.6462591  )
        36           O1  tau(  36) = (   5.2612828   4.4711168  12.6263095  )
        37           Ti1 tau(  37) = (   0.0650160   0.0072273  12.8037121  )
        38           Ti1 tau(  38) = (   3.3952379   4.4681493  12.4860303  )
        39           O1  tau(  39) = (   6.5700874   2.9943110  14.6990684  )
        40           O1  tau(  40) = (   3.2774739   3.0059374  13.9302241  )
        41           O1  tau(  41) = (   4.5038310   4.5165569  16.1051355  )
        42           O1  tau(  42) = (   2.0336826   4.5180826  16.0999700  )
        43           Ti1 tau(  43) = (   3.2582433   0.0441072  15.7465997  )
        44           Ti1 tau(  44) = (   6.5393581   4.6163053  16.1595090  )
        45           O1  tau(  45) = (   3.2900926   2.9813045   4.7018136  )
        46           O1  tau(  46) = (   1.3039711   4.4726057   6.0039043  )
        47           O1  tau(  47) = (   5.2763189   4.4711207   6.0039473  )
        48           C1  tau(  48) = (   6.5669965   3.0374956  17.5143990  )
        49           H1  tau(  49) = (   0.0036594   3.1884539  18.5931066  )

     number of k points=    10  Fermi-Dirac smearing, width (Ry)=  0.0073
                       cart. coord. in units 2pi/alat
        k(    1) = (   0.0000000   0.0000000   0.0000000), wk =   0.1250000
        k(    2) = (   0.0000000   0.0419351   0.0000000), wk =   0.2500000
        k(    3) = (   0.0000000  -0.0838702   0.0000000), wk =   0.1250000
        k(    4) = (   0.0379955   0.0000049   0.0000000), wk =   0.2500000
        k(    5) = (   0.0379955   0.0419400   0.0000000), wk =   0.2500000
        k(    6) = (   0.0379955  -0.0838652   0.0000000), wk =   0.2500000
        k(    7) = (   0.0379955  -0.0419301   0.0000000), wk =   0.2500000
        k(    8) = (  -0.0759910  -0.0000099   0.0000000), wk =   0.1250000
        k(    9) = (  -0.0759910   0.0419252   0.0000000), wk =   0.2500000
        k(   10) = (  -0.0759910  -0.0838800   0.0000000), wk =   0.1250000

     Initial potential from superposition of free atoms

     starting charge  366.99920, renormalised to  383.00000

     negative rho (up, down):  2.156E-02 0.000E+00

     %%%%%%%%%%%%%%%%%%%%%%%%%%%%%%%%%%%%%%%%%%%%%%%%%%%%%%%%%%%%%%%%%%%%%%%%
     %                                                                      %
     % You are using vdW-DF, which was implemented by the Thonhauser group. %
     % Please cite the following two papers that made this development      %
     % possible and the two reviews that describe the various versions:     %
     %                                                                      %
     %   T. Thonhauser et al., PRL 115, 136402 (2015).                      %
     %   T. Thonhauser et al., PRB 76, 125112 (2007).                       %
     %   K. Berland et al., Rep. Prog. Phys. 78, 066501 (2015).             %
     %   D.C. Langreth et al., J. Phys.: Condens. Matter 21, 084203 (2009). %
     %                                                                      %
     %                                                                      %
     % If you are calculating the stress with vdW-DF, please also cite:     %
     %                                                                      %
     %   R. Sabatini et al., J. Phys.: Condens. Matter 24, 424209 (2012).   %
     %                                                                      %
     %%%%%%%%%%%%%%%%%%%%%%%%%%%%%%%%%%%%%%%%%%%%%%%%%%%%%%%%%%%%%%%%%%%%%%%%

     Adding external electric field

     Computed dipole along edir(3) :
        Dipole                0.0501 Ry au,          0.1273 Debye
        Dipole field          0.0001 Ry au,

        Potential amp.       -0.0088 Ry
        Total length         46.3494 bohr

     Starting wfcs are  289 atomic wfcs
  @ DRIVER MODE: Message from server: STATUS
  @ DRIVER MODE: Message from server: POSDATA
  @ DRIVER MODE: Reading and sharing cell
  @ DRIVER MODE: Reading and sharing positions
  @ DRIVER MODE: Received positions

     Self-consistent Calculation

     iteration #  1     ecut=    29.40 Ry     beta= 0.05
     Davidson diagonalization with overlap
     c_bands:  1 eigenvalues not converged
     c_bands:  1 eigenvalues not converged
     c_bands:  1 eigenvalues not converged
     c_bands:  1 eigenvalues not converged
     c_bands:  1 eigenvalues not converged
     c_bands:  1 eigenvalues not converged
     c_bands:  1 eigenvalues not converged
     ethr =  1.00E-05,  avg # of iterations = 19.6

[...]

     total energy              =   -2897.80982148 Ry
     estimated scf accuracy    <      11.75634250 Ry

     iteration #  2     ecut=    29.40 Ry     beta= 0.05
     Davidson diagonalization with overlap
     ethr =  3.07E-03,  avg # of iterations =  1.0

[...]

     iteration # 56     ecut=    29.40 Ry     beta= 0.05
     Davidson diagonalization with overlap
     c_bands:  1 eigenvalues not converged
     c_bands:  1 eigenvalues not converged
     ethr =  5.49E-07,  avg # of iterations =  8.8

[...]

     total energy              =   -2896.37509270 Ry
     estimated scf accuracy    <       0.00000021 Ry

     iteration # 80     ecut=    29.40 Ry     beta= 0.05
     Davidson diagonalization with overlap
     ethr =  5.17E-11,  avg # of iterations =  3.2

     negative rho (up, down):  2.070E-02 0.000E+00

     Adding external electric field

     Computed dipole along edir(3) :
        Dipole                0.3689 Ry au,          0.9375 Debye
        Dipole field          0.0007 Ry au,

        Potential amp.       -0.0645 Ry
        Total length         46.3494 bohr

     End of self-consistent calculation

          k = 0.0000 0.0000 0.0000 ( 18029 PWs)   bands (ev):

   -56.6399 -56.6061 -56.3428 -56.3060 -56.2276 -56.1664 -56.0441 -56.0398
   -56.0055 -55.9448 -55.9344 -55.9085 -55.4376 -55.4036 -55.3434 -55.2850
   -33.0684 -32.8864 -32.8861 -32.8580 -32.8320 -32.7407 -32.6951 -32.6804
   -32.6497 -32.5577 -32.5449 -32.5376 -32.5232 -32.5200 -32.5129 -32.4959
   -32.4729 -32.4555 -32.4444 -32.3496 -32.3116 -32.2885 -32.2869 -32.2772
   -32.2637 -32.2590 -32.1970 -32.1933 -32.1667 -32.1607 -32.1542 -32.1300
   -32.1219 -32.1122 -32.0986 -32.0410 -31.8975 -31.8379 -31.7628 -31.7390
   -31.6564 -31.6154 -31.5840 -31.5758 -31.5714 -31.4901 -31.4593 -31.3512
   -16.9974 -16.8090 -16.5774 -16.4418 -16.3520 -16.2790 -16.0117 -16.0098
   -15.9638 -15.8911 -15.8636 -15.8012 -15.7975 -15.7716 -15.7607 -15.7513
   -15.7346 -15.6845 -15.6678 -15.6399 -15.6066 -15.5656 -15.4440 -15.4235
   -15.4084 -15.2936 -15.2438 -15.2057 -15.0244 -13.9302 -13.8162  -7.7809
    -4.3996  -4.3413  -4.1871  -4.1636  -4.0705  -3.8268  -3.6993  -3.4770
    -3.4358  -3.4052  -3.3903  -3.3239  -3.2646  -3.1582  -3.1414  -3.1216
    -3.0797  -3.0713  -3.0490  -3.0356  -3.0105  -2.9704  -2.8872  -2.8487
    -2.8288  -2.7506  -2.7225  -2.6456  -2.6188  -2.5750  -2.5495  -2.4902
    -2.4834  -2.4196  -2.3500  -2.2908  -2.1395  -2.0991  -2.0903  -2.0836
    -2.0127  -1.9035  -1.7610  -1.7287  -1.6616  -1.6603  -1.6422  -1.6056
    -1.5136  -1.4954  -1.4107  -1.3049  -1.2948  -1.2430  -1.1907  -1.1499
    -1.1331  -1.1328  -1.0753  -1.0406  -1.0075  -0.8834  -0.8531  -0.7330
    -0.7166  -0.6817  -0.6440  -0.6389  -0.5882  -0.5303  -0.4770  -0.4466
    -0.4257  -0.3781  -0.3685  -0.3330  -0.3104  -0.2559  -0.1408  -0.1170
    -0.1058  -0.0423   0.1441   0.1692   0.2117   0.3016   0.3499   0.5116
     0.5326   0.5913   0.7994   0.8357   1.1818   1.2619   1.5433   2.2834
     2.6278   2.8227   3.0825   3.1188   3.1364   3.1684   3.3426   3.3771
     3.3956

[...]

          k = 0.0380-0.0419 0.0000 ( 17876 PWs)   bands (ev):

[...]

          k =-0.0760-0.0000 0.0000 ( 17886 PWs)   bands (ev):

[...]

          k =-0.0760-0.0839 0.0000 ( 17948 PWs)   bands (ev):

   -56.6251 -56.6208 -56.3287 -56.3199 -56.2222 -56.1717 -56.0413 -56.0250
   -56.0200 -55.9372 -55.9311 -55.9221 -55.4205 -55.4205 -55.3377 -55.2906
   -32.8875 -32.8840 -32.8745 -32.8692 -32.7864 -32.7827 -32.6938 -32.6871
   -32.6052 -32.5943 -32.5373 -32.5271 -32.5250 -32.5168 -32.4916 -32.4644
   -32.4281 -32.3736 -32.3614 -32.3526 -32.3488 -32.2851 -32.2755 -32.2696
   -32.2680 -32.2586 -32.2517 -32.2430 -32.2311 -32.2257 -32.1823 -32.1735
   -32.1424 -32.1412 -32.1339 -32.1330 -31.7910 -31.7519 -31.7519 -31.6521
   -31.6521 -31.6457 -31.6140 -31.6140 -31.6118 -31.5810 -31.4934 -31.3989
   -16.4532 -16.4344 -16.2205 -16.2113 -16.1124 -16.1120 -16.1111 -16.1089
   -16.0092 -16.0059 -15.9337 -15.9208 -15.8638 -15.8564 -15.8206 -15.8187
   -15.7979 -15.7941 -15.7525 -15.7458 -15.6169 -15.6148 -15.5091 -15.5068
   -15.4671 -15.4252 -15.3862 -15.3750 -15.1600 -13.9186 -13.9182  -7.7832
    -3.7512  -3.7204  -3.4358  -3.4321  -3.2503  -3.2469  -3.2460  -3.2263
    -3.1826  -3.1526  -3.1429  -3.1177  -3.0866  -3.0433  -3.0325  -3.0126
    -3.0081  -3.0022  -2.9899  -2.9883  -2.9661  -2.9566  -2.9042  -2.8829
    -2.8720  -2.8624  -2.8132  -2.8121  -2.7106  -2.5859  -2.5377  -2.5336
    -2.4849  -2.4508  -2.3667  -2.3641  -2.3353  -2.3191  -2.2733  -2.1700
    -2.0375  -2.0349  -1.9904  -1.9597  -1.8933  -1.8182  -1.7163  -1.6515
    -1.6187  -1.5890  -1.5224  -1.4655  -1.4573  -1.4382  -1.4279  -1.4192
    -1.4056  -1.3088  -1.2973  -1.2256  -1.1884  -1.1781  -1.1687  -1.1353
    -1.1102  -1.0450  -0.9511  -0.9477  -0.9358  -0.9078  -0.8043  -0.7596
    -0.7032  -0.6518  -0.6057  -0.3574  -0.3551  -0.2014  -0.0929  -0.0306
     0.0345   0.0583   0.1018   0.1667   0.2284   0.2342   0.2609   0.2638
     0.3595   0.3618   0.9775   0.9779   1.0365   1.0376   1.7751   2.2265
     3.1075   3.1504   3.1685   3.1738   3.1983   3.2265   3.2448   3.2551
     3.5837

     the Fermi energy is     2.1486 ev

!    total energy              =   -2896.37509803 Ry
     estimated scf accuracy    <       0.00000007 Ry
     smearing contrib. (-TS)   =      -0.01053388 Ry
     internal energy E=F+TS    =   -2896.36456414 Ry

     The total energy is F=E-TS. E is the sum of the following terms:
     one-electron contribution =  -24783.61498302 Ry
     hartree contribution      =   12469.83890215 Ry
     xc contribution           =    -472.98114857 Ry
     ewald contribution        =    9890.39240856 Ry
     electric field correction =       0.00025675 Ry

     convergence has been achieved in  80 iterations

     Forces acting on atoms (cartesian axes, Ry/au):

     atom    1 type  1   force =     0.00018552   -0.00055921    0.14916155
     atom    2 type  1   force =    -0.00002661   -0.00030886   -0.17026563
     atom    3 type  2   force =     0.00005969    0.00011760   -0.06121927
     atom    4 type  2   force =     0.00011049   -0.00167235    0.04076319
     atom    5 type  2   force =    -0.02327242    0.00031254    0.00411508
     atom    6 type  2   force =     0.02299390    0.00152141    0.00332110
     atom    7 type  1   force =    -0.00054902    0.00073997    0.00017691
     atom    8 type  1   force =     0.00020530    0.00082184   -0.00021344
     atom    9 type  2   force =    -0.00005963    0.00009158   -0.00047964
     atom   10 type  2   force =    -0.00003023   -0.00050367    0.00029926
     atom   11 type  2   force =    -0.00024155    0.00055982    0.00030491
     atom   12 type  2   force =     0.00034019    0.00016528    0.00024509
     atom   13 type  1   force =     0.00037549    0.00066060   -0.00124413
     atom   14 type  1   force =    -0.00045250    0.00096688   -0.00030297
     atom   15 type  2   force =     0.00014567    0.00087642   -0.00069847
     atom   16 type  2   force =     0.00013540   -0.00025152   -0.00004890
     atom   17 type  2   force =     0.00109620    0.00021943    0.00019867
     atom   18 type  2   force =    -0.00098366    0.00031586    0.00018551
     atom   19 type  1   force =     0.00000423   -0.00070110    0.00056971
     atom   20 type  1   force =     0.00007458   -0.00008052    0.00270594
     atom   21 type  2   force =     0.00008040   -0.00018410    0.10247588
     atom   22 type  2   force =    -0.00005809    0.00280887   -0.00041745
     atom   23 type  2   force =    -0.07444338    0.00019756   -0.03478253
     atom   24 type  2   force =     0.07440158    0.00062743   -0.03483213
     atom   25 type  1   force =    -0.00004250   -0.00050829    0.15020653
     atom   26 type  1   force =    -0.00002288   -0.00070742   -0.17021406
     atom   27 type  2   force =     0.00007348    0.00063885   -0.06042536
     atom   28 type  2   force =     0.00003002   -0.00161981    0.04020685
     atom   29 type  2   force =    -0.02284835    0.00144635    0.00429078
     atom   30 type  2   force =     0.02311965    0.00224194    0.00348907
     atom   31 type  1   force =    -0.00054461    0.00012677   -0.00079841
     atom   32 type  1   force =     0.00022904   -0.00108875    0.00049557
     atom   33 type  2   force =     0.00025931   -0.00007333    0.00121603
     atom   34 type  2   force =    -0.00004093    0.00059012   -0.00020217
     atom   35 type  2   force =    -0.00097981   -0.00050694    0.00005356
     atom   36 type  2   force =     0.00100797   -0.00026588    0.00012669
     atom   37 type  1   force =    -0.00008143   -0.00006277   -0.00010691
     atom   38 type  1   force =    -0.00070180   -0.00076783    0.00030904
     atom   39 type  2   force =    -0.00005360   -0.00052447    0.00037176
     atom   40 type  2   force =     0.00009733   -0.00017682   -0.00075174
     atom   41 type  2   force =     0.00043363   -0.00036523    0.00036431
     atom   42 type  2   force =    -0.00046273   -0.00044896    0.00038838
     atom   43 type  1   force =    -0.00001430    0.00051417   -0.00093638
     atom   44 type  1   force =     0.00015650   -0.00013237   -0.00007608
     atom   45 type  2   force =     0.00007256   -0.00018417    0.10246448
     atom   46 type  2   force =    -0.07443346   -0.00013826   -0.03478882
     atom   47 type  2   force =     0.07438834    0.00030588   -0.03484214
     atom   48 type  3   force =    -0.00002433   -0.00486385   -0.00181077
     atom   49 type  4   force =     0.00029132   -0.00017072    0.00095155

     Total force =     0.404622     Total SCF correction =     0.000545
  @ DRIVER MODE: Message from server: STATUS
  @ DRIVER MODE: Message from server: GETFORCE
  @ DRIVER MODE: Returning v,forces,stress,ensemble

     Writing output data file ./calc.save/
  @ DRIVER MODE: Message from server: EXIT
  @ DRIVE MODE: Exiting

     General routines

     Parallel routines

   This run was terminated on:  23: 6:21   8Sep2021

   JOB DONE.