     Program PWSCF v.6.7GPU starts on 24Aug2021 at  9:47:56

     R & G space division:  proc/nbgrp/npool/nimage =       6
     Reading input from /storage/home/hcoda1/3/ntian30/research/carbon/CH_vib/ads_slab/CHNNHHH_a/out_0040/pw.inp
Warning: card &CELL ignored
Warning: card   CELL_DYNAMICS='IPI', ignored
Warning: card / ignored

     Current dimensions of program PWSCF are:
     Max number of different atomic species (ntypx) = 10
     Max number of k-points (npk) =  40000
     Max angular momentum in pseudopotentials (lmaxx) =  3
     Presently no symmetry can be used with electric field

     Message from routine cell_base_init:
     DEPRECATED: use true lattice parameter, not A to a.u. conversion factor

     IMPORTANT: XC functional enforced from input :
     Exchange-correlation= BEEF-VDW
                           (   1   4  43  14   2   0   0)
     Any further DFT definition will be discarded
     Please, verify this is what you really want

  @ DRIVER MODE: Connecting to
 qe_1139763_2632795.sched-torque.pace.gatech.edu10q95wmi_scratch
  using UNIX socket
  @ DRIVER MODE: Message from server: STATUS
  @ DRIVER MODE: Message from server: INIT
  @ DRIVER MODE: Receiving replica           0          -1
  @ DRIVER MODE: Receiving encoded integer          25
  @ DRIVER MODE:  SCF:  T  FORCE:  T  STRESS:  F  VC:  F  ENSEMBLE:  F
  @ DRIVER MODE:  SCF:  T  FORCE:  T  STRESS:  F  VC:  F  ENSEMBLE:  F

     Using Slab Decomposition

     bravais-lattice index     =            0
     lattice parameter (alat)  =       1.8897  a.u.
     unit-cell volume          =    6658.9804 (a.u.)^3
     number of atoms/cell      =           54
     number of atomic types    =            5
     number of electrons       =       396.00
     number of Kohn-Sham states=          208
     kinetic-energy cutoff     =      29.3995  Ry
     charge density cutoff     =     293.9946  Ry
     scf convergence threshold =      7.3E-08
     mixing beta               =       0.0500
     number of iterations used =            8  plain     mixing
     Exchange-correlation= BEEF-VDW
                           (   1   4  43  14   2   0   0)

     celldm(1)=   1.889726  celldm(2)=   0.000000  celldm(3)=   0.000000
     celldm(4)=   0.000000  celldm(5)=   0.000000  celldm(6)=   0.000000

     crystal axes: (cart. coord. in units of alat)
               a(1) = (   6.579727   0.000000   0.000000 )
               a(2) = (  -0.000775   5.961596   0.000000 )
               a(3) = (   0.000000   0.000000  25.155947 )

     reciprocal axes: (cart. coord. in units 2 pi/alat)
               b(1) = (  0.151982  0.000020  0.000000 )
               b(2) = (  0.000000  0.167740  0.000000 )
               b(3) = (  0.000000  0.000000  0.039752 )

     PseudoPot. # 1 for Ti read from file:
     /storage/coda1/p-amedford6/0/shared/rich_project_chbe-medford/medford-share/data/pseudos_module/espresso/nninc/pbe/van/Ti.UPF
     MD5 check sum: 8e4df49b7f0d34bbd5052bf3f5ea0213
     Pseudo is Ultrasoft, Zval = 12.0
     Generated by new atomic code, or converted to UPF format
     Using radial grid of  851 points,  6 beta functions with:
                l(1) =   0
                l(2) =   0
                l(3) =   1
                l(4) =   1
                l(5) =   2
                l(6) =   2
     Q(r) pseudized with  8 coefficients,  rinner =    1.000   1.000   1.000
                                                       1.000   1.000

     PseudoPot. # 2 for O  read from file:
     /storage/coda1/p-amedford6/0/shared/rich_project_chbe-medford/medford-share/data/pseudos_module/espresso/nninc/pbe/van/O.UPF
     MD5 check sum: 78c19812648e8988a0fe644b0f25305e
     Pseudo is Ultrasoft, Zval =  6.0
     Generated by new atomic code, or converted to UPF format
     Using radial grid of  737 points,  4 beta functions with:
                l(1) =   0
                l(2) =   0
                l(3) =   1
                l(4) =   1
     Q(r) pseudized with  8 coefficients,  rinner =    0.800   0.800   0.800

     PseudoPot. # 3 for N  read from file:
     /storage/coda1/p-amedford6/0/shared/rich_project_chbe-medford/medford-share/data/pseudos_module/espresso/nninc/pbe/van/N.UPF
     MD5 check sum: 90d10febe142ad51ac9d5be1deb811c4
     Pseudo is Ultrasoft, Zval =  5.0
     Generated by new atomic code, or converted to UPF format
     Using radial grid of  729 points,  4 beta functions with:
                l(1) =   0
                l(2) =   0
                l(3) =   1
                l(4) =   1
     Q(r) pseudized with  8 coefficients,  rinner =    0.800   0.800   0.800

     PseudoPot. # 4 for C  read from file:
     /storage/coda1/p-amedford6/0/shared/rich_project_chbe-medford/medford-share/data/pseudos_module/espresso/nninc/pbe/van/C.UPF
     MD5 check sum: 1a69bf6b8db32088f5b2163dbdb77a27
     Pseudo is Ultrasoft, Zval =  4.0
     Generated by new atomic code, or converted to UPF format
     Using radial grid of  721 points,  4 beta functions with:
                l(1) =   0
                l(2) =   0
                l(3) =   1
                l(4) =   1
     Q(r) pseudized with  8 coefficients,  rinner =    0.800   0.800   0.800

     PseudoPot. # 5 for H  read from file:
     /storage/coda1/p-amedford6/0/shared/rich_project_chbe-medford/medford-share/data/pseudos_module/espresso/nninc/pbe/van/H.UPF
     MD5 check sum: b5ee9d7bfd3a09ee7748110bda690ff7
     Pseudo is Ultrasoft, Zval =  1.0
     Generated by new atomic code, or converted to UPF format
     Using radial grid of  615 points,  1 beta functions with:
                l(1) =   0
     Q(r) pseudized with  8 coefficients,  rinner =    0.800

     atomic species   valence    mass     pseudopotential
        Ti1           12.00    47.86700     Ti( 1.00)
        O1             6.00    15.99900     O ( 1.00)
        N1             5.00    14.00700     N ( 1.00)
        C1             4.00    12.01100     C ( 1.00)
        H1             1.00     1.00800     H ( 1.00)

     No symmetry found

   Cartesian axes

     site n.     atom                  positions (alat units)
         1           Ti1 tau(   1) = (   0.0004258   2.9801865   6.0000000  )
         2           Ti1 tau(   2) = (   3.2906075   1.4906267   6.0002472  )
         3           O1  tau(   3) = (   0.0006271   0.0005054   7.9858123  )
         4           O1  tau(   4) = (   3.2906025   0.0005020   7.3038282  )
         5           O1  tau(   5) = (   4.5942328   1.4918067   9.2879030  )
         6           O1  tau(   6) = (   1.9868534   1.4903216   9.2879459  )
         7           Ti1 tau(   7) = (   3.2907910   2.8959150   9.1758416  )
         8           Ti1 tau(   8) = (   0.0015273   1.4827037   9.2680791  )
         9           O1  tau(   9) = (   3.3116888   5.9365513  11.3741315  )
        10           O1  tau(  10) = (   0.0116148   5.9584955  10.6183126  )
        11           O1  tau(  11) = (   1.3152863   1.4773744  12.6583839  )
        12           O1  tau(  12) = (   5.3185463   1.4781915  12.6604289  )
        13           Ti1 tau(  13) = (   0.0312267   2.9553392  12.5172039  )
        14           Ti1 tau(  14) = (   3.3247105   1.4628205  12.5237724  )
        15           O1  tau(  15) = (   0.0176705   0.0150782  14.7085838  )
        16           O1  tau(  16) = (   3.3263678   5.9469243  13.9928752  )
        17           O1  tau(  17) = (   4.5829619   1.4750097  16.2211409  )
        18           O1  tau(  18) = (   2.0801478   1.4636096  16.1819230  )
        19           Ti1 tau(  19) = (   3.3264833   2.9461821  15.7545810  )
        20           Ti1 tau(  20) = (   0.0064452   1.3478264  16.0581623  )
        21           O1  tau(  21) = (   3.2904802   0.0005063   4.7018136  )
        22           O1  tau(  22) = (   0.0393124   5.8647722  17.2449945  )
        23           O1  tau(  23) = (   1.3043587   1.4918075   6.0039043  )
        24           O1  tau(  24) = (   5.2767064   1.4903225   6.0039473  )
        25           Ti1 tau(  25) = (   0.0000382   5.9609847   6.0000000  )
        26           Ti1 tau(  26) = (   3.2902200   4.4714249   6.0002472  )
        27           O1  tau(  27) = (   0.0002396   2.9813036   7.9858123  )
        28           O1  tau(  28) = (   3.2902150   2.9813002   7.3038282  )
        29           O1  tau(  29) = (   4.5938453   4.4726049   9.2879030  )
        30           O1  tau(  30) = (   1.9864658   4.4711199   9.2879459  )
        31           Ti1 tau(  31) = (   3.2891106   5.8743827   9.1763621  )
        32           Ti1 tau(  32) = (   0.0006254   4.4649316   9.2693709  )
        33           O1  tau(  33) = (   3.3126387   2.9639063  11.3704323  )
        34           O1  tau(  34) = (   0.0092240   2.9805883  10.6323155  )
        35           O1  tau(  35) = (   1.3140505   4.4512041  12.6779488  )
        36           O1  tau(  36) = (   5.3186431   4.4503656  12.6784002  )
        37           Ti1 tau(  37) = (   0.0306983   5.9434578  12.5012515  )
        38           Ti1 tau(  38) = (   3.3249252   4.4426326  12.5284913  )
        39           O1  tau(  39) = (   0.0332616   2.9308952  14.9693926  )
        40           O1  tau(  40) = (   3.3269026   2.9510973  13.9662216  )
        41           O1  tau(  41) = (   4.5816979   4.4256876  16.1885362  )
        42           O1  tau(  42) = (   2.0739833   4.4348339  16.1471384  )
        43           Ti1 tau(  43) = (   3.3139036   5.9323143  15.7909994  )
        44           Ti1 tau(  44) = (   0.0257917   4.5791344  15.8913375  )
        45           O1  tau(  45) = (   3.2900926   2.9813045   4.7018136  )
        46           O1  tau(  46) = (   1.3039711   4.4726057   6.0039043  )
        47           O1  tau(  47) = (   5.2763189   4.4711207   6.0039473  )
        48           N1  tau(  48) = (   0.2611162   2.7486399  18.0384573  )
        49           C1  tau(  49) = (   1.0666652   3.1333113  18.7681872  )
        50           H1  tau(  50) = (   1.9496291   3.4674532  19.3170853  )
        51           N1  tau(  51) = (   3.9312863   3.7371558  19.5917579  )
        52           H1  tau(  52) = (   4.2637485   4.0673035  20.4913501  )
        53           H1  tau(  53) = (   4.3024207   4.3757745  18.8906580  )
        54           H1  tau(  54) = (   4.4024832   2.8618033  19.4177320  )

     number of k points=    10  Fermi-Dirac smearing, width (Ry)=  0.0073
                       cart. coord. in units 2pi/alat
        k(    1) = (   0.0000000   0.0000000   0.0000000), wk =   0.1250000
        k(    2) = (   0.0000000   0.0419351   0.0000000), wk =   0.2500000
        k(    3) = (   0.0000000  -0.0838702   0.0000000), wk =   0.1250000
        k(    4) = (   0.0379955   0.0000049   0.0000000), wk =   0.2500000
        k(    5) = (   0.0379955   0.0419400   0.0000000), wk =   0.2500000
        k(    6) = (   0.0379955  -0.0838652   0.0000000), wk =   0.2500000
        k(    7) = (   0.0379955  -0.0419301   0.0000000), wk =   0.2500000
        k(    8) = (  -0.0759910  -0.0000099   0.0000000), wk =   0.1250000
        k(    9) = (  -0.0759910   0.0419252   0.0000000), wk =   0.2500000
        k(   10) = (  -0.0759910  -0.0838800   0.0000000), wk =   0.1250000

     Initial potential from superposition of free atoms

     starting charge  379.99915, renormalised to  396.00000

     negative rho (up, down):  1.480E-02 0.000E+00

     %%%%%%%%%%%%%%%%%%%%%%%%%%%%%%%%%%%%%%%%%%%%%%%%%%%%%%%%%%%%%%%%%%%%%%%%
     %                                                                      %
     % You are using vdW-DF, which was implemented by the Thonhauser group. %
     % Please cite the following two papers that made this development      %
     % possible and the two reviews that describe the various versions:     %
     %                                                                      %
     %   T. Thonhauser et al., PRL 115, 136402 (2015).                      %
     %   T. Thonhauser et al., PRB 76, 125112 (2007).                       %
     %   K. Berland et al., Rep. Prog. Phys. 78, 066501 (2015).             %
     %   D.C. Langreth et al., J. Phys.: Condens. Matter 21, 084203 (2009). %
     %                                                                      %
     %                                                                      %
     % If you are calculating the stress with vdW-DF, please also cite:     %
     %                                                                      %
     %   R. Sabatini et al., J. Phys.: Condens. Matter 24, 424209 (2012).   %
     %                                                                      %
     %%%%%%%%%%%%%%%%%%%%%%%%%%%%%%%%%%%%%%%%%%%%%%%%%%%%%%%%%%%%%%%%%%%%%%%%

     Adding external electric field

     Computed dipole along edir(3) :
        Dipole              -10.3171 Ry au,        -26.2235 Debye
        Dipole field         -0.0195 Ry au,

        Potential amp.        1.8048 Ry
        Total length         46.3494 bohr

     Starting wfcs are  300 atomic wfcs
  @ DRIVER MODE: Message from server: STATUS
  @ DRIVER MODE: Message from server: POSDATA
  @ DRIVER MODE: Reading and sharing cell
  @ DRIVER MODE: Reading and sharing positions
  @ DRIVER MODE: Received positions

     Self-consistent Calculation

     iteration #  1     ecut=    29.40 Ry     beta= 0.05
     Davidson diagonalization with overlap
     c_bands:  1 eigenvalues not converged
     c_bands:  2 eigenvalues not converged
     c_bands:  2 eigenvalues not converged
     c_bands:  1 eigenvalues not converged
     c_bands:  3 eigenvalues not converged
     c_bands:  2 eigenvalues not converged
     c_bands:  3 eigenvalues not converged
     c_bands:  2 eigenvalues not converged
     c_bands:  2 eigenvalues not converged
     c_bands:  2 eigenvalues not converged
     ethr =  1.00E-05,  avg # of iterations = 20.0

[...]

     total energy              =   -2528.14863956 Ry
     estimated scf accuracy    <    4616.62841341 Ry

     iteration #  2     ecut=    29.40 Ry     beta= 0.05
     Davidson diagonalization with overlap
     ethr =  1.00E-02,  avg # of iterations = 25.5

[...]

     iteration # 80     ecut=    29.40 Ry     beta= 0.05
     Davidson diagonalization with overlap
     c_bands:  2 eigenvalues not converged
     c_bands:  4 eigenvalues not converged
     ethr =  7.10E-10,  avg # of iterations = 17.1

[...]

     total energy              =   -2940.41302967 Ry
     estimated scf accuracy    <       0.00000011 Ry

     iteration # 88     ecut=    29.40 Ry     beta= 0.05
     Davidson diagonalization with overlap
     ethr =  2.82E-11,  avg # of iterations =  4.1

     negative rho (up, down):  1.579E-02 0.000E+00

     Adding external electric field

     Computed dipole along edir(3) :
        Dipole                1.4859 Ry au,          3.7767 Debye
        Dipole field          0.0028 Ry au,

        Potential amp.       -0.2599 Ry
        Total length         46.3494 bohr

     End of self-consistent calculation

          k = 0.0000 0.0000 0.0000 ( 18029 PWs)   bands (ev):

   -55.2555 -55.2196 -55.2069 -55.1728 -55.1326 -55.1243 -55.1004 -55.0973
   -55.0731 -55.0538 -55.0388 -55.0357 -55.0020 -54.9852 -54.2350 -54.2009
   -31.8241 -31.7036 -31.6992 -31.6204 -31.5647 -31.5627 -31.5540 -31.5411
   -31.4959 -31.4830 -31.4642 -31.4609 -31.4515 -31.4266 -31.4107 -31.4060
   -31.3918 -31.3801 -31.3711 -31.3698 -31.3593 -31.3469 -31.3206 -31.3181
   -31.3104 -31.3037 -31.2756 -31.2737 -31.2640 -31.2628 -31.2541 -31.2353
   -31.2342 -31.2261 -31.2224 -31.2206 -31.1870 -31.1868 -31.1691 -31.1637
   -31.1467 -31.0952 -30.6442 -30.5502 -30.5282 -30.4606 -30.3739 -30.2629
   -16.7754 -16.0804 -15.8107 -15.6683 -15.5623 -15.4510 -15.3362 -15.3159
   -15.1856 -15.1781 -15.0904 -14.9717 -14.9209 -14.9024 -14.8879 -14.8741
   -14.8675 -14.7963 -14.7910 -14.7677 -14.7474 -14.7347 -14.6917 -14.6899
   -14.6495 -14.6286 -14.5823 -14.4932 -14.4103 -14.3410 -14.0189 -12.7375
   -12.6200  -7.9774  -5.2667  -5.0562  -4.0146  -3.4193  -3.2689  -3.1730
    -3.1467  -3.1310  -3.0013  -2.8544  -2.8452  -2.7505  -2.6398  -2.5886
    -2.5060  -2.4573  -2.4449  -2.4267  -2.2434  -2.2266  -2.1736  -2.1255
    -2.0956  -2.0597  -2.0394  -2.0201  -2.0029  -1.9936  -1.9297  -1.8158
    -1.7804  -1.7281  -1.6766  -1.6513  -1.5973  -1.5766  -1.5407  -1.5347
    -1.5342  -1.4860  -1.4600  -1.4367  -1.3596  -1.2736  -1.1591  -1.1078
    -0.9529  -0.8905  -0.8342  -0.8219  -0.7583  -0.7385  -0.7088  -0.6324
    -0.6246  -0.5919  -0.4731  -0.3824  -0.3430  -0.3309  -0.2733  -0.2359
    -0.2085  -0.1616  -0.0654  -0.0332  -0.0164  -0.0120   0.1382   0.1520
     0.2211   0.2684   0.2902   0.2908   0.4038   0.4203   0.4927   0.5297
     0.5657   0.6390   0.6789   0.6949   0.6975   0.7311   0.7350   0.8260
     0.8481   0.8565   0.9287   1.0782   1.3046   1.3526   1.3605   1.6941
     1.6958   1.7879   1.9715   2.3638   2.4120   3.8432   3.9148   3.9890
     3.9955   4.0213   4.0813   4.3228   4.3332   4.3458   4.3489   4.3903

[...]

          k = 0.0380-0.0419 0.0000 ( 17876 PWs)   bands (ev):

[...]

          k =-0.0760-0.0000 0.0000 ( 17886 PWs)   bands (ev):

[...]

          k =-0.0760-0.0839 0.0000 ( 17948 PWs)   bands (ev):

   -55.2375 -55.2373 -55.1901 -55.1894 -55.1195 -55.1190 -55.1109 -55.0977
   -55.0581 -55.0570 -55.0544 -55.0193 -55.0186 -54.9881 -54.2179 -54.2178
   -31.6279 -31.6274 -31.6267 -31.5262 -31.5147 -31.5139 -31.5137 -31.4815
   -31.4809 -31.4628 -31.4555 -31.4498 -31.4454 -31.3946 -31.3900 -31.3878
   -31.3866 -31.3865 -31.3811 -31.3755 -31.3513 -31.3480 -31.3373 -31.3282
   -31.3272 -31.3211 -31.3126 -31.3096 -31.3092 -31.3030 -31.2902 -31.2873
   -31.2824 -31.2701 -31.2673 -31.2505 -31.2491 -31.2453 -31.2000 -31.1995
   -31.1939 -31.1874 -30.5408 -30.5408 -30.4567 -30.4567 -30.4173 -30.4172
   -16.7666 -15.6129 -15.4964 -15.4553 -15.2676 -15.2591 -15.2297 -15.2165
   -15.1884 -15.0651 -15.0391 -15.0286 -15.0148 -14.9633 -14.9569 -14.9518
   -14.9301 -14.8589 -14.8505 -14.8486 -14.8315 -14.7654 -14.7606 -14.7562
   -14.7454 -14.7023 -14.6994 -14.6052 -14.6031 -14.5093 -14.3857 -12.7215
   -12.7215  -7.9739  -5.2633  -5.0655  -4.0010  -2.7992  -2.7710  -2.7249
    -2.7149  -2.6983  -2.4791  -2.4563  -2.4193  -2.3693  -2.3078  -2.2566
    -2.2482  -2.2316  -2.1645  -2.1258  -2.1092  -2.0957  -2.0774  -2.0618
    -2.0474  -2.0218  -1.9793  -1.9718  -1.9507  -1.9303  -1.9004  -1.8921
    -1.8609  -1.8400  -1.8248  -1.8074  -1.6928  -1.6691  -1.6104  -1.5713
    -1.5300  -1.4575  -1.4523  -1.3552  -1.3479  -1.2936  -1.2818  -1.2557
    -1.1628  -1.0637  -1.0016  -0.9951  -0.9887  -0.8626  -0.8243  -0.8001
    -0.7632  -0.7350  -0.6760  -0.5977  -0.5762  -0.5418  -0.4573  -0.4491
    -0.3928  -0.3241  -0.2783  -0.2472  -0.2181  -0.2101  -0.2005  -0.1471
    -0.1406  -0.0695  -0.0195   0.0139   0.0251   0.0591   0.2638   0.2805
     0.3334   0.4317   0.5043   0.6246   0.6823   0.7036   0.7749   0.8151
     0.8590   0.9214   1.0239   1.0542   1.0572   1.1319   1.1636   1.2055
     1.2096   2.1449   2.1452   2.2319   2.2321   3.9872   4.0811   4.1033
     4.1514   4.2426   4.2777   4.3609   4.3790   4.4290   4.4982   4.5024

     the Fermi energy is     3.9063 ev

!    total energy              =   -2940.41303373 Ry
     estimated scf accuracy    <       0.00000006 Ry
     smearing contrib. (-TS)   =      -0.03730555 Ry
     internal energy E=F+TS    =   -2940.37572818 Ry

     The total energy is F=E-TS. E is the sum of the following terms:
     one-electron contribution =  -23553.25411171 Ry
     hartree contribution      =   11869.30905355 Ry
     xc contribution           =    -485.97581093 Ry
     ewald contribution        =    9229.54097449 Ry
     electric field correction =       0.00416641 Ry

     convergence has been achieved in  88 iterations

     Forces acting on atoms (cartesian axes, Ry/au):

     atom    1 type  1   force =    -0.00002776   -0.00017693    0.09330667
     atom    2 type  1   force =    -0.00015367   -0.00021814   -0.17812027
     atom    3 type  2   force =     0.00006509   -0.00020833   -0.02049948
     atom    4 type  2   force =     0.00000514   -0.00194584    0.05846338
     atom    5 type  2   force =    -0.01029026   -0.00135423    0.00734324
     atom    6 type  2   force =     0.01228793   -0.00075724    0.00783745
     atom    7 type  1   force =     0.00036172    0.00277172   -0.01405594
     atom    8 type  1   force =    -0.00056064    0.00105108   -0.00334727
     atom    9 type  2   force =     0.00004007    0.00049503   -0.00009674
     atom   10 type  2   force =    -0.00055072   -0.00104138   -0.00005287
     atom   11 type  2   force =     0.00008932    0.00011164    0.00003747
     atom   12 type  2   force =    -0.00025503    0.00016095   -0.00007624
     atom   13 type  1   force =    -0.00001188    0.00090246   -0.00027602
     atom   14 type  1   force =     0.00009528    0.00024544   -0.00016241
     atom   15 type  2   force =    -0.00013240    0.00011324    0.00094167
     atom   16 type  2   force =     0.00004691    0.00010714   -0.00005721
     atom   17 type  2   force =     0.00027130   -0.00030845    0.00001351
     atom   18 type  2   force =    -0.00022886   -0.00046200   -0.00046759
     atom   19 type  1   force =    -0.00063242   -0.00023311    0.00007408
     atom   20 type  1   force =    -0.00024367    0.00070159    0.00006060
     atom   21 type  2   force =    -0.00001866    0.00000838    0.10391887
     atom   22 type  2   force =    -0.00028026   -0.00068470   -0.00098803
     atom   23 type  2   force =    -0.07045804   -0.00007214   -0.02689463
     atom   24 type  2   force =     0.07029857    0.00036356   -0.02694812
     atom   25 type  1   force =     0.00004257   -0.00006102    0.09292148
     atom   26 type  1   force =    -0.00016762   -0.00018759   -0.17815415
     atom   27 type  2   force =     0.00012509   -0.00032969   -0.01952475
     atom   28 type  2   force =     0.00003414   -0.00168364    0.05803630
     atom   29 type  2   force =    -0.01040166   -0.00124031    0.00691679
     atom   30 type  2   force =     0.01228796   -0.00091157    0.00742757
     atom   31 type  1   force =     0.00034678    0.00515946   -0.01508139
     atom   32 type  1   force =    -0.00046487   -0.00160296   -0.00357260
     atom   33 type  2   force =    -0.00019224   -0.00021477   -0.00020849
     atom   34 type  2   force =     0.00029227   -0.00052070    0.00103863
     atom   35 type  2   force =    -0.00040602    0.00005771    0.00022796
     atom   36 type  2   force =     0.00033967   -0.00002702    0.00028942
     atom   37 type  1   force =    -0.00011576   -0.00043990   -0.00004090
     atom   38 type  1   force =     0.00013271    0.00034025   -0.00028654
     atom   39 type  2   force =    -0.00034026   -0.00042711    0.00113881
     atom   40 type  2   force =     0.00006992    0.00007472   -0.00019325
     atom   41 type  2   force =    -0.00001295    0.00023602   -0.00029798
     atom   42 type  2   force =    -0.00014586    0.00000624   -0.00038691
     atom   43 type  1   force =    -0.00079470   -0.00014028    0.00011951
     atom   44 type  1   force =     0.00010075    0.00050531    0.00001271
     atom   45 type  2   force =    -0.00000876    0.00000606    0.10390275
     atom   46 type  2   force =    -0.07048402   -0.00005386   -0.02689807
     atom   47 type  2   force =     0.07030818    0.00039138   -0.02697001
     atom   48 type  3   force =    -0.00002960   -0.00080691    0.00018862
     atom   49 type  4   force =    -0.00071473    0.00057910   -0.00058785
     atom   50 type  5   force =     0.00007510   -0.00008635    0.00075278
     atom   51 type  3   force =    -0.00514244    0.01094668    0.00091231
     atom   52 type  5   force =     0.00043757    0.00129102    0.00087451
     atom   53 type  5   force =    -0.00040207    0.00139949   -0.00025629
     atom   54 type  5   force =     0.00551380   -0.01182953   -0.00225511

     Total force =     0.366446     Total SCF correction =     0.000649
  @ DRIVER MODE: Message from server: STATUS
  @ DRIVER MODE: Message from server: GETFORCE
  @ DRIVER MODE: Returning v,forces,stress,ensemble

     Writing output data file ./calc.save/
  @ DRIVER MODE: Message from server: EXIT
  @ DRIVE MODE: Exiting

     General routines

     Parallel routines

   This run was terminated on:  10:23:45  24Aug2021

   JOB DONE.