     Program PWSCF v.6.7GPU starts on 10Sep2021 at 12:19:50

     R & G space division:  proc/nbgrp/npool/nimage =      10
     Reading input from /storage/home/hcoda1/3/ntian30/research/carbon/CxH_vib/CH3_calc/ads_slab/CH3N2OH_j/out_0045/pw.inp
Warning: card &CELL ignored
Warning: card   CELL_DYNAMICS='IPI', ignored
Warning: card / ignored

     Current dimensions of program PWSCF are:
     Max number of different atomic species (ntypx) = 10
     Max number of k-points (npk) =  40000
     Max angular momentum in pseudopotentials (lmaxx) =  3
     Presently no symmetry can be used with electric field

     Message from routine cell_base_init:
     DEPRECATED: use true lattice parameter, not A to a.u. conversion factor

     IMPORTANT: XC functional enforced from input :
     Exchange-correlation= BEEF-VDW
                           (   1   4  43  14   2   0   0)
     Any further DFT definition will be discarded
     Please, verify this is what you really want

  @ DRIVER MODE: Connecting to
 qe_1139763_2779713.sched-torque.pace.gatech.edupoigonu9_scratch
  using UNIX socket
  @ DRIVER MODE: Message from server: STATUS
  @ DRIVER MODE: Message from server: INIT
  @ DRIVER MODE: Receiving replica           0          -1
  @ DRIVER MODE: Receiving encoded integer          25
  @ DRIVER MODE:  SCF:  T  FORCE:  T  STRESS:  F  VC:  F  ENSEMBLE:  F
  @ DRIVER MODE:  SCF:  T  FORCE:  T  STRESS:  F  VC:  F  ENSEMBLE:  F

     Using Slab Decomposition

     bravais-lattice index     =            0
     lattice parameter (alat)  =       1.8897  a.u.
     unit-cell volume          =    6658.9804 (a.u.)^3
     number of atoms/cell      =           55
     number of atomic types    =            5
     number of electrons       =       402.00
     number of Kohn-Sham states=          211
     kinetic-energy cutoff     =      29.3995  Ry
     charge density cutoff     =     293.9946  Ry
     scf convergence threshold =      7.3E-08
     mixing beta               =       0.0500
     number of iterations used =            8  plain     mixing
     Exchange-correlation= BEEF-VDW
                           (   1   4  43  14   2   0   0)

     celldm(1)=   1.889726  celldm(2)=   0.000000  celldm(3)=   0.000000
     celldm(4)=   0.000000  celldm(5)=   0.000000  celldm(6)=   0.000000

     crystal axes: (cart. coord. in units of alat)
               a(1) = (   6.579727   0.000000   0.000000 )
               a(2) = (  -0.000775   5.961596   0.000000 )
               a(3) = (   0.000000   0.000000  25.155947 )

     reciprocal axes: (cart. coord. in units 2 pi/alat)
               b(1) = (  0.151982  0.000020  0.000000 )
               b(2) = (  0.000000  0.167740  0.000000 )
               b(3) = (  0.000000  0.000000  0.039752 )

     PseudoPot. # 1 for Ti read from file:
     /storage/coda1/p-amedford6/0/shared/rich_project_chbe-medford/medford-share/data/pseudos_module/espresso/nninc/pbe/van/Ti.UPF
     MD5 check sum: 8e4df49b7f0d34bbd5052bf3f5ea0213
     Pseudo is Ultrasoft, Zval = 12.0
     Generated by new atomic code, or converted to UPF format
     Using radial grid of  851 points,  6 beta functions with:
                l(1) =   0
                l(2) =   0
                l(3) =   1
                l(4) =   1
                l(5) =   2
                l(6) =   2
     Q(r) pseudized with  8 coefficients,  rinner =    1.000   1.000   1.000
                                                       1.000   1.000

     PseudoPot. # 2 for O  read from file:
     /storage/coda1/p-amedford6/0/shared/rich_project_chbe-medford/medford-share/data/pseudos_module/espresso/nninc/pbe/van/O.UPF
     MD5 check sum: 78c19812648e8988a0fe644b0f25305e
     Pseudo is Ultrasoft, Zval =  6.0
     Generated by new atomic code, or converted to UPF format
     Using radial grid of  737 points,  4 beta functions with:
                l(1) =   0
                l(2) =   0
                l(3) =   1
                l(4) =   1
     Q(r) pseudized with  8 coefficients,  rinner =    0.800   0.800   0.800

     PseudoPot. # 3 for N  read from file:
     /storage/coda1/p-amedford6/0/shared/rich_project_chbe-medford/medford-share/data/pseudos_module/espresso/nninc/pbe/van/N.UPF
     MD5 check sum: 90d10febe142ad51ac9d5be1deb811c4
     Pseudo is Ultrasoft, Zval =  5.0
     Generated by new atomic code, or converted to UPF format
     Using radial grid of  729 points,  4 beta functions with:
                l(1) =   0
                l(2) =   0
                l(3) =   1
                l(4) =   1
     Q(r) pseudized with  8 coefficients,  rinner =    0.800   0.800   0.800

     PseudoPot. # 4 for C  read from file:
     /storage/coda1/p-amedford6/0/shared/rich_project_chbe-medford/medford-share/data/pseudos_module/espresso/nninc/pbe/van/C.UPF
     MD5 check sum: 1a69bf6b8db32088f5b2163dbdb77a27
     Pseudo is Ultrasoft, Zval =  4.0
     Generated by new atomic code, or converted to UPF format
     Using radial grid of  721 points,  4 beta functions with:
                l(1) =   0
                l(2) =   0
                l(3) =   1
                l(4) =   1
     Q(r) pseudized with  8 coefficients,  rinner =    0.800   0.800   0.800

     PseudoPot. # 5 for H  read from file:
     /storage/coda1/p-amedford6/0/shared/rich_project_chbe-medford/medford-share/data/pseudos_module/espresso/nninc/pbe/van/H.UPF
     MD5 check sum: b5ee9d7bfd3a09ee7748110bda690ff7
     Pseudo is Ultrasoft, Zval =  1.0
     Generated by new atomic code, or converted to UPF format
     Using radial grid of  615 points,  1 beta functions with:
                l(1) =   0
     Q(r) pseudized with  8 coefficients,  rinner =    0.800

     atomic species   valence    mass     pseudopotential
        Ti1           12.00    47.86700     Ti( 1.00)
        O1             6.00    15.99900     O ( 1.00)
        N1             5.00    14.00700     N ( 1.00)
        C1             4.00    12.01100     C ( 1.00)
        H1             1.00     1.00800     H ( 1.00)

     No symmetry found

   Cartesian axes

     site n.     atom                  positions (alat units)
         1           Ti1 tau(   1) = (   0.0004258   2.9801865   6.0000000  )
         2           Ti1 tau(   2) = (   3.2906075   1.4906267   6.0002472  )
         3           O1  tau(   3) = (   0.0006271   0.0005054   7.9858123  )
         4           O1  tau(   4) = (   3.2906025   0.0005020   7.3038282  )
         5           O1  tau(   5) = (   4.5942328   1.4918067   9.2879030  )
         6           O1  tau(   6) = (   1.9868534   1.4903216   9.2879459  )
         7           Ti1 tau(   7) = (   3.2907910   2.8959150   9.1758416  )
         8           Ti1 tau(   8) = (   0.0015273   1.4827037   9.2680791  )
         9           O1  tau(   9) = (   3.2817971   0.0424577  11.2706337  )
        10           O1  tau(  10) = (   0.0116148   5.9584955  10.6183126  )
        11           O1  tau(  11) = (   1.2813654   1.4951502  12.6332405  )
        12           O1  tau(  12) = (   5.2815101   1.4921423  12.6269808  )
        13           Ti1 tau(  13) = (   6.5662594   2.8603684  12.6843660  )
        14           Ti1 tau(  14) = (   3.2717346   1.4252475  12.4210995  )
        15           O1  tau(  15) = (   6.5710910   0.0045200  14.6317625  )
        16           O1  tau(  16) = (   3.2759495   0.0084639  13.8932321  )
        17           O1  tau(  17) = (   4.5517014   1.4983445  16.0008815  )
        18           O1  tau(  18) = (   2.0271237   1.5070609  16.0478782  )
        19           Ti1 tau(  19) = (   3.2345769   3.0092735  16.2435900  )
        20           Ti1 tau(  20) = (   6.4941389   1.4975806  15.8145731  )
        21           O1  tau(  21) = (   3.2904802   0.0005063   4.7018136  )
        22           O1  tau(  22) = (   6.5579512   0.0396517  17.1742205  )
        23           O1  tau(  23) = (   1.3043587   1.4918075   6.0039043  )
        24           O1  tau(  24) = (   5.2767064   1.4903225   6.0039473  )
        25           Ti1 tau(  25) = (   0.0000382   5.9609847   6.0000000  )
        26           Ti1 tau(  26) = (   3.2902200   4.4714249   6.0002472  )
        27           O1  tau(  27) = (   0.0002396   2.9813036   7.9858123  )
        28           O1  tau(  28) = (   3.2902150   2.9813002   7.3038282  )
        29           O1  tau(  29) = (   4.5938453   4.4726049   9.2879030  )
        30           O1  tau(  30) = (   1.9864658   4.4711199   9.2879459  )
        31           Ti1 tau(  31) = (   3.2891106   5.8743827   9.1763621  )
        32           Ti1 tau(  32) = (   0.0006254   4.4649316   9.2693709  )
        33           O1  tau(  33) = (   3.2800217   2.9666125  11.2981572  )
        34           O1  tau(  34) = (   0.0092240   2.9805883  10.6323155  )
        35           O1  tau(  35) = (   1.2755083   4.4823741  12.6262202  )
        36           O1  tau(  36) = (   5.2848398   4.4807727  12.6177486  )
        37           Ti1 tau(  37) = (   6.5672004   5.8338186  12.5551636  )
        38           Ti1 tau(  38) = (   3.2732152   4.2974050  12.6602233  )
        39           O1  tau(  39) = (   6.5693882   2.9786051  14.6782399  )
        40           O1  tau(  40) = (   3.2805734   3.0393479  13.9038923  )
        41           O1  tau(  41) = (   4.5335661   4.5240572  16.0872286  )
        42           O1  tau(  42) = (   2.0073973   4.5295938  16.0607137  )
        43           Ti1 tau(  43) = (   3.2598295   0.0330142  15.6732764  )
        44           Ti1 tau(  44) = (   6.5464637   4.6748829  16.0422594  )
        45           O1  tau(  45) = (   3.2900926   2.9813045   4.7018136  )
        46           O1  tau(  46) = (   1.3039711   4.4726057   6.0039043  )
        47           O1  tau(  47) = (   5.2763189   4.4711207   6.0039473  )
        48           N1  tau(  48) = (   0.1126456   2.6876119  18.6539570  )
        49           N1  tau(  49) = (   0.0165868   2.9082207  17.4746156  )
        50           C1  tau(  50) = (   0.2746321   3.7930379  19.6319179  )
        51           H1  tau(  51) = (   0.1055085   4.7742840  19.1878107  )
        52           H1  tau(  52) = (   6.1760284   3.5871646  20.4591619  )
        53           H1  tau(  53) = (   1.2982147   3.7051261  19.9977701  )
        54           O1  tau(  54) = (   3.2987527   2.9937385  18.0942264  )
        55           H1  tau(  55) = (   3.7476408   3.7224850  18.5320624  )

     number of k points=    10  Fermi-Dirac smearing, width (Ry)=  0.0073
                       cart. coord. in units 2pi/alat
        k(    1) = (   0.0000000   0.0000000   0.0000000), wk =   0.1250000
        k(    2) = (   0.0000000   0.0419351   0.0000000), wk =   0.2500000
        k(    3) = (   0.0000000  -0.0838702   0.0000000), wk =   0.1250000
        k(    4) = (   0.0379955   0.0000049   0.0000000), wk =   0.2500000
        k(    5) = (   0.0379955   0.0419400   0.0000000), wk =   0.2500000
        k(    6) = (   0.0379955  -0.0838652   0.0000000), wk =   0.2500000
        k(    7) = (   0.0379955  -0.0419301   0.0000000), wk =   0.2500000
        k(    8) = (  -0.0759910  -0.0000099   0.0000000), wk =   0.1250000
        k(    9) = (  -0.0759910   0.0419252   0.0000000), wk =   0.2500000
        k(   10) = (  -0.0759910  -0.0838800   0.0000000), wk =   0.1250000

     Initial potential from superposition of free atoms

     starting charge  385.99915, renormalised to  402.00000

     negative rho (up, down):  1.467E-02 0.000E+00

     %%%%%%%%%%%%%%%%%%%%%%%%%%%%%%%%%%%%%%%%%%%%%%%%%%%%%%%%%%%%%%%%%%%%%%%%
     %                                                                      %
     % You are using vdW-DF, which was implemented by the Thonhauser group. %
     % Please cite the following two papers that made this development      %
     % possible and the two reviews that describe the various versions:     %
     %                                                                      %
     %   T. Thonhauser et al., PRL 115, 136402 (2015).                      %
     %   T. Thonhauser et al., PRB 76, 125112 (2007).                       %
     %   K. Berland et al., Rep. Prog. Phys. 78, 066501 (2015).             %
     %   D.C. Langreth et al., J. Phys.: Condens. Matter 21, 084203 (2009). %
     %                                                                      %
     %                                                                      %
     % If you are calculating the stress with vdW-DF, please also cite:     %
     %                                                                      %
     %   R. Sabatini et al., J. Phys.: Condens. Matter 24, 424209 (2012).   %
     %                                                                      %
     %%%%%%%%%%%%%%%%%%%%%%%%%%%%%%%%%%%%%%%%%%%%%%%%%%%%%%%%%%%%%%%%%%%%%%%%

     Adding external electric field

     Computed dipole along edir(3) :
        Dipole              -11.9798 Ry au,        -30.4497 Debye
        Dipole field         -0.0226 Ry au,

        Potential amp.        2.0957 Ry
        Total length         46.3494 bohr

     Starting wfcs are  304 atomic wfcs
  @ DRIVER MODE: Message from server: STATUS
  @ DRIVER MODE: Message from server: POSDATA
  @ DRIVER MODE: Reading and sharing cell
  @ DRIVER MODE: Reading and sharing positions
  @ DRIVER MODE: Received positions

     Self-consistent Calculation

     iteration #  1     ecut=    29.40 Ry     beta= 0.05
     Davidson diagonalization with overlap
     c_bands:  4 eigenvalues not converged
     c_bands:  3 eigenvalues not converged
     c_bands:  5 eigenvalues not converged
     c_bands:  5 eigenvalues not converged
     c_bands:  3 eigenvalues not converged
     c_bands:  4 eigenvalues not converged
     c_bands:  2 eigenvalues not converged
     c_bands:  1 eigenvalues not converged
     ethr =  1.00E-05,  avg # of iterations = 25.3

[...]

     total energy              =   -2401.01191562 Ry
     estimated scf accuracy    <    6440.90905716 Ry

     iteration #  2     ecut=    29.40 Ry     beta= 0.05
     Davidson diagonalization with overlap
     ethr =  1.00E-02,  avg # of iterations = 22.8

[...]

     iteration # 44     ecut=    29.40 Ry     beta= 0.05
     Davidson diagonalization with overlap
     c_bands:  2 eigenvalues not converged
     ethr =  1.40E-06,  avg # of iterations =  5.3

[...]

     total energy              =   -2972.74449484 Ry
     estimated scf accuracy    <       0.00000010 Ry

     iteration # 65     ecut=    29.40 Ry     beta= 0.05
     Davidson diagonalization with overlap
     ethr =  2.45E-11,  avg # of iterations =  6.0

     negative rho (up, down):  1.548E-02 0.000E+00

     Adding external electric field

     Computed dipole along edir(3) :
        Dipole                0.6096 Ry au,          1.5495 Debye
        Dipole field          0.0012 Ry au,

        Potential amp.       -0.1066 Ry
        Total length         46.3494 bohr

     End of self-consistent calculation

          k = 0.0000 0.0000 0.0000 ( 18029 PWs)   bands (ev):

   -56.2386 -56.2048 -55.8237 -55.7901 -55.5913 -55.5317 -55.4830 -55.4057
   -55.3811 -55.3261 -55.2361 -55.1640 -55.0839 -55.0113 -54.9903 -54.9773
   -32.6889 -32.5310 -32.5041 -32.3971 -32.3131 -32.3045 -32.3029 -32.0714
   -32.0427 -32.0236 -31.9714 -31.9649 -31.9310 -31.8989 -31.8690 -31.8175
   -31.8081 -31.7927 -31.7546 -31.7350 -31.7300 -31.7075 -31.6946 -31.6931
   -31.6917 -31.6504 -31.6040 -31.5739 -31.5558 -31.5362 -31.5350 -31.4977
   -31.4878 -31.4277 -31.4182 -31.4080 -31.3682 -31.3443 -31.3396 -31.3207
   -31.3153 -31.2919 -31.2393 -31.2271 -31.2267 -31.2120 -31.1421 -31.0302
   -18.8594 -16.5328 -16.3977 -16.1983 -15.9882 -15.8188 -15.7273 -15.7189
   -15.6703 -15.5493 -15.5222 -15.4274 -15.3362 -15.2625 -15.2624 -15.2375
   -15.1410 -15.0846 -15.0587 -15.0182 -14.9981 -14.9915 -14.9782 -14.8799
   -14.8631 -14.8580 -14.7153 -14.6939 -14.6081 -14.3602 -14.2630 -13.5091
   -13.3969 -11.5269  -6.9373  -4.4151  -4.1760  -4.0421  -4.0148  -3.8480
    -3.7487  -3.5309  -3.4320  -3.3556  -3.2329  -3.1475  -2.9574  -2.9461
    -2.8921  -2.8227  -2.7483  -2.6893  -2.6370  -2.6263  -2.5531  -2.5146
    -2.4737  -2.4660  -2.4040  -2.3881  -2.3017  -2.2900  -2.2173  -2.1823
    -2.1515  -2.1219  -2.1022  -2.0416  -2.0339  -2.0037  -1.9724  -1.9198
    -1.8570  -1.8111  -1.7250  -1.6729  -1.6561  -1.5640  -1.5439  -1.5335
    -1.5170  -1.3217  -1.2478  -1.2263  -1.2150  -1.0672  -1.0246  -0.9998
    -0.9198  -0.8960  -0.8489  -0.8093  -0.7618  -0.7043  -0.6731  -0.6674
    -0.6427  -0.5914  -0.4043  -0.3708  -0.3218  -0.2920  -0.2545  -0.1982
    -0.1679  -0.1378  -0.0545  -0.0489  -0.0401  -0.0025   0.0474   0.1285
     0.1883   0.2084   0.3012   0.3074   0.3490   0.3836   0.4403   0.4676
     0.5514   0.5956   0.6107   0.6655   0.6856   0.8739   0.9111   0.9475
     0.9846   1.0131   1.0587   1.1727   1.2420   1.5432   1.5612   1.6007
     2.7529   2.9877   3.1166   3.2725   3.4200   3.5146   3.8242   3.8538
     3.8887   3.9487   3.9750

[...]

          k = 0.0380-0.0419 0.0000 ( 17876 PWs)   bands (ev):

[...]

          k =-0.0760-0.0000 0.0000 ( 17886 PWs)   bands (ev):

[...]

          k =-0.0760-0.0839 0.0000 ( 17948 PWs)   bands (ev):

   -56.2221 -56.2211 -55.8080 -55.8056 -55.5860 -55.5370 -55.4802 -55.4083
   -55.3751 -55.3319 -55.2342 -55.1624 -55.0857 -54.9946 -54.9939 -54.9918
   -32.5171 -32.5159 -32.5053 -32.5046 -32.3495 -32.3484 -32.1275 -32.1237
   -32.0023 -32.0003 -31.9969 -31.9952 -31.8915 -31.8529 -31.8172 -31.8094
   -31.8042 -31.7646 -31.7529 -31.7488 -31.7224 -31.7063 -31.7015 -31.6674
   -31.6633 -31.6262 -31.6211 -31.6022 -31.5946 -31.5646 -31.5584 -31.5447
   -31.4885 -31.4340 -31.4318 -31.4217 -31.3659 -31.3444 -31.3339 -31.3334
   -31.2963 -31.2959 -31.2458 -31.2288 -31.2232 -31.2222 -31.1849 -31.1841
   -18.8556 -16.3873 -15.9427 -15.9304 -15.8070 -15.8004 -15.6282 -15.6117
   -15.5909 -15.5338 -15.5126 -15.4649 -15.3248 -15.3154 -15.2556 -15.2227
   -15.1979 -15.1810 -15.1522 -15.1517 -15.1327 -15.0589 -15.0315 -15.0042
   -14.9551 -14.9511 -14.7855 -14.7196 -14.7056 -14.4923 -14.4597 -13.4999
   -13.4998 -11.5249  -6.9512  -4.3630  -4.0379  -3.9978  -3.9584  -3.1111
    -3.0564  -2.9461  -2.9193  -2.8453  -2.8231  -2.7154  -2.6918  -2.6506
    -2.6372  -2.6336  -2.5784  -2.5561  -2.5338  -2.4897  -2.4777  -2.4648
    -2.4402  -2.3924  -2.3819  -2.3633  -2.3477  -2.3316  -2.2378  -2.2327
    -2.2144  -2.1696  -2.1661  -2.1538  -2.0765  -2.0069  -1.9638  -1.9572
    -1.9253  -1.8686  -1.7908  -1.6813  -1.6597  -1.6068  -1.5787  -1.5032
    -1.4735  -1.4286  -1.3337  -1.3263  -1.2990  -1.2817  -1.2207  -1.2064
    -1.0636  -1.0303  -1.0248  -1.0180  -1.0151  -0.9180  -0.8570  -0.7972
    -0.7456  -0.6629  -0.6487  -0.6279  -0.6090  -0.6003  -0.5804  -0.5564
    -0.4948  -0.4536  -0.4030  -0.3857  -0.2818  -0.2024  -0.1683  -0.1022
    -0.0239   0.0647   0.1434   0.1568   0.1947   0.2482   0.3375   0.3786
     0.4213   0.4901   0.5321   0.6044   0.6665   0.7519   0.7756   0.8646
     0.9758   0.9927   1.0422   1.1303   1.4035   1.4102   1.4168   1.4176
     2.7585   3.5356   3.5394   3.5691   3.5774   3.7772   3.7892   3.9148
     3.9688   3.9940   4.0314

     the Fermi energy is     2.9245 ev

!    total energy              =   -2972.74452891 Ry
     estimated scf accuracy    <       0.00000006 Ry
     smearing contrib. (-TS)   =      -0.01284042 Ry
     internal energy E=F+TS    =   -2972.73168849 Ry

     The total energy is F=E-TS. E is the sum of the following terms:
     one-electron contribution =  -23700.75843040 Ry
     hartree contribution      =   11943.66701685 Ry
     xc contribution           =    -493.13189337 Ry
     ewald contribution        =    9277.49091712 Ry
     electric field correction =       0.00070131 Ry

     convergence has been achieved in  65 iterations

     Forces acting on atoms (cartesian axes, Ry/au):

     atom    1 type  1   force =     0.00009003   -0.00038479    0.10702388
     atom    2 type  1   force =    -0.00004223   -0.00169917   -0.16537495
     atom    3 type  2   force =     0.00003460   -0.00025844   -0.03866917
     atom    4 type  2   force =     0.00004459    0.00076252    0.03118385
     atom    5 type  2   force =    -0.00356249    0.00294609   -0.00839720
     atom    6 type  2   force =     0.00469982    0.00361444   -0.01016580
     atom    7 type  1   force =    -0.00073135    0.00048892    0.02121813
     atom    8 type  1   force =     0.00101188    0.01538988    0.06094073
     atom    9 type  2   force =     0.00011315   -0.00014692    0.00010570
     atom   10 type  2   force =    -0.00289516    0.00226515   -0.04712487
     atom   11 type  2   force =    -0.00004722   -0.00021246   -0.00002524
     atom   12 type  2   force =     0.00001062   -0.00003583    0.00019686
     atom   13 type  1   force =     0.00028182   -0.00013176    0.00009968
     atom   14 type  1   force =     0.00040044   -0.00015900    0.00021945
     atom   15 type  2   force =     0.00015375    0.00013704   -0.00030940
     atom   16 type  2   force =     0.00014964   -0.00016065    0.00001776
     atom   17 type  2   force =     0.00017514    0.00019509    0.00023218
     atom   18 type  2   force =     0.00010946    0.00028237    0.00002593
     atom   19 type  1   force =     0.00000176   -0.00017541   -0.00005917
     atom   20 type  1   force =    -0.00030896    0.00018142    0.00004701
     atom   21 type  2   force =     0.00010160    0.00000022    0.10028277
     atom   22 type  2   force =     0.00003585    0.00005027   -0.00021594
     atom   23 type  2   force =    -0.07669682   -0.00004757   -0.03005915
     atom   24 type  2   force =     0.07668240    0.00038505   -0.03008568
     atom   25 type  1   force =     0.00005379   -0.00043299    0.10696725
     atom   26 type  1   force =    -0.00010524    0.00063305   -0.16568100
     atom   27 type  2   force =     0.00012190   -0.00027253   -0.03748183
     atom   28 type  2   force =     0.00004476   -0.00043891    0.03536178
     atom   29 type  2   force =    -0.00569910   -0.00043636   -0.00598162
     atom   30 type  2   force =     0.00686184    0.00006241   -0.00766972
     atom   31 type  1   force =    -0.00057225   -0.00238837    0.03458887
     atom   32 type  1   force =     0.00111029   -0.01877290    0.06146247
     atom   33 type  2   force =     0.00022507   -0.00012090    0.00007132
     atom   34 type  2   force =    -0.00253843    0.00012737   -0.05383605
     atom   35 type  2   force =     0.00022404   -0.00024830   -0.00011882
     atom   36 type  2   force =     0.00017459   -0.00002430    0.00027919
     atom   37 type  1   force =     0.00035021   -0.00018223   -0.00013987
     atom   38 type  1   force =     0.00046725   -0.00020296    0.00025309
     atom   39 type  2   force =     0.00015809   -0.00044719    0.00024253
     atom   40 type  2   force =    -0.00018708   -0.00007881   -0.00005798
     atom   41 type  2   force =     0.00007144   -0.00048549    0.00014241
     atom   42 type  2   force =     0.00022199   -0.00045443    0.00010062
     atom   43 type  1   force =    -0.00025926    0.00006206   -0.00016902
     atom   44 type  1   force =    -0.00005348   -0.00028013    0.00028279
     atom   45 type  2   force =     0.00009483    0.00010997    0.10048052
     atom   46 type  2   force =    -0.07667638   -0.00005856   -0.03007061
     atom   47 type  2   force =     0.07666725    0.00036270   -0.03010012
     atom   48 type  3   force =     0.00022982   -0.00029403    0.00049629
     atom   49 type  3   force =     0.00014843    0.00010728   -0.00107326
     atom   50 type  4   force =    -0.00072389    0.00147793   -0.00031032
     atom   51 type  5   force =     0.00031512   -0.00098089    0.00072344
     atom   52 type  5   force =     0.00016862    0.00009369   -0.00058739
     atom   53 type  5   force =    -0.00038491   -0.00010587    0.00063975
     atom   54 type  2   force =    -0.00659384   -0.01024414   -0.00642316
     atom   55 type  5   force =     0.00627218    0.01062738    0.00650111

     Total force =     0.381823     Total SCF correction =     0.000553
  @ DRIVER MODE: Message from server: STATUS
  @ DRIVER MODE: Message from server: GETFORCE
  @ DRIVER MODE: Returning v,forces,stress,ensemble

     Writing output data file ./calc.save/
  @ DRIVER MODE: Message from server: EXIT
  @ DRIVE MODE: Exiting

     General routines

     Parallel routines

   This run was terminated on:  12:36:49  10Sep2021

   JOB DONE.