     Program PWSCF v.6.7GPU starts on 18Oct2021 at 17:34:24

     R & G space division:  proc/nbgrp/npool/nimage =       8
     Reading input from /storage/home/hcoda1/3/ntian30/research/carbon/CxH_vib/Thiel_calc/ads_slab/NH3NH3_perslab/out_0013/pw.inp
Warning: card &CELL ignored
Warning: card   CELL_DYNAMICS='IPI', ignored
Warning: card / ignored

     Current dimensions of program PWSCF are:
     Max number of different atomic species (ntypx) = 10
     Max number of k-points (npk) =  40000
     Max angular momentum in pseudopotentials (lmaxx) =  3
     Presently no symmetry can be used with electric field

     Message from routine cell_base_init:
     DEPRECATED: use true lattice parameter, not A to a.u. conversion factor

     IMPORTANT: XC functional enforced from input :
     Exchange-correlation= BEEF-VDW
                           (   1   4  43  14   2   0   0)
     Any further DFT definition will be discarded
     Please, verify this is what you really want

  @ DRIVER MODE: Connecting to
 qe_1139763_3255140.sched-torque.pace.gatech.eduh8lz87oj_scratch
  using UNIX socket
  @ DRIVER MODE: Message from server: STATUS
  @ DRIVER MODE: Message from server: INIT
  @ DRIVER MODE: Receiving replica           0          -1
  @ DRIVER MODE: Receiving encoded integer          25
  @ DRIVER MODE:  SCF:  T  FORCE:  T  STRESS:  F  VC:  F  ENSEMBLE:  F
  @ DRIVER MODE:  SCF:  T  FORCE:  T  STRESS:  F  VC:  F  ENSEMBLE:  F

     Using Slab Decomposition

     bravais-lattice index     =            0
     lattice parameter (alat)  =       1.8897  a.u.
     unit-cell volume          =    9988.4706 (a.u.)^3
     number of atoms/cell      =           61
     number of atomic types    =            4
     number of electrons       =       442.00
     number of Kohn-Sham states=          231
     kinetic-energy cutoff     =      29.3995  Ry
     charge density cutoff     =     293.9946  Ry
     scf convergence threshold =      7.3E-08
     mixing beta               =       0.0500
     number of iterations used =            8  plain     mixing
     Exchange-correlation= BEEF-VDW
                           (   1   4  43  14   2   0   0)

     celldm(1)=   1.889726  celldm(2)=   0.000000  celldm(3)=   0.000000
     celldm(4)=   0.000000  celldm(5)=   0.000000  celldm(6)=   0.000000

     crystal axes: (cart. coord. in units of alat)
               a(1) = (   6.579727   0.000000   0.000000 )
               a(2) = (  -0.001163   8.942395   0.000000 )
               a(3) = (   0.000000   0.000000  25.155947 )

     reciprocal axes: (cart. coord. in units 2 pi/alat)
               b(1) = (  0.151982  0.000020  0.000000 )
               b(2) = (  0.000000  0.111827  0.000000 )
               b(3) = (  0.000000  0.000000  0.039752 )

     PseudoPot. # 1 for O  read from file:
     /storage/coda1/p-amedford6/0/shared/rich_project_chbe-medford/medford-share/data/pseudos_module/espresso/nninc/pbe/van/O.UPF
     MD5 check sum: 78c19812648e8988a0fe644b0f25305e
     Pseudo is Ultrasoft, Zval =  6.0
     Generated by new atomic code, or converted to UPF format
     Using radial grid of  737 points,  4 beta functions with:
                l(1) =   0
                l(2) =   0
                l(3) =   1
                l(4) =   1
     Q(r) pseudized with  8 coefficients,  rinner =    0.800   0.800   0.800

     PseudoPot. # 2 for Ti read from file:
     /storage/coda1/p-amedford6/0/shared/rich_project_chbe-medford/medford-share/data/pseudos_module/espresso/nninc/pbe/van/Ti.UPF
     MD5 check sum: 8e4df49b7f0d34bbd5052bf3f5ea0213
     Pseudo is Ultrasoft, Zval = 12.0
     Generated by new atomic code, or converted to UPF format
     Using radial grid of  851 points,  6 beta functions with:
                l(1) =   0
                l(2) =   0
                l(3) =   1
                l(4) =   1
                l(5) =   2
                l(6) =   2
     Q(r) pseudized with  8 coefficients,  rinner =    1.000   1.000   1.000
                                                       1.000   1.000

     PseudoPot. # 3 for N  read from file:
     /storage/coda1/p-amedford6/0/shared/rich_project_chbe-medford/medford-share/data/pseudos_module/espresso/nninc/pbe/van/N.UPF
     MD5 check sum: 90d10febe142ad51ac9d5be1deb811c4
     Pseudo is Ultrasoft, Zval =  5.0
     Generated by new atomic code, or converted to UPF format
     Using radial grid of  729 points,  4 beta functions with:
                l(1) =   0
                l(2) =   0
                l(3) =   1
                l(4) =   1
     Q(r) pseudized with  8 coefficients,  rinner =    0.800   0.800   0.800

     PseudoPot. # 4 for H  read from file:
     /storage/coda1/p-amedford6/0/shared/rich_project_chbe-medford/medford-share/data/pseudos_module/espresso/nninc/pbe/van/H.UPF
     MD5 check sum: b5ee9d7bfd3a09ee7748110bda690ff7
     Pseudo is Ultrasoft, Zval =  1.0
     Generated by new atomic code, or converted to UPF format
     Using radial grid of  615 points,  1 beta functions with:
                l(1) =   0
     Q(r) pseudized with  8 coefficients,  rinner =    0.800

     atomic species   valence    mass     pseudopotential
        O1             6.00    15.99900     O ( 1.00)
        Ti1           12.00    47.86700     Ti( 1.00)
        N1             5.00    14.00700     N ( 1.00)
        H1             1.00     1.00800     H ( 1.00)

     No symmetry found

   Cartesian axes

     site n.     atom                  positions (alat units)
         1           O1  tau(   1) = (   0.0007354   0.0005023  10.5931620  )
         2           O1  tau(   2) = (   3.2905679   0.0262843  13.8966672  )
         3           O1  tau(   3) = (   0.0007290   0.0579300  17.2579193  )
         4           O1  tau(   4) = (   0.0006271   0.0005054   7.9858123  )
         5           O1  tau(   5) = (   3.2893100   8.9214726  11.1892856  )
         6           O1  tau(   6) = (   0.0005199   0.0455907  14.6396817  )
         7           O1  tau(   7) = (   1.9868534   1.4903216   9.2879459  )
         8           O1  tau(   8) = (   5.2380180   1.6024468  12.5713634  )
         9           O1  tau(   9) = (   2.0277759   1.4975965  16.1012153  )
        10           Ti1 tau(  10) = (   0.0007404   1.4906270   9.2895810  )
        11           Ti1 tau(  11) = (   3.2903786   1.3551844  12.4711573  )
        12           Ti1 tau(  12) = (   0.0003174   1.4440192  15.7330511  )
        13           O1  tau(  13) = (   4.5942328   1.4918067   9.2879030  )
        14           O1  tau(  14) = (   1.3426987   1.6023923  12.5713351  )
        15           O1  tau(  15) = (   4.5529958   1.4977110  16.1013444  )
        16           Ti1 tau(  16) = (   3.2902859   2.9801868   9.2893338  )
        17           Ti1 tau(  17) = (   0.0005333   2.8255407  12.4640987  )
        18           Ti1 tau(  18) = (   3.2895849   3.0341113  15.6952405  )
        19           O1  tau(  19) = (   0.0003479   2.9813005  10.5931620  )
        20           O1  tau(  20) = (   3.2900438   2.9627632  13.8881152  )
        21           O1  tau(  21) = (   0.0002396   2.9813036   7.9858123  )
        22           O1  tau(  22) = (   3.2902621   2.9759438  11.1922459  )
        23           O1  tau(  23) = (   0.0002943   2.9805036  14.7119039  )
        24           O1  tau(  24) = (   1.9864658   4.4711199   9.2879459  )
        25           O1  tau(  25) = (   5.2407125   4.5787950  12.5855407  )
        26           O1  tau(  26) = (   1.9842138   4.3634165  16.0604883  )
        27           Ti1 tau(  27) = (   0.0003529   4.4714252   9.2895810  )
        28           Ti1 tau(  28) = (   3.2904166   4.3402611  12.5252975  )
        29           Ti1 tau(  29) = (  -0.0003584   4.7219071  15.7914592  )
        30           O1  tau(  30) = (   4.5938453   4.4726049   9.2879030  )
        31           O1  tau(  31) = (   1.3394863   4.5787101  12.5854501  )
        32           O1  tau(  32) = (   4.5953883   4.3633133  16.0606172  )
        33           Ti1 tau(  33) = (   3.2898983   5.9609850   9.2893338  )
        34           Ti1 tau(  34) = (   0.0004309   5.8055675  12.4642027  )
        35           Ti1 tau(  35) = (   3.2895961   6.0676247  15.8182862  )
        36           O1  tau(  36) = (  -0.0000397   5.9620987  10.5931620  )
        37           O1  tau(  37) = (   3.2897974   5.9491097  13.9522666  )
        38           O1  tau(  38) = (  -0.0001005   5.9419674  17.2168411  )
        39           O1  tau(  39) = (  -0.0001480   5.9621018   7.9858123  )
        40           O1  tau(  40) = (   3.2898294   5.9516608  11.2068290  )
        41           O1  tau(  41) = (  -0.0002620   6.0093330  14.6024556  )
        42           O1  tau(  42) = (   1.9860782   7.4519181   9.2879459  )
        43           O1  tau(  43) = (   5.2335766   7.5615516  12.5803788  )
        44           O1  tau(  44) = (   2.0229086   7.4656171  16.0362607  )
        45           Ti1 tau(  45) = (  -0.0000347   7.4522234   9.2895810  )
        46           Ti1 tau(  46) = (   3.2895523   7.2794780  12.5477951  )
        47           Ti1 tau(  47) = (  -0.0001499   7.5569733  16.2601047  )
        48           O1  tau(  48) = (   4.5934577   7.4534031   9.2879030  )
        49           O1  tau(  49) = (   1.3453152   7.5613653  12.5804751  )
        50           O1  tau(  50) = (   4.5562564   7.4656138  16.0364310  )
        51           Ti1 tau(  51) = (   3.2895107   8.9417832   9.2893338  )
        52           Ti1 tau(  52) = (  -0.0004710   8.7769229  12.4586551  )
        53           Ti1 tau(  53) = (   3.2909234   0.0582169  15.6986445  )
        54           N1  tau(  54) = (   3.2892347   5.9685454  18.1810142  )
        55           H1  tau(  55) = (   3.2893406   5.0219839  18.5418895  )
        56           H1  tau(  56) = (   2.4490131   6.4368771  18.5304692  )
        57           H1  tau(  57) = (   4.1190552   6.4372901  18.5310312  )
        58           N1  tau(  58) = (  -0.0003436   2.9015831  17.9177722  )
        59           H1  tau(  59) = (   6.5794260   1.9611702  18.3102355  )
        60           H1  tau(  60) = (   5.7593157   3.3919262  18.2600543  )
        61           H1  tau(  61) = (   0.8192290   3.3923488  18.2608005  )

     number of k points=    10  Fermi-Dirac smearing, width (Ry)=  0.0073
                       cart. coord. in units 2pi/alat
        k(    1) = (   0.0000000   0.0000000   0.0000000), wk =   0.1250000
        k(    2) = (   0.0000000   0.0279567   0.0000000), wk =   0.2500000
        k(    3) = (   0.0000000  -0.0559134   0.0000000), wk =   0.1250000
        k(    4) = (   0.0379955   0.0000049   0.0000000), wk =   0.2500000
        k(    5) = (   0.0379955   0.0279617   0.0000000), wk =   0.2500000
        k(    6) = (   0.0379955  -0.0559085   0.0000000), wk =   0.2500000
        k(    7) = (   0.0379955  -0.0279518   0.0000000), wk =   0.2500000
        k(    8) = (  -0.0759910  -0.0000099   0.0000000), wk =   0.1250000
        k(    9) = (  -0.0759910   0.0279468   0.0000000), wk =   0.2500000
        k(   10) = (  -0.0759910  -0.0559233   0.0000000), wk =   0.1250000

     Initial potential from superposition of free atoms

     starting charge  423.99908, renormalised to  442.00000

     negative rho (up, down):  3.646E-02 0.000E+00

     %%%%%%%%%%%%%%%%%%%%%%%%%%%%%%%%%%%%%%%%%%%%%%%%%%%%%%%%%%%%%%%%%%%%%%%%
     %                                                                      %
     % You are using vdW-DF, which was implemented by the Thonhauser group. %
     % Please cite the following two papers that made this development      %
     % possible and the two reviews that describe the various versions:     %
     %                                                                      %
     %   T. Thonhauser et al., PRL 115, 136402 (2015).                      %
     %   T. Thonhauser et al., PRB 76, 125112 (2007).                       %
     %   K. Berland et al., Rep. Prog. Phys. 78, 066501 (2015).             %
     %   D.C. Langreth et al., J. Phys.: Condens. Matter 21, 084203 (2009). %
     %                                                                      %
     %                                                                      %
     % If you are calculating the stress with vdW-DF, please also cite:     %
     %                                                                      %
     %   R. Sabatini et al., J. Phys.: Condens. Matter 24, 424209 (2012).   %
     %                                                                      %
     %%%%%%%%%%%%%%%%%%%%%%%%%%%%%%%%%%%%%%%%%%%%%%%%%%%%%%%%%%%%%%%%%%%%%%%%

     Adding external electric field

     Computed dipole along edir(3) :
        Dipole               -6.4271 Ry au,        -16.3360 Debye
        Dipole field         -0.0081 Ry au,

        Potential amp.        0.7495 Ry
        Total length         46.3494 bohr

     Starting wfcs are  334 atomic wfcs
  @ DRIVER MODE: Message from server: STATUS
  @ DRIVER MODE: Message from server: POSDATA
  @ DRIVER MODE: Reading and sharing cell
  @ DRIVER MODE: Reading and sharing positions
  @ DRIVER MODE: Received positions

     Self-consistent Calculation

     iteration #  1     ecut=    29.40 Ry     beta= 0.05
     Davidson diagonalization with overlap
     c_bands:  1 eigenvalues not converged
     c_bands:  2 eigenvalues not converged
     c_bands:  2 eigenvalues not converged
     c_bands:  1 eigenvalues not converged
     c_bands:  3 eigenvalues not converged
     c_bands:  5 eigenvalues not converged
     c_bands:  3 eigenvalues not converged
     c_bands:  2 eigenvalues not converged
     c_bands:  3 eigenvalues not converged
     ethr =  1.00E-05,  avg # of iterations = 19.8

[...]

     total energy              =   -3273.09709340 Ry
     estimated scf accuracy    <     292.52268471 Ry

     iteration #  2     ecut=    29.40 Ry     beta= 0.05
     Davidson diagonalization with overlap
     ethr =  1.00E-02,  avg # of iterations = 15.8

[...]

     iteration # 23     ecut=    29.40 Ry     beta= 0.05
     Davidson diagonalization with overlap
     c_bands:  1 eigenvalues not converged
     c_bands:  1 eigenvalues not converged
     ethr =  5.23E-07,  avg # of iterations = 15.7

[...]

     total energy              =   -3295.91262521 Ry
     estimated scf accuracy    <       0.00000009 Ry

     iteration # 46     ecut=    29.40 Ry     beta= 0.05
     Davidson diagonalization with overlap
     ethr =  1.97E-11,  avg # of iterations =  7.3

     negative rho (up, down):  3.469E-02 0.000E+00

     Adding external electric field

     Computed dipole along edir(3) :
        Dipole                1.8673 Ry au,          4.7462 Debye
        Dipole field          0.0023 Ry au,

        Potential amp.       -0.2178 Ry
        Total length         46.3494 bohr

     End of self-consistent calculation

          k = 0.0000 0.0000 0.0000 ( 26871 PWs)   bands (ev):

   -57.5946 -57.5544 -57.5308 -57.5248 -57.4949 -57.3955 -57.3879 -57.3672
   -57.3525 -57.3274 -57.3010 -57.2820 -57.2188 -57.1596 -57.0624 -56.5665
   -56.5414 -56.5404 -33.9755 -33.9359 -33.9314 -33.9055 -33.8872 -33.8686
   -33.8666 -33.8570 -33.8306 -33.8202 -33.8095 -33.7943 -33.7777 -33.7598
   -33.7496 -33.7359 -33.7215 -33.6889 -33.6810 -33.6778 -33.6679 -33.6530
   -33.6477 -33.6449 -33.6394 -33.6077 -33.5891 -33.5857 -33.5756 -33.5613
   -33.5583 -33.5523 -33.5385 -33.5369 -33.5337 -33.5196 -33.5154 -33.5017
   -33.4999 -33.4717 -33.4127 -33.3675 -33.3392 -33.3335 -33.2398 -32.8819
   -32.8795 -32.8780 -32.8652 -32.8642 -32.7923 -32.7283 -32.7273 -32.5921
   -18.3900 -18.0505 -17.8388 -17.7848 -17.7621 -17.6866 -17.6382 -17.6183
   -17.5348 -17.4898 -17.3659 -17.3275 -17.3224 -17.3089 -17.2993 -17.2361
   -17.2235 -17.2063 -17.2038 -17.1870 -17.1828 -17.1397 -17.0668 -17.0577
   -17.0168 -17.0027 -16.9820 -16.9794 -16.9315 -16.8789 -16.8691 -16.6748
   -16.6364 -16.4823 -15.0332 -14.9760 -14.9738  -7.7369  -7.6955  -7.5142
    -7.4513  -5.7138  -5.5313  -5.4663  -5.3718  -4.9996  -4.9418  -4.9275
    -4.9015  -4.8597  -4.8187  -4.8034  -4.7786  -4.7775  -4.7338  -4.6900
    -4.6648  -4.6453  -4.5456  -4.5086  -4.4705  -4.4402  -4.4338  -4.3825
    -4.3667  -4.3270  -4.3267  -4.2783  -4.2380  -4.2272  -4.2064  -4.1386
    -4.1206  -4.0166  -3.9265  -3.8707  -3.8636  -3.8226  -3.8095  -3.7631
    -3.7410  -3.7029  -3.6818  -3.6354  -3.6114  -3.5432  -3.4912  -3.3909
    -3.2948  -3.2681  -3.2414  -3.2185  -3.1750  -3.1219  -3.0020  -2.9615
    -2.9294  -2.9079  -2.8179  -2.8167  -2.7273  -2.7109  -2.6967  -2.6524
    -2.6012  -2.5868  -2.5528  -2.4357  -2.4152  -2.3227  -2.3134  -2.3115
    -2.2819  -2.2203  -2.2086  -2.1846  -2.1627  -2.1351  -2.1210  -2.0817
    -2.0788  -1.9801  -1.9584  -1.9023  -1.8797  -1.8795  -1.7810  -1.7636
    -1.7380  -1.7256  -1.6581  -1.5741  -1.4643  -1.4132  -1.3878  -1.3848
    -1.2856  -1.2573  -1.2143  -1.1341  -0.7981  -0.6013  -0.3143  -0.2700
    -0.2696  -0.0072  -0.0056   0.1230   1.4457   1.6608   1.6822   1.8742
     1.8965   1.9403   2.0270   2.0347   2.0969   2.1964   2.2127

[...]

          k = 0.0380-0.0280 0.0000 ( 26873 PWs)   bands (ev):

[...]

          k =-0.0760-0.0000 0.0000 ( 26902 PWs)   bands (ev):

[...]

          k =-0.0760-0.0559 0.0000 ( 26868 PWs)   bands (ev):

   -57.5944 -57.5482 -57.5428 -57.5190 -57.4951 -57.3932 -57.3878 -57.3720
   -57.3496 -57.3254 -57.3055 -57.2799 -57.2186 -57.1599 -57.0623 -56.5584
   -56.5574 -56.5324 -34.0269 -34.0149 -33.9186 -33.8932 -33.8835 -33.8785
   -33.8770 -33.8554 -33.8269 -33.8138 -33.7789 -33.7444 -33.7390 -33.7361
   -33.7250 -33.6971 -33.6936 -33.6889 -33.6835 -33.6805 -33.6430 -33.6369
   -33.6340 -33.6268 -33.6086 -33.6082 -33.6056 -33.6035 -33.5997 -33.5870
   -33.5796 -33.5716 -33.5701 -33.5610 -33.5402 -33.5283 -33.5238 -33.5162
   -33.5002 -33.4260 -33.4191 -33.3729 -33.3397 -33.3352 -33.2728 -32.9704
   -32.8810 -32.8799 -32.8561 -32.7714 -32.7704 -32.7062 -32.6897 -32.6884
   -18.0799 -18.0160 -17.7514 -17.7064 -17.6900 -17.6539 -17.6361 -17.5615
   -17.5415 -17.5149 -17.5012 -17.4412 -17.3820 -17.3374 -17.3357 -17.3289
   -17.2587 -17.2536 -17.2461 -17.2416 -17.1955 -17.1812 -17.1589 -17.1151
   -17.0375 -16.9679 -16.9548 -16.9482 -16.9093 -16.8944 -16.8434 -16.7086
   -16.7009 -16.4097 -15.0317 -15.0292 -14.9126  -7.7410  -7.6854  -7.5232
    -7.4501  -5.3367  -5.3065  -5.2767  -5.2125  -5.0217  -4.8620  -4.8312
    -4.8248  -4.7870  -4.7376  -4.7104  -4.7038  -4.6948  -4.6774  -4.6627
    -4.6144  -4.6106  -4.5848  -4.5119  -4.4711  -4.4664  -4.4474  -4.4332
    -4.4273  -4.3592  -4.2845  -4.2173  -4.1713  -4.1543  -4.1401  -4.0924
    -4.0557  -4.0259  -3.9831  -3.9724  -3.9043  -3.7956  -3.7123  -3.6725
    -3.6721  -3.6315  -3.5824  -3.5809  -3.4804  -3.4164  -3.3440  -3.2119
    -3.2058  -3.1933  -3.1686  -3.1545  -3.1152  -3.1048  -3.0804  -3.0291
    -3.0191  -2.9975  -2.9368  -2.8705  -2.7844  -2.7573  -2.7240  -2.7178
    -2.6928  -2.6821  -2.6544  -2.6514  -2.6173  -2.6085  -2.5545  -2.5271
    -2.4762  -2.4484  -2.4050  -2.3197  -2.3038  -2.2817  -2.1903  -2.1277
    -2.1109  -2.1058  -2.0768  -2.0295  -1.9327  -1.8390  -1.8030  -1.7587
    -1.6470  -1.6467  -1.6428  -1.6271  -1.5532  -1.5388  -1.3353  -1.3232
    -1.2640  -1.1886  -1.1490  -1.1131  -1.1108  -0.8934  -0.4829  -0.1995
    -0.1864  -0.1629  -0.0102  -0.0051   1.5918   1.6737   1.7086   1.7581
     1.7939   1.7971   1.8031   1.8668   1.9306   1.9405   2.1812

     the Fermi energy is     1.5298 ev

!    total energy              =   -3295.91278942 Ry
     estimated scf accuracy    <       0.00000007 Ry
     smearing contrib. (-TS)   =      -0.03397691 Ry
     internal energy E=F+TS    =   -3295.87881250 Ry

     The total energy is F=E-TS. E is the sum of the following terms:
     one-electron contribution =  -34427.40014166 Ry
     hartree contribution      =   17282.20709062 Ry
     xc contribution           =    -543.75061021 Ry
     ewald contribution        =   14393.06046210 Ry
     electric field correction =       0.00438664 Ry

     convergence has been achieved in  46 iterations

     Forces acting on atoms (cartesian axes, Ry/au):

     atom    1 type  1   force =     0.00001595    0.00450245    0.05616532
     atom    2 type  1   force =     0.00000066   -0.00094554   -0.00073563
     atom    3 type  1   force =    -0.00000120    0.00145690   -0.00021609
     atom    4 type  1   force =     0.00005871    0.00031042    0.10698732
     atom    5 type  1   force =     0.00000194    0.00082319    0.00982961
     atom    6 type  1   force =     0.00000443   -0.00264003    0.00109332
     atom    7 type  1   force =     0.06729382   -0.00022441   -0.02911954
     atom    8 type  1   force =     0.00475029   -0.02827863    0.00257515
     atom    9 type  1   force =     0.00734476   -0.00159771   -0.00303699
     atom   10 type  2   force =    -0.00005350   -0.00148905   -0.18423553
     atom   11 type  2   force =     0.00003749    0.02163748   -0.00779705
     atom   12 type  2   force =     0.00003148   -0.00244487    0.01228018
     atom   13 type  1   force =    -0.06739472   -0.00068746   -0.02908675
     atom   14 type  1   force =    -0.00477631   -0.02827998    0.00257591
     atom   15 type  1   force =    -0.00736884   -0.00159800   -0.00305250
     atom   16 type  2   force =     0.00009528    0.00013659    0.06634045
     atom   17 type  2   force =    -0.00001254    0.03588213    0.00368345
     atom   18 type  2   force =     0.00002206   -0.01056623   -0.00433250
     atom   19 type  1   force =     0.00002000    0.00444135    0.05988800
     atom   20 type  1   force =    -0.00000329    0.00083724   -0.00596119
     atom   21 type  1   force =     0.00005779    0.00018903    0.10722507
     atom   22 type  1   force =    -0.00000111   -0.00065762    0.00887308
     atom   23 type  1   force =    -0.00000514    0.00498805    0.00315167
     atom   24 type  1   force =     0.06804440    0.00051613   -0.02901592
     atom   25 type  1   force =     0.00341715   -0.02997002    0.00208651
     atom   26 type  1   force =     0.01010389    0.02031537    0.00203236
     atom   27 type  2   force =    -0.00005941    0.00003516   -0.18366609
     atom   28 type  2   force =     0.00003677    0.02157583   -0.00597027
     atom   29 type  2   force =     0.00000809   -0.02179150   -0.00601211
     atom   30 type  1   force =    -0.06814515    0.00006841   -0.02898575
     atom   31 type  1   force =    -0.00344976   -0.02995645    0.00209582
     atom   32 type  1   force =    -0.01012871    0.02031282    0.00201302
     atom   33 type  2   force =     0.00010712   -0.00025452    0.06934761
     atom   34 type  2   force =    -0.00001179    0.03687866    0.00368944
     atom   35 type  2   force =     0.00001988   -0.02928646    0.01047391
     atom   36 type  1   force =     0.00002452    0.00481624    0.05629554
     atom   37 type  1   force =    -0.00000888    0.00206077   -0.00521791
     atom   38 type  1   force =     0.00002054    0.00428215    0.00000046
     atom   39 type  1   force =     0.00005703    0.00002212    0.10681365
     atom   40 type  1   force =    -0.00000455   -0.00059983    0.00813680
     atom   41 type  1   force =     0.00000294    0.00068055    0.00252441
     atom   42 type  1   force =     0.06807078   -0.00121182   -0.02960992
     atom   43 type  1   force =     0.00353032   -0.02805151    0.00205598
     atom   44 type  1   force =     0.01049803    0.01133829    0.00279389
     atom   45 type  2   force =    -0.00005790   -0.00196987   -0.18350944
     atom   46 type  2   force =     0.00003229    0.01957738   -0.00653900
     atom   47 type  2   force =    -0.00003017   -0.01024301   -0.01275915
     atom   48 type  1   force =    -0.06816437   -0.00165314   -0.02957432
     atom   49 type  1   force =    -0.00354799   -0.02805161    0.00205434
     atom   50 type  1   force =    -0.01054167    0.01132211    0.00280770
     atom   51 type  2   force =     0.00009712   -0.00308699    0.06761531
     atom   52 type  2   force =    -0.00001717    0.03494403    0.00626594
     atom   53 type  2   force =     0.00000797    0.00510348    0.00134522
     atom   54 type  3   force =    -0.01074926    0.00546042    0.00090188
     atom   55 type  4   force =     0.00006189   -0.00154487   -0.00035830
     atom   56 type  4   force =     0.01024021   -0.00477522   -0.00376882
     atom   57 type  4   force =     0.00040503    0.00116053    0.00070584
     atom   58 type  3   force =     0.00010854   -0.00182678    0.00125230
     atom   59 type  4   force =    -0.00000387   -0.00006408    0.00015889
     atom   60 type  4   force =     0.00070729   -0.00093861   -0.00077666
     atom   61 type  4   force =    -0.00079916   -0.00098945   -0.00079791

     Total force =     0.455111     Total SCF correction =     0.000532
  @ DRIVER MODE: Message from server: STATUS
  @ DRIVER MODE: Message from server: GETFORCE
  @ DRIVER MODE: Returning v,forces,stress,ensemble

     Writing output data file ./calc.save/
  @ DRIVER MODE: Message from server: EXIT
  @ DRIVE MODE: Exiting

     General routines

     Parallel routines

   This run was terminated on:  17:59: 4  18Oct2021

   JOB DONE.