     Program PWSCF v.6.7GPU starts on 15Sep2021 at 16:11:29

     R & G space division:  proc/nbgrp/npool/nimage =      10
     Reading input from /storage/home/hcoda1/3/ntian30/research/carbon/CxH_vib/H2O_calc/ads_slab/CH3NHNHH2O_a/out_0002/pw.inp
Warning: card &CELL ignored
Warning: card   CELL_DYNAMICS='IPI', ignored
Warning: card / ignored

     Current dimensions of program PWSCF are:
     Max number of different atomic species (ntypx) = 10
     Max number of k-points (npk) =  40000
     Max angular momentum in pseudopotentials (lmaxx) =  3
     Presently no symmetry can be used with electric field

     Message from routine cell_base_init:
     DEPRECATED: use true lattice parameter, not A to a.u. conversion factor

     IMPORTANT: XC functional enforced from input :
     Exchange-correlation= BEEF-VDW
                           (   1   4  43  14   2   0   0)
     Any further DFT definition will be discarded
     Please, verify this is what you really want

  @ DRIVER MODE: Connecting to
 qe_1139763_2852620.sched-torque.pace.gatech.edun4ykbolf_scratch
  using UNIX socket
  @ DRIVER MODE: Message from server: STATUS
  @ DRIVER MODE: Message from server: INIT
  @ DRIVER MODE: Receiving replica           0          -1
  @ DRIVER MODE: Receiving encoded integer          25
  @ DRIVER MODE:  SCF:  T  FORCE:  T  STRESS:  F  VC:  F  ENSEMBLE:  F
  @ DRIVER MODE:  SCF:  T  FORCE:  T  STRESS:  F  VC:  F  ENSEMBLE:  F

     Using Slab Decomposition

     bravais-lattice index     =            0
     lattice parameter (alat)  =       1.8897  a.u.
     unit-cell volume          =    6658.9804 (a.u.)^3
     number of atoms/cell      =           58
     number of atomic types    =            5
     number of electrons       =       405.00
     number of Kohn-Sham states=          212
     kinetic-energy cutoff     =      29.3995  Ry
     charge density cutoff     =     293.9946  Ry
     scf convergence threshold =      7.3E-08
     mixing beta               =       0.0500
     number of iterations used =            8  plain     mixing
     Exchange-correlation= BEEF-VDW
                           (   1   4  43  14   2   0   0)

     celldm(1)=   1.889726  celldm(2)=   0.000000  celldm(3)=   0.000000
     celldm(4)=   0.000000  celldm(5)=   0.000000  celldm(6)=   0.000000

     crystal axes: (cart. coord. in units of alat)
               a(1) = (   6.579727   0.000000   0.000000 )
               a(2) = (  -0.000775   5.961596   0.000000 )
               a(3) = (   0.000000   0.000000  25.155947 )

     reciprocal axes: (cart. coord. in units 2 pi/alat)
               b(1) = (  0.151982  0.000020  0.000000 )
               b(2) = (  0.000000  0.167740  0.000000 )
               b(3) = (  0.000000  0.000000  0.039752 )

     PseudoPot. # 1 for Ti read from file:
     /storage/coda1/p-amedford6/0/shared/rich_project_chbe-medford/medford-share/data/pseudos_module/espresso/nninc/pbe/van/Ti.UPF
     MD5 check sum: 8e4df49b7f0d34bbd5052bf3f5ea0213
     Pseudo is Ultrasoft, Zval = 12.0
     Generated by new atomic code, or converted to UPF format
     Using radial grid of  851 points,  6 beta functions with:
                l(1) =   0
                l(2) =   0
                l(3) =   1
                l(4) =   1
                l(5) =   2
                l(6) =   2
     Q(r) pseudized with  8 coefficients,  rinner =    1.000   1.000   1.000
                                                       1.000   1.000

     PseudoPot. # 2 for O  read from file:
     /storage/coda1/p-amedford6/0/shared/rich_project_chbe-medford/medford-share/data/pseudos_module/espresso/nninc/pbe/van/O.UPF
     MD5 check sum: 78c19812648e8988a0fe644b0f25305e
     Pseudo is Ultrasoft, Zval =  6.0
     Generated by new atomic code, or converted to UPF format
     Using radial grid of  737 points,  4 beta functions with:
                l(1) =   0
                l(2) =   0
                l(3) =   1
                l(4) =   1
     Q(r) pseudized with  8 coefficients,  rinner =    0.800   0.800   0.800

     PseudoPot. # 3 for N  read from file:
     /storage/coda1/p-amedford6/0/shared/rich_project_chbe-medford/medford-share/data/pseudos_module/espresso/nninc/pbe/van/N.UPF
     MD5 check sum: 90d10febe142ad51ac9d5be1deb811c4
     Pseudo is Ultrasoft, Zval =  5.0
     Generated by new atomic code, or converted to UPF format
     Using radial grid of  729 points,  4 beta functions with:
                l(1) =   0
                l(2) =   0
                l(3) =   1
                l(4) =   1
     Q(r) pseudized with  8 coefficients,  rinner =    0.800   0.800   0.800

     PseudoPot. # 4 for C  read from file:
     /storage/coda1/p-amedford6/0/shared/rich_project_chbe-medford/medford-share/data/pseudos_module/espresso/nninc/pbe/van/C.UPF
     MD5 check sum: 1a69bf6b8db32088f5b2163dbdb77a27
     Pseudo is Ultrasoft, Zval =  4.0
     Generated by new atomic code, or converted to UPF format
     Using radial grid of  721 points,  4 beta functions with:
                l(1) =   0
                l(2) =   0
                l(3) =   1
                l(4) =   1
     Q(r) pseudized with  8 coefficients,  rinner =    0.800   0.800   0.800

     PseudoPot. # 5 for H  read from file:
     /storage/coda1/p-amedford6/0/shared/rich_project_chbe-medford/medford-share/data/pseudos_module/espresso/nninc/pbe/van/H.UPF
     MD5 check sum: b5ee9d7bfd3a09ee7748110bda690ff7
     Pseudo is Ultrasoft, Zval =  1.0
     Generated by new atomic code, or converted to UPF format
     Using radial grid of  615 points,  1 beta functions with:
                l(1) =   0
     Q(r) pseudized with  8 coefficients,  rinner =    0.800

     atomic species   valence    mass     pseudopotential
        Ti1           12.00    47.86700     Ti( 1.00)
        O1             6.00    15.99900     O ( 1.00)
        N1             5.00    14.00700     N ( 1.00)
        C1             4.00    12.01100     C ( 1.00)
        H1             1.00     1.00800     H ( 1.00)

     No symmetry found

   Cartesian axes

     site n.     atom                  positions (alat units)
         1           Ti1 tau(   1) = (   0.0004258   2.9801865   6.0000000  )
         2           Ti1 tau(   2) = (   3.2906075   1.4906267   6.0002472  )
         3           O1  tau(   3) = (   0.0006271   0.0005054   7.9858123  )
         4           O1  tau(   4) = (   3.2906025   0.0005020   7.3038282  )
         5           O1  tau(   5) = (   4.5942328   1.4918067   9.2879030  )
         6           O1  tau(   6) = (   1.9868534   1.4903216   9.2879459  )
         7           Ti1 tau(   7) = (   3.2907910   2.8959150   9.1758416  )
         8           Ti1 tau(   8) = (   0.0015273   1.4827037   9.2680791  )
         9           O1  tau(   9) = (   3.2925356   5.9605122  11.3387169  )
        10           O1  tau(  10) = (   0.0116148   5.9584955  10.6183126  )
        11           O1  tau(  11) = (   1.2897729   1.4809555  12.6268520  )
        12           O1  tau(  12) = (   5.2791511   1.4810064  12.6173870  )
        13           Ti1 tau(  13) = (   0.0595640   3.0140846  12.5912772  )
        14           Ti1 tau(  14) = (   3.3761946   1.4800080  12.4968112  )
        15           O1  tau(  15) = (   6.5629824   0.0009262  14.6613707  )
        16           O1  tau(  16) = (   3.3123588   5.9604043  13.9421911  )
        17           O1  tau(  17) = (   4.5376415   1.5680301  16.0260299  )
        18           O1  tau(  18) = (   2.0142527   1.4857506  15.9764776  )
        19           Ti1 tau(  19) = (   3.2467940   3.0138708  15.6952036  )
        20           Ti1 tau(  20) = (   6.5376764   1.5432071  15.7832198  )
        21           O1  tau(  21) = (   3.2904802   0.0005063   4.7018136  )
        22           O1  tau(  22) = (   6.4898080   0.0110182  17.2547379  )
        23           O1  tau(  23) = (   1.3043587   1.4918075   6.0039043  )
        24           O1  tau(  24) = (   5.2767064   1.4903225   6.0039473  )
        25           Ti1 tau(  25) = (   0.0000382   5.9609847   6.0000000  )
        26           Ti1 tau(  26) = (   3.2902200   4.4714249   6.0002472  )
        27           O1  tau(  27) = (   0.0002396   2.9813036   7.9858123  )
        28           O1  tau(  28) = (   3.2902150   2.9813002   7.3038282  )
        29           O1  tau(  29) = (   4.5938453   4.4726049   9.2879030  )
        30           O1  tau(  30) = (   1.9864658   4.4711199   9.2879459  )
        31           Ti1 tau(  31) = (   3.2891106   5.8743827   9.1763621  )
        32           Ti1 tau(  32) = (   0.0006254   4.4649316   9.2693709  )
        33           O1  tau(  33) = (   3.2967638   2.9790471  11.3409087  )
        34           O1  tau(  34) = (   0.0092240   2.9805883  10.6323155  )
        35           O1  tau(  35) = (   1.2869154   4.4778632  12.6304858  )
        36           O1  tau(  36) = (   5.2845859   4.4648683  12.6187650  )
        37           Ti1 tau(  37) = (   0.0627082   0.0241251  12.5486904  )
        38           Ti1 tau(  38) = (   3.3788516   4.4738568  12.4976958  )
        39           O1  tau(  39) = (   6.5772583   2.9562949  14.6416036  )
        40           O1  tau(  40) = (   3.2725681   2.9944745  13.9013672  )
        41           O1  tau(  41) = (   4.5452577   4.4055011  16.0651929  )
        42           O1  tau(  42) = (   2.0228361   4.5129635  16.0417754  )
        43           Ti1 tau(  43) = (   3.2583029   0.0391736  15.7773877  )
        44           Ti1 tau(  44) = (   6.5476622   4.6515957  16.1089089  )
        45           O1  tau(  45) = (   3.2900926   2.9813045   4.7018136  )
        46           O1  tau(  46) = (   1.3039711   4.4726057   6.0039043  )
        47           O1  tau(  47) = (   5.2763189   4.4711207   6.0039473  )
        48           N1  tau(  48) = (   1.2375869   2.8250850  18.3327965  )
        49           N1  tau(  49) = (   0.1007212   2.9268546  17.4424539  )
        50           C1  tau(  50) = (   0.9834745   3.5098297  19.5973225  )
        51           H1  tau(  51) = (   0.0800711   3.1483545  20.1177682  )
        52           H1  tau(  52) = (   1.8428167   3.3484677  20.2521386  )
        53           H1  tau(  53) = (   0.8645268   4.5787652  19.4145101  )
        54           H1  tau(  54) = (   1.4038961   1.8348574  18.5000659  )
        55           H1  tau(  55) = (   5.8167727   2.7947134  17.9807349  )
        56           O1  tau(  56) = (   3.6251350   0.0523402  18.1652986  )
        57           H1  tau(  57) = (   4.6063402   0.0342754  18.1216558  )
        58           H1  tau(  58) = (   3.3562690   5.1322054  18.4688733  )

     number of k points=    10  Fermi-Dirac smearing, width (Ry)=  0.0073
                       cart. coord. in units 2pi/alat
        k(    1) = (   0.0000000   0.0000000   0.0000000), wk =   0.1250000
        k(    2) = (   0.0000000   0.0419351   0.0000000), wk =   0.2500000
        k(    3) = (   0.0000000  -0.0838702   0.0000000), wk =   0.1250000
        k(    4) = (   0.0379955   0.0000049   0.0000000), wk =   0.2500000
        k(    5) = (   0.0379955   0.0419400   0.0000000), wk =   0.2500000
        k(    6) = (   0.0379955  -0.0838652   0.0000000), wk =   0.2500000
        k(    7) = (   0.0379955  -0.0419301   0.0000000), wk =   0.2500000
        k(    8) = (  -0.0759910  -0.0000099   0.0000000), wk =   0.1250000
        k(    9) = (  -0.0759910   0.0419252   0.0000000), wk =   0.2500000
        k(   10) = (  -0.0759910  -0.0838800   0.0000000), wk =   0.1250000

     Initial potential from superposition of free atoms

     starting charge  388.99913, renormalised to  405.00000

     negative rho (up, down):  1.444E-02 0.000E+00

     %%%%%%%%%%%%%%%%%%%%%%%%%%%%%%%%%%%%%%%%%%%%%%%%%%%%%%%%%%%%%%%%%%%%%%%%
     %                                                                      %
     % You are using vdW-DF, which was implemented by the Thonhauser group. %
     % Please cite the following two papers that made this development      %
     % possible and the two reviews that describe the various versions:     %
     %                                                                      %
     %   T. Thonhauser et al., PRL 115, 136402 (2015).                      %
     %   T. Thonhauser et al., PRB 76, 125112 (2007).                       %
     %   K. Berland et al., Rep. Prog. Phys. 78, 066501 (2015).             %
     %   D.C. Langreth et al., J. Phys.: Condens. Matter 21, 084203 (2009). %
     %                                                                      %
     %                                                                      %
     % If you are calculating the stress with vdW-DF, please also cite:     %
     %                                                                      %
     %   R. Sabatini et al., J. Phys.: Condens. Matter 24, 424209 (2012).   %
     %                                                                      %
     %%%%%%%%%%%%%%%%%%%%%%%%%%%%%%%%%%%%%%%%%%%%%%%%%%%%%%%%%%%%%%%%%%%%%%%%

     Adding external electric field

     Computed dipole along edir(3) :
        Dipole              -14.1501 Ry au,        -35.9660 Debye
        Dipole field         -0.0267 Ry au,

        Potential amp.        2.4753 Ry
        Total length         46.3494 bohr

     Starting wfcs are  307 atomic wfcs
  @ DRIVER MODE: Message from server: STATUS
  @ DRIVER MODE: Message from server: POSDATA
  @ DRIVER MODE: Reading and sharing cell
  @ DRIVER MODE: Reading and sharing positions
  @ DRIVER MODE: Received positions

     Self-consistent Calculation

     iteration #  1     ecut=    29.40 Ry     beta= 0.05
     Davidson diagonalization with overlap
     c_bands:  4 eigenvalues not converged
     c_bands:  5 eigenvalues not converged
     c_bands:  1 eigenvalues not converged
     c_bands:  1 eigenvalues not converged
     c_bands:  3 eigenvalues not converged
     c_bands:  2 eigenvalues not converged
     ethr =  1.00E-05,  avg # of iterations = 27.4

[...]

     total energy              =   -2232.56990046 Ry
     estimated scf accuracy    <    8443.04601264 Ry

     iteration #  2     ecut=    29.40 Ry     beta= 0.05
     Davidson diagonalization with overlap
     ethr =  1.00E-02,  avg # of iterations = 28.1

[...]

     iteration # 48     ecut=    29.40 Ry     beta= 0.05
     Davidson diagonalization with overlap
     c_bands:  1 eigenvalues not converged
     ethr =  3.89E-07,  avg # of iterations = 13.7

[...]

     total energy              =   -2976.50543815 Ry
     estimated scf accuracy    <       0.00000008 Ry

     iteration # 67     ecut=    29.40 Ry     beta= 0.05
     Davidson diagonalization with overlap
     ethr =  1.86E-11,  avg # of iterations = 10.6

     negative rho (up, down):  1.504E-02 0.000E+00

     Adding external electric field

     Computed dipole along edir(3) :
        Dipole                0.9878 Ry au,          2.5106 Debye
        Dipole field          0.0019 Ry au,

        Potential amp.       -0.1728 Ry
        Total length         46.3494 bohr

     End of self-consistent calculation

          k = 0.0000 0.0000 0.0000 ( 18029 PWs)   bands (ev):

   -55.5093 -55.4787 -55.4753 -55.4452 -55.4426 -55.3575 -55.3269 -55.3248
   -55.3224 -55.2929 -55.2919 -55.2582 -55.0489 -54.8855 -54.4924 -54.4584
   -32.0230 -31.9931 -31.8813 -31.8586 -31.8250 -31.8019 -31.7832 -31.7821
   -31.7539 -31.7103 -31.6987 -31.6791 -31.6758 -31.6615 -31.6557 -31.6339
   -31.6149 -31.6097 -31.6082 -31.5761 -31.5663 -31.5573 -31.5314 -31.5199
   -31.5170 -31.5149 -31.5119 -31.5063 -31.4914 -31.4830 -31.4797 -31.4701
   -31.4680 -31.4564 -31.4453 -31.4359 -31.4041 -31.3047 -31.2591 -31.1487
   -31.1401 -31.0759 -30.8997 -30.8109 -30.7885 -30.7164 -30.6299 -30.5189
   -18.7230 -16.5080 -16.2185 -15.9819 -15.7585 -15.6664 -15.6242 -15.4273
   -15.3331 -15.2485 -15.1281 -15.0767 -15.0513 -15.0434 -15.0303 -15.0044
   -14.9704 -14.9642 -14.9614 -14.9372 -14.9175 -14.8666 -14.8601 -14.8537
   -14.7601 -14.6958 -14.6612 -14.6481 -14.6384 -14.5730 -14.2008 -12.9946
   -12.8781 -11.6319  -8.8851  -6.4610  -5.1341  -4.2571  -3.6954  -3.5938
    -3.4658  -3.4182  -3.3695  -3.3417  -3.1496  -3.0928  -2.9414  -2.7701
    -2.6965  -2.6583  -2.6248  -2.5895  -2.5539  -2.4320  -2.4074  -2.3328
    -2.3182  -2.3067  -2.2745  -2.2648  -2.2502  -2.2330  -2.1556  -2.1468
    -2.0614  -1.9473  -1.8991  -1.8841  -1.8654  -1.8246  -1.7866  -1.7739
    -1.7605  -1.7419  -1.7290  -1.6912  -1.5754  -1.5245  -1.4443  -1.3660
    -1.2948  -1.2049  -1.1304  -1.0979  -1.0338  -1.0080  -0.9496  -0.9247
    -0.9055  -0.9030  -0.7873  -0.6786  -0.6600  -0.5905  -0.5304  -0.4537
    -0.4102  -0.3844  -0.3155  -0.2819  -0.2712  -0.2575  -0.2312  -0.2167
    -0.1623  -0.0131   0.0641   0.0825   0.1414   0.1821   0.2332   0.2588
     0.2867   0.3343   0.3658   0.4057   0.4554   0.4590   0.4711   0.4954
     0.5095   0.6689   0.7242   0.7571   0.7826   0.8314   0.9435   0.9865
     1.1400   1.2048   1.2720   1.4562   1.5300   1.6112   1.7216   2.0332
     2.1014   2.1473   3.6163   3.7087   3.7496   3.7711   3.8582   3.8605
     4.0714   4.1163   4.1243   4.1910

[...]

          k = 0.0380-0.0419 0.0000 ( 17876 PWs)   bands (ev):

[...]

          k =-0.0760-0.0000 0.0000 ( 17886 PWs)   bands (ev):

[...]

          k =-0.0760-0.0839 0.0000 ( 17948 PWs)   bands (ev):

   -55.4926 -55.4919 -55.4628 -55.4584 -55.4426 -55.3433 -55.3366 -55.3272
   -55.3099 -55.3094 -55.2762 -55.2740 -55.0474 -54.8869 -54.4754 -54.4753
   -31.8364 -31.8197 -31.8086 -31.8081 -31.7876 -31.7869 -31.7466 -31.7392
   -31.7312 -31.7033 -31.6923 -31.6731 -31.6574 -31.6558 -31.6306 -31.6283
   -31.6260 -31.6240 -31.6158 -31.6152 -31.6127 -31.6113 -31.6109 -31.5591
   -31.5506 -31.5444 -31.5365 -31.5257 -31.5117 -31.5106 -31.5064 -31.5019
   -31.4917 -31.4891 -31.4836 -31.4817 -31.4103 -31.3074 -31.2546 -31.2101
   -31.1512 -31.1036 -30.8013 -30.8012 -30.7125 -30.7124 -30.6732 -30.6732
   -18.7216 -16.4822 -15.6561 -15.5851 -15.4694 -15.4404 -15.3806 -15.3303
   -15.3129 -15.2436 -15.2077 -15.1952 -15.1429 -15.1406 -15.0923 -15.0690
   -15.0423 -15.0383 -15.0232 -14.9806 -14.9701 -14.9549 -14.9507 -14.9473
   -14.8697 -14.8344 -14.8302 -14.8251 -14.7559 -14.6220 -14.3499 -12.9799
   -12.9798 -11.6391  -8.8940  -6.4568  -5.1376  -4.2518  -3.6385  -3.0813
    -2.9414  -2.7838  -2.7185  -2.6375  -2.6368  -2.5942  -2.4683  -2.4445
    -2.4074  -2.3784  -2.3486  -2.3379  -2.3293  -2.3267  -2.3128  -2.2987
    -2.2856  -2.2464  -2.2005  -2.1853  -2.1768  -2.1719  -2.1571  -2.1422
    -2.1287  -2.1261  -2.0889  -2.0608  -2.0329  -1.9956  -1.9440  -1.7434
    -1.7154  -1.6946  -1.6606  -1.6557  -1.6436  -1.6104  -1.5714  -1.5621
    -1.4885  -1.4010  -1.3135  -1.2355  -1.2025  -1.1897  -1.1202  -1.0342
    -0.9935  -0.9544  -0.9168  -0.8569  -0.7979  -0.7600  -0.7225  -0.6412
    -0.6231  -0.6130  -0.5515  -0.5337  -0.4753  -0.4670  -0.3886  -0.3455
    -0.3090  -0.2638  -0.2362  -0.2305  -0.2114  -0.1771  -0.1691  -0.1139
     0.0011   0.0098   0.0291   0.1343   0.2238   0.4619   0.5186   0.5510
     0.6314   0.6939   0.7555   0.7765   0.7983   0.8021   0.8381   0.8989
     1.0125   1.0225   1.0612   1.1492   1.1730   1.8933   1.8941   1.9670
     1.9673   2.0322   3.9285   3.9549   3.9807   4.0166   4.1169   4.1342
     4.1565   4.1586   4.2721   4.2929

     the Fermi energy is     3.6216 ev

!    total energy              =   -2976.50547946 Ry
     estimated scf accuracy    <       0.00000005 Ry
     smearing contrib. (-TS)   =      -0.02132398 Ry
     internal energy E=F+TS    =   -2976.48415548 Ry

     The total energy is F=E-TS. E is the sum of the following terms:
     one-electron contribution =  -23892.06852377 Ry
     hartree contribution      =   12042.57427396 Ry
     xc contribution           =    -495.74814399 Ry
     ewald contribution        =    9368.75639711 Ry
     electric field correction =       0.00184122 Ry

     convergence has been achieved in  67 iterations

     Forces acting on atoms (cartesian axes, Ry/au):

     atom    1 type  1   force =     0.00016236   -0.00028142    0.09584450
     atom    2 type  1   force =    -0.00022781   -0.00063192   -0.17569217
     atom    3 type  2   force =     0.00006134   -0.00014868   -0.02382833
     atom    4 type  2   force =     0.00006144   -0.00154251    0.05351191
     atom    5 type  2   force =    -0.01127846   -0.00076457    0.00356335
     atom    6 type  2   force =     0.01298044    0.00005607    0.00268840
     atom    7 type  1   force =    -0.00095682    0.00066069   -0.00790327
     atom    8 type  1   force =     0.00042277    0.00624526    0.02299821
     atom    9 type  2   force =    -0.00005508   -0.00030591   -0.00095439
     atom   10 type  2   force =    -0.00137093    0.00127942   -0.01514509
     atom   11 type  2   force =    -0.00031204    0.00024207   -0.00023673
     atom   12 type  2   force =    -0.00021965    0.00022257   -0.00033828
     atom   13 type  1   force =     0.00075325   -0.00046201    0.00030076
     atom   14 type  1   force =    -0.00018911    0.00042266    0.00150913
     atom   15 type  2   force =    -0.00001618   -0.00012162    0.00034790
     atom   16 type  2   force =     0.00026548    0.00005764    0.00011378
     atom   17 type  2   force =     0.00070000   -0.00022470    0.00039041
     atom   18 type  2   force =     0.00018873   -0.00055328    0.00029990
     atom   19 type  1   force =    -0.00136999    0.00024127    0.00074846
     atom   20 type  1   force =     0.00083897    0.00016031    0.00002487
     atom   21 type  2   force =     0.00008300   -0.00009080    0.10325204
     atom   22 type  2   force =    -0.00073995   -0.00052048   -0.00063399
     atom   23 type  2   force =    -0.07142619   -0.00019004   -0.02770781
     atom   24 type  2   force =     0.07139262    0.00027342   -0.02771135
     atom   25 type  1   force =     0.00002221   -0.00031193    0.09556372
     atom   26 type  1   force =    -0.00017351   -0.00030834   -0.17598459
     atom   27 type  2   force =     0.00009647   -0.00011817   -0.02293204
     atom   28 type  2   force =     0.00011449   -0.00127409    0.05316504
     atom   29 type  2   force =    -0.01152675    0.00015032    0.00362386
     atom   30 type  2   force =     0.01317688    0.00046420    0.00271463
     atom   31 type  1   force =    -0.00100706    0.00374006   -0.01101854
     atom   32 type  1   force =     0.00050083   -0.00740797    0.02340009
     atom   33 type  2   force =    -0.00023823    0.00031006   -0.00032319
     atom   34 type  2   force =    -0.00033368    0.00024816   -0.02187317
     atom   35 type  2   force =     0.00010033    0.00030209   -0.00037562
     atom   36 type  2   force =    -0.00037459    0.00030288   -0.00029741
     atom   37 type  1   force =     0.00041117    0.00056829   -0.00024558
     atom   38 type  1   force =    -0.00023115   -0.00042620    0.00135868
     atom   39 type  2   force =    -0.00006420   -0.00031674    0.00039818
     atom   40 type  2   force =     0.00033244    0.00008604   -0.00084776
     atom   41 type  2   force =     0.00120710    0.00050835    0.00014296
     atom   42 type  2   force =    -0.00064829    0.00043066   -0.00013711
     atom   43 type  1   force =    -0.00102781   -0.00108933   -0.00011846
     atom   44 type  1   force =     0.00086515    0.00034720   -0.00006017
     atom   45 type  2   force =     0.00008440   -0.00010181    0.10325506
     atom   46 type  2   force =    -0.07143938   -0.00013533   -0.02769001
     atom   47 type  2   force =     0.07143434    0.00030044   -0.02771889
     atom   48 type  3   force =    -0.01055083    0.00328185   -0.00256687
     atom   49 type  3   force =     0.00404913    0.00015111   -0.00012558
     atom   50 type  4   force =     0.00253337   -0.00050599    0.00006433
     atom   51 type  5   force =     0.00038523    0.00016111   -0.00087576
     atom   52 type  5   force =    -0.00064298    0.00025904    0.00092401
     atom   53 type  5   force =     0.00042734   -0.00062807    0.00005593
     atom   54 type  5   force =     0.00114437   -0.00248274    0.00094748
     atom   55 type  5   force =     0.00164911   -0.00023052    0.00162129
     atom   56 type  2   force =    -0.00076141   -0.00005543   -0.00002336
     atom   57 type  5   force =     0.00076422   -0.00005618   -0.00003793
     atom   58 type  5   force =    -0.00002687   -0.00018648    0.00057461

     Total force =     0.366961     Total SCF correction =     0.000459
  @ DRIVER MODE: Message from server: STATUS
  @ DRIVER MODE: Message from server: GETFORCE
  @ DRIVER MODE: Returning v,forces,stress,ensemble

     Writing output data file ./calc.save/
  @ DRIVER MODE: Message from server: EXIT
  @ DRIVE MODE: Exiting

     General routines

     Parallel routines

   This run was terminated on:  16:31:18  15Sep2021

   JOB DONE.