     Program PWSCF v.6.7GPU starts on 15Sep2021 at 23:23:35

     R & G space division:  proc/nbgrp/npool/nimage =      10
     Reading input from /storage/home/hcoda1/3/ntian30/research/carbon/CxH_vib/H2O_calc/ads_slab/CHNNHHH2O_a/out_0024/pw.inp
Warning: card &CELL ignored
Warning: card   CELL_DYNAMICS='IPI', ignored
Warning: card / ignored

     Current dimensions of program PWSCF are:
     Max number of different atomic species (ntypx) = 10
     Max number of k-points (npk) =  40000
     Max angular momentum in pseudopotentials (lmaxx) =  3
     Presently no symmetry can be used with electric field

     Message from routine cell_base_init:
     DEPRECATED: use true lattice parameter, not A to a.u. conversion factor

     IMPORTANT: XC functional enforced from input :
     Exchange-correlation= BEEF-VDW
                           (   1   4  43  14   2   0   0)
     Any further DFT definition will be discarded
     Please, verify this is what you really want

  @ DRIVER MODE: Connecting to
 qe_1139763_2852630.sched-torque.pace.gatech.edu3p6ue5ho_scratch
  using UNIX socket
  @ DRIVER MODE: Message from server: STATUS
  @ DRIVER MODE: Message from server: INIT
  @ DRIVER MODE: Receiving replica           0          -1
  @ DRIVER MODE: Receiving encoded integer          25
  @ DRIVER MODE:  SCF:  T  FORCE:  T  STRESS:  F  VC:  F  ENSEMBLE:  F
  @ DRIVER MODE:  SCF:  T  FORCE:  T  STRESS:  F  VC:  F  ENSEMBLE:  F

     Using Slab Decomposition

     bravais-lattice index     =            0
     lattice parameter (alat)  =       1.8897  a.u.
     unit-cell volume          =    6658.9804 (a.u.)^3
     number of atoms/cell      =           56
     number of atomic types    =            5
     number of electrons       =       403.00
     number of Kohn-Sham states=          211
     kinetic-energy cutoff     =      29.3995  Ry
     charge density cutoff     =     293.9946  Ry
     scf convergence threshold =      7.3E-08
     mixing beta               =       0.0500
     number of iterations used =            8  plain     mixing
     Exchange-correlation= BEEF-VDW
                           (   1   4  43  14   2   0   0)

     celldm(1)=   1.889726  celldm(2)=   0.000000  celldm(3)=   0.000000
     celldm(4)=   0.000000  celldm(5)=   0.000000  celldm(6)=   0.000000

     crystal axes: (cart. coord. in units of alat)
               a(1) = (   6.579727   0.000000   0.000000 )
               a(2) = (  -0.000775   5.961596   0.000000 )
               a(3) = (   0.000000   0.000000  25.155947 )

     reciprocal axes: (cart. coord. in units 2 pi/alat)
               b(1) = (  0.151982  0.000020  0.000000 )
               b(2) = (  0.000000  0.167740  0.000000 )
               b(3) = (  0.000000  0.000000  0.039752 )

     PseudoPot. # 1 for Ti read from file:
     /storage/coda1/p-amedford6/0/shared/rich_project_chbe-medford/medford-share/data/pseudos_module/espresso/nninc/pbe/van/Ti.UPF
     MD5 check sum: 8e4df49b7f0d34bbd5052bf3f5ea0213
     Pseudo is Ultrasoft, Zval = 12.0
     Generated by new atomic code, or converted to UPF format
     Using radial grid of  851 points,  6 beta functions with:
                l(1) =   0
                l(2) =   0
                l(3) =   1
                l(4) =   1
                l(5) =   2
                l(6) =   2
     Q(r) pseudized with  8 coefficients,  rinner =    1.000   1.000   1.000
                                                       1.000   1.000

     PseudoPot. # 2 for O  read from file:
     /storage/coda1/p-amedford6/0/shared/rich_project_chbe-medford/medford-share/data/pseudos_module/espresso/nninc/pbe/van/O.UPF
     MD5 check sum: 78c19812648e8988a0fe644b0f25305e
     Pseudo is Ultrasoft, Zval =  6.0
     Generated by new atomic code, or converted to UPF format
     Using radial grid of  737 points,  4 beta functions with:
                l(1) =   0
                l(2) =   0
                l(3) =   1
                l(4) =   1
     Q(r) pseudized with  8 coefficients,  rinner =    0.800   0.800   0.800

     PseudoPot. # 3 for N  read from file:
     /storage/coda1/p-amedford6/0/shared/rich_project_chbe-medford/medford-share/data/pseudos_module/espresso/nninc/pbe/van/N.UPF
     MD5 check sum: 90d10febe142ad51ac9d5be1deb811c4
     Pseudo is Ultrasoft, Zval =  5.0
     Generated by new atomic code, or converted to UPF format
     Using radial grid of  729 points,  4 beta functions with:
                l(1) =   0
                l(2) =   0
                l(3) =   1
                l(4) =   1
     Q(r) pseudized with  8 coefficients,  rinner =    0.800   0.800   0.800

     PseudoPot. # 4 for C  read from file:
     /storage/coda1/p-amedford6/0/shared/rich_project_chbe-medford/medford-share/data/pseudos_module/espresso/nninc/pbe/van/C.UPF
     MD5 check sum: 1a69bf6b8db32088f5b2163dbdb77a27
     Pseudo is Ultrasoft, Zval =  4.0
     Generated by new atomic code, or converted to UPF format
     Using radial grid of  721 points,  4 beta functions with:
                l(1) =   0
                l(2) =   0
                l(3) =   1
                l(4) =   1
     Q(r) pseudized with  8 coefficients,  rinner =    0.800   0.800   0.800

     PseudoPot. # 5 for H  read from file:
     /storage/coda1/p-amedford6/0/shared/rich_project_chbe-medford/medford-share/data/pseudos_module/espresso/nninc/pbe/van/H.UPF
     MD5 check sum: b5ee9d7bfd3a09ee7748110bda690ff7
     Pseudo is Ultrasoft, Zval =  1.0
     Generated by new atomic code, or converted to UPF format
     Using radial grid of  615 points,  1 beta functions with:
                l(1) =   0
     Q(r) pseudized with  8 coefficients,  rinner =    0.800

     atomic species   valence    mass     pseudopotential
        Ti1           12.00    47.86700     Ti( 1.00)
        O1             6.00    15.99900     O ( 1.00)
        N1             5.00    14.00700     N ( 1.00)
        C1             4.00    12.01100     C ( 1.00)
        H1             1.00     1.00800     H ( 1.00)

     No symmetry found

   Cartesian axes

     site n.     atom                  positions (alat units)
         1           Ti1 tau(   1) = (   0.0004258   2.9801865   6.0000000  )
         2           Ti1 tau(   2) = (   3.2906075   1.4906267   6.0002472  )
         3           O1  tau(   3) = (   0.0006271   0.0005054   7.9858123  )
         4           O1  tau(   4) = (   3.2906025   0.0005020   7.3038282  )
         5           O1  tau(   5) = (   4.5942328   1.4918067   9.2879030  )
         6           O1  tau(   6) = (   1.9868534   1.4903216   9.2879459  )
         7           Ti1 tau(   7) = (   3.2907910   2.8959150   9.1758416  )
         8           Ti1 tau(   8) = (   0.0015273   1.4827037   9.2680791  )
         9           O1  tau(   9) = (   3.3295752   5.9394884  11.3365386  )
        10           O1  tau(  10) = (   0.0116148   5.9584955  10.6183126  )
        11           O1  tau(  11) = (   1.3416459   1.4853116  12.6004455  )
        12           O1  tau(  12) = (   5.3426426   1.4786053  12.6369034  )
        13           Ti1 tau(  13) = (   0.0116414   2.9353973  12.6160321  )
        14           Ti1 tau(  14) = (   3.2634613   1.4579052  12.5012998  )
        15           O1  tau(  15) = (   0.1064876   0.0498873  14.6156690  )
        16           O1  tau(  16) = (   3.3207907   0.0021492  13.9347054  )
        17           O1  tau(  17) = (   4.6463059   1.4619937  15.9920056  )
        18           O1  tau(  18) = (   2.1466462   1.4989335  16.1123926  )
        19           Ti1 tau(  19) = (   3.4306617   2.9592634  15.6863987  )
        20           Ti1 tau(  20) = (   0.1411245   1.4409179  16.1562347  )
        21           O1  tau(  21) = (   3.2904802   0.0005063   4.7018136  )
        22           O1  tau(  22) = (   0.1093408   5.8617090  17.1288626  )
        23           O1  tau(  23) = (   1.3043587   1.4918075   6.0039043  )
        24           O1  tau(  24) = (   5.2767064   1.4903225   6.0039473  )
        25           Ti1 tau(  25) = (   0.0000382   5.9609847   6.0000000  )
        26           Ti1 tau(  26) = (   3.2902200   4.4714249   6.0002472  )
        27           O1  tau(  27) = (   0.0002396   2.9813036   7.9858123  )
        28           O1  tau(  28) = (   3.2902150   2.9813002   7.3038282  )
        29           O1  tau(  29) = (   4.5938453   4.4726049   9.2879030  )
        30           O1  tau(  30) = (   1.9864658   4.4711199   9.2879459  )
        31           Ti1 tau(  31) = (   3.2891106   5.8743827   9.1763621  )
        32           Ti1 tau(  32) = (   0.0006254   4.4649316   9.2693709  )
        33           O1  tau(  33) = (   3.3252478   2.9725824  11.3426849  )
        34           O1  tau(  34) = (   0.0092240   2.9805883  10.6323155  )
        35           O1  tau(  35) = (   1.3395427   4.4601989  12.6346899  )
        36           O1  tau(  36) = (   5.3460148   4.4586474  12.6692756  )
        37           Ti1 tau(  37) = (   6.5637397   5.9322234  12.5160321  )
        38           Ti1 tau(  38) = (   3.2635149   4.4558096  12.5102435  )
        39           O1  tau(  39) = (   0.1109093   2.9345503  14.7784033  )
        40           O1  tau(  40) = (   3.3425673   2.9461413  13.8942005  )
        41           O1  tau(  41) = (   4.6672108   4.4449251  15.9191901  )
        42           O1  tau(  42) = (   2.1284166   4.4082335  15.9970045  )
        43           Ti1 tau(  43) = (   3.3925976   5.9399099  15.7906296  )
        44           Ti1 tau(  44) = (   0.1175887   4.6074924  15.7225956  )
        45           O1  tau(  45) = (   3.2900926   2.9813045   4.7018136  )
        46           O1  tau(  46) = (   1.3039711   4.4726057   6.0039043  )
        47           O1  tau(  47) = (   5.2763189   4.4711207   6.0039473  )
        48           N1  tau(  48) = (   6.3322197   2.6896666  17.8857888  )
        49           C1  tau(  49) = (   0.7408832   3.1023054  18.6049742  )
        50           H1  tau(  50) = (   1.6825283   2.9574642  18.0630083  )
        51           N1  tau(  51) = (   5.0062801   2.8267163  18.4828511  )
        52           H1  tau(  52) = (   5.1803530   3.0494745  19.4549233  )
        53           H1  tau(  53) = (   4.5789568   1.9025856  18.4370215  )
        54           O1  tau(  54) = (   3.4803961   5.7297960  18.1507158  )
        55           H1  tau(  55) = (   4.0125945   4.9267423  18.3304466  )
        56           H1  tau(  56) = (   2.5980622   5.5532332  18.5227279  )

     number of k points=    10  Fermi-Dirac smearing, width (Ry)=  0.0073
                       cart. coord. in units 2pi/alat
        k(    1) = (   0.0000000   0.0000000   0.0000000), wk =   0.1250000
        k(    2) = (   0.0000000   0.0419351   0.0000000), wk =   0.2500000
        k(    3) = (   0.0000000  -0.0838702   0.0000000), wk =   0.1250000
        k(    4) = (   0.0379955   0.0000049   0.0000000), wk =   0.2500000
        k(    5) = (   0.0379955   0.0419400   0.0000000), wk =   0.2500000
        k(    6) = (   0.0379955  -0.0838652   0.0000000), wk =   0.2500000
        k(    7) = (   0.0379955  -0.0419301   0.0000000), wk =   0.2500000
        k(    8) = (  -0.0759910  -0.0000099   0.0000000), wk =   0.1250000
        k(    9) = (  -0.0759910   0.0419252   0.0000000), wk =   0.2500000
        k(   10) = (  -0.0759910  -0.0838800   0.0000000), wk =   0.1250000

     Initial potential from superposition of free atoms

     starting charge  386.99914, renormalised to  403.00000

     negative rho (up, down):  1.683E-02 0.000E+00

     %%%%%%%%%%%%%%%%%%%%%%%%%%%%%%%%%%%%%%%%%%%%%%%%%%%%%%%%%%%%%%%%%%%%%%%%
     %                                                                      %
     % You are using vdW-DF, which was implemented by the Thonhauser group. %
     % Please cite the following two papers that made this development      %
     % possible and the two reviews that describe the various versions:     %
     %                                                                      %
     %   T. Thonhauser et al., PRL 115, 136402 (2015).                      %
     %   T. Thonhauser et al., PRB 76, 125112 (2007).                       %
     %   K. Berland et al., Rep. Prog. Phys. 78, 066501 (2015).             %
     %   D.C. Langreth et al., J. Phys.: Condens. Matter 21, 084203 (2009). %
     %                                                                      %
     %                                                                      %
     % If you are calculating the stress with vdW-DF, please also cite:     %
     %                                                                      %
     %   R. Sabatini et al., J. Phys.: Condens. Matter 24, 424209 (2012).   %
     %                                                                      %
     %%%%%%%%%%%%%%%%%%%%%%%%%%%%%%%%%%%%%%%%%%%%%%%%%%%%%%%%%%%%%%%%%%%%%%%%

     Adding external electric field

     Computed dipole along edir(3) :
        Dipole              -12.6697 Ry au,        -32.2031 Debye
        Dipole field         -0.0239 Ry au,

        Potential amp.        2.2164 Ry
        Total length         46.3494 bohr

     Starting wfcs are  305 atomic wfcs
  @ DRIVER MODE: Message from server: STATUS
  @ DRIVER MODE: Message from server: POSDATA
  @ DRIVER MODE: Reading and sharing cell
  @ DRIVER MODE: Reading and sharing positions
  @ DRIVER MODE: Received positions

     Self-consistent Calculation

     iteration #  1     ecut=    29.40 Ry     beta= 0.05
     Davidson diagonalization with overlap
     c_bands:  3 eigenvalues not converged
     c_bands:  2 eigenvalues not converged
     c_bands:  5 eigenvalues not converged
     c_bands:  1 eigenvalues not converged
     c_bands:  1 eigenvalues not converged
     c_bands:  4 eigenvalues not converged
     c_bands:  1 eigenvalues not converged
     c_bands:  2 eigenvalues not converged
     ethr =  1.00E-05,  avg # of iterations = 28.2

[...]

     total energy              =   -2338.48292324 Ry
     estimated scf accuracy    <    7201.25909970 Ry

     iteration #  2     ecut=    29.40 Ry     beta= 0.05
     Davidson diagonalization with overlap
     ethr =  1.00E-02,  avg # of iterations = 22.4

[...]

     iteration # 38     ecut=    29.40 Ry     beta= 0.05
     Davidson diagonalization with overlap
     c_bands:  1 eigenvalues not converged
     c_bands:  1 eigenvalues not converged
     ethr =  8.19E-07,  avg # of iterations = 10.9

[...]

     total energy              =   -2973.87544367 Ry
     estimated scf accuracy    <       0.00000020 Ry

     iteration # 59     ecut=    29.40 Ry     beta= 0.05
     Davidson diagonalization with overlap
     ethr =  5.00E-11,  avg # of iterations =  7.0

     negative rho (up, down):  1.574E-02 0.000E+00

     Adding external electric field

     Computed dipole along edir(3) :
        Dipole                0.4393 Ry au,          1.1166 Debye
        Dipole field          0.0008 Ry au,

        Potential amp.       -0.0769 Ry
        Total length         46.3494 bohr

     End of self-consistent calculation

          k = 0.0000 0.0000 0.0000 ( 18029 PWs)   bands (ev):

   -55.9080 -55.8739 -55.8723 -55.8348 -55.7928 -55.7915 -55.7359 -55.7249
   -55.6981 -55.6909 -55.6905 -55.6572 -55.4688 -55.3802 -54.8905 -54.8564
   -32.4132 -32.3922 -32.2792 -32.2347 -32.2249 -32.2000 -32.1814 -32.1623
   -32.1525 -32.1103 -32.0620 -32.0603 -32.0465 -32.0360 -32.0259 -32.0251
   -32.0140 -32.0095 -32.0062 -31.9955 -31.9884 -31.9739 -31.9652 -31.9318
   -31.9226 -31.9192 -31.9172 -31.9120 -31.8889 -31.8883 -31.8804 -31.8677
   -31.8579 -31.8448 -31.8371 -31.8305 -31.8034 -31.7603 -31.6984 -31.6366
   -31.5939 -31.5224 -31.2976 -31.2090 -31.1866 -31.1144 -31.0279 -30.9168
   -18.8443 -17.1568 -16.6223 -16.3858 -16.1491 -16.0701 -16.0451 -15.8156
   -15.7203 -15.6646 -15.5683 -15.5065 -15.4777 -15.4475 -15.4244 -15.4035
   -15.3625 -15.3504 -15.3305 -15.3297 -15.3029 -15.2938 -15.2565 -15.2508
   -15.2034 -15.0804 -15.0464 -15.0409 -15.0112 -14.9732 -14.5310 -13.3921
   -13.2755 -12.8413  -7.1152  -6.5608  -5.5161  -4.0025  -3.8684  -3.8555
    -3.8165  -3.7516  -3.5956  -3.5734  -3.3742  -3.2349  -3.1740  -3.0963
    -3.0803  -3.0414  -3.0154  -2.9104  -2.8257  -2.7892  -2.7215  -2.7061
    -2.6809  -2.6737  -2.6437  -2.6209  -2.5346  -2.5156  -2.4748  -2.4428
    -2.3262  -2.3078  -2.2516  -2.2232  -2.2186  -2.2006  -2.1747  -2.1636
    -2.1506  -2.1376  -2.0805  -2.0565  -1.9677  -1.9016  -1.8381  -1.7031
    -1.5622  -1.5213  -1.5098  -1.4096  -1.3831  -1.3481  -1.3289  -1.3047
    -1.2880  -1.1661  -1.0876  -1.0242  -1.0175  -0.9466  -0.8538  -0.7938
    -0.7361  -0.6790  -0.6726  -0.6520  -0.6469  -0.6127  -0.5388  -0.4034
    -0.3653  -0.3253  -0.2915  -0.2041  -0.1950  -0.1499  -0.1183  -0.0978
    -0.0651   0.0137   0.0254   0.0565   0.0779   0.0987   0.1218   0.1799
     0.3086   0.3304   0.3490   0.4061   0.4430   0.6022   0.7428   0.7860
     0.8883   1.0614   1.1326   1.1646   1.2238   1.3241   1.7036   1.7495
     2.7636   3.2080   3.3118   3.3456   3.3529   3.4539   3.4787   3.6695
     3.7139   3.7506   3.8528

[...]

          k = 0.0380-0.0419 0.0000 ( 17876 PWs)   bands (ev):

[...]

          k =-0.0760-0.0000 0.0000 ( 17886 PWs)   bands (ev):

[...]

          k =-0.0760-0.0839 0.0000 ( 17948 PWs)   bands (ev):

   -55.8913 -55.8905 -55.8591 -55.8477 -55.7895 -55.7857 -55.7417 -55.7096
   -55.7055 -55.7012 -55.6743 -55.6738 -55.4661 -55.3828 -54.8735 -54.8733
   -32.2297 -32.2077 -32.2076 -32.2072 -32.1858 -32.1853 -32.1278 -32.1201
   -32.0996 -32.0925 -32.0894 -32.0375 -32.0363 -32.0284 -32.0244 -32.0238
   -32.0183 -32.0143 -32.0122 -32.0107 -32.0096 -32.0071 -31.9949 -31.9919
   -31.9750 -31.9532 -31.9520 -31.9122 -31.9102 -31.9032 -31.9031 -31.8999
   -31.8935 -31.8902 -31.8896 -31.8838 -31.8808 -31.7766 -31.6966 -31.6429
   -31.5977 -31.5889 -31.1994 -31.1993 -31.1105 -31.1102 -31.0713 -31.0712
   -18.8420 -17.1479 -16.0493 -15.9640 -15.9257 -15.8363 -15.7907 -15.7570
   -15.6974 -15.6246 -15.5860 -15.5809 -15.5551 -15.4969 -15.4824 -15.4539
   -15.4364 -15.4248 -15.4205 -15.3681 -15.3618 -15.3528 -15.3482 -15.3351
   -15.3325 -15.3070 -15.2319 -15.2290 -15.1068 -14.8963 -14.8719 -13.3774
   -13.3772 -12.8572  -7.0770  -6.5510  -5.4527  -3.6607  -3.3825  -3.3291
    -3.2262  -3.1138  -3.0143  -3.0066  -2.9708  -2.9301  -2.8566  -2.8313
    -2.7752  -2.7574  -2.7410  -2.7246  -2.7202  -2.7098  -2.6763  -2.6531
    -2.5974  -2.5922  -2.5848  -2.5765  -2.5643  -2.5567  -2.5351  -2.5286
    -2.5022  -2.4760  -2.4377  -2.4059  -2.3230  -2.2466  -2.1692  -2.1309
    -2.0945  -2.0587  -2.0521  -2.0079  -1.9887  -1.9766  -1.9594  -1.8948
    -1.7954  -1.6751  -1.6189  -1.5961  -1.5473  -1.5115  -1.4886  -1.3805
    -1.3312  -1.3168  -1.2155  -1.1938  -1.1679  -1.1167  -1.0503  -1.0361
    -0.9931  -0.9492  -0.9068  -0.8665  -0.8611  -0.8110  -0.7663  -0.7390
    -0.6571  -0.6474  -0.6033  -0.5930  -0.5808  -0.5430  -0.4950  -0.4151
    -0.3188  -0.2738  -0.2221  -0.0689   0.0046   0.1400   0.1928   0.2581
     0.2747   0.3741   0.4026   0.4048   0.4864   0.5300   0.5867   0.6186
     0.6234   0.6360   0.8008   1.1130   1.4961   1.4971   1.5692   1.5696
     2.7206   3.5409   3.5983   3.6120   3.6381   3.7244   3.7480   3.7581
     3.7599   3.8796   3.8955

     the Fermi energy is     3.2207 ev

!    total energy              =   -2973.87549595 Ry
     estimated scf accuracy    <       0.00000007 Ry
     smearing contrib. (-TS)   =      -0.02179799 Ry
     internal energy E=F+TS    =   -2973.85369796 Ry

     The total energy is F=E-TS. E is the sum of the following terms:
     one-electron contribution =  -24182.63772827 Ry
     hartree contribution      =   12182.85843646 Ry
     xc contribution           =    -494.00360348 Ry
     ewald contribution        =    9519.92883311 Ry
     electric field correction =       0.00036422 Ry

     convergence has been achieved in  59 iterations

     Forces acting on atoms (cartesian axes, Ry/au):

     atom    1 type  1   force =     0.00015126   -0.00030109    0.09559118
     atom    2 type  1   force =     0.00006043   -0.00045112   -0.17580830
     atom    3 type  2   force =     0.00023345    0.00002140   -0.02351848
     atom    4 type  2   force =     0.00008592   -0.00152832    0.05312284
     atom    5 type  2   force =    -0.01024770   -0.00137113    0.00261881
     atom    6 type  2   force =     0.01291877   -0.00101835    0.00439976
     atom    7 type  1   force =     0.00139386    0.00128959   -0.00565634
     atom    8 type  1   force =    -0.00060849    0.01374047    0.01967158
     atom    9 type  2   force =     0.00024018   -0.00056363    0.00103848
     atom   10 type  2   force =    -0.00153689   -0.00072323   -0.01579491
     atom   11 type  2   force =    -0.00105027    0.00026415   -0.00021927
     atom   12 type  2   force =     0.00040656   -0.00000022    0.00014145
     atom   13 type  1   force =     0.00056672    0.00082956    0.00027943
     atom   14 type  1   force =    -0.00021916   -0.00007285    0.00046281
     atom   15 type  2   force =    -0.00034758    0.00005863   -0.00031174
     atom   16 type  2   force =     0.00001496   -0.00086051   -0.00042621
     atom   17 type  2   force =    -0.00065443   -0.00003510   -0.00003336
     atom   18 type  2   force =     0.00018270   -0.00028593   -0.00048193
     atom   19 type  1   force =     0.00057664   -0.00062813   -0.00117756
     atom   20 type  1   force =    -0.00087507   -0.00082062   -0.00032037
     atom   21 type  2   force =     0.00007130    0.00001605    0.10325686
     atom   22 type  2   force =    -0.00005172    0.00122953    0.00039208
     atom   23 type  2   force =    -0.07149564   -0.00008453   -0.02758794
     atom   24 type  2   force =     0.07146436    0.00037607   -0.02764330
     atom   25 type  1   force =     0.00009404   -0.00026207    0.09540620
     atom   26 type  1   force =     0.00004341   -0.00022583   -0.17585040
     atom   27 type  2   force =     0.00024926   -0.00036810   -0.02226709
     atom   28 type  2   force =     0.00008155   -0.00122050    0.05317464
     atom   29 type  2   force =    -0.01029139    0.00029871    0.00172865
     atom   30 type  2   force =     0.01288213    0.00085758    0.00358711
     atom   31 type  1   force =     0.00162093    0.00307249   -0.01053286
     atom   32 type  1   force =    -0.00067889   -0.01565305    0.01963942
     atom   33 type  2   force =     0.00053627    0.00064775    0.00018761
     atom   34 type  2   force =    -0.00085250    0.00099505   -0.01348725
     atom   35 type  2   force =     0.00110707    0.00005846   -0.00044317
     atom   36 type  2   force =    -0.00119696    0.00013479   -0.00020601
     atom   37 type  1   force =    -0.00030549   -0.00043634    0.00003538
     atom   38 type  1   force =    -0.00091084    0.00037625   -0.00039915
     atom   39 type  2   force =    -0.00046305   -0.00053669    0.00018810
     atom   40 type  2   force =     0.00010314    0.00096867    0.00015496
     atom   41 type  2   force =    -0.00118577    0.00028249    0.00073085
     atom   42 type  2   force =     0.00107075   -0.00025797    0.00045996
     atom   43 type  1   force =    -0.00028645    0.00091308   -0.00027790
     atom   44 type  1   force =    -0.00047241    0.00055117   -0.00155101
     atom   45 type  2   force =     0.00007371    0.00000982    0.10325643
     atom   46 type  2   force =    -0.07149323   -0.00003650   -0.02758744
     atom   47 type  2   force =     0.07145959    0.00038641   -0.02762714
     atom   48 type  3   force =    -0.00191963    0.00181631    0.00419509
     atom   49 type  4   force =     0.00063709   -0.00042762   -0.00133717
     atom   50 type  5   force =    -0.00095355   -0.00033031    0.00038572
     atom   51 type  3   force =    -0.00088974   -0.00409318   -0.02095500
     atom   52 type  5   force =     0.00285595    0.00158100    0.01491320
     atom   53 type  5   force =    -0.00087948    0.00030794    0.00329634
     atom   54 type  2   force =    -0.00101767   -0.00019207    0.00095908
     atom   55 type  5   force =    -0.00072288    0.00128641   -0.00064168
     atom   56 type  5   force =     0.00042488    0.00041518   -0.00113106

     Total force =     0.367067     Total SCF correction =     0.000891
  @ DRIVER MODE: Message from server: STATUS
  @ DRIVER MODE: Message from server: GETFORCE
  @ DRIVER MODE: Returning v,forces,stress,ensemble

     Writing output data file ./calc.save/
  @ DRIVER MODE: Message from server: EXIT
  @ DRIVE MODE: Exiting

     General routines

     Parallel routines

   This run was terminated on:  23:40:29  15Sep2021

   JOB DONE.