     Program PWSCF v.6.7GPU starts on 10Sep2021 at  4:40:56

     R & G space division:  proc/nbgrp/npool/nimage =      10
     Reading input from /storage/home/hcoda1/3/ntian30/research/carbon/CxH_vib/CH3_calc/ads_slab/CH3N2H2O_e/out_0023/pw.inp
Warning: card &CELL ignored
Warning: card   CELL_DYNAMICS='IPI', ignored
Warning: card / ignored

     Current dimensions of program PWSCF are:
     Max number of different atomic species (ntypx) = 10
     Max number of k-points (npk) =  40000
     Max angular momentum in pseudopotentials (lmaxx) =  3
     Presently no symmetry can be used with electric field

     Message from routine cell_base_init:
     DEPRECATED: use true lattice parameter, not A to a.u. conversion factor

     IMPORTANT: XC functional enforced from input :
     Exchange-correlation= BEEF-VDW
                           (   1   4  43  14   2   0   0)
     Any further DFT definition will be discarded
     Please, verify this is what you really want

  @ DRIVER MODE: Connecting to
 qe_1139763_2779715.sched-torque.pace.gatech.eduznkqpr87_scratch
  using UNIX socket
  @ DRIVER MODE: Message from server: STATUS
  @ DRIVER MODE: Message from server: INIT
  @ DRIVER MODE: Receiving replica           0          -1
  @ DRIVER MODE: Receiving encoded integer          25
  @ DRIVER MODE:  SCF:  T  FORCE:  T  STRESS:  F  VC:  F  ENSEMBLE:  F
  @ DRIVER MODE:  SCF:  T  FORCE:  T  STRESS:  F  VC:  F  ENSEMBLE:  F

     Using Slab Decomposition

     bravais-lattice index     =            0
     lattice parameter (alat)  =       1.8897  a.u.
     unit-cell volume          =    6658.9804 (a.u.)^3
     number of atoms/cell      =           56
     number of atomic types    =            5
     number of electrons       =       403.00
     number of Kohn-Sham states=          211
     kinetic-energy cutoff     =      29.3995  Ry
     charge density cutoff     =     293.9946  Ry
     scf convergence threshold =      7.3E-08
     mixing beta               =       0.0500
     number of iterations used =            8  plain     mixing
     Exchange-correlation= BEEF-VDW
                           (   1   4  43  14   2   0   0)

     celldm(1)=   1.889726  celldm(2)=   0.000000  celldm(3)=   0.000000
     celldm(4)=   0.000000  celldm(5)=   0.000000  celldm(6)=   0.000000

     crystal axes: (cart. coord. in units of alat)
               a(1) = (   6.579727   0.000000   0.000000 )
               a(2) = (  -0.000775   5.961596   0.000000 )
               a(3) = (   0.000000   0.000000  25.155947 )

     reciprocal axes: (cart. coord. in units 2 pi/alat)
               b(1) = (  0.151982  0.000020  0.000000 )
               b(2) = (  0.000000  0.167740  0.000000 )
               b(3) = (  0.000000  0.000000  0.039752 )

     PseudoPot. # 1 for Ti read from file:
     /storage/coda1/p-amedford6/0/shared/rich_project_chbe-medford/medford-share/data/pseudos_module/espresso/nninc/pbe/van/Ti.UPF
     MD5 check sum: 8e4df49b7f0d34bbd5052bf3f5ea0213
     Pseudo is Ultrasoft, Zval = 12.0
     Generated by new atomic code, or converted to UPF format
     Using radial grid of  851 points,  6 beta functions with:
                l(1) =   0
                l(2) =   0
                l(3) =   1
                l(4) =   1
                l(5) =   2
                l(6) =   2
     Q(r) pseudized with  8 coefficients,  rinner =    1.000   1.000   1.000
                                                       1.000   1.000

     PseudoPot. # 2 for O  read from file:
     /storage/coda1/p-amedford6/0/shared/rich_project_chbe-medford/medford-share/data/pseudos_module/espresso/nninc/pbe/van/O.UPF
     MD5 check sum: 78c19812648e8988a0fe644b0f25305e
     Pseudo is Ultrasoft, Zval =  6.0
     Generated by new atomic code, or converted to UPF format
     Using radial grid of  737 points,  4 beta functions with:
                l(1) =   0
                l(2) =   0
                l(3) =   1
                l(4) =   1
     Q(r) pseudized with  8 coefficients,  rinner =    0.800   0.800   0.800

     PseudoPot. # 3 for N  read from file:
     /storage/coda1/p-amedford6/0/shared/rich_project_chbe-medford/medford-share/data/pseudos_module/espresso/nninc/pbe/van/N.UPF
     MD5 check sum: 90d10febe142ad51ac9d5be1deb811c4
     Pseudo is Ultrasoft, Zval =  5.0
     Generated by new atomic code, or converted to UPF format
     Using radial grid of  729 points,  4 beta functions with:
                l(1) =   0
                l(2) =   0
                l(3) =   1
                l(4) =   1
     Q(r) pseudized with  8 coefficients,  rinner =    0.800   0.800   0.800

     PseudoPot. # 4 for C  read from file:
     /storage/coda1/p-amedford6/0/shared/rich_project_chbe-medford/medford-share/data/pseudos_module/espresso/nninc/pbe/van/C.UPF
     MD5 check sum: 1a69bf6b8db32088f5b2163dbdb77a27
     Pseudo is Ultrasoft, Zval =  4.0
     Generated by new atomic code, or converted to UPF format
     Using radial grid of  721 points,  4 beta functions with:
                l(1) =   0
                l(2) =   0
                l(3) =   1
                l(4) =   1
     Q(r) pseudized with  8 coefficients,  rinner =    0.800   0.800   0.800

     PseudoPot. # 5 for H  read from file:
     /storage/coda1/p-amedford6/0/shared/rich_project_chbe-medford/medford-share/data/pseudos_module/espresso/nninc/pbe/van/H.UPF
     MD5 check sum: b5ee9d7bfd3a09ee7748110bda690ff7
     Pseudo is Ultrasoft, Zval =  1.0
     Generated by new atomic code, or converted to UPF format
     Using radial grid of  615 points,  1 beta functions with:
                l(1) =   0
     Q(r) pseudized with  8 coefficients,  rinner =    0.800

     atomic species   valence    mass     pseudopotential
        Ti1           12.00    47.86700     Ti( 1.00)
        O1             6.00    15.99900     O ( 1.00)
        N1             5.00    14.00700     N ( 1.00)
        C1             4.00    12.01100     C ( 1.00)
        H1             1.00     1.00800     H ( 1.00)

     No symmetry found

   Cartesian axes

     site n.     atom                  positions (alat units)
         1           Ti1 tau(   1) = (   0.0004258   2.9801865   6.0000000  )
         2           Ti1 tau(   2) = (   3.2906075   1.4906267   6.0002472  )
         3           O1  tau(   3) = (   0.0006271   0.0005054   7.9858123  )
         4           O1  tau(   4) = (   3.2906025   0.0005020   7.3038282  )
         5           O1  tau(   5) = (   4.5942328   1.4918067   9.2879030  )
         6           O1  tau(   6) = (   1.9868534   1.4903216   9.2879459  )
         7           Ti1 tau(   7) = (   3.2907910   2.8959150   9.1758416  )
         8           Ti1 tau(   8) = (   0.0015273   1.4827037   9.2680791  )
         9           O1  tau(   9) = (   3.2823942   0.0140684  11.3428430  )
        10           O1  tau(  10) = (   0.0116148   5.9584955  10.6183126  )
        11           O1  tau(  11) = (   1.2742013   1.4978990  12.6323156  )
        12           O1  tau(  12) = (   5.2614901   1.5083079  12.6129891  )
        13           Ti1 tau(  13) = (   0.0550148   2.9595524  12.6160221  )
        14           Ti1 tau(  14) = (   3.3718896   1.5084997  12.4944496  )
        15           O1  tau(  15) = (   6.5380961   0.0278828  14.6255036  )
        16           O1  tau(  16) = (   3.2758616   0.0189586  13.9121306  )
        17           O1  tau(  17) = (   4.4976875   1.5333668  16.0433440  )
        18           O1  tau(  18) = (   1.9922867   1.5271532  16.0291573  )
        19           Ti1 tau(  19) = (   3.1858679   3.0241111  15.7732818  )
        20           Ti1 tau(  20) = (   6.4842391   1.5502874  15.8011710  )
        21           O1  tau(  21) = (   3.2904802   0.0005063   4.7018136  )
        22           O1  tau(  22) = (   6.5196731   0.0665875  17.1891134  )
        23           O1  tau(  23) = (   1.3043587   1.4918075   6.0039043  )
        24           O1  tau(  24) = (   5.2767064   1.4903225   6.0039473  )
        25           Ti1 tau(  25) = (   0.0000382   5.9609847   6.0000000  )
        26           Ti1 tau(  26) = (   3.2902200   4.4714249   6.0002472  )
        27           O1  tau(  27) = (   0.0002396   2.9813036   7.9858123  )
        28           O1  tau(  28) = (   3.2902150   2.9813002   7.3038282  )
        29           O1  tau(  29) = (   4.5938453   4.4726049   9.2879030  )
        30           O1  tau(  30) = (   1.9864658   4.4711199   9.2879459  )
        31           Ti1 tau(  31) = (   3.2891106   5.8743827   9.1763621  )
        32           Ti1 tau(  32) = (   0.0006254   4.4649316   9.2693709  )
        33           O1  tau(  33) = (   3.2807012   2.9937711  11.3380227  )
        34           O1  tau(  34) = (   0.0092240   2.9805883  10.6323155  )
        35           O1  tau(  35) = (   1.2734598   4.4826339  12.6318047  )
        36           O1  tau(  36) = (   5.2665626   4.4910389  12.6093644  )
        37           Ti1 tau(  37) = (   0.0550181   5.9329888  12.5453996  )
        38           Ti1 tau(  38) = (   3.3741151   4.4737790  12.4977360  )
        39           O1  tau(  39) = (   6.5373474   2.9946220  14.6524478  )
        40           O1  tau(  40) = (   3.2677173   3.0168568  13.9399215  )
        41           O1  tau(  41) = (   4.4884636   4.5316779  16.1079578  )
        42           O1  tau(  42) = (   1.9830865   4.5332738  16.0531499  )
        43           Ti1 tau(  43) = (   3.2469912   0.0413792  15.7000251  )
        44           Ti1 tau(  44) = (   6.5198411   4.7064707  16.0702691  )
        45           O1  tau(  45) = (   3.2900926   2.9813045   4.7018136  )
        46           O1  tau(  46) = (   1.3039711   4.4726057   6.0039043  )
        47           O1  tau(  47) = (   5.2763189   4.4711207   6.0039473  )
        48           N1  tau(  48) = (   0.0943371   2.6987919  18.6315974  )
        49           N1  tau(  49) = (   6.5718678   2.9345059  17.4339123  )
        50           C1  tau(  50) = (   0.1779456   3.8407003  19.5793842  )
        51           H1  tau(  51) = (   6.4148796   4.7858965  19.1457567  )
        52           H1  tau(  52) = (   6.1971438   3.5603257  20.4715321  )
        53           H1  tau(  53) = (   1.2306852   3.9282498  19.8556806  )
        54           O1  tau(  54) = (   3.3096034   3.0730741  18.2289406  )
        55           H1  tau(  55) = (   4.0988663   3.6297178  18.3192648  )
        56           H1  tau(  56) = (   3.5789210   2.1977314  18.5501991  )

     number of k points=    10  Fermi-Dirac smearing, width (Ry)=  0.0073
                       cart. coord. in units 2pi/alat
        k(    1) = (   0.0000000   0.0000000   0.0000000), wk =   0.1250000
        k(    2) = (   0.0000000   0.0419351   0.0000000), wk =   0.2500000
        k(    3) = (   0.0000000  -0.0838702   0.0000000), wk =   0.1250000
        k(    4) = (   0.0379955   0.0000049   0.0000000), wk =   0.2500000
        k(    5) = (   0.0379955   0.0419400   0.0000000), wk =   0.2500000
        k(    6) = (   0.0379955  -0.0838652   0.0000000), wk =   0.2500000
        k(    7) = (   0.0379955  -0.0419301   0.0000000), wk =   0.2500000
        k(    8) = (  -0.0759910  -0.0000099   0.0000000), wk =   0.1250000
        k(    9) = (  -0.0759910   0.0419252   0.0000000), wk =   0.2500000
        k(   10) = (  -0.0759910  -0.0838800   0.0000000), wk =   0.1250000

     Initial potential from superposition of free atoms

     starting charge  386.99914, renormalised to  403.00000

     negative rho (up, down):  1.478E-02 0.000E+00

     %%%%%%%%%%%%%%%%%%%%%%%%%%%%%%%%%%%%%%%%%%%%%%%%%%%%%%%%%%%%%%%%%%%%%%%%
     %                                                                      %
     % You are using vdW-DF, which was implemented by the Thonhauser group. %
     % Please cite the following two papers that made this development      %
     % possible and the two reviews that describe the various versions:     %
     %                                                                      %
     %   T. Thonhauser et al., PRL 115, 136402 (2015).                      %
     %   T. Thonhauser et al., PRB 76, 125112 (2007).                       %
     %   K. Berland et al., Rep. Prog. Phys. 78, 066501 (2015).             %
     %   D.C. Langreth et al., J. Phys.: Condens. Matter 21, 084203 (2009). %
     %                                                                      %
     %                                                                      %
     % If you are calculating the stress with vdW-DF, please also cite:     %
     %                                                                      %
     %   R. Sabatini et al., J. Phys.: Condens. Matter 24, 424209 (2012).   %
     %                                                                      %
     %%%%%%%%%%%%%%%%%%%%%%%%%%%%%%%%%%%%%%%%%%%%%%%%%%%%%%%%%%%%%%%%%%%%%%%%

     Adding external electric field

     Computed dipole along edir(3) :
        Dipole              -13.2292 Ry au,        -33.6254 Debye
        Dipole field         -0.0250 Ry au,

        Potential amp.        2.3143 Ry
        Total length         46.3494 bohr

     Starting wfcs are  305 atomic wfcs
  @ DRIVER MODE: Message from server: STATUS
  @ DRIVER MODE: Message from server: POSDATA
  @ DRIVER MODE: Reading and sharing cell
  @ DRIVER MODE: Reading and sharing positions
  @ DRIVER MODE: Received positions

     Self-consistent Calculation

     iteration #  1     ecut=    29.40 Ry     beta= 0.05
     Davidson diagonalization with overlap
     c_bands:  5 eigenvalues not converged
     c_bands:  2 eigenvalues not converged
     c_bands:  5 eigenvalues not converged
     c_bands:  5 eigenvalues not converged
     c_bands:  1 eigenvalues not converged
     c_bands:  1 eigenvalues not converged
     c_bands:  4 eigenvalues not converged
     c_bands:  2 eigenvalues not converged
     c_bands:  3 eigenvalues not converged
     ethr =  1.00E-05,  avg # of iterations = 26.9

[...]

     total energy              =   -2368.09184440 Ry
     estimated scf accuracy    <    6912.86395306 Ry

     iteration #  2     ecut=    29.40 Ry     beta= 0.05
     Davidson diagonalization with overlap
     ethr =  1.00E-02,  avg # of iterations = 23.0

[...]

     iteration # 50     ecut=    29.40 Ry     beta= 0.05
     Davidson diagonalization with overlap
     c_bands:  1 eigenvalues not converged
     ethr =  4.47E-08,  avg # of iterations = 13.1

[...]

     total energy              =   -2973.98642838 Ry
     estimated scf accuracy    <       0.00000008 Ry

     iteration # 69     ecut=    29.40 Ry     beta= 0.05
     Davidson diagonalization with overlap
     ethr =  1.92E-11,  avg # of iterations = 10.7

     negative rho (up, down):  1.504E-02 0.000E+00

     Adding external electric field

     Computed dipole along edir(3) :
        Dipole                0.9063 Ry au,          2.3036 Debye
        Dipole field          0.0017 Ry au,

        Potential amp.       -0.1585 Ry
        Total length         46.3494 bohr

     End of self-consistent calculation

          k = 0.0000 0.0000 0.0000 ( 18029 PWs)   bands (ev):

   -55.6035 -55.5695 -55.5681 -55.5323 -55.4995 -55.4493 -55.4395 -55.4150
   -55.4030 -55.3810 -55.3797 -55.3456 -55.0097 -54.8385 -54.5830 -54.5489
   -32.1130 -32.0861 -31.9597 -31.9435 -31.9136 -31.8965 -31.8821 -31.8694
   -31.8469 -31.8071 -31.7994 -31.7684 -31.7559 -31.7468 -31.7381 -31.7283
   -31.7080 -31.6992 -31.6965 -31.6608 -31.6570 -31.6468 -31.6337 -31.6081
   -31.6035 -31.5990 -31.5937 -31.5867 -31.5790 -31.5697 -31.5550 -31.5550
   -31.5459 -31.5325 -31.5217 -31.5101 -31.4914 -31.2867 -31.2005 -31.0990
   -31.0941 -31.0574 -30.9903 -30.9016 -30.8792 -30.8069 -30.7204 -30.6094
   -19.0397 -18.3018 -16.3185 -16.0774 -15.8753 -15.7603 -15.7196 -15.5271
   -15.4289 -15.3303 -15.2337 -15.1653 -15.1419 -15.1348 -15.1310 -15.1054
   -15.0803 -15.0688 -15.0474 -15.0308 -15.0161 -14.9562 -14.9429 -14.9340
   -14.8444 -14.7894 -14.7550 -14.7359 -14.6786 -14.6598 -14.1794 -13.0856
   -12.9692 -11.2859  -6.8707  -6.7243  -4.1877  -4.0588  -3.8110  -3.6888
    -3.5571  -3.5095  -3.4486  -3.4182  -3.2214  -3.1022  -3.0268  -2.8444
    -2.7871  -2.7594  -2.7299  -2.6586  -2.5223  -2.4721  -2.4207  -2.4143
    -2.4026  -2.3710  -2.3662  -2.3452  -2.2458  -2.2425  -2.1908  -2.1507
    -2.0801  -2.0022  -1.9828  -1.9357  -1.9166  -1.9045  -1.8765  -1.8531
    -1.8424  -1.8075  -1.7950  -1.7215  -1.6186  -1.5502  -1.4997  -1.4622
    -1.3985  -1.3854  -1.2182  -1.1536  -1.1085  -1.0720  -1.0533  -1.0328
    -0.9990  -0.9915  -0.8825  -0.7582  -0.7541  -0.6740  -0.6137  -0.5357
    -0.5268  -0.4494  -0.3928  -0.3744  -0.3619  -0.3508  -0.3221  -0.2489
    -0.1035  -0.0601  -0.0356  -0.0004   0.0289   0.0946   0.1381   0.2074
     0.2425   0.2834   0.3187   0.3426   0.3668   0.3746   0.3897   0.4017
     0.4210   0.6034   0.6635   0.6848   0.7497   0.7787   0.9220   0.9883
     1.0526   1.1592   1.3642   1.4389   1.5296   1.6311   2.0104   2.0562
     2.7733   3.5307   3.6154   3.6623   3.7041   3.7768   3.7942   3.9668
     3.9862   4.0290   4.1879

[...]

          k = 0.0380-0.0419 0.0000 ( 17876 PWs)   bands (ev):

[...]

          k =-0.0760-0.0000 0.0000 ( 17886 PWs)   bands (ev):

[...]

          k =-0.0760-0.0839 0.0000 ( 17948 PWs)   bands (ev):

   -55.5870 -55.5859 -55.5512 -55.5490 -55.4926 -55.4560 -55.4272 -55.4154
   -55.3986 -55.3969 -55.3655 -55.3601 -55.0081 -54.8400 -54.5660 -54.5658
   -31.9272 -31.9117 -31.9017 -31.9010 -31.8823 -31.8814 -31.8518 -31.8174
   -31.7949 -31.7914 -31.7824 -31.7621 -31.7592 -31.7403 -31.7187 -31.7143
   -31.7122 -31.7077 -31.7067 -31.7055 -31.7049 -31.7029 -31.6986 -31.6592
   -31.6481 -31.6349 -31.6247 -31.6111 -31.5983 -31.5976 -31.5957 -31.5883
   -31.5795 -31.5759 -31.5689 -31.5654 -31.4276 -31.2885 -31.2061 -31.1549
   -31.1001 -31.0835 -30.8920 -30.8918 -30.8031 -30.8029 -30.7637 -30.7637
   -19.0347 -18.3035 -15.7650 -15.6831 -15.5605 -15.5219 -15.4784 -15.4346
   -15.4146 -15.3216 -15.3016 -15.2923 -15.2409 -15.2268 -15.2039 -15.1603
   -15.1381 -15.1288 -15.1248 -15.0891 -15.0607 -15.0439 -15.0405 -15.0346
   -14.9726 -14.9235 -14.9215 -14.9165 -14.7900 -14.6612 -14.3582 -13.0710
   -13.0709 -11.2835  -6.8707  -6.7385  -4.1158  -3.8645  -3.7915  -3.2819
    -3.0499  -2.8885  -2.8184  -2.7281  -2.6986  -2.6913  -2.5479  -2.5153
    -2.4856  -2.4379  -2.4332  -2.4293  -2.4220  -2.4060  -2.3991  -2.3830
    -2.3316  -2.3191  -2.2944  -2.2812  -2.2739  -2.2564  -2.2346  -2.2243
    -2.2024  -2.1682  -2.1540  -2.1188  -2.1124  -2.0216  -1.8366  -1.8255
    -1.7796  -1.7465  -1.7323  -1.7073  -1.6701  -1.6566  -1.6486  -1.5969
    -1.4733  -1.4321  -1.3437  -1.2965  -1.2793  -1.2256  -1.1631  -1.1388
    -1.0683  -1.0242  -0.9877  -0.9657  -0.9424  -0.7982  -0.7859  -0.7321
    -0.7190  -0.6819  -0.6341  -0.5761  -0.5637  -0.5536  -0.5365  -0.5033
    -0.4352  -0.3660  -0.3543  -0.3260  -0.2750  -0.2585  -0.2152  -0.1268
    -0.1072  -0.0706   0.0273   0.1292   0.2197   0.3555   0.4414   0.4647
     0.5208   0.5979   0.6960   0.7056   0.7142   0.7503   0.7741   0.8340
     0.9280   0.9480   0.9748   1.0975   1.8024   1.8031   1.8758   1.8760
     2.8150   3.7914   3.8511   3.8967   3.9158   4.0084   4.0416   4.0638
     4.0663   4.1131   4.2045

     the Fermi energy is     3.5296 ev

!    total energy              =   -2973.98645307 Ry
     estimated scf accuracy    <       0.00000005 Ry
     smearing contrib. (-TS)   =      -0.02191890 Ry
     internal energy E=F+TS    =   -2973.96453416 Ry

     The total energy is F=E-TS. E is the sum of the following terms:
     one-electron contribution =  -23875.77110144 Ry
     hartree contribution      =   12032.34205692 Ry
     xc contribution           =    -494.08035764 Ry
     ewald contribution        =    9363.54331789 Ry
     electric field correction =       0.00155011 Ry

     convergence has been achieved in  69 iterations

     Forces acting on atoms (cartesian axes, Ry/au):

     atom    1 type  1   force =     0.00006728   -0.00017186    0.09643078
     atom    2 type  1   force =    -0.00015879   -0.00063990   -0.17546670
     atom    3 type  2   force =    -0.00003533    0.00002070   -0.02462746
     atom    4 type  2   force =     0.00005926   -0.00136722    0.05309963
     atom    5 type  2   force =    -0.01209443    0.00003620    0.00385948
     atom    6 type  2   force =     0.01331445    0.00071406    0.00206433
     atom    7 type  1   force =    -0.00148401    0.00064226   -0.01049753
     atom    8 type  1   force =     0.00072233    0.00971399    0.02660775
     atom    9 type  2   force =    -0.00040570    0.00009147   -0.00031965
     atom   10 type  2   force =    -0.00180834    0.00306550   -0.01772768
     atom   11 type  2   force =    -0.00014814   -0.00023341    0.00011419
     atom   12 type  2   force =    -0.00018425   -0.00029093   -0.00030677
     atom   13 type  1   force =    -0.00021085   -0.00021254   -0.00011234
     atom   14 type  1   force =    -0.00035977   -0.00018399   -0.00034082
     atom   15 type  2   force =     0.00003656   -0.00089838    0.00022824
     atom   16 type  2   force =     0.00005997    0.00015661   -0.00004482
     atom   17 type  2   force =    -0.00003819   -0.00057670    0.00021619
     atom   18 type  2   force =     0.00023165   -0.00041926    0.00039595
     atom   19 type  1   force =     0.00042396   -0.00022177   -0.00005136
     atom   20 type  1   force =     0.00030148   -0.00066589    0.00012033
     atom   21 type  2   force =     0.00008513   -0.00004595    0.10322592
     atom   22 type  2   force =     0.00052734   -0.00042454   -0.00029822
     atom   23 type  2   force =    -0.07146327   -0.00008426   -0.02774047
     atom   24 type  2   force =     0.07140165    0.00030182   -0.02774229
     atom   25 type  1   force =     0.00007086   -0.00028737    0.09590517
     atom   26 type  1   force =    -0.00025316   -0.00023254   -0.17573937
     atom   27 type  2   force =     0.00007130   -0.00008961   -0.02364651
     atom   28 type  2   force =     0.00006225   -0.00118882    0.05338163
     atom   29 type  2   force =    -0.01233177    0.00061815    0.00389844
     atom   30 type  2   force =     0.01348815    0.00110061    0.00206806
     atom   31 type  1   force =    -0.00129695    0.00372469   -0.00848057
     atom   32 type  1   force =     0.00085248   -0.01165837    0.02703331
     atom   33 type  2   force =    -0.00002096    0.00013212   -0.00010217
     atom   34 type  2   force =    -0.00128302    0.00169160   -0.02364691
     atom   35 type  2   force =    -0.00023414   -0.00003555    0.00003639
     atom   36 type  2   force =     0.00003907   -0.00002632    0.00017303
     atom   37 type  1   force =    -0.00000182   -0.00018510    0.00014496
     atom   38 type  1   force =    -0.00056296   -0.00029030    0.00054690
     atom   39 type  2   force =     0.00021530   -0.00060675    0.00050678
     atom   40 type  2   force =    -0.00001915   -0.00009446    0.00016064
     atom   41 type  2   force =     0.00022062   -0.00050982   -0.00031985
     atom   42 type  2   force =     0.00015273   -0.00035455   -0.00044280
     atom   43 type  1   force =     0.00073726   -0.00039293    0.00021048
     atom   44 type  1   force =    -0.00003337   -0.00021820   -0.00091115
     atom   45 type  2   force =     0.00009053   -0.00005552    0.10321515
     atom   46 type  2   force =    -0.07145617   -0.00007759   -0.02774476
     atom   47 type  2   force =     0.07140502    0.00035647   -0.02776021
     atom   48 type  3   force =    -0.00023347   -0.00150792    0.00131625
     atom   49 type  3   force =     0.00025495    0.00061082   -0.00022778
     atom   50 type  4   force =    -0.00172220    0.00472183   -0.00398991
     atom   51 type  5   force =     0.00276330   -0.00422467    0.00389882
     atom   52 type  5   force =    -0.00011665    0.00076225   -0.00065379
     atom   53 type  5   force =    -0.00005574    0.00012374    0.00031823
     atom   54 type  2   force =    -0.00061208   -0.00113293   -0.00002618
     atom   55 type  5   force =     0.00042290    0.00030265    0.00029661
     atom   56 type  5   force =     0.00054689    0.00071840   -0.00050559

     Total force =     0.367920     Total SCF correction =     0.000768
  @ DRIVER MODE: Message from server: STATUS
  @ DRIVER MODE: Message from server: GETFORCE
  @ DRIVER MODE: Returning v,forces,stress,ensemble

     Writing output data file ./calc.save/
  @ DRIVER MODE: Message from server: EXIT
  @ DRIVE MODE: Exiting

     General routines

     Parallel routines

   This run was terminated on:   5: 1:45  10Sep2021

   JOB DONE.