     Program PWSCF v.6.7GPU starts on 23Aug2021 at 22:43: 1

     R & G space division:  proc/nbgrp/npool/nimage =       6
     Reading input from /storage/home/hcoda1/3/ntian30/research/carbon/CH_vib/ads_slab/CHN2_a/out_0020/pw.inp
Warning: card &CELL ignored
Warning: card   CELL_DYNAMICS='IPI', ignored
Warning: card / ignored

     Current dimensions of program PWSCF are:
     Max number of different atomic species (ntypx) = 10
     Max number of k-points (npk) =  40000
     Max angular momentum in pseudopotentials (lmaxx) =  3
     Presently no symmetry can be used with electric field

     Message from routine cell_base_init:
     DEPRECATED: use true lattice parameter, not A to a.u. conversion factor

     IMPORTANT: XC functional enforced from input :
     Exchange-correlation= BEEF-VDW
                           (   1   4  43  14   2   0   0)
     Any further DFT definition will be discarded
     Please, verify this is what you really want

  @ DRIVER MODE: Connecting to
 qe_1139763_2632791.sched-torque.pace.gatech.eduy0f34fs__scratch
  using UNIX socket
  @ DRIVER MODE: Message from server: STATUS
  @ DRIVER MODE: Message from server: INIT
  @ DRIVER MODE: Receiving replica           0          -1
  @ DRIVER MODE: Receiving encoded integer          25
  @ DRIVER MODE:  SCF:  T  FORCE:  T  STRESS:  F  VC:  F  ENSEMBLE:  F
  @ DRIVER MODE:  SCF:  T  FORCE:  T  STRESS:  F  VC:  F  ENSEMBLE:  F

     Using Slab Decomposition

     bravais-lattice index     =            0
     lattice parameter (alat)  =       1.8897  a.u.
     unit-cell volume          =    6658.9804 (a.u.)^3
     number of atoms/cell      =           51
     number of atomic types    =            5
     number of electrons       =       393.00
     number of Kohn-Sham states=          206
     kinetic-energy cutoff     =      29.3995  Ry
     charge density cutoff     =     293.9946  Ry
     scf convergence threshold =      7.3E-08
     mixing beta               =       0.0500
     number of iterations used =            8  plain     mixing
     Exchange-correlation= BEEF-VDW
                           (   1   4  43  14   2   0   0)

     celldm(1)=   1.889726  celldm(2)=   0.000000  celldm(3)=   0.000000
     celldm(4)=   0.000000  celldm(5)=   0.000000  celldm(6)=   0.000000

     crystal axes: (cart. coord. in units of alat)
               a(1) = (   6.579727   0.000000   0.000000 )
               a(2) = (  -0.000775   5.961596   0.000000 )
               a(3) = (   0.000000   0.000000  25.155947 )

     reciprocal axes: (cart. coord. in units 2 pi/alat)
               b(1) = (  0.151982  0.000020  0.000000 )
               b(2) = (  0.000000  0.167740  0.000000 )
               b(3) = (  0.000000  0.000000  0.039752 )

     PseudoPot. # 1 for Ti read from file:
     /storage/coda1/p-amedford6/0/shared/rich_project_chbe-medford/medford-share/data/pseudos_module/espresso/nninc/pbe/van/Ti.UPF
     MD5 check sum: 8e4df49b7f0d34bbd5052bf3f5ea0213
     Pseudo is Ultrasoft, Zval = 12.0
     Generated by new atomic code, or converted to UPF format
     Using radial grid of  851 points,  6 beta functions with:
                l(1) =   0
                l(2) =   0
                l(3) =   1
                l(4) =   1
                l(5) =   2
                l(6) =   2
     Q(r) pseudized with  8 coefficients,  rinner =    1.000   1.000   1.000
                                                       1.000   1.000

     PseudoPot. # 2 for O  read from file:
     /storage/coda1/p-amedford6/0/shared/rich_project_chbe-medford/medford-share/data/pseudos_module/espresso/nninc/pbe/van/O.UPF
     MD5 check sum: 78c19812648e8988a0fe644b0f25305e
     Pseudo is Ultrasoft, Zval =  6.0
     Generated by new atomic code, or converted to UPF format
     Using radial grid of  737 points,  4 beta functions with:
                l(1) =   0
                l(2) =   0
                l(3) =   1
                l(4) =   1
     Q(r) pseudized with  8 coefficients,  rinner =    0.800   0.800   0.800

     PseudoPot. # 3 for N  read from file:
     /storage/coda1/p-amedford6/0/shared/rich_project_chbe-medford/medford-share/data/pseudos_module/espresso/nninc/pbe/van/N.UPF
     MD5 check sum: 90d10febe142ad51ac9d5be1deb811c4
     Pseudo is Ultrasoft, Zval =  5.0
     Generated by new atomic code, or converted to UPF format
     Using radial grid of  729 points,  4 beta functions with:
                l(1) =   0
                l(2) =   0
                l(3) =   1
                l(4) =   1
     Q(r) pseudized with  8 coefficients,  rinner =    0.800   0.800   0.800

     PseudoPot. # 4 for C  read from file:
     /storage/coda1/p-amedford6/0/shared/rich_project_chbe-medford/medford-share/data/pseudos_module/espresso/nninc/pbe/van/C.UPF
     MD5 check sum: 1a69bf6b8db32088f5b2163dbdb77a27
     Pseudo is Ultrasoft, Zval =  4.0
     Generated by new atomic code, or converted to UPF format
     Using radial grid of  721 points,  4 beta functions with:
                l(1) =   0
                l(2) =   0
                l(3) =   1
                l(4) =   1
     Q(r) pseudized with  8 coefficients,  rinner =    0.800   0.800   0.800

     PseudoPot. # 5 for H  read from file:
     /storage/coda1/p-amedford6/0/shared/rich_project_chbe-medford/medford-share/data/pseudos_module/espresso/nninc/pbe/van/H.UPF
     MD5 check sum: b5ee9d7bfd3a09ee7748110bda690ff7
     Pseudo is Ultrasoft, Zval =  1.0
     Generated by new atomic code, or converted to UPF format
     Using radial grid of  615 points,  1 beta functions with:
                l(1) =   0
     Q(r) pseudized with  8 coefficients,  rinner =    0.800

     atomic species   valence    mass     pseudopotential
        Ti1           12.00    47.86700     Ti( 1.00)
        O1             6.00    15.99900     O ( 1.00)
        N1             5.00    14.00700     N ( 1.00)
        C1             4.00    12.01100     C ( 1.00)
        H1             1.00     1.00800     H ( 1.00)

     No symmetry found

   Cartesian axes

     site n.     atom                  positions (alat units)
         1           Ti1 tau(   1) = (   0.0004258   2.9801865   6.0000000  )
         2           Ti1 tau(   2) = (   3.2906075   1.4906267   6.0002472  )
         3           O1  tau(   3) = (   0.0006271   0.0005054   7.9858123  )
         4           O1  tau(   4) = (   3.2906025   0.0005020   7.3038282  )
         5           O1  tau(   5) = (   4.5942328   1.4918067   9.2879030  )
         6           O1  tau(   6) = (   1.9868534   1.4903216   9.2879459  )
         7           Ti1 tau(   7) = (   3.2907910   2.8959150   9.1758416  )
         8           Ti1 tau(   8) = (   0.0015273   1.4827037   9.2680791  )
         9           O1  tau(   9) = (   3.3035207   5.9473585  11.3310231  )
        10           O1  tau(  10) = (   0.0116148   5.9584955  10.6183126  )
        11           O1  tau(  11) = (   1.3208475   1.4758257  12.6111770  )
        12           O1  tau(  12) = (   5.3082752   1.4698866  12.6250687  )
        13           Ti1 tau(  13) = (   6.5356446   2.9641997  12.6185077  )
        14           Ti1 tau(  14) = (   3.2189969   1.4721334  12.4835407  )
        15           O1  tau(  15) = (   0.0393797   5.9575543  14.6615593  )
        16           O1  tau(  16) = (   3.2985004   5.9511915  13.9168519  )
        17           O1  tau(  17) = (   4.5692420   1.4945533  16.0479082  )
        18           O1  tau(  18) = (   2.0930108   1.4957509  16.0624375  )
        19           Ti1 tau(  19) = (   3.3255584   2.9801015  15.7018593  )
        20           Ti1 tau(  20) = (   6.5669960   1.4976744  15.8335939  )
        21           O1  tau(  21) = (   3.2904802   0.0005063   4.7018136  )
        22           O1  tau(  22) = (   0.0392190   0.0140749  17.2134629  )
        23           O1  tau(  23) = (   1.3043587   1.4918075   6.0039043  )
        24           O1  tau(  24) = (   5.2767064   1.4903225   6.0039473  )
        25           Ti1 tau(  25) = (   0.0000382   5.9609847   6.0000000  )
        26           Ti1 tau(  26) = (   3.2902200   4.4714249   6.0002472  )
        27           O1  tau(  27) = (   0.0002396   2.9813036   7.9858123  )
        28           O1  tau(  28) = (   3.2902150   2.9813002   7.3038282  )
        29           O1  tau(  29) = (   4.5938453   4.4726049   9.2879030  )
        30           O1  tau(  30) = (   1.9864658   4.4711199   9.2879459  )
        31           Ti1 tau(  31) = (   3.2891106   5.8743827   9.1763621  )
        32           Ti1 tau(  32) = (   0.0006254   4.4649316   9.2693709  )
        33           O1  tau(  33) = (   3.3031456   2.9698018  11.3313920  )
        34           O1  tau(  34) = (   0.0092240   2.9805883  10.6323155  )
        35           O1  tau(  35) = (   1.3161540   4.4602657  12.6201046  )
        36           O1  tau(  36) = (   5.3094940   4.4638127  12.6365964  )
        37           Ti1 tau(  37) = (   6.5345696   5.9399333  12.5489351  )
        38           Ti1 tau(  38) = (   3.2177077   4.4523588  12.4826418  )
        39           O1  tau(  39) = (   0.0172592   2.9259015  14.6604509  )
        40           O1  tau(  40) = (   3.3090452   2.9742471  13.9045505  )
        41           O1  tau(  41) = (   4.5663562   4.4668710  16.0744231  )
        42           O1  tau(  42) = (   2.0880155   4.4652721  16.0825153  )
        43           Ti1 tau(  43) = (   3.2840513   5.9573583  15.7162584  )
        44           Ti1 tau(  44) = (   0.0037803   4.6334615  16.1183230  )
        45           O1  tau(  45) = (   3.2900926   2.9813045   4.7018136  )
        46           O1  tau(  46) = (   1.3039711   4.4726057   6.0039043  )
        47           O1  tau(  47) = (   5.2763189   4.4711207   6.0039473  )
        48           N1  tau(  48) = (   0.6403421   2.7964730  18.4694378  )
        49           C1  tau(  49) = (   1.0548146   2.6213466  19.5673862  )
        50           H1  tau(  50) = (   1.9720372   2.4638087  20.0927579  )
        51           N1  tau(  51) = (   0.0885678   2.9476959  17.3929364  )

     number of k points=    10  Fermi-Dirac smearing, width (Ry)=  0.0073
                       cart. coord. in units 2pi/alat
        k(    1) = (   0.0000000   0.0000000   0.0000000), wk =   0.1250000
        k(    2) = (   0.0000000   0.0419351   0.0000000), wk =   0.2500000
        k(    3) = (   0.0000000  -0.0838702   0.0000000), wk =   0.1250000
        k(    4) = (   0.0379955   0.0000049   0.0000000), wk =   0.2500000
        k(    5) = (   0.0379955   0.0419400   0.0000000), wk =   0.2500000
        k(    6) = (   0.0379955  -0.0838652   0.0000000), wk =   0.2500000
        k(    7) = (   0.0379955  -0.0419301   0.0000000), wk =   0.2500000
        k(    8) = (  -0.0759910  -0.0000099   0.0000000), wk =   0.1250000
        k(    9) = (  -0.0759910   0.0419252   0.0000000), wk =   0.2500000
        k(   10) = (  -0.0759910  -0.0838800   0.0000000), wk =   0.1250000

     Initial potential from superposition of free atoms

     starting charge  376.99918, renormalised to  393.00000

     negative rho (up, down):  1.612E-02 0.000E+00

     %%%%%%%%%%%%%%%%%%%%%%%%%%%%%%%%%%%%%%%%%%%%%%%%%%%%%%%%%%%%%%%%%%%%%%%%
     %                                                                      %
     % You are using vdW-DF, which was implemented by the Thonhauser group. %
     % Please cite the following two papers that made this development      %
     % possible and the two reviews that describe the various versions:     %
     %                                                                      %
     %   T. Thonhauser et al., PRL 115, 136402 (2015).                      %
     %   T. Thonhauser et al., PRB 76, 125112 (2007).                       %
     %   K. Berland et al., Rep. Prog. Phys. 78, 066501 (2015).             %
     %   D.C. Langreth et al., J. Phys.: Condens. Matter 21, 084203 (2009). %
     %                                                                      %
     %                                                                      %
     % If you are calculating the stress with vdW-DF, please also cite:     %
     %                                                                      %
     %   R. Sabatini et al., J. Phys.: Condens. Matter 24, 424209 (2012).   %
     %                                                                      %
     %%%%%%%%%%%%%%%%%%%%%%%%%%%%%%%%%%%%%%%%%%%%%%%%%%%%%%%%%%%%%%%%%%%%%%%%

     Adding external electric field

     Computed dipole along edir(3) :
        Dipole               -7.3725 Ry au,        -18.7391 Debye
        Dipole field         -0.0139 Ry au,

        Potential amp.        1.2897 Ry
        Total length         46.3494 bohr

     Starting wfcs are  297 atomic wfcs
  @ DRIVER MODE: Message from server: STATUS
  @ DRIVER MODE: Message from server: POSDATA
  @ DRIVER MODE: Reading and sharing cell
  @ DRIVER MODE: Reading and sharing positions
  @ DRIVER MODE: Received positions

     Self-consistent Calculation

     iteration #  1     ecut=    29.40 Ry     beta= 0.05
     Davidson diagonalization with overlap
     c_bands:  1 eigenvalues not converged
     c_bands:  1 eigenvalues not converged
     c_bands:  1 eigenvalues not converged
     c_bands:  1 eigenvalues not converged
     c_bands:  1 eigenvalues not converged
     ethr =  1.00E-05,  avg # of iterations = 18.6

[...]

     total energy              =   -2707.99542574 Ry
     estimated scf accuracy    <    2533.21866859 Ry

[...]

     iteration #  3     ecut=    29.40 Ry     beta= 0.05
     Davidson diagonalization with overlap
     ethr =  1.00E-02,  avg # of iterations = 16.5

[...]

     iteration # 55     ecut=    29.40 Ry     beta= 0.05
     Davidson diagonalization with overlap
     ethr =  8.35E-11,  avg # of iterations = 10.1

[...]

     total energy              =   -2936.63865196 Ry
     estimated scf accuracy    <       0.00000009 Ry

     iteration # 56     ecut=    29.40 Ry     beta= 0.05
     Davidson diagonalization with overlap
     c_bands:  1 eigenvalues not converged
     ethr =  2.21E-11,  avg # of iterations = 12.2

     negative rho (up, down):  1.642E-02 0.000E+00

     Adding external electric field

     Computed dipole along edir(3) :
        Dipole                0.6557 Ry au,          1.6666 Debye
        Dipole field          0.0012 Ry au,

        Potential amp.       -0.1147 Ry
        Total length         46.3494 bohr

     End of self-consistent calculation

          k = 0.0000 0.0000 0.0000 ( 18029 PWs)   bands (ev):

   -55.9563 -55.9515 -55.9222 -55.9155 -55.8193 -55.8147 -55.7841 -55.7785
   -55.7670 -55.7331 -55.7329 -55.6993 -55.5102 -55.2898 -54.9352 -54.9011
   -32.5058 -32.4390 -32.3183 -32.2757 -32.2660 -32.2587 -32.2489 -32.2238
   -32.1994 -32.1767 -32.1532 -32.1451 -32.1311 -32.1085 -32.1031 -32.0912
   -32.0609 -32.0545 -32.0498 -32.0246 -32.0208 -32.0135 -31.9926 -31.9736
   -31.9639 -31.9564 -31.9559 -31.9539 -31.9444 -31.9348 -31.9310 -31.9081
   -31.8980 -31.8862 -31.8830 -31.8739 -31.8453 -31.7387 -31.7298 -31.5608
   -31.5251 -31.5092 -31.3423 -31.2540 -31.2315 -31.1592 -31.0726 -30.9614
   -19.3538 -16.7052 -16.4350 -16.2017 -16.1114 -16.0873 -15.9668 -15.8025
   -15.6837 -15.6278 -15.5270 -15.5222 -15.4937 -15.4617 -15.4416 -15.4294
   -15.4045 -15.4007 -15.3775 -15.3637 -15.3189 -15.2982 -15.2821 -15.1887
   -15.1346 -15.0921 -15.0569 -15.0325 -15.0166 -14.5611 -14.0168 -13.4376
   -13.3212  -6.7474  -5.2533  -4.3072  -4.0779  -4.0744  -3.9209  -3.8636
    -3.8148  -3.7105  -3.5740  -3.5079  -3.1969  -3.1408  -3.1258  -3.1100
    -3.0781  -2.8645  -2.8101  -2.7724  -2.7453  -2.7353  -2.7269  -2.7213
    -2.7049  -2.6772  -2.5709  -2.4999  -2.4281  -2.4140  -2.3578  -2.3556
    -2.2694  -2.2462  -2.2240  -2.2024  -2.1980  -2.1875  -2.1613  -2.1395
    -2.0140  -1.9435  -1.8327  -1.7642  -1.7288  -1.5660  -1.5480  -1.4212
    -1.4173  -1.3856  -1.3498  -1.3317  -1.2580  -1.1588  -1.1239  -1.1087
    -1.0621  -0.9792  -0.9327  -0.8514  -0.8065  -0.7809  -0.7280  -0.7203
    -0.7121  -0.6653  -0.5130  -0.4378  -0.3839  -0.3710  -0.3365  -0.2630
    -0.2376  -0.1546  -0.1116  -0.0872  -0.0767  -0.0236   0.0162   0.0294
     0.0432   0.0522   0.0628   0.2409   0.2899   0.3146   0.3680   0.3891
     0.5669   0.5982   0.6976   0.7867   1.0133   1.0870   1.1660   1.2777
     1.2801   1.4970   1.6582   1.7039   3.1743   3.2642   3.3056   3.3104
     3.4161   3.4822   3.6293   3.6505   3.6749   3.7175

[...]

          k = 0.0380-0.0419 0.0000 ( 17876 PWs)   bands (ev):

[...]

          k =-0.0760-0.0000 0.0000 ( 17886 PWs)   bands (ev):

[...]

          k =-0.0760-0.0839 0.0000 ( 17948 PWs)   bands (ev):

   -55.9397 -55.9386 -55.9342 -55.9326 -55.8055 -55.8018 -55.7979 -55.7911
   -55.7507 -55.7488 -55.7177 -55.7148 -55.5090 -55.2909 -54.9181 -54.9180
   -32.3091 -32.3082 -32.2547 -32.2539 -32.2348 -32.2338 -32.2090 -32.2076
   -32.1638 -32.1595 -32.1382 -32.1353 -32.0888 -32.0857 -32.0829 -32.0763
   -32.0711 -32.0636 -32.0593 -32.0583 -32.0562 -32.0532 -32.0215 -32.0112
   -32.0100 -31.9983 -31.9921 -31.9818 -31.9515 -31.9508 -31.9486 -31.9461
   -31.9322 -31.9305 -31.9273 -31.9247 -31.8843 -31.7410 -31.7268 -31.6297
   -31.5353 -31.5253 -31.2443 -31.2442 -31.1551 -31.1550 -31.1159 -31.1159
   -19.3511 -16.1373 -16.1152 -15.9117 -15.8762 -15.8708 -15.8585 -15.7484
   -15.6707 -15.6527 -15.6505 -15.5801 -15.5528 -15.5343 -15.4970 -15.4919
   -15.4782 -15.4746 -15.4434 -15.4215 -15.4146 -15.3970 -15.3890 -15.3116
   -15.2762 -15.2716 -15.2512 -15.1401 -15.0013 -14.7405 -14.0226 -13.4231
   -13.4229  -6.7466  -5.2232  -4.2758  -4.0655  -3.4271  -3.4022  -3.1527
    -3.1158  -3.1076  -3.0514  -2.8794  -2.8631  -2.8480  -2.8224  -2.7911
    -2.7854  -2.7791  -2.7651  -2.7466  -2.7115  -2.6785  -2.6535  -2.6305
    -2.6256  -2.6161  -2.5857  -2.5723  -2.5474  -2.5275  -2.5048  -2.4887
    -2.4752  -2.4645  -2.2828  -2.1994  -2.1630  -2.0993  -2.0901  -2.0658
    -2.0223  -2.0137  -1.9943  -1.9486  -1.8135  -1.7007  -1.6595  -1.6412
    -1.5638  -1.5258  -1.4511  -1.3881  -1.3478  -1.3398  -1.2911  -1.2270
    -1.1806  -1.1640  -1.1051  -1.0726  -1.0239  -1.0072  -0.9581  -0.9182
    -0.9140  -0.8384  -0.7851  -0.7650  -0.7279  -0.7234  -0.6847  -0.6294
    -0.6125  -0.5785  -0.4615  -0.4367  -0.3252  -0.2449  -0.1939   0.0038
     0.0779   0.1147   0.1691   0.2349   0.3171   0.3392   0.3505   0.3608
     0.4119   0.4621   0.5701   0.5814   0.6160   0.7400   1.1905   1.4106
     1.4507   1.4513   1.5236   1.5239   3.4762   3.4931   3.5157   3.5306
     3.6839   3.6891   3.7106   3.7115   3.8386   3.8534

     the Fermi energy is     3.1762 ev

!    total energy              =   -2936.63871759 Ry
     estimated scf accuracy    <       0.00000006 Ry
     smearing contrib. (-TS)   =      -0.02149909 Ry
     internal energy E=F+TS    =   -2936.61721850 Ry

     The total energy is F=E-TS. E is the sum of the following terms:
     one-electron contribution =  -24412.64302239 Ry
     hartree contribution      =   12291.62383291 Ry
     xc contribution           =    -483.59819461 Ry
     ewald contribution        =    9667.99935422 Ry
     electric field correction =       0.00081137 Ry

     convergence has been achieved in  56 iterations

     Forces acting on atoms (cartesian axes, Ry/au):

     atom    1 type  1   force =     0.00001147   -0.00025709    0.09654834
     atom    2 type  1   force =     0.00007738   -0.00047753   -0.17539413
     atom    3 type  2   force =     0.00017617   -0.00006307   -0.02446262
     atom    4 type  2   force =     0.00003178   -0.00142591    0.05287072
     atom    5 type  2   force =    -0.01167144   -0.00077743    0.00292099
     atom    6 type  2   force =     0.01354379   -0.00029387    0.00323373
     atom    7 type  1   force =     0.00094649    0.00042647   -0.01153419
     atom    8 type  1   force =    -0.00000225    0.00992582    0.02612625
     atom    9 type  2   force =    -0.00030928    0.00021415    0.00025305
     atom   10 type  2   force =    -0.00267416    0.00000215   -0.01399045
     atom   11 type  2   force =     0.00068662    0.00022118    0.00031703
     atom   12 type  2   force =    -0.00056423    0.00000064   -0.00002399
     atom   13 type  1   force =     0.00036591   -0.00031081    0.00033599
     atom   14 type  1   force =    -0.00059826   -0.00055951   -0.00050062
     atom   15 type  2   force =    -0.00004854   -0.00012714    0.00076313
     atom   16 type  2   force =     0.00024669   -0.00010867   -0.00033504
     atom   17 type  2   force =     0.00035332    0.00030447    0.00000760
     atom   18 type  2   force =     0.00005396    0.00008859   -0.00049543
     atom   19 type  1   force =    -0.00069988   -0.00002218   -0.00071211
     atom   20 type  1   force =     0.00059630    0.00005048    0.00002421
     atom   21 type  2   force =     0.00006125    0.00001477    0.10325003
     atom   22 type  2   force =     0.00004017   -0.00034023   -0.00026832
     atom   23 type  2   force =    -0.07144883   -0.00007477   -0.02762907
     atom   24 type  2   force =     0.07142644    0.00039768   -0.02770912
     atom   25 type  1   force =     0.00025876   -0.00023705    0.09599591
     atom   26 type  1   force =     0.00010913   -0.00027153   -0.17569264
     atom   27 type  2   force =     0.00019902   -0.00017244   -0.02349717
     atom   28 type  2   force =     0.00004904   -0.00120991    0.05302031
     atom   29 type  2   force =    -0.01184313   -0.00001577    0.00276168
     atom   30 type  2   force =     0.01361913    0.00035833    0.00305666
     atom   31 type  1   force =     0.00086919    0.00350233   -0.01216627
     atom   32 type  1   force =     0.00012177   -0.01161490    0.02660244
     atom   33 type  2   force =    -0.00009967    0.00007274   -0.00033730
     atom   34 type  2   force =    -0.00274532   -0.00024825   -0.02148839
     atom   35 type  2   force =     0.00042313   -0.00003535    0.00029132
     atom   36 type  2   force =    -0.00032964   -0.00022595   -0.00022314
     atom   37 type  1   force =     0.00046495   -0.00076049   -0.00044694
     atom   38 type  1   force =    -0.00058225    0.00095274    0.00010390
     atom   39 type  2   force =    -0.00035087   -0.00019610    0.00084395
     atom   40 type  2   force =     0.00010130    0.00020087    0.00002594
     atom   41 type  2   force =     0.00029816    0.00009029    0.00009771
     atom   42 type  2   force =     0.00039008    0.00034430   -0.00028948
     atom   43 type  1   force =    -0.00025653    0.00058697   -0.00062847
     atom   44 type  1   force =     0.00043319    0.00092628   -0.00095542
     atom   45 type  2   force =     0.00006607    0.00002289    0.10322910
     atom   46 type  2   force =    -0.07149320   -0.00000580   -0.02765341
     atom   47 type  2   force =     0.07143490    0.00037398   -0.02771142
     atom   48 type  3   force =     0.00678104   -0.00105929    0.00939022
     atom   49 type  4   force =    -0.00016560   -0.00009767    0.00108379
     atom   50 type  5   force =    -0.00129465    0.00117388    0.00003814
     atom   51 type  3   force =    -0.00705886    0.00073670   -0.00904700

     Total force =     0.367815     Total SCF correction =     0.000446
  @ DRIVER MODE: Message from server: STATUS
  @ DRIVER MODE: Message from server: GETFORCE
  @ DRIVER MODE: Returning v,forces,stress,ensemble

     Writing output data file ./calc.save/
  @ DRIVER MODE: Message from server: EXIT
  @ DRIVE MODE: Exiting

     General routines

     Parallel routines

   This run was terminated on:  23: 8:19  23Aug2021

   JOB DONE.