     Program PWSCF v.6.7GPU starts on 23Aug2021 at 23:27:11

     R & G space division:  proc/nbgrp/npool/nimage =       6
     Reading input from /storage/home/hcoda1/3/ntian30/research/carbon/CH_vib/ads_slab/CHNHHH_a/out_0020/pw.inp
Warning: card &CELL ignored
Warning: card   CELL_DYNAMICS='IPI', ignored
Warning: card / ignored

     Current dimensions of program PWSCF are:
     Max number of different atomic species (ntypx) = 10
     Max number of k-points (npk) =  40000
     Max angular momentum in pseudopotentials (lmaxx) =  3
     Presently no symmetry can be used with electric field

     Message from routine cell_base_init:
     DEPRECATED: use true lattice parameter, not A to a.u. conversion factor

     IMPORTANT: XC functional enforced from input :
     Exchange-correlation= BEEF-VDW
                           (   1   4  43  14   2   0   0)
     Any further DFT definition will be discarded
     Please, verify this is what you really want

  @ DRIVER MODE: Connecting to
 qe_1139763_2632793.sched-torque.pace.gatech.edukozywwuv_scratch
  using UNIX socket
  @ DRIVER MODE: Message from server: STATUS
  @ DRIVER MODE: Message from server: INIT
  @ DRIVER MODE: Receiving replica           0          -1
  @ DRIVER MODE: Receiving encoded integer          25
  @ DRIVER MODE:  SCF:  T  FORCE:  T  STRESS:  F  VC:  F  ENSEMBLE:  F
  @ DRIVER MODE:  SCF:  T  FORCE:  T  STRESS:  F  VC:  F  ENSEMBLE:  F

     Using Slab Decomposition

     bravais-lattice index     =            0
     lattice parameter (alat)  =       1.8897  a.u.
     unit-cell volume          =    6658.9804 (a.u.)^3
     number of atoms/cell      =           53
     number of atomic types    =            5
     number of electrons       =       391.00
     number of Kohn-Sham states=          205
     kinetic-energy cutoff     =      29.3995  Ry
     charge density cutoff     =     293.9946  Ry
     scf convergence threshold =      7.3E-08
     mixing beta               =       0.0500
     number of iterations used =            8  plain     mixing
     Exchange-correlation= BEEF-VDW
                           (   1   4  43  14   2   0   0)

     celldm(1)=   1.889726  celldm(2)=   0.000000  celldm(3)=   0.000000
     celldm(4)=   0.000000  celldm(5)=   0.000000  celldm(6)=   0.000000

     crystal axes: (cart. coord. in units of alat)
               a(1) = (   6.579727   0.000000   0.000000 )
               a(2) = (  -0.000775   5.961596   0.000000 )
               a(3) = (   0.000000   0.000000  25.155947 )

     reciprocal axes: (cart. coord. in units 2 pi/alat)
               b(1) = (  0.151982  0.000020  0.000000 )
               b(2) = (  0.000000  0.167740  0.000000 )
               b(3) = (  0.000000  0.000000  0.039752 )

     PseudoPot. # 1 for Ti read from file:
     /storage/coda1/p-amedford6/0/shared/rich_project_chbe-medford/medford-share/data/pseudos_module/espresso/nninc/pbe/van/Ti.UPF
     MD5 check sum: 8e4df49b7f0d34bbd5052bf3f5ea0213
     Pseudo is Ultrasoft, Zval = 12.0
     Generated by new atomic code, or converted to UPF format
     Using radial grid of  851 points,  6 beta functions with:
                l(1) =   0
                l(2) =   0
                l(3) =   1
                l(4) =   1
                l(5) =   2
                l(6) =   2
     Q(r) pseudized with  8 coefficients,  rinner =    1.000   1.000   1.000
                                                       1.000   1.000

     PseudoPot. # 2 for O  read from file:
     /storage/coda1/p-amedford6/0/shared/rich_project_chbe-medford/medford-share/data/pseudos_module/espresso/nninc/pbe/van/O.UPF
     MD5 check sum: 78c19812648e8988a0fe644b0f25305e
     Pseudo is Ultrasoft, Zval =  6.0
     Generated by new atomic code, or converted to UPF format
     Using radial grid of  737 points,  4 beta functions with:
                l(1) =   0
                l(2) =   0
                l(3) =   1
                l(4) =   1
     Q(r) pseudized with  8 coefficients,  rinner =    0.800   0.800   0.800

     PseudoPot. # 3 for N  read from file:
     /storage/coda1/p-amedford6/0/shared/rich_project_chbe-medford/medford-share/data/pseudos_module/espresso/nninc/pbe/van/N.UPF
     MD5 check sum: 90d10febe142ad51ac9d5be1deb811c4
     Pseudo is Ultrasoft, Zval =  5.0
     Generated by new atomic code, or converted to UPF format
     Using radial grid of  729 points,  4 beta functions with:
                l(1) =   0
                l(2) =   0
                l(3) =   1
                l(4) =   1
     Q(r) pseudized with  8 coefficients,  rinner =    0.800   0.800   0.800

     PseudoPot. # 4 for C  read from file:
     /storage/coda1/p-amedford6/0/shared/rich_project_chbe-medford/medford-share/data/pseudos_module/espresso/nninc/pbe/van/C.UPF
     MD5 check sum: 1a69bf6b8db32088f5b2163dbdb77a27
     Pseudo is Ultrasoft, Zval =  4.0
     Generated by new atomic code, or converted to UPF format
     Using radial grid of  721 points,  4 beta functions with:
                l(1) =   0
                l(2) =   0
                l(3) =   1
                l(4) =   1
     Q(r) pseudized with  8 coefficients,  rinner =    0.800   0.800   0.800

     PseudoPot. # 5 for H  read from file:
     /storage/coda1/p-amedford6/0/shared/rich_project_chbe-medford/medford-share/data/pseudos_module/espresso/nninc/pbe/van/H.UPF
     MD5 check sum: b5ee9d7bfd3a09ee7748110bda690ff7
     Pseudo is Ultrasoft, Zval =  1.0
     Generated by new atomic code, or converted to UPF format
     Using radial grid of  615 points,  1 beta functions with:
                l(1) =   0
     Q(r) pseudized with  8 coefficients,  rinner =    0.800

     atomic species   valence    mass     pseudopotential
        Ti1           12.00    47.86700     Ti( 1.00)
        O1             6.00    15.99900     O ( 1.00)
        N1             5.00    14.00700     N ( 1.00)
        C1             4.00    12.01100     C ( 1.00)
        H1             1.00     1.00800     H ( 1.00)

     No symmetry found

   Cartesian axes

     site n.     atom                  positions (alat units)
         1           Ti1 tau(   1) = (   0.0004258   2.9801865   6.0000000  )
         2           Ti1 tau(   2) = (   3.2906075   1.4906267   6.0002472  )
         3           O1  tau(   3) = (   0.0006271   0.0005054   7.9858123  )
         4           O1  tau(   4) = (   3.2906025   0.0005020   7.3038282  )
         5           O1  tau(   5) = (   4.5942328   1.4918067   9.2879030  )
         6           O1  tau(   6) = (   1.9868534   1.4903216   9.2879459  )
         7           Ti1 tau(   7) = (   3.2907910   2.8959150   9.1758416  )
         8           Ti1 tau(   8) = (   0.0015273   1.4827037   9.2680791  )
         9           O1  tau(   9) = (   3.3113122   5.9567026  11.3833813  )
        10           O1  tau(  10) = (   0.0116148   5.9584955  10.6183126  )
        11           O1  tau(  11) = (   1.3074368   1.4838846  12.6958875  )
        12           O1  tau(  12) = (   5.3165545   1.4905306  12.6890028  )
        13           Ti1 tau(  13) = (   0.0319163   2.9634337  12.5060949  )
        14           Ti1 tau(  14) = (   3.3348194   1.4676286  12.5406051  )
        15           O1  tau(  15) = (   6.5718004   5.8756060  14.7032446  )
        16           O1  tau(  16) = (   3.3285255   5.9545307  14.0046557  )
        17           O1  tau(  17) = (   4.5620449   1.5282301  16.1894795  )
        18           O1  tau(  18) = (   2.0507131   1.5111456  16.1254446  )
        19           Ti1 tau(  19) = (   3.3090684   3.0029381  15.7706148  )
        20           Ti1 tau(  20) = (   0.0350077   1.2886257  15.8758580  )
        21           O1  tau(  21) = (   3.2904802   0.0005063   4.7018136  )
        22           O1  tau(  22) = (   0.0240991   0.1326893  17.2553962  )
        23           O1  tau(  23) = (   1.3043587   1.4918075   6.0039043  )
        24           O1  tau(  24) = (   5.2767064   1.4903225   6.0039473  )
        25           Ti1 tau(  25) = (   0.0000382   5.9609847   6.0000000  )
        26           Ti1 tau(  26) = (   3.2902200   4.4714249   6.0002472  )
        27           O1  tau(  27) = (   0.0002396   2.9813036   7.9858123  )
        28           O1  tau(  28) = (   3.2902150   2.9813002   7.3038282  )
        29           O1  tau(  29) = (   4.5938453   4.4726049   9.2879030  )
        30           O1  tau(  30) = (   1.9864658   4.4711199   9.2879459  )
        31           Ti1 tau(  31) = (   3.2891106   5.8743827   9.1763621  )
        32           Ti1 tau(  32) = (   0.0006254   4.4649316   9.2693709  )
        33           O1  tau(  33) = (   3.3073171   2.9646269  11.3784001  )
        34           O1  tau(  34) = (   0.0092240   2.9805883  10.6323155  )
        35           O1  tau(  35) = (   1.3112202   4.4579144  12.6624112  )
        36           O1  tau(  36) = (   5.3138049   4.4530836  12.6532163  )
        37           Ti1 tau(  37) = (   0.0383750   5.9352221  12.5084026  )
        38           Ti1 tau(  38) = (   3.3346062   4.4465110  12.5317211  )
        39           O1  tau(  39) = (   0.0124192   3.0170750  14.9941726  )
        40           O1  tau(  40) = (   3.3221393   2.9969786  13.9787254  )
        41           O1  tau(  41) = (   4.5445774   4.4782521  16.2319081  )
        42           O1  tau(  42) = (   2.0501905   4.4790704  16.2078326  )
        43           Ti1 tau(  43) = (   3.3285819   0.0194352  15.8051934  )
        44           Ti1 tau(  44) = (   0.0611752   4.5099810  16.0683830  )
        45           O1  tau(  45) = (   3.2900926   2.9813045   4.7018136  )
        46           O1  tau(  46) = (   1.3039711   4.4726057   6.0039043  )
        47           O1  tau(  47) = (   5.2763189   4.4711207   6.0039473  )
        48           N1  tau(  48) = (   6.2166669   3.4226028  18.2351681  )
        49           C1  tau(  49) = (   0.7325778   3.1430902  19.0455235  )
        50           H1  tau(  50) = (   1.1688338   2.1628109  18.9760543  )
        51           H1  tau(  51) = (   5.7107151   4.2593073  18.4945226  )
        52           H1  tau(  52) = (   5.5741914   2.6425579  18.1107425  )
        53           H1  tau(  53) = (   1.2593429   3.9788434  19.4721980  )

     number of k points=    10  Fermi-Dirac smearing, width (Ry)=  0.0073
                       cart. coord. in units 2pi/alat
        k(    1) = (   0.0000000   0.0000000   0.0000000), wk =   0.1250000
        k(    2) = (   0.0000000   0.0419351   0.0000000), wk =   0.2500000
        k(    3) = (   0.0000000  -0.0838702   0.0000000), wk =   0.1250000
        k(    4) = (   0.0379955   0.0000049   0.0000000), wk =   0.2500000
        k(    5) = (   0.0379955   0.0419400   0.0000000), wk =   0.2500000
        k(    6) = (   0.0379955  -0.0838652   0.0000000), wk =   0.2500000
        k(    7) = (   0.0379955  -0.0419301   0.0000000), wk =   0.2500000
        k(    8) = (  -0.0759910  -0.0000099   0.0000000), wk =   0.1250000
        k(    9) = (  -0.0759910   0.0419252   0.0000000), wk =   0.2500000
        k(   10) = (  -0.0759910  -0.0838800   0.0000000), wk =   0.1250000

     Initial potential from superposition of free atoms

     starting charge  374.99916, renormalised to  391.00000

     negative rho (up, down):  1.698E-02 0.000E+00

     %%%%%%%%%%%%%%%%%%%%%%%%%%%%%%%%%%%%%%%%%%%%%%%%%%%%%%%%%%%%%%%%%%%%%%%%
     %                                                                      %
     % You are using vdW-DF, which was implemented by the Thonhauser group. %
     % Please cite the following two papers that made this development      %
     % possible and the two reviews that describe the various versions:     %
     %                                                                      %
     %   T. Thonhauser et al., PRL 115, 136402 (2015).                      %
     %   T. Thonhauser et al., PRB 76, 125112 (2007).                       %
     %   K. Berland et al., Rep. Prog. Phys. 78, 066501 (2015).             %
     %   D.C. Langreth et al., J. Phys.: Condens. Matter 21, 084203 (2009). %
     %                                                                      %
     %                                                                      %
     % If you are calculating the stress with vdW-DF, please also cite:     %
     %                                                                      %
     %   R. Sabatini et al., J. Phys.: Condens. Matter 24, 424209 (2012).   %
     %                                                                      %
     %%%%%%%%%%%%%%%%%%%%%%%%%%%%%%%%%%%%%%%%%%%%%%%%%%%%%%%%%%%%%%%%%%%%%%%%

     Adding external electric field

     Computed dipole along edir(3) :
        Dipole               -6.8871 Ry au,        -17.5052 Debye
        Dipole field         -0.0130 Ry au,

        Potential amp.        1.2048 Ry
        Total length         46.3494 bohr

     Starting wfcs are  296 atomic wfcs
  @ DRIVER MODE: Message from server: STATUS
  @ DRIVER MODE: Message from server: POSDATA
  @ DRIVER MODE: Reading and sharing cell
  @ DRIVER MODE: Reading and sharing positions
  @ DRIVER MODE: Received positions

     Self-consistent Calculation

     iteration #  1     ecut=    29.40 Ry     beta= 0.05
     Davidson diagonalization with overlap
     c_bands:  1 eigenvalues not converged
     c_bands:  2 eigenvalues not converged
     ethr =  1.00E-05,  avg # of iterations = 15.9

[...]

     total energy              =   -2713.95231287 Ry
     estimated scf accuracy    <    2276.00741959 Ry

[...]

     iteration #  3     ecut=    29.40 Ry     beta= 0.05
     Davidson diagonalization with overlap
     ethr =  1.00E-02,  avg # of iterations = 15.4

[...]

     iteration # 75     ecut=    29.40 Ry     beta= 0.05
     Davidson diagonalization with overlap
     c_bands:  1 eigenvalues not converged
     c_bands:  1 eigenvalues not converged
     ethr =  3.48E-11,  avg # of iterations = 16.3

[...]

     total energy              =   -2920.25696432 Ry
     estimated scf accuracy    <       0.00000013 Ry

     iteration # 76     ecut=    29.40 Ry     beta= 0.05
     Davidson diagonalization with overlap
     ethr =  3.39E-11,  avg # of iterations = 10.2

     negative rho (up, down):  1.634E-02 0.000E+00

     Adding external electric field

     Computed dipole along edir(3) :
        Dipole                0.9011 Ry au,          2.2903 Debye
        Dipole field          0.0017 Ry au,

        Potential amp.       -0.1576 Ry
        Total length         46.3494 bohr

     End of self-consistent calculation

          k = 0.0000 0.0000 0.0000 ( 18029 PWs)   bands (ev):

   -55.7203 -55.6839 -55.6740 -55.6399 -55.6070 -55.6040 -55.5696 -55.5453
   -55.5374 -55.5109 -55.5059 -55.4723 -55.4511 -55.2891 -54.7053 -54.6712
   -32.2853 -32.1671 -32.0915 -32.0420 -32.0384 -32.0343 -32.0297 -32.0118
   -31.9628 -31.9528 -31.9328 -31.9277 -31.9189 -31.8892 -31.8744 -31.8736
   -31.8589 -31.8451 -31.8412 -31.8265 -31.8216 -31.7884 -31.7812 -31.7757
   -31.7475 -31.7357 -31.7354 -31.7310 -31.7250 -31.7180 -31.7059 -31.7040
   -31.6941 -31.6916 -31.6588 -31.6576 -31.6535 -31.6339 -31.6237 -31.6174
   -31.5087 -31.4619 -31.1148 -31.0203 -30.9982 -30.9311 -30.8443 -30.7334
   -16.7020 -16.5277 -16.2708 -16.1050 -16.0059 -15.9204 -15.7785 -15.7595
   -15.6435 -15.5668 -15.4243 -15.3876 -15.3746 -15.3580 -15.3352 -15.3229
   -15.2684 -15.2628 -15.2419 -15.2176 -15.2133 -15.1653 -15.1620 -15.1217
   -15.0985 -15.0362 -14.9665 -14.8827 -14.8106 -14.4809 -13.2080 -13.0905
    -9.5321  -6.9086  -4.9567  -3.8839  -3.7410  -3.6744  -3.6217  -3.6153
    -3.4710  -3.2998  -3.1539  -3.1322  -3.1021  -2.9895  -2.9254  -2.9111
    -2.8872  -2.7559  -2.7312  -2.6800  -2.6449  -2.5704  -2.5668  -2.5262
    -2.5126  -2.4680  -2.4618  -2.4357  -2.3035  -2.2889  -2.2521  -2.1878
    -2.1280  -2.1262  -2.0693  -2.0516  -2.0118  -2.0030  -1.9918  -1.9500
    -1.9445  -1.9095  -1.8074  -1.7450  -1.6126  -1.5785  -1.4331  -1.3624
    -1.3138  -1.2954  -1.2118  -1.1905  -1.1395  -1.1011  -1.0906  -1.0586
    -0.9451  -0.8591  -0.8082  -0.7537  -0.7212  -0.7051  -0.6159  -0.5234
    -0.5014  -0.4883  -0.4469  -0.3447  -0.3238  -0.2610  -0.2019  -0.1863
    -0.1771  -0.0815  -0.0500   0.0225   0.0730   0.0941   0.1657   0.1914
     0.2105   0.2160   0.2513   0.2625   0.3386   0.3553   0.3799   0.4667
     0.5926   0.8391   0.8880   0.9013   1.2180   1.2222   1.3174   1.5006
     1.8938   1.9421   3.3706   3.3885   3.4522   3.5213   3.5251   3.5895
     3.6121   3.8574   3.8785   3.8859   3.9025

[...]

          k = 0.0380-0.0419 0.0000 ( 17876 PWs)   bands (ev):

[...]

          k =-0.0760-0.0000 0.0000 ( 17886 PWs)   bands (ev):

[...]

          k =-0.0760-0.0839 0.0000 ( 17948 PWs)   bands (ev):

   -55.7051 -55.6989 -55.6569 -55.6569 -55.6024 -55.5874 -55.5862 -55.5417
   -55.5297 -55.5261 -55.4893 -55.4890 -55.4491 -55.2911 -54.6883 -54.6881
   -32.0920 -32.0873 -31.9959 -31.9822 -31.9821 -31.9780 -31.9509 -31.9482
   -31.9480 -31.9322 -31.9256 -31.9164 -31.9112 -31.8706 -31.8674 -31.8620
   -31.8580 -31.8535 -31.8480 -31.8447 -31.8287 -31.8084 -31.8007 -31.7998
   -31.7826 -31.7779 -31.7765 -31.7764 -31.7624 -31.7589 -31.7424 -31.7388
   -31.7386 -31.7240 -31.7218 -31.7193 -31.6721 -31.6696 -31.6688 -31.6297
   -31.5532 -31.5109 -31.0110 -31.0108 -30.9274 -30.9271 -30.8878 -30.8877
   -16.6724 -16.0100 -15.9447 -15.9067 -15.7586 -15.7176 -15.6827 -15.6710
   -15.5478 -15.5158 -15.4950 -15.4747 -15.4388 -15.4248 -15.4180 -15.3653
   -15.3395 -15.3195 -15.3153 -15.3013 -15.2388 -15.2324 -15.2276 -15.2203
   -15.1727 -15.1690 -15.0777 -15.0747 -15.0512 -14.7680 -13.1920 -13.1919
    -9.5340  -6.8904  -4.9360  -3.2154  -3.1980  -3.1612  -3.1354  -2.9787
    -2.9170  -2.9021  -2.8723  -2.8000  -2.7480  -2.7319  -2.6877  -2.6840
    -2.6304  -2.5973  -2.5724  -2.5585  -2.5524  -2.5386  -2.5170  -2.4807
    -2.4519  -2.4501  -2.4411  -2.3954  -2.3692  -2.3585  -2.3208  -2.3145
    -2.3064  -2.2789  -2.2157  -2.1151  -2.0854  -2.0575  -1.9611  -1.9299
    -1.9248  -1.8450  -1.8118  -1.7569  -1.7501  -1.7422  -1.5770  -1.5052
    -1.4688  -1.4655  -1.4432  -1.3159  -1.3013  -1.2229  -1.1991  -1.1867
    -1.0998  -1.0777  -1.0345  -1.0077  -0.9312  -0.9019  -0.8401  -0.7531
    -0.7145  -0.7075  -0.6784  -0.6745  -0.6255  -0.6145  -0.5293  -0.4907
    -0.4558  -0.4454  -0.3971  -0.2121  -0.1953  -0.1650  -0.0261   0.0241
     0.1498   0.1730   0.2339   0.3077   0.3483   0.3919   0.4286   0.5735
     0.5833   0.6152   0.6607   0.6719   0.7301   0.7389   1.6736   1.6742
     1.7619   1.7622   3.3846   3.6315   3.6340   3.6691   3.6919   3.8470
     3.8919   3.9355   3.9573   3.9603   3.9820

     the Fermi energy is     3.4388 ev

!    total energy              =   -2920.25698006 Ry
     estimated scf accuracy    <       0.00000004 Ry
     smearing contrib. (-TS)   =      -0.04246160 Ry
     internal energy E=F+TS    =   -2920.21451846 Ry

     The total energy is F=E-TS. E is the sum of the following terms:
     one-electron contribution =  -24059.38595486 Ry
     hartree contribution      =   12115.88880729 Ry
     xc contribution           =    -480.86237169 Ry
     ewald contribution        =    9504.14346856 Ry
     electric field correction =       0.00153223 Ry

     convergence has been achieved in  76 iterations

     Forces acting on atoms (cartesian axes, Ry/au):

     atom    1 type  1   force =    -0.00001780   -0.00018764    0.09318706
     atom    2 type  1   force =    -0.00011309   -0.00033109   -0.17840391
     atom    3 type  2   force =     0.00008985   -0.00038603   -0.02007583
     atom    4 type  2   force =     0.00004596   -0.00199603    0.05910845
     atom    5 type  2   force =    -0.01018088   -0.00082276    0.00742818
     atom    6 type  2   force =     0.01218802   -0.00043007    0.00774138
     atom    7 type  1   force =     0.00015611    0.00229011   -0.01371497
     atom    8 type  1   force =    -0.00035157   -0.00183435   -0.00453207
     atom    9 type  2   force =    -0.00034176    0.00036523   -0.00022812
     atom   10 type  2   force =    -0.00026886    0.00142138    0.00224225
     atom   11 type  2   force =    -0.00013972    0.00010141   -0.00010654
     atom   12 type  2   force =    -0.00026434   -0.00022932   -0.00061732
     atom   13 type  1   force =    -0.00048343    0.00091546   -0.00025372
     atom   14 type  1   force =    -0.00069921    0.00043148   -0.00046914
     atom   15 type  2   force =     0.00004638   -0.00018772    0.00016035
     atom   16 type  2   force =    -0.00041240   -0.00009775    0.00000201
     atom   17 type  2   force =    -0.00007517   -0.00029927   -0.00043160
     atom   18 type  2   force =    -0.00032226   -0.00016582    0.00046428
     atom   19 type  1   force =    -0.00058077   -0.00005407    0.00006109
     atom   20 type  1   force =    -0.00009412   -0.00023592   -0.00040841
     atom   21 type  2   force =     0.00002512   -0.00006030    0.10400528
     atom   22 type  2   force =    -0.00053630   -0.00012385    0.00031186
     atom   23 type  2   force =    -0.07035762   -0.00014313   -0.02687034
     atom   24 type  2   force =     0.07023432    0.00029608   -0.02695551
     atom   25 type  1   force =     0.00002509   -0.00014437    0.09258179
     atom   26 type  1   force =    -0.00013855   -0.00046407   -0.17846707
     atom   27 type  2   force =     0.00015919   -0.00028759   -0.01915360
     atom   28 type  2   force =     0.00005730   -0.00176733    0.05848747
     atom   29 type  2   force =    -0.01066740   -0.00130427    0.00789556
     atom   30 type  2   force =     0.01254182   -0.00083562    0.00816179
     atom   31 type  1   force =     0.00028358    0.00600084   -0.01443883
     atom   32 type  1   force =    -0.00036686    0.00121793   -0.00501146
     atom   33 type  2   force =    -0.00004796   -0.00045605   -0.00008144
     atom   34 type  2   force =     0.00078292   -0.00259208    0.00063844
     atom   35 type  2   force =    -0.00060974   -0.00028870   -0.00012507
     atom   36 type  2   force =     0.00060206    0.00005420    0.00004456
     atom   37 type  1   force =    -0.00046845   -0.00042964    0.00005775
     atom   38 type  1   force =    -0.00026779    0.00035517   -0.00084204
     atom   39 type  2   force =    -0.00062679    0.00034542   -0.00012049
     atom   40 type  2   force =    -0.00015148   -0.00036209   -0.00057961
     atom   41 type  2   force =    -0.00101518    0.00009676   -0.00001670
     atom   42 type  2   force =     0.00002832   -0.00013208    0.00028277
     atom   43 type  1   force =     0.00052581   -0.00005669   -0.00039868
     atom   44 type  1   force =     0.00042084    0.00064785   -0.00037125
     atom   45 type  2   force =     0.00003875   -0.00007584    0.10395434
     atom   46 type  2   force =    -0.07032594   -0.00009665   -0.02684875
     atom   47 type  2   force =     0.07022447    0.00034963   -0.02690495
     atom   48 type  3   force =     0.00477670   -0.00420310   -0.00136170
     atom   49 type  4   force =     0.00004339    0.00057966    0.00064939
     atom   50 type  5   force =     0.00065920   -0.00083381   -0.00019736
     atom   51 type  5   force =    -0.00399653    0.00500661    0.00100272
     atom   52 type  5   force =    -0.00060742    0.00143474    0.00017391
     atom   53 type  5   force =     0.00057420    0.00000514   -0.00065624

     Total force =     0.366439     Total SCF correction =     0.000366
  @ DRIVER MODE: Message from server: STATUS
  @ DRIVER MODE: Message from server: GETFORCE
  @ DRIVER MODE: Returning v,forces,stress,ensemble

     Writing output data file ./calc.save/
  @ DRIVER MODE: Message from server: EXIT
  @ DRIVE MODE: Exiting

     General routines

     Parallel routines

   This run was terminated on:  23:59:19  23Aug2021

   JOB DONE.