     Program PWSCF v.6.7GPU starts on  9Sep2021 at  5:34:59

     R & G space division:  proc/nbgrp/npool/nimage =      10
     Reading input from /storage/home/hcoda1/3/ntian30/research/carbon/CxH_vib/CH2_calc/ads_slab/CH2NNHH_a/out_0023/pw.inp
Warning: card &CELL ignored
Warning: card   CELL_DYNAMICS='IPI', ignored
Warning: card / ignored

     Current dimensions of program PWSCF are:
     Max number of different atomic species (ntypx) = 10
     Max number of k-points (npk) =  40000
     Max angular momentum in pseudopotentials (lmaxx) =  3
     Presently no symmetry can be used with electric field

     Message from routine cell_base_init:
     DEPRECATED: use true lattice parameter, not A to a.u. conversion factor

     IMPORTANT: XC functional enforced from input :
     Exchange-correlation= BEEF-VDW
                           (   1   4  43  14   2   0   0)
     Any further DFT definition will be discarded
     Please, verify this is what you really want

  @ DRIVER MODE: Connecting to
 qe_1139763_2767391.sched-torque.pace.gatech.edu53py_5d8_scratch
  using UNIX socket
  @ DRIVER MODE: Message from server: STATUS
  @ DRIVER MODE: Message from server: INIT
  @ DRIVER MODE: Receiving replica           0          -1
  @ DRIVER MODE: Receiving encoded integer          25
  @ DRIVER MODE:  SCF:  T  FORCE:  T  STRESS:  F  VC:  F  ENSEMBLE:  F
  @ DRIVER MODE:  SCF:  T  FORCE:  T  STRESS:  F  VC:  F  ENSEMBLE:  F

     Using Slab Decomposition

     bravais-lattice index     =            0
     lattice parameter (alat)  =       1.8897  a.u.
     unit-cell volume          =    6658.9804 (a.u.)^3
     number of atoms/cell      =           54
     number of atomic types    =            5
     number of electrons       =       396.00
     number of Kohn-Sham states=          208
     kinetic-energy cutoff     =      29.3995  Ry
     charge density cutoff     =     293.9946  Ry
     scf convergence threshold =      7.3E-08
     mixing beta               =       0.0500
     number of iterations used =            8  plain     mixing
     Exchange-correlation= BEEF-VDW
                           (   1   4  43  14   2   0   0)

     celldm(1)=   1.889726  celldm(2)=   0.000000  celldm(3)=   0.000000
     celldm(4)=   0.000000  celldm(5)=   0.000000  celldm(6)=   0.000000

     crystal axes: (cart. coord. in units of alat)
               a(1) = (   6.579727   0.000000   0.000000 )
               a(2) = (  -0.000775   5.961596   0.000000 )
               a(3) = (   0.000000   0.000000  25.155947 )

     reciprocal axes: (cart. coord. in units 2 pi/alat)
               b(1) = (  0.151982  0.000020  0.000000 )
               b(2) = (  0.000000  0.167740  0.000000 )
               b(3) = (  0.000000  0.000000  0.039752 )

     PseudoPot. # 1 for Ti read from file:
     /storage/coda1/p-amedford6/0/shared/rich_project_chbe-medford/medford-share/data/pseudos_module/espresso/nninc/pbe/van/Ti.UPF
     MD5 check sum: 8e4df49b7f0d34bbd5052bf3f5ea0213
     Pseudo is Ultrasoft, Zval = 12.0
     Generated by new atomic code, or converted to UPF format
     Using radial grid of  851 points,  6 beta functions with:
                l(1) =   0
                l(2) =   0
                l(3) =   1
                l(4) =   1
                l(5) =   2
                l(6) =   2
     Q(r) pseudized with  8 coefficients,  rinner =    1.000   1.000   1.000
                                                       1.000   1.000

     PseudoPot. # 2 for O  read from file:
     /storage/coda1/p-amedford6/0/shared/rich_project_chbe-medford/medford-share/data/pseudos_module/espresso/nninc/pbe/van/O.UPF
     MD5 check sum: 78c19812648e8988a0fe644b0f25305e
     Pseudo is Ultrasoft, Zval =  6.0
     Generated by new atomic code, or converted to UPF format
     Using radial grid of  737 points,  4 beta functions with:
                l(1) =   0
                l(2) =   0
                l(3) =   1
                l(4) =   1
     Q(r) pseudized with  8 coefficients,  rinner =    0.800   0.800   0.800

     PseudoPot. # 3 for N  read from file:
     /storage/coda1/p-amedford6/0/shared/rich_project_chbe-medford/medford-share/data/pseudos_module/espresso/nninc/pbe/van/N.UPF
     MD5 check sum: 90d10febe142ad51ac9d5be1deb811c4
     Pseudo is Ultrasoft, Zval =  5.0
     Generated by new atomic code, or converted to UPF format
     Using radial grid of  729 points,  4 beta functions with:
                l(1) =   0
                l(2) =   0
                l(3) =   1
                l(4) =   1
     Q(r) pseudized with  8 coefficients,  rinner =    0.800   0.800   0.800

     PseudoPot. # 4 for C  read from file:
     /storage/coda1/p-amedford6/0/shared/rich_project_chbe-medford/medford-share/data/pseudos_module/espresso/nninc/pbe/van/C.UPF
     MD5 check sum: 1a69bf6b8db32088f5b2163dbdb77a27
     Pseudo is Ultrasoft, Zval =  4.0
     Generated by new atomic code, or converted to UPF format
     Using radial grid of  721 points,  4 beta functions with:
                l(1) =   0
                l(2) =   0
                l(3) =   1
                l(4) =   1
     Q(r) pseudized with  8 coefficients,  rinner =    0.800   0.800   0.800

     PseudoPot. # 5 for H  read from file:
     /storage/coda1/p-amedford6/0/shared/rich_project_chbe-medford/medford-share/data/pseudos_module/espresso/nninc/pbe/van/H.UPF
     MD5 check sum: b5ee9d7bfd3a09ee7748110bda690ff7
     Pseudo is Ultrasoft, Zval =  1.0
     Generated by new atomic code, or converted to UPF format
     Using radial grid of  615 points,  1 beta functions with:
                l(1) =   0
     Q(r) pseudized with  8 coefficients,  rinner =    0.800

     atomic species   valence    mass     pseudopotential
        Ti1           12.00    47.86700     Ti( 1.00)
        O1             6.00    15.99900     O ( 1.00)
        N1             5.00    14.00700     N ( 1.00)
        C1             4.00    12.01100     C ( 1.00)
        H1             1.00     1.00800     H ( 1.00)

     No symmetry found

   Cartesian axes

     site n.     atom                  positions (alat units)
         1           Ti1 tau(   1) = (   0.0004258   2.9801865   6.0000000  )
         2           Ti1 tau(   2) = (   3.2906075   1.4906267   6.0002472  )
         3           O1  tau(   3) = (   0.0006271   0.0005054   7.9858123  )
         4           O1  tau(   4) = (   3.2906025   0.0005020   7.3038282  )
         5           O1  tau(   5) = (   4.5942328   1.4918067   9.2879030  )
         6           O1  tau(   6) = (   1.9868534   1.4903216   9.2879459  )
         7           Ti1 tau(   7) = (   3.2907910   2.8959150   9.1758416  )
         8           Ti1 tau(   8) = (   0.0015273   1.4827037   9.2680791  )
         9           O1  tau(   9) = (   3.2741875   5.9357071  11.3735532  )
        10           O1  tau(  10) = (   0.0116148   5.9584955  10.6183126  )
        11           O1  tau(  11) = (   1.2759687   1.4857368  12.6615302  )
        12           O1  tau(  12) = (   5.2764777   1.4850508  12.6403612  )
        13           Ti1 tau(  13) = (   6.5724762   2.9646551  12.5117882  )
        14           Ti1 tau(  14) = (   3.2886223   1.4652571  12.5194246  )
        15           O1  tau(  15) = (   6.5416971   0.0664024  14.6986244  )
        16           O1  tau(  16) = (   3.2828258   5.9593040  13.9967703  )
        17           O1  tau(  17) = (   4.5136565   1.4796660  16.2299008  )
        18           O1  tau(  18) = (   2.0038615   1.4742267  16.2123189  )
        19           Ti1 tau(  19) = (   3.2480181   2.9445974  15.7466143  )
        20           Ti1 tau(  20) = (   6.5118905   1.3801257  16.1190456  )
        21           O1  tau(  21) = (   3.2904802   0.0005063   4.7018136  )
        22           O1  tau(  22) = (   6.5538845   5.8109167  17.2256470  )
        23           O1  tau(  23) = (   1.3043587   1.4918075   6.0039043  )
        24           O1  tau(  24) = (   5.2767064   1.4903225   6.0039473  )
        25           Ti1 tau(  25) = (   0.0000382   5.9609847   6.0000000  )
        26           Ti1 tau(  26) = (   3.2902200   4.4714249   6.0002472  )
        27           O1  tau(  27) = (   0.0002396   2.9813036   7.9858123  )
        28           O1  tau(  28) = (   3.2902150   2.9813002   7.3038282  )
        29           O1  tau(  29) = (   4.5938453   4.4726049   9.2879030  )
        30           O1  tau(  30) = (   1.9864658   4.4711199   9.2879459  )
        31           Ti1 tau(  31) = (   3.2891106   5.8743827   9.1763621  )
        32           Ti1 tau(  32) = (   0.0006254   4.4649316   9.2693709  )
        33           O1  tau(  33) = (   3.2754078   2.9701464  11.3677572  )
        34           O1  tau(  34) = (   0.0092240   2.9805883  10.6323155  )
        35           O1  tau(  35) = (   1.2711598   4.4556272  12.7031535  )
        36           O1  tau(  36) = (   5.2783420   4.4558858  12.6781970  )
        37           Ti1 tau(  37) = (   0.0002938   5.9583472  12.5066983  )
        38           Ti1 tau(  38) = (   3.2916940   4.4447674  12.5292973  )
        39           O1  tau(  39) = (   6.5347695   2.9176514  14.9891124  )
        40           O1  tau(  40) = (   3.2818703   2.9467213  13.9608579  )
        41           O1  tau(  41) = (   4.5039121   4.4250859  16.1805084  )
        42           O1  tau(  42) = (   2.0002864   4.4376668  16.1101511  )
        43           Ti1 tau(  43) = (   3.2613398   5.9375382  15.7939200  )
        44           Ti1 tau(  44) = (   0.0097882   4.6113729  15.8292928  )
        45           O1  tau(  45) = (   3.2900926   2.9813045   4.7018136  )
        46           O1  tau(  46) = (   1.3039711   4.4726057   6.0039043  )
        47           O1  tau(  47) = (   5.2763189   4.4711207   6.0039473  )
        48           N1  tau(  48) = (   6.5527080   2.6566917  18.2311642  )
        49           C1  tau(  49) = (   0.9950107   2.5313988  18.9921798  )
        50           H1  tau(  50) = (   0.9966315   2.9146593  20.0110098  )
        51           H1  tau(  51) = (   1.8622571   2.0164067  18.6008951  )
        52           N1  tau(  52) = (   5.4094651   3.2293427  18.7544413  )
        53           H1  tau(  53) = (   5.6216840   3.8708726  19.5154782  )
        54           H1  tau(  54) = (   4.9168071   3.7283298  18.0160565  )

     number of k points=    10  Fermi-Dirac smearing, width (Ry)=  0.0073
                       cart. coord. in units 2pi/alat
        k(    1) = (   0.0000000   0.0000000   0.0000000), wk =   0.1250000
        k(    2) = (   0.0000000   0.0419351   0.0000000), wk =   0.2500000
        k(    3) = (   0.0000000  -0.0838702   0.0000000), wk =   0.1250000
        k(    4) = (   0.0379955   0.0000049   0.0000000), wk =   0.2500000
        k(    5) = (   0.0379955   0.0419400   0.0000000), wk =   0.2500000
        k(    6) = (   0.0379955  -0.0838652   0.0000000), wk =   0.2500000
        k(    7) = (   0.0379955  -0.0419301   0.0000000), wk =   0.2500000
        k(    8) = (  -0.0759910  -0.0000099   0.0000000), wk =   0.1250000
        k(    9) = (  -0.0759910   0.0419252   0.0000000), wk =   0.2500000
        k(   10) = (  -0.0759910  -0.0838800   0.0000000), wk =   0.1250000

     Initial potential from superposition of free atoms

     starting charge  379.99915, renormalised to  396.00000

     negative rho (up, down):  1.580E-02 0.000E+00

     %%%%%%%%%%%%%%%%%%%%%%%%%%%%%%%%%%%%%%%%%%%%%%%%%%%%%%%%%%%%%%%%%%%%%%%%
     %                                                                      %
     % You are using vdW-DF, which was implemented by the Thonhauser group. %
     % Please cite the following two papers that made this development      %
     % possible and the two reviews that describe the various versions:     %
     %                                                                      %
     %   T. Thonhauser et al., PRL 115, 136402 (2015).                      %
     %   T. Thonhauser et al., PRB 76, 125112 (2007).                       %
     %   K. Berland et al., Rep. Prog. Phys. 78, 066501 (2015).             %
     %   D.C. Langreth et al., J. Phys.: Condens. Matter 21, 084203 (2009). %
     %                                                                      %
     %                                                                      %
     % If you are calculating the stress with vdW-DF, please also cite:     %
     %                                                                      %
     %   R. Sabatini et al., J. Phys.: Condens. Matter 24, 424209 (2012).   %
     %                                                                      %
     %%%%%%%%%%%%%%%%%%%%%%%%%%%%%%%%%%%%%%%%%%%%%%%%%%%%%%%%%%%%%%%%%%%%%%%%

     Adding external electric field

     Computed dipole along edir(3) :
        Dipole               -9.9790 Ry au,        -25.3641 Debye
        Dipole field         -0.0188 Ry au,

        Potential amp.        1.7457 Ry
        Total length         46.3494 bohr

     Starting wfcs are  300 atomic wfcs
  @ DRIVER MODE: Message from server: STATUS
  @ DRIVER MODE: Message from server: POSDATA
  @ DRIVER MODE: Reading and sharing cell
  @ DRIVER MODE: Reading and sharing positions
  @ DRIVER MODE: Received positions

     Self-consistent Calculation

     iteration #  1     ecut=    29.40 Ry     beta= 0.05
     Davidson diagonalization with overlap
     c_bands:  1 eigenvalues not converged
     c_bands:  2 eigenvalues not converged
     c_bands:  2 eigenvalues not converged
     c_bands:  1 eigenvalues not converged
     c_bands:  3 eigenvalues not converged
     c_bands:  2 eigenvalues not converged
     c_bands:  3 eigenvalues not converged
     c_bands:  2 eigenvalues not converged
     c_bands:  1 eigenvalues not converged
     c_bands:  1 eigenvalues not converged
     ethr =  1.00E-05,  avg # of iterations = 20.0

[...]

     total energy              =   -2515.80037161 Ry
     estimated scf accuracy    <    4741.08209693 Ry

     iteration #  2     ecut=    29.40 Ry     beta= 0.05
     Davidson diagonalization with overlap
     ethr =  1.00E-02,  avg # of iterations = 23.3

[...]

     iteration # 75     ecut=    29.40 Ry     beta= 0.05
     Davidson diagonalization with overlap
     c_bands:  1 eigenvalues not converged
     c_bands:  2 eigenvalues not converged
     c_bands:  1 eigenvalues not converged
     c_bands:  1 eigenvalues not converged
     ethr =  6.26E-11,  avg # of iterations = 18.2

[...]

     total energy              =   -2940.36667360 Ry
     estimated scf accuracy    <       0.00000008 Ry

     iteration # 77     ecut=    29.40 Ry     beta= 0.05
     Davidson diagonalization with overlap
     ethr =  1.99E-11,  avg # of iterations = 11.6

     negative rho (up, down):  1.644E-02 0.000E+00

     Adding external electric field

     Computed dipole along edir(3) :
        Dipole                1.2637 Ry au,          3.2120 Debye
        Dipole field          0.0024 Ry au,

        Potential amp.       -0.2211 Ry
        Total length         46.3494 bohr

     End of self-consistent calculation

          k = 0.0000 0.0000 0.0000 ( 18029 PWs)   bands (ev):

   -55.4182 -55.3815 -55.3703 -55.3362 -55.2974 -55.2937 -55.2880 -55.2629
   -55.2361 -55.2197 -55.2018 -55.2014 -55.1679 -55.0512 -54.3982 -54.3641
   -31.9872 -31.8627 -31.8198 -31.7855 -31.7317 -31.7258 -31.7209 -31.7070
   -31.6594 -31.6518 -31.6284 -31.6273 -31.6153 -31.5883 -31.5732 -31.5682
   -31.5559 -31.5549 -31.5337 -31.5283 -31.5228 -31.5125 -31.4841 -31.4748
   -31.4668 -31.4643 -31.4386 -31.4283 -31.4275 -31.4213 -31.4190 -31.4002
   -31.3993 -31.3939 -31.3867 -31.3842 -31.3502 -31.3368 -31.3298 -31.3128
   -31.2727 -31.2156 -30.8075 -30.7136 -30.6915 -30.6239 -30.5371 -30.4262
   -18.5906 -16.2500 -15.9814 -15.8389 -15.7145 -15.6156 -15.4908 -15.4688
   -15.3413 -15.2564 -15.1429 -15.0986 -15.0877 -15.0839 -15.0509 -15.0241
   -14.9599 -14.9553 -14.9374 -14.9113 -14.9005 -14.8574 -14.8542 -14.8130
   -14.7924 -14.7906 -14.6638 -14.5750 -14.5048 -14.1815 -13.6707 -12.9008
   -12.7834  -8.7387  -6.4789  -6.0487  -3.9885  -3.5908  -3.4348  -3.3781
    -3.3369  -3.3103  -3.1995  -3.1631  -3.0234  -2.8267  -2.7781  -2.6878
    -2.6258  -2.6173  -2.5982  -2.4174  -2.4098  -2.3534  -2.3031  -2.2612
    -2.2390  -2.2249  -2.2057  -2.1805  -2.1698  -2.1595  -1.9864  -1.9707
    -1.8995  -1.8258  -1.8159  -1.7655  -1.7447  -1.7143  -1.7062  -1.6983
    -1.6528  -1.6334  -1.6031  -1.5553  -1.4295  -1.3384  -1.3072  -1.2267
    -1.0998  -1.0539  -1.0015  -0.9983  -0.9057  -0.9019  -0.8809  -0.7960
    -0.7623  -0.7125  -0.6403  -0.5718  -0.5154  -0.4567  -0.4095  -0.3993
    -0.3443  -0.2273  -0.2016  -0.1829  -0.1610  -0.0402  -0.0216   0.0186
     0.0930   0.1233   0.1241   0.2409   0.2669   0.3248   0.3293   0.4057
     0.4666   0.5112   0.5202   0.5391   0.5680   0.5712   0.6461   0.6591
     0.6893   0.7596   0.8304   0.9175   1.1472   1.1833   1.1964   1.5295
     1.5313   1.6246   1.8083   2.2004   2.2485   3.6808   3.7509   3.8255
     3.8317   3.8500   3.9184   4.1551   4.1731   4.1812   4.1866   4.2296

[...]

          k = 0.0380-0.0419 0.0000 ( 17876 PWs)   bands (ev):

[...]

          k =-0.0760-0.0000 0.0000 ( 17886 PWs)   bands (ev):

[...]

          k =-0.0760-0.0839 0.0000 ( 17948 PWs)   bands (ev):

   -55.4035 -55.3960 -55.3532 -55.3532 -55.2885 -55.2876 -55.2818 -55.2784
   -55.2239 -55.2205 -55.2168 -55.1850 -55.1846 -55.0524 -54.3811 -54.3810
   -31.7935 -31.7881 -31.7470 -31.6944 -31.6806 -31.6778 -31.6777 -31.6448
   -31.6446 -31.6283 -31.6193 -31.6146 -31.6100 -31.5633 -31.5559 -31.5537
   -31.5515 -31.5495 -31.5441 -31.5388 -31.5237 -31.5110 -31.4941 -31.4938
   -31.4898 -31.4754 -31.4739 -31.4730 -31.4728 -31.4706 -31.4538 -31.4497
   -31.4437 -31.4336 -31.4302 -31.4154 -31.4144 -31.4107 -31.3656 -31.3653
   -31.2938 -31.2763 -30.7042 -30.7041 -30.6200 -30.6199 -30.5805 -30.5805
   -18.5881 -15.7122 -15.6791 -15.6218 -15.4414 -15.4138 -15.4070 -15.3880
   -15.2578 -15.2412 -15.2104 -15.1810 -15.1500 -15.1248 -15.1206 -15.1035
   -15.0326 -15.0217 -15.0136 -14.9960 -14.9307 -14.9268 -14.9179 -14.9131
   -14.8664 -14.8637 -14.7684 -14.7669 -14.6664 -14.5504 -13.6765 -12.8849
   -12.8848  -8.7204  -6.4524  -6.0628  -3.9973  -3.2604  -2.9452  -2.8786
    -2.8502  -2.6532  -2.6296  -2.5869  -2.5316  -2.4515  -2.4255  -2.4188
    -2.4100  -2.3389  -2.3274  -2.2777  -2.2687  -2.2497  -2.2342  -2.2237
    -2.1942  -2.1683  -2.1443  -2.1354  -2.1241  -2.0702  -2.0598  -2.0423
    -2.0118  -1.9920  -1.9828  -1.9662  -1.8667  -1.7825  -1.7529  -1.7260
    -1.6218  -1.6175  -1.5376  -1.5216  -1.4906  -1.4494  -1.4364  -1.4161
    -1.2338  -1.2056  -1.1727  -1.1601  -1.1516  -1.0123  -0.9985  -0.9425
    -0.9016  -0.8954  -0.7864  -0.7626  -0.7374  -0.6613  -0.6254  -0.5918
    -0.5402  -0.4349  -0.4173  -0.4062  -0.3735  -0.3694  -0.3132  -0.3012
    -0.2261  -0.1840  -0.1511  -0.1372  -0.0943   0.0938   0.1171   0.1320
     0.2753   0.3308   0.4243   0.5243   0.5346   0.5902   0.6289   0.6954
     0.7565   0.8203   0.8707   0.8912   0.8924   0.9710   0.9887   1.0422
     1.0440   1.9814   1.9821   2.0684   2.0687   3.8234   3.9321   3.9433
     3.9839   4.0663   4.1244   4.1972   4.2256   4.2646   4.2670   4.3328

     the Fermi energy is     3.7428 ev

!    total energy              =   -2940.36668226 Ry
     estimated scf accuracy    <       0.00000004 Ry
     smearing contrib. (-TS)   =      -0.03728063 Ry
     internal energy E=F+TS    =   -2940.32940163 Ry

     The total energy is F=E-TS. E is the sum of the following terms:
     one-electron contribution =  -23759.48046542 Ry
     hartree contribution      =   11971.07489443 Ry
     xc contribution           =    -486.11444699 Ry
     ewald contribution        =    9334.18760269 Ry
     electric field correction =       0.00301365 Ry

     convergence has been achieved in  77 iterations

     Forces acting on atoms (cartesian axes, Ry/au):

     atom    1 type  1   force =     0.00006441   -0.00013351    0.09327878
     atom    2 type  1   force =    -0.00005723   -0.00025310   -0.17806394
     atom    3 type  2   force =     0.00002095   -0.00015926   -0.02025172
     atom    4 type  2   force =     0.00000979   -0.00195930    0.05851641
     atom    5 type  2   force =    -0.01066023   -0.00127099    0.00870680
     atom    6 type  2   force =     0.01175478   -0.00061683    0.00682765
     atom    7 type  1   force =    -0.00091672    0.00298197   -0.01441697
     atom    8 type  1   force =     0.00063963   -0.00049018   -0.00370839
     atom    9 type  2   force =     0.00014432    0.00010386    0.00008560
     atom   10 type  2   force =    -0.00209558   -0.00121971    0.00063302
     atom   11 type  2   force =     0.00009046    0.00021965   -0.00012281
     atom   12 type  2   force =     0.00056179    0.00028999   -0.00007393
     atom   13 type  1   force =    -0.00014117    0.00029061    0.00008648
     atom   14 type  1   force =     0.00013546    0.00046583   -0.00039825
     atom   15 type  2   force =     0.00002364    0.00043497   -0.00007163
     atom   16 type  2   force =     0.00041589    0.00017164   -0.00033793
     atom   17 type  2   force =     0.00026220   -0.00034750   -0.00038949
     atom   18 type  2   force =     0.00015123   -0.00052200    0.00011707
     atom   19 type  1   force =    -0.00085522   -0.00002304    0.00017463
     atom   20 type  1   force =     0.00013324   -0.00004173   -0.00020207
     atom   21 type  2   force =     0.00009717    0.00000120    0.10394711
     atom   22 type  2   force =    -0.00020028    0.00010176    0.00012833
     atom   23 type  2   force =    -0.07043525   -0.00012276   -0.02690494
     atom   24 type  2   force =     0.07036796    0.00033271   -0.02694230
     atom   25 type  1   force =     0.00008651   -0.00022261    0.09283119
     atom   26 type  1   force =    -0.00004954   -0.00035069   -0.17805170
     atom   27 type  2   force =     0.00011091   -0.00036076   -0.01931723
     atom   28 type  2   force =     0.00004120   -0.00165328    0.05793555
     atom   29 type  2   force =    -0.01064010   -0.00128180    0.00803209
     atom   30 type  2   force =     0.01164435   -0.00088824    0.00609073
     atom   31 type  1   force =    -0.00089987    0.00489332   -0.01540180
     atom   32 type  1   force =     0.00083244    0.00018875   -0.00391609
     atom   33 type  2   force =     0.00010232    0.00046291    0.00021290
     atom   34 type  2   force =    -0.00177238    0.00109757    0.00069426
     atom   35 type  2   force =     0.00032708    0.00006520    0.00007520
     atom   36 type  2   force =     0.00025291   -0.00024733    0.00018560
     atom   37 type  1   force =    -0.00035740    0.00001904   -0.00010332
     atom   38 type  1   force =    -0.00023940    0.00049849   -0.00016255
     atom   39 type  2   force =     0.00049678   -0.00073408   -0.00007216
     atom   40 type  2   force =    -0.00015828    0.00006982   -0.00001703
     atom   41 type  2   force =     0.00009409   -0.00010310   -0.00020234
     atom   42 type  2   force =     0.00016435    0.00009611   -0.00003330
     atom   43 type  1   force =    -0.00018948   -0.00017869    0.00010708
     atom   44 type  1   force =     0.00011767    0.00008021   -0.00013549
     atom   45 type  2   force =     0.00010843   -0.00003091    0.10393143
     atom   46 type  2   force =    -0.07044755   -0.00005307   -0.02690263
     atom   47 type  2   force =     0.07039970    0.00037142   -0.02691065
     atom   48 type  3   force =    -0.00144118    0.00070373   -0.00029206
     atom   49 type  4   force =     0.00445317   -0.00275394   -0.00345705
     atom   50 type  5   force =     0.00120912   -0.00056324    0.00028936
     atom   51 type  5   force =    -0.00340228    0.00219689    0.00304269
     atom   52 type  3   force =     0.00020225    0.00077879    0.00016369
     atom   53 type  5   force =    -0.00028663   -0.00030257    0.00099122
     atom   54 type  5   force =    -0.00027041   -0.00003221   -0.00022515

     Total force =     0.366008     Total SCF correction =     0.000519
  @ DRIVER MODE: Message from server: STATUS
  @ DRIVER MODE: Message from server: GETFORCE
  @ DRIVER MODE: Returning v,forces,stress,ensemble

     Writing output data file ./calc.save/
  @ DRIVER MODE: Message from server: EXIT
  @ DRIVE MODE: Exiting

     General routines

     Parallel routines

   This run was terminated on:   5:54:54   9Sep2021

   JOB DONE.