     Program PWSCF v.6.7GPU starts on 15Sep2021 at 22: 0:57

     R & G space division:  proc/nbgrp/npool/nimage =      10
     Reading input from /storage/home/hcoda1/3/ntian30/research/carbon/CxH_vib/H2O_calc/ads_slab/CH3OHH2O_e/out_0020/pw.inp
Warning: card &CELL ignored
Warning: card   CELL_DYNAMICS='IPI', ignored
Warning: card / ignored

     Current dimensions of program PWSCF are:
     Max number of different atomic species (ntypx) = 10
     Max number of k-points (npk) =  40000
     Max angular momentum in pseudopotentials (lmaxx) =  3
     Presently no symmetry can be used with electric field

     Message from routine cell_base_init:
     DEPRECATED: use true lattice parameter, not A to a.u. conversion factor

     IMPORTANT: XC functional enforced from input :
     Exchange-correlation= BEEF-VDW
                           (   1   4  43  14   2   0   0)
     Any further DFT definition will be discarded
     Please, verify this is what you really want

  @ DRIVER MODE: Connecting to
 qe_1139763_2852623.sched-torque.pace.gatech.edu6t5deib8_scratch
  using UNIX socket
  @ DRIVER MODE: Message from server: STATUS
  @ DRIVER MODE: Message from server: INIT
  @ DRIVER MODE: Receiving replica           0          -1
  @ DRIVER MODE: Receiving encoded integer          25
  @ DRIVER MODE:  SCF:  T  FORCE:  T  STRESS:  F  VC:  F  ENSEMBLE:  F
  @ DRIVER MODE:  SCF:  T  FORCE:  T  STRESS:  F  VC:  F  ENSEMBLE:  F

     Using Slab Decomposition

     bravais-lattice index     =            0
     lattice parameter (alat)  =       1.8897  a.u.
     unit-cell volume          =    6658.9804 (a.u.)^3
     number of atoms/cell      =           56
     number of atomic types    =            4
     number of electrons       =       400.00
     number of Kohn-Sham states=          210
     kinetic-energy cutoff     =      29.3995  Ry
     charge density cutoff     =     293.9946  Ry
     scf convergence threshold =      7.3E-08
     mixing beta               =       0.0500
     number of iterations used =            8  plain     mixing
     Exchange-correlation= BEEF-VDW
                           (   1   4  43  14   2   0   0)

     celldm(1)=   1.889726  celldm(2)=   0.000000  celldm(3)=   0.000000
     celldm(4)=   0.000000  celldm(5)=   0.000000  celldm(6)=   0.000000

     crystal axes: (cart. coord. in units of alat)
               a(1) = (   6.579727   0.000000   0.000000 )
               a(2) = (  -0.000775   5.961596   0.000000 )
               a(3) = (   0.000000   0.000000  25.155947 )

     reciprocal axes: (cart. coord. in units 2 pi/alat)
               b(1) = (  0.151982  0.000020  0.000000 )
               b(2) = (  0.000000  0.167740  0.000000 )
               b(3) = (  0.000000  0.000000  0.039752 )

     PseudoPot. # 1 for Ti read from file:
     /storage/coda1/p-amedford6/0/shared/rich_project_chbe-medford/medford-share/data/pseudos_module/espresso/nninc/pbe/van/Ti.UPF
     MD5 check sum: 8e4df49b7f0d34bbd5052bf3f5ea0213
     Pseudo is Ultrasoft, Zval = 12.0
     Generated by new atomic code, or converted to UPF format
     Using radial grid of  851 points,  6 beta functions with:
                l(1) =   0
                l(2) =   0
                l(3) =   1
                l(4) =   1
                l(5) =   2
                l(6) =   2
     Q(r) pseudized with  8 coefficients,  rinner =    1.000   1.000   1.000
                                                       1.000   1.000

     PseudoPot. # 2 for O  read from file:
     /storage/coda1/p-amedford6/0/shared/rich_project_chbe-medford/medford-share/data/pseudos_module/espresso/nninc/pbe/van/O.UPF
     MD5 check sum: 78c19812648e8988a0fe644b0f25305e
     Pseudo is Ultrasoft, Zval =  6.0
     Generated by new atomic code, or converted to UPF format
     Using radial grid of  737 points,  4 beta functions with:
                l(1) =   0
                l(2) =   0
                l(3) =   1
                l(4) =   1
     Q(r) pseudized with  8 coefficients,  rinner =    0.800   0.800   0.800

     PseudoPot. # 3 for C  read from file:
     /storage/coda1/p-amedford6/0/shared/rich_project_chbe-medford/medford-share/data/pseudos_module/espresso/nninc/pbe/van/C.UPF
     MD5 check sum: 1a69bf6b8db32088f5b2163dbdb77a27
     Pseudo is Ultrasoft, Zval =  4.0
     Generated by new atomic code, or converted to UPF format
     Using radial grid of  721 points,  4 beta functions with:
                l(1) =   0
                l(2) =   0
                l(3) =   1
                l(4) =   1
     Q(r) pseudized with  8 coefficients,  rinner =    0.800   0.800   0.800

     PseudoPot. # 4 for H  read from file:
     /storage/coda1/p-amedford6/0/shared/rich_project_chbe-medford/medford-share/data/pseudos_module/espresso/nninc/pbe/van/H.UPF
     MD5 check sum: b5ee9d7bfd3a09ee7748110bda690ff7
     Pseudo is Ultrasoft, Zval =  1.0
     Generated by new atomic code, or converted to UPF format
     Using radial grid of  615 points,  1 beta functions with:
                l(1) =   0
     Q(r) pseudized with  8 coefficients,  rinner =    0.800

     atomic species   valence    mass     pseudopotential
        Ti1           12.00    47.86700     Ti( 1.00)
        O1             6.00    15.99900     O ( 1.00)
        C1             4.00    12.01100     C ( 1.00)
        H1             1.00     1.00800     H ( 1.00)

     No symmetry found

   Cartesian axes

     site n.     atom                  positions (alat units)
         1           Ti1 tau(   1) = (   0.0004258   2.9801865   6.0000000  )
         2           Ti1 tau(   2) = (   3.2906075   1.4906267   6.0002472  )
         3           O1  tau(   3) = (   0.0006271   0.0005054   7.9858123  )
         4           O1  tau(   4) = (   3.2906025   0.0005020   7.3038282  )
         5           O1  tau(   5) = (   4.5942328   1.4918067   9.2879030  )
         6           O1  tau(   6) = (   1.9868534   1.4903216   9.2879459  )
         7           Ti1 tau(   7) = (   3.3179988   2.9667087   9.1587561  )
         8           Ti1 tau(   8) = (   0.0368451   1.4888401   9.2646154  )
         9           O1  tau(   9) = (   3.2981896   5.9413050  11.3756853  )
        10           O1  tau(  10) = (   0.0022081   5.9550161  10.6068466  )
        11           O1  tau(  11) = (   1.2930414   1.4711740  12.6526869  )
        12           O1  tau(  12) = (   5.2963464   1.4745835  12.6500758  )
        13           Ti1 tau(  13) = (   0.0229324   2.9590759  12.5385950  )
        14           Ti1 tau(  14) = (   3.3157970   1.4644123  12.5194148  )
        15           O1  tau(  15) = (   6.5691168   5.9481840  14.6869282  )
        16           O1  tau(  16) = (   3.2964787   5.9455965  14.0277316  )
        17           O1  tau(  17) = (   4.5665908   1.5027878  16.2081754  )
        18           O1  tau(  18) = (   2.0283028   1.5092035  16.1774433  )
        19           Ti1 tau(  19) = (   3.2999954   2.9453206  15.7178785  )
        20           Ti1 tau(  20) = (   6.5724188   1.3235339  15.9896992  )
        21           O1  tau(  21) = (   3.2904802   0.0005063   4.7018136  )
        22           O1  tau(  22) = (   0.0286320   5.9425150  17.2304330  )
        23           O1  tau(  23) = (   1.3043587   1.4918075   6.0039043  )
        24           O1  tau(  24) = (   5.2767064   1.4903225   6.0039473  )
        25           Ti1 tau(  25) = (   0.0000382   5.9609847   6.0000000  )
        26           Ti1 tau(  26) = (   3.2902200   4.4714249   6.0002472  )
        27           O1  tau(  27) = (   0.0002396   2.9813036   7.9858123  )
        28           O1  tau(  28) = (   3.2902150   2.9813002   7.3038282  )
        29           O1  tau(  29) = (   4.5938453   4.4726049   9.2879030  )
        30           O1  tau(  30) = (   1.9864658   4.4711199   9.2879459  )
        31           Ti1 tau(  31) = (   3.3176359   5.9492212   9.1540102  )
        32           Ti1 tau(  32) = (   0.0367062   4.4560090   9.2708352  )
        33           O1  tau(  33) = (   3.2951800   2.9650663  11.3684769  )
        34           O1  tau(  34) = (   0.0080098   2.9764013  10.6279654  )
        35           O1  tau(  35) = (   1.2931912   4.4560454  12.6592269  )
        36           O1  tau(  36) = (   5.2946864   4.4524020  12.6579832  )
        37           Ti1 tau(  37) = (   0.0159028   5.9413441  12.4831893  )
        38           Ti1 tau(  38) = (   3.3151975   4.4500431  12.5204281  )
        39           O1  tau(  39) = (   0.0034497   2.9621527  14.8596962  )
        40           O1  tau(  40) = (   3.2989893   2.9535984  13.9376031  )
        41           O1  tau(  41) = (   4.5724332   4.4114593  16.1445292  )
        42           O1  tau(  42) = (   2.0255208   4.3883007  16.1585022  )
        43           Ti1 tau(  43) = (   3.2821299   5.9114753  15.8432964  )
        44           Ti1 tau(  44) = (   6.5414858   4.5242847  15.8739915  )
        45           O1  tau(  45) = (   3.2900926   2.9813045   4.7018136  )
        46           O1  tau(  46) = (   1.3039711   4.4726057   6.0039043  )
        47           O1  tau(  47) = (   5.2763189   4.4711207   6.0039473  )
        48           C1  tau(  48) = (   5.9754720   3.1749164  18.9278073  )
        49           O1  tau(  49) = (   0.1533887   3.0270296  17.7012840  )
        50           H1  tau(  50) = (   4.9293134   3.0706859  18.6584277  )
        51           H1  tau(  51) = (   1.1010173   3.2466920  17.8500278  )
        52           H1  tau(  52) = (   6.2690755   2.3937635  19.6305738  )
        53           H1  tau(  53) = (   6.1431946   4.1694627  19.3379575  )
        54           O1  tau(  54) = (   3.1723115   5.9428592  18.3689464  )
        55           H1  tau(  55) = (   3.8852673   0.6353712  18.4582360  )
        56           H1  tau(  56) = (   2.3406934   0.4831942  18.3201771  )

     number of k points=    10  Fermi-Dirac smearing, width (Ry)=  0.0073
                       cart. coord. in units 2pi/alat
        k(    1) = (   0.0000000   0.0000000   0.0000000), wk =   0.1250000
        k(    2) = (   0.0000000   0.0419351   0.0000000), wk =   0.2500000
        k(    3) = (   0.0000000  -0.0838702   0.0000000), wk =   0.1250000
        k(    4) = (   0.0379955   0.0000049   0.0000000), wk =   0.2500000
        k(    5) = (   0.0379955   0.0419400   0.0000000), wk =   0.2500000
        k(    6) = (   0.0379955  -0.0838652   0.0000000), wk =   0.2500000
        k(    7) = (   0.0379955  -0.0419301   0.0000000), wk =   0.2500000
        k(    8) = (  -0.0759910  -0.0000099   0.0000000), wk =   0.1250000
        k(    9) = (  -0.0759910   0.0419252   0.0000000), wk =   0.2500000
        k(   10) = (  -0.0759910  -0.0838800   0.0000000), wk =   0.1250000

     Initial potential from superposition of free atoms

     starting charge  383.99915, renormalised to  400.00000

     negative rho (up, down):  1.599E-02 0.000E+00

     %%%%%%%%%%%%%%%%%%%%%%%%%%%%%%%%%%%%%%%%%%%%%%%%%%%%%%%%%%%%%%%%%%%%%%%%
     %                                                                      %
     % You are using vdW-DF, which was implemented by the Thonhauser group. %
     % Please cite the following two papers that made this development      %
     % possible and the two reviews that describe the various versions:     %
     %                                                                      %
     %   T. Thonhauser et al., PRL 115, 136402 (2015).                      %
     %   T. Thonhauser et al., PRB 76, 125112 (2007).                       %
     %   K. Berland et al., Rep. Prog. Phys. 78, 066501 (2015).             %
     %   D.C. Langreth et al., J. Phys.: Condens. Matter 21, 084203 (2009). %
     %                                                                      %
     %                                                                      %
     % If you are calculating the stress with vdW-DF, please also cite:     %
     %                                                                      %
     %   R. Sabatini et al., J. Phys.: Condens. Matter 24, 424209 (2012).   %
     %                                                                      %
     %%%%%%%%%%%%%%%%%%%%%%%%%%%%%%%%%%%%%%%%%%%%%%%%%%%%%%%%%%%%%%%%%%%%%%%%

     Adding external electric field

     Computed dipole along edir(3) :
        Dipole              -11.7400 Ry au,        -29.8402 Debye
        Dipole field         -0.0222 Ry au,

        Potential amp.        2.0537 Ry
        Total length         46.3494 bohr

     Starting wfcs are  302 atomic wfcs
  @ DRIVER MODE: Message from server: STATUS
  @ DRIVER MODE: Message from server: POSDATA
  @ DRIVER MODE: Reading and sharing cell
  @ DRIVER MODE: Reading and sharing positions
  @ DRIVER MODE: Received positions

     Self-consistent Calculation

     iteration #  1     ecut=    29.40 Ry     beta= 0.05
     Davidson diagonalization with overlap
     c_bands:  2 eigenvalues not converged
     c_bands:  2 eigenvalues not converged
     c_bands:  4 eigenvalues not converged
     c_bands:  3 eigenvalues not converged
     c_bands:  4 eigenvalues not converged
     c_bands:  4 eigenvalues not converged
     c_bands:  3 eigenvalues not converged
     c_bands:  2 eigenvalues not converged
     ethr =  1.00E-05,  avg # of iterations = 21.3

[...]

     total energy              =   -2420.24904493 Ry
     estimated scf accuracy    <    6189.11550789 Ry

     iteration #  2     ecut=    29.40 Ry     beta= 0.05
     Davidson diagonalization with overlap
     ethr =  1.00E-02,  avg # of iterations = 28.3

[...]

     iteration # 79     ecut=    29.40 Ry     beta= 0.05
     Davidson diagonalization with overlap
     c_bands:  1 eigenvalues not converged
     ethr =  3.49E-10,  avg # of iterations = 14.8

[...]

     total energy              =   -2967.47586477 Ry
     estimated scf accuracy    <       0.00000011 Ry

     iteration # 85     ecut=    29.40 Ry     beta= 0.05
     Davidson diagonalization with overlap
     ethr =  2.57E-11,  avg # of iterations =  6.8

     negative rho (up, down):  1.587E-02 0.000E+00

     Adding external electric field

     Computed dipole along edir(3) :
        Dipole                1.3762 Ry au,          3.4979 Debye
        Dipole field          0.0026 Ry au,

        Potential amp.       -0.2407 Ry
        Total length         46.3494 bohr

     End of self-consistent calculation

          k = 0.0000 0.0000 0.0000 ( 18029 PWs)   bands (ev):

   -55.2512 -55.2237 -55.2152 -55.1893 -55.1575 -55.1493 -55.1443 -55.0974
   -55.0963 -55.0906 -55.0564 -55.0387 -55.0091 -55.0047 -54.3127 -54.2786
   -31.8178 -31.7668 -31.7188 -31.6287 -31.5661 -31.5561 -31.5513 -31.5489
   -31.5123 -31.4831 -31.4667 -31.4646 -31.4529 -31.4437 -31.4293 -31.4148
   -31.3976 -31.3908 -31.3883 -31.3838 -31.3778 -31.3688 -31.3460 -31.3415
   -31.3397 -31.3198 -31.3169 -31.3150 -31.2939 -31.2810 -31.2653 -31.2445
   -31.2432 -31.2424 -31.2310 -31.2218 -31.2031 -31.1900 -31.1783 -31.1736
   -31.1606 -31.1499 -30.7248 -30.6223 -30.6007 -30.5410 -30.4546 -30.3437
   -20.1123 -19.0858 -16.0807 -15.8336 -15.6937 -15.5953 -15.4743 -15.3408
   -15.2807 -15.1659 -15.0748 -14.9845 -14.9699 -14.9526 -14.9216 -14.8992
   -14.8747 -14.8363 -14.8102 -14.7664 -14.7576 -14.7411 -14.7343 -14.6976
   -14.6951 -14.6495 -14.6411 -14.4842 -14.4140 -14.3538 -14.1308 -12.8136
   -12.6942 -11.1623  -6.8998  -6.8473  -5.1264  -5.0068  -3.4199  -3.2634
    -3.2242  -3.2026  -3.1842  -3.1440  -3.0561  -2.9580  -2.7900  -2.6799
    -2.5398  -2.5356  -2.4889  -2.4622  -2.4049  -2.3222  -2.2344  -2.2083
    -2.1732  -2.1400  -2.1366  -2.1209  -2.1107  -2.0543  -2.0190  -1.9612
    -1.8636  -1.8132  -1.7727  -1.7548  -1.6959  -1.6524  -1.6177  -1.5899
    -1.5832  -1.5769  -1.5180  -1.5156  -1.5078  -1.4968  -1.4794  -1.2903
    -1.2492  -1.1180  -1.0272  -0.9840  -0.9728  -0.8187  -0.8119  -0.7674
    -0.7339  -0.7001  -0.6596  -0.6020  -0.5044  -0.4737  -0.4219  -0.3844
    -0.2763  -0.2439  -0.2125  -0.1581  -0.0511  -0.0427  -0.0169   0.0034
     0.0762   0.1721   0.2015   0.2224   0.2995   0.3047   0.3662   0.4067
     0.4400   0.5151   0.5609   0.5718   0.6633   0.6803   0.6939   0.7204
     0.7241   0.8225   0.8589   0.9032   0.9216   1.0732   1.1681   1.3071
     1.3357   1.6023   1.6976   1.7130   1.8733   2.2989   2.3537   3.8399
     3.9082   3.9467   3.9543   3.9678   4.0474   4.3311   4.3465   4.3583
     4.3678   4.3860

[...]

          k = 0.0380-0.0419 0.0000 ( 17876 PWs)   bands (ev):

[...]

          k =-0.0760-0.0000 0.0000 ( 17886 PWs)   bands (ev):

[...]

          k =-0.0760-0.0839 0.0000 ( 17948 PWs)   bands (ev):

   -55.2341 -55.2320 -55.2086 -55.2043 -55.1545 -55.1434 -55.1370 -55.1048
   -55.1030 -55.0747 -55.0719 -55.0236 -55.0199 -55.0109 -54.2956 -54.2955
   -31.6837 -31.6249 -31.6179 -31.5358 -31.5317 -31.5181 -31.5066 -31.5016
   -31.4937 -31.4735 -31.4552 -31.4497 -31.4455 -31.4313 -31.4063 -31.4033
   -31.3921 -31.3896 -31.3826 -31.3817 -31.3782 -31.3750 -31.3620 -31.3483
   -31.3404 -31.3352 -31.3347 -31.3284 -31.3250 -31.3249 -31.3244 -31.3059
   -31.2984 -31.2964 -31.2777 -31.2731 -31.2725 -31.2486 -31.2447 -31.2098
   -31.2055 -31.1927 -30.6132 -30.6132 -30.5376 -30.5373 -30.4979 -30.4978
   -20.1088 -19.0851 -15.6387 -15.5404 -15.3900 -15.2667 -15.2544 -15.2419
   -15.1898 -15.1252 -15.1123 -15.0613 -15.0494 -15.0179 -15.0019 -14.9959
   -14.9601 -14.8515 -14.8474 -14.8371 -14.8164 -14.7713 -14.7603 -14.7532
   -14.7410 -14.7049 -14.6964 -14.6821 -14.6717 -14.5796 -14.4399 -12.7956
   -12.7949 -11.1641  -6.8929  -6.8508  -5.1275  -4.9855  -3.1788  -2.9754
    -2.8084  -2.7292  -2.6319  -2.4847  -2.4700  -2.3888  -2.3766  -2.3262
    -2.2558  -2.2527  -2.2491  -2.1677  -2.1555  -2.1554  -2.1343  -2.1144
    -2.0736  -2.0654  -2.0421  -2.0318  -1.9903  -1.9596  -1.9466  -1.9294
    -1.9191  -1.9153  -1.8841  -1.8695  -1.8540  -1.8121  -1.7889  -1.7290
    -1.6391  -1.6041  -1.4811  -1.4786  -1.4379  -1.4136  -1.3884  -1.3473
    -1.3279  -1.2800  -1.2584  -1.2346  -1.0508  -1.0348  -0.9801  -0.9400
    -0.9198  -0.9069  -0.8453  -0.7734  -0.7465  -0.7153  -0.6494  -0.5760
    -0.4803  -0.4560  -0.4476  -0.3418  -0.2894  -0.2500  -0.2456  -0.2362
    -0.2122  -0.1637  -0.1440  -0.0821  -0.0431   0.0006   0.0260   0.0428
     0.2241   0.2624   0.3208   0.4127   0.4414   0.5859   0.6344   0.6865
     0.7469   0.8234   0.8344   0.9005   1.0147   1.0269   1.0571   1.1337
     1.1772   1.1829   1.2079   2.0643   2.0664   2.1680   2.1710   3.9700
     4.0772   4.0958   4.1747   4.2399   4.3491   4.3619   4.3915   4.4020
     4.4484   4.5013

     the Fermi energy is     3.8963 ev

!    total energy              =   -2967.47587133 Ry
     estimated scf accuracy    <       0.00000004 Ry
     smearing contrib. (-TS)   =      -0.03653728 Ry
     internal energy E=F+TS    =   -2967.43933405 Ry

     The total energy is F=E-TS. E is the sum of the following terms:
     one-electron contribution =  -23962.66719664 Ry
     hartree contribution      =   12076.92560104 Ry
     xc contribution           =    -491.85090898 Ry
     ewald contribution        =    9410.14959646 Ry
     electric field correction =       0.00357407 Ry

     convergence has been achieved in  85 iterations

     Forces acting on atoms (cartesian axes, Ry/au):

     atom    1 type  1   force =    -0.00026721    0.00020130    0.09244778
     atom    2 type  1   force =    -0.00035797    0.00104782   -0.18341368
     atom    3 type  2   force =     0.00050736   -0.00072557   -0.02349302
     atom    4 type  2   force =     0.00072347   -0.00018446    0.05070735
     atom    5 type  2   force =    -0.01404972   -0.00131544    0.00495030
     atom    6 type  2   force =     0.01521612   -0.00065081    0.00509318
     atom    7 type  1   force =    -0.00048258    0.00106246   -0.00012877
     atom    8 type  1   force =     0.00015371   -0.00054731    0.00039256
     atom    9 type  2   force =    -0.00044080    0.00017419    0.00039498
     atom   10 type  2   force =     0.00040974    0.00016404    0.00048536
     atom   11 type  2   force =     0.00036302    0.00044107    0.00034702
     atom   12 type  2   force =     0.00005269    0.00014158    0.00027665
     atom   13 type  1   force =    -0.00088111   -0.00118969   -0.00008384
     atom   14 type  1   force =     0.00059272   -0.00004645    0.00021456
     atom   15 type  2   force =     0.00052722    0.00075705    0.00003124
     atom   16 type  2   force =    -0.00062542   -0.00037245    0.00007486
     atom   17 type  2   force =     0.00002119    0.00021863   -0.00040744
     atom   18 type  2   force =    -0.00012934    0.00032418   -0.00013941
     atom   19 type  1   force =     0.00078258   -0.00012814   -0.00042093
     atom   20 type  1   force =    -0.00006222    0.00026328    0.00005078
     atom   21 type  2   force =    -0.00004181    0.00015783    0.10497385
     atom   22 type  2   force =    -0.00034376    0.00062794   -0.00098624
     atom   23 type  2   force =    -0.06799196    0.00013720   -0.02679800
     atom   24 type  2   force =     0.06771084    0.00053503   -0.02686232
     atom   25 type  1   force =    -0.00038529   -0.00009006    0.09622855
     atom   26 type  1   force =    -0.00035642   -0.00099600   -0.18321799
     atom   27 type  2   force =     0.00041767   -0.00124921   -0.02225691
     atom   28 type  2   force =     0.00070385   -0.00033332    0.05102649
     atom   29 type  2   force =    -0.01423961   -0.00105998    0.00466088
     atom   30 type  2   force =     0.01518826    0.00021522    0.00484572
     atom   31 type  1   force =    -0.00049818   -0.00145804    0.00016364
     atom   32 type  1   force =     0.00012477    0.00073055   -0.00027326
     atom   33 type  2   force =     0.00002040   -0.00020515    0.00006035
     atom   34 type  2   force =     0.00002808   -0.00006686   -0.00008124
     atom   35 type  2   force =     0.00021752    0.00008365    0.00031201
     atom   36 type  2   force =     0.00039065    0.00044992    0.00005510
     atom   37 type  1   force =    -0.00106026    0.00125115   -0.00004220
     atom   38 type  1   force =     0.00037950    0.00011032   -0.00043950
     atom   39 type  2   force =     0.00040021    0.00023863   -0.00038053
     atom   40 type  2   force =    -0.00008620    0.00019854    0.00008830
     atom   41 type  2   force =    -0.00023657    0.00018313   -0.00051962
     atom   42 type  2   force =     0.00014341   -0.00011186    0.00033795
     atom   43 type  1   force =    -0.00048178    0.00020394    0.00020275
     atom   44 type  1   force =    -0.00007959   -0.00012332   -0.00056264
     atom   45 type  2   force =    -0.00005467    0.00015306    0.10490998
     atom   46 type  2   force =    -0.06803524   -0.00039077   -0.02678738
     atom   47 type  2   force =     0.06776032    0.00004963   -0.02687356
     atom   48 type  3   force =     0.00055703    0.00061371   -0.00019473
     atom   49 type  2   force =     0.01474168    0.00378382    0.00293753
     atom   50 type  4   force =     0.00045058    0.00055326   -0.00001445
     atom   51 type  4   force =    -0.01579680   -0.00259048   -0.00250329
     atom   52 type  4   force =    -0.00046654    0.00062070   -0.00017993
     atom   53 type  4   force =    -0.00022729   -0.00025064    0.00017881
     atom   54 type  2   force =     0.00085392   -0.00023322    0.00101083
     atom   55 type  4   force =    -0.00082159   -0.00038835   -0.00057270
     atom   56 type  4   force =    -0.00093861   -0.00098523    0.00017422

     Total force =     0.368873     Total SCF correction =     0.000559
  @ DRIVER MODE: Message from server: STATUS
  @ DRIVER MODE: Message from server: GETFORCE
  @ DRIVER MODE: Returning v,forces,stress,ensemble

     Writing output data file ./calc.save/
  @ DRIVER MODE: Message from server: EXIT
  @ DRIVE MODE: Exiting

     General routines

     Parallel routines

   This run was terminated on:  22:22:11  15Sep2021

   JOB DONE.