     Program PWSCF v.6.7GPU starts on  9Sep2021 at 10:24:20

     R & G space division:  proc/nbgrp/npool/nimage =      10
     Reading input from /storage/home/hcoda1/3/ntian30/research/carbon/CxH_vib/CH3_calc/ads_slab/CH3NNH3_a/out_0038/pw.inp
Warning: card &CELL ignored
Warning: card   CELL_DYNAMICS='IPI', ignored
Warning: card / ignored

     Current dimensions of program PWSCF are:
     Max number of different atomic species (ntypx) = 10
     Max number of k-points (npk) =  40000
     Max angular momentum in pseudopotentials (lmaxx) =  3
     Presently no symmetry can be used with electric field

     Message from routine cell_base_init:
     DEPRECATED: use true lattice parameter, not A to a.u. conversion factor

     IMPORTANT: XC functional enforced from input :
     Exchange-correlation= BEEF-VDW
                           (   1   4  43  14   2   0   0)
     Any further DFT definition will be discarded
     Please, verify this is what you really want

  @ DRIVER MODE: Connecting to
 qe_1139763_2767402.sched-torque.pace.gatech.edul0c430j1_scratch
  using UNIX socket
  @ DRIVER MODE: Message from server: STATUS
  @ DRIVER MODE: Message from server: INIT
  @ DRIVER MODE: Receiving replica           0          -1
  @ DRIVER MODE: Receiving encoded integer          25
  @ DRIVER MODE:  SCF:  T  FORCE:  T  STRESS:  F  VC:  F  ENSEMBLE:  F
  @ DRIVER MODE:  SCF:  T  FORCE:  T  STRESS:  F  VC:  F  ENSEMBLE:  F

     Using Slab Decomposition

     bravais-lattice index     =            0
     lattice parameter (alat)  =       1.8897  a.u.
     unit-cell volume          =    6658.9804 (a.u.)^3
     number of atoms/cell      =           56
     number of atomic types    =            5
     number of electrons       =       398.00
     number of Kohn-Sham states=          209
     kinetic-energy cutoff     =      29.3995  Ry
     charge density cutoff     =     293.9946  Ry
     scf convergence threshold =      7.3E-08
     mixing beta               =       0.0500
     number of iterations used =            8  plain     mixing
     Exchange-correlation= BEEF-VDW
                           (   1   4  43  14   2   0   0)

     celldm(1)=   1.889726  celldm(2)=   0.000000  celldm(3)=   0.000000
     celldm(4)=   0.000000  celldm(5)=   0.000000  celldm(6)=   0.000000

     crystal axes: (cart. coord. in units of alat)
               a(1) = (   6.579727   0.000000   0.000000 )
               a(2) = (  -0.000775   5.961596   0.000000 )
               a(3) = (   0.000000   0.000000  25.155947 )

     reciprocal axes: (cart. coord. in units 2 pi/alat)
               b(1) = (  0.151982  0.000020  0.000000 )
               b(2) = (  0.000000  0.167740  0.000000 )
               b(3) = (  0.000000  0.000000  0.039752 )

     PseudoPot. # 1 for Ti read from file:
     /storage/coda1/p-amedford6/0/shared/rich_project_chbe-medford/medford-share/data/pseudos_module/espresso/nninc/pbe/van/Ti.UPF
     MD5 check sum: 8e4df49b7f0d34bbd5052bf3f5ea0213
     Pseudo is Ultrasoft, Zval = 12.0
     Generated by new atomic code, or converted to UPF format
     Using radial grid of  851 points,  6 beta functions with:
                l(1) =   0
                l(2) =   0
                l(3) =   1
                l(4) =   1
                l(5) =   2
                l(6) =   2
     Q(r) pseudized with  8 coefficients,  rinner =    1.000   1.000   1.000
                                                       1.000   1.000

     PseudoPot. # 2 for O  read from file:
     /storage/coda1/p-amedford6/0/shared/rich_project_chbe-medford/medford-share/data/pseudos_module/espresso/nninc/pbe/van/O.UPF
     MD5 check sum: 78c19812648e8988a0fe644b0f25305e
     Pseudo is Ultrasoft, Zval =  6.0
     Generated by new atomic code, or converted to UPF format
     Using radial grid of  737 points,  4 beta functions with:
                l(1) =   0
                l(2) =   0
                l(3) =   1
                l(4) =   1
     Q(r) pseudized with  8 coefficients,  rinner =    0.800   0.800   0.800

     PseudoPot. # 3 for N  read from file:
     /storage/coda1/p-amedford6/0/shared/rich_project_chbe-medford/medford-share/data/pseudos_module/espresso/nninc/pbe/van/N.UPF
     MD5 check sum: 90d10febe142ad51ac9d5be1deb811c4
     Pseudo is Ultrasoft, Zval =  5.0
     Generated by new atomic code, or converted to UPF format
     Using radial grid of  729 points,  4 beta functions with:
                l(1) =   0
                l(2) =   0
                l(3) =   1
                l(4) =   1
     Q(r) pseudized with  8 coefficients,  rinner =    0.800   0.800   0.800

     PseudoPot. # 4 for C  read from file:
     /storage/coda1/p-amedford6/0/shared/rich_project_chbe-medford/medford-share/data/pseudos_module/espresso/nninc/pbe/van/C.UPF
     MD5 check sum: 1a69bf6b8db32088f5b2163dbdb77a27
     Pseudo is Ultrasoft, Zval =  4.0
     Generated by new atomic code, or converted to UPF format
     Using radial grid of  721 points,  4 beta functions with:
                l(1) =   0
                l(2) =   0
                l(3) =   1
                l(4) =   1
     Q(r) pseudized with  8 coefficients,  rinner =    0.800   0.800   0.800

     PseudoPot. # 5 for H  read from file:
     /storage/coda1/p-amedford6/0/shared/rich_project_chbe-medford/medford-share/data/pseudos_module/espresso/nninc/pbe/van/H.UPF
     MD5 check sum: b5ee9d7bfd3a09ee7748110bda690ff7
     Pseudo is Ultrasoft, Zval =  1.0
     Generated by new atomic code, or converted to UPF format
     Using radial grid of  615 points,  1 beta functions with:
                l(1) =   0
     Q(r) pseudized with  8 coefficients,  rinner =    0.800

     atomic species   valence    mass     pseudopotential
        Ti1           12.00    47.86700     Ti( 1.00)
        O1             6.00    15.99900     O ( 1.00)
        N1             5.00    14.00700     N ( 1.00)
        C1             4.00    12.01100     C ( 1.00)
        H1             1.00     1.00800     H ( 1.00)

     No symmetry found

   Cartesian axes

     site n.     atom                  positions (alat units)
         1           Ti1 tau(   1) = (   0.0004258   2.9801865   6.0000000  )
         2           Ti1 tau(   2) = (   3.2906075   1.4906267   6.0002472  )
         3           O1  tau(   3) = (   0.0006271   0.0005054   7.9858123  )
         4           O1  tau(   4) = (   3.2906025   0.0005020   7.3038282  )
         5           O1  tau(   5) = (   4.5942328   1.4918067   9.2879030  )
         6           O1  tau(   6) = (   1.9868534   1.4903216   9.2879459  )
         7           Ti1 tau(   7) = (   3.2907910   2.8959150   9.1758416  )
         8           Ti1 tau(   8) = (   0.0015273   1.4827037   9.2680791  )
         9           O1  tau(   9) = (   3.2915376   0.0135470  11.3011085  )
        10           O1  tau(  10) = (   0.0116148   5.9584955  10.6183126  )
        11           O1  tau(  11) = (   1.3264285   1.5112823  12.6233503  )
        12           O1  tau(  12) = (   5.3038506   1.5117067  12.6402039  )
        13           Ti1 tau(  13) = (   6.4820107   2.9926285  12.7699842  )
        14           Ti1 tau(  14) = (   3.1705855   1.5046985  12.4703807  )
        15           O1  tau(  15) = (   0.0265921   0.0018185  14.6022993  )
        16           O1  tau(  16) = (   3.3077976   0.0231332  13.8844522  )
        17           O1  tau(  17) = (   4.5431088   1.5356983  16.0582573  )
        18           O1  tau(  18) = (   2.0919096   1.5355568  16.0602035  )
        19           Ti1 tau(  19) = (   3.3160089   3.0194793  15.6930983  )
        20           Ti1 tau(  20) = (   0.0166562   1.5958061  16.1043543  )
        21           O1  tau(  21) = (   3.2904802   0.0005063   4.7018136  )
        22           O1  tau(  22) = (   0.0292894   0.0555714  17.2141426  )
        23           O1  tau(  23) = (   1.3043587   1.4918075   6.0039043  )
        24           O1  tau(  24) = (   5.2767064   1.4903225   6.0039473  )
        25           Ti1 tau(  25) = (   0.0000382   5.9609847   6.0000000  )
        26           Ti1 tau(  26) = (   3.2902200   4.4714249   6.0002472  )
        27           O1  tau(  27) = (   0.0002396   2.9813036   7.9858123  )
        28           O1  tau(  28) = (   3.2902150   2.9813002   7.3038282  )
        29           O1  tau(  29) = (   4.5938453   4.4726049   9.2879030  )
        30           O1  tau(  30) = (   1.9864658   4.4711199   9.2879459  )
        31           Ti1 tau(  31) = (   3.2891106   5.8743827   9.1763621  )
        32           Ti1 tau(  32) = (   0.0006254   4.4649316   9.2693709  )
        33           O1  tau(  33) = (   3.2938734   2.9940915  11.3014364  )
        34           O1  tau(  34) = (   0.0092240   2.9805883  10.6323155  )
        35           O1  tau(  35) = (   1.3265148   4.4779228  12.6213786  )
        36           O1  tau(  36) = (   5.3043665   4.4729268  12.6387898  )
        37           Ti1 tau(  37) = (   6.5102921   0.0103953  12.7821347  )
        38           Ti1 tau(  38) = (   3.1702703   4.4844908  12.4724723  )
        39           O1  tau(  39) = (   0.0044238   2.9856840  14.6711682  )
        40           O1  tau(  40) = (   3.3052367   3.0047533  13.8869641  )
        41           O1  tau(  41) = (   4.5463945   4.5179403  16.0573015  )
        42           O1  tau(  42) = (   2.0913021   4.5186677  16.0620504  )
        43           Ti1 tau(  43) = (   3.3128124   0.0388915  15.6953448  )
        44           Ti1 tau(  44) = (   0.0191476   4.5695365  16.1495174  )
        45           O1  tau(  45) = (   3.2900926   2.9813045   4.7018136  )
        46           O1  tau(  46) = (   1.3039711   4.4726057   6.0039043  )
        47           O1  tau(  47) = (   5.2763189   4.4711207   6.0039473  )
        48           N1  tau(  48) = (   0.0657769   3.0188755  17.3428317  )
        49           N1  tau(  49) = (   6.3710133   2.5762042  22.6422586  )
        50           C1  tau(  50) = (   0.3130180   3.0007025  18.7658599  )
        51           H1  tau(  51) = (   0.2928038   4.0066326  19.1970245  )
        52           H1  tau(  52) = (   6.1505335   2.3845869  19.2855718  )
        53           H1  tau(  53) = (   1.2957935   2.5555442  18.9776258  )
        54           H1  tau(  54) = (   5.9655952   3.1943721  23.3306195  )
        55           H1  tau(  55) = (   0.0098814   1.7053999  23.1148127  )
        56           H1  tau(  56) = (   0.6724875   2.9916800  22.3598805  )

     number of k points=    10  Fermi-Dirac smearing, width (Ry)=  0.0073
                       cart. coord. in units 2pi/alat
        k(    1) = (   0.0000000   0.0000000   0.0000000), wk =   0.1250000
        k(    2) = (   0.0000000   0.0419351   0.0000000), wk =   0.2500000
        k(    3) = (   0.0000000  -0.0838702   0.0000000), wk =   0.1250000
        k(    4) = (   0.0379955   0.0000049   0.0000000), wk =   0.2500000
        k(    5) = (   0.0379955   0.0419400   0.0000000), wk =   0.2500000
        k(    6) = (   0.0379955  -0.0838652   0.0000000), wk =   0.2500000
        k(    7) = (   0.0379955  -0.0419301   0.0000000), wk =   0.2500000
        k(    8) = (  -0.0759910  -0.0000099   0.0000000), wk =   0.1250000
        k(    9) = (  -0.0759910   0.0419252   0.0000000), wk =   0.2500000
        k(   10) = (  -0.0759910  -0.0838800   0.0000000), wk =   0.1250000

     Initial potential from superposition of free atoms

     starting charge  381.99914, renormalised to  398.00000

     negative rho (up, down):  7.232E-03 0.000E+00

     %%%%%%%%%%%%%%%%%%%%%%%%%%%%%%%%%%%%%%%%%%%%%%%%%%%%%%%%%%%%%%%%%%%%%%%%
     %                                                                      %
     % You are using vdW-DF, which was implemented by the Thonhauser group. %
     % Please cite the following two papers that made this development      %
     % possible and the two reviews that describe the various versions:     %
     %                                                                      %
     %   T. Thonhauser et al., PRL 115, 136402 (2015).                      %
     %   T. Thonhauser et al., PRB 76, 125112 (2007).                       %
     %   K. Berland et al., Rep. Prog. Phys. 78, 066501 (2015).             %
     %   D.C. Langreth et al., J. Phys.: Condens. Matter 21, 084203 (2009). %
     %                                                                      %
     %                                                                      %
     % If you are calculating the stress with vdW-DF, please also cite:     %
     %                                                                      %
     %   R. Sabatini et al., J. Phys.: Condens. Matter 24, 424209 (2012).   %
     %                                                                      %
     %%%%%%%%%%%%%%%%%%%%%%%%%%%%%%%%%%%%%%%%%%%%%%%%%%%%%%%%%%%%%%%%%%%%%%%%

     Adding external electric field

     Computed dipole along edir(3) :
        Dipole              -12.0378 Ry au,        -30.5970 Debye
        Dipole field         -0.0227 Ry au,

        Potential amp.        2.1058 Ry
        Total length         46.3494 bohr

     Starting wfcs are  302 atomic wfcs
  @ DRIVER MODE: Message from server: STATUS
  @ DRIVER MODE: Message from server: POSDATA
  @ DRIVER MODE: Reading and sharing cell
  @ DRIVER MODE: Reading and sharing positions
  @ DRIVER MODE: Received positions

     Self-consistent Calculation

     iteration #  1     ecut=    29.40 Ry     beta= 0.05
     Davidson diagonalization with overlap
     c_bands:  1 eigenvalues not converged
     c_bands:  1 eigenvalues not converged
     c_bands:  1 eigenvalues not converged
     c_bands:  1 eigenvalues not converged
     c_bands:  1 eigenvalues not converged
     c_bands:  1 eigenvalues not converged
     c_bands:  1 eigenvalues not converged
     c_bands:  2 eigenvalues not converged
     c_bands:  1 eigenvalues not converged
     ethr =  1.00E-05,  avg # of iterations = 19.6

[...]

     total energy              =   -2520.02571790 Ry
     estimated scf accuracy    <    4725.48199215 Ry

     iteration #  2     ecut=    29.40 Ry     beta= 0.05
     Davidson diagonalization with overlap
     ethr =  1.00E-02,  avg # of iterations = 21.9

[...]

     iteration # 31     ecut=    29.40 Ry     beta= 0.05
     Davidson diagonalization with overlap
     c_bands:  1 eigenvalues not converged
     ethr =  4.32E-07,  avg # of iterations = 12.0

[...]

     total energy              =   -2942.90428748 Ry
     estimated scf accuracy    <       0.00000008 Ry

     iteration # 53     ecut=    29.40 Ry     beta= 0.05
     Davidson diagonalization with overlap
     ethr =  2.13E-11,  avg # of iterations =  5.2

     negative rho (up, down):  9.757E-03 0.000E+00

     Adding external electric field

     Computed dipole along edir(3) :
        Dipole                0.6805 Ry au,          1.7296 Debye
        Dipole field          0.0013 Ry au,

        Potential amp.       -0.1190 Ry
        Total length         46.3494 bohr

     End of self-consistent calculation

          k = 0.0000 0.0000 0.0000 ( 18029 PWs)   bands (ev):

   -56.5053 -56.4716 -55.6133 -55.6046 -55.5780 -55.5721 -55.4751 -55.4395
   -55.2603 -55.2252 -55.1689 -55.1619 -55.1350 -55.0491 -54.6098 -54.5666
   -32.9327 -32.7790 -32.7509 -32.6820 -32.5910 -32.5588 -32.0925 -32.0711
   -32.0165 -31.9012 -31.8600 -31.8208 -31.8184 -31.7851 -31.7560 -31.7549
   -31.7536 -31.7359 -31.7249 -31.7209 -31.7000 -31.6836 -31.6574 -31.6435
   -31.6306 -31.6104 -31.6039 -31.5801 -31.5611 -31.5073 -31.4919 -31.4831
   -31.4036 -31.3992 -31.3797 -31.3353 -31.3275 -31.2963 -31.2790 -31.2552
   -31.2360 -31.1855 -31.1370 -30.8542 -30.8304 -30.8133 -30.7881 -30.6681
   -16.6666 -16.2246 -15.9965 -15.8665 -15.7931 -15.7447 -15.6918 -15.5754
   -15.4980 -15.4955 -15.4585 -15.4217 -15.3524 -15.2097 -15.1119 -15.0552
   -15.0130 -14.8984 -14.8325 -14.8057 -14.7958 -14.7644 -14.7469 -14.5481
   -14.5045 -14.4142 -14.4048 -14.2680 -14.0657 -14.0178 -13.6674 -13.5574
   -12.6985  -7.4299  -4.2337  -4.1032  -4.0674  -3.7207  -3.4787  -3.3926
    -3.2895  -3.2774  -3.2038  -3.0843  -3.0312  -2.9853  -2.8706  -2.8680
    -2.7252  -2.7067  -2.6801  -2.6694  -2.6327  -2.5858  -2.5557  -2.5085
    -2.5029  -2.4940  -2.3402  -2.2429  -2.1764  -2.1481  -2.1328  -2.1037
    -2.0281  -2.0032  -1.9922  -1.9841  -1.8957  -1.7466  -1.7407  -1.7123
    -1.6677  -1.6671  -1.6236  -1.6122  -1.4709  -1.3959  -1.2858  -1.2802
    -1.2439  -1.1770  -1.1750  -1.0721  -1.0021  -0.9502  -0.9115  -0.8056
    -0.7616  -0.7352  -0.6501  -0.5793  -0.5455  -0.5294  -0.5061  -0.4088
    -0.3918  -0.3690  -0.2857  -0.2763  -0.2281  -0.1404  -0.1197  -0.1160
    -0.0279  -0.0198   0.0821   0.1187   0.1607   0.1888   0.2786   0.3075
     0.4086   0.4523   0.4680   0.5901   0.6074   0.6668   0.7422   0.8039
     0.8242   0.8527   0.8853   0.8958   0.9779   1.0974   1.1021   1.1272
     1.2051   1.2518   1.4066   1.4455   1.7302   1.7420   2.4146   2.7701
     2.9316   3.2302   3.4312   3.5380   3.7472   3.7607   3.7667   3.9429
     3.9938

[...]

          k = 0.0380-0.0419 0.0000 ( 17876 PWs)   bands (ev):

[...]

          k =-0.0760-0.0000 0.0000 ( 17886 PWs)   bands (ev):

[...]

          k =-0.0760-0.0839 0.0000 ( 17948 PWs)   bands (ev):

   -56.4885 -56.4882 -55.5951 -55.5944 -55.5918 -55.5863 -55.4593 -55.4552
   -55.2452 -55.2402 -55.1592 -55.1519 -55.1518 -55.0518 -54.6007 -54.5756
   -32.7649 -32.7646 -32.7497 -32.7495 -32.6351 -32.6348 -31.9212 -31.9189
   -31.8957 -31.8894 -31.8506 -31.8497 -31.8076 -31.8052 -31.8049 -31.8041
   -31.7821 -31.7802 -31.7787 -31.7751 -31.7104 -31.7070 -31.6616 -31.6560
   -31.5958 -31.5873 -31.5276 -31.5229 -31.4962 -31.4961 -31.4882 -31.4439
   -31.4430 -31.4113 -31.3775 -31.3774 -31.3726 -31.3382 -31.3382 -31.3308
   -31.2948 -31.2568 -30.9992 -30.9266 -30.8266 -30.7994 -30.7956 -30.7536
   -16.0135 -16.0116 -15.9817 -15.9814 -15.7072 -15.7036 -15.6560 -15.6540
   -15.4846 -15.4783 -15.2685 -15.2601 -15.2559 -15.2518 -15.1237 -15.1172
   -15.0588 -15.0413 -14.9582 -14.9540 -14.8920 -14.8818 -14.8463 -14.8278
   -14.5065 -14.4855 -14.3672 -14.3489 -14.2138 -14.0171 -13.6610 -13.6608
   -12.7150  -7.4205  -4.1159  -4.0692  -3.1137  -3.1131  -3.0422  -3.0413
    -2.9188  -2.9137  -2.8456  -2.8449  -2.7342  -2.7318  -2.6793  -2.5996
    -2.5980  -2.5956  -2.5763  -2.5566  -2.4446  -2.4370  -2.4245  -2.4060
    -2.3607  -2.3576  -2.3479  -2.2671  -2.2531  -2.2170  -2.1771  -2.0711
    -2.0589  -2.0441  -2.0144  -1.9535  -1.9432  -1.9281  -1.8788  -1.8619
    -1.7785  -1.7229  -1.6601  -1.5529  -1.5487  -1.5392  -1.5269  -1.3721
    -1.3328  -1.3046  -1.2984  -1.2895  -1.2451  -1.1467  -1.1391  -0.9969
    -0.9966  -0.9244  -0.8441  -0.8284  -0.7982  -0.6677  -0.6248  -0.5843
    -0.5778  -0.5556  -0.5315  -0.5114  -0.4789  -0.3328  -0.3206  -0.2899
    -0.2494  -0.2417  -0.1951  -0.1278  -0.0400   0.0232   0.0247   0.0888
     0.1519   0.2117   0.2922   0.3078   0.3128   0.5939   0.6770   0.7649
     0.8412   0.9088   0.9733   0.9953   1.0641   1.0958   1.1258   1.2329
     1.2369   1.2539   1.2544   1.3258   1.3277   1.7072   2.3066   3.3440
     3.3444   3.4124   3.4129   3.7367   3.7423   3.8526   3.8629   3.9728
     3.9769

     the Fermi energy is     2.6027 ev

!    total energy              =   -2942.90437443 Ry
     estimated scf accuracy    <       0.00000003 Ry
     smearing contrib. (-TS)   =      -0.00455219 Ry
     internal energy E=F+TS    =   -2942.89982224 Ry

     The total energy is F=E-TS. E is the sum of the following terms:
     one-electron contribution =  -23043.02172480 Ry
     hartree contribution      =   11612.12854866 Ry
     xc contribution           =    -487.44589351 Ry
     ewald contribution        =    8975.43837360 Ry
     electric field correction =       0.00087380 Ry

     convergence has been achieved in  53 iterations

     Forces acting on atoms (cartesian axes, Ry/au):

     atom    1 type  1   force =     0.00002141   -0.00049361    0.12499464
     atom    2 type  1   force =    -0.00013291   -0.00061978   -0.16057753
     atom    3 type  2   force =     0.00017254   -0.00022584   -0.06935034
     atom    4 type  2   force =    -0.00004330   -0.00027826    0.02763000
     atom    5 type  2   force =    -0.01720783    0.00222574   -0.00888221
     atom    6 type  2   force =     0.01888787    0.00287600   -0.00920410
     atom    7 type  1   force =     0.00088253   -0.00373915    0.02233203
     atom    8 type  1   force =    -0.00036774   -0.00328866    0.11352227
     atom    9 type  2   force =     0.00050124   -0.00039922    0.00006134
     atom   10 type  2   force =    -0.00234631    0.00260069   -0.07319263
     atom   11 type  2   force =     0.00013149   -0.00095887   -0.00010754
     atom   12 type  2   force =     0.00001927   -0.00058823   -0.00002935
     atom   13 type  1   force =     0.00020518   -0.00019734   -0.00028320
     atom   14 type  1   force =    -0.00008376   -0.00053916   -0.00003111
     atom   15 type  2   force =    -0.00035956   -0.00099297    0.00083675
     atom   16 type  2   force =    -0.00013638   -0.00017537    0.00046226
     atom   17 type  2   force =     0.00088233   -0.00042547   -0.00034779
     atom   18 type  2   force =    -0.00057199   -0.00046265   -0.00031928
     atom   19 type  1   force =    -0.00025019    0.00007315   -0.00049758
     atom   20 type  1   force =     0.00054228   -0.00088757   -0.00099099
     atom   21 type  2   force =     0.00005082   -0.00006539    0.09967189
     atom   22 type  2   force =     0.00015110   -0.00037952   -0.00093203
     atom   23 type  2   force =    -0.07922687   -0.00006025   -0.03254124
     atom   24 type  2   force =     0.07908177    0.00037108   -0.03256563
     atom   25 type  1   force =     0.00002900   -0.00050099    0.12431527
     atom   26 type  1   force =    -0.00012271   -0.00049227   -0.16059989
     atom   27 type  2   force =     0.00028065   -0.00044729   -0.06835764
     atom   28 type  2   force =     0.00000198   -0.00013573    0.02748469
     atom   29 type  2   force =    -0.01766699    0.00173465   -0.00895243
     atom   30 type  2   force =     0.01923985    0.00199674   -0.00929320
     atom   31 type  1   force =     0.00080002   -0.00115142    0.02194847
     atom   32 type  1   force =    -0.00029586    0.00070435    0.11417048
     atom   33 type  2   force =    -0.00007726    0.00003705   -0.00056476
     atom   34 type  2   force =    -0.00201700    0.00206229   -0.07185315
     atom   35 type  2   force =     0.00001804   -0.00021005    0.00012838
     atom   36 type  2   force =    -0.00049893    0.00020446    0.00021457
     atom   37 type  1   force =     0.00086404    0.00095316   -0.00020651
     atom   38 type  1   force =    -0.00021461    0.00026290   -0.00017407
     atom   39 type  2   force =    -0.00002356   -0.00029612   -0.00001130
     atom   40 type  2   force =    -0.00001633   -0.00019674   -0.00024219
     atom   41 type  2   force =     0.00022122   -0.00042499   -0.00032649
     atom   42 type  2   force =     0.00000801   -0.00038493   -0.00038180
     atom   43 type  1   force =    -0.00036318    0.00006808   -0.00041659
     atom   44 type  1   force =     0.00005465    0.00093225    0.00030499
     atom   45 type  2   force =     0.00003722   -0.00007910    0.09970548
     atom   46 type  2   force =    -0.07923238   -0.00003086   -0.03254521
     atom   47 type  2   force =     0.07908487    0.00041215   -0.03254932
     atom   48 type  3   force =    -0.00033260    0.00102800   -0.00094331
     atom   49 type  3   force =     0.00247968   -0.00363310   -0.00365316
     atom   50 type  4   force =    -0.00008610    0.00056192    0.00145328
     atom   51 type  5   force =    -0.00051062   -0.00048028   -0.00046511
     atom   52 type  5   force =    -0.00000098    0.00020801   -0.00016529
     atom   53 type  5   force =    -0.00013775    0.00043433   -0.00012738
     atom   54 type  5   force =    -0.00348920    0.00377614    0.00480168
     atom   55 type  5   force =     0.00050493    0.00079193   -0.00073489
     atom   56 type  5   force =     0.00065892   -0.00107389   -0.00162222

     Total force =     0.426731     Total SCF correction =     0.000420
  @ DRIVER MODE: Message from server: STATUS
  @ DRIVER MODE: Message from server: GETFORCE
  @ DRIVER MODE: Returning v,forces,stress,ensemble

     Writing output data file ./calc.save/
  @ DRIVER MODE: Message from server: EXIT
  @ DRIVE MODE: Exiting

     General routines

     Parallel routines

   This run was terminated on:  10:39:39   9Sep2021

   JOB DONE.