     Program PWSCF v.6.7GPU starts on  9Sep2021 at  1:10:13

     R & G space division:  proc/nbgrp/npool/nimage =      10
     Reading input from /storage/home/hcoda1/3/ntian30/research/carbon/CxH_vib/CH2_calc/ads_slab/CH2OH_a/out_0012/pw.inp
Warning: card &CELL ignored
Warning: card   CELL_DYNAMICS='IPI', ignored
Warning: card / ignored

     Current dimensions of program PWSCF are:
     Max number of different atomic species (ntypx) = 10
     Max number of k-points (npk) =  40000
     Max angular momentum in pseudopotentials (lmaxx) =  3
     Presently no symmetry can be used with electric field

     Message from routine cell_base_init:
     DEPRECATED: use true lattice parameter, not A to a.u. conversion factor

     IMPORTANT: XC functional enforced from input :
     Exchange-correlation= BEEF-VDW
                           (   1   4  43  14   2   0   0)
     Any further DFT definition will be discarded
     Please, verify this is what you really want

  @ DRIVER MODE: Connecting to
 qe_1139763_2767393.sched-torque.pace.gatech.edu77gsr5k1_scratch
  using UNIX socket
  @ DRIVER MODE: Message from server: STATUS
  @ DRIVER MODE: Message from server: INIT
  @ DRIVER MODE: Receiving replica           0          -1
  @ DRIVER MODE: Receiving encoded integer          25
  @ DRIVER MODE:  SCF:  T  FORCE:  T  STRESS:  F  VC:  F  ENSEMBLE:  F
  @ DRIVER MODE:  SCF:  T  FORCE:  T  STRESS:  F  VC:  F  ENSEMBLE:  F

     Using Slab Decomposition

     bravais-lattice index     =            0
     lattice parameter (alat)  =       1.8897  a.u.
     unit-cell volume          =    6658.9804 (a.u.)^3
     number of atoms/cell      =           52
     number of atomic types    =            4
     number of electrons       =       391.00
     number of Kohn-Sham states=          205
     kinetic-energy cutoff     =      29.3995  Ry
     charge density cutoff     =     293.9946  Ry
     scf convergence threshold =      7.3E-08
     mixing beta               =       0.0500
     number of iterations used =            8  plain     mixing
     Exchange-correlation= BEEF-VDW
                           (   1   4  43  14   2   0   0)

     celldm(1)=   1.889726  celldm(2)=   0.000000  celldm(3)=   0.000000
     celldm(4)=   0.000000  celldm(5)=   0.000000  celldm(6)=   0.000000

     crystal axes: (cart. coord. in units of alat)
               a(1) = (   6.579727   0.000000   0.000000 )
               a(2) = (  -0.000775   5.961596   0.000000 )
               a(3) = (   0.000000   0.000000  25.155947 )

     reciprocal axes: (cart. coord. in units 2 pi/alat)
               b(1) = (  0.151982  0.000020  0.000000 )
               b(2) = (  0.000000  0.167740  0.000000 )
               b(3) = (  0.000000  0.000000  0.039752 )

     PseudoPot. # 1 for Ti read from file:
     /storage/coda1/p-amedford6/0/shared/rich_project_chbe-medford/medford-share/data/pseudos_module/espresso/nninc/pbe/van/Ti.UPF
     MD5 check sum: 8e4df49b7f0d34bbd5052bf3f5ea0213
     Pseudo is Ultrasoft, Zval = 12.0
     Generated by new atomic code, or converted to UPF format
     Using radial grid of  851 points,  6 beta functions with:
                l(1) =   0
                l(2) =   0
                l(3) =   1
                l(4) =   1
                l(5) =   2
                l(6) =   2
     Q(r) pseudized with  8 coefficients,  rinner =    1.000   1.000   1.000
                                                       1.000   1.000

     PseudoPot. # 2 for O  read from file:
     /storage/coda1/p-amedford6/0/shared/rich_project_chbe-medford/medford-share/data/pseudos_module/espresso/nninc/pbe/van/O.UPF
     MD5 check sum: 78c19812648e8988a0fe644b0f25305e
     Pseudo is Ultrasoft, Zval =  6.0
     Generated by new atomic code, or converted to UPF format
     Using radial grid of  737 points,  4 beta functions with:
                l(1) =   0
                l(2) =   0
                l(3) =   1
                l(4) =   1
     Q(r) pseudized with  8 coefficients,  rinner =    0.800   0.800   0.800

     PseudoPot. # 3 for C  read from file:
     /storage/coda1/p-amedford6/0/shared/rich_project_chbe-medford/medford-share/data/pseudos_module/espresso/nninc/pbe/van/C.UPF
     MD5 check sum: 1a69bf6b8db32088f5b2163dbdb77a27
     Pseudo is Ultrasoft, Zval =  4.0
     Generated by new atomic code, or converted to UPF format
     Using radial grid of  721 points,  4 beta functions with:
                l(1) =   0
                l(2) =   0
                l(3) =   1
                l(4) =   1
     Q(r) pseudized with  8 coefficients,  rinner =    0.800   0.800   0.800

     PseudoPot. # 4 for H  read from file:
     /storage/coda1/p-amedford6/0/shared/rich_project_chbe-medford/medford-share/data/pseudos_module/espresso/nninc/pbe/van/H.UPF
     MD5 check sum: b5ee9d7bfd3a09ee7748110bda690ff7
     Pseudo is Ultrasoft, Zval =  1.0
     Generated by new atomic code, or converted to UPF format
     Using radial grid of  615 points,  1 beta functions with:
                l(1) =   0
     Q(r) pseudized with  8 coefficients,  rinner =    0.800

     atomic species   valence    mass     pseudopotential
        Ti1           12.00    47.86700     Ti( 1.00)
        O1             6.00    15.99900     O ( 1.00)
        C1             4.00    12.01100     C ( 1.00)
        H1             1.00     1.00800     H ( 1.00)

     No symmetry found

   Cartesian axes

     site n.     atom                  positions (alat units)
         1           Ti1 tau(   1) = (   0.0004258   2.9801865   6.0000000  )
         2           Ti1 tau(   2) = (   3.2906075   1.4906267   6.0002472  )
         3           O1  tau(   3) = (   0.0006271   0.0005054   7.9858123  )
         4           O1  tau(   4) = (   3.2906025   0.0005020   7.3038282  )
         5           O1  tau(   5) = (   4.5942328   1.4918067   9.2879030  )
         6           O1  tau(   6) = (   1.9868534   1.4903216   9.2879459  )
         7           Ti1 tau(   7) = (   3.2719207   3.0347534   9.1624208  )
         8           Ti1 tau(   8) = (   6.5479847   1.5485315   9.3114282  )
         9           O1  tau(   9) = (   3.3130468   5.9588651  11.3322545  )
        10           O1  tau(  10) = (   6.5779921   5.9597862  10.5854321  )
        11           O1  tau(  11) = (   1.2828316   1.4981946  12.5939292  )
        12           O1  tau(  12) = (   5.3076696   1.4616608  12.6584921  )
        13           Ti1 tau(  13) = (   0.0652608   2.9737989  12.6898254  )
        14           Ti1 tau(  14) = (   3.3390979   1.6191063  12.6104043  )
        15           O1  tau(  15) = (   0.1579450   5.9294946  14.6423442  )
        16           O1  tau(  16) = (   3.1680681   5.9402194  13.8972025  )
        17           O1  tau(  17) = (   4.6139792   1.3367142  15.8434034  )
        18           O1  tau(  18) = (   2.0781381   1.4994250  16.2203239  )
        19           Ti1 tau(  19) = (   3.3500823   2.9415657  15.9644494  )
        20           Ti1 tau(  20) = (   0.0003135   1.3236462  15.9137460  )
        21           O1  tau(  21) = (   3.2904802   0.0005063   4.7018136  )
        22           O1  tau(  22) = (   6.5745372   5.9170875  17.1494514  )
        23           O1  tau(  23) = (   1.3043587   1.4918075   6.0039043  )
        24           O1  tau(  24) = (   5.2767064   1.4903225   6.0039473  )
        25           Ti1 tau(  25) = (   0.0000382   5.9609847   6.0000000  )
        26           Ti1 tau(  26) = (   3.2902200   4.4714249   6.0002472  )
        27           O1  tau(  27) = (   0.0002396   2.9813036   7.9858123  )
        28           O1  tau(  28) = (   3.2902150   2.9813002   7.3038282  )
        29           O1  tau(  29) = (   4.5938453   4.4726049   9.2879030  )
        30           O1  tau(  30) = (   1.9864658   4.4711199   9.2879459  )
        31           Ti1 tau(  31) = (   3.2621523   0.0587977   9.1770015  )
        32           Ti1 tau(  32) = (   6.5480547   4.4734411   9.2675299  )
        33           O1  tau(  33) = (   3.3121001   2.9882390  11.3403144  )
        34           O1  tau(  34) = (   6.5676672   2.9758547  10.5865552  )
        35           O1  tau(  35) = (   1.2831373   4.4454538  12.5925867  )
        36           O1  tau(  36) = (   5.3039272   4.4828346  12.6569239  )
        37           Ti1 tau(  37) = (   0.0139245   5.9553196  12.4525254  )
        38           Ti1 tau(  38) = (   3.3396594   4.5312311  12.4471015  )
        39           O1  tau(  39) = (   0.0911754   2.9492527  14.7447760  )
        40           O1  tau(  40) = (   3.3148107   2.9226094  13.9462488  )
        41           O1  tau(  41) = (   4.6112453   4.5441982  15.8230962  )
        42           O1  tau(  42) = (   2.0803191   4.3866676  16.2083192  )
        43           Ti1 tau(  43) = (   3.2736722   5.9210238  15.6733724  )
        44           Ti1 tau(  44) = (   6.5729336   4.5444060  15.8763539  )
        45           O1  tau(  45) = (   3.2900926   2.9813045   4.7018136  )
        46           O1  tau(  46) = (   1.3039711   4.4726057   6.0039043  )
        47           O1  tau(  47) = (   5.2763189   4.4711207   6.0039473  )
        48           C1  tau(  48) = (   4.5191185   2.9521590  17.9045005  )
        49           O1  tau(  49) = (   5.9932199   2.9473452  17.5010416  )
        50           H1  tau(  50) = (   6.5492410   2.9805908  18.2871345  )
        51           H1  tau(  51) = (   4.3954453   2.0589761  18.5217578  )
        52           H1  tau(  52) = (   4.3955607   3.8562994  18.5052511  )

     number of k points=    10  Fermi-Dirac smearing, width (Ry)=  0.0073
                       cart. coord. in units 2pi/alat
        k(    1) = (   0.0000000   0.0000000   0.0000000), wk =   0.1250000
        k(    2) = (   0.0000000   0.0419351   0.0000000), wk =   0.2500000
        k(    3) = (   0.0000000  -0.0838702   0.0000000), wk =   0.1250000
        k(    4) = (   0.0379955   0.0000049   0.0000000), wk =   0.2500000
        k(    5) = (   0.0379955   0.0419400   0.0000000), wk =   0.2500000
        k(    6) = (   0.0379955  -0.0838652   0.0000000), wk =   0.2500000
        k(    7) = (   0.0379955  -0.0419301   0.0000000), wk =   0.2500000
        k(    8) = (  -0.0759910  -0.0000099   0.0000000), wk =   0.1250000
        k(    9) = (  -0.0759910   0.0419252   0.0000000), wk =   0.2500000
        k(   10) = (  -0.0759910  -0.0838800   0.0000000), wk =   0.1250000

     Initial potential from superposition of free atoms

     starting charge  374.99918, renormalised to  391.00000

     negative rho (up, down):  1.948E-02 0.000E+00

     %%%%%%%%%%%%%%%%%%%%%%%%%%%%%%%%%%%%%%%%%%%%%%%%%%%%%%%%%%%%%%%%%%%%%%%%
     %                                                                      %
     % You are using vdW-DF, which was implemented by the Thonhauser group. %
     % Please cite the following two papers that made this development      %
     % possible and the two reviews that describe the various versions:     %
     %                                                                      %
     %   T. Thonhauser et al., PRL 115, 136402 (2015).                      %
     %   T. Thonhauser et al., PRB 76, 125112 (2007).                       %
     %   K. Berland et al., Rep. Prog. Phys. 78, 066501 (2015).             %
     %   D.C. Langreth et al., J. Phys.: Condens. Matter 21, 084203 (2009). %
     %                                                                      %
     %                                                                      %
     % If you are calculating the stress with vdW-DF, please also cite:     %
     %                                                                      %
     %   R. Sabatini et al., J. Phys.: Condens. Matter 24, 424209 (2012).   %
     %                                                                      %
     %%%%%%%%%%%%%%%%%%%%%%%%%%%%%%%%%%%%%%%%%%%%%%%%%%%%%%%%%%%%%%%%%%%%%%%%

     Adding external electric field

     Computed dipole along edir(3) :
        Dipole               -5.2278 Ry au,        -13.2876 Debye
        Dipole field         -0.0099 Ry au,

        Potential amp.        0.9145 Ry
        Total length         46.3494 bohr

     Starting wfcs are  295 atomic wfcs
  @ DRIVER MODE: Message from server: STATUS
  @ DRIVER MODE: Message from server: POSDATA
  @ DRIVER MODE: Reading and sharing cell
  @ DRIVER MODE: Reading and sharing positions
  @ DRIVER MODE: Received positions

     Self-consistent Calculation

     iteration #  1     ecut=    29.40 Ry     beta= 0.05
     Davidson diagonalization with overlap
     c_bands:  3 eigenvalues not converged
     c_bands:  3 eigenvalues not converged
     c_bands:  3 eigenvalues not converged
     c_bands:  4 eigenvalues not converged
     c_bands:  2 eigenvalues not converged
     c_bands:  1 eigenvalues not converged
     c_bands:  3 eigenvalues not converged
     ethr =  1.00E-05,  avg # of iterations = 19.3

[...]

     total energy              =   -2803.08996457 Ry
     estimated scf accuracy    <    1410.28386179 Ry

     iteration #  2     ecut=    29.40 Ry     beta= 0.05
     Davidson diagonalization with overlap
     ethr =  1.00E-02,  avg # of iterations = 16.8

[...]

     iteration # 52     ecut=    29.40 Ry     beta= 0.05
     Davidson diagonalization with overlap
     c_bands:  1 eigenvalues not converged
     ethr =  8.24E-09,  avg # of iterations = 14.9

[...]

     total energy              =   -2931.32984866 Ry
     estimated scf accuracy    <       0.00000011 Ry

     iteration # 64     ecut=    29.40 Ry     beta= 0.05
     Davidson diagonalization with overlap
     ethr =  2.85E-11,  avg # of iterations = 13.0

     negative rho (up, down):  1.893E-02 0.000E+00

     Adding external electric field

     Computed dipole along edir(3) :
        Dipole                0.9528 Ry au,          2.4217 Debye
        Dipole field          0.0018 Ry au,

        Potential amp.       -0.1667 Ry
        Total length         46.3494 bohr

     End of self-consistent calculation

          k = 0.0000 0.0000 0.0000 ( 18029 PWs)   bands (ev):

   -55.8519 -55.8128 -55.7697 -55.7559 -55.7013 -55.6909 -55.6818 -55.6711
   -55.6329 -55.6216 -55.6001 -55.5895 -55.5627 -55.5535 -54.8226 -54.7886
   -32.3736 -32.3238 -32.2389 -32.2169 -32.1610 -32.1337 -32.1205 -32.0885
   -32.0809 -32.0663 -32.0463 -32.0200 -32.0069 -31.9988 -31.9709 -31.9635
   -31.9458 -31.9440 -31.9257 -31.9135 -31.9113 -31.9051 -31.8803 -31.8604
   -31.8574 -31.8549 -31.8495 -31.8449 -31.8317 -31.8163 -31.8058 -31.8053
   -31.8036 -31.7978 -31.7877 -31.7872 -31.7641 -31.7467 -31.7437 -31.7316
   -31.7028 -31.6357 -31.2297 -31.1404 -31.1179 -31.0467 -30.9606 -30.8489
   -19.6016 -16.5572 -16.3354 -16.1571 -16.0602 -15.9975 -15.8343 -15.7520
   -15.5644 -15.4879 -15.4806 -15.4558 -15.3932 -15.3793 -15.3682 -15.3471
   -15.3470 -15.3161 -15.2529 -15.2401 -15.2332 -15.2041 -15.1339 -15.1233
   -14.9797 -14.9626 -14.9621 -14.9500 -14.8512 -14.7822 -13.3221 -13.2052
    -9.6417  -6.4725  -4.2126  -4.0000  -3.8660  -3.7650  -3.7584  -3.7232
    -3.5676  -3.4930  -3.2786  -3.1382  -3.0934  -3.0244  -2.9803  -2.9190
    -2.8376  -2.7702  -2.7242  -2.6782  -2.6640  -2.6398  -2.6280  -2.5791
    -2.5432  -2.5148  -2.4074  -2.4023  -2.3526  -2.2948  -2.2580  -2.2047
    -2.1660  -2.1482  -2.1252  -2.0955  -2.0659  -2.0471  -2.0267  -1.9723
    -1.9213  -1.8399  -1.8271  -1.5571  -1.4680  -1.3954  -1.3691  -1.2915
    -1.2659  -1.2448  -1.2144  -1.1960  -1.1861  -1.1076  -1.1030  -1.0098
    -0.9741  -0.8906  -0.8373  -0.7492  -0.7089  -0.6378  -0.6182  -0.5822
    -0.5643  -0.5478  -0.4007  -0.3839  -0.3585  -0.2394  -0.2201  -0.1650
    -0.1371  -0.0786  -0.0527   0.0117   0.0425   0.0891   0.1175   0.1371
     0.1583   0.1737   0.2190   0.3049   0.3815   0.3974   0.4222   0.4884
     0.6736   0.7034   0.8320   0.8972   1.1303   1.2028   1.2468   1.2977
     1.3885   1.7769   1.8322   3.3005   3.3557   3.4158   3.4206   3.4578
     3.5501   3.7320   3.7507   3.8044   3.8627

[...]

          k = 0.0380-0.0419 0.0000 ( 17876 PWs)   bands (ev):

[...]

          k =-0.0760-0.0000 0.0000 ( 17886 PWs)   bands (ev):

[...]

          k =-0.0760-0.0839 0.0000 ( 17948 PWs)   bands (ev):

   -55.8419 -55.8226 -55.7658 -55.7495 -55.7076 -55.6944 -55.6765 -55.6690
   -55.6269 -55.6241 -55.5980 -55.5897 -55.5732 -55.5557 -54.8056 -54.8054
   -32.2974 -32.1486 -32.1396 -32.1302 -32.1063 -32.0930 -32.0865 -32.0630
   -32.0251 -32.0136 -32.0005 -31.9946 -31.9811 -31.9746 -31.9710 -31.9676
   -31.9637 -31.9611 -31.9500 -31.9455 -31.9177 -31.9147 -31.9033 -31.9007
   -31.8949 -31.8890 -31.8860 -31.8755 -31.8686 -31.8670 -31.8582 -31.8367
   -31.8276 -31.8232 -31.8143 -31.8130 -31.7991 -31.7964 -31.7937 -31.7902
   -31.7824 -31.6371 -31.1308 -31.1304 -31.0433 -31.0422 -31.0037 -31.0031
   -19.5958 -16.1484 -15.9669 -15.8117 -15.7838 -15.7828 -15.6487 -15.6305
   -15.6088 -15.5752 -15.5368 -15.5086 -15.4831 -15.4767 -15.4333 -15.3781
   -15.3717 -15.3590 -15.3328 -15.2747 -15.2627 -15.2603 -15.2195 -15.1641
   -15.1414 -15.1318 -15.1239 -15.1099 -15.0802 -15.0572 -13.3093 -13.3046
    -9.6420  -6.4560  -4.2186  -3.8611  -3.2893  -3.2174  -3.0158  -3.0121
    -2.9293  -2.8901  -2.8786  -2.8368  -2.7706  -2.7646  -2.7462  -2.6782
    -2.6532  -2.6505  -2.6110  -2.6024  -2.5813  -2.5731  -2.5517  -2.5267
    -2.4915  -2.4522  -2.4352  -2.4256  -2.4070  -2.3983  -2.3921  -2.3493
    -2.3268  -2.2181  -2.1383  -2.0252  -2.0224  -1.9759  -1.9595  -1.9387
    -1.9030  -1.8889  -1.8828  -1.8476  -1.7662  -1.6237  -1.5229  -1.5042
    -1.4623  -1.4385  -1.4059  -1.3832  -1.2870  -1.2620  -1.2159  -1.1931
    -1.1880  -1.0731  -1.0635  -0.9669  -0.9290  -0.8212  -0.8122  -0.7861
    -0.7639  -0.7283  -0.7039  -0.6350  -0.6156  -0.5738  -0.5563  -0.4906
    -0.4521  -0.4359  -0.3587  -0.3199  -0.2580  -0.2093  -0.1736  -0.0247
     0.1556   0.1738   0.2050   0.3160   0.3542   0.4268   0.4830   0.4983
     0.5679   0.6017   0.6701   0.7011   0.7632   0.8028   1.2645   1.5636
     1.5741   1.6368   1.6504   3.5938   3.6411   3.7663   3.7826   3.8146
     3.8195   3.8304   3.8523   3.9138   3.9488

     the Fermi energy is     3.2909 ev

!    total energy              =   -2931.32987662 Ry
     estimated scf accuracy    <       0.00000007 Ry
     smearing contrib. (-TS)   =      -0.02176709 Ry
     internal energy E=F+TS    =   -2931.30810954 Ry

     The total energy is F=E-TS. E is the sum of the following terms:
     one-electron contribution =  -24937.22842042 Ry
     hartree contribution      =   12555.01954685 Ry
     xc contribution           =    -482.05283870 Ry
     ewald contribution        =    9932.95188959 Ry
     electric field correction =       0.00171314 Ry

     convergence has been achieved in  64 iterations

     Forces acting on atoms (cartesian axes, Ry/au):

     atom    1 type  1   force =     0.00041865   -0.00075330    0.09646905
     atom    2 type  1   force =     0.00023150   -0.00293176   -0.17616354
     atom    3 type  2   force =    -0.00037469   -0.00272482   -0.03081011
     atom    4 type  2   force =    -0.00049094    0.00065408    0.04966967
     atom    5 type  2   force =    -0.01529271   -0.00088472    0.00151471
     atom    6 type  2   force =     0.01482909    0.00155655    0.00315645
     atom    7 type  1   force =    -0.00060893   -0.00030891   -0.00011274
     atom    8 type  1   force =    -0.00056447    0.00059401    0.00064396
     atom    9 type  2   force =    -0.00018395    0.00026481    0.00046350
     atom   10 type  2   force =     0.00000084    0.00008294   -0.00064650
     atom   11 type  2   force =     0.00022254    0.00030471    0.00018924
     atom   12 type  2   force =    -0.00016326    0.00012939   -0.00019775
     atom   13 type  1   force =     0.00014617   -0.00018189    0.00042734
     atom   14 type  1   force =     0.00032177   -0.00056746    0.00042994
     atom   15 type  2   force =     0.00005103    0.00059836   -0.00013681
     atom   16 type  2   force =    -0.00015784   -0.00012414    0.00019518
     atom   17 type  2   force =     0.00027568    0.00017055    0.00020811
     atom   18 type  2   force =    -0.00010148    0.00013633    0.00011781
     atom   19 type  1   force =     0.00069823   -0.00037770    0.00139747
     atom   20 type  1   force =     0.00006092    0.00023190    0.00070315
     atom   21 type  2   force =     0.00016176    0.00023103    0.10303722
     atom   22 type  2   force =     0.00025203    0.00042430   -0.00035082
     atom   23 type  2   force =    -0.07097799    0.00144714   -0.02886829
     atom   24 type  2   force =     0.07110068    0.00185859   -0.02888539
     atom   25 type  1   force =     0.00034158    0.00079009    0.11231131
     atom   26 type  1   force =    -0.00012444    0.00362940   -0.17645630
     atom   27 type  2   force =    -0.00014857    0.00020127   -0.02747805
     atom   28 type  2   force =    -0.00030967    0.00087374    0.04912816
     atom   29 type  2   force =    -0.01335031   -0.00249973    0.00128864
     atom   30 type  2   force =     0.01437815   -0.00067988    0.00299339
     atom   31 type  1   force =     0.00019606   -0.00031834    0.00023401
     atom   32 type  1   force =    -0.00074149    0.00067704   -0.00045512
     atom   33 type  2   force =    -0.00026012   -0.00028661   -0.00024980
     atom   34 type  2   force =     0.00012325    0.00017432    0.00005624
     atom   35 type  2   force =    -0.00015770   -0.00006932    0.00031839
     atom   36 type  2   force =     0.00023021   -0.00009348    0.00031875
     atom   37 type  1   force =    -0.00026450   -0.00020374    0.00026929
     atom   38 type  1   force =     0.00028050    0.00034208    0.00031919
     atom   39 type  2   force =     0.00009727    0.00018368    0.00017194
     atom   40 type  2   force =    -0.00008961   -0.00055182   -0.00085688
     atom   41 type  2   force =    -0.00000204   -0.00014835    0.00033889
     atom   42 type  2   force =     0.00002037   -0.00003507    0.00027995
     atom   43 type  1   force =     0.00031118    0.00032987    0.00025838
     atom   44 type  1   force =     0.00048390    0.00041509    0.00019912
     atom   45 type  2   force =     0.00015484    0.00016587    0.10346451
     atom   46 type  2   force =    -0.07078982   -0.00175004   -0.02885836
     atom   47 type  2   force =     0.07090454   -0.00133835   -0.02888250
     atom   48 type  3   force =     0.00037882   -0.00007862    0.00283655
     atom   49 type  2   force =    -0.00696988   -0.00012809   -0.01820897
     atom   50 type  4   force =     0.00805194    0.00024245    0.01386307
     atom   51 type  4   force =    -0.00148859    0.00005314    0.00001447
     atom   52 type  4   force =    -0.00111046    0.00027340    0.00033088

     Total force =     0.370188     Total SCF correction =     0.000802
  @ DRIVER MODE: Message from server: STATUS
  @ DRIVER MODE: Message from server: GETFORCE
  @ DRIVER MODE: Returning v,forces,stress,ensemble

     Writing output data file ./calc.save/
  @ DRIVER MODE: Message from server: EXIT
  @ DRIVE MODE: Exiting

     General routines

     Parallel routines

   This run was terminated on:   1:27:35   9Sep2021

   JOB DONE.