     Program PWSCF v.6.7GPU starts on 23Sep2021 at 14:41:22

     R & G space division:  proc/nbgrp/npool/nimage =       8
     Reading input from /storage/home/hcoda1/3/ntian30/research/carbon/CxH_vib/H2O_calc/ads_slab/CH3OHHO_e/out_0042/pw.inp
Warning: card &CELL ignored
Warning: card   CELL_DYNAMICS='IPI', ignored
Warning: card / ignored

     Current dimensions of program PWSCF are:
     Max number of different atomic species (ntypx) = 10
     Max number of k-points (npk) =  40000
     Max angular momentum in pseudopotentials (lmaxx) =  3
     Presently no symmetry can be used with electric field

     Message from routine cell_base_init:
     DEPRECATED: use true lattice parameter, not A to a.u. conversion factor

     IMPORTANT: XC functional enforced from input :
     Exchange-correlation= BEEF-VDW
                           (   1   4  43  14   2   0   0)
     Any further DFT definition will be discarded
     Please, verify this is what you really want

  @ DRIVER MODE: Connecting to
 qe_1139763_2941008.sched-torque.pace.gatech.eduaz7gctmt_scratch
  using UNIX socket
  @ DRIVER MODE: Message from server: STATUS
  @ DRIVER MODE: Message from server: INIT
  @ DRIVER MODE: Receiving replica           0          -1
  @ DRIVER MODE: Receiving encoded integer          25
  @ DRIVER MODE:  SCF:  T  FORCE:  T  STRESS:  F  VC:  F  ENSEMBLE:  F
  @ DRIVER MODE:  SCF:  T  FORCE:  T  STRESS:  F  VC:  F  ENSEMBLE:  F

     Using Slab Decomposition

     bravais-lattice index     =            0
     lattice parameter (alat)  =       1.8897  a.u.
     unit-cell volume          =    6658.9804 (a.u.)^3
     number of atoms/cell      =           55
     number of atomic types    =            4
     number of electrons       =       399.00
     number of Kohn-Sham states=          209
     kinetic-energy cutoff     =      29.3995  Ry
     charge density cutoff     =     293.9946  Ry
     scf convergence threshold =      7.3E-08
     mixing beta               =       0.0500
     number of iterations used =            8  plain     mixing
     Exchange-correlation= BEEF-VDW
                           (   1   4  43  14   2   0   0)

     celldm(1)=   1.889726  celldm(2)=   0.000000  celldm(3)=   0.000000
     celldm(4)=   0.000000  celldm(5)=   0.000000  celldm(6)=   0.000000

     crystal axes: (cart. coord. in units of alat)
               a(1) = (   6.579727   0.000000   0.000000 )
               a(2) = (  -0.000775   5.961596   0.000000 )
               a(3) = (   0.000000   0.000000  25.155947 )

     reciprocal axes: (cart. coord. in units 2 pi/alat)
               b(1) = (  0.151982  0.000020  0.000000 )
               b(2) = (  0.000000  0.167740  0.000000 )
               b(3) = (  0.000000  0.000000  0.039752 )

     PseudoPot. # 1 for Ti read from file:
     /storage/coda1/p-amedford6/0/shared/rich_project_chbe-medford/medford-share/data/pseudos_module/espresso/nninc/pbe/van/Ti.UPF
     MD5 check sum: 8e4df49b7f0d34bbd5052bf3f5ea0213
     Pseudo is Ultrasoft, Zval = 12.0
     Generated by new atomic code, or converted to UPF format
     Using radial grid of  851 points,  6 beta functions with:
                l(1) =   0
                l(2) =   0
                l(3) =   1
                l(4) =   1
                l(5) =   2
                l(6) =   2
     Q(r) pseudized with  8 coefficients,  rinner =    1.000   1.000   1.000
                                                       1.000   1.000

     PseudoPot. # 2 for O  read from file:
     /storage/coda1/p-amedford6/0/shared/rich_project_chbe-medford/medford-share/data/pseudos_module/espresso/nninc/pbe/van/O.UPF
     MD5 check sum: 78c19812648e8988a0fe644b0f25305e
     Pseudo is Ultrasoft, Zval =  6.0
     Generated by new atomic code, or converted to UPF format
     Using radial grid of  737 points,  4 beta functions with:
                l(1) =   0
                l(2) =   0
                l(3) =   1
                l(4) =   1
     Q(r) pseudized with  8 coefficients,  rinner =    0.800   0.800   0.800

     PseudoPot. # 3 for C  read from file:
     /storage/coda1/p-amedford6/0/shared/rich_project_chbe-medford/medford-share/data/pseudos_module/espresso/nninc/pbe/van/C.UPF
     MD5 check sum: 1a69bf6b8db32088f5b2163dbdb77a27
     Pseudo is Ultrasoft, Zval =  4.0
     Generated by new atomic code, or converted to UPF format
     Using radial grid of  721 points,  4 beta functions with:
                l(1) =   0
                l(2) =   0
                l(3) =   1
                l(4) =   1
     Q(r) pseudized with  8 coefficients,  rinner =    0.800   0.800   0.800

     PseudoPot. # 4 for H  read from file:
     /storage/coda1/p-amedford6/0/shared/rich_project_chbe-medford/medford-share/data/pseudos_module/espresso/nninc/pbe/van/H.UPF
     MD5 check sum: b5ee9d7bfd3a09ee7748110bda690ff7
     Pseudo is Ultrasoft, Zval =  1.0
     Generated by new atomic code, or converted to UPF format
     Using radial grid of  615 points,  1 beta functions with:
                l(1) =   0
     Q(r) pseudized with  8 coefficients,  rinner =    0.800

     atomic species   valence    mass     pseudopotential
        Ti1           12.00    47.86700     Ti( 1.00)
        O1             6.00    15.99900     O ( 1.00)
        C1             4.00    12.01100     C ( 1.00)
        H1             1.00     1.00800     H ( 1.00)

     No symmetry found

   Cartesian axes

     site n.     atom                  positions (alat units)
         1           Ti1 tau(   1) = (   0.0004258   2.9801865   6.0000000  )
         2           Ti1 tau(   2) = (   3.2906075   1.4906267   6.0002472  )
         3           O1  tau(   3) = (   0.0006271   0.0005054   7.9858123  )
         4           O1  tau(   4) = (   3.2906025   0.0005020   7.3038282  )
         5           O1  tau(   5) = (   4.5942328   1.4918067   9.2879030  )
         6           O1  tau(   6) = (   1.9868534   1.4903216   9.2879459  )
         7           Ti1 tau(   7) = (   3.3364693   3.0244086   9.1899460  )
         8           Ti1 tau(   8) = (   0.0614121   1.5180315   9.2736979  )
         9           O1  tau(   9) = (   3.3192415   0.0109611  11.3574448  )
        10           O1  tau(  10) = (   0.0135824   0.0030625  10.5923660  )
        11           O1  tau(  11) = (   1.3113730   1.4888140  12.6397483  )
        12           O1  tau(  12) = (   5.3365169   1.4868518  12.6422516  )
        13           Ti1 tau(  13) = (   0.0249591   3.0356721  12.5595363  )
        14           Ti1 tau(  14) = (   3.3216347   1.5719315  12.4302660  )
        15           O1  tau(  15) = (   0.0475996   5.9320359  14.6592625  )
        16           O1  tau(  16) = (   3.3253441   5.8716044  14.0084122  )
        17           O1  tau(  17) = (   4.6294077   1.4993822  16.1384749  )
        18           O1  tau(  18) = (   2.0712093   1.5368213  16.0656395  )
        19           Ti1 tau(  19) = (   3.3420502   2.9337026  15.6791356  )
        20           Ti1 tau(  20) = (   0.0819182   1.3209985  15.9439250  )
        21           O1  tau(  21) = (   3.2904802   0.0005063   4.7018136  )
        22           O1  tau(  22) = (   0.1121901   0.0005398  17.1797988  )
        23           O1  tau(  23) = (   1.3043587   1.4918075   6.0039043  )
        24           O1  tau(  24) = (   5.2767064   1.4903225   6.0039473  )
        25           Ti1 tau(  25) = (   0.0000382   5.9609847   6.0000000  )
        26           Ti1 tau(  26) = (   3.2902200   4.4714249   6.0002472  )
        27           O1  tau(  27) = (   0.0002396   2.9813036   7.9858123  )
        28           O1  tau(  28) = (   3.2902150   2.9813002   7.3038282  )
        29           O1  tau(  29) = (   4.5938453   4.4726049   9.2879030  )
        30           O1  tau(  30) = (   1.9864658   4.4711199   9.2879459  )
        31           Ti1 tau(  31) = (   3.3365859   0.0383882   9.1683042  )
        32           Ti1 tau(  32) = (   0.0607984   4.4756772   9.2727477  )
        33           O1  tau(  33) = (   3.3154497   2.9528697  11.3100477  )
        34           O1  tau(  34) = (   0.0130381   2.9821538  10.6068333  )
        35           O1  tau(  35) = (   1.3079814   4.4632751  12.6339740  )
        36           O1  tau(  36) = (   5.3374838   4.4678533  12.6371107  )
        37           Ti1 tau(  37) = (   0.0367351   0.0553833  12.4739561  )
        38           Ti1 tau(  38) = (   3.3178111   4.6524667  12.7070490  )
        39           O1  tau(  39) = (   0.0226182   2.9861015  14.7894940  )
        40           O1  tau(  40) = (   3.3464301   2.9603322  13.9061577  )
        41           O1  tau(  41) = (   4.6320376   4.4053937  16.1659747  )
        42           O1  tau(  42) = (   2.0651706   4.3480327  16.1155179  )
        43           Ti1 tau(  43) = (   3.4032537   5.9185344  16.2710929  )
        44           Ti1 tau(  44) = (   0.0646745   4.5145260  15.8553686  )
        45           O1  tau(  45) = (   3.2900926   2.9813045   4.7018136  )
        46           O1  tau(  46) = (   1.3039711   4.4726057   6.0039043  )
        47           O1  tau(  47) = (   5.2763189   4.4711207   6.0039473  )
        48           C1  tau(  48) = (   5.9353497   3.0583042  18.8699169  )
        49           O1  tau(  49) = (   0.1856485   3.0014673  17.6677584  )
        50           H1  tau(  50) = (   4.9577780   2.6849493  18.5881267  )
        51           H1  tau(  51) = (   1.1185258   3.1466834  17.9024234  )
        52           H1  tau(  52) = (   6.3707541   2.4080388  19.6265123  )
        53           H1  tau(  53) = (   5.8722695   4.0904670  19.2075282  )
        54           O1  tau(  54) = (   3.1419305   5.9539177  18.1224628  )
        55           H1  tau(  55) = (   2.2021640   0.0520986  18.3490109  )

     number of k points=    10  Fermi-Dirac smearing, width (Ry)=  0.0073
                       cart. coord. in units 2pi/alat
        k(    1) = (   0.0000000   0.0000000   0.0000000), wk =   0.1250000
        k(    2) = (   0.0000000   0.0419351   0.0000000), wk =   0.2500000
        k(    3) = (   0.0000000  -0.0838702   0.0000000), wk =   0.1250000
        k(    4) = (   0.0379955   0.0000049   0.0000000), wk =   0.2500000
        k(    5) = (   0.0379955   0.0419400   0.0000000), wk =   0.2500000
        k(    6) = (   0.0379955  -0.0838652   0.0000000), wk =   0.2500000
        k(    7) = (   0.0379955  -0.0419301   0.0000000), wk =   0.2500000
        k(    8) = (  -0.0759910  -0.0000099   0.0000000), wk =   0.1250000
        k(    9) = (  -0.0759910   0.0419252   0.0000000), wk =   0.2500000
        k(   10) = (  -0.0759910  -0.0838800   0.0000000), wk =   0.1250000

     Initial potential from superposition of free atoms

     starting charge  382.99916, renormalised to  399.00000

     negative rho (up, down):  1.653E-02 0.000E+00

     %%%%%%%%%%%%%%%%%%%%%%%%%%%%%%%%%%%%%%%%%%%%%%%%%%%%%%%%%%%%%%%%%%%%%%%%
     %                                                                      %
     % You are using vdW-DF, which was implemented by the Thonhauser group. %
     % Please cite the following two papers that made this development      %
     % possible and the two reviews that describe the various versions:     %
     %                                                                      %
     %   T. Thonhauser et al., PRL 115, 136402 (2015).                      %
     %   T. Thonhauser et al., PRB 76, 125112 (2007).                       %
     %   K. Berland et al., Rep. Prog. Phys. 78, 066501 (2015).             %
     %   D.C. Langreth et al., J. Phys.: Condens. Matter 21, 084203 (2009). %
     %                                                                      %
     %                                                                      %
     % If you are calculating the stress with vdW-DF, please also cite:     %
     %                                                                      %
     %   R. Sabatini et al., J. Phys.: Condens. Matter 24, 424209 (2012).   %
     %                                                                      %
     %%%%%%%%%%%%%%%%%%%%%%%%%%%%%%%%%%%%%%%%%%%%%%%%%%%%%%%%%%%%%%%%%%%%%%%%

     Adding external electric field

     Computed dipole along edir(3) :
        Dipole              -10.2369 Ry au,        -26.0196 Debye
        Dipole field         -0.0193 Ry au,

        Potential amp.        1.7908 Ry
        Total length         46.3494 bohr

     Starting wfcs are  301 atomic wfcs
  @ DRIVER MODE: Message from server: STATUS
  @ DRIVER MODE: Message from server: POSDATA
  @ DRIVER MODE: Reading and sharing cell
  @ DRIVER MODE: Reading and sharing positions
  @ DRIVER MODE: Received positions

     Self-consistent Calculation

     iteration #  1     ecut=    29.40 Ry     beta= 0.05
     Davidson diagonalization with overlap
     c_bands:  3 eigenvalues not converged
     c_bands:  3 eigenvalues not converged
     c_bands:  4 eigenvalues not converged
     c_bands:  1 eigenvalues not converged
     c_bands:  5 eigenvalues not converged
     c_bands:  5 eigenvalues not converged
     c_bands:  4 eigenvalues not converged
     c_bands:  4 eigenvalues not converged
     c_bands:  4 eigenvalues not converged
     ethr =  1.00E-05,  avg # of iterations = 21.1

[...]

     total energy              =   -2463.88101595 Ry
     estimated scf accuracy    <    5598.09857566 Ry

     iteration #  2     ecut=    29.40 Ry     beta= 0.05
     Davidson diagonalization with overlap
     ethr =  1.00E-02,  avg # of iterations = 25.8

[...]

     iteration # 46     ecut=    29.40 Ry     beta= 0.05
     Davidson diagonalization with overlap
     c_bands:  1 eigenvalues not converged
     ethr =  1.86E-07,  avg # of iterations =  9.7

[...]

     total energy              =   -2966.27807237 Ry
     estimated scf accuracy    <       0.00000010 Ry

     iteration # 63     ecut=    29.40 Ry     beta= 0.05
     Davidson diagonalization with overlap
     ethr =  2.61E-11,  avg # of iterations = 10.7

     negative rho (up, down):  1.670E-02 0.000E+00

     Adding external electric field

     Computed dipole along edir(3) :
        Dipole                1.0275 Ry au,          2.6117 Debye
        Dipole field          0.0019 Ry au,

        Potential amp.       -0.1798 Ry
        Total length         46.3494 bohr

     End of self-consistent calculation

          k = 0.0000 0.0000 0.0000 ( 18029 PWs)   bands (ev):

   -55.7159 -55.6434 -55.6085 -55.5288 -55.5026 -55.4779 -55.4460 -55.4377
   -55.4314 -55.4217 -55.4095 -55.3822 -55.2959 -55.2240 -54.6017 -54.5677
   -32.1224 -32.1015 -32.0265 -32.0134 -31.9723 -31.9613 -31.9333 -31.9252
   -31.9037 -31.8871 -31.8771 -31.8039 -31.8011 -31.7969 -31.7693 -31.7509
   -31.7445 -31.7327 -31.7196 -31.7077 -31.7059 -31.7020 -31.6576 -31.6568
   -31.6545 -31.6479 -31.6419 -31.6361 -31.6238 -31.6066 -31.6029 -31.5931
   -31.5872 -31.5720 -31.5675 -31.5583 -31.5445 -31.5239 -31.4845 -31.4680
   -31.4358 -31.4284 -31.0078 -30.9220 -30.8994 -30.8249 -30.7385 -30.6269
   -20.0572 -16.4939 -16.2945 -16.1151 -15.9139 -15.8508 -15.7929 -15.6044
   -15.5294 -15.3889 -15.2429 -15.2286 -15.1771 -15.1759 -15.1682 -15.1446
   -15.1142 -15.0700 -15.0606 -15.0546 -15.0491 -14.9933 -14.9515 -14.9423
   -14.9365 -14.8962 -14.7678 -14.7272 -14.6711 -14.5012 -14.4526 -13.1014
   -12.9853 -10.9197  -6.7634  -4.9603  -4.7610  -3.9606  -3.6476  -3.5476
    -3.5300  -3.4644  -3.4104  -3.1985  -3.0702  -3.0264  -2.9138  -2.7874
    -2.7472  -2.6835  -2.6675  -2.5766  -2.5539  -2.5231  -2.4983  -2.4405
    -2.4127  -2.4038  -2.3897  -2.3198  -2.3109  -2.1785  -2.1760  -2.1002
    -2.0343  -2.0134  -1.9946  -1.9764  -1.9460  -1.9444  -1.8990  -1.8781
    -1.8562  -1.8201  -1.7517  -1.7286  -1.6709  -1.6313  -1.3932  -1.2354
    -1.2116  -1.1418  -1.1238  -1.0905  -1.0551  -1.0421  -1.0291  -0.9965
    -0.9804  -0.8685  -0.7720  -0.7488  -0.7022  -0.6639  -0.6616  -0.5292
    -0.4740  -0.4069  -0.3818  -0.3561  -0.3333  -0.2405  -0.1980  -0.1781
    -0.1162  -0.0801   0.0239   0.0661   0.0819   0.1205   0.1776   0.2437
     0.2812   0.3103   0.3181   0.3503   0.4008   0.4313   0.4572   0.4844
     0.5238   0.6275   0.6680   0.6825   0.8299   0.8391   0.9167   1.0426
     1.0908   1.3714   1.4234   1.4617   1.6164   1.9911   2.0372   3.4755
     3.5917   3.6031   3.6213   3.6919   3.7821   3.9377   3.9644   4.0345
     4.1366

[...]

          k = 0.0380-0.0419 0.0000 ( 17876 PWs)   bands (ev):

[...]

          k =-0.0760-0.0000 0.0000 ( 17886 PWs)   bands (ev):

[...]

          k =-0.0760-0.0839 0.0000 ( 17948 PWs)   bands (ev):

   -55.7151 -55.6298 -55.6220 -55.5220 -55.4979 -55.4845 -55.4383 -55.4361
   -55.4333 -55.4217 -55.4125 -55.3917 -55.2920 -55.2279 -54.5849 -54.5844
   -32.0211 -31.9671 -31.9576 -31.9416 -31.9340 -31.9260 -31.9258 -31.9122
   -31.8448 -31.8435 -31.8083 -31.7764 -31.7740 -31.7656 -31.7497 -31.7488
   -31.7448 -31.7416 -31.7365 -31.7290 -31.7262 -31.7236 -31.7118 -31.7098
   -31.6812 -31.6799 -31.6448 -31.6418 -31.6405 -31.6382 -31.6303 -31.6251
   -31.6193 -31.6178 -31.6109 -31.6099 -31.6080 -31.5712 -31.5515 -31.4888
   -31.4751 -31.4324 -30.9122 -30.9120 -30.8216 -30.8201 -30.7819 -30.7809
   -20.0535 -16.4661 -15.9097 -15.7674 -15.6054 -15.5869 -15.5095 -15.4131
   -15.3970 -15.3675 -15.3579 -15.3382 -15.3126 -15.3098 -15.2606 -15.2074
   -15.1655 -15.1426 -15.1381 -15.0920 -15.0828 -15.0793 -15.0237 -15.0109
   -15.0016 -14.9632 -14.9034 -14.8727 -14.7966 -14.7629 -14.6165 -13.0875
   -13.0869 -10.9219  -6.7645  -4.9412  -4.7529  -3.9218  -3.0604  -2.9874
    -2.8982  -2.8277  -2.7468  -2.6877  -2.6381  -2.6190  -2.5767  -2.5560
    -2.4862  -2.4519  -2.4444  -2.4230  -2.4210  -2.3935  -2.3783  -2.3656
    -2.3420  -2.3136  -2.2993  -2.2855  -2.2667  -2.2466  -2.2249  -2.2063
    -2.1935  -2.1824  -2.1626  -2.0502  -2.0300  -1.9928  -1.8404  -1.8280
    -1.7649  -1.7325  -1.7018  -1.6965  -1.6635  -1.6554  -1.6114  -1.4987
    -1.4730  -1.4225  -1.3612  -1.2797  -1.2721  -1.2272  -1.1725  -1.1344
    -1.1056  -1.0588  -1.0558  -0.9936  -0.8692  -0.8426  -0.7984  -0.6772
    -0.6084  -0.5931  -0.5788  -0.5618  -0.5357  -0.4873  -0.4805  -0.4268
    -0.4046  -0.3337  -0.3266  -0.3070  -0.2784  -0.1750  -0.0605   0.0368
     0.0655   0.1243   0.1637   0.2055   0.2849   0.3518   0.4348   0.5238
     0.5467   0.5573   0.6788   0.7075   0.7585   0.8137   0.8282   0.8855
     0.9177   0.9617   0.9896   1.7845   1.7979   1.8536   1.8584   3.6636
     3.9123   3.9647   3.9828   3.9955   4.0290   4.0491   4.0963   4.1141
     4.1419

     the Fermi energy is     3.4889 ev

!    total energy              =   -2966.27811564 Ry
     estimated scf accuracy    <       0.00000007 Ry
     smearing contrib. (-TS)   =      -0.02073768 Ry
     internal energy E=F+TS    =   -2966.25737796 Ry

     The total energy is F=E-TS. E is the sum of the following terms:
     one-electron contribution =  -24035.41914914 Ry
     hartree contribution      =   12110.10943062 Ry
     xc contribution           =    -490.93971988 Ry
     ewald contribution        =    9449.99006796 Ry
     electric field correction =       0.00199248 Ry

     convergence has been achieved in  63 iterations

     Forces acting on atoms (cartesian axes, Ry/au):

     atom    1 type  1   force =    -0.00039265    0.00004495    0.09458646
     atom    2 type  1   force =    -0.00033076    0.00499263   -0.17462852
     atom    3 type  2   force =     0.00082587   -0.00023632   -0.02593609
     atom    4 type  2   force =     0.00125267    0.00074962    0.05284826
     atom    5 type  2   force =    -0.01096575   -0.00285799    0.00048969
     atom    6 type  2   force =     0.01163159   -0.00410665    0.00186635
     atom    7 type  1   force =     0.00052584    0.00038777   -0.00013578
     atom    8 type  1   force =    -0.00045100    0.00020023    0.00078132
     atom    9 type  2   force =    -0.00044683    0.00026851   -0.00023786
     atom   10 type  2   force =     0.00031670   -0.00035608   -0.00047864
     atom   11 type  2   force =     0.00063269    0.00030897   -0.00024673
     atom   12 type  2   force =    -0.00039934   -0.00046922   -0.00039960
     atom   13 type  1   force =    -0.00130475   -0.00079570    0.00042584
     atom   14 type  1   force =     0.00029741    0.00015016    0.00058209
     atom   15 type  2   force =     0.00048206    0.00065586    0.00003694
     atom   16 type  2   force =    -0.00044636    0.00056162    0.00082333
     atom   17 type  2   force =    -0.00022986    0.00001266    0.00004787
     atom   18 type  2   force =    -0.00001898   -0.00031703    0.00043414
     atom   19 type  1   force =    -0.00045689    0.00113466    0.00007874
     atom   20 type  1   force =    -0.00013868   -0.00040130   -0.00020117
     atom   21 type  2   force =    -0.00001500    0.00005486    0.10309912
     atom   22 type  2   force =    -0.00045934   -0.00053333   -0.00102889
     atom   23 type  2   force =    -0.07206894    0.00004942   -0.02790370
     atom   24 type  2   force =     0.07192811    0.00054004   -0.02800636
     atom   25 type  1   force =    -0.00043501    0.00000417    0.10117251
     atom   26 type  1   force =    -0.00006236   -0.00460223   -0.17488776
     atom   27 type  2   force =     0.00089944    0.00114438   -0.02442610
     atom   28 type  2   force =     0.00113485    0.00014976    0.05240922
     atom   29 type  2   force =    -0.01185202    0.00306676    0.00195833
     atom   30 type  2   force =     0.01325333    0.00116658    0.00309187
     atom   31 type  1   force =     0.00059089    0.00001896   -0.00053756
     atom   32 type  1   force =    -0.00036242    0.00070685    0.00048022
     atom   33 type  2   force =    -0.00020047    0.00094107    0.00018814
     atom   34 type  2   force =     0.00013846   -0.00013254   -0.00098816
     atom   35 type  2   force =     0.00036947    0.00007959    0.00052605
     atom   36 type  2   force =     0.00006387    0.00016832    0.00046384
     atom   37 type  1   force =    -0.00146157   -0.00059141    0.00038933
     atom   38 type  1   force =     0.00077606   -0.00035789   -0.00018146
     atom   39 type  2   force =     0.00044294   -0.00019862    0.00106107
     atom   40 type  2   force =    -0.00010896    0.00036073    0.00047493
     atom   41 type  2   force =    -0.00079811    0.00034064   -0.00069829
     atom   42 type  2   force =     0.00021805    0.00013058   -0.00053134
     atom   43 type  1   force =    -0.00073883   -0.00022764    0.00496043
     atom   44 type  1   force =    -0.00019125   -0.00039045   -0.00074777
     atom   45 type  2   force =    -0.00001497    0.00013067    0.10267667
     atom   46 type  2   force =    -0.07203917   -0.00056361   -0.02788370
     atom   47 type  2   force =     0.07189229   -0.00007050   -0.02796423
     atom   48 type  3   force =    -0.00006532   -0.00093228   -0.00104597
     atom   49 type  2   force =    -0.00062645   -0.00040503   -0.00130068
     atom   50 type  4   force =     0.00010214   -0.00012634   -0.00000282
     atom   51 type  4   force =    -0.00009189   -0.00012167   -0.00016040
     atom   52 type  4   force =    -0.00005575    0.00000779   -0.00004150
     atom   53 type  4   force =    -0.00080290    0.00054847   -0.00005370
     atom   54 type  2   force =     0.00640421   -0.00032947   -0.00721267
     atom   55 type  4   force =    -0.00614635    0.00004605    0.00191468

     Total force =     0.364635     Total SCF correction =     0.000744
  @ DRIVER MODE: Message from server: STATUS
  @ DRIVER MODE: Message from server: GETFORCE
  @ DRIVER MODE: Returning v,forces,stress,ensemble

     Writing output data file ./calc.save/
  @ DRIVER MODE: Message from server: EXIT
  @ DRIVE MODE: Exiting

     General routines

     Parallel routines

   This run was terminated on:  15: 3:11  23Sep2021

   JOB DONE.