     Program PWSCF v.6.7GPU starts on  9Sep2021 at  0:23:53

     R & G space division:  proc/nbgrp/npool/nimage =      10
     Reading input from /storage/home/hcoda1/3/ntian30/research/carbon/CxH_vib/CH3_calc/ads_slab/CH3NHNH_a/out_0008/pw.inp
Warning: card &CELL ignored
Warning: card   CELL_DYNAMICS='IPI', ignored
Warning: card / ignored

     Current dimensions of program PWSCF are:
     Max number of different atomic species (ntypx) = 10
     Max number of k-points (npk) =  40000
     Max angular momentum in pseudopotentials (lmaxx) =  3
     Presently no symmetry can be used with electric field

     Message from routine cell_base_init:
     DEPRECATED: use true lattice parameter, not A to a.u. conversion factor

     IMPORTANT: XC functional enforced from input :
     Exchange-correlation= BEEF-VDW
                           (   1   4  43  14   2   0   0)
     Any further DFT definition will be discarded
     Please, verify this is what you really want

  @ DRIVER MODE: Connecting to
 qe_1139763_2767401.sched-torque.pace.gatech.educresv_2z_scratch
  using UNIX socket
  @ DRIVER MODE: Message from server: STATUS
  @ DRIVER MODE: Message from server: INIT
  @ DRIVER MODE: Receiving replica           0          -1
  @ DRIVER MODE: Receiving encoded integer          25
  @ DRIVER MODE:  SCF:  T  FORCE:  T  STRESS:  F  VC:  F  ENSEMBLE:  F
  @ DRIVER MODE:  SCF:  T  FORCE:  T  STRESS:  F  VC:  F  ENSEMBLE:  F

     Using Slab Decomposition

     bravais-lattice index     =            0
     lattice parameter (alat)  =       1.8897  a.u.
     unit-cell volume          =    6658.9804 (a.u.)^3
     number of atoms/cell      =           55
     number of atomic types    =            5
     number of electrons       =       397.00
     number of Kohn-Sham states=          208
     kinetic-energy cutoff     =      29.3995  Ry
     charge density cutoff     =     293.9946  Ry
     scf convergence threshold =      7.3E-08
     mixing beta               =       0.0500
     number of iterations used =            8  plain     mixing
     Exchange-correlation= BEEF-VDW
                           (   1   4  43  14   2   0   0)

     celldm(1)=   1.889726  celldm(2)=   0.000000  celldm(3)=   0.000000
     celldm(4)=   0.000000  celldm(5)=   0.000000  celldm(6)=   0.000000

     crystal axes: (cart. coord. in units of alat)
               a(1) = (   6.579727   0.000000   0.000000 )
               a(2) = (  -0.000775   5.961596   0.000000 )
               a(3) = (   0.000000   0.000000  25.155947 )

     reciprocal axes: (cart. coord. in units 2 pi/alat)
               b(1) = (  0.151982  0.000020  0.000000 )
               b(2) = (  0.000000  0.167740  0.000000 )
               b(3) = (  0.000000  0.000000  0.039752 )

     PseudoPot. # 1 for Ti read from file:
     /storage/coda1/p-amedford6/0/shared/rich_project_chbe-medford/medford-share/data/pseudos_module/espresso/nninc/pbe/van/Ti.UPF
     MD5 check sum: 8e4df49b7f0d34bbd5052bf3f5ea0213
     Pseudo is Ultrasoft, Zval = 12.0
     Generated by new atomic code, or converted to UPF format
     Using radial grid of  851 points,  6 beta functions with:
                l(1) =   0
                l(2) =   0
                l(3) =   1
                l(4) =   1
                l(5) =   2
                l(6) =   2
     Q(r) pseudized with  8 coefficients,  rinner =    1.000   1.000   1.000
                                                       1.000   1.000

     PseudoPot. # 2 for O  read from file:
     /storage/coda1/p-amedford6/0/shared/rich_project_chbe-medford/medford-share/data/pseudos_module/espresso/nninc/pbe/van/O.UPF
     MD5 check sum: 78c19812648e8988a0fe644b0f25305e
     Pseudo is Ultrasoft, Zval =  6.0
     Generated by new atomic code, or converted to UPF format
     Using radial grid of  737 points,  4 beta functions with:
                l(1) =   0
                l(2) =   0
                l(3) =   1
                l(4) =   1
     Q(r) pseudized with  8 coefficients,  rinner =    0.800   0.800   0.800

     PseudoPot. # 3 for N  read from file:
     /storage/coda1/p-amedford6/0/shared/rich_project_chbe-medford/medford-share/data/pseudos_module/espresso/nninc/pbe/van/N.UPF
     MD5 check sum: 90d10febe142ad51ac9d5be1deb811c4
     Pseudo is Ultrasoft, Zval =  5.0
     Generated by new atomic code, or converted to UPF format
     Using radial grid of  729 points,  4 beta functions with:
                l(1) =   0
                l(2) =   0
                l(3) =   1
                l(4) =   1
     Q(r) pseudized with  8 coefficients,  rinner =    0.800   0.800   0.800

     PseudoPot. # 4 for C  read from file:
     /storage/coda1/p-amedford6/0/shared/rich_project_chbe-medford/medford-share/data/pseudos_module/espresso/nninc/pbe/van/C.UPF
     MD5 check sum: 1a69bf6b8db32088f5b2163dbdb77a27
     Pseudo is Ultrasoft, Zval =  4.0
     Generated by new atomic code, or converted to UPF format
     Using radial grid of  721 points,  4 beta functions with:
                l(1) =   0
                l(2) =   0
                l(3) =   1
                l(4) =   1
     Q(r) pseudized with  8 coefficients,  rinner =    0.800   0.800   0.800

     PseudoPot. # 5 for H  read from file:
     /storage/coda1/p-amedford6/0/shared/rich_project_chbe-medford/medford-share/data/pseudos_module/espresso/nninc/pbe/van/H.UPF
     MD5 check sum: b5ee9d7bfd3a09ee7748110bda690ff7
     Pseudo is Ultrasoft, Zval =  1.0
     Generated by new atomic code, or converted to UPF format
     Using radial grid of  615 points,  1 beta functions with:
                l(1) =   0
     Q(r) pseudized with  8 coefficients,  rinner =    0.800

     atomic species   valence    mass     pseudopotential
        Ti1           12.00    47.86700     Ti( 1.00)
        O1             6.00    15.99900     O ( 1.00)
        N1             5.00    14.00700     N ( 1.00)
        C1             4.00    12.01100     C ( 1.00)
        H1             1.00     1.00800     H ( 1.00)

     No symmetry found

   Cartesian axes

     site n.     atom                  positions (alat units)
         1           Ti1 tau(   1) = (   0.0004258   2.9801865   6.0000000  )
         2           Ti1 tau(   2) = (   3.2906075   1.4906267   6.0002472  )
         3           O1  tau(   3) = (   0.0006271   0.0005054   7.9858123  )
         4           O1  tau(   4) = (   3.2906025   0.0005020   7.3038282  )
         5           O1  tau(   5) = (   4.5942328   1.4918067   9.2879030  )
         6           O1  tau(   6) = (   1.9868534   1.4903216   9.2879459  )
         7           Ti1 tau(   7) = (   3.2907910   2.8959150   9.1758416  )
         8           Ti1 tau(   8) = (   0.0015273   1.4827037   9.2680791  )
         9           O1  tau(   9) = (   3.2830128   5.9597860  11.3344455  )
        10           O1  tau(  10) = (   0.0116148   5.9584955  10.6183126  )
        11           O1  tau(  11) = (   1.2885291   1.4855062  12.6376555  )
        12           O1  tau(  12) = (   5.2724004   1.4911608  12.5936499  )
        13           Ti1 tau(  13) = (   0.0410009   3.0319447  12.6084003  )
        14           Ti1 tau(  14) = (   3.3739341   1.4916561  12.4823474  )
        15           O1  tau(  15) = (   6.4862162   0.0153916  14.6455093  )
        16           O1  tau(  16) = (   3.3439542   5.9611638  13.9051029  )
        17           O1  tau(  17) = (   4.4933269   1.5483200  16.1231154  )
        18           O1  tau(  18) = (   1.9964937   1.4536654  15.9127221  )
        19           Ti1 tau(  19) = (   3.1412959   3.0017366  15.7441667  )
        20           Ti1 tau(  20) = (   6.4823597   1.5369342  15.8006069  )
        21           O1  tau(  21) = (   3.2904802   0.0005063   4.7018136  )
        22           O1  tau(  22) = (   6.5709111   0.0522475  17.2082838  )
        23           O1  tau(  23) = (   1.3043587   1.4918075   6.0039043  )
        24           O1  tau(  24) = (   5.2767064   1.4903225   6.0039473  )
        25           Ti1 tau(  25) = (   0.0000382   5.9609847   6.0000000  )
        26           Ti1 tau(  26) = (   3.2902200   4.4714249   6.0002472  )
        27           O1  tau(  27) = (   0.0002396   2.9813036   7.9858123  )
        28           O1  tau(  28) = (   3.2902150   2.9813002   7.3038282  )
        29           O1  tau(  29) = (   4.5938453   4.4726049   9.2879030  )
        30           O1  tau(  30) = (   1.9864658   4.4711199   9.2879459  )
        31           Ti1 tau(  31) = (   3.2891106   5.8743827   9.1763621  )
        32           Ti1 tau(  32) = (   0.0006254   4.4649316   9.2693709  )
        33           O1  tau(  33) = (   3.2833609   2.9822938  11.3349093  )
        34           O1  tau(  34) = (   0.0092240   2.9805883  10.6323155  )
        35           O1  tau(  35) = (   1.2838611   4.4860338  12.6468719  )
        36           O1  tau(  36) = (   5.2760156   4.4607002  12.6015494  )
        37           Ti1 tau(  37) = (   0.0673138   0.0440259  12.5461749  )
        38           Ti1 tau(  38) = (   3.3712377   4.4654930  12.4933830  )
        39           O1  tau(  39) = (   6.5217465   2.9589972  14.6412948  )
        40           O1  tau(  40) = (   3.2809526   2.9956502  13.9333893  )
        41           O1  tau(  41) = (   4.4911989   4.4583117  16.1637052  )
        42           O1  tau(  42) = (   1.9937212   4.5427850  15.9740970  )
        43           Ti1 tau(  43) = (   3.2955853   0.0167752  15.6963065  )
        44           Ti1 tau(  44) = (   6.5082246   4.6715011  16.1069148  )
        45           O1  tau(  45) = (   3.2900926   2.9813045   4.7018136  )
        46           O1  tau(  46) = (   1.3039711   4.4726057   6.0039043  )
        47           O1  tau(  47) = (   5.2763189   4.4711207   6.0039473  )
        48           N1  tau(  48) = (   1.3945086   2.8365607  18.1849301  )
        49           N1  tau(  49) = (   0.1877896   2.9650562  17.4211889  )
        50           C1  tau(  50) = (   1.4118813   3.7128676  19.3556819  )
        51           H1  tau(  51) = (   0.5171711   3.5996102  19.9880000  )
        52           H1  tau(  52) = (   2.2935099   3.4681107  19.9517681  )
        53           H1  tau(  53) = (   1.4703795   4.7520035  19.0319817  )
        54           H1  tau(  54) = (   1.4579882   1.8621926  18.4823179  )
        55           H1  tau(  55) = (   5.9558665   2.8747675  18.0551794  )

     number of k points=    10  Fermi-Dirac smearing, width (Ry)=  0.0073
                       cart. coord. in units 2pi/alat
        k(    1) = (   0.0000000   0.0000000   0.0000000), wk =   0.1250000
        k(    2) = (   0.0000000   0.0419351   0.0000000), wk =   0.2500000
        k(    3) = (   0.0000000  -0.0838702   0.0000000), wk =   0.1250000
        k(    4) = (   0.0379955   0.0000049   0.0000000), wk =   0.2500000
        k(    5) = (   0.0379955   0.0419400   0.0000000), wk =   0.2500000
        k(    6) = (   0.0379955  -0.0838652   0.0000000), wk =   0.2500000
        k(    7) = (   0.0379955  -0.0419301   0.0000000), wk =   0.2500000
        k(    8) = (  -0.0759910  -0.0000099   0.0000000), wk =   0.1250000
        k(    9) = (  -0.0759910   0.0419252   0.0000000), wk =   0.2500000
        k(   10) = (  -0.0759910  -0.0838800   0.0000000), wk =   0.1250000

     Initial potential from superposition of free atoms

     starting charge  380.99914, renormalised to  397.00000

     negative rho (up, down):  1.540E-02 0.000E+00

     %%%%%%%%%%%%%%%%%%%%%%%%%%%%%%%%%%%%%%%%%%%%%%%%%%%%%%%%%%%%%%%%%%%%%%%%
     %                                                                      %
     % You are using vdW-DF, which was implemented by the Thonhauser group. %
     % Please cite the following two papers that made this development      %
     % possible and the two reviews that describe the various versions:     %
     %                                                                      %
     %   T. Thonhauser et al., PRL 115, 136402 (2015).                      %
     %   T. Thonhauser et al., PRB 76, 125112 (2007).                       %
     %   K. Berland et al., Rep. Prog. Phys. 78, 066501 (2015).             %
     %   D.C. Langreth et al., J. Phys.: Condens. Matter 21, 084203 (2009). %
     %                                                                      %
     %                                                                      %
     % If you are calculating the stress with vdW-DF, please also cite:     %
     %                                                                      %
     %   R. Sabatini et al., J. Phys.: Condens. Matter 24, 424209 (2012).   %
     %                                                                      %
     %%%%%%%%%%%%%%%%%%%%%%%%%%%%%%%%%%%%%%%%%%%%%%%%%%%%%%%%%%%%%%%%%%%%%%%%

     Adding external electric field

     Computed dipole along edir(3) :
        Dipole               -9.6180 Ry au,        -24.4465 Debye
        Dipole field         -0.0182 Ry au,

        Potential amp.        1.6825 Ry
        Total length         46.3494 bohr

     Starting wfcs are  301 atomic wfcs
  @ DRIVER MODE: Message from server: STATUS
  @ DRIVER MODE: Message from server: POSDATA
  @ DRIVER MODE: Reading and sharing cell
  @ DRIVER MODE: Reading and sharing positions
  @ DRIVER MODE: Received positions

     Self-consistent Calculation

     iteration #  1     ecut=    29.40 Ry     beta= 0.05
     Davidson diagonalization with overlap
     c_bands:  1 eigenvalues not converged
     c_bands:  1 eigenvalues not converged
     c_bands:  1 eigenvalues not converged
     c_bands:  1 eigenvalues not converged
     c_bands:  1 eigenvalues not converged
     c_bands:  1 eigenvalues not converged
     c_bands:  2 eigenvalues not converged
     ethr =  1.00E-05,  avg # of iterations = 18.8

[...]

     total energy              =   -2532.80612938 Ry
     estimated scf accuracy    <    4547.35924589 Ry

     iteration #  2     ecut=    29.40 Ry     beta= 0.05
     Davidson diagonalization with overlap
     ethr =  1.00E-02,  avg # of iterations = 24.4

[...]

     iteration # 53     ecut=    29.40 Ry     beta= 0.05
     Davidson diagonalization with overlap
     c_bands:  1 eigenvalues not converged
     c_bands:  1 eigenvalues not converged
     ethr =  1.25E-09,  avg # of iterations = 16.5

[...]

     total energy              =   -2941.66142628 Ry
     estimated scf accuracy    <       0.00000012 Ry

     iteration # 63     ecut=    29.40 Ry     beta= 0.05
     Davidson diagonalization with overlap
     ethr =  2.90E-11,  avg # of iterations =  8.5

     negative rho (up, down):  1.608E-02 0.000E+00

     Adding external electric field

     Computed dipole along edir(3) :
        Dipole                0.9406 Ry au,          2.3909 Debye
        Dipole field          0.0018 Ry au,

        Potential amp.       -0.1646 Ry
        Total length         46.3494 bohr

     End of self-consistent calculation

          k = 0.0000 0.0000 0.0000 ( 18029 PWs)   bands (ev):

   -55.6874 -55.6703 -55.6533 -55.6337 -55.5930 -55.5390 -55.5319 -55.5019
   -55.4959 -55.4679 -55.4659 -55.4318 -55.2590 -55.0344 -54.6678 -54.6338
   -32.2212 -32.1705 -32.0434 -32.0334 -32.0002 -31.9854 -31.9802 -31.9562
   -31.9314 -31.8994 -31.8972 -31.8909 -31.8478 -31.8396 -31.8257 -31.8240
   -31.8073 -31.7923 -31.7836 -31.7483 -31.7445 -31.7375 -31.7220 -31.7183
   -31.6957 -31.6911 -31.6884 -31.6807 -31.6666 -31.6643 -31.6566 -31.6474
   -31.6420 -31.6323 -31.6189 -31.6094 -31.5780 -31.5094 -31.4652 -31.3011
   -31.2912 -31.2368 -31.0752 -30.9865 -30.9641 -30.8918 -30.8053 -30.6943
   -16.8308 -16.4188 -16.1636 -15.9355 -15.8432 -15.8124 -15.6600 -15.5284
   -15.4190 -15.3373 -15.2523 -15.2334 -15.2261 -15.2151 -15.1893 -15.1839
   -15.1363 -15.1320 -15.1124 -15.0995 -15.0493 -15.0328 -15.0292 -14.9346
   -14.8707 -14.8354 -14.8205 -14.7858 -14.7485 -14.3348 -13.1704 -13.0539
   -11.7853  -8.9710  -5.4522  -4.3814  -3.8494  -3.7897  -3.6454  -3.5949
    -3.5346  -3.4968  -3.3181  -3.2157  -2.9429  -2.8853  -2.8564  -2.8472
    -2.7895  -2.7572  -2.6022  -2.5761  -2.5054  -2.4961  -2.4812  -2.4520
    -2.4440  -2.4371  -2.3997  -2.3768  -2.3485  -2.2439  -2.1063  -2.0961
    -2.0724  -2.0389  -2.0014  -1.9527  -1.9363  -1.9165  -1.8977  -1.8852
    -1.8725  -1.7383  -1.7022  -1.5863  -1.4967  -1.4506  -1.3693  -1.2998
    -1.2723  -1.1586  -1.1190  -1.1075  -1.0928  -1.0816  -0.9820  -0.8762
    -0.8596  -0.8223  -0.7638  -0.7100  -0.6395  -0.5946  -0.5431  -0.4909
    -0.4650  -0.4517  -0.4489  -0.4138  -0.3209  -0.1812  -0.1295  -0.0949
    -0.0730   0.0040   0.0391   0.0948   0.1196   0.1434   0.1789   0.2319
     0.2754   0.2820   0.2954   0.3098   0.3146   0.4889   0.5380   0.5801
     0.6138   0.6592   0.8209   0.8431   0.9645   1.0405   1.2055   1.2797
     1.3542   1.4327   1.5460   1.6319   1.9256   1.9714   3.4434   3.5309
     3.5756   3.5893   3.6847   3.7265   3.8961   3.9267   3.9413   4.0011

[...]

          k = 0.0380-0.0419 0.0000 ( 17876 PWs)   bands (ev):

[...]

          k =-0.0760-0.0000 0.0000 ( 17886 PWs)   bands (ev):

[...]

          k =-0.0760-0.0839 0.0000 ( 17948 PWs)   bands (ev):

   -55.6706 -55.6699 -55.6556 -55.6482 -55.5869 -55.5449 -55.5193 -55.5085
   -55.4853 -55.4839 -55.4518 -55.4461 -55.2579 -55.0354 -54.6508 -54.6507
   -32.0304 -32.0207 -31.9860 -31.9855 -31.9660 -31.9652 -31.9451 -31.9385
   -31.8856 -31.8850 -31.8748 -31.8696 -31.8526 -31.8349 -31.8101 -31.8055
   -31.8010 -31.7975 -31.7908 -31.7906 -31.7895 -31.7891 -31.7854 -31.7458
   -31.7373 -31.7259 -31.7176 -31.7064 -31.6858 -31.6849 -31.6829 -31.6762
   -31.6661 -31.6621 -31.6588 -31.6563 -31.6152 -31.5118 -31.4620 -31.3633
   -31.2934 -31.2627 -30.9768 -30.9767 -30.8880 -30.8878 -30.8486 -30.8486
   -16.8072 -15.8653 -15.8042 -15.6463 -15.6110 -15.5915 -15.5566 -15.4960
   -15.4128 -15.3855 -15.3809 -15.3336 -15.3082 -15.2756 -15.2373 -15.2227
   -15.2156 -15.1969 -15.1849 -15.1506 -15.1411 -15.1294 -15.1222 -15.0469
   -15.0092 -15.0049 -14.9996 -14.8956 -14.7692 -14.5027 -13.1557 -13.1556
   -11.7914  -8.9854  -5.4664  -4.3687  -3.7744  -3.1580  -3.0709  -2.8963
    -2.8407  -2.8119  -2.7960  -2.6300  -2.6184  -2.6042  -2.5569  -2.5368
    -2.5268  -2.5180  -2.5093  -2.4883  -2.4755  -2.4413  -2.4311  -2.3956
    -2.3814  -2.3636  -2.3467  -2.3300  -2.3100  -2.2963  -2.2808  -2.2384
    -2.2196  -2.2081  -2.1867  -2.1422  -1.9331  -1.8830  -1.8373  -1.8338
    -1.8227  -1.8034  -1.7484  -1.7434  -1.7099  -1.6588  -1.5793  -1.4348
    -1.3894  -1.3729  -1.2799  -1.2582  -1.2057  -1.1336  -1.0880  -1.0711
    -1.0366  -0.9725  -0.9353  -0.8982  -0.8322  -0.8070  -0.8014  -0.7078
    -0.6867  -0.6504  -0.6437  -0.5657  -0.5168  -0.4517  -0.4363  -0.4198
    -0.3870  -0.3549  -0.3362  -0.2649  -0.1768  -0.1756  -0.1505  -0.0437
     0.0464   0.2753   0.3382   0.3751   0.4201   0.5135   0.5827   0.6069
     0.6227   0.6448   0.6636   0.7117   0.8388   0.8491   0.8831   0.9961
     1.1047   1.6489   1.7178   1.7186   1.7912   1.7913   3.7449   3.7631
     3.7837   3.8302   3.9494   3.9564   3.9785   3.9806   4.1036   4.1189

     the Fermi energy is     3.4450 ev

!    total energy              =   -2941.66146124 Ry
     estimated scf accuracy    <       0.00000005 Ry
     smearing contrib. (-TS)   =      -0.02151615 Ry
     internal energy E=F+TS    =   -2941.63994509 Ry

     The total energy is F=E-TS. E is the sum of the following terms:
     one-electron contribution =  -24276.16901385 Ry
     hartree contribution      =   12228.52873240 Ry
     xc contribution           =    -486.87352641 Ry
     ewald contribution        =    9592.87219304 Ry
     electric field correction =       0.00166973 Ry

     convergence has been achieved in  63 iterations

     Forces acting on atoms (cartesian axes, Ry/au):

     atom    1 type  1   force =     0.00017596   -0.00011253    0.09637795
     atom    2 type  1   force =    -0.00021654   -0.00063262   -0.17550455
     atom    3 type  2   force =    -0.00004179   -0.00003542   -0.02420209
     atom    4 type  2   force =     0.00005320   -0.00143746    0.05289748
     atom    5 type  2   force =    -0.01180661   -0.00049081    0.00395711
     atom    6 type  2   force =     0.01312284    0.00023677    0.00229501
     atom    7 type  1   force =    -0.00139643    0.00081192   -0.01150296
     atom    8 type  1   force =     0.00053518    0.00922182    0.02520603
     atom    9 type  2   force =    -0.00010901    0.00017371    0.00039044
     atom   10 type  2   force =    -0.00085790    0.00148208   -0.01579350
     atom   11 type  2   force =    -0.00020175   -0.00049519    0.00039707
     atom   12 type  2   force =    -0.00012382   -0.00027058    0.00003424
     atom   13 type  1   force =     0.00056425   -0.00091890    0.00008271
     atom   14 type  1   force =    -0.00008877   -0.00039963    0.00026137
     atom   15 type  2   force =     0.00039610    0.00012281   -0.00018906
     atom   16 type  2   force =     0.00006871    0.00024779    0.00005901
     atom   17 type  2   force =    -0.00032864    0.00045716    0.00059338
     atom   18 type  2   force =     0.00035055    0.00000477    0.00020312
     atom   19 type  1   force =     0.00008031   -0.00057671    0.00013170
     atom   20 type  1   force =     0.00038957    0.00040992    0.00080260
     atom   21 type  2   force =     0.00007520   -0.00008076    0.10318587
     atom   22 type  2   force =    -0.00045831   -0.00013697    0.00031047
     atom   23 type  2   force =    -0.07147941   -0.00018092   -0.02772117
     atom   24 type  2   force =     0.07140134    0.00025194   -0.02771985
     atom   25 type  1   force =     0.00002646   -0.00027529    0.09582282
     atom   26 type  1   force =    -0.00014397   -0.00022981   -0.17567543
     atom   27 type  2   force =     0.00009112   -0.00012475   -0.02330896
     atom   28 type  2   force =     0.00008113   -0.00129491    0.05332186
     atom   29 type  2   force =    -0.01193651   -0.00005866    0.00375573
     atom   30 type  2   force =     0.01319071    0.00043022    0.00213116
     atom   31 type  1   force =    -0.00142760    0.00345428   -0.01080384
     atom   32 type  1   force =     0.00064064   -0.01010818    0.02561950
     atom   33 type  2   force =    -0.00038889    0.00005408    0.00004788
     atom   34 type  2   force =     0.00074243    0.00090548   -0.02305653
     atom   35 type  2   force =    -0.00011529    0.00029498   -0.00002200
     atom   36 type  2   force =    -0.00021190    0.00060051   -0.00027569
     atom   37 type  1   force =    -0.00082662   -0.00101989   -0.00016616
     atom   38 type  1   force =    -0.00004665   -0.00011422   -0.00001131
     atom   39 type  2   force =    -0.00049412    0.00006777    0.00060835
     atom   40 type  2   force =     0.00048846    0.00025485    0.00025141
     atom   41 type  2   force =     0.00024543    0.00038257    0.00036611
     atom   42 type  2   force =     0.00031354    0.00035662   -0.00024054
     atom   43 type  1   force =     0.00008996    0.00010090   -0.00021705
     atom   44 type  1   force =    -0.00005202   -0.00087641    0.00009599
     atom   45 type  2   force =     0.00007028   -0.00008687    0.10322454
     atom   46 type  2   force =    -0.07148726   -0.00016859   -0.02771583
     atom   47 type  2   force =     0.07141137    0.00030412   -0.02773168
     atom   48 type  3   force =     0.00455005   -0.00119985    0.00320823
     atom   49 type  3   force =    -0.01532860   -0.00008358    0.00275986
     atom   50 type  4   force =     0.00140755    0.00011243    0.00114040
     atom   51 type  5   force =     0.00093683    0.00027480   -0.00078163
     atom   52 type  5   force =    -0.00034258    0.00077748   -0.00064999
     atom   53 type  5   force =    -0.00026125   -0.00168165    0.00051840
     atom   54 type  5   force =     0.00080781    0.00058444   -0.00015200
     atom   55 type  5   force =     0.00786523    0.00071492   -0.00661597

     Total force =     0.367836     Total SCF correction =     0.000501
  @ DRIVER MODE: Message from server: STATUS
  @ DRIVER MODE: Message from server: GETFORCE
  @ DRIVER MODE: Returning v,forces,stress,ensemble

     Writing output data file ./calc.save/
  @ DRIVER MODE: Message from server: EXIT
  @ DRIVE MODE: Exiting

     General routines

     Parallel routines

   This run was terminated on:   0:40:55   9Sep2021

   JOB DONE.