     Program PWSCF v.6.7GPU starts on  3Aug2021 at  1:16: 5

     R & G space division:  proc/nbgrp/npool/nimage =      16
     Reading input from /storage/home/hcoda1/3/ntian30/research/carbon/02Aug_vib_paired/ads_slab/CH3NNHHH_a/out_0048/pw.inp
Warning: card &CELL ignored
Warning: card   CELL_DYNAMICS='IPI', ignored
Warning: card / ignored

     Current dimensions of program PWSCF are:
     Max number of different atomic species (ntypx) = 10
     Max number of k-points (npk) =  40000
     Max angular momentum in pseudopotentials (lmaxx) =  3
     Presently no symmetry can be used with electric field

     Message from routine cell_base_init:
     DEPRECATED: use true lattice parameter, not A to a.u. conversion factor

     IMPORTANT: XC functional enforced from input :
     Exchange-correlation= BEEF-VDW
                           (   1   4  43  14   2   0   0)
     Any further DFT definition will be discarded
     Please, verify this is what you really want

  @ DRIVER MODE: Connecting to
 qe_1139763_2482545.sched-torque.pace.gatech.edu68ponx_z_scratch
  using UNIX socket
  @ DRIVER MODE: Message from server: STATUS
  @ DRIVER MODE: Message from server: INIT
  @ DRIVER MODE: Receiving replica           0          -1
  @ DRIVER MODE: Receiving encoded integer          25
  @ DRIVER MODE:  SCF:  T  FORCE:  T  STRESS:  F  VC:  F  ENSEMBLE:  F
  @ DRIVER MODE:  SCF:  T  FORCE:  T  STRESS:  F  VC:  F  ENSEMBLE:  F

     Using Slab Decomposition

     bravais-lattice index     =            0
     lattice parameter (alat)  =       1.8897  a.u.
     unit-cell volume          =    6658.9804 (a.u.)^3
     number of atoms/cell      =           56
     number of atomic types    =            5
     number of electrons       =       398.00
     number of Kohn-Sham states=          209
     kinetic-energy cutoff     =      29.3995  Ry
     charge density cutoff     =     293.9946  Ry
     scf convergence threshold =      7.3E-08
     mixing beta               =       0.0500
     number of iterations used =            8  plain     mixing
     Exchange-correlation= BEEF-VDW
                           (   1   4  43  14   2   0   0)

     celldm(1)=   1.889726  celldm(2)=   0.000000  celldm(3)=   0.000000
     celldm(4)=   0.000000  celldm(5)=   0.000000  celldm(6)=   0.000000

     crystal axes: (cart. coord. in units of alat)
               a(1) = (   6.579727   0.000000   0.000000 )
               a(2) = (  -0.000775   5.961596   0.000000 )
               a(3) = (   0.000000   0.000000  25.155947 )

     reciprocal axes: (cart. coord. in units 2 pi/alat)
               b(1) = (  0.151982  0.000020  0.000000 )
               b(2) = (  0.000000  0.167740  0.000000 )
               b(3) = (  0.000000  0.000000  0.039752 )

     PseudoPot. # 1 for Ti read from file:
     /storage/coda1/p-amedford6/0/shared/rich_project_chbe-medford/medford-share/data/pseudos_module/espresso/nninc/pbe/van/Ti.UPF
     MD5 check sum: 8e4df49b7f0d34bbd5052bf3f5ea0213
     Pseudo is Ultrasoft, Zval = 12.0
     Generated by new atomic code, or converted to UPF format
     Using radial grid of  851 points,  6 beta functions with:
                l(1) =   0
                l(2) =   0
                l(3) =   1
                l(4) =   1
                l(5) =   2
                l(6) =   2
     Q(r) pseudized with  8 coefficients,  rinner =    1.000   1.000   1.000
                                                       1.000   1.000

     PseudoPot. # 2 for O  read from file:
     /storage/coda1/p-amedford6/0/shared/rich_project_chbe-medford/medford-share/data/pseudos_module/espresso/nninc/pbe/van/O.UPF
     MD5 check sum: 78c19812648e8988a0fe644b0f25305e
     Pseudo is Ultrasoft, Zval =  6.0
     Generated by new atomic code, or converted to UPF format
     Using radial grid of  737 points,  4 beta functions with:
                l(1) =   0
                l(2) =   0
                l(3) =   1
                l(4) =   1
     Q(r) pseudized with  8 coefficients,  rinner =    0.800   0.800   0.800

     PseudoPot. # 3 for N  read from file:
     /storage/coda1/p-amedford6/0/shared/rich_project_chbe-medford/medford-share/data/pseudos_module/espresso/nninc/pbe/van/N.UPF
     MD5 check sum: 90d10febe142ad51ac9d5be1deb811c4
     Pseudo is Ultrasoft, Zval =  5.0
     Generated by new atomic code, or converted to UPF format
     Using radial grid of  729 points,  4 beta functions with:
                l(1) =   0
                l(2) =   0
                l(3) =   1
                l(4) =   1
     Q(r) pseudized with  8 coefficients,  rinner =    0.800   0.800   0.800

     PseudoPot. # 4 for C  read from file:
     /storage/coda1/p-amedford6/0/shared/rich_project_chbe-medford/medford-share/data/pseudos_module/espresso/nninc/pbe/van/C.UPF
     MD5 check sum: 1a69bf6b8db32088f5b2163dbdb77a27
     Pseudo is Ultrasoft, Zval =  4.0
     Generated by new atomic code, or converted to UPF format
     Using radial grid of  721 points,  4 beta functions with:
                l(1) =   0
                l(2) =   0
                l(3) =   1
                l(4) =   1
     Q(r) pseudized with  8 coefficients,  rinner =    0.800   0.800   0.800

     PseudoPot. # 5 for H  read from file:
     /storage/coda1/p-amedford6/0/shared/rich_project_chbe-medford/medford-share/data/pseudos_module/espresso/nninc/pbe/van/H.UPF
     MD5 check sum: b5ee9d7bfd3a09ee7748110bda690ff7
     Pseudo is Ultrasoft, Zval =  1.0
     Generated by new atomic code, or converted to UPF format
     Using radial grid of  615 points,  1 beta functions with:
                l(1) =   0
     Q(r) pseudized with  8 coefficients,  rinner =    0.800

     atomic species   valence    mass     pseudopotential
        Ti1           12.00    47.86700     Ti( 1.00)
        O1             6.00    15.99900     O ( 1.00)
        N1             5.00    14.00700     N ( 1.00)
        C1             4.00    12.01100     C ( 1.00)
        H1             1.00     1.00800     H ( 1.00)

     No symmetry found

   Cartesian axes

     site n.     atom                  positions (alat units)
         1           Ti1 tau(   1) = (   0.0004258   2.9801865   6.0000000  )
         2           Ti1 tau(   2) = (   3.2906075   1.4906267   6.0002472  )
         3           O1  tau(   3) = (   0.0006271   0.0005054   7.9858123  )
         4           O1  tau(   4) = (   3.2906025   0.0005020   7.3038282  )
         5           O1  tau(   5) = (   4.5942328   1.4918067   9.2879030  )
         6           O1  tau(   6) = (   1.9868534   1.4903216   9.2879459  )
         7           Ti1 tau(   7) = (   3.2907910   2.8959150   9.1758416  )
         8           Ti1 tau(   8) = (   0.0015273   1.4827037   9.2680791  )
         9           O1  tau(   9) = (   3.2969863   5.9453513  11.3493076  )
        10           O1  tau(  10) = (   0.0116148   5.9584955  10.6183126  )
        11           O1  tau(  11) = (   1.3059050   1.4736943  12.6642453  )
        12           O1  tau(  12) = (   5.3003793   1.4775083  12.6459419  )
        13           Ti1 tau(  13) = (   0.0167275   2.9625105  12.5508078  )
        14           Ti1 tau(  14) = (   3.3131340   1.4712512  12.4909780  )
        15           O1  tau(  15) = (   6.5517612   5.9325698  14.7566896  )
        16           O1  tau(  16) = (   3.3302114   5.9429442  13.9823395  )
        17           O1  tau(  17) = (   4.5243935   1.5056208  16.2316672  )
        18           O1  tau(  18) = (   2.0170937   1.4633510  16.1378485  )
        19           Ti1 tau(  19) = (   3.2500237   2.9242626  15.6920970  )
        20           Ti1 tau(  20) = (   6.5441017   1.2779805  16.1516014  )
        21           O1  tau(  21) = (   3.2904802   0.0005063   4.7018136  )
        22           O1  tau(  22) = (   6.5540411   5.9581837  17.3465722  )
        23           O1  tau(  23) = (   1.3043587   1.4918075   6.0039043  )
        24           O1  tau(  24) = (   5.2767064   1.4903225   6.0039473  )
        25           Ti1 tau(  25) = (   0.0000382   5.9609847   6.0000000  )
        26           Ti1 tau(  26) = (   3.2902200   4.4714249   6.0002472  )
        27           O1  tau(  27) = (   0.0002396   2.9813036   7.9858123  )
        28           O1  tau(  28) = (   3.2902150   2.9813002   7.3038282  )
        29           O1  tau(  29) = (   4.5938453   4.4726049   9.2879030  )
        30           O1  tau(  30) = (   1.9864658   4.4711199   9.2879459  )
        31           Ti1 tau(  31) = (   3.2891106   5.8743827   9.1763621  )
        32           Ti1 tau(  32) = (   0.0006254   4.4649316   9.2693709  )
        33           O1  tau(  33) = (   3.2962403   2.9651072  11.3429128  )
        34           O1  tau(  34) = (   0.0092240   2.9805883  10.6323155  )
        35           O1  tau(  35) = (   1.3076126   4.4641214  12.6643835  )
        36           O1  tau(  36) = (   5.2981430   4.4591552  12.6429889  )
        37           Ti1 tau(  37) = (   0.0194730   5.9489450  12.5196332  )
        38           Ti1 tau(  38) = (   3.3150505   4.4522436  12.4946186  )
        39           O1  tau(  39) = (   6.5702761   2.9869041  14.8038460  )
        40           O1  tau(  40) = (   3.3119818   2.9576719  13.9204832  )
        41           O1  tau(  41) = (   4.5223198   4.3950437  16.2490866  )
        42           O1  tau(  42) = (   2.0356696   4.4339808  16.1311045  )
        43           Ti1 tau(  43) = (   3.3057863   5.9493229  15.7677403  )
        44           Ti1 tau(  44) = (   0.0958844   4.4293496  15.8701971  )
        45           O1  tau(  45) = (   3.2900926   2.9813045   4.7018136  )
        46           O1  tau(  46) = (   1.3039711   4.4726057   6.0039043  )
        47           O1  tau(  47) = (   5.2763189   4.4711207   6.0039473  )
        48           N1  tau(  48) = (   0.0620580   3.0375546  17.6897758  )
        49           C1  tau(  49) = (   1.1116374   2.9693208  18.6984743  )
        50           H1  tau(  50) = (   1.2951007   3.9532040  19.1583453  )
        51           H1  tau(  51) = (   0.8627774   2.2426413  19.4871689  )
        52           H1  tau(  52) = (   2.0263963   2.6228967  18.2308865  )
        53           N1  tau(  53) = (   5.4279256   3.3744730  18.4033390  )
        54           H1  tau(  54) = (   5.6103604   4.1199394  19.0852601  )
        55           H1  tau(  55) = (   4.7934260   3.8076565  17.6495878  )
        56           H1  tau(  56) = (   5.0090149   2.5598412  18.8678436  )

     number of k points=    10  Fermi-Dirac smearing, width (Ry)=  0.0073
                       cart. coord. in units 2pi/alat
        k(    1) = (   0.0000000   0.0000000   0.0000000), wk =   0.1250000
        k(    2) = (   0.0000000   0.0419351   0.0000000), wk =   0.2500000
        k(    3) = (   0.0000000  -0.0838702   0.0000000), wk =   0.1250000
        k(    4) = (   0.0379955   0.0000049   0.0000000), wk =   0.2500000
        k(    5) = (   0.0379955   0.0419400   0.0000000), wk =   0.2500000
        k(    6) = (   0.0379955  -0.0838652   0.0000000), wk =   0.2500000
        k(    7) = (   0.0379955  -0.0419301   0.0000000), wk =   0.2500000
        k(    8) = (  -0.0759910  -0.0000099   0.0000000), wk =   0.1250000
        k(    9) = (  -0.0759910   0.0419252   0.0000000), wk =   0.2500000
        k(   10) = (  -0.0759910  -0.0838800   0.0000000), wk =   0.1250000

     Initial potential from superposition of free atoms

     starting charge  381.99914, renormalised to  398.00000

     negative rho (up, down):  1.617E-02 0.000E+00

     %%%%%%%%%%%%%%%%%%%%%%%%%%%%%%%%%%%%%%%%%%%%%%%%%%%%%%%%%%%%%%%%%%%%%%%%
     %                                                                      %
     % You are using vdW-DF, which was implemented by the Thonhauser group. %
     % Please cite the following two papers that made this development      %
     % possible and the two reviews that describe the various versions:     %
     %                                                                      %
     %   T. Thonhauser et al., PRL 115, 136402 (2015).                      %
     %   T. Thonhauser et al., PRB 76, 125112 (2007).                       %
     %   K. Berland et al., Rep. Prog. Phys. 78, 066501 (2015).             %
     %   D.C. Langreth et al., J. Phys.: Condens. Matter 21, 084203 (2009). %
     %                                                                      %
     %                                                                      %
     % If you are calculating the stress with vdW-DF, please also cite:     %
     %                                                                      %
     %   R. Sabatini et al., J. Phys.: Condens. Matter 24, 424209 (2012).   %
     %                                                                      %
     %%%%%%%%%%%%%%%%%%%%%%%%%%%%%%%%%%%%%%%%%%%%%%%%%%%%%%%%%%%%%%%%%%%%%%%%

     Adding external electric field

     Computed dipole along edir(3) :
        Dipole              -10.5737 Ry au,        -26.8756 Debye
        Dipole field         -0.0200 Ry au,

        Potential amp.        1.8497 Ry
        Total length         46.3494 bohr

     Starting wfcs are  302 atomic wfcs
  @ DRIVER MODE: Message from server: STATUS
  @ DRIVER MODE: Message from server: POSDATA
  @ DRIVER MODE: Reading and sharing cell
  @ DRIVER MODE: Reading and sharing positions
  @ DRIVER MODE: Received positions

     Self-consistent Calculation

     iteration #  1     ecut=    29.40 Ry     beta= 0.05
     Davidson diagonalization with overlap
     c_bands:  3 eigenvalues not converged
     c_bands:  3 eigenvalues not converged
     c_bands:  1 eigenvalues not converged
     c_bands:  5 eigenvalues not converged
     c_bands:  5 eigenvalues not converged
     c_bands:  5 eigenvalues not converged
     c_bands:  1 eigenvalues not converged
     c_bands:  4 eigenvalues not converged
     c_bands:  3 eigenvalues not converged
     ethr =  1.00E-05,  avg # of iterations = 20.0

[...]

     total energy              =   -2442.73201366 Ry
     estimated scf accuracy    <    5591.67673275 Ry

     iteration #  2     ecut=    29.40 Ry     beta= 0.05
     Davidson diagonalization with overlap
     ethr =  1.00E-02,  avg # of iterations = 24.1

[...]

     iteration # 65     ecut=    29.40 Ry     beta= 0.05
     Davidson diagonalization with overlap
     c_bands:  1 eigenvalues not converged
     c_bands:  1 eigenvalues not converged
     ethr =  3.21E-11,  avg # of iterations = 14.0

[...]

     total energy              =   -2942.82505119 Ry
     estimated scf accuracy    <       0.00000014 Ry

     iteration # 66     ecut=    29.40 Ry     beta= 0.05
     Davidson diagonalization with overlap
     ethr =  3.21E-11,  avg # of iterations =  8.4

     negative rho (up, down):  1.396E-02 0.000E+00

     Adding external electric field

     Computed dipole along edir(3) :
        Dipole                1.6007 Ry au,          4.0685 Debye
        Dipole field          0.0030 Ry au,

        Potential amp.       -0.2800 Ry
        Total length         46.3494 bohr

     End of self-consistent calculation

          k = 0.0000 0.0000 0.0000 ( 18029 PWs)   bands (ev):

   -55.1446 -55.1079 -55.1060 -55.0718 -55.0270 -55.0118 -54.9888 -54.9460
   -54.9335 -54.9251 -54.9109 -54.9006 -54.8648 -54.7941 -54.1181 -54.0840
   -31.7243 -31.5958 -31.5132 -31.4812 -31.4368 -31.4359 -31.4334 -31.4032
   -31.3994 -31.3959 -31.3688 -31.3542 -31.3509 -31.3221 -31.3043 -31.2792
   -31.2626 -31.2587 -31.2484 -31.2430 -31.2173 -31.2111 -31.2041 -31.1775
   -31.1629 -31.1561 -31.1491 -31.1417 -31.1414 -31.1302 -31.1281 -31.1216
   -31.1049 -31.0962 -31.0899 -31.0640 -31.0613 -31.0489 -31.0423 -31.0367
   -31.0257 -30.9835 -30.5266 -30.4347 -30.4125 -30.3433 -30.2566 -30.1454
   -18.9657 -16.0073 -15.7500 -15.6170 -15.3835 -15.3318 -15.2749 -15.0664
   -15.0572 -14.9925 -14.9790 -14.9308 -14.9116 -14.8440 -14.7594 -14.7372
   -14.6713 -14.6697 -14.6394 -14.6284 -14.6277 -14.5651 -14.5551 -14.5259
   -14.5128 -14.4875 -14.3691 -14.2850 -14.2266 -13.9746 -13.6175 -12.6209
   -12.5038  -9.7557  -7.7460  -7.2507  -5.4712  -3.8198  -3.3456  -3.2875
    -3.1682  -3.1421  -3.0652  -3.0360  -2.8509  -2.8295  -2.4883  -2.4516
    -2.4022  -2.3836  -2.3627  -2.3452  -2.1757  -2.1504  -2.0784  -2.0443
    -2.0250  -1.9865  -1.9697  -1.9599  -1.9259  -1.9201  -1.9115  -1.7042
    -1.6474  -1.5525  -1.5301  -1.5044  -1.4712  -1.4342  -1.4267  -1.4236
    -1.4177  -1.4036  -1.3897  -1.3112  -1.2528  -1.1719  -1.1617  -1.1268
    -1.0231  -0.9749  -0.7737  -0.7606  -0.7157  -0.6739  -0.6111  -0.5894
    -0.5235  -0.4926  -0.4721  -0.3510  -0.3222  -0.2821  -0.2531  -0.1875
    -0.1556  -0.1119  -0.0269   0.0451   0.0789   0.0971   0.1593   0.2893
     0.2988   0.3278   0.3886   0.4518   0.4940   0.5131   0.5318   0.5683
     0.6178   0.7432   0.7886   0.8077   0.8121   0.8460   0.8691   0.9206
     0.9462   1.0048   1.0103   1.1300   1.1989   1.4261   1.4602   1.4844
     1.8166   1.8404   1.9043   2.0903   2.4783   2.5256   3.9599   4.0207
     4.0781   4.0942   4.1130   4.2017   4.2101   4.4230   4.4501   4.4538
     4.4568

[...]

          k = 0.0380-0.0419 0.0000 ( 17876 PWs)   bands (ev):

[...]

          k =-0.0760-0.0000 0.0000 ( 17886 PWs)   bands (ev):

[...]

          k =-0.0760-0.0839 0.0000 ( 17948 PWs)   bands (ev):

   -55.1291 -55.1232 -55.0889 -55.0888 -55.0163 -55.0082 -54.9994 -54.9299
   -54.9284 -54.9259 -54.9183 -54.9166 -54.8610 -54.7979 -54.1011 -54.1009
   -31.5281 -31.5251 -31.4480 -31.4262 -31.4109 -31.4109 -31.3814 -31.3813
   -31.3554 -31.3497 -31.3468 -31.3463 -31.3117 -31.2772 -31.2709 -31.2664
   -31.2651 -31.2611 -31.2592 -31.2528 -31.2215 -31.2181 -31.2155 -31.2127
   -31.2082 -31.2081 -31.1942 -31.1921 -31.1646 -31.1600 -31.1445 -31.1405
   -31.1379 -31.1375 -31.1358 -31.1272 -31.1026 -31.0994 -31.0963 -31.0735
   -31.0485 -31.0310 -30.4252 -30.4251 -30.3393 -30.3391 -30.2999 -30.2999
   -18.9610 -15.5132 -15.4035 -15.2890 -15.2300 -15.1894 -15.1340 -15.1203
   -15.1102 -15.0637 -15.0329 -14.9654 -14.9017 -14.8492 -14.8482 -14.8129
   -14.7348 -14.7209 -14.7141 -14.7034 -14.6471 -14.6404 -14.6088 -14.5881
   -14.5850 -14.5550 -14.4814 -14.4790 -14.3909 -14.1829 -13.6540 -12.6055
   -12.6053  -9.7249  -7.7432  -7.1966  -5.4755  -3.8414  -3.4403  -2.7638
    -2.6526  -2.4423  -2.4160  -2.3564  -2.3369  -2.2527  -2.1888  -2.1683
    -2.1446  -2.1109  -2.1079  -2.0830  -2.0622  -2.0089  -1.9796  -1.9690
    -1.9631  -1.9480  -1.9354  -1.9148  -1.8587  -1.8485  -1.8413  -1.7988
    -1.7880  -1.7561  -1.7498  -1.7112  -1.6940  -1.6171  -1.5255  -1.5000
    -1.4384  -1.3401  -1.3270  -1.3214  -1.2265  -1.2193  -1.1902  -1.1593
    -1.1035  -1.0029  -0.9487  -0.8742  -0.8710  -0.8398  -0.7519  -0.6899
    -0.6562  -0.6446  -0.6069  -0.5499  -0.5260  -0.4932  -0.4097  -0.3687
    -0.3416  -0.3080  -0.2125  -0.1511  -0.1278  -0.0975  -0.0940  -0.0040
     0.0285   0.0654   0.0859   0.1241   0.1507   0.2199   0.2384   0.3488
     0.4177   0.4504   0.5699   0.5918   0.6559   0.7880   0.8591   0.8999
     0.9539   1.0106   1.0376   1.1677   1.1748   1.1969   1.2936   1.3338
     1.3407   1.3540   2.2631   2.2641   2.3456   2.3458   4.0924   4.1794
     4.2221   4.2596   4.3673   4.4765   4.4951   4.5378   4.5384   4.6142
     4.6206

     the Fermi energy is     4.0123 ev

!    total energy              =   -2942.82507646 Ry
     estimated scf accuracy    <       0.00000003 Ry
     smearing contrib. (-TS)   =      -0.03689081 Ry
     internal energy E=F+TS    =   -2942.78818565 Ry

     The total energy is F=E-TS. E is the sum of the following terms:
     one-electron contribution =  -23971.56009954 Ry
     hartree contribution      =   12081.24928598 Ry
     xc contribution           =    -487.77241447 Ry
     ewald contribution        =    9435.29020724 Ry
     electric field correction =       0.00483514 Ry

     convergence has been achieved in  66 iterations

     Forces acting on atoms (cartesian axes, Ry/au):

     atom    1 type  1   force =     0.00014495   -0.00023704    0.09427150
     atom    2 type  1   force =    -0.00009521   -0.00033625   -0.17739287
     atom    3 type  2   force =     0.00005735   -0.00016143   -0.02135068
     atom    4 type  2   force =    -0.00001538   -0.00172532    0.05656349
     atom    5 type  2   force =    -0.01055080   -0.00127229    0.00624322
     atom    6 type  2   force =     0.01221741   -0.00073660    0.00571393
     atom    7 type  1   force =    -0.00034091    0.00173137   -0.01620639
     atom    8 type  1   force =    -0.00010725    0.00438858    0.00560069
     atom    9 type  2   force =     0.00000642   -0.00004339   -0.00005665
     atom   10 type  2   force =    -0.00074420   -0.00021418   -0.00046395
     atom   11 type  2   force =     0.00033351    0.00012405   -0.00021496
     atom   12 type  2   force =    -0.00051482    0.00000334   -0.00014394
     atom   13 type  1   force =     0.00002185   -0.00032867    0.00019883
     atom   14 type  1   force =     0.00056784    0.00010632   -0.00024347
     atom   15 type  2   force =    -0.00034334    0.00029686   -0.00020064
     atom   16 type  2   force =    -0.00036503    0.00023731   -0.00013627
     atom   17 type  2   force =    -0.00029281    0.00003844    0.00034222
     atom   18 type  2   force =     0.00012701    0.00035038   -0.00011853
     atom   19 type  1   force =     0.00068285    0.00066943    0.00039203
     atom   20 type  1   force =     0.00006390    0.00037236   -0.00034740
     atom   21 type  2   force =     0.00003577    0.00003988    0.10360201
     atom   22 type  2   force =    -0.00002148   -0.00071330   -0.00048898
     atom   23 type  2   force =    -0.07081726   -0.00010202   -0.02718759
     atom   24 type  2   force =     0.07068284    0.00033896   -0.02722036
     atom   25 type  1   force =    -0.00009014   -0.00020907    0.09373147
     atom   26 type  1   force =    -0.00013621   -0.00031797   -0.17729592
     atom   27 type  2   force =     0.00008853   -0.00035812   -0.02046205
     atom   28 type  2   force =     0.00003284   -0.00144004    0.05587749
     atom   29 type  2   force =    -0.01091723   -0.00073203    0.00609173
     atom   30 type  2   force =     0.01246876   -0.00028923    0.00557019
     atom   31 type  1   force =    -0.00015977    0.00464997   -0.01717843
     atom   32 type  1   force =    -0.00003088   -0.00483083    0.00560374
     atom   33 type  2   force =     0.00005802    0.00012520    0.00026920
     atom   34 type  2   force =     0.00005733   -0.00085712   -0.00298237
     atom   35 type  2   force =     0.00022549    0.00003075    0.00005776
     atom   36 type  2   force =    -0.00041762    0.00015278   -0.00009306
     atom   37 type  1   force =    -0.00013795   -0.00012014   -0.00008297
     atom   38 type  1   force =     0.00046366   -0.00027849    0.00045622
     atom   39 type  2   force =    -0.00040458    0.00009284    0.00068053
     atom   40 type  2   force =    -0.00013765    0.00016149   -0.00029968
     atom   41 type  2   force =    -0.00062952    0.00094673   -0.00090658
     atom   42 type  2   force =    -0.00008484    0.00022491   -0.00013924
     atom   43 type  1   force =     0.00001767   -0.00002230    0.00018713
     atom   44 type  1   force =    -0.00076664    0.00031211   -0.00004623
     atom   45 type  2   force =     0.00002661    0.00000663    0.10361709
     atom   46 type  2   force =    -0.07081632   -0.00004629   -0.02719161
     atom   47 type  2   force =     0.07068420    0.00037673   -0.02719772
     atom   48 type  3   force =    -0.00006643   -0.00064765   -0.00052706
     atom   49 type  4   force =    -0.00043610    0.00022217   -0.00023558
     atom   50 type  5   force =     0.00004954   -0.00002609    0.00005352
     atom   51 type  5   force =    -0.00020387   -0.00026925    0.00000702
     atom   52 type  5   force =    -0.00041568   -0.00003170    0.00009796
     atom   53 type  3   force =     0.00297131   -0.00037290    0.00537466
     atom   54 type  5   force =     0.00053124   -0.00006007    0.00042502
     atom   55 type  5   force =    -0.00216792    0.00073872   -0.00463120
     atom   56 type  5   force =    -0.00038907    0.00004149    0.00001371

     Total force =     0.365622     Total SCF correction =     0.000275
  @ DRIVER MODE: Message from server: STATUS
  @ DRIVER MODE: Message from server: GETFORCE
  @ DRIVER MODE: Returning v,forces,stress,ensemble

     Writing output data file ./calc.save/
  @ DRIVER MODE: Message from server: EXIT
  @ DRIVE MODE: Exiting

     General routines

     Parallel routines

   This run was terminated on:   1:31:42   3Aug2021

   JOB DONE.