     Program PWSCF v.6.7GPU starts on  9Sep2021 at  1: 0:25

     R & G space division:  proc/nbgrp/npool/nimage =      10
     Reading input from /storage/home/hcoda1/3/ntian30/research/carbon/CxH_vib/CH_calc/ads_slab/CHO_a/out_0011/pw.inp
Warning: card &CELL ignored
Warning: card   CELL_DYNAMICS='IPI', ignored
Warning: card / ignored

     Current dimensions of program PWSCF are:
     Max number of different atomic species (ntypx) = 10
     Max number of k-points (npk) =  40000
     Max angular momentum in pseudopotentials (lmaxx) =  3
     Presently no symmetry can be used with electric field

     Message from routine cell_base_init:
     DEPRECATED: use true lattice parameter, not A to a.u. conversion factor

     IMPORTANT: XC functional enforced from input :
     Exchange-correlation= BEEF-VDW
                           (   1   4  43  14   2   0   0)
     Any further DFT definition will be discarded
     Please, verify this is what you really want

  @ DRIVER MODE: Connecting to
 qe_1139763_2767379.sched-torque.pace.gatech.edu_8fsw4te_scratch
  using UNIX socket
  @ DRIVER MODE: Message from server: STATUS
  @ DRIVER MODE: Message from server: INIT
  @ DRIVER MODE: Receiving replica           0          -1
  @ DRIVER MODE: Receiving encoded integer          25
  @ DRIVER MODE:  SCF:  T  FORCE:  T  STRESS:  F  VC:  F  ENSEMBLE:  F
  @ DRIVER MODE:  SCF:  T  FORCE:  T  STRESS:  F  VC:  F  ENSEMBLE:  F

     Using Slab Decomposition

     bravais-lattice index     =            0
     lattice parameter (alat)  =       1.8897  a.u.
     unit-cell volume          =    6658.9804 (a.u.)^3
     number of atoms/cell      =           50
     number of atomic types    =            4
     number of electrons       =       389.00
     number of Kohn-Sham states=          204
     kinetic-energy cutoff     =      29.3995  Ry
     charge density cutoff     =     293.9946  Ry
     scf convergence threshold =      7.3E-08
     mixing beta               =       0.0500
     number of iterations used =            8  plain     mixing
     Exchange-correlation= BEEF-VDW
                           (   1   4  43  14   2   0   0)

     celldm(1)=   1.889726  celldm(2)=   0.000000  celldm(3)=   0.000000
     celldm(4)=   0.000000  celldm(5)=   0.000000  celldm(6)=   0.000000

     crystal axes: (cart. coord. in units of alat)
               a(1) = (   6.579727   0.000000   0.000000 )
               a(2) = (  -0.000775   5.961596   0.000000 )
               a(3) = (   0.000000   0.000000  25.155947 )

     reciprocal axes: (cart. coord. in units 2 pi/alat)
               b(1) = (  0.151982  0.000020  0.000000 )
               b(2) = (  0.000000  0.167740  0.000000 )
               b(3) = (  0.000000  0.000000  0.039752 )

     PseudoPot. # 1 for O  read from file:
     /storage/coda1/p-amedford6/0/shared/rich_project_chbe-medford/medford-share/data/pseudos_module/espresso/nninc/pbe/van/O.UPF
     MD5 check sum: 78c19812648e8988a0fe644b0f25305e
     Pseudo is Ultrasoft, Zval =  6.0
     Generated by new atomic code, or converted to UPF format
     Using radial grid of  737 points,  4 beta functions with:
                l(1) =   0
                l(2) =   0
                l(3) =   1
                l(4) =   1
     Q(r) pseudized with  8 coefficients,  rinner =    0.800   0.800   0.800

     PseudoPot. # 2 for Ti read from file:
     /storage/coda1/p-amedford6/0/shared/rich_project_chbe-medford/medford-share/data/pseudos_module/espresso/nninc/pbe/van/Ti.UPF
     MD5 check sum: 8e4df49b7f0d34bbd5052bf3f5ea0213
     Pseudo is Ultrasoft, Zval = 12.0
     Generated by new atomic code, or converted to UPF format
     Using radial grid of  851 points,  6 beta functions with:
                l(1) =   0
                l(2) =   0
                l(3) =   1
                l(4) =   1
                l(5) =   2
                l(6) =   2
     Q(r) pseudized with  8 coefficients,  rinner =    1.000   1.000   1.000
                                                       1.000   1.000

     PseudoPot. # 3 for C  read from file:
     /storage/coda1/p-amedford6/0/shared/rich_project_chbe-medford/medford-share/data/pseudos_module/espresso/nninc/pbe/van/C.UPF
     MD5 check sum: 1a69bf6b8db32088f5b2163dbdb77a27
     Pseudo is Ultrasoft, Zval =  4.0
     Generated by new atomic code, or converted to UPF format
     Using radial grid of  721 points,  4 beta functions with:
                l(1) =   0
                l(2) =   0
                l(3) =   1
                l(4) =   1
     Q(r) pseudized with  8 coefficients,  rinner =    0.800   0.800   0.800

     PseudoPot. # 4 for H  read from file:
     /storage/coda1/p-amedford6/0/shared/rich_project_chbe-medford/medford-share/data/pseudos_module/espresso/nninc/pbe/van/H.UPF
     MD5 check sum: b5ee9d7bfd3a09ee7748110bda690ff7
     Pseudo is Ultrasoft, Zval =  1.0
     Generated by new atomic code, or converted to UPF format
     Using radial grid of  615 points,  1 beta functions with:
                l(1) =   0
     Q(r) pseudized with  8 coefficients,  rinner =    0.800

     atomic species   valence    mass     pseudopotential
        O1             6.00    15.99900     O ( 1.00)
        Ti1           12.00    47.86700     Ti( 1.00)
        C1             4.00    12.01100     C ( 1.00)
        H1             1.00     1.00800     H ( 1.00)

     No symmetry found

   Cartesian axes

     site n.     atom                  positions (alat units)
         1           O1  tau(   1) = (   3.2904802   0.0005063   4.7018136  )
         2           O1  tau(   2) = (   3.2900926   2.9813045   4.7018136  )
         3           Ti1 tau(   3) = (   0.0004258   2.9801865   6.0000000  )
         4           Ti1 tau(   4) = (   0.0000382   5.9609847   6.0000000  )
         5           Ti1 tau(   5) = (   3.2906075   1.4906267   6.0002472  )
         6           Ti1 tau(   6) = (   3.2902200   4.4714249   6.0002472  )
         7           O1  tau(   7) = (   1.3043587   1.4918075   6.0039043  )
         8           O1  tau(   8) = (   1.3039711   4.4726057   6.0039043  )
         9           O1  tau(   9) = (   5.2767064   1.4903225   6.0039473  )
        10           O1  tau(  10) = (   5.2763189   4.4711207   6.0039473  )
        11           O1  tau(  11) = (   3.2906025   0.0005020   7.3038282  )
        12           O1  tau(  12) = (   3.2902150   2.9813002   7.3038282  )
        13           O1  tau(  13) = (   0.0006271   0.0005054   7.9858123  )
        14           O1  tau(  14) = (   0.0002396   2.9813036   7.9858123  )
        15           Ti1 tau(  15) = (   3.2969808   0.0564913   9.1534998  )
        16           Ti1 tau(  16) = (   3.3141337   3.0327768   9.1571505  )
        17           Ti1 tau(  17) = (   0.0233175   4.5369896   9.2585411  )
        18           Ti1 tau(  18) = (   0.0198836   1.6172415   9.3624336  )
        19           O1  tau(  19) = (   4.5942328   1.4918067   9.2879030  )
        20           O1  tau(  20) = (   4.5938453   4.4726049   9.2879030  )
        21           O1  tau(  21) = (   1.9868534   1.4903216   9.2879459  )
        22           O1  tau(  22) = (   1.9864658   4.4711199   9.2879459  )
        23           O1  tau(  23) = (   0.0063158   0.0123177  10.6034754  )
        24           O1  tau(  24) = (   0.0044132   2.9941235  10.5786081  )
        25           O1  tau(  25) = (   3.2970120   2.9984392  11.3520126  )
        26           O1  tau(  26) = (   3.2962737   0.0176366  11.3543537  )
        27           Ti1 tau(  27) = (   0.0302790   0.0280999  12.4961607  )
        28           Ti1 tau(  28) = (   3.3312859   4.4933669  12.4927350  )
        29           Ti1 tau(  29) = (   3.3314798   1.5140231  12.4973429  )
        30           Ti1 tau(  30) = (   0.0296678   3.0111287  12.7911082  )
        31           O1  tau(  31) = (   1.2935131   4.4896988  12.6418387  )
        32           O1  tau(  32) = (   1.2923886   1.5080263  12.6414434  )
        33           O1  tau(  33) = (   5.2919490   4.4892252  12.6414299  )
        34           O1  tau(  34) = (   5.2935099   1.5067266  12.6404615  )
        35           O1  tau(  35) = (   3.2972132   2.9952276  13.9333167  )
        36           O1  tau(  36) = (   3.2969292   0.0217920  13.9560627  )
        37           O1  tau(  37) = (   0.0109375   0.0110981  14.6876342  )
        38           O1  tau(  38) = (   0.0109565   3.0062585  14.7134293  )
        39           Ti1 tau(  39) = (   3.3068652   2.9980133  15.7272348  )
        40           Ti1 tau(  40) = (   3.3088638   0.0192678  15.7517854  )
        41           Ti1 tau(  41) = (   0.0288418   4.5446802  15.9499200  )
        42           Ti1 tau(  42) = (   0.0223207   1.3431340  16.0223868  )
        43           O1  tau(  43) = (   4.5495857   4.4747881  16.0802101  )
        44           O1  tau(  44) = (   4.5538725   1.5135375  16.1032510  )
        45           O1  tau(  45) = (   2.0418931   1.5171625  16.1093315  )
        46           O1  tau(  46) = (   2.0408760   4.4691196  16.0910022  )
        47           O1  tau(  47) = (   0.0096378   0.0051088  17.2033978  )
        48           O1  tau(  48) = (   6.5496506   3.0476207  17.4767105  )
        49           C1  tau(  49) = (   6.4067813   3.0303407  18.7270298  )
        50           H1  tau(  50) = (   6.4030715   1.9712591  19.1029599  )

     number of k points=    10  Fermi-Dirac smearing, width (Ry)=  0.0073
                       cart. coord. in units 2pi/alat
        k(    1) = (   0.0000000   0.0000000   0.0000000), wk =   0.1250000
        k(    2) = (   0.0000000   0.0419351   0.0000000), wk =   0.2500000
        k(    3) = (   0.0000000  -0.0838702   0.0000000), wk =   0.1250000
        k(    4) = (   0.0379955   0.0000049   0.0000000), wk =   0.2500000
        k(    5) = (   0.0379955   0.0419400   0.0000000), wk =   0.2500000
        k(    6) = (   0.0379955  -0.0838652   0.0000000), wk =   0.2500000
        k(    7) = (   0.0379955  -0.0419301   0.0000000), wk =   0.2500000
        k(    8) = (  -0.0759910  -0.0000099   0.0000000), wk =   0.1250000
        k(    9) = (  -0.0759910   0.0419252   0.0000000), wk =   0.2500000
        k(   10) = (  -0.0759910  -0.0838800   0.0000000), wk =   0.1250000

     Initial potential from superposition of free atoms

     starting charge  372.99920, renormalised to  389.00000

     negative rho (up, down):  1.927E-02 0.000E+00

     %%%%%%%%%%%%%%%%%%%%%%%%%%%%%%%%%%%%%%%%%%%%%%%%%%%%%%%%%%%%%%%%%%%%%%%%
     %                                                                      %
     % You are using vdW-DF, which was implemented by the Thonhauser group. %
     % Please cite the following two papers that made this development      %
     % possible and the two reviews that describe the various versions:     %
     %                                                                      %
     %   T. Thonhauser et al., PRL 115, 136402 (2015).                      %
     %   T. Thonhauser et al., PRB 76, 125112 (2007).                       %
     %   K. Berland et al., Rep. Prog. Phys. 78, 066501 (2015).             %
     %   D.C. Langreth et al., J. Phys.: Condens. Matter 21, 084203 (2009). %
     %                                                                      %
     %                                                                      %
     % If you are calculating the stress with vdW-DF, please also cite:     %
     %                                                                      %
     %   R. Sabatini et al., J. Phys.: Condens. Matter 24, 424209 (2012).   %
     %                                                                      %
     %%%%%%%%%%%%%%%%%%%%%%%%%%%%%%%%%%%%%%%%%%%%%%%%%%%%%%%%%%%%%%%%%%%%%%%%

     Adding external electric field

     Computed dipole along edir(3) :
        Dipole               -4.4780 Ry au,        -11.3820 Debye
        Dipole field         -0.0085 Ry au,

        Potential amp.        0.7834 Ry
        Total length         46.3494 bohr

     Starting wfcs are  293 atomic wfcs
  @ DRIVER MODE: Message from server: STATUS
  @ DRIVER MODE: Message from server: POSDATA
  @ DRIVER MODE: Reading and sharing cell
  @ DRIVER MODE: Reading and sharing positions
  @ DRIVER MODE: Received positions

     Self-consistent Calculation

     iteration #  1     ecut=    29.40 Ry     beta= 0.05
     Davidson diagonalization with overlap
     c_bands:  1 eigenvalues not converged
     c_bands:  5 eigenvalues not converged
     c_bands:  5 eigenvalues not converged
     c_bands:  3 eigenvalues not converged
     c_bands:  3 eigenvalues not converged
     c_bands:  2 eigenvalues not converged
     c_bands:  4 eigenvalues not converged
     c_bands:  3 eigenvalues not converged
     c_bands:  3 eigenvalues not converged
     c_bands:  1 eigenvalues not converged
     ethr =  1.00E-05,  avg # of iterations = 22.0

[...]

     total energy              =   -2878.10793861 Ry
     estimated scf accuracy    <     582.94199212 Ry

     iteration #  2     ecut=    29.40 Ry     beta= 0.05
     Davidson diagonalization with overlap
     ethr =  1.00E-02,  avg # of iterations = 14.1

[...]

     iteration # 54     ecut=    29.40 Ry     beta= 0.05
     Davidson diagonalization with overlap
     ethr =  3.00E-11,  avg # of iterations =  3.9

[...]

     total energy              =   -2928.82024300 Ry
     estimated scf accuracy    <       0.00000024 Ry

     iteration # 56     ecut=    29.40 Ry     beta= 0.05
     Davidson diagonalization with overlap
     c_bands:  1 eigenvalues not converged
     ethr =  2.32E-11,  avg # of iterations = 13.7

     negative rho (up, down):  1.794E-02 0.000E+00

     Adding external electric field

     Computed dipole along edir(3) :
        Dipole                0.1985 Ry au,          0.5046 Debye
        Dipole field          0.0004 Ry au,

        Potential amp.       -0.0347 Ry
        Total length         46.3494 bohr

     End of self-consistent calculation

          k = 0.0000 0.0000 0.0000 ( 18029 PWs)   bands (ev):

   -56.2944 -56.2809 -56.2577 -56.2446 -56.1936 -56.1810 -56.1481 -56.1279
   -56.1161 -56.0791 -56.0654 -56.0317 -55.9882 -55.9624 -55.3212 -55.2871
   -32.8476 -32.7665 -32.6757 -32.6559 -32.6360 -32.6037 -32.5902 -32.5718
   -32.5442 -32.5278 -32.5273 -32.4993 -32.4969 -32.4622 -32.4530 -32.4441
   -32.4268 -32.4156 -32.4154 -32.3883 -32.3682 -32.3596 -32.3576 -32.3478
   -32.3341 -32.3238 -32.3229 -32.3192 -32.3019 -32.2961 -32.2907 -32.2870
   -32.2496 -32.2386 -32.2218 -32.2092 -32.2034 -32.1861 -32.1702 -32.1565
   -32.1521 -32.1500 -31.7314 -31.6334 -31.6111 -31.5480 -31.4619 -31.3507
   -20.0558 -17.0547 -16.7696 -16.6209 -16.4871 -16.4395 -16.3074 -16.1658
   -16.0799 -16.0006 -15.9506 -15.9104 -15.8826 -15.8690 -15.8505 -15.8349
   -15.8272 -15.8168 -15.7463 -15.7430 -15.7090 -15.6925 -15.6896 -15.5926
   -15.5362 -15.4699 -15.4241 -15.3506 -15.3136 -15.2498 -13.8219 -13.7035
    -8.2963  -5.1274  -4.4025  -4.2329  -4.2086  -4.1954  -4.1221  -3.9041
    -3.8516  -3.7066  -3.6031  -3.4840  -3.4566  -3.4462  -3.4173  -3.3641
    -3.2688  -3.1361  -3.1347  -3.1231  -3.1183  -3.1056  -3.0761  -3.0494
    -3.0370  -3.0060  -2.9408  -2.8389  -2.8225  -2.7182  -2.6906  -2.6771
    -2.6186  -2.6042  -2.5729  -2.5567  -2.5412  -2.5197  -2.4764  -2.4582
    -2.3751  -2.2718  -2.1513  -2.0956  -2.0127  -1.9841  -1.8519  -1.7899
    -1.7333  -1.7073  -1.6594  -1.6311  -1.5941  -1.5631  -1.5314  -1.4546
    -1.3360  -1.3346  -1.2347  -1.1614  -1.1310  -1.1099  -1.0462  -1.0315
    -1.0235  -0.9293  -0.7890  -0.7800  -0.7722  -0.6846  -0.6382  -0.6200
    -0.5380  -0.5316  -0.4980  -0.4747  -0.4500  -0.3678  -0.3591  -0.3104
    -0.2953  -0.2674  -0.1550  -0.1053  -0.0937  -0.0515  -0.0086   0.1750
     0.1910   0.3337   0.4092   0.6045   0.7034   0.7580   0.8723   1.2914
     1.3497   2.6402   2.8800   2.9071   2.9378   2.9737   3.0191   3.1290
     3.2367   3.3196   3.3354   3.3678

[...]

          k = 0.0380-0.0419 0.0000 ( 17876 PWs)   bands (ev):

[...]

          k =-0.0760-0.0000 0.0000 ( 17886 PWs)   bands (ev):

[...]

          k =-0.0760-0.0839 0.0000 ( 17948 PWs)   bands (ev):

   -56.2828 -56.2691 -56.2636 -56.2616 -56.1887 -56.1674 -56.1616 -56.1325
   -56.1139 -56.0760 -56.0509 -56.0465 -55.9905 -55.9649 -55.3047 -55.3035
   -32.6516 -32.6481 -32.5922 -32.5903 -32.5767 -32.5749 -32.5730 -32.5544
   -32.5479 -32.5001 -32.4987 -32.4906 -32.4844 -32.4584 -32.4302 -32.4254
   -32.4122 -32.4101 -32.4072 -32.3985 -32.3981 -32.3872 -32.3750 -32.3724
   -32.3714 -32.3666 -32.3605 -32.3411 -32.3320 -32.3193 -32.3042 -32.3040
   -32.3032 -32.2790 -32.2635 -32.2594 -32.2555 -32.2453 -32.2112 -32.2068
   -32.1936 -32.1592 -31.6245 -31.6230 -31.5448 -31.5438 -31.5055 -31.5045
   -20.0485 -16.4822 -16.4515 -16.3479 -16.2250 -16.2125 -16.1811 -16.1400
   -16.0848 -16.0322 -16.0266 -15.9791 -15.9570 -15.9554 -15.9157 -15.8804
   -15.8292 -15.8213 -15.8147 -15.8121 -15.7592 -15.7545 -15.7144 -15.6916
   -15.6809 -15.6421 -15.6402 -15.5615 -15.4877 -15.4558 -13.8059 -13.8035
    -8.2963  -5.0819  -3.7752  -3.7322  -3.7126  -3.6038  -3.4422  -3.4322
    -3.3880  -3.3301  -3.2689  -3.2140  -3.1912  -3.1628  -3.1446  -3.1297
    -3.1202  -3.1100  -3.1001  -3.0451  -3.0395  -3.0085  -2.9852  -2.9616
    -2.9462  -2.9334  -2.9281  -2.8862  -2.8699  -2.8588  -2.8518  -2.8440
    -2.7602  -2.6817  -2.6208  -2.5551  -2.5067  -2.4472  -2.4323  -2.4130
    -2.3761  -2.3604  -2.3438  -2.2111  -2.1782  -2.0418  -2.0308  -2.0104
    -1.9931  -1.9070  -1.8725  -1.7659  -1.7440  -1.7382  -1.6531  -1.6165
    -1.5574  -1.5385  -1.4644  -1.4233  -1.3996  -1.3237  -1.2705  -1.2582
    -1.2099  -1.1892  -1.1024  -1.0613  -1.0561  -1.0472  -0.9825  -0.9536
    -0.8739  -0.8571  -0.8362  -0.7465  -0.6847  -0.6592  -0.4716  -0.3106
    -0.2999  -0.2633  -0.1726  -0.1216  -0.0774  -0.0280  -0.0222   0.0588
     0.1123   0.2058   0.2235   0.2293   0.3040   1.0619   1.0632   1.1544
     1.1653   2.5514   3.0533   3.1000   3.1249   3.1936   3.3205   3.3467
     3.3602   3.3688   3.3819   3.4924

     the Fermi energy is     2.8564 ev

!    total energy              =   -2928.82029551 Ry
     estimated scf accuracy    <       0.00000004 Ry
     smearing contrib. (-TS)   =      -0.02951488 Ry
     internal energy E=F+TS    =   -2928.79078064 Ry

     The total energy is F=E-TS. E is the sum of the following terms:
     one-electron contribution =  -24720.36013472 Ry
     hartree contribution      =   12440.18250681 Ry
     xc contribution           =    -480.35434707 Ry
     ewald contribution        =    9831.74111998 Ry
     electric field correction =       0.00007437 Ry

     convergence has been achieved in  56 iterations

     Forces acting on atoms (cartesian axes, Ry/au):

     atom    1 type  1   force =    -0.00009142    0.00005963    0.10421829
     atom    2 type  1   force =    -0.00008895    0.00006661    0.10430270
     atom    3 type  2   force =    -0.00023140   -0.00191286    0.10278607
     atom    4 type  2   force =    -0.00013410    0.00161272    0.11444994
     atom    5 type  2   force =    -0.00027979    0.00043544   -0.18035306
     atom    6 type  2   force =    -0.00018614   -0.00001686   -0.18073606
     atom    7 type  1   force =    -0.06891902    0.00068476   -0.02917899
     atom    8 type  1   force =    -0.06846915   -0.00125576   -0.02922267
     atom    9 type  1   force =     0.06855563    0.00118826   -0.02924334
     atom   10 type  1   force =     0.06818502   -0.00087753   -0.02930417
     atom   11 type  1   force =     0.00017893    0.00061896    0.04600810
     atom   12 type  1   force =     0.00045134    0.00080775    0.04735466
     atom   13 type  1   force =     0.00022559   -0.00579984   -0.03327158
     atom   14 type  1   force =     0.00032495    0.00434147   -0.02639420
     atom   15 type  2   force =     0.00025226   -0.00054980   -0.00007188
     atom   16 type  2   force =     0.00042002    0.00038489    0.00030113
     atom   17 type  2   force =    -0.00027853   -0.00073293   -0.00079189
     atom   18 type  2   force =    -0.00041296   -0.00095091   -0.00126914
     atom   19 type  1   force =    -0.01837108    0.00018841    0.00433481
     atom   20 type  1   force =    -0.01688452    0.00157047    0.00360278
     atom   21 type  1   force =     0.01896759   -0.00059780    0.00446323
     atom   22 type  1   force =     0.01762943    0.00156414    0.00359552
     atom   23 type  1   force =     0.00002155    0.00014139   -0.00070891
     atom   24 type  1   force =     0.00004836    0.00027886    0.00106288
     atom   25 type  1   force =     0.00000292   -0.00008668   -0.00000487
     atom   26 type  1   force =    -0.00006678   -0.00024760   -0.00053703
     atom   27 type  2   force =    -0.00007726    0.00036443    0.00120518
     atom   28 type  2   force =    -0.00008428   -0.00029574    0.00060897
     atom   29 type  2   force =     0.00004401    0.00017849    0.00033379
     atom   30 type  2   force =    -0.00000810   -0.00033768    0.00086731
     atom   31 type  1   force =    -0.00005085   -0.00045205    0.00009291
     atom   32 type  1   force =    -0.00000059    0.00018372    0.00019171
     atom   33 type  1   force =     0.00020092   -0.00040820   -0.00001373
     atom   34 type  1   force =     0.00008695    0.00012610    0.00009613
     atom   35 type  1   force =    -0.00018476   -0.00013145   -0.00007620
     atom   36 type  1   force =    -0.00018961   -0.00063681    0.00096973
     atom   37 type  1   force =     0.00020324   -0.00064072    0.00147257
     atom   38 type  1   force =    -0.00020163    0.00025425   -0.00026934
     atom   39 type  2   force =    -0.00011800   -0.00023662   -0.00032674
     atom   40 type  2   force =     0.00017055   -0.00043376   -0.00074439
     atom   41 type  2   force =    -0.00008423    0.00142433   -0.00195176
     atom   42 type  2   force =    -0.00001296   -0.00070415   -0.00247719
     atom   43 type  1   force =     0.00120956   -0.00035085    0.00053430
     atom   44 type  1   force =    -0.00001156    0.00024224   -0.00014742
     atom   45 type  1   force =    -0.00046190    0.00027567    0.00003926
     atom   46 type  1   force =    -0.00160080   -0.00013129    0.00058044
     atom   47 type  1   force =    -0.00010996   -0.00032250    0.00084930
     atom   48 type  1   force =     0.00132802    0.00095469   -0.01482894
     atom   49 type  3   force =    -0.00086135   -0.00259194    0.01820519
     atom   50 type  4   force =    -0.00003516    0.00275466   -0.00060339

     Total force =     0.375496     Total SCF correction =     0.000783
  @ DRIVER MODE: Message from server: STATUS
  @ DRIVER MODE: Message from server: GETFORCE
  @ DRIVER MODE: Returning v,forces,stress,ensemble

     Writing output data file ./calc.save/
  @ DRIVER MODE: Message from server: EXIT
  @ DRIVE MODE: Exiting

     General routines

     Parallel routines

   This run was terminated on:   1:14: 5   9Sep2021

   JOB DONE.