     Program PWSCF v.6.7GPU starts on 23Sep2021 at 10:41:33

     R & G space division:  proc/nbgrp/npool/nimage =       8
     Reading input from /storage/home/hcoda1/3/ntian30/research/carbon/CxH_vib/H2O_calc/ads_slab/CH2N2HO_b/out_0000/pw.inp
Warning: card &CELL ignored
Warning: card   CELL_DYNAMICS='IPI', ignored
Warning: card / ignored

     Current dimensions of program PWSCF are:
     Max number of different atomic species (ntypx) = 10
     Max number of k-points (npk) =  40000
     Max angular momentum in pseudopotentials (lmaxx) =  3
     Presently no symmetry can be used with electric field

     Message from routine cell_base_init:
     DEPRECATED: use true lattice parameter, not A to a.u. conversion factor

     IMPORTANT: XC functional enforced from input :
     Exchange-correlation= BEEF-VDW
                           (   1   4  43  14   2   0   0)
     Any further DFT definition will be discarded
     Please, verify this is what you really want

  @ DRIVER MODE: Connecting to
 qe_1139763_2947312.sched-torque.pace.gatech.edu2i9uxe42_scratch
  using UNIX socket
  @ DRIVER MODE: Message from server: STATUS
  @ DRIVER MODE: Message from server: INIT
  @ DRIVER MODE: Receiving replica           0          -1
  @ DRIVER MODE: Receiving encoded integer          25
  @ DRIVER MODE:  SCF:  T  FORCE:  T  STRESS:  F  VC:  F  ENSEMBLE:  F
  @ DRIVER MODE:  SCF:  T  FORCE:  T  STRESS:  F  VC:  F  ENSEMBLE:  F

     Using Slab Decomposition

     bravais-lattice index     =            0
     lattice parameter (alat)  =       1.8897  a.u.
     unit-cell volume          =    6658.9804 (a.u.)^3
     number of atoms/cell      =           54
     number of atomic types    =            5
     number of electrons       =       401.00
     number of Kohn-Sham states=          210
     kinetic-energy cutoff     =      29.3995  Ry
     charge density cutoff     =     293.9946  Ry
     scf convergence threshold =      7.3E-08
     mixing beta               =       0.0500
     number of iterations used =            8  plain     mixing
     Exchange-correlation= BEEF-VDW
                           (   1   4  43  14   2   0   0)

     celldm(1)=   1.889726  celldm(2)=   0.000000  celldm(3)=   0.000000
     celldm(4)=   0.000000  celldm(5)=   0.000000  celldm(6)=   0.000000

     crystal axes: (cart. coord. in units of alat)
               a(1) = (   6.579727   0.000000   0.000000 )
               a(2) = (  -0.000775   5.961596   0.000000 )
               a(3) = (   0.000000   0.000000  25.155947 )

     reciprocal axes: (cart. coord. in units 2 pi/alat)
               b(1) = (  0.151982  0.000020  0.000000 )
               b(2) = (  0.000000  0.167740  0.000000 )
               b(3) = (  0.000000  0.000000  0.039752 )

     PseudoPot. # 1 for Ti read from file:
     /storage/coda1/p-amedford6/0/shared/rich_project_chbe-medford/medford-share/data/pseudos_module/espresso/nninc/pbe/van/Ti.UPF
     MD5 check sum: 8e4df49b7f0d34bbd5052bf3f5ea0213
     Pseudo is Ultrasoft, Zval = 12.0
     Generated by new atomic code, or converted to UPF format
     Using radial grid of  851 points,  6 beta functions with:
                l(1) =   0
                l(2) =   0
                l(3) =   1
                l(4) =   1
                l(5) =   2
                l(6) =   2
     Q(r) pseudized with  8 coefficients,  rinner =    1.000   1.000   1.000
                                                       1.000   1.000

     PseudoPot. # 2 for O  read from file:
     /storage/coda1/p-amedford6/0/shared/rich_project_chbe-medford/medford-share/data/pseudos_module/espresso/nninc/pbe/van/O.UPF
     MD5 check sum: 78c19812648e8988a0fe644b0f25305e
     Pseudo is Ultrasoft, Zval =  6.0
     Generated by new atomic code, or converted to UPF format
     Using radial grid of  737 points,  4 beta functions with:
                l(1) =   0
                l(2) =   0
                l(3) =   1
                l(4) =   1
     Q(r) pseudized with  8 coefficients,  rinner =    0.800   0.800   0.800

     PseudoPot. # 3 for N  read from file:
     /storage/coda1/p-amedford6/0/shared/rich_project_chbe-medford/medford-share/data/pseudos_module/espresso/nninc/pbe/van/N.UPF
     MD5 check sum: 90d10febe142ad51ac9d5be1deb811c4
     Pseudo is Ultrasoft, Zval =  5.0
     Generated by new atomic code, or converted to UPF format
     Using radial grid of  729 points,  4 beta functions with:
                l(1) =   0
                l(2) =   0
                l(3) =   1
                l(4) =   1
     Q(r) pseudized with  8 coefficients,  rinner =    0.800   0.800   0.800

     PseudoPot. # 4 for C  read from file:
     /storage/coda1/p-amedford6/0/shared/rich_project_chbe-medford/medford-share/data/pseudos_module/espresso/nninc/pbe/van/C.UPF
     MD5 check sum: 1a69bf6b8db32088f5b2163dbdb77a27
     Pseudo is Ultrasoft, Zval =  4.0
     Generated by new atomic code, or converted to UPF format
     Using radial grid of  721 points,  4 beta functions with:
                l(1) =   0
                l(2) =   0
                l(3) =   1
                l(4) =   1
     Q(r) pseudized with  8 coefficients,  rinner =    0.800   0.800   0.800

     PseudoPot. # 5 for H  read from file:
     /storage/coda1/p-amedford6/0/shared/rich_project_chbe-medford/medford-share/data/pseudos_module/espresso/nninc/pbe/van/H.UPF
     MD5 check sum: b5ee9d7bfd3a09ee7748110bda690ff7
     Pseudo is Ultrasoft, Zval =  1.0
     Generated by new atomic code, or converted to UPF format
     Using radial grid of  615 points,  1 beta functions with:
                l(1) =   0
     Q(r) pseudized with  8 coefficients,  rinner =    0.800

     atomic species   valence    mass     pseudopotential
        Ti1           12.00    47.86700     Ti( 1.00)
        O1             6.00    15.99900     O ( 1.00)
        N1             5.00    14.00700     N ( 1.00)
        C1             4.00    12.01100     C ( 1.00)
        H1             1.00     1.00800     H ( 1.00)

     No symmetry found

   Cartesian axes

     site n.     atom                  positions (alat units)
         1           Ti1 tau(   1) = (   0.0004258   2.9801865   6.0000000  )
         2           Ti1 tau(   2) = (   3.2906075   1.4906267   6.0002472  )
         3           O1  tau(   3) = (   0.0006271   0.0005054   7.9858123  )
         4           O1  tau(   4) = (   3.2906025   0.0005020   7.3038282  )
         5           O1  tau(   5) = (   4.5942328   1.4918067   9.2879030  )
         6           O1  tau(   6) = (   1.9868534   1.4903216   9.2879459  )
         7           Ti1 tau(   7) = (   3.2907910   2.8959150   9.1758416  )
         8           Ti1 tau(   8) = (   0.0015273   1.4827037   9.2680791  )
         9           O1  tau(   9) = (   3.2935892   5.9488104  11.3374186  )
        10           O1  tau(  10) = (   0.0116148   5.9584955  10.6183126  )
        11           O1  tau(  11) = (   1.2908913   1.5070562  12.6495475  )
        12           O1  tau(  12) = (   5.3136790   1.4931969  12.6373367  )
        13           Ti1 tau(  13) = (   0.0127878   2.8868139  12.6015941  )
        14           Ti1 tau(  14) = (   3.2987545   1.3040885  12.7026746  )
        15           O1  tau(  15) = (   0.0175227   0.0240941  14.6538407  )
        16           O1  tau(  16) = (   3.3064676   0.0741613  13.9771881  )
        17           O1  tau(  17) = (   4.5827780   1.5498142  16.1449436  )
        18           O1  tau(  18) = (   2.0366442   1.5898792  16.0867183  )
        19           Ti1 tau(  19) = (   3.3102262   3.0030951  15.6784192  )
        20           Ti1 tau(  20) = (   0.0574396   1.3488835  16.0050117  )
        21           O1  tau(  21) = (   3.2904802   0.0005063   4.7018136  )
        22           O1  tau(  22) = (   0.0721820   0.0083530  17.1768217  )
        23           O1  tau(  23) = (   1.3043587   1.4918075   6.0039043  )
        24           O1  tau(  24) = (   5.2767064   1.4903225   6.0039473  )
        25           Ti1 tau(  25) = (   0.0000382   5.9609847   6.0000000  )
        26           Ti1 tau(  26) = (   3.2902200   4.4714249   6.0002472  )
        27           O1  tau(  27) = (   0.0002396   2.9813036   7.9858123  )
        28           O1  tau(  28) = (   3.2902150   2.9813002   7.3038282  )
        29           O1  tau(  29) = (   4.5938453   4.4726049   9.2879030  )
        30           O1  tau(  30) = (   1.9864658   4.4711199   9.2879459  )
        31           Ti1 tau(  31) = (   3.2891106   5.8743827   9.1763621  )
        32           Ti1 tau(  32) = (   0.0006254   4.4649316   9.2693709  )
        33           O1  tau(  33) = (   3.2934580   3.0155445  11.2926531  )
        34           O1  tau(  34) = (   0.0092240   2.9805883  10.6323155  )
        35           O1  tau(  35) = (   1.2931599   4.4792858  12.6478595  )
        36           O1  tau(  36) = (   5.3056662   4.4876152  12.6363886  )
        37           Ti1 tau(  37) = (   6.5746511   5.8741161  12.5153022  )
        38           Ti1 tau(  38) = (   3.2863760   4.3878630  12.4273393  )
        39           O1  tau(  39) = (   6.5684735   3.0099032  14.7382625  )
        40           O1  tau(  40) = (   3.3273571   2.9915841  13.8999870  )
        41           O1  tau(  41) = (   4.5754576   4.4629145  16.1269992  )
        42           O1  tau(  42) = (   2.0375947   4.4358961  16.0236521  )
        43           Ti1 tau(  43) = (   3.3857405   0.0156461  16.2930207  )
        44           Ti1 tau(  44) = (   0.0840152   4.5257857  15.8004899  )
        45           O1  tau(  45) = (   3.2900926   2.9813045   4.7018136  )
        46           O1  tau(  46) = (   1.3039711   4.4726057   6.0039043  )
        47           O1  tau(  47) = (   5.2763189   4.4711207   6.0039473  )
        48           N1  tau(  48) = (   6.4876325   3.2951735  18.6921505  )
        49           N1  tau(  49) = (   0.0139976   3.0420413  17.5569154  )
        50           C1  tau(  50) = (   6.3059459   3.6199554  19.9036174  )
        51           H1  tau(  51) = (   5.2963100   3.8231348  20.2372398  )
        52           H1  tau(  52) = (   0.5840524   3.7151184  20.5547593  )
        53           O1  tau(  53) = (   3.1058724   5.9363815  18.1230642  )
        54           H1  tau(  54) = (   2.1709728   0.0855973  18.3648350  )

     number of k points=    10  Fermi-Dirac smearing, width (Ry)=  0.0073
                       cart. coord. in units 2pi/alat
        k(    1) = (   0.0000000   0.0000000   0.0000000), wk =   0.1250000
        k(    2) = (   0.0000000   0.0419351   0.0000000), wk =   0.2500000
        k(    3) = (   0.0000000  -0.0838702   0.0000000), wk =   0.1250000
        k(    4) = (   0.0379955   0.0000049   0.0000000), wk =   0.2500000
        k(    5) = (   0.0379955   0.0419400   0.0000000), wk =   0.2500000
        k(    6) = (   0.0379955  -0.0838652   0.0000000), wk =   0.2500000
        k(    7) = (   0.0379955  -0.0419301   0.0000000), wk =   0.2500000
        k(    8) = (  -0.0759910  -0.0000099   0.0000000), wk =   0.1250000
        k(    9) = (  -0.0759910   0.0419252   0.0000000), wk =   0.2500000
        k(   10) = (  -0.0759910  -0.0838800   0.0000000), wk =   0.1250000

     Initial potential from superposition of free atoms

     starting charge  384.99916, renormalised to  401.00000

     negative rho (up, down):  1.407E-02 0.000E+00

     %%%%%%%%%%%%%%%%%%%%%%%%%%%%%%%%%%%%%%%%%%%%%%%%%%%%%%%%%%%%%%%%%%%%%%%%
     %                                                                      %
     % You are using vdW-DF, which was implemented by the Thonhauser group. %
     % Please cite the following two papers that made this development      %
     % possible and the two reviews that describe the various versions:     %
     %                                                                      %
     %   T. Thonhauser et al., PRL 115, 136402 (2015).                      %
     %   T. Thonhauser et al., PRB 76, 125112 (2007).                       %
     %   K. Berland et al., Rep. Prog. Phys. 78, 066501 (2015).             %
     %   D.C. Langreth et al., J. Phys.: Condens. Matter 21, 084203 (2009). %
     %                                                                      %
     %                                                                      %
     % If you are calculating the stress with vdW-DF, please also cite:     %
     %                                                                      %
     %   R. Sabatini et al., J. Phys.: Condens. Matter 24, 424209 (2012).   %
     %                                                                      %
     %%%%%%%%%%%%%%%%%%%%%%%%%%%%%%%%%%%%%%%%%%%%%%%%%%%%%%%%%%%%%%%%%%%%%%%%

     Adding external electric field

     Computed dipole along edir(3) :
        Dipole              -11.8206 Ry au,        -30.0448 Debye
        Dipole field         -0.0223 Ry au,

        Potential amp.        2.0678 Ry
        Total length         46.3494 bohr

     Starting wfcs are  303 atomic wfcs
  @ DRIVER MODE: Message from server: STATUS
  @ DRIVER MODE: Message from server: POSDATA
  @ DRIVER MODE: Reading and sharing cell
  @ DRIVER MODE: Reading and sharing positions
  @ DRIVER MODE: Received positions

     Self-consistent Calculation

     iteration #  1     ecut=    29.40 Ry     beta= 0.05
     Davidson diagonalization with overlap
     ethr =  1.00E-02,  avg # of iterations =  3.1

[...]

     total energy              =   -2455.68313243 Ry
     estimated scf accuracy    <    5835.27962032 Ry

[...]

     iteration #  5     ecut=    29.40 Ry     beta= 0.05
     Davidson diagonalization with overlap
     c_bands:  4 eigenvalues not converged
     c_bands:  2 eigenvalues not converged
     ethr =  1.00E-02,  avg # of iterations = 12.2

[...]

     iteration # 48     ecut=    29.40 Ry     beta= 0.05
     Davidson diagonalization with overlap
     c_bands:  1 eigenvalues not converged
     ethr =  1.08E-06,  avg # of iterations =  7.6

[...]

     total energy              =   -2971.49161178 Ry
     estimated scf accuracy    <       0.00000012 Ry

     iteration # 74     ecut=    29.40 Ry     beta= 0.05
     Davidson diagonalization with overlap
     ethr =  2.90E-11,  avg # of iterations =  8.6

     negative rho (up, down):  1.460E-02 0.000E+00

     Adding external electric field

     Computed dipole along edir(3) :
        Dipole                1.0643 Ry au,          2.7052 Debye
        Dipole field          0.0020 Ry au,

        Potential amp.       -0.1862 Ry
        Total length         46.3494 bohr

     End of self-consistent calculation

          k = 0.0000 0.0000 0.0000 ( 18029 PWs)   bands (ev):

   -55.6918 -55.6578 -55.4763 -55.4739 -55.4424 -55.3338 -55.3164 -55.2819
   -55.2811 -55.2253 -55.1796 -55.0948 -55.0866 -54.9804 -54.5997 -54.5657
   -32.1657 -31.9871 -31.9851 -31.9290 -31.8445 -31.8171 -31.8117 -31.7919
   -31.7883 -31.7556 -31.7503 -31.7475 -31.7131 -31.6956 -31.6822 -31.6501
   -31.6474 -31.6110 -31.5840 -31.5784 -31.5756 -31.5515 -31.5422 -31.5388
   -31.4942 -31.4868 -31.4814 -31.4706 -31.4578 -31.4436 -31.4404 -31.4248
   -31.4241 -31.3682 -31.3637 -31.3609 -31.2939 -31.2818 -31.2581 -31.2298
   -31.2045 -31.1912 -31.0026 -30.9241 -30.9012 -30.8206 -30.7347 -30.6227
   -20.7427 -16.2531 -16.1716 -15.9665 -15.7890 -15.6377 -15.5852 -15.4452
   -15.3739 -15.2744 -15.1937 -15.0945 -15.0742 -15.0338 -14.9978 -14.9960
   -14.9675 -14.9354 -14.9352 -14.9121 -14.8951 -14.8473 -14.7877 -14.7703
   -14.7256 -14.6981 -14.6462 -14.6423 -14.6180 -14.5154 -14.2472 -14.2326
   -13.0975 -12.9825  -7.4031  -6.0923  -5.6761  -5.0453  -3.7622  -3.5797
    -3.5052  -3.3561  -3.2772  -3.2007  -3.0739  -2.9857  -2.9081  -2.7478
    -2.6623  -2.6355  -2.5842  -2.5280  -2.4627  -2.4363  -2.3954  -2.3725
    -2.2935  -2.2525  -2.2298  -2.2084  -2.1543  -2.1252  -2.0897  -2.0045
    -1.9758  -1.9411  -1.8669  -1.8579  -1.8331  -1.8242  -1.7825  -1.7639
    -1.7509  -1.7316  -1.5958  -1.5877  -1.5096  -1.4706  -1.3240  -1.2006
    -1.1354  -1.0662  -1.0513  -0.9693  -0.9332  -0.8532  -0.8339  -0.8045
    -0.7666  -0.7000  -0.6354  -0.6131  -0.5677  -0.5314  -0.3958  -0.3734
    -0.3263  -0.3215  -0.2990  -0.2339  -0.1647  -0.0838  -0.0709  -0.0054
     0.0149   0.0971   0.1792   0.1863   0.2364   0.2595   0.3139   0.3367
     0.3553   0.3887   0.4185   0.4874   0.5506   0.5980   0.6034   0.6366
     0.7039   0.7713   0.8115   0.8446   0.9946   1.0240   1.0387   1.1285
     1.1393   1.2473   1.4052   1.4266   1.6306   1.6324   1.9867   2.0291
     3.4548   3.5849   3.6187   3.6924   3.7780   3.9064   3.9148   4.0419
     4.1611   4.1667

[...]

          k = 0.0380-0.0419 0.0000 ( 17876 PWs)   bands (ev):

[...]

          k =-0.0760-0.0000 0.0000 ( 17886 PWs)   bands (ev):

[...]

          k =-0.0760-0.0839 0.0000 ( 17948 PWs)   bands (ev):

   -55.6752 -55.6742 -55.4731 -55.4605 -55.4579 -55.3275 -55.3028 -55.2946
   -55.2882 -55.2259 -55.1760 -55.0983 -55.0840 -54.9829 -54.5832 -54.5820
   -31.9815 -31.9810 -31.9713 -31.9705 -31.7959 -31.7946 -31.7820 -31.7763
   -31.7416 -31.7212 -31.6952 -31.6873 -31.6848 -31.6688 -31.6537 -31.6491
   -31.6316 -31.6178 -31.6165 -31.6111 -31.5935 -31.5519 -31.5470 -31.5249
   -31.5237 -31.5179 -31.5138 -31.5129 -31.5048 -31.4868 -31.4648 -31.4561
   -31.4290 -31.3883 -31.3746 -31.3531 -31.3402 -31.3258 -31.2973 -31.2859
   -31.2361 -31.1947 -30.9144 -30.9136 -30.8166 -30.8152 -30.7782 -30.7772
   -20.7416 -16.2272 -15.6172 -15.5496 -15.5288 -15.5200 -15.4053 -15.3727
   -15.2406 -15.2396 -15.2167 -15.1577 -15.1473 -15.1164 -15.1079 -15.0830
   -15.0501 -15.0254 -15.0024 -14.9722 -14.9618 -14.9182 -14.8915 -14.8879
   -14.8743 -14.8252 -14.7387 -14.6541 -14.6410 -14.5753 -14.4929 -14.3663
   -13.0850 -13.0844  -7.4038  -6.0958  -5.6789  -5.0229  -3.7354  -3.1084
    -2.8964  -2.7486  -2.7222  -2.5940  -2.5751  -2.4811  -2.4731  -2.4297
    -2.4162  -2.3765  -2.3493  -2.3321  -2.2897  -2.2723  -2.2571  -2.2527
    -2.2345  -2.2040  -2.1955  -2.1914  -2.1824  -2.1523  -2.1245  -2.1104
    -2.0940  -2.0478  -2.0206  -1.9210  -1.8168  -1.7916  -1.7184  -1.7135
    -1.7113  -1.6989  -1.6765  -1.6526  -1.5679  -1.4779  -1.4402  -1.3838
    -1.2094  -1.1953  -1.1727  -1.1509  -1.0941  -1.0458  -1.0174  -0.9657
    -0.9537  -0.9296  -0.8562  -0.7936  -0.7209  -0.7005  -0.6318  -0.5832
    -0.5659  -0.4752  -0.4619  -0.4290  -0.3884  -0.3742  -0.3449  -0.2914
    -0.2764  -0.2574  -0.2285  -0.1900  -0.1548   0.0142   0.1483   0.2118
     0.2292   0.2660   0.3200   0.3861   0.4097   0.5931   0.6058   0.6102
     0.6492   0.7083   0.7340   0.7510   0.8440   0.9574   0.9844   1.0208
     1.0480   1.0674   1.1483   1.2074   1.7975   1.8057   1.8487   1.8494
     3.4563   3.9917   4.0107   4.0121   4.0132   4.1086   4.1323   4.1406
     4.2054   4.2688

     the Fermi energy is     3.4490 ev

!    total energy              =   -2971.49162484 Ry
     estimated scf accuracy    <       0.00000006 Ry
     smearing contrib. (-TS)   =      -0.01886648 Ry
     internal energy E=F+TS    =   -2971.47275836 Ry

     The total energy is F=E-TS. E is the sum of the following terms:
     one-electron contribution =  -23618.23770810 Ry
     hartree contribution      =   11902.97209363 Ry
     xc contribution           =    -492.36776321 Ry
     ewald contribution        =    9236.15848165 Ry
     electric field correction =       0.00213767 Ry

     convergence has been achieved in  74 iterations

     Forces acting on atoms (cartesian axes, Ry/au):

     atom    1 type  1   force =     0.00001595   -0.00040131    0.09767683
     atom    2 type  1   force =    -0.00004196    0.00022122   -0.17213762
     atom    3 type  2   force =     0.00005094   -0.00005228   -0.02538033
     atom    4 type  2   force =     0.00001479   -0.00144753    0.04759540
     atom    5 type  2   force =    -0.00615996   -0.00239809   -0.00085584
     atom    6 type  2   force =     0.00778077   -0.00181596   -0.00152018
     atom    7 type  1   force =    -0.00008936   -0.00484406    0.01888046
     atom    8 type  1   force =     0.00022319    0.01221278    0.02698320
     atom    9 type  2   force =    -0.00010512   -0.00016476   -0.00011041
     atom   10 type  2   force =    -0.00111969    0.00132040   -0.02502036
     atom   11 type  2   force =     0.00014682   -0.00003202    0.00006040
     atom   12 type  2   force =     0.00005609   -0.00003730   -0.00001447
     atom   13 type  1   force =     0.00034879   -0.00022250   -0.00015737
     atom   14 type  1   force =     0.00005241   -0.00015566   -0.00016123
     atom   15 type  2   force =    -0.00030296   -0.00018714   -0.00030043
     atom   16 type  2   force =    -0.00003305   -0.00011124   -0.00049392
     atom   17 type  2   force =    -0.00012872   -0.00005641   -0.00003777
     atom   18 type  2   force =     0.00003359   -0.00017859   -0.00005584
     atom   19 type  1   force =    -0.00017601   -0.00000872   -0.00037689
     atom   20 type  1   force =    -0.00017053   -0.00018827    0.00018097
     atom   21 type  2   force =     0.00005712    0.00008439    0.10226154
     atom   22 type  2   force =     0.00009159    0.00005821   -0.00020408
     atom   23 type  2   force =    -0.07355978   -0.00016091   -0.02810741
     atom   24 type  2   force =     0.07347601    0.00028324   -0.02818092
     atom   25 type  1   force =     0.00013860   -0.00033165    0.09747737
     atom   26 type  1   force =    -0.00003786   -0.00130783   -0.17227310
     atom   27 type  2   force =     0.00009400   -0.00030427   -0.02401487
     atom   28 type  2   force =     0.00004095    0.00031103    0.04322222
     atom   29 type  2   force =    -0.00504829    0.00403310   -0.00278354
     atom   30 type  2   force =     0.00655655    0.00442258   -0.00333945
     atom   31 type  1   force =     0.00001049    0.00579889    0.00691718
     atom   32 type  1   force =     0.00029036   -0.01518502    0.02657051
     atom   33 type  2   force =     0.00038217   -0.00002860    0.00010823
     atom   34 type  2   force =    -0.00138576    0.00099851   -0.02676328
     atom   35 type  2   force =     0.00037741    0.00005691    0.00003176
     atom   36 type  2   force =    -0.00028719   -0.00005670   -0.00008672
     atom   37 type  1   force =     0.00009792   -0.00053335   -0.00010046
     atom   38 type  1   force =     0.00024256    0.00013600    0.00010505
     atom   39 type  2   force =    -0.00012754   -0.00016431   -0.00009801
     atom   40 type  2   force =     0.00005652    0.00002471   -0.00015067
     atom   41 type  2   force =    -0.00015358    0.00007980   -0.00017880
     atom   42 type  2   force =    -0.00027660   -0.00010126    0.00002052
     atom   43 type  1   force =    -0.00010957    0.00020815   -0.00063771
     atom   44 type  1   force =    -0.00024343    0.00038226    0.00016486
     atom   45 type  2   force =     0.00005000   -0.00007954    0.10205771
     atom   46 type  2   force =    -0.07359922   -0.00007727   -0.02814378
     atom   47 type  2   force =     0.07350294    0.00036132   -0.02819052
     atom   48 type  3   force =    -0.00064013    0.00029878    0.00036707
     atom   49 type  3   force =    -0.00011205   -0.00032587   -0.00035624
     atom   50 type  4   force =    -0.00031825   -0.00027373   -0.00016480
     atom   51 type  5   force =    -0.00003372   -0.00007476    0.00014909
     atom   52 type  5   force =    -0.00016472   -0.00003300    0.00001337
     atom   53 type  2   force =     0.00038585    0.00070456   -0.00023858
     atom   54 type  5   force =    -0.00014935   -0.00065693   -0.00020814

     Total force =     0.365030     Total SCF correction =     0.000609
  @ DRIVER MODE: Message from server: STATUS
  @ DRIVER MODE: Message from server: GETFORCE
  @ DRIVER MODE: Returning v,forces,stress,ensemble

     Writing output data file ./calc.save/
  @ DRIVER MODE: Message from server: EXIT
  @ DRIVE MODE: Exiting

     General routines

     Parallel routines

   This run was terminated on:  11: 4: 8  23Sep2021

   JOB DONE.