     Program PWSCF v.6.7GPU starts on 24Aug2021 at 22:51:59

     R & G space division:  proc/nbgrp/npool/nimage =       6
     Reading input from /storage/home/hcoda1/3/ntian30/research/carbon/CH3_vib_end_on/ads_slab/CH3N2H_a/out_0013/pw.inp
Warning: card &CELL ignored
Warning: card   CELL_DYNAMICS='IPI', ignored
Warning: card / ignored

     Current dimensions of program PWSCF are:
     Max number of different atomic species (ntypx) = 10
     Max number of k-points (npk) =  40000
     Max angular momentum in pseudopotentials (lmaxx) =  3
     Presently no symmetry can be used with electric field

     Message from routine cell_base_init:
     DEPRECATED: use true lattice parameter, not A to a.u. conversion factor

     IMPORTANT: XC functional enforced from input :
     Exchange-correlation= BEEF-VDW
                           (   1   4  43  14   2   0   0)
     Any further DFT definition will be discarded
     Please, verify this is what you really want

  @ DRIVER MODE: Connecting to
 qe_1139763_2643869.sched-torque.pace.gatech.edu0hl5_dan_scratch
  using UNIX socket
  @ DRIVER MODE: Message from server: STATUS
  @ DRIVER MODE: Message from server: INIT
  @ DRIVER MODE: Receiving replica           0          -1
  @ DRIVER MODE: Receiving encoded integer          25
  @ DRIVER MODE:  SCF:  T  FORCE:  T  STRESS:  F  VC:  F  ENSEMBLE:  F
  @ DRIVER MODE:  SCF:  T  FORCE:  T  STRESS:  F  VC:  F  ENSEMBLE:  F

     Using Slab Decomposition

     bravais-lattice index     =            0
     lattice parameter (alat)  =       1.8897  a.u.
     unit-cell volume          =    6658.9804 (a.u.)^3
     number of atoms/cell      =           54
     number of atomic types    =            5
     number of electrons       =       396.00
     number of Kohn-Sham states=          208
     kinetic-energy cutoff     =      29.3995  Ry
     charge density cutoff     =     293.9946  Ry
     scf convergence threshold =      7.3E-08
     mixing beta               =       0.0500
     number of iterations used =            8  plain     mixing
     Exchange-correlation= BEEF-VDW
                           (   1   4  43  14   2   0   0)

     celldm(1)=   1.889726  celldm(2)=   0.000000  celldm(3)=   0.000000
     celldm(4)=   0.000000  celldm(5)=   0.000000  celldm(6)=   0.000000

     crystal axes: (cart. coord. in units of alat)
               a(1) = (   6.579727   0.000000   0.000000 )
               a(2) = (  -0.000775   5.961596   0.000000 )
               a(3) = (   0.000000   0.000000  25.155947 )

     reciprocal axes: (cart. coord. in units 2 pi/alat)
               b(1) = (  0.151982  0.000020  0.000000 )
               b(2) = (  0.000000  0.167740  0.000000 )
               b(3) = (  0.000000  0.000000  0.039752 )

     PseudoPot. # 1 for Ti read from file:
     /storage/coda1/p-amedford6/0/shared/rich_project_chbe-medford/medford-share/data/pseudos_module/espresso/nninc/pbe/van/Ti.UPF
     MD5 check sum: 8e4df49b7f0d34bbd5052bf3f5ea0213
     Pseudo is Ultrasoft, Zval = 12.0
     Generated by new atomic code, or converted to UPF format
     Using radial grid of  851 points,  6 beta functions with:
                l(1) =   0
                l(2) =   0
                l(3) =   1
                l(4) =   1
                l(5) =   2
                l(6) =   2
     Q(r) pseudized with  8 coefficients,  rinner =    1.000   1.000   1.000
                                                       1.000   1.000

     PseudoPot. # 2 for O  read from file:
     /storage/coda1/p-amedford6/0/shared/rich_project_chbe-medford/medford-share/data/pseudos_module/espresso/nninc/pbe/van/O.UPF
     MD5 check sum: 78c19812648e8988a0fe644b0f25305e
     Pseudo is Ultrasoft, Zval =  6.0
     Generated by new atomic code, or converted to UPF format
     Using radial grid of  737 points,  4 beta functions with:
                l(1) =   0
                l(2) =   0
                l(3) =   1
                l(4) =   1
     Q(r) pseudized with  8 coefficients,  rinner =    0.800   0.800   0.800

     PseudoPot. # 3 for N  read from file:
     /storage/coda1/p-amedford6/0/shared/rich_project_chbe-medford/medford-share/data/pseudos_module/espresso/nninc/pbe/van/N.UPF
     MD5 check sum: 90d10febe142ad51ac9d5be1deb811c4
     Pseudo is Ultrasoft, Zval =  5.0
     Generated by new atomic code, or converted to UPF format
     Using radial grid of  729 points,  4 beta functions with:
                l(1) =   0
                l(2) =   0
                l(3) =   1
                l(4) =   1
     Q(r) pseudized with  8 coefficients,  rinner =    0.800   0.800   0.800

     PseudoPot. # 4 for C  read from file:
     /storage/coda1/p-amedford6/0/shared/rich_project_chbe-medford/medford-share/data/pseudos_module/espresso/nninc/pbe/van/C.UPF
     MD5 check sum: 1a69bf6b8db32088f5b2163dbdb77a27
     Pseudo is Ultrasoft, Zval =  4.0
     Generated by new atomic code, or converted to UPF format
     Using radial grid of  721 points,  4 beta functions with:
                l(1) =   0
                l(2) =   0
                l(3) =   1
                l(4) =   1
     Q(r) pseudized with  8 coefficients,  rinner =    0.800   0.800   0.800

     PseudoPot. # 5 for H  read from file:
     /storage/coda1/p-amedford6/0/shared/rich_project_chbe-medford/medford-share/data/pseudos_module/espresso/nninc/pbe/van/H.UPF
     MD5 check sum: b5ee9d7bfd3a09ee7748110bda690ff7
     Pseudo is Ultrasoft, Zval =  1.0
     Generated by new atomic code, or converted to UPF format
     Using radial grid of  615 points,  1 beta functions with:
                l(1) =   0
     Q(r) pseudized with  8 coefficients,  rinner =    0.800

     atomic species   valence    mass     pseudopotential
        Ti1           12.00    47.86700     Ti( 1.00)
        O1             6.00    15.99900     O ( 1.00)
        N1             5.00    14.00700     N ( 1.00)
        C1             4.00    12.01100     C ( 1.00)
        H1             1.00     1.00800     H ( 1.00)

     No symmetry found

   Cartesian axes

     site n.     atom                  positions (alat units)
         1           Ti1 tau(   1) = (   0.0004258   2.9801865   6.0000000  )
         2           Ti1 tau(   2) = (   3.2906075   1.4906267   6.0002472  )
         3           O1  tau(   3) = (   0.0006271   0.0005054   7.9858123  )
         4           O1  tau(   4) = (   3.2906025   0.0005020   7.3038282  )
         5           O1  tau(   5) = (   4.5942328   1.4918067   9.2879030  )
         6           O1  tau(   6) = (   1.9868534   1.4903216   9.2879459  )
         7           Ti1 tau(   7) = (   3.2907910   2.8959150   9.1758416  )
         8           Ti1 tau(   8) = (   0.0015273   1.4827037   9.2680791  )
         9           O1  tau(   9) = (   3.2896288   0.0042867  11.3205077  )
        10           O1  tau(  10) = (   0.0116148   5.9584955  10.6183126  )
        11           O1  tau(  11) = (   1.2848067   1.4985890  12.6232755  )
        12           O1  tau(  12) = (   5.2688617   1.4893877  12.6055203  )
        13           Ti1 tau(  13) = (   0.0799559   3.0171279  12.6206390  )
        14           Ti1 tau(  14) = (   3.4009582   1.4891986  12.4726338  )
        15           O1  tau(  15) = (   6.5707323   0.0080309  14.6263129  )
        16           O1  tau(  16) = (   3.2902489   0.0120312  13.8979102  )
        17           O1  tau(  17) = (   4.5126121   1.5346005  16.0500440  )
        18           O1  tau(  18) = (   2.0453867   1.5362785  16.0447169  )
        19           Ti1 tau(  19) = (   3.2767562   3.0203775  15.6892921  )
        20           Ti1 tau(  20) = (   6.5596632   1.5778499  15.8310978  )
        21           O1  tau(  21) = (   3.2904802   0.0005063   4.7018136  )
        22           O1  tau(  22) = (   6.5709656   0.0671247  17.2345223  )
        23           O1  tau(  23) = (   1.3043587   1.4918075   6.0039043  )
        24           O1  tau(  24) = (   5.2767064   1.4903225   6.0039473  )
        25           Ti1 tau(  25) = (   0.0000382   5.9609847   6.0000000  )
        26           Ti1 tau(  26) = (   3.2902200   4.4714249   6.0002472  )
        27           O1  tau(  27) = (   0.0002396   2.9813036   7.9858123  )
        28           O1  tau(  28) = (   3.2902150   2.9813002   7.3038282  )
        29           O1  tau(  29) = (   4.5938453   4.4726049   9.2879030  )
        30           O1  tau(  30) = (   1.9864658   4.4711199   9.2879459  )
        31           Ti1 tau(  31) = (   3.2891106   5.8743827   9.1763621  )
        32           Ti1 tau(  32) = (   0.0006254   4.4649316   9.2693709  )
        33           O1  tau(  33) = (   3.2919429   2.9835650  11.3172650  )
        34           O1  tau(  34) = (   0.0092240   2.9805883  10.6323155  )
        35           O1  tau(  35) = (   1.2842535   4.4799506  12.6241420  )
        36           O1  tau(  36) = (   5.2755836   4.4732255  12.6042992  )
        37           Ti1 tau(  37) = (   0.0783641   0.0295629  12.6394962  )
        38           Ti1 tau(  38) = (   3.4022659   4.4693352  12.4708195  )
        39           O1  tau(  39) = (   6.5693815   2.9799975  14.6326336  )
        40           O1  tau(  40) = (   3.2899495   3.0014797  13.8849495  )
        41           O1  tau(  41) = (   4.5062741   4.5069571  16.0893315  )
        42           O1  tau(  42) = (   2.0480812   4.5060041  16.0753496  )
        43           Ti1 tau(  43) = (   3.2742444   0.0367023  15.7020416  )
        44           Ti1 tau(  44) = (   6.5658628   4.6518251  16.1481936  )
        45           O1  tau(  45) = (   3.2900926   2.9813045   4.7018136  )
        46           O1  tau(  46) = (   1.3039711   4.4726057   6.0039043  )
        47           O1  tau(  47) = (   5.2763189   4.4711207   6.0039473  )
        48           N1  tau(  48) = (   6.5201982   2.6597193  18.5868863  )
        49           N1  tau(  49) = (   6.5663212   2.9659568  17.3251533  )
        50           C1  tau(  50) = (   0.0992964   3.6297355  19.6533281  )
        51           H1  tau(  51) = (   6.1365678   4.5355971  19.4091500  )
        52           H1  tau(  52) = (   6.3142024   3.1981282  20.5813133  )
        53           H1  tau(  53) = (   1.1661384   3.8973747  19.7839464  )
        54           H1  tau(  54) = (   6.5756389   1.6632157  18.8047554  )

     number of k points=    10  Fermi-Dirac smearing, width (Ry)=  0.0073
                       cart. coord. in units 2pi/alat
        k(    1) = (   0.0000000   0.0000000   0.0000000), wk =   0.1250000
        k(    2) = (   0.0000000   0.0419351   0.0000000), wk =   0.2500000
        k(    3) = (   0.0000000  -0.0838702   0.0000000), wk =   0.1250000
        k(    4) = (   0.0379955   0.0000049   0.0000000), wk =   0.2500000
        k(    5) = (   0.0379955   0.0419400   0.0000000), wk =   0.2500000
        k(    6) = (   0.0379955  -0.0838652   0.0000000), wk =   0.2500000
        k(    7) = (   0.0379955  -0.0419301   0.0000000), wk =   0.2500000
        k(    8) = (  -0.0759910  -0.0000099   0.0000000), wk =   0.1250000
        k(    9) = (  -0.0759910   0.0419252   0.0000000), wk =   0.2500000
        k(   10) = (  -0.0759910  -0.0838800   0.0000000), wk =   0.1250000

     Initial potential from superposition of free atoms

     starting charge  379.99915, renormalised to  396.00000

     negative rho (up, down):  1.474E-02 0.000E+00

     %%%%%%%%%%%%%%%%%%%%%%%%%%%%%%%%%%%%%%%%%%%%%%%%%%%%%%%%%%%%%%%%%%%%%%%%
     %                                                                      %
     % You are using vdW-DF, which was implemented by the Thonhauser group. %
     % Please cite the following two papers that made this development      %
     % possible and the two reviews that describe the various versions:     %
     %                                                                      %
     %   T. Thonhauser et al., PRL 115, 136402 (2015).                      %
     %   T. Thonhauser et al., PRB 76, 125112 (2007).                       %
     %   K. Berland et al., Rep. Prog. Phys. 78, 066501 (2015).             %
     %   D.C. Langreth et al., J. Phys.: Condens. Matter 21, 084203 (2009). %
     %                                                                      %
     %                                                                      %
     % If you are calculating the stress with vdW-DF, please also cite:     %
     %                                                                      %
     %   R. Sabatini et al., J. Phys.: Condens. Matter 24, 424209 (2012).   %
     %                                                                      %
     %%%%%%%%%%%%%%%%%%%%%%%%%%%%%%%%%%%%%%%%%%%%%%%%%%%%%%%%%%%%%%%%%%%%%%%%

     Adding external electric field

     Computed dipole along edir(3) :
        Dipole               -9.2704 Ry au,        -23.5631 Debye
        Dipole field         -0.0175 Ry au,

        Potential amp.        1.6217 Ry
        Total length         46.3494 bohr

     Starting wfcs are  300 atomic wfcs
  @ DRIVER MODE: Message from server: STATUS
  @ DRIVER MODE: Message from server: POSDATA
  @ DRIVER MODE: Reading and sharing cell
  @ DRIVER MODE: Reading and sharing positions
  @ DRIVER MODE: Received positions

     Self-consistent Calculation

     iteration #  1     ecut=    29.40 Ry     beta= 0.05
     Davidson diagonalization with overlap
     c_bands:  1 eigenvalues not converged
     c_bands:  1 eigenvalues not converged
     c_bands:  1 eigenvalues not converged
     ethr =  1.00E-05,  avg # of iterations = 17.9

[...]

     total energy              =   -2585.37780773 Ry
     estimated scf accuracy    <    3946.16165551 Ry

     iteration #  2     ecut=    29.40 Ry     beta= 0.05
     Davidson diagonalization with overlap
     ethr =  1.00E-02,  avg # of iterations = 22.8

[...]

     iteration # 67     ecut=    29.40 Ry     beta= 0.05
     Davidson diagonalization with overlap
     c_bands:  1 eigenvalues not converged
     c_bands:  1 eigenvalues not converged
     ethr =  1.21E-08,  avg # of iterations = 15.9

[...]

     total energy              =   -2940.39751157 Ry
     estimated scf accuracy    <       0.00000008 Ry

     iteration # 82     ecut=    29.40 Ry     beta= 0.05
     Davidson diagonalization with overlap
     ethr =  1.89E-11,  avg # of iterations =  7.4

     negative rho (up, down):  1.567E-02 0.000E+00

     Adding external electric field

     Computed dipole along edir(3) :
        Dipole                1.1329 Ry au,          2.8797 Debye
        Dipole field          0.0021 Ry au,

        Potential amp.       -0.1982 Ry
        Total length         46.3494 bohr

     End of self-consistent calculation

          k = 0.0000 0.0000 0.0000 ( 18029 PWs)   bands (ev):

   -55.6421 -55.6081 -55.5500 -55.5124 -55.4061 -55.3838 -55.3723 -55.3486
   -55.3416 -55.3345 -55.3148 -55.2649 -54.7251 -54.5839 -54.5571 -54.5499
   -32.1166 -32.0936 -31.9364 -31.9233 -31.8933 -31.8627 -31.8446 -31.8381
   -31.7953 -31.7788 -31.7779 -31.7389 -31.7299 -31.7120 -31.7008 -31.6910
   -31.6806 -31.6717 -31.6386 -31.6270 -31.6045 -31.5844 -31.5771 -31.5631
   -31.5500 -31.5436 -31.5368 -31.5351 -31.5294 -31.5122 -31.5031 -31.5016
   -31.4978 -31.4608 -31.4465 -31.3790 -31.2230 -30.9897 -30.9483 -30.9336
   -30.9050 -30.8945 -30.8823 -30.8065 -30.7653 -30.7367 -30.7202 -30.6092
   -18.0066 -16.2765 -16.0487 -15.7713 -15.6706 -15.6470 -15.5262 -15.3937
   -15.2932 -15.1982 -15.1578 -15.1036 -15.0991 -15.0697 -15.0393 -15.0033
   -14.9758 -14.9364 -14.9185 -14.8987 -14.8740 -14.8647 -14.7539 -14.7406
   -14.7160 -14.6244 -14.6141 -14.5415 -14.5154 -14.0863 -13.0862 -12.9705
   -12.0273  -8.9343  -5.7370  -4.4613  -4.1269  -3.6594  -3.5335  -3.5032
    -3.4019  -3.2344  -3.1374  -3.0774  -2.9863  -2.7634  -2.7287  -2.7187
    -2.6987  -2.6410  -2.4427  -2.4171  -2.3860  -2.3460  -2.3361  -2.3336
    -2.3197  -2.2580  -2.1920  -2.1270  -2.0280  -2.0199  -1.9672  -1.9541
    -1.9368  -1.9025  -1.8588  -1.8190  -1.7976  -1.7560  -1.7370  -1.7305
    -1.6892  -1.6052  -1.5043  -1.3464  -1.3228  -1.2999  -1.2519  -1.1962
    -1.0316  -1.0166  -0.9787  -0.9725  -0.9407  -0.8652  -0.7984  -0.7130
    -0.6774  -0.6003  -0.5843  -0.5550  -0.4813  -0.3955  -0.3731  -0.3580
    -0.3504  -0.3349  -0.2773  -0.1601  -0.0671  -0.0384   0.0845   0.0891
     0.1240   0.1684   0.1846   0.2662   0.3029   0.3161   0.3682   0.3685
     0.3802   0.4239   0.4469   0.5094   0.5651   0.6495   0.7226   0.7880
     0.8247   0.9414   1.0124   1.0778   1.1093   1.2388   1.3648   1.3760
     1.4376   1.6330   1.6356   2.0062   2.0505   3.5292   3.5503   3.6430
     3.6865   3.7843   3.8233   3.9677   4.0224   4.0602   4.1739   4.2049

[...]

          k = 0.0380-0.0419 0.0000 ( 17876 PWs)   bands (ev):

[...]

          k =-0.0760-0.0000 0.0000 ( 17886 PWs)   bands (ev):

[...]

          k =-0.0760-0.0839 0.0000 ( 17948 PWs)   bands (ev):

   -55.6252 -55.6249 -55.5369 -55.5253 -55.3892 -55.3889 -55.3747 -55.3505
   -55.3331 -55.3303 -55.3298 -55.2694 -54.7236 -54.5669 -54.5668 -54.5585
   -31.9321 -31.9320 -31.9216 -31.9216 -31.9014 -31.8921 -31.7946 -31.7849
   -31.7610 -31.7483 -31.7461 -31.7456 -31.7011 -31.6982 -31.6858 -31.6825
   -31.6738 -31.6700 -31.6695 -31.6443 -31.5999 -31.5981 -31.5849 -31.5819
   -31.5775 -31.5759 -31.5744 -31.5640 -31.5615 -31.5559 -31.5480 -31.5450
   -31.5382 -31.5277 -31.5017 -31.4672 -31.1322 -30.9689 -30.9345 -30.9218
   -30.8951 -30.8950 -30.8027 -30.8026 -30.7846 -30.7666 -30.7635 -30.7634
   -18.0009 -15.6995 -15.6882 -15.5090 -15.5038 -15.4434 -15.4372 -15.2843
   -15.2834 -15.2650 -15.2568 -15.1335 -15.1297 -15.0983 -15.0946 -15.0523
   -15.0437 -15.0254 -15.0171 -15.0154 -15.0088 -14.9824 -14.9316 -14.8974
   -14.8919 -14.7149 -14.7138 -14.5936 -14.5610 -14.2217 -13.0725 -13.0724
   -12.0282  -8.9443  -5.7288  -4.3986  -4.1315  -3.0096  -2.9892  -2.9772
    -2.7039  -2.6987  -2.6745  -2.6638  -2.4588  -2.4460  -2.4247  -2.4191
    -2.3919  -2.3860  -2.3711  -2.3640  -2.2813  -2.2704  -2.2592  -2.2348
    -2.2293  -2.2261  -2.2107  -2.2032  -2.1932  -2.1597  -2.1243  -2.0953
    -2.0604  -2.0377  -1.9188  -1.8085  -1.7304  -1.7236  -1.6930  -1.6872
    -1.6813  -1.6748  -1.6420  -1.5376  -1.4780  -1.4244  -1.2877  -1.2639
    -1.2453  -1.2009  -1.1125  -1.0318  -0.9683  -0.9517  -0.9039  -0.8608
    -0.8359  -0.7509  -0.7277  -0.7199  -0.6515  -0.6197  -0.5752  -0.5693
    -0.5556  -0.4891  -0.4412  -0.3915  -0.3679  -0.3373  -0.2920  -0.2714
    -0.2086  -0.1550  -0.1091  -0.1036  -0.0553  -0.0472   0.0170   0.1673
     0.2169   0.4706   0.4852   0.5155   0.6401   0.7116   0.7170   0.7446
     0.7765   0.8280   0.8399   0.9737   0.9853   0.9878   1.1534   1.1777
     1.2631   1.8060   1.8063   1.8696   1.8699   3.4317   3.9215   3.9389
     3.9641   3.9792   4.0505   4.0515   4.0597   4.0672   4.2451   4.2653

     the Fermi energy is     3.5063 ev

!    total energy              =   -2940.39751896 Ry
     estimated scf accuracy    <       0.00000003 Ry
     smearing contrib. (-TS)   =      -0.02303352 Ry
     internal energy E=F+TS    =   -2940.37448545 Ry

     The total energy is F=E-TS. E is the sum of the following terms:
     one-electron contribution =  -24109.35640054 Ry
     hartree contribution      =   12145.91091206 Ry
     xc contribution           =    -486.04555747 Ry
     ewald contribution        =    9509.11413822 Ry
     electric field correction =       0.00242227 Ry

     convergence has been achieved in  82 iterations

     Forces acting on atoms (cartesian axes, Ry/au):

     atom    1 type  1   force =     0.00015794   -0.00012127    0.09933090
     atom    2 type  1   force =    -0.00012027   -0.00047516   -0.17360516
     atom    3 type  2   force =    -0.00005179   -0.00000007   -0.02878785
     atom    4 type  2   force =     0.00007349   -0.00124995    0.04996519
     atom    5 type  2   force =    -0.01304709    0.00057718    0.00122821
     atom    6 type  2   force =     0.01459443    0.00138452   -0.00009639
     atom    7 type  1   force =    -0.00144261   -0.00060478   -0.00835837
     atom    8 type  1   force =     0.00088162   -0.00412710    0.04511828
     atom    9 type  2   force =    -0.00003069   -0.00065819   -0.00024122
     atom   10 type  2   force =    -0.00129068    0.00227538   -0.02838819
     atom   11 type  2   force =     0.00018680    0.00061676   -0.00002811
     atom   12 type  2   force =     0.00026490    0.00040888    0.00012081
     atom   13 type  1   force =     0.00037310    0.00020806   -0.00065037
     atom   14 type  1   force =     0.00002003    0.00047693    0.00028894
     atom   15 type  2   force =     0.00033832   -0.00008170   -0.00000040
     atom   16 type  2   force =    -0.00040745   -0.00023312   -0.00015230
     atom   17 type  2   force =    -0.00097182    0.00015953   -0.00049751
     atom   18 type  2   force =     0.00091247    0.00017617    0.00021752
     atom   19 type  1   force =     0.00019583   -0.00005781    0.00000108
     atom   20 type  1   force =    -0.00035215   -0.00085156    0.00016341
     atom   21 type  2   force =     0.00009191   -0.00007226    0.10275742
     atom   22 type  2   force =     0.00007893    0.00004917    0.00019761
     atom   23 type  2   force =    -0.07213479   -0.00015903   -0.02833293
     atom   24 type  2   force =     0.07213142    0.00029821   -0.02832794
     atom   25 type  1   force =     0.00012325   -0.00019859    0.09865515
     atom   26 type  1   force =    -0.00010763   -0.00045923   -0.17382212
     atom   27 type  2   force =     0.00001175   -0.00002475   -0.02806760
     atom   28 type  2   force =     0.00011406   -0.00100055    0.04942198
     atom   29 type  2   force =    -0.01336614    0.00005496    0.00128979
     atom   30 type  2   force =     0.01482386    0.00041993   -0.00005381
     atom   31 type  1   force =    -0.00139381    0.00250506   -0.00864240
     atom   32 type  1   force =     0.00106239    0.00237549    0.04544276
     atom   33 type  2   force =    -0.00012988    0.00104418    0.00057945
     atom   34 type  2   force =    -0.00071728    0.00120292   -0.03112969
     atom   35 type  2   force =     0.00067888   -0.00050920   -0.00017130
     atom   36 type  2   force =    -0.00162703   -0.00011251    0.00007288
     atom   37 type  1   force =    -0.00018265   -0.00153463    0.00013998
     atom   38 type  1   force =     0.00077559   -0.00004571    0.00048094
     atom   39 type  2   force =     0.00032479    0.00015723   -0.00051008
     atom   40 type  2   force =    -0.00040185    0.00033051   -0.00001088
     atom   41 type  2   force =     0.00043264   -0.00058526    0.00003242
     atom   42 type  2   force =    -0.00042645   -0.00072287    0.00050808
     atom   43 type  1   force =     0.00034143   -0.00032505   -0.00057641
     atom   44 type  1   force =    -0.00038385   -0.00064007   -0.00028014
     atom   45 type  2   force =     0.00011038   -0.00006942    0.10278131
     atom   46 type  2   force =    -0.07215634   -0.00009652   -0.02832810
     atom   47 type  2   force =     0.07213996    0.00034466   -0.02830431
     atom   48 type  3   force =    -0.00194561   -0.00083341   -0.00166159
     atom   49 type  3   force =    -0.00008097   -0.00042892    0.00017157
     atom   50 type  4   force =     0.02006677   -0.00053759    0.00026452
     atom   51 type  5   force =    -0.00456103    0.00370565   -0.00121824
     atom   52 type  5   force =    -0.00258144   -0.00127487    0.00239704
     atom   53 type  5   force =    -0.01079632   -0.00119461   -0.00155600
     atom   54 type  5   force =    -0.00059930    0.00051436    0.00017218

     Total force =     0.372975     Total SCF correction =     0.000462
  @ DRIVER MODE: Message from server: STATUS
  @ DRIVER MODE: Message from server: GETFORCE
  @ DRIVER MODE: Returning v,forces,stress,ensemble

     Writing output data file ./calc.save/
  @ DRIVER MODE: Message from server: EXIT
  @ DRIVE MODE: Exiting

     General routines

     Parallel routines

   This run was terminated on:  23:26: 1  24Aug2021

   JOB DONE.