     Program PWSCF v.6.7GPU starts on 23Sep2021 at 14:57:52

     R & G space division:  proc/nbgrp/npool/nimage =       8
     Reading input from /storage/home/hcoda1/3/ntian30/research/carbon/CxH_vib/H2O_calc/ads_slab/CH2NNHHHO_a/out_0010/pw.inp
Warning: card &CELL ignored
Warning: card   CELL_DYNAMICS='IPI', ignored
Warning: card / ignored

     Current dimensions of program PWSCF are:
     Max number of different atomic species (ntypx) = 10
     Max number of k-points (npk) =  40000
     Max angular momentum in pseudopotentials (lmaxx) =  3
     Presently no symmetry can be used with electric field

     Message from routine cell_base_init:
     DEPRECATED: use true lattice parameter, not A to a.u. conversion factor

     IMPORTANT: XC functional enforced from input :
     Exchange-correlation= BEEF-VDW
                           (   1   4  43  14   2   0   0)
     Any further DFT definition will be discarded
     Please, verify this is what you really want

  @ DRIVER MODE: Connecting to
 qe_1139763_2947314.sched-torque.pace.gatech.edum23emt7m_scratch
  using UNIX socket
  @ DRIVER MODE: Message from server: STATUS
  @ DRIVER MODE: Message from server: INIT
  @ DRIVER MODE: Receiving replica           0          -1
  @ DRIVER MODE: Receiving encoded integer          25
  @ DRIVER MODE:  SCF:  T  FORCE:  T  STRESS:  F  VC:  F  ENSEMBLE:  F
  @ DRIVER MODE:  SCF:  T  FORCE:  T  STRESS:  F  VC:  F  ENSEMBLE:  F

     Using Slab Decomposition

     bravais-lattice index     =            0
     lattice parameter (alat)  =       1.8897  a.u.
     unit-cell volume          =    6658.9804 (a.u.)^3
     number of atoms/cell      =           56
     number of atomic types    =            5
     number of electrons       =       403.00
     number of Kohn-Sham states=          211
     kinetic-energy cutoff     =      29.3995  Ry
     charge density cutoff     =     293.9946  Ry
     scf convergence threshold =      7.3E-08
     mixing beta               =       0.0500
     number of iterations used =            8  plain     mixing
     Exchange-correlation= BEEF-VDW
                           (   1   4  43  14   2   0   0)

     celldm(1)=   1.889726  celldm(2)=   0.000000  celldm(3)=   0.000000
     celldm(4)=   0.000000  celldm(5)=   0.000000  celldm(6)=   0.000000

     crystal axes: (cart. coord. in units of alat)
               a(1) = (   6.579727   0.000000   0.000000 )
               a(2) = (  -0.000775   5.961596   0.000000 )
               a(3) = (   0.000000   0.000000  25.155947 )

     reciprocal axes: (cart. coord. in units 2 pi/alat)
               b(1) = (  0.151982  0.000020  0.000000 )
               b(2) = (  0.000000  0.167740  0.000000 )
               b(3) = (  0.000000  0.000000  0.039752 )

     PseudoPot. # 1 for Ti read from file:
     /storage/coda1/p-amedford6/0/shared/rich_project_chbe-medford/medford-share/data/pseudos_module/espresso/nninc/pbe/van/Ti.UPF
     MD5 check sum: 8e4df49b7f0d34bbd5052bf3f5ea0213
     Pseudo is Ultrasoft, Zval = 12.0
     Generated by new atomic code, or converted to UPF format
     Using radial grid of  851 points,  6 beta functions with:
                l(1) =   0
                l(2) =   0
                l(3) =   1
                l(4) =   1
                l(5) =   2
                l(6) =   2
     Q(r) pseudized with  8 coefficients,  rinner =    1.000   1.000   1.000
                                                       1.000   1.000

     PseudoPot. # 2 for O  read from file:
     /storage/coda1/p-amedford6/0/shared/rich_project_chbe-medford/medford-share/data/pseudos_module/espresso/nninc/pbe/van/O.UPF
     MD5 check sum: 78c19812648e8988a0fe644b0f25305e
     Pseudo is Ultrasoft, Zval =  6.0
     Generated by new atomic code, or converted to UPF format
     Using radial grid of  737 points,  4 beta functions with:
                l(1) =   0
                l(2) =   0
                l(3) =   1
                l(4) =   1
     Q(r) pseudized with  8 coefficients,  rinner =    0.800   0.800   0.800

     PseudoPot. # 3 for N  read from file:
     /storage/coda1/p-amedford6/0/shared/rich_project_chbe-medford/medford-share/data/pseudos_module/espresso/nninc/pbe/van/N.UPF
     MD5 check sum: 90d10febe142ad51ac9d5be1deb811c4
     Pseudo is Ultrasoft, Zval =  5.0
     Generated by new atomic code, or converted to UPF format
     Using radial grid of  729 points,  4 beta functions with:
                l(1) =   0
                l(2) =   0
                l(3) =   1
                l(4) =   1
     Q(r) pseudized with  8 coefficients,  rinner =    0.800   0.800   0.800

     PseudoPot. # 4 for C  read from file:
     /storage/coda1/p-amedford6/0/shared/rich_project_chbe-medford/medford-share/data/pseudos_module/espresso/nninc/pbe/van/C.UPF
     MD5 check sum: 1a69bf6b8db32088f5b2163dbdb77a27
     Pseudo is Ultrasoft, Zval =  4.0
     Generated by new atomic code, or converted to UPF format
     Using radial grid of  721 points,  4 beta functions with:
                l(1) =   0
                l(2) =   0
                l(3) =   1
                l(4) =   1
     Q(r) pseudized with  8 coefficients,  rinner =    0.800   0.800   0.800

     PseudoPot. # 5 for H  read from file:
     /storage/coda1/p-amedford6/0/shared/rich_project_chbe-medford/medford-share/data/pseudos_module/espresso/nninc/pbe/van/H.UPF
     MD5 check sum: b5ee9d7bfd3a09ee7748110bda690ff7
     Pseudo is Ultrasoft, Zval =  1.0
     Generated by new atomic code, or converted to UPF format
     Using radial grid of  615 points,  1 beta functions with:
                l(1) =   0
     Q(r) pseudized with  8 coefficients,  rinner =    0.800

     atomic species   valence    mass     pseudopotential
        Ti1           12.00    47.86700     Ti( 1.00)
        O1             6.00    15.99900     O ( 1.00)
        N1             5.00    14.00700     N ( 1.00)
        C1             4.00    12.01100     C ( 1.00)
        H1             1.00     1.00800     H ( 1.00)

     No symmetry found

   Cartesian axes

     site n.     atom                  positions (alat units)
         1           Ti1 tau(   1) = (   0.0004258   2.9801865   6.0000000  )
         2           Ti1 tau(   2) = (   3.2906075   1.4906267   6.0002472  )
         3           O1  tau(   3) = (   0.0006271   0.0005054   7.9858123  )
         4           O1  tau(   4) = (   3.2906025   0.0005020   7.3038282  )
         5           O1  tau(   5) = (   4.5942328   1.4918067   9.2879030  )
         6           O1  tau(   6) = (   1.9868534   1.4903216   9.2879459  )
         7           Ti1 tau(   7) = (   3.2907910   2.8959150   9.1758416  )
         8           Ti1 tau(   8) = (   0.0015273   1.4827037   9.2680791  )
         9           O1  tau(   9) = (   3.2834828   5.9254549  11.3560997  )
        10           O1  tau(  10) = (   0.0116148   5.9584955  10.6183126  )
        11           O1  tau(  11) = (   1.2632982   1.4794151  12.6467768  )
        12           O1  tau(  12) = (   5.2979234   1.4912170  12.6376735  )
        13           Ti1 tau(  13) = (   6.5593102   2.9584919  12.5255918  )
        14           Ti1 tau(  14) = (   3.2941082   1.2876829  12.7086691  )
        15           O1  tau(  15) = (   6.5459232   0.0848410  14.6672212  )
        16           O1  tau(  16) = (   3.2899079   0.0686032  13.9983899  )
        17           O1  tau(  17) = (   4.5347701   1.5447734  16.1667714  )
        18           O1  tau(  18) = (   1.9898569   1.5359154  16.1924900  )
        19           Ti1 tau(  19) = (   3.2532585   2.9792413  15.6887139  )
        20           Ti1 tau(  20) = (   6.5162390   1.4193964  16.0443711  )
        21           O1  tau(  21) = (   3.2904802   0.0005063   4.7018136  )
        22           O1  tau(  22) = (   6.5314393   5.8470953  17.1670503  )
        23           O1  tau(  23) = (   1.3043587   1.4918075   6.0039043  )
        24           O1  tau(  24) = (   5.2767064   1.4903225   6.0039473  )
        25           Ti1 tau(  25) = (   0.0000382   5.9609847   6.0000000  )
        26           Ti1 tau(  26) = (   3.2902200   4.4714249   6.0002472  )
        27           O1  tau(  27) = (   0.0002396   2.9813036   7.9858123  )
        28           O1  tau(  28) = (   3.2902150   2.9813002   7.3038282  )
        29           O1  tau(  29) = (   4.5938453   4.4726049   9.2879030  )
        30           O1  tau(  30) = (   1.9864658   4.4711199   9.2879459  )
        31           Ti1 tau(  31) = (   3.2891106   5.8743827   9.1763621  )
        32           Ti1 tau(  32) = (   0.0006254   4.4649316   9.2693709  )
        33           O1  tau(  33) = (   3.2801501   3.0037454  11.3162440  )
        34           O1  tau(  34) = (   0.0092240   2.9805883  10.6323155  )
        35           O1  tau(  35) = (   1.2628463   4.4620516  12.6871769  )
        36           O1  tau(  36) = (   5.2965349   4.4479299  12.6783795  )
        37           Ti1 tau(  37) = (   0.0245004   5.9521619  12.5031165  )
        38           Ti1 tau(  38) = (   3.2934334   4.3725749  12.4478892  )
        39           O1  tau(  39) = (   0.0012172   2.9324930  14.9038371  )
        40           O1  tau(  40) = (   3.2612729   2.9642313  13.9201381  )
        41           O1  tau(  41) = (   4.5459169   4.3864222  16.0774642  )
        42           O1  tau(  42) = (   2.0085495   4.4473877  16.1057765  )
        43           Ti1 tau(  43) = (   3.2275989   5.9528725  16.3079466  )
        44           Ti1 tau(  44) = (   6.5418721   4.6299905  15.7990834  )
        45           O1  tau(  45) = (   3.2900926   2.9813045   4.7018136  )
        46           O1  tau(  46) = (   1.3039711   4.4726057   6.0039043  )
        47           O1  tau(  47) = (   5.2763189   4.4711207   6.0039473  )
        48           N1  tau(  48) = (   6.5153795   2.7269917  18.1720481  )
        49           C1  tau(  49) = (   0.9714328   2.6452729  18.9176740  )
        50           H1  tau(  50) = (   0.9613011   2.9697384  19.9541300  )
        51           H1  tau(  51) = (   1.8619620   2.1844435  18.5121220  )
        52           N1  tau(  52) = (   5.3313596   3.1722530  18.7397816  )
        53           H1  tau(  53) = (   5.4931776   3.7097374  19.5894643  )
        54           H1  tau(  54) = (   4.8256156   3.7472006  18.0707398  )
        55           O1  tau(  55) = (   3.3867674   5.8992794  18.1610867  )
        56           H1  tau(  56) = (   4.0349165   0.5560778  18.5374839  )

     number of k points=    10  Fermi-Dirac smearing, width (Ry)=  0.0073
                       cart. coord. in units 2pi/alat
        k(    1) = (   0.0000000   0.0000000   0.0000000), wk =   0.1250000
        k(    2) = (   0.0000000   0.0419351   0.0000000), wk =   0.2500000
        k(    3) = (   0.0000000  -0.0838702   0.0000000), wk =   0.1250000
        k(    4) = (   0.0379955   0.0000049   0.0000000), wk =   0.2500000
        k(    5) = (   0.0379955   0.0419400   0.0000000), wk =   0.2500000
        k(    6) = (   0.0379955  -0.0838652   0.0000000), wk =   0.2500000
        k(    7) = (   0.0379955  -0.0419301   0.0000000), wk =   0.2500000
        k(    8) = (  -0.0759910  -0.0000099   0.0000000), wk =   0.1250000
        k(    9) = (  -0.0759910   0.0419252   0.0000000), wk =   0.2500000
        k(   10) = (  -0.0759910  -0.0838800   0.0000000), wk =   0.1250000

     Initial potential from superposition of free atoms

     starting charge  386.99914, renormalised to  403.00000

     negative rho (up, down):  1.547E-02 0.000E+00

     %%%%%%%%%%%%%%%%%%%%%%%%%%%%%%%%%%%%%%%%%%%%%%%%%%%%%%%%%%%%%%%%%%%%%%%%
     %                                                                      %
     % You are using vdW-DF, which was implemented by the Thonhauser group. %
     % Please cite the following two papers that made this development      %
     % possible and the two reviews that describe the various versions:     %
     %                                                                      %
     %   T. Thonhauser et al., PRL 115, 136402 (2015).                      %
     %   T. Thonhauser et al., PRB 76, 125112 (2007).                       %
     %   K. Berland et al., Rep. Prog. Phys. 78, 066501 (2015).             %
     %   D.C. Langreth et al., J. Phys.: Condens. Matter 21, 084203 (2009). %
     %                                                                      %
     %                                                                      %
     % If you are calculating the stress with vdW-DF, please also cite:     %
     %                                                                      %
     %   R. Sabatini et al., J. Phys.: Condens. Matter 24, 424209 (2012).   %
     %                                                                      %
     %%%%%%%%%%%%%%%%%%%%%%%%%%%%%%%%%%%%%%%%%%%%%%%%%%%%%%%%%%%%%%%%%%%%%%%%

     Adding external electric field

     Computed dipole along edir(3) :
        Dipole              -13.0228 Ry au,        -33.1008 Debye
        Dipole field         -0.0246 Ry au,

        Potential amp.        2.2781 Ry
        Total length         46.3494 bohr

     Starting wfcs are  305 atomic wfcs
  @ DRIVER MODE: Message from server: STATUS
  @ DRIVER MODE: Message from server: POSDATA
  @ DRIVER MODE: Reading and sharing cell
  @ DRIVER MODE: Reading and sharing positions
  @ DRIVER MODE: Received positions

     Self-consistent Calculation

     iteration #  1     ecut=    29.40 Ry     beta= 0.05
     Davidson diagonalization with overlap
     c_bands:  3 eigenvalues not converged
     c_bands:  5 eigenvalues not converged
     c_bands:  3 eigenvalues not converged
     c_bands:  5 eigenvalues not converged
     c_bands:  1 eigenvalues not converged
     c_bands:  5 eigenvalues not converged
     c_bands:  2 eigenvalues not converged
     c_bands:  3 eigenvalues not converged
     ethr =  1.00E-05,  avg # of iterations = 26.8

[...]

     total energy              =   -2311.54950430 Ry
     estimated scf accuracy    <    7504.64061259 Ry

     iteration #  2     ecut=    29.40 Ry     beta= 0.05
     Davidson diagonalization with overlap
     ethr =  1.00E-02,  avg # of iterations = 25.1

[...]

     iteration # 73     ecut=    29.40 Ry     beta= 0.05
     Davidson diagonalization with overlap
     c_bands:  1 eigenvalues not converged
     ethr =  9.38E-09,  avg # of iterations = 15.9

[...]

     total energy              =   -2974.00149542 Ry
     estimated scf accuracy    <       0.00000009 Ry

     iteration # 84     ecut=    29.40 Ry     beta= 0.05
     Davidson diagonalization with overlap
     ethr =  2.25E-11,  avg # of iterations = 12.4

     negative rho (up, down):  1.592E-02 0.000E+00

     Adding external electric field

     Computed dipole along edir(3) :
        Dipole                1.0903 Ry au,          2.7711 Debye
        Dipole field          0.0021 Ry au,

        Potential amp.       -0.1907 Ry
        Total length         46.3494 bohr

     End of self-consistent calculation

          k = 0.0000 0.0000 0.0000 ( 18029 PWs)   bands (ev):

   -55.5952 -55.5298 -55.4957 -55.3786 -55.3729 -55.3562 -55.3423 -55.3296
   -55.3224 -55.2944 -55.2467 -55.1467 -55.1314 -55.0545 -54.4981 -54.4640
   -32.0142 -31.9322 -31.8969 -31.8639 -31.8592 -31.8244 -31.8207 -31.8066
   -31.7792 -31.7756 -31.7563 -31.6823 -31.6556 -31.6478 -31.6361 -31.6324
   -31.6206 -31.6108 -31.5873 -31.5871 -31.5804 -31.5528 -31.5422 -31.5369
   -31.5192 -31.5148 -31.5102 -31.4962 -31.4866 -31.4839 -31.4757 -31.4666
   -31.4665 -31.4430 -31.4207 -31.4020 -31.3437 -31.3356 -31.3027 -31.2929
   -31.2731 -31.2608 -30.9036 -30.8182 -30.7957 -30.7213 -30.6350 -30.5231
   -18.3870 -16.4378 -16.1663 -15.9992 -15.7866 -15.7066 -15.6679 -15.4749
   -15.3825 -15.3211 -15.0919 -15.0689 -15.0640 -15.0385 -15.0282 -15.0128
   -14.9957 -14.9562 -14.9477 -14.9390 -14.9153 -14.9007 -14.8686 -14.8167
   -14.7738 -14.7577 -14.6632 -14.5945 -14.5478 -14.3132 -14.2149 -13.4972
   -12.9962 -12.8799  -8.5585  -6.2596  -5.8632  -4.0409  -3.8425  -3.5281
    -3.4329  -3.4114  -3.3507  -3.2874  -3.0459  -2.9695  -2.8826  -2.8326
    -2.7605  -2.6453  -2.5963  -2.5260  -2.4549  -2.4455  -2.3982  -2.3692
    -2.3078  -2.2941  -2.2582  -2.2512  -2.1810  -2.1612  -2.0607  -2.0482
    -2.0337  -1.8991  -1.8855  -1.8433  -1.8354  -1.8352  -1.7966  -1.7778
    -1.7619  -1.7455  -1.6402  -1.6017  -1.5809  -1.5095  -1.4773  -1.1612
    -1.1289  -1.0904  -1.0664  -1.0149  -0.9633  -0.9402  -0.9177  -0.8528
    -0.8152  -0.7648  -0.7343  -0.6990  -0.6180  -0.5820  -0.5401  -0.4568
    -0.3826  -0.3079  -0.3028  -0.2583  -0.2303  -0.2041  -0.1056  -0.0801
    -0.0670   0.0322   0.0527   0.1280   0.1682   0.2116   0.2502   0.2979
     0.3629   0.3801   0.4057   0.4418   0.4491   0.5047   0.5249   0.5836
     0.6366   0.6515   0.7497   0.8075   0.8220   0.8408   0.9490   1.0264
     1.1464   1.1546   1.2555   1.4808   1.5288   1.5729   1.7221   2.0950
     2.1401   3.5569   3.7057   3.7223   3.7664   3.8135   3.8978   4.0438
     4.1064   4.2443   4.2477

[...]

          k = 0.0380-0.0419 0.0000 ( 17876 PWs)   bands (ev):

[...]

          k =-0.0760-0.0000 0.0000 ( 17886 PWs)   bands (ev):

[...]

          k =-0.0760-0.0839 0.0000 ( 17948 PWs)   bands (ev):

   -55.5944 -55.5129 -55.5125 -55.3716 -55.3653 -55.3554 -55.3394 -55.3389
   -55.3302 -55.2874 -55.2537 -55.1437 -55.1326 -55.0574 -54.4814 -54.4806
   -31.8778 -31.8296 -31.8294 -31.8274 -31.8156 -31.8064 -31.8060 -31.7993
   -31.7314 -31.6843 -31.6755 -31.6652 -31.6602 -31.6329 -31.6328 -31.6309
   -31.6286 -31.6144 -31.6118 -31.5969 -31.5849 -31.5753 -31.5657 -31.5549
   -31.5461 -31.5424 -31.5332 -31.5327 -31.5172 -31.5120 -31.5093 -31.5055
   -31.5050 -31.4769 -31.4729 -31.4145 -31.3957 -31.3724 -31.3462 -31.3393
   -31.3092 -31.2647 -30.8087 -30.8082 -30.7171 -30.7160 -30.6785 -30.6778
   -18.3841 -16.4223 -15.7476 -15.6218 -15.4967 -15.4923 -15.3716 -15.2942
   -15.2766 -15.2477 -15.2361 -15.2017 -15.1843 -15.1482 -15.1165 -15.0860
   -15.0460 -15.0252 -15.0116 -14.9725 -14.9617 -14.9445 -14.9349 -14.9119
   -14.8704 -14.8352 -14.8243 -14.6806 -14.6257 -14.5790 -14.4397 -13.5062
   -12.9819 -12.9816  -8.5352  -6.2258  -5.8820  -3.9905  -3.9190  -2.9780
    -2.9171  -2.8158  -2.7129  -2.6176  -2.5639  -2.5284  -2.4907  -2.4463
    -2.4240  -2.3740  -2.3329  -2.3128  -2.3042  -2.2715  -2.2627  -2.2475
    -2.2276  -2.2125  -2.1975  -2.1873  -2.1592  -2.1420  -2.1411  -2.1074
    -2.0962  -2.0687  -2.0605  -2.0077  -1.9105  -1.8810  -1.7881  -1.6882
    -1.6804  -1.6673  -1.6434  -1.6061  -1.5949  -1.5696  -1.5325  -1.4731
    -1.4643  -1.2999  -1.2462  -1.2180  -1.1426  -1.0868  -1.0562  -1.0288
    -0.9854  -0.9607  -0.8872  -0.8573  -0.7620  -0.7069  -0.6802  -0.6237
    -0.5447  -0.4804  -0.4718  -0.4661  -0.4386  -0.4160  -0.3901  -0.3602
    -0.3351  -0.2648  -0.2271  -0.2083  -0.1985  -0.1433  -0.0973   0.0054
     0.1319   0.2407   0.2571   0.2879   0.3266   0.4774   0.5214   0.5827
     0.6302   0.6613   0.6917   0.7850   0.7963   0.8796   0.9045   0.9424
     0.9871   1.0121   1.0444   1.0739   1.0828   1.8923   1.8996   1.9604
     1.9607   3.7750   4.0532   4.0782   4.0863   4.1045   4.1243   4.1394
     4.1591   4.2294   4.2344

     the Fermi energy is     3.5924 ev

!    total energy              =   -2974.00151587 Ry
     estimated scf accuracy    <       0.00000005 Ry
     smearing contrib. (-TS)   =      -0.01962405 Ry
     internal energy E=F+TS    =   -2973.98189181 Ry

     The total energy is F=E-TS. E is the sum of the following terms:
     one-electron contribution =  -23472.03987188 Ry
     hartree contribution      =   11831.44536587 Ry
     xc contribution           =    -494.06526544 Ry
     ewald contribution        =    9160.67563649 Ry
     electric field correction =       0.00224314 Ry

     convergence has been achieved in  84 iterations

     Forces acting on atoms (cartesian axes, Ry/au):

     atom    1 type  1   force =     0.00012766   -0.00019079    0.09456807
     atom    2 type  1   force =    -0.00003699    0.00034381   -0.17511600
     atom    3 type  2   force =    -0.00002576   -0.00002684   -0.02136529
     atom    4 type  2   force =     0.00001483   -0.00189316    0.05324467
     atom    5 type  2   force =    -0.00695460   -0.00239527    0.00356831
     atom    6 type  2   force =     0.00806350   -0.00193045    0.00204693
     atom    7 type  1   force =    -0.00069961   -0.00278200    0.01004756
     atom    8 type  1   force =     0.00060382    0.00276301    0.00501429
     atom    9 type  2   force =     0.00003299   -0.00046261    0.00021886
     atom   10 type  2   force =    -0.00253703   -0.00140629   -0.01077736
     atom   11 type  2   force =     0.00128840   -0.00017337    0.00055152
     atom   12 type  2   force =    -0.00082039   -0.00022363    0.00065924
     atom   13 type  1   force =    -0.00094999   -0.00095835    0.00045661
     atom   14 type  1   force =     0.00031732    0.00032529    0.00008507
     atom   15 type  2   force =     0.00011444    0.00028741   -0.00038873
     atom   16 type  2   force =    -0.00045752    0.00020067    0.00009659
     atom   17 type  2   force =    -0.00013170    0.00030138    0.00016352
     atom   18 type  2   force =     0.00095267   -0.00018806   -0.00031271
     atom   19 type  1   force =     0.00115987    0.00063681    0.00011067
     atom   20 type  1   force =    -0.00067493   -0.00003599    0.00000816
     atom   21 type  2   force =     0.00006254    0.00009639    0.10309150
     atom   22 type  2   force =     0.00058538    0.00077986    0.00054778
     atom   23 type  2   force =    -0.07213318   -0.00013361   -0.02734799
     atom   24 type  2   force =     0.07201840    0.00029788   -0.02735054
     atom   25 type  1   force =     0.00002803   -0.00015190    0.09405618
     atom   26 type  1   force =    -0.00015340   -0.00110019   -0.17521903
     atom   27 type  2   force =     0.00012171   -0.00024823   -0.02015089
     atom   28 type  2   force =    -0.00000261   -0.00026717    0.04931707
     atom   29 type  2   force =    -0.00565286    0.00192665    0.00158638
     atom   30 type  2   force =     0.00667955    0.00249949   -0.00001131
     atom   31 type  1   force =    -0.00072125    0.00676752   -0.00108008
     atom   32 type  1   force =     0.00050363   -0.00384867    0.00433843
     atom   33 type  2   force =     0.00016148   -0.00010737   -0.00082383
     atom   34 type  2   force =    -0.00187236    0.00170052   -0.01046005
     atom   35 type  2   force =     0.00117703    0.00029155   -0.00017076
     atom   36 type  2   force =    -0.00056788    0.00043079   -0.00025662
     atom   37 type  1   force =    -0.00064591    0.00044584   -0.00025750
     atom   38 type  1   force =     0.00055539    0.00013718    0.00011229
     atom   39 type  2   force =     0.00032858   -0.00038215    0.00042638
     atom   40 type  2   force =     0.00020392    0.00013636   -0.00036258
     atom   41 type  2   force =     0.00007383   -0.00012516   -0.00105619
     atom   42 type  2   force =     0.00035802   -0.00032848    0.00034498
     atom   43 type  1   force =     0.00010301   -0.00076029    0.00043962
     atom   44 type  1   force =    -0.00047460   -0.00009782    0.00009158
     atom   45 type  2   force =     0.00007627   -0.00006920    0.10287522
     atom   46 type  2   force =    -0.07217277   -0.00002685   -0.02734722
     atom   47 type  2   force =     0.07209440    0.00040859   -0.02738474
     atom   48 type  3   force =    -0.00077197    0.00233508    0.00005948
     atom   49 type  4   force =     0.00684268   -0.00847353   -0.00535123
     atom   50 type  5   force =    -0.00054462    0.00219270    0.00290090
     atom   51 type  5   force =    -0.00404226    0.00336952    0.00218334
     atom   52 type  3   force =    -0.00152542   -0.00050358   -0.00000694
     atom   53 type  5   force =     0.00003436   -0.00004824    0.00007857
     atom   54 type  5   force =    -0.00026110    0.00023414   -0.00054432
     atom   55 type  2   force =    -0.00020455    0.00091045    0.00006018
     atom   56 type  5   force =     0.00035158   -0.00047970   -0.00020808

     Total force =     0.362226     Total SCF correction =     0.000449
  @ DRIVER MODE: Message from server: STATUS
  @ DRIVER MODE: Message from server: GETFORCE
  @ DRIVER MODE: Returning v,forces,stress,ensemble

     Writing output data file ./calc.save/
  @ DRIVER MODE: Message from server: EXIT
  @ DRIVE MODE: Exiting

     General routines

     Parallel routines

   This run was terminated on:  15:27:50  23Sep2021

   JOB DONE.