     Program PWSCF v.6.7GPU starts on 24Aug2021 at  5: 9:37

     R & G space division:  proc/nbgrp/npool/nimage =       6
     Reading input from /storage/home/hcoda1/3/ntian30/research/carbon/CH_vib/ads_slab/CHNNHHH_a/out_0031/pw.inp
Warning: card &CELL ignored
Warning: card   CELL_DYNAMICS='IPI', ignored
Warning: card / ignored

     Current dimensions of program PWSCF are:
     Max number of different atomic species (ntypx) = 10
     Max number of k-points (npk) =  40000
     Max angular momentum in pseudopotentials (lmaxx) =  3
     Presently no symmetry can be used with electric field

     Message from routine cell_base_init:
     DEPRECATED: use true lattice parameter, not A to a.u. conversion factor

     IMPORTANT: XC functional enforced from input :
     Exchange-correlation= BEEF-VDW
                           (   1   4  43  14   2   0   0)
     Any further DFT definition will be discarded
     Please, verify this is what you really want

  @ DRIVER MODE: Connecting to
 qe_1139763_2632795.sched-torque.pace.gatech.edumtevvi91_scratch
  using UNIX socket
  @ DRIVER MODE: Message from server: STATUS
  @ DRIVER MODE: Message from server: INIT
  @ DRIVER MODE: Receiving replica           0          -1
  @ DRIVER MODE: Receiving encoded integer          25
  @ DRIVER MODE:  SCF:  T  FORCE:  T  STRESS:  F  VC:  F  ENSEMBLE:  F
  @ DRIVER MODE:  SCF:  T  FORCE:  T  STRESS:  F  VC:  F  ENSEMBLE:  F

     Using Slab Decomposition

     bravais-lattice index     =            0
     lattice parameter (alat)  =       1.8897  a.u.
     unit-cell volume          =    6658.9804 (a.u.)^3
     number of atoms/cell      =           54
     number of atomic types    =            5
     number of electrons       =       396.00
     number of Kohn-Sham states=          208
     kinetic-energy cutoff     =      29.3995  Ry
     charge density cutoff     =     293.9946  Ry
     scf convergence threshold =      7.3E-08
     mixing beta               =       0.0500
     number of iterations used =            8  plain     mixing
     Exchange-correlation= BEEF-VDW
                           (   1   4  43  14   2   0   0)

     celldm(1)=   1.889726  celldm(2)=   0.000000  celldm(3)=   0.000000
     celldm(4)=   0.000000  celldm(5)=   0.000000  celldm(6)=   0.000000

     crystal axes: (cart. coord. in units of alat)
               a(1) = (   6.579727   0.000000   0.000000 )
               a(2) = (  -0.000775   5.961596   0.000000 )
               a(3) = (   0.000000   0.000000  25.155947 )

     reciprocal axes: (cart. coord. in units 2 pi/alat)
               b(1) = (  0.151982  0.000020  0.000000 )
               b(2) = (  0.000000  0.167740  0.000000 )
               b(3) = (  0.000000  0.000000  0.039752 )

     PseudoPot. # 1 for Ti read from file:
     /storage/coda1/p-amedford6/0/shared/rich_project_chbe-medford/medford-share/data/pseudos_module/espresso/nninc/pbe/van/Ti.UPF
     MD5 check sum: 8e4df49b7f0d34bbd5052bf3f5ea0213
     Pseudo is Ultrasoft, Zval = 12.0
     Generated by new atomic code, or converted to UPF format
     Using radial grid of  851 points,  6 beta functions with:
                l(1) =   0
                l(2) =   0
                l(3) =   1
                l(4) =   1
                l(5) =   2
                l(6) =   2
     Q(r) pseudized with  8 coefficients,  rinner =    1.000   1.000   1.000
                                                       1.000   1.000

     PseudoPot. # 2 for O  read from file:
     /storage/coda1/p-amedford6/0/shared/rich_project_chbe-medford/medford-share/data/pseudos_module/espresso/nninc/pbe/van/O.UPF
     MD5 check sum: 78c19812648e8988a0fe644b0f25305e
     Pseudo is Ultrasoft, Zval =  6.0
     Generated by new atomic code, or converted to UPF format
     Using radial grid of  737 points,  4 beta functions with:
                l(1) =   0
                l(2) =   0
                l(3) =   1
                l(4) =   1
     Q(r) pseudized with  8 coefficients,  rinner =    0.800   0.800   0.800

     PseudoPot. # 3 for N  read from file:
     /storage/coda1/p-amedford6/0/shared/rich_project_chbe-medford/medford-share/data/pseudos_module/espresso/nninc/pbe/van/N.UPF
     MD5 check sum: 90d10febe142ad51ac9d5be1deb811c4
     Pseudo is Ultrasoft, Zval =  5.0
     Generated by new atomic code, or converted to UPF format
     Using radial grid of  729 points,  4 beta functions with:
                l(1) =   0
                l(2) =   0
                l(3) =   1
                l(4) =   1
     Q(r) pseudized with  8 coefficients,  rinner =    0.800   0.800   0.800

     PseudoPot. # 4 for C  read from file:
     /storage/coda1/p-amedford6/0/shared/rich_project_chbe-medford/medford-share/data/pseudos_module/espresso/nninc/pbe/van/C.UPF
     MD5 check sum: 1a69bf6b8db32088f5b2163dbdb77a27
     Pseudo is Ultrasoft, Zval =  4.0
     Generated by new atomic code, or converted to UPF format
     Using radial grid of  721 points,  4 beta functions with:
                l(1) =   0
                l(2) =   0
                l(3) =   1
                l(4) =   1
     Q(r) pseudized with  8 coefficients,  rinner =    0.800   0.800   0.800

     PseudoPot. # 5 for H  read from file:
     /storage/coda1/p-amedford6/0/shared/rich_project_chbe-medford/medford-share/data/pseudos_module/espresso/nninc/pbe/van/H.UPF
     MD5 check sum: b5ee9d7bfd3a09ee7748110bda690ff7
     Pseudo is Ultrasoft, Zval =  1.0
     Generated by new atomic code, or converted to UPF format
     Using radial grid of  615 points,  1 beta functions with:
                l(1) =   0
     Q(r) pseudized with  8 coefficients,  rinner =    0.800

     atomic species   valence    mass     pseudopotential
        Ti1           12.00    47.86700     Ti( 1.00)
        O1             6.00    15.99900     O ( 1.00)
        N1             5.00    14.00700     N ( 1.00)
        C1             4.00    12.01100     C ( 1.00)
        H1             1.00     1.00800     H ( 1.00)

     No symmetry found

   Cartesian axes

     site n.     atom                  positions (alat units)
         1           Ti1 tau(   1) = (   0.0004258   2.9801865   6.0000000  )
         2           Ti1 tau(   2) = (   3.2906075   1.4906267   6.0002472  )
         3           O1  tau(   3) = (   0.0006271   0.0005054   7.9858123  )
         4           O1  tau(   4) = (   3.2906025   0.0005020   7.3038282  )
         5           O1  tau(   5) = (   4.5942328   1.4918067   9.2879030  )
         6           O1  tau(   6) = (   1.9868534   1.4903216   9.2879459  )
         7           Ti1 tau(   7) = (   3.2907910   2.8959150   9.1758416  )
         8           Ti1 tau(   8) = (   0.0015273   1.4827037   9.2680791  )
         9           O1  tau(   9) = (   3.3116888   5.9365513  11.3741315  )
        10           O1  tau(  10) = (   0.0116148   5.9584955  10.6183126  )
        11           O1  tau(  11) = (   1.3152863   1.4773744  12.6583839  )
        12           O1  tau(  12) = (   5.3185463   1.4781915  12.6604289  )
        13           Ti1 tau(  13) = (   0.0312267   2.9553392  12.5172039  )
        14           Ti1 tau(  14) = (   3.3247105   1.4628205  12.5237724  )
        15           O1  tau(  15) = (   0.0176705   0.0150782  14.7085838  )
        16           O1  tau(  16) = (   3.3263678   5.9469243  13.9928752  )
        17           O1  tau(  17) = (   4.5829619   1.4750097  16.2211409  )
        18           O1  tau(  18) = (   2.0801478   1.4636096  16.1819230  )
        19           Ti1 tau(  19) = (   3.3264833   2.9461821  15.7545810  )
        20           Ti1 tau(  20) = (   0.0064452   1.3478264  16.0581623  )
        21           O1  tau(  21) = (   3.2904802   0.0005063   4.7018136  )
        22           O1  tau(  22) = (   0.0393124   5.8647722  17.2449945  )
        23           O1  tau(  23) = (   1.3043587   1.4918075   6.0039043  )
        24           O1  tau(  24) = (   5.2767064   1.4903225   6.0039473  )
        25           Ti1 tau(  25) = (   0.0000382   5.9609847   6.0000000  )
        26           Ti1 tau(  26) = (   3.2902200   4.4714249   6.0002472  )
        27           O1  tau(  27) = (   0.0002396   2.9813036   7.9858123  )
        28           O1  tau(  28) = (   3.2902150   2.9813002   7.3038282  )
        29           O1  tau(  29) = (   4.5938453   4.4726049   9.2879030  )
        30           O1  tau(  30) = (   1.9864658   4.4711199   9.2879459  )
        31           Ti1 tau(  31) = (   3.2891106   5.8743827   9.1763621  )
        32           Ti1 tau(  32) = (   0.0006254   4.4649316   9.2693709  )
        33           O1  tau(  33) = (   3.3126387   2.9639063  11.3704323  )
        34           O1  tau(  34) = (   0.0092240   2.9805883  10.6323155  )
        35           O1  tau(  35) = (   1.3140505   4.4512041  12.6779488  )
        36           O1  tau(  36) = (   5.3186431   4.4503656  12.6784002  )
        37           Ti1 tau(  37) = (   0.0306983   5.9434578  12.5012515  )
        38           Ti1 tau(  38) = (   3.3249252   4.4426326  12.5284913  )
        39           O1  tau(  39) = (   0.0332616   2.9308952  14.9693926  )
        40           O1  tau(  40) = (   3.3269026   2.9510973  13.9662216  )
        41           O1  tau(  41) = (   4.5816979   4.4256876  16.1885362  )
        42           O1  tau(  42) = (   2.0739833   4.4348339  16.1471384  )
        43           Ti1 tau(  43) = (   3.3139036   5.9323143  15.7909994  )
        44           Ti1 tau(  44) = (   0.0257917   4.5791344  15.8913375  )
        45           O1  tau(  45) = (   3.2900926   2.9813045   4.7018136  )
        46           O1  tau(  46) = (   1.3039711   4.4726057   6.0039043  )
        47           O1  tau(  47) = (   5.2763189   4.4711207   6.0039473  )
        48           N1  tau(  48) = (   0.2611162   2.7486399  18.0384573  )
        49           C1  tau(  49) = (   1.0666652   3.1333113  18.7681872  )
        50           H1  tau(  50) = (   1.9496291   3.4674532  19.3170853  )
        51           N1  tau(  51) = (   3.9312863   3.7371558  19.5917579  )
        52           H1  tau(  52) = (   4.2637485   4.0673035  20.4913501  )
        53           H1  tau(  53) = (   4.2924207   4.3757745  18.8906580  )
        54           H1  tau(  54) = (   4.4024832   2.8518033  19.4177320  )

     number of k points=    10  Fermi-Dirac smearing, width (Ry)=  0.0073
                       cart. coord. in units 2pi/alat
        k(    1) = (   0.0000000   0.0000000   0.0000000), wk =   0.1250000
        k(    2) = (   0.0000000   0.0419351   0.0000000), wk =   0.2500000
        k(    3) = (   0.0000000  -0.0838702   0.0000000), wk =   0.1250000
        k(    4) = (   0.0379955   0.0000049   0.0000000), wk =   0.2500000
        k(    5) = (   0.0379955   0.0419400   0.0000000), wk =   0.2500000
        k(    6) = (   0.0379955  -0.0838652   0.0000000), wk =   0.2500000
        k(    7) = (   0.0379955  -0.0419301   0.0000000), wk =   0.2500000
        k(    8) = (  -0.0759910  -0.0000099   0.0000000), wk =   0.1250000
        k(    9) = (  -0.0759910   0.0419252   0.0000000), wk =   0.2500000
        k(   10) = (  -0.0759910  -0.0838800   0.0000000), wk =   0.1250000

     Initial potential from superposition of free atoms

     starting charge  379.99915, renormalised to  396.00000

     negative rho (up, down):  1.480E-02 0.000E+00

     %%%%%%%%%%%%%%%%%%%%%%%%%%%%%%%%%%%%%%%%%%%%%%%%%%%%%%%%%%%%%%%%%%%%%%%%
     %                                                                      %
     % You are using vdW-DF, which was implemented by the Thonhauser group. %
     % Please cite the following two papers that made this development      %
     % possible and the two reviews that describe the various versions:     %
     %                                                                      %
     %   T. Thonhauser et al., PRL 115, 136402 (2015).                      %
     %   T. Thonhauser et al., PRB 76, 125112 (2007).                       %
     %   K. Berland et al., Rep. Prog. Phys. 78, 066501 (2015).             %
     %   D.C. Langreth et al., J. Phys.: Condens. Matter 21, 084203 (2009). %
     %                                                                      %
     %                                                                      %
     % If you are calculating the stress with vdW-DF, please also cite:     %
     %                                                                      %
     %   R. Sabatini et al., J. Phys.: Condens. Matter 24, 424209 (2012).   %
     %                                                                      %
     %%%%%%%%%%%%%%%%%%%%%%%%%%%%%%%%%%%%%%%%%%%%%%%%%%%%%%%%%%%%%%%%%%%%%%%%

     Adding external electric field

     Computed dipole along edir(3) :
        Dipole              -10.3171 Ry au,        -26.2235 Debye
        Dipole field         -0.0195 Ry au,

        Potential amp.        1.8048 Ry
        Total length         46.3494 bohr

     Starting wfcs are  300 atomic wfcs
  @ DRIVER MODE: Message from server: STATUS
  @ DRIVER MODE: Message from server: POSDATA
  @ DRIVER MODE: Reading and sharing cell
  @ DRIVER MODE: Reading and sharing positions
  @ DRIVER MODE: Received positions

     Self-consistent Calculation

     iteration #  1     ecut=    29.40 Ry     beta= 0.05
     Davidson diagonalization with overlap
     c_bands:  1 eigenvalues not converged
     c_bands:  2 eigenvalues not converged
     c_bands:  2 eigenvalues not converged
     c_bands:  1 eigenvalues not converged
     c_bands:  3 eigenvalues not converged
     c_bands:  2 eigenvalues not converged
     c_bands:  3 eigenvalues not converged
     c_bands:  2 eigenvalues not converged
     c_bands:  2 eigenvalues not converged
     c_bands:  2 eigenvalues not converged
     ethr =  1.00E-05,  avg # of iterations = 20.0

[...]

     total energy              =   -2525.78665928 Ry
     estimated scf accuracy    <    4641.06893160 Ry

     iteration #  2     ecut=    29.40 Ry     beta= 0.05
     Davidson diagonalization with overlap
     ethr =  1.00E-02,  avg # of iterations = 23.5

[...]

     iteration # 72     ecut=    29.40 Ry     beta= 0.05
     Davidson diagonalization with overlap
     c_bands:  1 eigenvalues not converged
     ethr =  2.40E-11,  avg # of iterations = 13.4

[...]

     total energy              =   -2940.41308655 Ry
     estimated scf accuracy    <       0.00000012 Ry

     iteration # 73     ecut=    29.40 Ry     beta= 0.05
     Davidson diagonalization with overlap
     ethr =  2.40E-11,  avg # of iterations =  4.1

     negative rho (up, down):  1.579E-02 0.000E+00

     Adding external electric field

     Computed dipole along edir(3) :
        Dipole                1.4885 Ry au,          3.7833 Debye
        Dipole field          0.0028 Ry au,

        Potential amp.       -0.2604 Ry
        Total length         46.3494 bohr

     End of self-consistent calculation

          k = 0.0000 0.0000 0.0000 ( 18029 PWs)   bands (ev):

   -55.2553 -55.2194 -55.2068 -55.1727 -55.1326 -55.1243 -55.1004 -55.0973
   -55.0730 -55.0535 -55.0387 -55.0357 -55.0021 -54.9853 -54.2349 -54.2009
   -31.8239 -31.7035 -31.6992 -31.6203 -31.5646 -31.5626 -31.5539 -31.5411
   -31.4957 -31.4831 -31.4641 -31.4607 -31.4513 -31.4265 -31.4105 -31.4060
   -31.3917 -31.3800 -31.3711 -31.3698 -31.3593 -31.3469 -31.3206 -31.3181
   -31.3103 -31.3037 -31.2756 -31.2737 -31.2640 -31.2627 -31.2541 -31.2352
   -31.2342 -31.2259 -31.2223 -31.2206 -31.1869 -31.1868 -31.1689 -31.1637
   -31.1467 -31.0952 -30.6442 -30.5502 -30.5281 -30.4606 -30.3738 -30.2629
   -16.7729 -16.0803 -15.8107 -15.6683 -15.5623 -15.4509 -15.3361 -15.3158
   -15.1790 -15.1554 -15.0903 -14.9716 -14.9208 -14.9023 -14.8879 -14.8740
   -14.8675 -14.7962 -14.7910 -14.7677 -14.7473 -14.7346 -14.6917 -14.6899
   -14.6494 -14.6285 -14.5823 -14.4932 -14.4103 -14.3409 -14.0184 -12.7374
   -12.6200  -7.9754  -5.2521  -5.0708  -4.0123  -3.4193  -3.2688  -3.1729
    -3.1465  -3.1307  -3.0012  -2.8540  -2.8441  -2.7481  -2.6395  -2.5883
    -2.5057  -2.4572  -2.4448  -2.4266  -2.2433  -2.2265  -2.1733  -2.1255
    -2.0955  -2.0596  -2.0393  -2.0200  -2.0029  -1.9935  -1.9294  -1.8157
    -1.7800  -1.7280  -1.6765  -1.6512  -1.5972  -1.5766  -1.5405  -1.5345
    -1.5340  -1.4859  -1.4599  -1.4366  -1.3595  -1.2735  -1.1592  -1.1077
    -0.9527  -0.8905  -0.8341  -0.8218  -0.7583  -0.7385  -0.7086  -0.6322
    -0.6244  -0.5918  -0.4730  -0.3777  -0.3387  -0.3222  -0.2717  -0.2357
    -0.2084  -0.1611  -0.0652  -0.0331  -0.0162  -0.0118   0.1382   0.1521
     0.2212   0.2685   0.2902   0.2909   0.4041   0.4205   0.4928   0.5297
     0.5658   0.6391   0.6790   0.6949   0.6976   0.7311   0.7351   0.8261
     0.8482   0.8566   0.9287   1.0782   1.3050   1.3527   1.3605   1.6942
     1.6959   1.7879   1.9716   2.3639   2.4121   3.8433   3.9148   3.9890
     3.9955   4.0212   4.0814   4.3229   4.3333   4.3459   4.3490   4.3903

[...]

          k = 0.0380-0.0419 0.0000 ( 17876 PWs)   bands (ev):

[...]

          k =-0.0760-0.0000 0.0000 ( 17886 PWs)   bands (ev):

[...]

          k =-0.0760-0.0839 0.0000 ( 17948 PWs)   bands (ev):

   -55.2373 -55.2371 -55.1897 -55.1897 -55.1196 -55.1189 -55.1110 -55.0977
   -55.0578 -55.0569 -55.0544 -55.0192 -55.0188 -54.9882 -54.2179 -54.2178
   -31.6277 -31.6272 -31.6267 -31.5263 -31.5143 -31.5142 -31.5136 -31.4810
   -31.4809 -31.4626 -31.4555 -31.4498 -31.4453 -31.3946 -31.3899 -31.3878
   -31.3866 -31.3865 -31.3809 -31.3754 -31.3513 -31.3478 -31.3373 -31.3282
   -31.3273 -31.3211 -31.3125 -31.3094 -31.3094 -31.3031 -31.2900 -31.2873
   -31.2823 -31.2699 -31.2673 -31.2505 -31.2493 -31.2450 -31.1998 -31.1997
   -31.1939 -31.1874 -30.5408 -30.5407 -30.4567 -30.4566 -30.4173 -30.4172
   -16.7641 -15.6128 -15.4963 -15.4552 -15.2674 -15.2591 -15.2287 -15.2161
   -15.1612 -15.0650 -15.0386 -15.0283 -15.0147 -14.9632 -14.9569 -14.9516
   -14.9299 -14.8589 -14.8505 -14.8485 -14.8315 -14.7653 -14.7606 -14.7562
   -14.7453 -14.7023 -14.6993 -14.6051 -14.6031 -14.5093 -14.3848 -12.7215
   -12.7215  -7.9720  -5.2465  -5.0822  -3.9991  -2.7976  -2.7703  -2.7230
    -2.7145  -2.6981  -2.4789  -2.4562  -2.4191  -2.3692  -2.3078  -2.2565
    -2.2482  -2.2315  -2.1644  -2.1257  -2.1092  -2.0956  -2.0773  -2.0617
    -2.0473  -2.0217  -1.9793  -1.9718  -1.9506  -1.9302  -1.9004  -1.8919
    -1.8608  -1.8399  -1.8246  -1.8073  -1.6926  -1.6689  -1.6103  -1.5712
    -1.5298  -1.4575  -1.4523  -1.3551  -1.3477  -1.2934  -1.2817  -1.2556
    -1.1627  -1.0637  -1.0015  -0.9950  -0.9886  -0.8622  -0.8242  -0.7997
    -0.7632  -0.7349  -0.6755  -0.5976  -0.5761  -0.5415  -0.4573  -0.4490
    -0.3922  -0.3072  -0.2773  -0.2472  -0.2175  -0.2100  -0.2003  -0.1470
    -0.1405  -0.0694  -0.0193   0.0140   0.0251   0.0591   0.2639   0.2805
     0.3335   0.4318   0.5047   0.6248   0.6825   0.7037   0.7749   0.8152
     0.8590   0.9215   1.0242   1.0544   1.0573   1.1319   1.1636   1.2056
     1.2096   2.1449   2.1453   2.2319   2.2322   3.9873   4.0812   4.1033
     4.1515   4.2428   4.2779   4.3609   4.3790   4.4285   4.4305   4.5058

     the Fermi energy is     3.9063 ev

!    total energy              =   -2940.41310439 Ry
     estimated scf accuracy    <       0.00000007 Ry
     smearing contrib. (-TS)   =      -0.03731629 Ry
     internal energy E=F+TS    =   -2940.37578809 Ry

     The total energy is F=E-TS. E is the sum of the following terms:
     one-electron contribution =  -23553.19961633 Ry
     hartree contribution      =   11869.28513639 Ry
     xc contribution           =    -485.97158235 Ry
     ewald contribution        =    9229.50609318 Ry
     electric field correction =       0.00418102 Ry

     convergence has been achieved in  73 iterations

     Forces acting on atoms (cartesian axes, Ry/au):

     atom    1 type  1   force =    -0.00002484   -0.00017792    0.09329356
     atom    2 type  1   force =    -0.00015108   -0.00021756   -0.17811780
     atom    3 type  2   force =     0.00006536   -0.00020094   -0.02047277
     atom    4 type  2   force =     0.00000378   -0.00194820    0.05846835
     atom    5 type  2   force =    -0.01027986   -0.00134932    0.00736270
     atom    6 type  2   force =     0.01227663   -0.00075264    0.00785637
     atom    7 type  1   force =     0.00036165    0.00277927   -0.01405929
     atom    8 type  1   force =    -0.00056052    0.00108912   -0.00334671
     atom    9 type  2   force =     0.00003934    0.00049557   -0.00008269
     atom   10 type  2   force =    -0.00055279   -0.00102973   -0.00005967
     atom   11 type  2   force =     0.00009609    0.00011063    0.00004584
     atom   12 type  2   force =    -0.00026364    0.00016037   -0.00006705
     atom   13 type  1   force =    -0.00002155    0.00090258   -0.00029585
     atom   14 type  1   force =     0.00009813    0.00024901   -0.00017958
     atom   15 type  2   force =    -0.00013499    0.00011207    0.00096002
     atom   16 type  2   force =     0.00004499    0.00010958   -0.00002969
     atom   17 type  2   force =     0.00025160   -0.00031311    0.00002018
     atom   18 type  2   force =    -0.00020286   -0.00046777   -0.00046844
     atom   19 type  1   force =    -0.00062079   -0.00023603    0.00003917
     atom   20 type  1   force =    -0.00023034    0.00066857    0.00009430
     atom   21 type  2   force =    -0.00001942    0.00000674    0.10386946
     atom   22 type  2   force =    -0.00026011   -0.00064631   -0.00113548
     atom   23 type  2   force =    -0.07044229   -0.00008059   -0.02687854
     atom   24 type  2   force =     0.07027968    0.00035225   -0.02693212
     atom   25 type  1   force =     0.00004103   -0.00005693    0.09292051
     atom   26 type  1   force =    -0.00017085   -0.00018664   -0.17815502
     atom   27 type  2   force =     0.00012413   -0.00033966   -0.01949497
     atom   28 type  2   force =     0.00003250   -0.00168091    0.05803922
     atom   29 type  2   force =    -0.01039864   -0.00125089    0.00693291
     atom   30 type  2   force =     0.01228271   -0.00092512    0.00744413
     atom   31 type  1   force =     0.00034630    0.00516171   -0.01508213
     atom   32 type  1   force =    -0.00047004   -0.00164088   -0.00357154
     atom   33 type  2   force =    -0.00019440   -0.00021673   -0.00019687
     atom   34 type  2   force =     0.00029457   -0.00053048    0.00105016
     atom   35 type  2   force =    -0.00039592    0.00005873    0.00023876
     atom   36 type  2   force =     0.00032736   -0.00002628    0.00029959
     atom   37 type  1   force =    -0.00012217   -0.00043144   -0.00005095
     atom   38 type  1   force =     0.00013444    0.00033415   -0.00031086
     atom   39 type  2   force =    -0.00034191   -0.00042692    0.00114112
     atom   40 type  2   force =     0.00006751    0.00007342   -0.00016285
     atom   41 type  2   force =    -0.00007806    0.00024560   -0.00029377
     atom   42 type  2   force =    -0.00011443    0.00000956   -0.00035951
     atom   43 type  1   force =    -0.00079025   -0.00012314    0.00003567
     atom   44 type  1   force =     0.00007285    0.00053017    0.00007759
     atom   45 type  2   force =    -0.00000959    0.00000744    0.10385884
     atom   46 type  2   force =    -0.07046399   -0.00004746   -0.02688026
     atom   47 type  2   force =     0.07028773    0.00039401   -0.02695318
     atom   48 type  3   force =     0.00006698   -0.00080967    0.00017881
     atom   49 type  4   force =    -0.00084746    0.00055359   -0.00068139
     atom   50 type  5   force =     0.00014058   -0.00010360    0.00087918
     atom   51 type  3   force =    -0.00267347   -0.00507673    0.00348992
     atom   52 type  5   force =     0.00073801    0.00119473    0.00038878
     atom   53 type  5   force =     0.00285454    0.00361406   -0.00406434
     atom   54 type  5   force =    -0.00049220    0.00208070   -0.00060184

     Total force =     0.366072     Total SCF correction =     0.000888
  @ DRIVER MODE: Message from server: STATUS
  @ DRIVER MODE: Message from server: GETFORCE
  @ DRIVER MODE: Returning v,forces,stress,ensemble

     Writing output data file ./calc.save/
  @ DRIVER MODE: Message from server: EXIT
  @ DRIVE MODE: Exiting

     General routines

     Parallel routines

   This run was terminated on:   5:41:30  24Aug2021

   JOB DONE.