     Program PWSCF v.6.7GPU starts on  9Sep2021 at  4:14:17

     R & G space division:  proc/nbgrp/npool/nimage =      10
     Reading input from /storage/home/hcoda1/3/ntian30/research/carbon/CxH_vib/CH2_calc/ads_slab/CH2N2H_a/out_0021/pw.inp
Warning: card &CELL ignored
Warning: card   CELL_DYNAMICS='IPI', ignored
Warning: card / ignored

     Current dimensions of program PWSCF are:
     Max number of different atomic species (ntypx) = 10
     Max number of k-points (npk) =  40000
     Max angular momentum in pseudopotentials (lmaxx) =  3
     Presently no symmetry can be used with electric field

     Message from routine cell_base_init:
     DEPRECATED: use true lattice parameter, not A to a.u. conversion factor

     IMPORTANT: XC functional enforced from input :
     Exchange-correlation= BEEF-VDW
                           (   1   4  43  14   2   0   0)
     Any further DFT definition will be discarded
     Please, verify this is what you really want

  @ DRIVER MODE: Connecting to
 qe_1139763_2767385.sched-torque.pace.gatech.edun2lexbvk_scratch
  using UNIX socket
  @ DRIVER MODE: Message from server: STATUS
  @ DRIVER MODE: Message from server: INIT
  @ DRIVER MODE: Receiving replica           0          -1
  @ DRIVER MODE: Receiving encoded integer          25
  @ DRIVER MODE:  SCF:  T  FORCE:  T  STRESS:  F  VC:  F  ENSEMBLE:  F
  @ DRIVER MODE:  SCF:  T  FORCE:  T  STRESS:  F  VC:  F  ENSEMBLE:  F

     Using Slab Decomposition

     bravais-lattice index     =            0
     lattice parameter (alat)  =       1.8897  a.u.
     unit-cell volume          =    6658.9804 (a.u.)^3
     number of atoms/cell      =           53
     number of atomic types    =            5
     number of electrons       =       395.00
     number of Kohn-Sham states=          207
     kinetic-energy cutoff     =      29.3995  Ry
     charge density cutoff     =     293.9946  Ry
     scf convergence threshold =      7.3E-08
     mixing beta               =       0.0500
     number of iterations used =            8  plain     mixing
     Exchange-correlation= BEEF-VDW
                           (   1   4  43  14   2   0   0)

     celldm(1)=   1.889726  celldm(2)=   0.000000  celldm(3)=   0.000000
     celldm(4)=   0.000000  celldm(5)=   0.000000  celldm(6)=   0.000000

     crystal axes: (cart. coord. in units of alat)
               a(1) = (   6.579727   0.000000   0.000000 )
               a(2) = (  -0.000775   5.961596   0.000000 )
               a(3) = (   0.000000   0.000000  25.155947 )

     reciprocal axes: (cart. coord. in units 2 pi/alat)
               b(1) = (  0.151982  0.000020  0.000000 )
               b(2) = (  0.000000  0.167740  0.000000 )
               b(3) = (  0.000000  0.000000  0.039752 )

     PseudoPot. # 1 for Ti read from file:
     /storage/coda1/p-amedford6/0/shared/rich_project_chbe-medford/medford-share/data/pseudos_module/espresso/nninc/pbe/van/Ti.UPF
     MD5 check sum: 8e4df49b7f0d34bbd5052bf3f5ea0213
     Pseudo is Ultrasoft, Zval = 12.0
     Generated by new atomic code, or converted to UPF format
     Using radial grid of  851 points,  6 beta functions with:
                l(1) =   0
                l(2) =   0
                l(3) =   1
                l(4) =   1
                l(5) =   2
                l(6) =   2
     Q(r) pseudized with  8 coefficients,  rinner =    1.000   1.000   1.000
                                                       1.000   1.000

     PseudoPot. # 2 for O  read from file:
     /storage/coda1/p-amedford6/0/shared/rich_project_chbe-medford/medford-share/data/pseudos_module/espresso/nninc/pbe/van/O.UPF
     MD5 check sum: 78c19812648e8988a0fe644b0f25305e
     Pseudo is Ultrasoft, Zval =  6.0
     Generated by new atomic code, or converted to UPF format
     Using radial grid of  737 points,  4 beta functions with:
                l(1) =   0
                l(2) =   0
                l(3) =   1
                l(4) =   1
     Q(r) pseudized with  8 coefficients,  rinner =    0.800   0.800   0.800

     PseudoPot. # 3 for N  read from file:
     /storage/coda1/p-amedford6/0/shared/rich_project_chbe-medford/medford-share/data/pseudos_module/espresso/nninc/pbe/van/N.UPF
     MD5 check sum: 90d10febe142ad51ac9d5be1deb811c4
     Pseudo is Ultrasoft, Zval =  5.0
     Generated by new atomic code, or converted to UPF format
     Using radial grid of  729 points,  4 beta functions with:
                l(1) =   0
                l(2) =   0
                l(3) =   1
                l(4) =   1
     Q(r) pseudized with  8 coefficients,  rinner =    0.800   0.800   0.800

     PseudoPot. # 4 for C  read from file:
     /storage/coda1/p-amedford6/0/shared/rich_project_chbe-medford/medford-share/data/pseudos_module/espresso/nninc/pbe/van/C.UPF
     MD5 check sum: 1a69bf6b8db32088f5b2163dbdb77a27
     Pseudo is Ultrasoft, Zval =  4.0
     Generated by new atomic code, or converted to UPF format
     Using radial grid of  721 points,  4 beta functions with:
                l(1) =   0
                l(2) =   0
                l(3) =   1
                l(4) =   1
     Q(r) pseudized with  8 coefficients,  rinner =    0.800   0.800   0.800

     PseudoPot. # 5 for H  read from file:
     /storage/coda1/p-amedford6/0/shared/rich_project_chbe-medford/medford-share/data/pseudos_module/espresso/nninc/pbe/van/H.UPF
     MD5 check sum: b5ee9d7bfd3a09ee7748110bda690ff7
     Pseudo is Ultrasoft, Zval =  1.0
     Generated by new atomic code, or converted to UPF format
     Using radial grid of  615 points,  1 beta functions with:
                l(1) =   0
     Q(r) pseudized with  8 coefficients,  rinner =    0.800

     atomic species   valence    mass     pseudopotential
        Ti1           12.00    47.86700     Ti( 1.00)
        O1             6.00    15.99900     O ( 1.00)
        N1             5.00    14.00700     N ( 1.00)
        C1             4.00    12.01100     C ( 1.00)
        H1             1.00     1.00800     H ( 1.00)

     No symmetry found

   Cartesian axes

     site n.     atom                  positions (alat units)
         1           Ti1 tau(   1) = (   0.0004258   2.9801865   6.0000000  )
         2           Ti1 tau(   2) = (   3.2906075   1.4906267   6.0002472  )
         3           O1  tau(   3) = (   0.0006271   0.0005054   7.9858123  )
         4           O1  tau(   4) = (   3.2906025   0.0005020   7.3038282  )
         5           O1  tau(   5) = (   4.5942328   1.4918067   9.2879030  )
         6           O1  tau(   6) = (   1.9868534   1.4903216   9.2879459  )
         7           Ti1 tau(   7) = (   3.2907910   2.8959150   9.1758416  )
         8           Ti1 tau(   8) = (   0.0015273   1.4827037   9.2680791  )
         9           O1  tau(   9) = (   3.3007851   0.0027079  11.3193151  )
        10           O1  tau(  10) = (   0.0116148   5.9584955  10.6183126  )
        11           O1  tau(  11) = (   1.3147357   1.5019762  12.6210215  )
        12           O1  tau(  12) = (   5.3120411   1.4917641  12.6342566  )
        13           Ti1 tau(  13) = (   6.5359925   2.9538565  12.6086018  )
        14           Ti1 tau(  14) = (   3.2189980   1.4905645  12.4770757  )
        15           O1  tau(  15) = (   0.0426301   5.9606301  14.6312846  )
        16           O1  tau(  16) = (   3.3149351   0.0098317  13.8848037  )
        17           O1  tau(  17) = (   4.5523768   1.5206755  16.0744300  )
        18           O1  tau(  18) = (   2.0715852   1.4807026  15.9918588  )
        19           Ti1 tau(  19) = (   3.2935730   2.9941335  15.6827836  )
        20           Ti1 tau(  20) = (   0.0200723   1.3023755  15.9747514  )
        21           O1  tau(  21) = (   3.2904802   0.0005063   4.7018136  )
        22           O1  tau(  22) = (   6.5179923   0.0002674  17.1556216  )
        23           O1  tau(  23) = (   1.3043587   1.4918075   6.0039043  )
        24           O1  tau(  24) = (   5.2767064   1.4903225   6.0039473  )
        25           Ti1 tau(  25) = (   0.0000382   5.9609847   6.0000000  )
        26           Ti1 tau(  26) = (   3.2902200   4.4714249   6.0002472  )
        27           O1  tau(  27) = (   0.0002396   2.9813036   7.9858123  )
        28           O1  tau(  28) = (   3.2902150   2.9813002   7.3038282  )
        29           O1  tau(  29) = (   4.5938453   4.4726049   9.2879030  )
        30           O1  tau(  30) = (   1.9864658   4.4711199   9.2879459  )
        31           Ti1 tau(  31) = (   3.2891106   5.8743827   9.1763621  )
        32           Ti1 tau(  32) = (   0.0006254   4.4649316   9.2693709  )
        33           O1  tau(  33) = (   3.3053585   2.9833221  11.3185053  )
        34           O1  tau(  34) = (   0.0092240   2.9805883  10.6323155  )
        35           O1  tau(  35) = (   1.3157767   4.4721532  12.6203727  )
        36           O1  tau(  36) = (   5.3104355   4.4689601  12.6331991  )
        37           Ti1 tau(  37) = (   6.5385524   5.9338372  12.5465384  )
        38           Ti1 tau(  38) = (   3.2200853   4.4710709  12.4725482  )
        39           O1  tau(  39) = (   0.0068575   2.9964749  14.7765288  )
        40           O1  tau(  40) = (   3.3021705   2.9848394  13.8818356  )
        41           O1  tau(  41) = (   4.5334443   4.4765196  15.9883447  )
        42           O1  tau(  42) = (   2.0816803   4.4801587  16.0471567  )
        43           Ti1 tau(  43) = (   3.3155128   0.0116264  15.6901768  )
        44           Ti1 tau(  44) = (   6.5575601   4.4671909  15.9479714  )
        45           O1  tau(  45) = (   3.2900926   2.9813045   4.7018136  )
        46           O1  tau(  46) = (   1.3039711   4.4726057   6.0039043  )
        47           O1  tau(  47) = (   5.2763189   4.4711207   6.0039473  )
        48           N1  tau(  48) = (   0.4270260   2.3853988  17.9668900  )
        49           C1  tau(  49) = (   0.9469377   1.9340014  19.0583692  )
        50           H1  tau(  50) = (   1.0789317   2.5769861  19.9249762  )
        51           H1  tau(  51) = (   1.2326487   0.8859138  19.0941702  )
        52           N1  tau(  52) = (   0.0025679   3.6232397  17.7996529  )
        53           H1  tau(  53) = (   0.1020252   4.2324666  18.6151602  )

     number of k points=    10  Fermi-Dirac smearing, width (Ry)=  0.0073
                       cart. coord. in units 2pi/alat
        k(    1) = (   0.0000000   0.0000000   0.0000000), wk =   0.1250000
        k(    2) = (   0.0000000   0.0419351   0.0000000), wk =   0.2500000
        k(    3) = (   0.0000000  -0.0838702   0.0000000), wk =   0.1250000
        k(    4) = (   0.0379955   0.0000049   0.0000000), wk =   0.2500000
        k(    5) = (   0.0379955   0.0419400   0.0000000), wk =   0.2500000
        k(    6) = (   0.0379955  -0.0838652   0.0000000), wk =   0.2500000
        k(    7) = (   0.0379955  -0.0419301   0.0000000), wk =   0.2500000
        k(    8) = (  -0.0759910  -0.0000099   0.0000000), wk =   0.1250000
        k(    9) = (  -0.0759910   0.0419252   0.0000000), wk =   0.2500000
        k(   10) = (  -0.0759910  -0.0838800   0.0000000), wk =   0.1250000

     Initial potential from superposition of free atoms

     starting charge  378.99916, renormalised to  395.00000

     negative rho (up, down):  1.649E-02 0.000E+00

     %%%%%%%%%%%%%%%%%%%%%%%%%%%%%%%%%%%%%%%%%%%%%%%%%%%%%%%%%%%%%%%%%%%%%%%%
     %                                                                      %
     % You are using vdW-DF, which was implemented by the Thonhauser group. %
     % Please cite the following two papers that made this development      %
     % possible and the two reviews that describe the various versions:     %
     %                                                                      %
     %   T. Thonhauser et al., PRL 115, 136402 (2015).                      %
     %   T. Thonhauser et al., PRB 76, 125112 (2007).                       %
     %   K. Berland et al., Rep. Prog. Phys. 78, 066501 (2015).             %
     %   D.C. Langreth et al., J. Phys.: Condens. Matter 21, 084203 (2009). %
     %                                                                      %
     %                                                                      %
     % If you are calculating the stress with vdW-DF, please also cite:     %
     %                                                                      %
     %   R. Sabatini et al., J. Phys.: Condens. Matter 24, 424209 (2012).   %
     %                                                                      %
     %%%%%%%%%%%%%%%%%%%%%%%%%%%%%%%%%%%%%%%%%%%%%%%%%%%%%%%%%%%%%%%%%%%%%%%%

     Adding external electric field

     Computed dipole along edir(3) :
        Dipole               -8.3970 Ry au,        -21.3430 Debye
        Dipole field         -0.0158 Ry au,

        Potential amp.        1.4689 Ry
        Total length         46.3494 bohr

     Starting wfcs are  299 atomic wfcs
  @ DRIVER MODE: Message from server: STATUS
  @ DRIVER MODE: Message from server: POSDATA
  @ DRIVER MODE: Reading and sharing cell
  @ DRIVER MODE: Reading and sharing positions
  @ DRIVER MODE: Received positions

     Self-consistent Calculation

     iteration #  1     ecut=    29.40 Ry     beta= 0.05
     Davidson diagonalization with overlap
     c_bands:  2 eigenvalues not converged
     c_bands:  1 eigenvalues not converged
     c_bands:  2 eigenvalues not converged
     c_bands:  3 eigenvalues not converged
     c_bands:  3 eigenvalues not converged
     c_bands:  2 eigenvalues not converged
     c_bands:  1 eigenvalues not converged
     ethr =  1.00E-05,  avg # of iterations = 19.3

[...]

     total energy              =   -2613.96058108 Ry
     estimated scf accuracy    <    3601.33833213 Ry

[...]

     iteration #  3     ecut=    29.40 Ry     beta= 0.05
     Davidson diagonalization with overlap
     ethr =  1.00E-02,  avg # of iterations = 13.8

[...]

     iteration # 42     ecut=    29.40 Ry     beta= 0.05
     Davidson diagonalization with overlap
     c_bands:  1 eigenvalues not converged
     ethr =  2.06E-06,  avg # of iterations =  9.7

[...]

     total energy              =   -2939.13529873 Ry
     estimated scf accuracy    <       0.00000014 Ry

     iteration # 69     ecut=    29.40 Ry     beta= 0.05
     Davidson diagonalization with overlap
     ethr =  3.14E-11,  avg # of iterations = 12.6

     negative rho (up, down):  1.681E-02 0.000E+00

     Adding external electric field

     Computed dipole along edir(3) :
        Dipole                0.7875 Ry au,          2.0017 Debye
        Dipole field          0.0015 Ry au,

        Potential amp.       -0.1378 Ry
        Total length         46.3494 bohr

     End of self-consistent calculation

          k = 0.0000 0.0000 0.0000 ( 18029 PWs)   bands (ev):

   -55.8525 -55.8515 -55.8185 -55.8155 -55.7457 -55.7026 -55.6649 -55.6632
   -55.6299 -55.6292 -55.6244 -55.5907 -55.1899 -55.1440 -54.8283 -54.7942
   -32.4056 -32.3354 -32.2414 -32.1631 -32.1493 -32.1447 -32.1309 -32.1162
   -32.0956 -32.0824 -32.0296 -32.0116 -32.0049 -32.0032 -31.9931 -31.9896
   -31.9573 -31.9454 -31.9395 -31.9368 -31.9099 -31.9074 -31.8916 -31.8895
   -31.8587 -31.8544 -31.8523 -31.8511 -31.8260 -31.8110 -31.8034 -31.7932
   -31.7811 -31.7789 -31.7713 -31.7378 -31.7314 -31.4543 -31.4170 -31.3897
   -31.3373 -31.3021 -31.2351 -31.1474 -31.1250 -31.0521 -30.9656 -30.8543
   -17.9133 -16.6118 -16.3318 -16.0763 -16.0011 -15.9972 -15.8637 -15.7009
   -15.5882 -15.5211 -15.4408 -15.4111 -15.3891 -15.3535 -15.3473 -15.3094
   -15.3006 -15.2750 -15.2717 -15.2094 -15.2059 -15.1986 -15.1888 -15.1046
   -15.0468 -14.9955 -14.9878 -14.9144 -14.8802 -14.3525 -13.3299 -13.2136
   -12.1570  -7.8652  -5.3522  -4.5200  -3.9886  -3.8293  -3.7596  -3.7251
    -3.6472  -3.4888  -3.4100  -3.1281  -3.0795  -3.0237  -3.0143  -2.9777
    -2.9335  -2.7814  -2.7038  -2.6770  -2.6613  -2.6390  -2.6239  -2.6118
    -2.5960  -2.5766  -2.4949  -2.4143  -2.3701  -2.2935  -2.2798  -2.2447
    -2.1647  -2.1644  -2.1241  -2.1041  -2.0858  -2.0697  -2.0610  -2.0457
    -1.9052  -1.8465  -1.8345  -1.6530  -1.6340  -1.5883  -1.4596  -1.4537
    -1.3386  -1.3232  -1.2832  -1.2454  -1.1726  -1.1510  -1.0394  -0.9981
    -0.9362  -0.8896  -0.8740  -0.7986  -0.7338  -0.6945  -0.6814  -0.6172
    -0.6105  -0.5974  -0.4628  -0.3862  -0.3328  -0.2769  -0.2545  -0.1986
    -0.1590  -0.1158  -0.0284  -0.0013   0.0104   0.0684   0.0902   0.1158
     0.1274   0.1471   0.1761   0.2316   0.3498   0.3813   0.4574   0.4717
     0.5318   0.6665   0.8046   0.8716   0.9243   1.0191   1.1252   1.1947
     1.2678   1.3870   1.7649   1.8103   2.1378   3.2672   3.3691   3.4020
     3.4130   3.5161   3.6649   3.7263   3.7415   3.7828   3.8169

[...]

          k = 0.0380-0.0419 0.0000 ( 17876 PWs)   bands (ev):

[...]

          k =-0.0760-0.0000 0.0000 ( 17886 PWs)   bands (ev):

[...]

          k =-0.0760-0.0839 0.0000 ( 17948 PWs)   bands (ev):

   -55.8356 -55.8352 -55.8339 -55.8328 -55.7371 -55.7112 -55.6482 -55.6465
   -55.6464 -55.6455 -55.6082 -55.6070 -55.1820 -55.1517 -54.8113 -54.8111
   -32.2078 -32.2062 -32.1508 -32.1506 -32.1302 -32.1299 -32.0963 -32.0934
   -32.0841 -32.0675 -32.0019 -31.9992 -31.9937 -31.9919 -31.9699 -31.9622
   -31.9554 -31.9549 -31.9497 -31.9485 -31.9465 -31.9349 -31.9292 -31.9224
   -31.9104 -31.9054 -31.8604 -31.8502 -31.8483 -31.8475 -31.8392 -31.8384
   -31.8253 -31.8246 -31.8240 -31.8228 -31.6838 -31.4496 -31.4158 -31.4114
   -31.3933 -31.3383 -31.1378 -31.1376 -31.0479 -31.0477 -31.0089 -31.0089
   -17.8998 -16.0269 -16.0242 -15.8166 -15.7777 -15.7584 -15.7526 -15.6628
   -15.5770 -15.5436 -15.5406 -15.4536 -15.4274 -15.4113 -15.3952 -15.3897
   -15.3808 -15.3512 -15.3162 -15.3087 -15.2946 -15.2890 -15.2769 -15.2201
   -15.1689 -15.1647 -15.1421 -15.0700 -14.8312 -14.6926 -13.3154 -13.3153
   -12.1179  -7.8056  -5.3975  -4.5809  -3.3215  -3.3120  -3.0657  -3.0228
    -3.0189  -2.9932  -2.9507  -2.7897  -2.7772  -2.7574  -2.7500  -2.7052
    -2.6817  -2.6615  -2.6418  -2.6364  -2.6076  -2.5814  -2.5664  -2.5294
    -2.5224  -2.5136  -2.4821  -2.4712  -2.4242  -2.4194  -2.3986  -2.3712
    -2.3617  -2.3265  -2.1791  -2.1072  -2.0790  -1.9943  -1.9874  -1.9466
    -1.9239  -1.9032  -1.8904  -1.8685  -1.8301  -1.6944  -1.6117  -1.5503
    -1.5416  -1.4571  -1.4293  -1.3677  -1.2782  -1.2523  -1.2317  -1.1600
    -1.0843  -1.0461  -0.9948  -0.9817  -0.9142  -0.9054  -0.8476  -0.8110
    -0.8091  -0.7322  -0.7019  -0.6544  -0.6181  -0.6012  -0.5783  -0.5514
    -0.5360  -0.5129  -0.4368  -0.3528  -0.3012  -0.2404  -0.1475  -0.0177
     0.1023   0.2150   0.2370   0.2813   0.3336   0.3679   0.4613   0.4651
     0.5287   0.5518   0.5932   0.6706   0.6820   0.7065   0.8176   0.8471
     1.5592   1.5596   1.6302   1.6304   2.0784   3.5900   3.6189   3.6380
     3.6698   3.7992   3.8052   3.8156   3.8163   3.9516   3.9551

     the Fermi energy is     3.2770 ev

!    total energy              =   -2939.13532097 Ry
     estimated scf accuracy    <       0.00000005 Ry
     smearing contrib. (-TS)   =      -0.02099013 Ry
     internal energy E=F+TS    =   -2939.11433084 Ry

     The total energy is F=E-TS. E is the sum of the following terms:
     one-electron contribution =  -24492.28028068 Ry
     hartree contribution      =   12334.09188681 Ry
     xc contribution           =    -485.36426732 Ry
     ewald contribution        =    9704.43715996 Ry
     electric field correction =       0.00117039 Ry

     convergence has been achieved in  69 iterations

     Forces acting on atoms (cartesian axes, Ry/au):

     atom    1 type  1   force =     0.00007882   -0.00023896    0.09634209
     atom    2 type  1   force =     0.00005246   -0.00057118   -0.17516973
     atom    3 type  2   force =     0.00015000   -0.00013075   -0.02407666
     atom    4 type  2   force =    -0.00000494   -0.00124788    0.05222633
     atom    5 type  2   force =    -0.01056219   -0.00047634    0.00251743
     atom    6 type  2   force =     0.01237978    0.00022386    0.00289058
     atom    7 type  1   force =     0.00098242    0.00026682   -0.01173581
     atom    8 type  1   force =    -0.00013474    0.00774511    0.02263883
     atom    9 type  2   force =    -0.00019988   -0.00015578   -0.00027146
     atom   10 type  2   force =    -0.00262248    0.00115302   -0.01267622
     atom   11 type  2   force =     0.00006014   -0.00012377    0.00005373
     atom   12 type  2   force =     0.00010683    0.00018316   -0.00038625
     atom   13 type  1   force =     0.00044331   -0.00034971    0.00023318
     atom   14 type  1   force =     0.00015048    0.00032616   -0.00014174
     atom   15 type  2   force =    -0.00022917    0.00013879    0.00005314
     atom   16 type  2   force =     0.00011090   -0.00021506    0.00034871
     atom   17 type  2   force =     0.00049670   -0.00001641    0.00034948
     atom   18 type  2   force =     0.00065721   -0.00016424    0.00024665
     atom   19 type  1   force =    -0.00117963   -0.00004458    0.00022507
     atom   20 type  1   force =     0.00030333   -0.00041642   -0.00055770
     atom   21 type  2   force =     0.00004780    0.00000425    0.10310290
     atom   22 type  2   force =     0.00010106   -0.00029298   -0.00007940
     atom   23 type  2   force =    -0.07162924   -0.00015157   -0.02765789
     atom   24 type  2   force =     0.07156848    0.00034764   -0.02772181
     atom   25 type  1   force =     0.00015691   -0.00023431    0.09586404
     atom   26 type  1   force =     0.00009763   -0.00040691   -0.17543469
     atom   27 type  2   force =     0.00017628   -0.00021570   -0.02290680
     atom   28 type  2   force =     0.00006275   -0.00101467    0.05218640
     atom   29 type  2   force =    -0.01086215    0.00048271    0.00243933
     atom   30 type  2   force =     0.01255745    0.00064369    0.00278649
     atom   31 type  1   force =     0.00087099    0.00348267   -0.01291891
     atom   32 type  1   force =     0.00003077   -0.00925364    0.02306875
     atom   33 type  2   force =    -0.00048534    0.00013627    0.00023030
     atom   34 type  2   force =    -0.00302615    0.00022797   -0.01290001
     atom   35 type  2   force =     0.00008457    0.00009079   -0.00008207
     atom   36 type  2   force =     0.00011154    0.00033599   -0.00039667
     atom   37 type  1   force =     0.00033866    0.00036374    0.00007224
     atom   38 type  1   force =     0.00002502   -0.00043459    0.00015465
     atom   39 type  2   force =     0.00015308    0.00045233    0.00056232
     atom   40 type  2   force =     0.00035482    0.00013376   -0.00038204
     atom   41 type  2   force =     0.00043258    0.00003365    0.00028175
     atom   42 type  2   force =     0.00092103    0.00002744    0.00050553
     atom   43 type  1   force =    -0.00156634   -0.00034514   -0.00031646
     atom   44 type  1   force =     0.00069594   -0.00025983   -0.00080346
     atom   45 type  2   force =     0.00005947   -0.00003997    0.10308201
     atom   46 type  2   force =    -0.07165380   -0.00007178   -0.02767539
     atom   47 type  2   force =     0.07159398    0.00032627   -0.02774208
     atom   48 type  3   force =    -0.00042875   -0.00161581   -0.00005333
     atom   49 type  4   force =     0.00199862   -0.01169888   -0.00032033
     atom   50 type  5   force =    -0.00083392    0.00039947    0.00075470
     atom   51 type  5   force =    -0.00265889    0.01171592   -0.00010789
     atom   52 type  3   force =    -0.00019173    0.00096815   -0.00146374
     atom   53 type  5   force =    -0.00014250   -0.00002277    0.00076187

     Total force =     0.366140     Total SCF correction =     0.000593
  @ DRIVER MODE: Message from server: STATUS
  @ DRIVER MODE: Message from server: GETFORCE
  @ DRIVER MODE: Returning v,forces,stress,ensemble

     Writing output data file ./calc.save/
  @ DRIVER MODE: Message from server: EXIT
  @ DRIVE MODE: Exiting

     General routines

     Parallel routines

   This run was terminated on:   4:32: 5   9Sep2021

   JOB DONE.