     Program PWSCF v.6.7GPU starts on 23Sep2021 at  3:36: 8

     R & G space division:  proc/nbgrp/npool/nimage =       8
     Reading input from /storage/home/hcoda1/3/ntian30/research/carbon/CxH_vib/H2O_calc/ads_slab/CH3NHNHHO_a/out_0014/pw.inp
Warning: card &CELL ignored
Warning: card   CELL_DYNAMICS='IPI', ignored
Warning: card / ignored

     Current dimensions of program PWSCF are:
     Max number of different atomic species (ntypx) = 10
     Max number of k-points (npk) =  40000
     Max angular momentum in pseudopotentials (lmaxx) =  3
     Presently no symmetry can be used with electric field

     Message from routine cell_base_init:
     DEPRECATED: use true lattice parameter, not A to a.u. conversion factor

     IMPORTANT: XC functional enforced from input :
     Exchange-correlation= BEEF-VDW
                           (   1   4  43  14   2   0   0)
     Any further DFT definition will be discarded
     Please, verify this is what you really want

  @ DRIVER MODE: Connecting to
 qe_1139763_2941006.sched-torque.pace.gatech.edue8bzb7zr_scratch
  using UNIX socket
  @ DRIVER MODE: Message from server: STATUS
  @ DRIVER MODE: Message from server: INIT
  @ DRIVER MODE: Receiving replica           0          -1
  @ DRIVER MODE: Receiving encoded integer          25
  @ DRIVER MODE:  SCF:  T  FORCE:  T  STRESS:  F  VC:  F  ENSEMBLE:  F
  @ DRIVER MODE:  SCF:  T  FORCE:  T  STRESS:  F  VC:  F  ENSEMBLE:  F

     Using Slab Decomposition

     bravais-lattice index     =            0
     lattice parameter (alat)  =       1.8897  a.u.
     unit-cell volume          =    6658.9804 (a.u.)^3
     number of atoms/cell      =           57
     number of atomic types    =            5
     number of electrons       =       404.00
     number of Kohn-Sham states=          212
     kinetic-energy cutoff     =      29.3995  Ry
     charge density cutoff     =     293.9946  Ry
     scf convergence threshold =      7.3E-08
     mixing beta               =       0.0500
     number of iterations used =            8  plain     mixing
     Exchange-correlation= BEEF-VDW
                           (   1   4  43  14   2   0   0)

     celldm(1)=   1.889726  celldm(2)=   0.000000  celldm(3)=   0.000000
     celldm(4)=   0.000000  celldm(5)=   0.000000  celldm(6)=   0.000000

     crystal axes: (cart. coord. in units of alat)
               a(1) = (   6.579727   0.000000   0.000000 )
               a(2) = (  -0.000775   5.961596   0.000000 )
               a(3) = (   0.000000   0.000000  25.155947 )

     reciprocal axes: (cart. coord. in units 2 pi/alat)
               b(1) = (  0.151982  0.000020  0.000000 )
               b(2) = (  0.000000  0.167740  0.000000 )
               b(3) = (  0.000000  0.000000  0.039752 )

     PseudoPot. # 1 for Ti read from file:
     /storage/coda1/p-amedford6/0/shared/rich_project_chbe-medford/medford-share/data/pseudos_module/espresso/nninc/pbe/van/Ti.UPF
     MD5 check sum: 8e4df49b7f0d34bbd5052bf3f5ea0213
     Pseudo is Ultrasoft, Zval = 12.0
     Generated by new atomic code, or converted to UPF format
     Using radial grid of  851 points,  6 beta functions with:
                l(1) =   0
                l(2) =   0
                l(3) =   1
                l(4) =   1
                l(5) =   2
                l(6) =   2
     Q(r) pseudized with  8 coefficients,  rinner =    1.000   1.000   1.000
                                                       1.000   1.000

     PseudoPot. # 2 for O  read from file:
     /storage/coda1/p-amedford6/0/shared/rich_project_chbe-medford/medford-share/data/pseudos_module/espresso/nninc/pbe/van/O.UPF
     MD5 check sum: 78c19812648e8988a0fe644b0f25305e
     Pseudo is Ultrasoft, Zval =  6.0
     Generated by new atomic code, or converted to UPF format
     Using radial grid of  737 points,  4 beta functions with:
                l(1) =   0
                l(2) =   0
                l(3) =   1
                l(4) =   1
     Q(r) pseudized with  8 coefficients,  rinner =    0.800   0.800   0.800

     PseudoPot. # 3 for N  read from file:
     /storage/coda1/p-amedford6/0/shared/rich_project_chbe-medford/medford-share/data/pseudos_module/espresso/nninc/pbe/van/N.UPF
     MD5 check sum: 90d10febe142ad51ac9d5be1deb811c4
     Pseudo is Ultrasoft, Zval =  5.0
     Generated by new atomic code, or converted to UPF format
     Using radial grid of  729 points,  4 beta functions with:
                l(1) =   0
                l(2) =   0
                l(3) =   1
                l(4) =   1
     Q(r) pseudized with  8 coefficients,  rinner =    0.800   0.800   0.800

     PseudoPot. # 4 for C  read from file:
     /storage/coda1/p-amedford6/0/shared/rich_project_chbe-medford/medford-share/data/pseudos_module/espresso/nninc/pbe/van/C.UPF
     MD5 check sum: 1a69bf6b8db32088f5b2163dbdb77a27
     Pseudo is Ultrasoft, Zval =  4.0
     Generated by new atomic code, or converted to UPF format
     Using radial grid of  721 points,  4 beta functions with:
                l(1) =   0
                l(2) =   0
                l(3) =   1
                l(4) =   1
     Q(r) pseudized with  8 coefficients,  rinner =    0.800   0.800   0.800

     PseudoPot. # 5 for H  read from file:
     /storage/coda1/p-amedford6/0/shared/rich_project_chbe-medford/medford-share/data/pseudos_module/espresso/nninc/pbe/van/H.UPF
     MD5 check sum: b5ee9d7bfd3a09ee7748110bda690ff7
     Pseudo is Ultrasoft, Zval =  1.0
     Generated by new atomic code, or converted to UPF format
     Using radial grid of  615 points,  1 beta functions with:
                l(1) =   0
     Q(r) pseudized with  8 coefficients,  rinner =    0.800

     atomic species   valence    mass     pseudopotential
        Ti1           12.00    47.86700     Ti( 1.00)
        O1             6.00    15.99900     O ( 1.00)
        N1             5.00    14.00700     N ( 1.00)
        C1             4.00    12.01100     C ( 1.00)
        H1             1.00     1.00800     H ( 1.00)

     No symmetry found

   Cartesian axes

     site n.     atom                  positions (alat units)
         1           Ti1 tau(   1) = (   0.0004258   2.9801865   6.0000000  )
         2           Ti1 tau(   2) = (   3.2906075   1.4906267   6.0002472  )
         3           O1  tau(   3) = (   0.0006271   0.0005054   7.9858123  )
         4           O1  tau(   4) = (   3.2906025   0.0005020   7.3038282  )
         5           O1  tau(   5) = (   4.5942328   1.4918067   9.2879030  )
         6           O1  tau(   6) = (   1.9868534   1.4903216   9.2879459  )
         7           Ti1 tau(   7) = (   3.2907910   2.8959150   9.1758416  )
         8           Ti1 tau(   8) = (   0.0015273   1.4827037   9.2680791  )
         9           O1  tau(   9) = (   3.2953096   5.9421394  11.2884464  )
        10           O1  tau(  10) = (   0.0116148   5.9584955  10.6183126  )
        11           O1  tau(  11) = (   1.3041449   1.4755329  12.6321863  )
        12           O1  tau(  12) = (   5.3089623   1.4871430  12.6059879  )
        13           Ti1 tau(  13) = (   6.5683417   3.1096339  12.6902584  )
        14           Ti1 tau(  14) = (   3.3171551   1.3050273  12.6602886  )
        15           O1  tau(  15) = (   6.5441980   0.0188234  14.6400653  )
        16           O1  tau(  16) = (   3.3305379   0.0354930  13.9003223  )
        17           O1  tau(  17) = (   4.5569828   1.5958521  16.0354584  )
        18           O1  tau(  18) = (   2.0254723   1.5302355  15.9749146  )
        19           Ti1 tau(  19) = (   3.2479256   3.0467527  15.6517507  )
        20           Ti1 tau(  20) = (   6.4631478   1.5268535  15.8454044  )
        21           O1  tau(  21) = (   3.2904802   0.0005063   4.7018136  )
        22           O1  tau(  22) = (   6.5640117   0.0389496  17.1838934  )
        23           O1  tau(  23) = (   1.3043587   1.4918075   6.0039043  )
        24           O1  tau(  24) = (   5.2767064   1.4903225   6.0039473  )
        25           Ti1 tau(  25) = (   0.0000382   5.9609847   6.0000000  )
        26           Ti1 tau(  26) = (   3.2902200   4.4714249   6.0002472  )
        27           O1  tau(  27) = (   0.0002396   2.9813036   7.9858123  )
        28           O1  tau(  28) = (   3.2902150   2.9813002   7.3038282  )
        29           O1  tau(  29) = (   4.5938453   4.4726049   9.2879030  )
        30           O1  tau(  30) = (   1.9864658   4.4711199   9.2879459  )
        31           Ti1 tau(  31) = (   3.2891106   5.8743827   9.1763621  )
        32           Ti1 tau(  32) = (   0.0006254   4.4649316   9.2693709  )
        33           O1  tau(  33) = (   3.2909858   3.0116154  11.2527998  )
        34           O1  tau(  34) = (   0.0092240   2.9805883  10.6323155  )
        35           O1  tau(  35) = (   1.2990260   4.4726261  12.6330189  )
        36           O1  tau(  36) = (   5.2946483   4.4606482  12.6134978  )
        37           Ti1 tau(  37) = (   0.0333947   0.1262769  12.6104238  )
        38           Ti1 tau(  38) = (   3.2900473   4.3917186  12.4086616  )
        39           O1  tau(  39) = (   6.5591047   2.9728048  14.6463482  )
        40           O1  tau(  40) = (   3.3071982   2.9909887  13.8663713  )
        41           O1  tau(  41) = (   4.5374868   4.4330245  16.1128471  )
        42           O1  tau(  42) = (   2.0037144   4.4952966  15.9584979  )
        43           Ti1 tau(  43) = (   3.1911318   0.0573200  16.2061952  )
        44           Ti1 tau(  44) = (   6.5299348   4.6473693  16.0672121  )
        45           O1  tau(  45) = (   3.2900926   2.9813045   4.7018136  )
        46           O1  tau(  46) = (   1.3039711   4.4726057   6.0039043  )
        47           O1  tau(  47) = (   5.2763189   4.4711207   6.0039473  )
        48           N1  tau(  48) = (   1.2509970   2.8552009  18.3001485  )
        49           N1  tau(  49) = (   0.1090600   2.9410495  17.4585617  )
        50           C1  tau(  50) = (   1.1217997   3.5424446  19.5707766  )
        51           H1  tau(  51) = (   0.2696121   3.1616043  20.1716506  )
        52           H1  tau(  52) = (   2.0314425   3.4001925  20.1392599  )
        53           H1  tau(  53) = (   0.9679189   4.6079482  19.3970517  )
        54           H1  tau(  54) = (   1.5306055   1.8840965  18.4148701  )
        55           H1  tau(  55) = (   5.8389999   2.9001924  18.0325661  )
        56           O1  tau(  56) = (   3.2424369   0.1001929  18.0579484  )
        57           H1  tau(  57) = (   3.9792659   5.6040190  18.4897823  )

     number of k points=    10  Fermi-Dirac smearing, width (Ry)=  0.0073
                       cart. coord. in units 2pi/alat
        k(    1) = (   0.0000000   0.0000000   0.0000000), wk =   0.1250000
        k(    2) = (   0.0000000   0.0419351   0.0000000), wk =   0.2500000
        k(    3) = (   0.0000000  -0.0838702   0.0000000), wk =   0.1250000
        k(    4) = (   0.0379955   0.0000049   0.0000000), wk =   0.2500000
        k(    5) = (   0.0379955   0.0419400   0.0000000), wk =   0.2500000
        k(    6) = (   0.0379955  -0.0838652   0.0000000), wk =   0.2500000
        k(    7) = (   0.0379955  -0.0419301   0.0000000), wk =   0.2500000
        k(    8) = (  -0.0759910  -0.0000099   0.0000000), wk =   0.1250000
        k(    9) = (  -0.0759910   0.0419252   0.0000000), wk =   0.2500000
        k(   10) = (  -0.0759910  -0.0838800   0.0000000), wk =   0.1250000

     Initial potential from superposition of free atoms

     starting charge  387.99913, renormalised to  404.00000

     negative rho (up, down):  1.467E-02 0.000E+00

     %%%%%%%%%%%%%%%%%%%%%%%%%%%%%%%%%%%%%%%%%%%%%%%%%%%%%%%%%%%%%%%%%%%%%%%%
     %                                                                      %
     % You are using vdW-DF, which was implemented by the Thonhauser group. %
     % Please cite the following two papers that made this development      %
     % possible and the two reviews that describe the various versions:     %
     %                                                                      %
     %   T. Thonhauser et al., PRL 115, 136402 (2015).                      %
     %   T. Thonhauser et al., PRB 76, 125112 (2007).                       %
     %   K. Berland et al., Rep. Prog. Phys. 78, 066501 (2015).             %
     %   D.C. Langreth et al., J. Phys.: Condens. Matter 21, 084203 (2009). %
     %                                                                      %
     %                                                                      %
     % If you are calculating the stress with vdW-DF, please also cite:     %
     %                                                                      %
     %   R. Sabatini et al., J. Phys.: Condens. Matter 24, 424209 (2012).   %
     %                                                                      %
     %%%%%%%%%%%%%%%%%%%%%%%%%%%%%%%%%%%%%%%%%%%%%%%%%%%%%%%%%%%%%%%%%%%%%%%%

     Adding external electric field

     Computed dipole along edir(3) :
        Dipole              -12.7315 Ry au,        -32.3602 Debye
        Dipole field         -0.0240 Ry au,

        Potential amp.        2.2272 Ry
        Total length         46.3494 bohr

     Starting wfcs are  306 atomic wfcs
  @ DRIVER MODE: Message from server: STATUS
  @ DRIVER MODE: Message from server: POSDATA
  @ DRIVER MODE: Reading and sharing cell
  @ DRIVER MODE: Reading and sharing positions
  @ DRIVER MODE: Received positions

     Self-consistent Calculation

     iteration #  1     ecut=    29.40 Ry     beta= 0.05
     Davidson diagonalization with overlap
     c_bands:  4 eigenvalues not converged
     c_bands:  5 eigenvalues not converged
     c_bands:  5 eigenvalues not converged
     c_bands:  5 eigenvalues not converged
     c_bands:  1 eigenvalues not converged
     c_bands:  3 eigenvalues not converged
     c_bands:  4 eigenvalues not converged
     c_bands:  4 eigenvalues not converged
     ethr =  1.00E-05,  avg # of iterations = 24.4

[...]

     total energy              =   -2345.46356950 Ry
     estimated scf accuracy    <    7121.32370288 Ry

     iteration #  2     ecut=    29.40 Ry     beta= 0.05
     Davidson diagonalization with overlap
     ethr =  1.00E-02,  avg # of iterations = 24.0

[...]

     iteration # 56     ecut=    29.40 Ry     beta= 0.05
     Davidson diagonalization with overlap
     c_bands:  1 eigenvalues not converged
     c_bands:  1 eigenvalues not converged
     c_bands:  1 eigenvalues not converged
     c_bands:  1 eigenvalues not converged
     ethr =  6.29E-07,  avg # of iterations = 13.8

[...]

     total energy              =   -2975.25019144 Ry
     estimated scf accuracy    <       0.00000022 Ry

     iteration # 81     ecut=    29.40 Ry     beta= 0.05
     Davidson diagonalization with overlap
     ethr =  2.65E-11,  avg # of iterations =  4.0

     negative rho (up, down):  1.541E-02 0.000E+00

     Adding external electric field

     Computed dipole along edir(3) :
        Dipole                0.5375 Ry au,          1.3662 Debye
        Dipole field          0.0010 Ry au,

        Potential amp.       -0.0940 Ry
        Total length         46.3494 bohr

     End of self-consistent calculation

          k = 0.0000 0.0000 0.0000 ( 18029 PWs)   bands (ev):

   -56.4257 -56.3921 -55.7710 -55.7362 -55.5391 -55.4781 -55.3676 -55.2121
   -55.2078 -55.1396 -55.1038 -55.0889 -55.0550 -55.0525 -54.9851 -54.8670
   -32.8589 -32.7102 -32.6822 -32.5933 -32.5019 -32.4845 -32.2511 -32.0173
   -31.9904 -31.9676 -31.9147 -31.9092 -31.8797 -31.7672 -31.7552 -31.7473
   -31.7042 -31.6966 -31.6803 -31.6400 -31.6356 -31.6248 -31.5765 -31.5555
   -31.5160 -31.4832 -31.4793 -31.4288 -31.4185 -31.4112 -31.4047 -31.3873
   -31.3670 -31.3666 -31.3303 -31.3119 -31.3075 -31.2992 -31.2824 -31.2395
   -31.2349 -31.2163 -31.2052 -31.1850 -31.1153 -31.1111 -31.1046 -31.0603
   -16.6159 -16.5708 -16.1906 -16.1725 -15.8659 -15.7998 -15.7758 -15.7402
   -15.6780 -15.5573 -15.4373 -15.3913 -15.3849 -15.3361 -15.1765 -15.0793
   -14.9860 -14.9142 -14.9064 -14.8591 -14.8508 -14.8225 -14.8102 -14.8009
   -14.7358 -14.7013 -14.5926 -14.5491 -14.4522 -14.2575 -14.1800 -13.5865
   -13.4766 -11.5505  -8.6578  -5.0426  -4.2675  -4.1665  -3.7837  -3.6924
    -3.5182  -3.4387  -3.2934  -3.2613  -3.1762  -3.0731  -3.0100  -2.9534
    -2.9424  -2.8372  -2.6890  -2.6373  -2.6326  -2.6085  -2.6033  -2.5079
    -2.4443  -2.4108  -2.3429  -2.2737  -2.2421  -2.1590  -2.1520  -2.1246
    -2.1035  -2.0755  -2.0343  -1.9827  -1.9541  -1.9385  -1.8252  -1.7857
    -1.7569  -1.7103  -1.6767  -1.6031  -1.5684  -1.5219  -1.4442  -1.3843
    -1.2600  -1.2350  -1.1699  -1.1533  -1.1235  -1.0042  -0.9614  -0.9270
    -0.8666  -0.8330  -0.7671  -0.7425  -0.7121  -0.6744  -0.6662  -0.6256
    -0.5186  -0.4913  -0.3622  -0.3437  -0.2932  -0.2231  -0.2118  -0.1576
    -0.1359  -0.1006  -0.0537  -0.0198   0.0243   0.0922   0.1307   0.2174
     0.2614   0.3238   0.4194   0.4490   0.4713   0.5336   0.5517   0.5843
     0.6301   0.7237   0.7332   0.7935   0.8698   0.9144   0.9341   0.9931
     1.0536   1.0723   1.1726   1.1996   1.2101   1.2655   1.4742   1.5145
     1.6901   2.4491   2.8386   2.9851   3.2709   3.3020   3.5620   3.7976
     3.8278   3.8297   3.9115   4.0118

[...]

          k = 0.0380-0.0419 0.0000 ( 17876 PWs)   bands (ev):

[...]

          k =-0.0760-0.0000 0.0000 ( 17886 PWs)   bands (ev):

[...]

          k =-0.0760-0.0839 0.0000 ( 17948 PWs)   bands (ev):

   -56.4091 -56.4086 -55.7583 -55.7487 -55.5340 -55.4831 -55.3662 -55.2133
   -55.2031 -55.1440 -55.1016 -55.0724 -55.0713 -55.0511 -54.9874 -54.8683
   -32.6960 -32.6956 -32.6758 -32.6751 -32.5461 -32.5459 -32.0762 -32.0678
   -31.9524 -31.9449 -31.9412 -31.9388 -31.8371 -31.7983 -31.7613 -31.7530
   -31.7087 -31.7034 -31.6657 -31.6166 -31.5841 -31.5652 -31.5404 -31.5006
   -31.4880 -31.4849 -31.4351 -31.4333 -31.4181 -31.4178 -31.4172 -31.3971
   -31.3833 -31.3569 -31.3359 -31.3232 -31.3116 -31.2970 -31.2968 -31.2956
   -31.2585 -31.2575 -31.2419 -31.2368 -31.1920 -31.1775 -31.1163 -31.0917
   -16.5458 -16.1775 -15.9968 -15.9928 -15.9131 -15.9104 -15.7025 -15.6969
   -15.5266 -15.4976 -15.4240 -15.3054 -15.2533 -15.1969 -15.1897 -15.1463
   -15.0933 -15.0737 -15.0317 -15.0142 -14.9517 -14.9081 -14.8591 -14.8131
   -14.7944 -14.7557 -14.6346 -14.5851 -14.5787 -14.3921 -14.3610 -13.5806
   -13.5799 -11.5572  -8.6645  -5.0508  -4.2656  -3.7547  -3.3887  -3.0990
    -3.0809  -3.0350  -3.0259  -2.8105  -2.7897  -2.7654  -2.6916  -2.6789
    -2.6291  -2.6216  -2.5300  -2.4896  -2.4472  -2.4327  -2.4184  -2.3634
    -2.3383  -2.2907  -2.2875  -2.2532  -2.2175  -2.1852  -2.1572  -2.1147
    -2.0949  -2.0816  -2.0437  -2.0153  -1.9840  -1.9351  -1.9126  -1.8858
    -1.8702  -1.8514  -1.6919  -1.6391  -1.5826  -1.5441  -1.5123  -1.4446
    -1.4325  -1.3771  -1.3176  -1.2847  -1.2555  -1.2382  -1.1518  -1.1192
    -1.1027  -1.0692  -1.0264  -0.9655  -0.9082  -0.8591  -0.7820  -0.6887
    -0.6583  -0.6417  -0.6140  -0.6066  -0.5667  -0.5141  -0.4259  -0.3739
    -0.3212  -0.3040  -0.2608  -0.2555  -0.2257  -0.1882  -0.1178   0.0054
     0.0697   0.1070   0.1618   0.2167   0.2737   0.3390   0.3804   0.4624
     0.5414   0.5629   0.6484   0.6815   0.8050   0.8489   0.9642   1.0058
     1.0431   1.0879   1.1570   1.2550   1.2802   1.3253   1.3270   1.3437
     1.3579   2.4750   3.4053   3.4082   3.4586   3.4661   3.7403   3.7485
     3.8824   3.8842   4.0076   4.0204

     the Fermi energy is     2.7202 ev

!    total energy              =   -2975.25019850 Ry
     estimated scf accuracy    <       0.00000007 Ry
     smearing contrib. (-TS)   =      -0.00757230 Ry
     internal energy E=F+TS    =   -2975.24262619 Ry

     The total energy is F=E-TS. E is the sum of the following terms:
     one-electron contribution =  -23773.57291195 Ry
     hartree contribution      =   11982.41478754 Ry
     xc contribution           =    -494.80957157 Ry
     ewald contribution        =    9310.72452459 Ry
     electric field correction =       0.00054519 Ry

     convergence has been achieved in  81 iterations

     Forces acting on atoms (cartesian axes, Ry/au):

     atom    1 type  1   force =     0.00002330   -0.00034790    0.11615176
     atom    2 type  1   force =    -0.00014783    0.00031934   -0.16025207
     atom    3 type  2   force =     0.00004569    0.00032717   -0.05312209
     atom    4 type  2   force =     0.00007191   -0.00041809    0.02655418
     atom    5 type  2   force =    -0.00502456   -0.00226382   -0.01000460
     atom    6 type  2   force =     0.00670827   -0.00183643   -0.01073552
     atom    7 type  1   force =    -0.00038602   -0.00640357    0.04560885
     atom    8 type  1   force =     0.00056941    0.01079372    0.08176081
     atom    9 type  2   force =    -0.00001692    0.00036670   -0.00009532
     atom   10 type  2   force =    -0.00139933    0.00155021   -0.05447066
     atom   11 type  2   force =     0.00074394    0.00028700   -0.00021676
     atom   12 type  2   force =    -0.00116201    0.00021426    0.00020509
     atom   13 type  1   force =    -0.00023016   -0.00090725    0.00028653
     atom   14 type  1   force =     0.00047031    0.00123859   -0.00030795
     atom   15 type  2   force =    -0.00000365   -0.00048156    0.00049243
     atom   16 type  2   force =    -0.00029963    0.00058129    0.00100021
     atom   17 type  2   force =    -0.00068041   -0.00043543    0.00020724
     atom   18 type  2   force =     0.00073773   -0.00024131    0.00017214
     atom   19 type  1   force =    -0.00061571   -0.00057961   -0.00048541
     atom   20 type  1   force =     0.00043228   -0.00050940   -0.00037179
     atom   21 type  2   force =     0.00007443    0.00015070    0.09918990
     atom   22 type  2   force =     0.00029402   -0.00042472    0.00080116
     atom   23 type  2   force =    -0.07949089   -0.00002320   -0.03162471
     atom   24 type  2   force =     0.07940996    0.00040680   -0.03165864
     atom   25 type  1   force =     0.00017086   -0.00036845    0.11642848
     atom   26 type  1   force =    -0.00008804   -0.00142113   -0.16038779
     atom   27 type  2   force =     0.00013485   -0.00011678   -0.05150622
     atom   28 type  2   force =     0.00003153    0.00129471    0.02174760
     atom   29 type  2   force =    -0.00384227    0.00422393   -0.01240190
     atom   30 type  2   force =     0.00542615    0.00483577   -0.01299392
     atom   31 type  1   force =    -0.00015592    0.00313890    0.03058613
     atom   32 type  1   force =     0.00051230   -0.01302362    0.08262509
     atom   33 type  2   force =     0.00017956   -0.00051026    0.00029907
     atom   34 type  2   force =    -0.00049671    0.00168500   -0.06784114
     atom   35 type  2   force =    -0.00044942   -0.00064878   -0.00007853
     atom   36 type  2   force =     0.00007581   -0.00003390    0.00000112
     atom   37 type  1   force =    -0.00012112   -0.00121672   -0.00026404
     atom   38 type  1   force =     0.00047998   -0.00033286    0.00010763
     atom   39 type  2   force =     0.00015544    0.00032409    0.00008067
     atom   40 type  2   force =    -0.00012994   -0.00023654    0.00026638
     atom   41 type  2   force =     0.00116249   -0.00004265    0.00020439
     atom   42 type  2   force =    -0.00106945   -0.00037696    0.00025038
     atom   43 type  1   force =     0.00007871   -0.00076141   -0.00001543
     atom   44 type  1   force =     0.00041417    0.00072707   -0.00048756
     atom   45 type  2   force =     0.00007498   -0.00002936    0.09901156
     atom   46 type  2   force =    -0.07950356   -0.00001425   -0.03163752
     atom   47 type  2   force =     0.07944124    0.00043007   -0.03166056
     atom   48 type  3   force =     0.00182255   -0.00101675   -0.00150746
     atom   49 type  3   force =    -0.00048668    0.00089307    0.00135183
     atom   50 type  4   force =    -0.02114210    0.00168951   -0.00185977
     atom   51 type  5   force =     0.00542664    0.00256712   -0.00324048
     atom   52 type  5   force =     0.00890894   -0.00177476    0.00430027
     atom   53 type  5   force =     0.00247409   -0.00104726   -0.00022744
     atom   54 type  5   force =    -0.00001843   -0.00157177   -0.00030832
     atom   55 type  5   force =    -0.00059213    0.00015175    0.00052172
     atom   56 type  2   force =     0.00113910   -0.00021495   -0.00000385
     atom   57 type  5   force =    -0.00013771    0.00143467   -0.00044516

     Total force =     0.399751     Total SCF correction =     0.000568
  @ DRIVER MODE: Message from server: STATUS
  @ DRIVER MODE: Message from server: GETFORCE
  @ DRIVER MODE: Returning v,forces,stress,ensemble

     Writing output data file ./calc.save/
  @ DRIVER MODE: Message from server: EXIT
  @ DRIVE MODE: Exiting

     General routines

     Parallel routines

   This run was terminated on:   4: 5: 8  23Sep2021

   JOB DONE.