     Program PWSCF v.6.7GPU starts on 27Sep2021 at 16:14:34

     R & G space division:  proc/nbgrp/npool/nimage =       8
     Reading input from /storage/home/hcoda1/3/ntian30/research/carbon/CxH_vib/H2O_calc/ads_slab/CH3OHN2H2O_a/out_0001/pw.inp
Warning: card &CELL ignored
Warning: card   CELL_DYNAMICS='IPI', ignored
Warning: card / ignored

     Current dimensions of program PWSCF are:
     Max number of different atomic species (ntypx) = 10
     Max number of k-points (npk) =  40000
     Max angular momentum in pseudopotentials (lmaxx) =  3
     Presently no symmetry can be used with electric field

     Message from routine cell_base_init:
     DEPRECATED: use true lattice parameter, not A to a.u. conversion factor

     IMPORTANT: XC functional enforced from input :
     Exchange-correlation= BEEF-VDW
                           (   1   4  43  14   2   0   0)
     Any further DFT definition will be discarded
     Please, verify this is what you really want

  @ DRIVER MODE: Connecting to
 qe_1139763_3000313.sched-torque.pace.gatech.eduxa6qb4v4_scratch
  using UNIX socket
  @ DRIVER MODE: Message from server: STATUS
  @ DRIVER MODE: Message from server: INIT
  @ DRIVER MODE: Receiving replica           0          -1
  @ DRIVER MODE: Receiving encoded integer          25
  @ DRIVER MODE:  SCF:  T  FORCE:  T  STRESS:  F  VC:  F  ENSEMBLE:  F
  @ DRIVER MODE:  SCF:  T  FORCE:  T  STRESS:  F  VC:  F  ENSEMBLE:  F

     Using Slab Decomposition

     bravais-lattice index     =            0
     lattice parameter (alat)  =       1.8897  a.u.
     unit-cell volume          =    6658.9804 (a.u.)^3
     number of atoms/cell      =           58
     number of atomic types    =            5
     number of electrons       =       410.00
     number of Kohn-Sham states=          215
     kinetic-energy cutoff     =      29.3995  Ry
     charge density cutoff     =     293.9946  Ry
     scf convergence threshold =      7.3E-08
     mixing beta               =       0.0500
     number of iterations used =            8  plain     mixing
     Exchange-correlation= BEEF-VDW
                           (   1   4  43  14   2   0   0)

     celldm(1)=   1.889726  celldm(2)=   0.000000  celldm(3)=   0.000000
     celldm(4)=   0.000000  celldm(5)=   0.000000  celldm(6)=   0.000000

     crystal axes: (cart. coord. in units of alat)
               a(1) = (   6.579727   0.000000   0.000000 )
               a(2) = (  -0.000775   5.961596   0.000000 )
               a(3) = (   0.000000   0.000000  25.155947 )

     reciprocal axes: (cart. coord. in units 2 pi/alat)
               b(1) = (  0.151982  0.000020  0.000000 )
               b(2) = (  0.000000  0.167740  0.000000 )
               b(3) = (  0.000000  0.000000  0.039752 )

     PseudoPot. # 1 for Ti read from file:
     /storage/coda1/p-amedford6/0/shared/rich_project_chbe-medford/medford-share/data/pseudos_module/espresso/nninc/pbe/van/Ti.UPF
     MD5 check sum: 8e4df49b7f0d34bbd5052bf3f5ea0213
     Pseudo is Ultrasoft, Zval = 12.0
     Generated by new atomic code, or converted to UPF format
     Using radial grid of  851 points,  6 beta functions with:
                l(1) =   0
                l(2) =   0
                l(3) =   1
                l(4) =   1
                l(5) =   2
                l(6) =   2
     Q(r) pseudized with  8 coefficients,  rinner =    1.000   1.000   1.000
                                                       1.000   1.000

     PseudoPot. # 2 for O  read from file:
     /storage/coda1/p-amedford6/0/shared/rich_project_chbe-medford/medford-share/data/pseudos_module/espresso/nninc/pbe/van/O.UPF
     MD5 check sum: 78c19812648e8988a0fe644b0f25305e
     Pseudo is Ultrasoft, Zval =  6.0
     Generated by new atomic code, or converted to UPF format
     Using radial grid of  737 points,  4 beta functions with:
                l(1) =   0
                l(2) =   0
                l(3) =   1
                l(4) =   1
     Q(r) pseudized with  8 coefficients,  rinner =    0.800   0.800   0.800

     PseudoPot. # 3 for C  read from file:
     /storage/coda1/p-amedford6/0/shared/rich_project_chbe-medford/medford-share/data/pseudos_module/espresso/nninc/pbe/van/C.UPF
     MD5 check sum: 1a69bf6b8db32088f5b2163dbdb77a27
     Pseudo is Ultrasoft, Zval =  4.0
     Generated by new atomic code, or converted to UPF format
     Using radial grid of  721 points,  4 beta functions with:
                l(1) =   0
                l(2) =   0
                l(3) =   1
                l(4) =   1
     Q(r) pseudized with  8 coefficients,  rinner =    0.800   0.800   0.800

     PseudoPot. # 4 for H  read from file:
     /storage/coda1/p-amedford6/0/shared/rich_project_chbe-medford/medford-share/data/pseudos_module/espresso/nninc/pbe/van/H.UPF
     MD5 check sum: b5ee9d7bfd3a09ee7748110bda690ff7
     Pseudo is Ultrasoft, Zval =  1.0
     Generated by new atomic code, or converted to UPF format
     Using radial grid of  615 points,  1 beta functions with:
                l(1) =   0
     Q(r) pseudized with  8 coefficients,  rinner =    0.800

     PseudoPot. # 5 for N  read from file:
     /storage/coda1/p-amedford6/0/shared/rich_project_chbe-medford/medford-share/data/pseudos_module/espresso/nninc/pbe/van/N.UPF
     MD5 check sum: 90d10febe142ad51ac9d5be1deb811c4
     Pseudo is Ultrasoft, Zval =  5.0
     Generated by new atomic code, or converted to UPF format
     Using radial grid of  729 points,  4 beta functions with:
                l(1) =   0
                l(2) =   0
                l(3) =   1
                l(4) =   1
     Q(r) pseudized with  8 coefficients,  rinner =    0.800   0.800   0.800

     atomic species   valence    mass     pseudopotential
        Ti1           12.00    47.86700     Ti( 1.00)
        O1             6.00    15.99900     O ( 1.00)
        C1             4.00    12.01100     C ( 1.00)
        H1             1.00     1.00800     H ( 1.00)
        N1             5.00    14.00700     N ( 1.00)

     No symmetry found

   Cartesian axes

     site n.     atom                  positions (alat units)
         1           Ti1 tau(   1) = (   0.0004258   2.9801865   6.0000000  )
         2           Ti1 tau(   2) = (   3.2906075   1.4906267   6.0002472  )
         3           O1  tau(   3) = (   0.0006271   0.0005054   7.9858123  )
         4           O1  tau(   4) = (   3.2906025   0.0005020   7.3038282  )
         5           O1  tau(   5) = (   4.5942328   1.4918067   9.2879030  )
         6           O1  tau(   6) = (   1.9868534   1.4903216   9.2879459  )
         7           Ti1 tau(   7) = (   3.3250738   2.9918783   9.1599549  )
         8           Ti1 tau(   8) = (   0.0412716   1.4903975   9.2658274  )
         9           O1  tau(   9) = (   3.2852344   0.0116916  11.3753809  )
        10           O1  tau(  10) = (   6.5701620   0.0027176  10.6052010  )
        11           O1  tau(  11) = (   1.2758103   1.4969824  12.6410148  )
        12           O1  tau(  12) = (   5.2796941   1.4985041  12.6691897  )
        13           Ti1 tau(  13) = (   6.5531116   2.9870417  12.5348353  )
        14           Ti1 tau(  14) = (   3.2504356   1.4995581  12.5215122  )
        15           O1  tau(  15) = (   0.0383206   0.0046779  14.6787597  )
        16           O1  tau(  16) = (   3.2537876   0.0095675  14.0320577  )
        17           O1  tau(  17) = (   4.5855444   1.5609978  16.0639115  )
        18           O1  tau(  18) = (   2.0343745   1.5440679  16.2001998  )
        19           Ti1 tau(  19) = (   3.3058624   3.0043567  15.7064231  )
        20           Ti1 tau(  20) = (   6.5549511   1.4266458  15.8675638  )
        21           O1  tau(  21) = (   3.2904802   0.0005063   4.7018136  )
        22           O1  tau(  22) = (   6.4974171   0.0126247  17.2237355  )
        23           O1  tau(  23) = (   1.3043587   1.4918075   6.0039043  )
        24           O1  tau(  24) = (   5.2767064   1.4903225   6.0039473  )
        25           Ti1 tau(  25) = (   0.0000382   5.9609847   6.0000000  )
        26           Ti1 tau(  26) = (   3.2902200   4.4714249   6.0002472  )
        27           O1  tau(  27) = (   0.0002396   2.9813036   7.9858123  )
        28           O1  tau(  28) = (   3.2902150   2.9813002   7.3038282  )
        29           O1  tau(  29) = (   4.5938453   4.4726049   9.2879030  )
        30           O1  tau(  30) = (   1.9864658   4.4711199   9.2879459  )
        31           Ti1 tau(  31) = (   3.3194574   0.0113313   9.1541029  )
        32           Ti1 tau(  32) = (   0.0414074   4.4589881   9.2683624  )
        33           O1  tau(  33) = (   3.2821265   2.9896323  11.3676027  )
        34           O1  tau(  34) = (   6.5712111   2.9825298  10.6251173  )
        35           O1  tau(  35) = (   1.2751242   4.4805681  12.6359318  )
        36           O1  tau(  36) = (   5.2791817   4.4782367  12.6627471  )
        37           Ti1 tau(  37) = (   6.5506445   0.0032150  12.4806913  )
        38           Ti1 tau(  38) = (   3.2507345   4.4881811  12.5195668  )
        39           O1  tau(  39) = (   0.0469291   2.9928743  14.8464778  )
        40           O1  tau(  40) = (   3.2514374   2.9975957  13.9281162  )
        41           O1  tau(  41) = (   4.5866068   4.4203933  16.0984022  )
        42           O1  tau(  42) = (   2.0418857   4.4579080  16.2200674  )
        43           Ti1 tau(  43) = (   3.2648600   0.0292614  15.8571223  )
        44           Ti1 tau(  44) = (   6.5763064   4.6169283  15.9626260  )
        45           O1  tau(  45) = (   3.2900926   2.9813045   4.7018136  )
        46           O1  tau(  46) = (   1.3039711   4.4726057   6.0039043  )
        47           O1  tau(  47) = (   5.2763189   4.4711207   6.0039473  )
        48           C1  tau(  48) = (   6.0201898   2.9050411  18.9351799  )
        49           O1  tau(  49) = (   0.1575529   2.9516393  17.6723866  )
        50           H1  tau(  50) = (   4.9714676   2.8818909  18.6991823  )
        51           H1  tau(  51) = (   1.1132637   2.8218831  17.8130049  )
        52           H1  tau(  52) = (   6.2985093   1.9952365  19.4696065  )
        53           H1  tau(  53) = (   6.2732381   3.7939772  19.5169533  )
        54           N1  tau(  54) = (   4.8840950   3.1052494  22.6850861  )
        55           N1  tau(  55) = (   4.2680757   3.3403818  21.7970487  )
        56           O1  tau(  56) = (   3.8772584   0.1141246  18.3039653  )
        57           H1  tau(  57) = (   4.8407149   0.0692883  18.0716375  )
        58           H1  tau(  58) = (   3.6680196   5.2122673  18.6877519  )

     number of k points=    10  Fermi-Dirac smearing, width (Ry)=  0.0073
                       cart. coord. in units 2pi/alat
        k(    1) = (   0.0000000   0.0000000   0.0000000), wk =   0.1250000
        k(    2) = (   0.0000000   0.0419351   0.0000000), wk =   0.2500000
        k(    3) = (   0.0000000  -0.0838702   0.0000000), wk =   0.1250000
        k(    4) = (   0.0379955   0.0000049   0.0000000), wk =   0.2500000
        k(    5) = (   0.0379955   0.0419400   0.0000000), wk =   0.2500000
        k(    6) = (   0.0379955  -0.0838652   0.0000000), wk =   0.2500000
        k(    7) = (   0.0379955  -0.0419301   0.0000000), wk =   0.2500000
        k(    8) = (  -0.0759910  -0.0000099   0.0000000), wk =   0.1250000
        k(    9) = (  -0.0759910   0.0419252   0.0000000), wk =   0.2500000
        k(   10) = (  -0.0759910  -0.0838800   0.0000000), wk =   0.1250000

     Initial potential from superposition of free atoms

     starting charge  393.99913, renormalised to  410.00000

     negative rho (up, down):  9.555E-03 0.000E+00

     %%%%%%%%%%%%%%%%%%%%%%%%%%%%%%%%%%%%%%%%%%%%%%%%%%%%%%%%%%%%%%%%%%%%%%%%
     %                                                                      %
     % You are using vdW-DF, which was implemented by the Thonhauser group. %
     % Please cite the following two papers that made this development      %
     % possible and the two reviews that describe the various versions:     %
     %                                                                      %
     %   T. Thonhauser et al., PRL 115, 136402 (2015).                      %
     %   T. Thonhauser et al., PRB 76, 125112 (2007).                       %
     %   K. Berland et al., Rep. Prog. Phys. 78, 066501 (2015).             %
     %   D.C. Langreth et al., J. Phys.: Condens. Matter 21, 084203 (2009). %
     %                                                                      %
     %                                                                      %
     % If you are calculating the stress with vdW-DF, please also cite:     %
     %                                                                      %
     %   R. Sabatini et al., J. Phys.: Condens. Matter 24, 424209 (2012).   %
     %                                                                      %
     %%%%%%%%%%%%%%%%%%%%%%%%%%%%%%%%%%%%%%%%%%%%%%%%%%%%%%%%%%%%%%%%%%%%%%%%

     Adding external electric field

     Computed dipole along edir(3) :
        Dipole              -20.0784 Ry au,        -51.0342 Debye
        Dipole field         -0.0379 Ry au,

        Potential amp.        3.5124 Ry
        Total length         46.3494 bohr

     Starting wfcs are  310 atomic wfcs
  @ DRIVER MODE: Message from server: STATUS
  @ DRIVER MODE: Message from server: POSDATA
  @ DRIVER MODE: Reading and sharing cell
  @ DRIVER MODE: Reading and sharing positions
  @ DRIVER MODE: Received positions

     Self-consistent Calculation

     iteration #  1     ecut=    29.40 Ry     beta= 0.05
     Davidson diagonalization with overlap
     c_bands:  1 eigenvalues not converged
     c_bands:  1 eigenvalues not converged
     c_bands:  5 eigenvalues not converged
     c_bands:  1 eigenvalues not converged
     c_bands:  4 eigenvalues not converged
     c_bands:  3 eigenvalues not converged
     ethr =  1.00E-05,  avg # of iterations = 32.2

[...]

     total energy              =   -2098.61839099 Ry
     estimated scf accuracy    <   10668.27883073 Ry

     iteration #  2     ecut=    29.40 Ry     beta= 0.05
     Davidson diagonalization with overlap
     ethr =  1.00E-02,  avg # of iterations = 30.8

[...]

     iteration #104     ecut=    29.40 Ry     beta= 0.05
     Davidson diagonalization with overlap
     ethr =  3.55E-11,  avg # of iterations =  7.7

[...]

     total energy              =   -3007.66302060 Ry
     estimated scf accuracy    <       0.00000009 Ry

     iteration #106     ecut=    29.40 Ry     beta= 0.05
     Davidson diagonalization with overlap
     c_bands:  1 eigenvalues not converged
     c_bands:  1 eigenvalues not converged
     ethr =  2.14E-11,  avg # of iterations = 15.4

     negative rho (up, down):  1.050E-02 0.000E+00

     Adding external electric field

     Computed dipole along edir(3) :
        Dipole                1.2311 Ry au,          3.1291 Debye
        Dipole field          0.0023 Ry au,

        Potential amp.       -0.2154 Ry
        Total length         46.3494 bohr

     End of self-consistent calculation

          k = 0.0000 0.0000 0.0000 ( 18029 PWs)   bands (ev):

   -54.9340 -54.9102 -54.8980 -54.8759 -54.8609 -54.8554 -54.8283 -54.8087
   -54.7810 -54.7784 -54.7439 -54.7233 -54.6919 -54.6894 -53.9984 -53.9643
   -31.4998 -31.4733 -31.4060 -31.3130 -31.2540 -31.2484 -31.2362 -31.2343
   -31.1989 -31.1644 -31.1549 -31.1529 -31.1486 -31.1255 -31.1188 -31.1128
   -31.0959 -31.0777 -31.0719 -31.0702 -31.0635 -31.0557 -31.0330 -31.0269
   -31.0262 -31.0205 -31.0057 -31.0034 -31.0027 -30.9666 -30.9495 -30.9296
   -30.9281 -30.9270 -30.9189 -30.9173 -30.9078 -30.8775 -30.8633 -30.8589
   -30.8544 -30.8349 -30.4104 -30.3080 -30.2864 -30.2266 -30.1402 -30.0293
   -21.6247 -19.7662 -18.2772 -15.7670 -15.5209 -15.3816 -15.2843 -15.1607
   -15.0304 -14.9567 -14.8363 -14.7643 -14.6706 -14.6571 -14.6387 -14.6173
   -14.5844 -14.5582 -14.5014 -14.4962 -14.4415 -14.4381 -14.4275 -14.4167
   -14.3838 -14.3681 -14.3374 -14.3282 -14.1657 -14.1000 -14.0405 -13.8958
   -12.4993 -12.3799 -10.8389  -6.8752  -6.5316  -6.0350  -4.8566  -4.7815
    -4.7314  -4.6048  -3.5475  -3.1025  -2.9500  -2.9243  -2.8954  -2.8703
    -2.7558  -2.6584  -2.6333  -2.4669  -2.3711  -2.2367  -2.2097  -2.1766
    -2.1391  -2.0702  -2.0142  -1.9278  -1.8978  -1.8579  -1.8380  -1.8143
    -1.7993  -1.7718  -1.7422  -1.6701  -1.6323  -1.5475  -1.5302  -1.4418
    -1.3911  -1.3829  -1.3396  -1.2768  -1.2733  -1.2628  -1.2228  -1.2086
    -1.2007  -1.1906  -1.1836  -1.0242  -0.9775  -0.9426  -0.8202  -0.7103
    -0.6182  -0.6063  -0.5045  -0.4910  -0.4281  -0.4234  -0.3841  -0.3446
    -0.2823  -0.1858  -0.1280  -0.0820  -0.0684   0.0422   0.1080   0.1228
     0.1837   0.2594   0.2744   0.2959   0.3258   0.4122   0.4802   0.5220
     0.5567   0.6213   0.6310   0.6787   0.7075   0.7483   0.8341   0.8877
     0.8916   0.9784   0.9957   1.0089   1.0343   1.0399   1.1380   1.1721
     1.2161   1.2441   1.3954   1.4307   1.6214   1.6572   1.9169   2.0158
     2.0271   2.1886   2.6132   2.6678   4.1559   4.2239   4.2604   4.2676
     4.2823   4.3619   4.6441   4.6509   4.6644   4.6762   4.6840

[...]

          k = 0.0380-0.0419 0.0000 ( 17876 PWs)   bands (ev):

[...]

          k =-0.0760-0.0000 0.0000 ( 17886 PWs)   bands (ev):

[...]

          k =-0.0760-0.0839 0.0000 ( 17948 PWs)   bands (ev):

   -54.9170 -54.9149 -54.8949 -54.8911 -54.8562 -54.8506 -54.8211 -54.8162
   -54.7883 -54.7634 -54.7586 -54.7077 -54.7050 -54.6935 -53.9813 -53.9813
   -31.3860 -31.3087 -31.2984 -31.2227 -31.2191 -31.1968 -31.1893 -31.1877
   -31.1807 -31.1578 -31.1434 -31.1412 -31.1334 -31.1277 -31.1085 -31.0947
   -31.0793 -31.0774 -31.0683 -31.0671 -31.0653 -31.0643 -31.0587 -31.0534
   -31.0284 -31.0234 -31.0189 -31.0137 -31.0136 -31.0109 -31.0101 -31.0097
   -31.0094 -30.9807 -30.9721 -30.9614 -30.9601 -30.9329 -30.9306 -30.8946
   -30.8914 -30.8768 -30.2990 -30.2990 -30.2233 -30.2229 -30.1835 -30.1833
   -21.6245 -19.7625 -18.2762 -15.3417 -15.2288 -15.0628 -14.9544 -14.9446
   -14.9162 -14.8572 -14.8140 -14.7826 -14.7427 -14.7323 -14.7030 -14.6850
   -14.6798 -14.6222 -14.5381 -14.5324 -14.5187 -14.4834 -14.4563 -14.4423
   -14.4403 -14.4260 -14.3890 -14.3872 -14.3680 -14.3569 -14.2996 -14.2078
   -12.4813 -12.4806 -10.8417  -6.8744  -6.5338  -6.0375  -4.8531  -4.7884
    -4.7258  -4.5925  -3.5392  -2.7889  -2.5574  -2.4964  -2.4233  -2.2580
    -2.1776  -2.1569  -2.0814  -2.0573  -2.0216  -1.9434  -1.9396  -1.9058
    -1.8655  -1.8412  -1.8355  -1.8171  -1.7991  -1.7658  -1.7451  -1.7236
    -1.7104  -1.6951  -1.6487  -1.6397  -1.6039  -1.6004  -1.5856  -1.5737
    -1.5546  -1.5438  -1.4627  -1.4346  -1.3943  -1.3075  -1.2916  -1.1622
    -1.1566  -1.1078  -1.0741  -1.0357  -1.0166  -0.9959  -0.9704  -0.9385
    -0.9077  -0.7364  -0.7153  -0.6721  -0.6210  -0.6147  -0.5422  -0.5262
    -0.4713  -0.4396  -0.3503  -0.3091  -0.2691  -0.1609  -0.1339  -0.1216
     0.0165   0.0223   0.0677   0.0693   0.1114   0.1500   0.1620   0.1695
     0.2442   0.2768   0.3131   0.3391   0.3628   0.5411   0.5771   0.6361
     0.7262   0.7434   0.9219   0.9522   0.9960   1.0770   1.1383   1.1924
     1.2145   1.3227   1.3304   1.3538   1.4453   1.4937   1.4950   1.5250
     2.3784   2.3814   2.4822   2.4850   4.2804   4.4112   4.4174   4.4974
     4.5711   4.6637   4.6663   4.6786   4.7086   4.7186   4.7204

     the Fermi energy is     4.2120 ev

!    total energy              =   -3007.66302202 Ry
     estimated scf accuracy    <       0.00000006 Ry
     smearing contrib. (-TS)   =      -0.03685389 Ry
     internal energy E=F+TS    =   -3007.62616813 Ry

     The total energy is F=E-TS. E is the sum of the following terms:
     one-electron contribution =  -22339.05017591 Ry
     hartree contribution      =   11271.32456580 Ry
     xc contribution           =    -502.08040852 Ry
     ewald contribution        =    8562.17699042 Ry
     electric field correction =       0.00286009 Ry

     convergence has been achieved in 106 iterations

     Forces acting on atoms (cartesian axes, Ry/au):

     atom    1 type  1   force =    -0.00027484   -0.00001556    0.09252870
     atom    2 type  1   force =    -0.00013074    0.00114505   -0.18319313
     atom    3 type  2   force =     0.00054946   -0.00040335   -0.02390759
     atom    4 type  2   force =     0.00079791    0.00021159    0.05085123
     atom    5 type  2   force =    -0.01549679   -0.00014108    0.00435749
     atom    6 type  2   force =     0.01420984   -0.00032855    0.00504097
     atom    7 type  1   force =    -0.00010881    0.00020835    0.00006293
     atom    8 type  1   force =    -0.00007533    0.00016886   -0.00000476
     atom    9 type  2   force =     0.00007490    0.00004725    0.00010921
     atom   10 type  2   force =     0.00000182    0.00001825   -0.00006563
     atom   11 type  2   force =     0.00017737    0.00001802   -0.00015240
     atom   12 type  2   force =     0.00003516    0.00003650   -0.00007392
     atom   13 type  1   force =     0.00016757    0.00011961   -0.00000700
     atom   14 type  1   force =     0.00027044    0.00016760   -0.00010829
     atom   15 type  2   force =     0.00028692    0.00037138   -0.00004086
     atom   16 type  2   force =     0.00015646   -0.00001770    0.00018677
     atom   17 type  2   force =    -0.00002610    0.00015201    0.00017841
     atom   18 type  2   force =     0.00023289    0.00002776    0.00029260
     atom   19 type  1   force =     0.00003785   -0.00013600   -0.00001091
     atom   20 type  1   force =     0.00023665    0.00019856    0.00000668
     atom   21 type  2   force =     0.00003101    0.00001509    0.10489592
     atom   22 type  2   force =    -0.00027642   -0.00004046    0.00012987
     atom   23 type  2   force =    -0.06803421   -0.00011428   -0.02683473
     atom   24 type  2   force =     0.06789685    0.00034175   -0.02687778
     atom   25 type  1   force =    -0.00011939   -0.00002412    0.09598664
     atom   26 type  1   force =    -0.00010638   -0.00144125   -0.18311043
     atom   27 type  2   force =     0.00049986   -0.00019543   -0.02270844
     atom   28 type  2   force =     0.00086474    0.00017943    0.05124176
     atom   29 type  2   force =    -0.01541386    0.00050341    0.00453031
     atom   30 type  2   force =     0.01416539    0.00078152    0.00522932
     atom   31 type  1   force =    -0.00010080    0.00005897    0.00000106
     atom   32 type  1   force =    -0.00007746    0.00016033   -0.00004113
     atom   33 type  2   force =     0.00012501   -0.00003074    0.00015649
     atom   34 type  2   force =     0.00000119    0.00007291    0.00001548
     atom   35 type  2   force =     0.00013414   -0.00000797   -0.00004826
     atom   36 type  2   force =     0.00008047   -0.00000839    0.00007786
     atom   37 type  1   force =     0.00015968    0.00006178   -0.00008380
     atom   38 type  1   force =     0.00015612   -0.00003969    0.00004433
     atom   39 type  2   force =     0.00015690   -0.00008804   -0.00030168
     atom   40 type  2   force =     0.00002787   -0.00018138    0.00004019
     atom   41 type  2   force =     0.00018134   -0.00001669    0.00010953
     atom   42 type  2   force =    -0.00001484    0.00000953    0.00013682
     atom   43 type  1   force =    -0.00007980   -0.00018104    0.00107617
     atom   44 type  1   force =     0.00011767   -0.00011972    0.00054618
     atom   45 type  2   force =     0.00003538    0.00002011    0.10483967
     atom   46 type  2   force =    -0.06804498   -0.00050917   -0.02682651
     atom   47 type  2   force =     0.06790692   -0.00008784   -0.02690357
     atom   48 type  3   force =     0.02133245   -0.00021466    0.00298981
     atom   49 type  2   force =    -0.00433253    0.00007997    0.00063848
     atom   50 type  4   force =    -0.01173018   -0.00065757   -0.00289935
     atom   51 type  4   force =    -0.00043414   -0.00024883    0.00148941
     atom   52 type  4   force =    -0.00235227    0.00187753   -0.00115346
     atom   53 type  4   force =    -0.00247079   -0.00180604   -0.00145244
     atom   54 type  5   force =    -0.00067446   -0.00005695   -0.00068614
     atom   55 type  5   force =     0.00008859    0.00001165   -0.00017884
     atom   56 type  2   force =     0.00127807    0.00059548   -0.00076266
     atom   57 type  4   force =    -0.00095708   -0.00045874    0.00020107
     atom   58 type  4   force =    -0.00114271   -0.00008903    0.00044231

     Total force =     0.369007     Total SCF correction =     0.000810
  @ DRIVER MODE: Message from server: STATUS
  @ DRIVER MODE: Message from server: GETFORCE
  @ DRIVER MODE: Returning v,forces,stress,ensemble

     Writing output data file ./calc.save/
  @ DRIVER MODE: Message from server: EXIT
  @ DRIVE MODE: Exiting

     General routines

     Parallel routines

   This run was terminated on:  16:50: 1  27Sep2021

   JOB DONE.