     Program PWSCF v.6.7GPU starts on 23Sep2021 at 14:28:17

     R & G space division:  proc/nbgrp/npool/nimage =       8
     Reading input from /storage/home/hcoda1/3/ntian30/research/carbon/CxH_vib/H2O_calc/ads_slab/CH3NHHO_a/out_0010/pw.inp
Warning: card &CELL ignored
Warning: card   CELL_DYNAMICS='IPI', ignored
Warning: card / ignored

     Current dimensions of program PWSCF are:
     Max number of different atomic species (ntypx) = 10
     Max number of k-points (npk) =  40000
     Max angular momentum in pseudopotentials (lmaxx) =  3
     Presently no symmetry can be used with electric field

     Message from routine cell_base_init:
     DEPRECATED: use true lattice parameter, not A to a.u. conversion factor

     IMPORTANT: XC functional enforced from input :
     Exchange-correlation= BEEF-VDW
                           (   1   4  43  14   2   0   0)
     Any further DFT definition will be discarded
     Please, verify this is what you really want

  @ DRIVER MODE: Connecting to
 qe_1139763_2947309.sched-torque.pace.gatech.eduyj1f3__j_scratch
  using UNIX socket
  @ DRIVER MODE: Message from server: STATUS
  @ DRIVER MODE: Message from server: INIT
  @ DRIVER MODE: Receiving replica           0          -1
  @ DRIVER MODE: Receiving encoded integer          25
  @ DRIVER MODE:  SCF:  T  FORCE:  T  STRESS:  F  VC:  F  ENSEMBLE:  F
  @ DRIVER MODE:  SCF:  T  FORCE:  T  STRESS:  F  VC:  F  ENSEMBLE:  F

     Using Slab Decomposition

     bravais-lattice index     =            0
     lattice parameter (alat)  =       1.8897  a.u.
     unit-cell volume          =    6658.9804 (a.u.)^3
     number of atoms/cell      =           55
     number of atomic types    =            5
     number of electrons       =       398.00
     number of Kohn-Sham states=          209
     kinetic-energy cutoff     =      29.3995  Ry
     charge density cutoff     =     293.9946  Ry
     scf convergence threshold =      7.3E-08
     mixing beta               =       0.0500
     number of iterations used =            8  plain     mixing
     Exchange-correlation= BEEF-VDW
                           (   1   4  43  14   2   0   0)

     celldm(1)=   1.889726  celldm(2)=   0.000000  celldm(3)=   0.000000
     celldm(4)=   0.000000  celldm(5)=   0.000000  celldm(6)=   0.000000

     crystal axes: (cart. coord. in units of alat)
               a(1) = (   6.579727   0.000000   0.000000 )
               a(2) = (  -0.000775   5.961596   0.000000 )
               a(3) = (   0.000000   0.000000  25.155947 )

     reciprocal axes: (cart. coord. in units 2 pi/alat)
               b(1) = (  0.151982  0.000020  0.000000 )
               b(2) = (  0.000000  0.167740  0.000000 )
               b(3) = (  0.000000  0.000000  0.039752 )

     PseudoPot. # 1 for Ti read from file:
     /storage/coda1/p-amedford6/0/shared/rich_project_chbe-medford/medford-share/data/pseudos_module/espresso/nninc/pbe/van/Ti.UPF
     MD5 check sum: 8e4df49b7f0d34bbd5052bf3f5ea0213
     Pseudo is Ultrasoft, Zval = 12.0
     Generated by new atomic code, or converted to UPF format
     Using radial grid of  851 points,  6 beta functions with:
                l(1) =   0
                l(2) =   0
                l(3) =   1
                l(4) =   1
                l(5) =   2
                l(6) =   2
     Q(r) pseudized with  8 coefficients,  rinner =    1.000   1.000   1.000
                                                       1.000   1.000

     PseudoPot. # 2 for O  read from file:
     /storage/coda1/p-amedford6/0/shared/rich_project_chbe-medford/medford-share/data/pseudos_module/espresso/nninc/pbe/van/O.UPF
     MD5 check sum: 78c19812648e8988a0fe644b0f25305e
     Pseudo is Ultrasoft, Zval =  6.0
     Generated by new atomic code, or converted to UPF format
     Using radial grid of  737 points,  4 beta functions with:
                l(1) =   0
                l(2) =   0
                l(3) =   1
                l(4) =   1
     Q(r) pseudized with  8 coefficients,  rinner =    0.800   0.800   0.800

     PseudoPot. # 3 for H  read from file:
     /storage/coda1/p-amedford6/0/shared/rich_project_chbe-medford/medford-share/data/pseudos_module/espresso/nninc/pbe/van/H.UPF
     MD5 check sum: b5ee9d7bfd3a09ee7748110bda690ff7
     Pseudo is Ultrasoft, Zval =  1.0
     Generated by new atomic code, or converted to UPF format
     Using radial grid of  615 points,  1 beta functions with:
                l(1) =   0
     Q(r) pseudized with  8 coefficients,  rinner =    0.800

     PseudoPot. # 4 for N  read from file:
     /storage/coda1/p-amedford6/0/shared/rich_project_chbe-medford/medford-share/data/pseudos_module/espresso/nninc/pbe/van/N.UPF
     MD5 check sum: 90d10febe142ad51ac9d5be1deb811c4
     Pseudo is Ultrasoft, Zval =  5.0
     Generated by new atomic code, or converted to UPF format
     Using radial grid of  729 points,  4 beta functions with:
                l(1) =   0
                l(2) =   0
                l(3) =   1
                l(4) =   1
     Q(r) pseudized with  8 coefficients,  rinner =    0.800   0.800   0.800

     PseudoPot. # 5 for C  read from file:
     /storage/coda1/p-amedford6/0/shared/rich_project_chbe-medford/medford-share/data/pseudos_module/espresso/nninc/pbe/van/C.UPF
     MD5 check sum: 1a69bf6b8db32088f5b2163dbdb77a27
     Pseudo is Ultrasoft, Zval =  4.0
     Generated by new atomic code, or converted to UPF format
     Using radial grid of  721 points,  4 beta functions with:
                l(1) =   0
                l(2) =   0
                l(3) =   1
                l(4) =   1
     Q(r) pseudized with  8 coefficients,  rinner =    0.800   0.800   0.800

     atomic species   valence    mass     pseudopotential
        Ti1           12.00    47.86700     Ti( 1.00)
        O1             6.00    15.99900     O ( 1.00)
        H1             1.00     1.00800     H ( 1.00)
        N1             5.00    14.00700     N ( 1.00)
        C1             4.00    12.01100     C ( 1.00)

     No symmetry found

   Cartesian axes

     site n.     atom                  positions (alat units)
         1           Ti1 tau(   1) = (   0.0004258   2.9801865   6.0000000  )
         2           Ti1 tau(   2) = (   3.2906075   1.4906267   6.0002472  )
         3           O1  tau(   3) = (   0.0006271   0.0005054   7.9858123  )
         4           O1  tau(   4) = (   3.2906025   0.0005020   7.3038282  )
         5           O1  tau(   5) = (   4.5942328   1.4918067   9.2879030  )
         6           O1  tau(   6) = (   1.9868534   1.4903216   9.2879459  )
         7           Ti1 tau(   7) = (   3.2907910   2.8959150   9.1758416  )
         8           Ti1 tau(   8) = (   0.0015273   1.4827037   9.2680791  )
         9           O1  tau(   9) = (   3.2831040   5.9360571  11.2641146  )
        10           O1  tau(  10) = (   0.0116148   5.9584955  10.6183126  )
        11           O1  tau(  11) = (   1.2851963   1.4867209  12.6255510  )
        12           O1  tau(  12) = (   5.2924406   1.4772461  12.6192171  )
        13           Ti1 tau(  13) = (   0.0036382   2.8404764  12.7021481  )
        14           Ti1 tau(  14) = (   3.2814461   1.2926050  12.6442039  )
        15           O1  tau(  15) = (   6.5789252   5.9354829  14.6389027  )
        16           O1  tau(  16) = (   3.2852549   0.0163589  13.8648689  )
        17           O1  tau(  17) = (   4.5445832   1.5164849  16.0197972  )
        18           O1  tau(  18) = (   2.0258823   1.4930055  16.0750729  )
        19           Ti1 tau(  19) = (   3.3156224   2.9699746  15.6194889  )
        20           Ti1 tau(  20) = (   0.0515760   1.3234122  16.0730098  )
        21           O1  tau(  21) = (   3.2904802   0.0005063   4.7018136  )
        22           O1  tau(  22) = (   6.5454194   5.9222349  17.1870725  )
        23           O1  tau(  23) = (   1.3043587   1.4918075   6.0039043  )
        24           O1  tau(  24) = (   5.2767064   1.4903225   6.0039473  )
        25           Ti1 tau(  25) = (   0.0000382   5.9609847   6.0000000  )
        26           Ti1 tau(  26) = (   3.2902200   4.4714249   6.0002472  )
        27           O1  tau(  27) = (   0.0002396   2.9813036   7.9858123  )
        28           O1  tau(  28) = (   3.2902150   2.9813002   7.3038282  )
        29           O1  tau(  29) = (   4.5938453   4.4726049   9.2879030  )
        30           O1  tau(  30) = (   1.9864658   4.4711199   9.2879459  )
        31           Ti1 tau(  31) = (   3.2891106   5.8743827   9.1763621  )
        32           Ti1 tau(  32) = (   0.0006254   4.4649316   9.2693709  )
        33           O1  tau(  33) = (   3.2861177   3.0127509  11.2320142  )
        34           O1  tau(  34) = (   0.0092240   2.9805883  10.6323155  )
        35           O1  tau(  35) = (   1.2872320   4.4646868  12.6147789  )
        36           O1  tau(  36) = (   5.2799320   4.4658550  12.6114028  )
        37           Ti1 tau(  37) = (   6.5510365   5.8261734  12.6423015  )
        38           Ti1 tau(  38) = (   3.2652589   4.3917841  12.4002916  )
        39           O1  tau(  39) = (   0.0003569   2.9920414  14.6539809  )
        40           O1  tau(  40) = (   3.2835110   2.9651371  13.8409569  )
        41           O1  tau(  41) = (   4.5245492   4.4030193  16.0142317  )
        42           O1  tau(  42) = (   2.0132503   4.4096711  16.0494848  )
        43           Ti1 tau(  43) = (   3.3389516   5.9588577  16.2858146  )
        44           Ti1 tau(  44) = (   0.0865397   4.4271626  15.8895714  )
        45           O1  tau(  45) = (   3.2900926   2.9813045   4.7018136  )
        46           O1  tau(  46) = (   1.3039711   4.4726057   6.0039043  )
        47           O1  tau(  47) = (   5.2763189   4.4711207   6.0039473  )
        48           H1  tau(  48) = (   5.5649379   3.0085428  17.7754687  )
        49           N1  tau(  49) = (   6.5266086   2.9904045  17.4451690  )
        50           C1  tau(  50) = (   0.8252436   3.0135910  18.6253707  )
        51           H1  tau(  51) = (   0.7415300   3.9712607  19.1474969  )
        52           H1  tau(  52) = (   0.5789590   2.2014881  19.3161603  )
        53           H1  tau(  53) = (   1.8636945   2.8847911  18.3311598  )
        54           O1  tau(  54) = (   3.4430348   5.9447220  18.1074838  )
        55           H1  tau(  55) = (   4.3135669   5.8364121  18.5244127  )

     number of k points=    10  Fermi-Dirac smearing, width (Ry)=  0.0073
                       cart. coord. in units 2pi/alat
        k(    1) = (   0.0000000   0.0000000   0.0000000), wk =   0.1250000
        k(    2) = (   0.0000000   0.0419351   0.0000000), wk =   0.2500000
        k(    3) = (   0.0000000  -0.0838702   0.0000000), wk =   0.1250000
        k(    4) = (   0.0379955   0.0000049   0.0000000), wk =   0.2500000
        k(    5) = (   0.0379955   0.0419400   0.0000000), wk =   0.2500000
        k(    6) = (   0.0379955  -0.0838652   0.0000000), wk =   0.2500000
        k(    7) = (   0.0379955  -0.0419301   0.0000000), wk =   0.2500000
        k(    8) = (  -0.0759910  -0.0000099   0.0000000), wk =   0.1250000
        k(    9) = (  -0.0759910   0.0419252   0.0000000), wk =   0.2500000
        k(   10) = (  -0.0759910  -0.0838800   0.0000000), wk =   0.1250000

     Initial potential from superposition of free atoms

     starting charge  381.99915, renormalised to  398.00000

     negative rho (up, down):  1.687E-02 0.000E+00

     %%%%%%%%%%%%%%%%%%%%%%%%%%%%%%%%%%%%%%%%%%%%%%%%%%%%%%%%%%%%%%%%%%%%%%%%
     %                                                                      %
     % You are using vdW-DF, which was implemented by the Thonhauser group. %
     % Please cite the following two papers that made this development      %
     % possible and the two reviews that describe the various versions:     %
     %                                                                      %
     %   T. Thonhauser et al., PRL 115, 136402 (2015).                      %
     %   T. Thonhauser et al., PRB 76, 125112 (2007).                       %
     %   K. Berland et al., Rep. Prog. Phys. 78, 066501 (2015).             %
     %   D.C. Langreth et al., J. Phys.: Condens. Matter 21, 084203 (2009). %
     %                                                                      %
     %                                                                      %
     % If you are calculating the stress with vdW-DF, please also cite:     %
     %                                                                      %
     %   R. Sabatini et al., J. Phys.: Condens. Matter 24, 424209 (2012).   %
     %                                                                      %
     %%%%%%%%%%%%%%%%%%%%%%%%%%%%%%%%%%%%%%%%%%%%%%%%%%%%%%%%%%%%%%%%%%%%%%%%

     Adding external electric field

     Computed dipole along edir(3) :
        Dipole               -8.7629 Ry au,        -22.2732 Debye
        Dipole field         -0.0165 Ry au,

        Potential amp.        1.5329 Ry
        Total length         46.3494 bohr

     Starting wfcs are  301 atomic wfcs
  @ DRIVER MODE: Message from server: STATUS
  @ DRIVER MODE: Message from server: POSDATA
  @ DRIVER MODE: Reading and sharing cell
  @ DRIVER MODE: Reading and sharing positions
  @ DRIVER MODE: Received positions

     Self-consistent Calculation

     iteration #  1     ecut=    29.40 Ry     beta= 0.05
     Davidson diagonalization with overlap
     c_bands:  1 eigenvalues not converged
     c_bands:  1 eigenvalues not converged
     c_bands:  1 eigenvalues not converged
     c_bands:  2 eigenvalues not converged
     ethr =  1.00E-05,  avg # of iterations = 18.0

[...]

     total energy              =   -2565.55428237 Ry
     estimated scf accuracy    <    4291.42747846 Ry

     iteration #  2     ecut=    29.40 Ry     beta= 0.05
     Davidson diagonalization with overlap
     ethr =  1.00E-02,  avg # of iterations = 22.5

[...]

     iteration # 39     ecut=    29.40 Ry     beta= 0.05
     Davidson diagonalization with overlap
     c_bands:  1 eigenvalues not converged
     ethr =  7.51E-07,  avg # of iterations = 12.0

[...]

     total energy              =   -2954.01285396 Ry
     estimated scf accuracy    <       0.00000012 Ry

     iteration # 66     ecut=    29.40 Ry     beta= 0.05
     Davidson diagonalization with overlap
     ethr =  2.98E-11,  avg # of iterations =  2.4

     negative rho (up, down):  1.730E-02 0.000E+00

     Adding external electric field

     Computed dipole along edir(3) :
        Dipole                0.2166 Ry au,          0.5504 Debye
        Dipole field          0.0004 Ry au,

        Potential amp.       -0.0379 Ry
        Total length         46.3494 bohr

     End of self-consistent calculation

          k = 0.0000 0.0000 0.0000 ( 18029 PWs)   bands (ev):

   -56.9289 -56.8953 -56.0276 -55.9928 -55.7924 -55.7244 -55.6374 -55.4802
   -55.4463 -55.4062 -55.3941 -55.3276 -55.3224 -55.2713 -55.1315 -55.0589
   -33.3480 -33.2007 -33.1727 -33.1074 -33.0172 -32.9751 -32.5104 -32.2681
   -32.2484 -32.2224 -32.1700 -32.1650 -32.1394 -32.0281 -32.0082 -31.9612
   -31.9443 -31.9290 -31.9124 -31.8896 -31.8872 -31.8661 -31.8592 -31.8275
   -31.8274 -31.8029 -31.7578 -31.7142 -31.6845 -31.6762 -31.6171 -31.6067
   -31.6040 -31.5875 -31.5752 -31.5458 -31.5215 -31.5191 -31.5064 -31.4995
   -31.4923 -31.4353 -31.3972 -31.3738 -31.3351 -31.3139 -31.3055 -31.2400
   -17.0352 -16.4895 -16.4460 -16.2467 -16.1436 -16.1242 -16.0866 -16.0368
   -15.8377 -15.7875 -15.7499 -15.6840 -15.5861 -15.4302 -15.3332 -15.1594
   -15.1100 -15.0788 -15.0607 -15.0553 -15.0490 -15.0364 -14.9813 -14.9253
   -14.8847 -14.8021 -14.7478 -14.6368 -14.4109 -14.3812 -13.9776 -13.8706
   -13.8125  -8.4936  -4.6089  -4.1063  -3.9704  -3.9399  -3.7793  -3.6261
    -3.5010  -3.4486  -3.4229  -3.3139  -3.2975  -3.2878  -3.1983  -3.0694
    -2.9989  -2.9872  -2.9255  -2.9037  -2.8722  -2.8555  -2.6955  -2.6631
    -2.5691  -2.5171  -2.4953  -2.4148  -2.4054  -2.3455  -2.2954  -2.2833
    -2.2615  -2.2023  -2.1987  -2.1277  -2.1017  -2.0241  -2.0001  -1.9678
    -1.9444  -1.8737  -1.7975  -1.7627  -1.6078  -1.5717  -1.5391  -1.5034
    -1.4871  -1.4063  -1.3362  -1.2536  -1.2196  -1.1526  -1.1037  -1.0634
    -1.0512  -0.9363  -0.9102  -0.8567  -0.7901  -0.7738  -0.7668  -0.7217
    -0.6071  -0.5283  -0.5185  -0.4967  -0.4343  -0.4145  -0.3768  -0.3532
    -0.2758  -0.2597  -0.1509  -0.0771  -0.0468  -0.0202   0.0783   0.1583
     0.1795   0.2219   0.2644   0.3075   0.3367   0.3802   0.4479   0.4954
     0.5190   0.5413   0.5703   0.6674   0.7173   0.7537   0.8099   0.8252
     0.8898   0.9610   0.9877   1.0763   1.1206   1.4869   1.6350   2.3644
     2.5351   2.8112   2.9848   3.3006   3.3502   3.3662   3.3676   3.6549
     3.7778

[...]

          k = 0.0380-0.0419 0.0000 ( 17876 PWs)   bands (ev):

[...]

          k =-0.0760-0.0000 0.0000 ( 17886 PWs)   bands (ev):

[...]

          k =-0.0760-0.0839 0.0000 ( 17948 PWs)   bands (ev):

   -56.9127 -56.9113 -56.0148 -56.0054 -55.7878 -55.7289 -55.6366 -55.4638
   -55.4626 -55.4022 -55.3947 -55.3312 -55.3212 -55.2700 -55.1329 -55.0601
   -33.1872 -33.1858 -33.1659 -33.1646 -33.0615 -33.0604 -32.3345 -32.3264
   -32.2098 -32.2001 -32.1992 -32.1934 -32.0913 -32.0457 -32.0213 -32.0070
   -31.9559 -31.9550 -31.9091 -31.8769 -31.8655 -31.8164 -31.8155 -31.7728
   -31.7341 -31.7015 -31.6838 -31.6822 -31.6778 -31.6731 -31.6449 -31.6439
   -31.6301 -31.6282 -31.6075 -31.5956 -31.5735 -31.5647 -31.5293 -31.5226
   -31.5146 -31.4825 -31.4309 -31.3987 -31.3744 -31.3396 -31.3159 -31.2694
   -16.4328 -16.3959 -16.3938 -16.3468 -16.3451 -16.0903 -16.0857 -15.8397
   -15.8077 -15.6861 -15.5334 -15.5040 -15.4667 -15.4171 -15.3707 -15.3004
   -15.2820 -15.2411 -15.2088 -15.1526 -15.1271 -15.0485 -15.0145 -14.9558
   -14.9196 -14.8304 -14.7828 -14.7778 -14.5582 -14.5410 -13.9752 -13.9746
   -13.8294  -8.4986  -4.0717  -3.9953  -3.4689  -3.4638  -3.4428  -3.4335
    -3.2192  -3.2135  -3.0455  -3.0025  -2.9833  -2.9424  -2.9259  -2.8412
    -2.8198  -2.7927  -2.7496  -2.7447  -2.7365  -2.7181  -2.6709  -2.6625
    -2.6218  -2.4848  -2.4695  -2.4502  -2.3913  -2.3278  -2.2969  -2.2451
    -2.2180  -2.2047  -2.1778  -2.1705  -2.1648  -2.1356  -2.1080  -1.9515
    -1.9117  -1.8082  -1.7758  -1.7507  -1.7294  -1.6751  -1.6712  -1.6410
    -1.6185  -1.5864  -1.5263  -1.4929  -1.4512  -1.3269  -1.3048  -1.2660
    -1.2479  -1.1887  -1.0926  -1.0033  -0.9906  -0.9474  -0.9281  -0.8821
    -0.8682  -0.8387  -0.7597  -0.7020  -0.5951  -0.5650  -0.5530  -0.5302
    -0.4998  -0.4574  -0.4116  -0.3420  -0.3268  -0.2075  -0.1399  -0.0969
    -0.0261   0.0393   0.0771   0.1244   0.1729   0.2664   0.2870   0.3613
     0.3757   0.4953   0.6040   0.6232   0.7749   0.8075   0.8765   0.9163
     0.9212   0.9318   0.9495   0.9604   1.0137   1.0904   1.5870   2.9560
     2.9590   3.0162   3.0221   3.3319   3.3329   3.4429   3.4447   3.7605
     3.7703

     the Fermi energy is     2.0641 ev

!    total energy              =   -2954.01288314 Ry
     estimated scf accuracy    <       0.00000007 Ry
     smearing contrib. (-TS)   =      -0.00172599 Ry
     internal energy E=F+TS    =   -2954.01115715 Ry

     The total energy is F=E-TS. E is the sum of the following terms:
     one-electron contribution =  -24214.02717901 Ry
     hartree contribution      =   12197.10167082 Ry
     xc contribution           =    -488.74971731 Ry
     ewald contribution        =    9551.66397986 Ry
     electric field correction =       0.00008850 Ry

     convergence has been achieved in  66 iterations

     Forces acting on atoms (cartesian axes, Ry/au):

     atom    1 type  1   force =     0.00017359   -0.00052351    0.12567998
     atom    2 type  1   force =     0.00001058    0.00026664   -0.15442385
     atom    3 type  2   force =     0.00002295   -0.00022496   -0.06673131
     atom    4 type  2   force =    -0.00001987    0.00008596    0.01671462
     atom    5 type  2   force =    -0.00391570   -0.00229315   -0.01290624
     atom    6 type  2   force =     0.00531226   -0.00149742   -0.01431623
     atom    7 type  1   force =    -0.00049410   -0.00698346    0.05723529
     atom    8 type  1   force =     0.00071827    0.00724128    0.09832310
     atom    9 type  2   force =     0.00002871    0.00008070   -0.00008428
     atom   10 type  2   force =    -0.00290120    0.00059205   -0.06192131
     atom   11 type  2   force =    -0.00001157   -0.00007818   -0.00001005
     atom   12 type  2   force =    -0.00007152    0.00013891    0.00016219
     atom   13 type  1   force =     0.00010709    0.00016538    0.00003516
     atom   14 type  1   force =     0.00000908   -0.00006272    0.00010226
     atom   15 type  2   force =    -0.00001527    0.00091605    0.00022244
     atom   16 type  2   force =     0.00005873    0.00017190   -0.00018751
     atom   17 type  2   force =     0.00021964    0.00017175    0.00035640
     atom   18 type  2   force =    -0.00017063    0.00030419    0.00002602
     atom   19 type  1   force =    -0.00013849    0.00025159    0.00005006
     atom   20 type  1   force =     0.00020470    0.00019072    0.00006296
     atom   21 type  2   force =     0.00006944    0.00021647    0.09782052
     atom   22 type  2   force =     0.00035525    0.00151116    0.00011075
     atom   23 type  2   force =    -0.08273558    0.00009160   -0.03302528
     atom   24 type  2   force =     0.08269443    0.00050603   -0.03307354
     atom   25 type  1   force =     0.00010131   -0.00059759    0.12551979
     atom   26 type  1   force =     0.00000946   -0.00169446   -0.15481654
     atom   27 type  2   force =     0.00008828   -0.00076718   -0.06516847
     atom   28 type  2   force =     0.00004995    0.00188465    0.01156552
     atom   29 type  2   force =    -0.00251618    0.00468344   -0.01584930
     atom   30 type  2   force =     0.00368691    0.00501981   -0.01727801
     atom   31 type  1   force =    -0.00028990    0.00180957    0.04011515
     atom   32 type  1   force =     0.00091197   -0.01042879    0.09797415
     atom   33 type  2   force =    -0.00004297   -0.00002936    0.00010788
     atom   34 type  2   force =    -0.00230078    0.00078372   -0.07405264
     atom   35 type  2   force =     0.00011973    0.00005113    0.00002963
     atom   36 type  2   force =    -0.00009473   -0.00005051   -0.00002405
     atom   37 type  1   force =     0.00035930    0.00008696    0.00007305
     atom   38 type  1   force =     0.00012042   -0.00006343   -0.00029491
     atom   39 type  2   force =     0.00014784   -0.00027579   -0.00032220
     atom   40 type  2   force =     0.00001825    0.00003420   -0.00012106
     atom   41 type  2   force =    -0.00022842    0.00023556   -0.00003677
     atom   42 type  2   force =     0.00020468    0.00008306    0.00004681
     atom   43 type  1   force =     0.00018400   -0.00043554   -0.00014944
     atom   44 type  1   force =     0.00033512   -0.00008552    0.00008952
     atom   45 type  2   force =     0.00004418    0.00004693    0.09760363
     atom   46 type  2   force =    -0.08279592    0.00005017   -0.03304134
     atom   47 type  2   force =     0.08272417    0.00048179   -0.03305872
     atom   48 type  3   force =    -0.00048424    0.00060674    0.00025181
     atom   49 type  4   force =     0.00035875   -0.00452833   -0.00015661
     atom   50 type  5   force =    -0.00015264    0.00142415    0.00031552
     atom   51 type  3   force =     0.00053281   -0.00005592    0.00102365
     atom   52 type  3   force =    -0.00073378    0.00036903   -0.00062617
     atom   53 type  3   force =     0.00017132    0.00030827    0.00000407
     atom   54 type  2   force =     0.00035228   -0.00058182    0.00096116
     atom   55 type  3   force =    -0.00039198    0.00039607   -0.00090727

     Total force =     0.417260     Total SCF correction =     0.001045
  @ DRIVER MODE: Message from server: STATUS
  @ DRIVER MODE: Message from server: GETFORCE
  @ DRIVER MODE: Returning v,forces,stress,ensemble

     Writing output data file ./calc.save/
  @ DRIVER MODE: Message from server: EXIT
  @ DRIVE MODE: Exiting

     General routines

     Parallel routines

   This run was terminated on:  14:48:56  23Sep2021

   JOB DONE.