     Program PWSCF v.6.7GPU starts on  9Sep2021 at  2:51:35

     R & G space division:  proc/nbgrp/npool/nimage =      10
     Reading input from /storage/home/hcoda1/3/ntian30/research/carbon/CxH_vib/CH_calc/ads_slab/CHNHH_a/out_0017/pw.inp
Warning: card &CELL ignored
Warning: card   CELL_DYNAMICS='IPI', ignored
Warning: card / ignored

     Current dimensions of program PWSCF are:
     Max number of different atomic species (ntypx) = 10
     Max number of k-points (npk) =  40000
     Max angular momentum in pseudopotentials (lmaxx) =  3
     Presently no symmetry can be used with electric field

     Message from routine cell_base_init:
     DEPRECATED: use true lattice parameter, not A to a.u. conversion factor

     IMPORTANT: XC functional enforced from input :
     Exchange-correlation= BEEF-VDW
                           (   1   4  43  14   2   0   0)
     Any further DFT definition will be discarded
     Please, verify this is what you really want

  @ DRIVER MODE: Connecting to
 qe_1139763_2767378.sched-torque.pace.gatech.eduz90ecuea_scratch
  using UNIX socket
  @ DRIVER MODE: Message from server: STATUS
  @ DRIVER MODE: Message from server: INIT
  @ DRIVER MODE: Receiving replica           0          -1
  @ DRIVER MODE: Receiving encoded integer          25
  @ DRIVER MODE:  SCF:  T  FORCE:  T  STRESS:  F  VC:  F  ENSEMBLE:  F
  @ DRIVER MODE:  SCF:  T  FORCE:  T  STRESS:  F  VC:  F  ENSEMBLE:  F

     Using Slab Decomposition

     bravais-lattice index     =            0
     lattice parameter (alat)  =       1.8897  a.u.
     unit-cell volume          =    6658.9804 (a.u.)^3
     number of atoms/cell      =           52
     number of atomic types    =            5
     number of electrons       =       390.00
     number of Kohn-Sham states=          205
     kinetic-energy cutoff     =      29.3995  Ry
     charge density cutoff     =     293.9946  Ry
     scf convergence threshold =      7.3E-08
     mixing beta               =       0.0500
     number of iterations used =            8  plain     mixing
     Exchange-correlation= BEEF-VDW
                           (   1   4  43  14   2   0   0)

     celldm(1)=   1.889726  celldm(2)=   0.000000  celldm(3)=   0.000000
     celldm(4)=   0.000000  celldm(5)=   0.000000  celldm(6)=   0.000000

     crystal axes: (cart. coord. in units of alat)
               a(1) = (   6.579727   0.000000   0.000000 )
               a(2) = (  -0.000775   5.961596   0.000000 )
               a(3) = (   0.000000   0.000000  25.155947 )

     reciprocal axes: (cart. coord. in units 2 pi/alat)
               b(1) = (  0.151982  0.000020  0.000000 )
               b(2) = (  0.000000  0.167740  0.000000 )
               b(3) = (  0.000000  0.000000  0.039752 )

     PseudoPot. # 1 for Ti read from file:
     /storage/coda1/p-amedford6/0/shared/rich_project_chbe-medford/medford-share/data/pseudos_module/espresso/nninc/pbe/van/Ti.UPF
     MD5 check sum: 8e4df49b7f0d34bbd5052bf3f5ea0213
     Pseudo is Ultrasoft, Zval = 12.0
     Generated by new atomic code, or converted to UPF format
     Using radial grid of  851 points,  6 beta functions with:
                l(1) =   0
                l(2) =   0
                l(3) =   1
                l(4) =   1
                l(5) =   2
                l(6) =   2
     Q(r) pseudized with  8 coefficients,  rinner =    1.000   1.000   1.000
                                                       1.000   1.000

     PseudoPot. # 2 for O  read from file:
     /storage/coda1/p-amedford6/0/shared/rich_project_chbe-medford/medford-share/data/pseudos_module/espresso/nninc/pbe/van/O.UPF
     MD5 check sum: 78c19812648e8988a0fe644b0f25305e
     Pseudo is Ultrasoft, Zval =  6.0
     Generated by new atomic code, or converted to UPF format
     Using radial grid of  737 points,  4 beta functions with:
                l(1) =   0
                l(2) =   0
                l(3) =   1
                l(4) =   1
     Q(r) pseudized with  8 coefficients,  rinner =    0.800   0.800   0.800

     PseudoPot. # 3 for N  read from file:
     /storage/coda1/p-amedford6/0/shared/rich_project_chbe-medford/medford-share/data/pseudos_module/espresso/nninc/pbe/van/N.UPF
     MD5 check sum: 90d10febe142ad51ac9d5be1deb811c4
     Pseudo is Ultrasoft, Zval =  5.0
     Generated by new atomic code, or converted to UPF format
     Using radial grid of  729 points,  4 beta functions with:
                l(1) =   0
                l(2) =   0
                l(3) =   1
                l(4) =   1
     Q(r) pseudized with  8 coefficients,  rinner =    0.800   0.800   0.800

     PseudoPot. # 4 for C  read from file:
     /storage/coda1/p-amedford6/0/shared/rich_project_chbe-medford/medford-share/data/pseudos_module/espresso/nninc/pbe/van/C.UPF
     MD5 check sum: 1a69bf6b8db32088f5b2163dbdb77a27
     Pseudo is Ultrasoft, Zval =  4.0
     Generated by new atomic code, or converted to UPF format
     Using radial grid of  721 points,  4 beta functions with:
                l(1) =   0
                l(2) =   0
                l(3) =   1
                l(4) =   1
     Q(r) pseudized with  8 coefficients,  rinner =    0.800   0.800   0.800

     PseudoPot. # 5 for H  read from file:
     /storage/coda1/p-amedford6/0/shared/rich_project_chbe-medford/medford-share/data/pseudos_module/espresso/nninc/pbe/van/H.UPF
     MD5 check sum: b5ee9d7bfd3a09ee7748110bda690ff7
     Pseudo is Ultrasoft, Zval =  1.0
     Generated by new atomic code, or converted to UPF format
     Using radial grid of  615 points,  1 beta functions with:
                l(1) =   0
     Q(r) pseudized with  8 coefficients,  rinner =    0.800

     atomic species   valence    mass     pseudopotential
        Ti1           12.00    47.86700     Ti( 1.00)
        O1             6.00    15.99900     O ( 1.00)
        N1             5.00    14.00700     N ( 1.00)
        C1             4.00    12.01100     C ( 1.00)
        H1             1.00     1.00800     H ( 1.00)

     No symmetry found

   Cartesian axes

     site n.     atom                  positions (alat units)
         1           Ti1 tau(   1) = (   0.0004258   2.9801865   6.0000000  )
         2           Ti1 tau(   2) = (   3.2906075   1.4906267   6.0002472  )
         3           O1  tau(   3) = (   0.0006271   0.0005054   7.9858123  )
         4           O1  tau(   4) = (   3.2906025   0.0005020   7.3038282  )
         5           O1  tau(   5) = (   4.5942328   1.4918067   9.2879030  )
         6           O1  tau(   6) = (   1.9868534   1.4903216   9.2879459  )
         7           Ti1 tau(   7) = (   3.2907910   2.8959150   9.1758416  )
         8           Ti1 tau(   8) = (   0.0015273   1.4827037   9.2680791  )
         9           O1  tau(   9) = (   3.2768318   5.9518058  11.3501096  )
        10           O1  tau(  10) = (   0.0116148   5.9584955  10.6183126  )
        11           O1  tau(  11) = (   1.2820894   1.4890407  12.6429483  )
        12           O1  tau(  12) = (   5.2701592   1.4861355  12.6244956  )
        13           Ti1 tau(  13) = (   0.0263608   2.9732685  12.5725065  )
        14           Ti1 tau(  14) = (   3.3311081   1.4825583  12.4934812  )
        15           O1  tau(  15) = (   6.5448050   0.0382128  14.6485099  )
        16           O1  tau(  16) = (   3.2835306   5.9556129  13.9684075  )
        17           O1  tau(  17) = (   4.5065730   1.5084740  16.1486978  )
        18           O1  tau(  18) = (   2.0110176   1.4968469  16.1316129  )
        19           Ti1 tau(  19) = (   3.2365874   2.9692752  15.7101938  )
        20           Ti1 tau(  20) = (   6.5183500   1.5288441  15.9766389  )
        21           O1  tau(  21) = (   3.2904802   0.0005063   4.7018136  )
        22           O1  tau(  22) = (   6.5552815   5.8936090  17.2115513  )
        23           O1  tau(  23) = (   1.3043587   1.4918075   6.0039043  )
        24           O1  tau(  24) = (   5.2767064   1.4903225   6.0039473  )
        25           Ti1 tau(  25) = (   0.0000382   5.9609847   6.0000000  )
        26           Ti1 tau(  26) = (   3.2902200   4.4714249   6.0002472  )
        27           O1  tau(  27) = (   0.0002396   2.9813036   7.9858123  )
        28           O1  tau(  28) = (   3.2902150   2.9813002   7.3038282  )
        29           O1  tau(  29) = (   4.5938453   4.4726049   9.2879030  )
        30           O1  tau(  30) = (   1.9864658   4.4711199   9.2879459  )
        31           Ti1 tau(  31) = (   3.2891106   5.8743827   9.1763621  )
        32           Ti1 tau(  32) = (   0.0006254   4.4649316   9.2693709  )
        33           O1  tau(  33) = (   3.2825058   2.9767457  11.3441782  )
        34           O1  tau(  34) = (   0.0092240   2.9805883  10.6323155  )
        35           O1  tau(  35) = (   1.2778777   4.4660374  12.6604661  )
        36           O1  tau(  36) = (   5.2710664   4.4675109  12.6369154  )
        37           Ti1 tau(  37) = (   0.0243246   5.9574881  12.5203091  )
        38           Ti1 tau(  38) = (   3.3318591   4.4611298  12.5006215  )
        39           O1  tau(  39) = (   6.5359656   2.9584677  14.7835642  )
        40           O1  tau(  40) = (   3.2771955   2.9708399  13.9242642  )
        41           O1  tau(  41) = (   4.4981441   4.4410618  16.1740548  )
        42           O1  tau(  42) = (   2.0042129   4.4512231  16.1075086  )
        43           Ti1 tau(  43) = (   3.2538698   5.9555144  15.7617387  )
        44           Ti1 tau(  44) = (   6.5531130   4.6830099  15.9084494  )
        45           O1  tau(  45) = (   3.2900926   2.9813045   4.7018136  )
        46           O1  tau(  46) = (   1.3039711   4.4726057   6.0039043  )
        47           O1  tau(  47) = (   5.2763189   4.4711207   6.0039473  )
        48           N1  tau(  48) = (   5.6690603   3.2568973  18.6585782  )
        49           C1  tau(  49) = (   0.0091554   2.6844975  17.9068455  )
        50           H1  tau(  50) = (   0.8805123   2.3964943  18.4901670  )
        51           H1  tau(  51) = (   4.8619660   3.6873350  18.2178346  )
        52           H1  tau(  52) = (   5.8095507   3.4768026  19.6356901  )

     number of k points=    10  Fermi-Dirac smearing, width (Ry)=  0.0073
                       cart. coord. in units 2pi/alat
        k(    1) = (   0.0000000   0.0000000   0.0000000), wk =   0.1250000
        k(    2) = (   0.0000000   0.0419351   0.0000000), wk =   0.2500000
        k(    3) = (   0.0000000  -0.0838702   0.0000000), wk =   0.1250000
        k(    4) = (   0.0379955   0.0000049   0.0000000), wk =   0.2500000
        k(    5) = (   0.0379955   0.0419400   0.0000000), wk =   0.2500000
        k(    6) = (   0.0379955  -0.0838652   0.0000000), wk =   0.2500000
        k(    7) = (   0.0379955  -0.0419301   0.0000000), wk =   0.2500000
        k(    8) = (  -0.0759910  -0.0000099   0.0000000), wk =   0.1250000
        k(    9) = (  -0.0759910   0.0419252   0.0000000), wk =   0.2500000
        k(   10) = (  -0.0759910  -0.0838800   0.0000000), wk =   0.1250000

     Initial potential from superposition of free atoms

     starting charge  373.99917, renormalised to  390.00000

     negative rho (up, down):  1.783E-02 0.000E+00

     %%%%%%%%%%%%%%%%%%%%%%%%%%%%%%%%%%%%%%%%%%%%%%%%%%%%%%%%%%%%%%%%%%%%%%%%
     %                                                                      %
     % You are using vdW-DF, which was implemented by the Thonhauser group. %
     % Please cite the following two papers that made this development      %
     % possible and the two reviews that describe the various versions:     %
     %                                                                      %
     %   T. Thonhauser et al., PRL 115, 136402 (2015).                      %
     %   T. Thonhauser et al., PRB 76, 125112 (2007).                       %
     %   K. Berland et al., Rep. Prog. Phys. 78, 066501 (2015).             %
     %   D.C. Langreth et al., J. Phys.: Condens. Matter 21, 084203 (2009). %
     %                                                                      %
     %                                                                      %
     % If you are calculating the stress with vdW-DF, please also cite:     %
     %                                                                      %
     %   R. Sabatini et al., J. Phys.: Condens. Matter 24, 424209 (2012).   %
     %                                                                      %
     %%%%%%%%%%%%%%%%%%%%%%%%%%%%%%%%%%%%%%%%%%%%%%%%%%%%%%%%%%%%%%%%%%%%%%%%

     Adding external electric field

     Computed dipole along edir(3) :
        Dipole               -5.8547 Ry au,        -14.8811 Debye
        Dipole field         -0.0110 Ry au,

        Potential amp.        1.0242 Ry
        Total length         46.3494 bohr

     Starting wfcs are  295 atomic wfcs
  @ DRIVER MODE: Message from server: STATUS
  @ DRIVER MODE: Message from server: POSDATA
  @ DRIVER MODE: Reading and sharing cell
  @ DRIVER MODE: Reading and sharing positions
  @ DRIVER MODE: Received positions

     Self-consistent Calculation

     iteration #  1     ecut=    29.40 Ry     beta= 0.05
     Davidson diagonalization with overlap
     c_bands:  5 eigenvalues not converged
     c_bands:  1 eigenvalues not converged
     c_bands:  1 eigenvalues not converged
     c_bands:  2 eigenvalues not converged
     c_bands:  3 eigenvalues not converged
     c_bands:  3 eigenvalues not converged
     c_bands:  3 eigenvalues not converged
     c_bands:  3 eigenvalues not converged
     c_bands:  4 eigenvalues not converged
     c_bands:  5 eigenvalues not converged
     ethr =  1.00E-05,  avg # of iterations = 20.0

[...]

     total energy              =   -2777.28281729 Ry
     estimated scf accuracy    <    1560.95211280 Ry

     iteration #  2     ecut=    29.40 Ry     beta= 0.05
     Davidson diagonalization with overlap
     ethr =  1.00E-02,  avg # of iterations = 18.3

[...]

     iteration # 48     ecut=    29.40 Ry     beta= 0.05
     Davidson diagonalization with overlap
     c_bands:  1 eigenvalues not converged
     ethr =  1.27E-07,  avg # of iterations = 13.0

[...]

     total energy              =   -2919.04282813 Ry
     estimated scf accuracy    <       0.00000008 Ry

     iteration # 64     ecut=    29.40 Ry     beta= 0.05
     Davidson diagonalization with overlap
     ethr =  2.05E-11,  avg # of iterations =  8.4

     negative rho (up, down):  1.803E-02 0.000E+00

     Adding external electric field

     Computed dipole along edir(3) :
        Dipole                1.3808 Ry au,          3.5095 Debye
        Dipole field          0.0026 Ry au,

        Potential amp.       -0.2415 Ry
        Total length         46.3494 bohr

     End of self-consistent calculation

          k = 0.0000 0.0000 0.0000 ( 18029 PWs)   bands (ev):

   -55.5096 -55.4843 -55.4732 -55.4502 -55.4233 -55.3783 -55.3365 -55.3283
   -55.3093 -55.3024 -55.2728 -55.2710 -55.0523 -54.9450 -54.4880 -54.4539
   -32.0765 -31.9719 -31.8699 -31.8479 -31.8377 -31.8049 -31.7970 -31.7748
   -31.7644 -31.7282 -31.7241 -31.7192 -31.6860 -31.6609 -31.6511 -31.6486
   -31.6371 -31.6124 -31.6018 -31.5936 -31.5792 -31.5672 -31.5417 -31.5376
   -31.5362 -31.5168 -31.5140 -31.5094 -31.5082 -31.4992 -31.4849 -31.4696
   -31.4585 -31.4582 -31.4353 -31.4241 -31.4086 -31.3557 -31.2888 -31.1896
   -31.1797 -31.0911 -30.8962 -30.8051 -30.7829 -30.7129 -30.6263 -30.5152
   -17.0230 -16.3088 -16.0249 -15.8603 -15.7174 -15.6867 -15.5760 -15.4010
   -15.3220 -15.2477 -15.2286 -15.1489 -15.1323 -15.1172 -15.0975 -15.0391
   -15.0313 -14.9861 -14.9810 -14.9451 -14.9271 -14.8952 -14.8777 -14.8702
   -14.8148 -14.7754 -14.7119 -14.6459 -14.5907 -14.1184 -12.9906 -12.8736
    -9.4622  -7.2213  -4.6443  -3.6662  -3.4966  -3.4160  -3.4067  -3.3854
    -3.1963  -3.1197  -2.8440  -2.7506  -2.7156  -2.7096  -2.6828  -2.6217
    -2.5500  -2.4513  -2.3794  -2.3505  -2.3304  -2.3232  -2.3117  -2.2965
    -2.2868  -2.2557  -2.1816  -2.1245  -2.0521  -1.9704  -1.8953  -1.8795
    -1.8193  -1.7915  -1.7765  -1.7702  -1.7631  -1.7374  -1.7323  -1.6412
    -1.5501  -1.5118  -1.4119  -1.3894  -1.2935  -1.1593  -1.1316  -1.0273
    -1.0203  -0.9645  -0.9392  -0.8963  -0.8462  -0.8381  -0.8194  -0.6771
    -0.6098  -0.5486  -0.4902  -0.4633  -0.4448  -0.3563  -0.2906  -0.2841
    -0.2670  -0.2427  -0.0691  -0.0377  -0.0176   0.0045   0.0193   0.1085
     0.1403   0.2155   0.2953   0.3101   0.3147   0.3924   0.4160   0.4585
     0.4610   0.4884   0.4938   0.6648   0.6754   0.7017   0.7331   0.8165
     0.8970   1.1019   1.1242   1.1664   1.4499   1.5166   1.5345   1.7221
     2.1080   2.1549   3.5808   3.6857   3.7180   3.7336   3.7617   3.8319
     3.8976   4.0765   4.0836   4.1145   4.1206

[...]

          k = 0.0380-0.0419 0.0000 ( 17876 PWs)   bands (ev):

[...]

          k =-0.0760-0.0000 0.0000 ( 17886 PWs)   bands (ev):

[...]

          k =-0.0760-0.0839 0.0000 ( 17948 PWs)   bands (ev):

   -55.4938 -55.4887 -55.4676 -55.4667 -55.4201 -55.3694 -55.3454 -55.3314
   -55.2906 -55.2890 -55.2885 -55.2872 -55.0494 -54.9478 -54.4710 -54.4709
   -31.8820 -31.8779 -31.8125 -31.7875 -31.7867 -31.7754 -31.7605 -31.7597
   -31.7200 -31.7148 -31.7130 -31.7059 -31.6765 -31.6397 -31.6307 -31.6266
   -31.6261 -31.6236 -31.6195 -31.6181 -31.6080 -31.5873 -31.5865 -31.5737
   -31.5705 -31.5598 -31.5475 -31.5313 -31.5238 -31.5213 -31.5053 -31.5045
   -31.5042 -31.5027 -31.4768 -31.4672 -31.4636 -31.3602 -31.2840 -31.2084
   -31.1827 -31.1751 -30.7956 -30.7955 -30.7089 -30.7088 -30.6696 -30.6696
   -17.0179 -15.7665 -15.7048 -15.5684 -15.4880 -15.4660 -15.4544 -15.4301
   -15.2916 -15.2760 -15.2577 -15.2082 -15.2046 -15.2020 -15.1620 -15.1058
   -15.0725 -15.0699 -15.0615 -15.0349 -15.0006 -14.9953 -14.9611 -14.9525
   -14.9389 -14.8493 -14.8441 -14.8418 -14.6680 -14.3428 -12.9753 -12.9752
    -9.4670  -7.2227  -4.6264  -3.0494  -2.9759  -2.8152  -2.7133  -2.6834
    -2.6516  -2.5078  -2.4730  -2.4630  -2.4493  -2.4123  -2.3976  -2.3831
    -2.3537  -2.3396  -2.3354  -2.3169  -2.3061  -2.2939  -2.2498  -2.2084
    -2.2041  -2.1967  -2.1659  -2.1461  -2.1338  -2.1048  -2.0855  -2.0699
    -2.0559  -2.0078  -1.8336  -1.8025  -1.7023  -1.6820  -1.6729  -1.6510
    -1.5846  -1.5576  -1.5253  -1.4856  -1.4337  -1.3107  -1.2454  -1.2243
    -1.1945  -1.1845  -1.1322  -1.0111  -0.9752  -0.9526  -0.9061  -0.8694
    -0.8252  -0.8146  -0.6947  -0.6896  -0.6440  -0.6014  -0.4878  -0.4712
    -0.4618  -0.4494  -0.4350  -0.3060  -0.2964  -0.2897  -0.2723  -0.2281
    -0.2114  -0.1055  -0.0041   0.0086   0.1125   0.1652   0.2884   0.3542
     0.4480   0.4938   0.5180   0.6084   0.6437   0.7260   0.7511   0.8022
     0.8138   0.9097   0.9644   0.9826   0.9907   1.0586   1.8945   1.8953
     1.9748   1.9750   3.7413   3.8369   3.8754   3.8974   3.9432   4.1019
     4.1175   4.1651   4.1680   4.1839   4.2692

     the Fermi energy is     3.6386 ev

!    total energy              =   -2919.04285697 Ry
     estimated scf accuracy    <       0.00000006 Ry
     smearing contrib. (-TS)   =      -0.03610672 Ry
     internal energy E=F+TS    =   -2919.00675025 Ry

     The total energy is F=E-TS. E is the sum of the following terms:
     one-electron contribution =  -24479.77503448 Ry
     hartree contribution      =   12328.05388723 Ry
     xc contribution           =    -480.00287070 Ry
     ewald contribution        =    9712.71366993 Ry
     electric field correction =       0.00359777 Ry

     convergence has been achieved in  64 iterations

     Forces acting on atoms (cartesian axes, Ry/au):

     atom    1 type  1   force =     0.00009553   -0.00020979    0.09493543
     atom    2 type  1   force =    -0.00023060   -0.00037086   -0.17676372
     atom    3 type  2   force =    -0.00004564   -0.00007198   -0.02290749
     atom    4 type  2   force =    -0.00004447   -0.00167805    0.05579308
     atom    5 type  2   force =    -0.01135978   -0.00122911    0.00625923
     atom    6 type  2   force =     0.01253796   -0.00034715    0.00442140
     atom    7 type  1   force =    -0.00113965    0.00152235   -0.01375986
     atom    8 type  1   force =     0.00062687    0.00694803    0.01264340
     atom    9 type  2   force =     0.00020225   -0.00005204    0.00013384
     atom   10 type  2   force =    -0.00164182    0.00009415   -0.00998093
     atom   11 type  2   force =    -0.00020058    0.00002240    0.00014556
     atom   12 type  2   force =     0.00022790    0.00010993   -0.00007944
     atom   13 type  1   force =     0.00006659   -0.00000819    0.00037956
     atom   14 type  1   force =     0.00001856   -0.00015311    0.00022649
     atom   15 type  2   force =     0.00002827   -0.00007389   -0.00007765
     atom   16 type  2   force =     0.00025224    0.00028504   -0.00001109
     atom   17 type  2   force =    -0.00016995   -0.00024204    0.00019268
     atom   18 type  2   force =     0.00032472    0.00012989    0.00022003
     atom   19 type  1   force =     0.00047220    0.00002042   -0.00021298
     atom   20 type  1   force =    -0.00002995    0.00022762    0.00013991
     atom   21 type  2   force =     0.00004583   -0.00004268    0.10359320
     atom   22 type  2   force =     0.00006649    0.00011797    0.00026184
     atom   23 type  2   force =    -0.07100140   -0.00016775   -0.02732827
     atom   24 type  2   force =     0.07085305    0.00031342   -0.02734251
     atom   25 type  1   force =    -0.00012431   -0.00020279    0.09464045
     atom   26 type  1   force =    -0.00019771   -0.00046339   -0.17691300
     atom   27 type  2   force =     0.00006936   -0.00035013   -0.02193224
     atom   28 type  2   force =     0.00003722   -0.00139018    0.05534624
     atom   29 type  2   force =    -0.01158012   -0.00008894    0.00586670
     atom   30 type  2   force =     0.01265068    0.00013191    0.00408199
     atom   31 type  1   force =    -0.00125059    0.00417796   -0.01463190
     atom   32 type  1   force =     0.00055562   -0.00777747    0.01250356
     atom   33 type  2   force =    -0.00001162    0.00009415    0.00004792
     atom   34 type  2   force =    -0.00127535    0.00083690   -0.00838667
     atom   35 type  2   force =     0.00012382    0.00020523   -0.00001960
     atom   36 type  2   force =     0.00010881    0.00004411    0.00017372
     atom   37 type  1   force =     0.00002580    0.00000430    0.00007323
     atom   38 type  1   force =    -0.00003132   -0.00016015   -0.00014368
     atom   39 type  2   force =    -0.00015357   -0.00017611   -0.00015659
     atom   40 type  2   force =     0.00022951   -0.00002682   -0.00015443
     atom   41 type  2   force =     0.00020773   -0.00006247    0.00013182
     atom   42 type  2   force =    -0.00010524    0.00008933   -0.00035225
     atom   43 type  1   force =    -0.00016281   -0.00000071    0.00015270
     atom   44 type  1   force =     0.00039643   -0.00026342    0.00013656
     atom   45 type  2   force =     0.00003239   -0.00004988    0.10354957
     atom   46 type  2   force =    -0.07101075   -0.00006856   -0.02731854
     atom   47 type  2   force =     0.07086932    0.00032835   -0.02735047
     atom   48 type  3   force =     0.00058803    0.00044953   -0.00082565
     atom   49 type  4   force =    -0.00545162    0.00151432   -0.00487648
     atom   50 type  5   force =     0.00476996   -0.00138055    0.00433060
     atom   51 type  5   force =     0.00076555   -0.00046195   -0.00013579
     atom   52 type  5   force =    -0.00002981   -0.00009718    0.00128053

     Total force =     0.366188     Total SCF correction =     0.000487
  @ DRIVER MODE: Message from server: STATUS
  @ DRIVER MODE: Message from server: GETFORCE
  @ DRIVER MODE: Returning v,forces,stress,ensemble

     Writing output data file ./calc.save/
  @ DRIVER MODE: Message from server: EXIT
  @ DRIVE MODE: Exiting

     General routines

     Parallel routines

   This run was terminated on:   3: 8:15   9Sep2021

   JOB DONE.