     Program PWSCF v.6.7GPU starts on 23Aug2021 at 14: 9:11

     R & G space division:  proc/nbgrp/npool/nimage =       6
     Reading input from /storage/home/hcoda1/3/ntian30/research/carbon/CH_vib/ads_slab/CHN2_b/out_0003/pw.inp
Warning: card &CELL ignored
Warning: card   CELL_DYNAMICS='IPI', ignored
Warning: card / ignored

     Current dimensions of program PWSCF are:
     Max number of different atomic species (ntypx) = 10
     Max number of k-points (npk) =  40000
     Max angular momentum in pseudopotentials (lmaxx) =  3
     Presently no symmetry can be used with electric field

     Message from routine cell_base_init:
     DEPRECATED: use true lattice parameter, not A to a.u. conversion factor

     IMPORTANT: XC functional enforced from input :
     Exchange-correlation= BEEF-VDW
                           (   1   4  43  14   2   0   0)
     Any further DFT definition will be discarded
     Please, verify this is what you really want

  @ DRIVER MODE: Connecting to
 qe_1139763_2632794.sched-torque.pace.gatech.edu229m4t5k_scratch
  using UNIX socket
  @ DRIVER MODE: Message from server: STATUS
  @ DRIVER MODE: Message from server: INIT
  @ DRIVER MODE: Receiving replica           0          -1
  @ DRIVER MODE: Receiving encoded integer          25
  @ DRIVER MODE:  SCF:  T  FORCE:  T  STRESS:  F  VC:  F  ENSEMBLE:  F
  @ DRIVER MODE:  SCF:  T  FORCE:  T  STRESS:  F  VC:  F  ENSEMBLE:  F

     Using Slab Decomposition

     bravais-lattice index     =            0
     lattice parameter (alat)  =       1.8897  a.u.
     unit-cell volume          =    6658.9804 (a.u.)^3
     number of atoms/cell      =           51
     number of atomic types    =            5
     number of electrons       =       393.00
     number of Kohn-Sham states=          206
     kinetic-energy cutoff     =      29.3995  Ry
     charge density cutoff     =     293.9946  Ry
     scf convergence threshold =      7.3E-08
     mixing beta               =       0.0500
     number of iterations used =            8  plain     mixing
     Exchange-correlation= BEEF-VDW
                           (   1   4  43  14   2   0   0)

     celldm(1)=   1.889726  celldm(2)=   0.000000  celldm(3)=   0.000000
     celldm(4)=   0.000000  celldm(5)=   0.000000  celldm(6)=   0.000000

     crystal axes: (cart. coord. in units of alat)
               a(1) = (   6.579727   0.000000   0.000000 )
               a(2) = (  -0.000775   5.961596   0.000000 )
               a(3) = (   0.000000   0.000000  25.155947 )

     reciprocal axes: (cart. coord. in units 2 pi/alat)
               b(1) = (  0.151982  0.000020  0.000000 )
               b(2) = (  0.000000  0.167740  0.000000 )
               b(3) = (  0.000000  0.000000  0.039752 )

     PseudoPot. # 1 for Ti read from file:
     /storage/coda1/p-amedford6/0/shared/rich_project_chbe-medford/medford-share/data/pseudos_module/espresso/nninc/pbe/van/Ti.UPF
     MD5 check sum: 8e4df49b7f0d34bbd5052bf3f5ea0213
     Pseudo is Ultrasoft, Zval = 12.0
     Generated by new atomic code, or converted to UPF format
     Using radial grid of  851 points,  6 beta functions with:
                l(1) =   0
                l(2) =   0
                l(3) =   1
                l(4) =   1
                l(5) =   2
                l(6) =   2
     Q(r) pseudized with  8 coefficients,  rinner =    1.000   1.000   1.000
                                                       1.000   1.000

     PseudoPot. # 2 for O  read from file:
     /storage/coda1/p-amedford6/0/shared/rich_project_chbe-medford/medford-share/data/pseudos_module/espresso/nninc/pbe/van/O.UPF
     MD5 check sum: 78c19812648e8988a0fe644b0f25305e
     Pseudo is Ultrasoft, Zval =  6.0
     Generated by new atomic code, or converted to UPF format
     Using radial grid of  737 points,  4 beta functions with:
                l(1) =   0
                l(2) =   0
                l(3) =   1
                l(4) =   1
     Q(r) pseudized with  8 coefficients,  rinner =    0.800   0.800   0.800

     PseudoPot. # 3 for N  read from file:
     /storage/coda1/p-amedford6/0/shared/rich_project_chbe-medford/medford-share/data/pseudos_module/espresso/nninc/pbe/van/N.UPF
     MD5 check sum: 90d10febe142ad51ac9d5be1deb811c4
     Pseudo is Ultrasoft, Zval =  5.0
     Generated by new atomic code, or converted to UPF format
     Using radial grid of  729 points,  4 beta functions with:
                l(1) =   0
                l(2) =   0
                l(3) =   1
                l(4) =   1
     Q(r) pseudized with  8 coefficients,  rinner =    0.800   0.800   0.800

     PseudoPot. # 4 for C  read from file:
     /storage/coda1/p-amedford6/0/shared/rich_project_chbe-medford/medford-share/data/pseudos_module/espresso/nninc/pbe/van/C.UPF
     MD5 check sum: 1a69bf6b8db32088f5b2163dbdb77a27
     Pseudo is Ultrasoft, Zval =  4.0
     Generated by new atomic code, or converted to UPF format
     Using radial grid of  721 points,  4 beta functions with:
                l(1) =   0
                l(2) =   0
                l(3) =   1
                l(4) =   1
     Q(r) pseudized with  8 coefficients,  rinner =    0.800   0.800   0.800

     PseudoPot. # 5 for H  read from file:
     /storage/coda1/p-amedford6/0/shared/rich_project_chbe-medford/medford-share/data/pseudos_module/espresso/nninc/pbe/van/H.UPF
     MD5 check sum: b5ee9d7bfd3a09ee7748110bda690ff7
     Pseudo is Ultrasoft, Zval =  1.0
     Generated by new atomic code, or converted to UPF format
     Using radial grid of  615 points,  1 beta functions with:
                l(1) =   0
     Q(r) pseudized with  8 coefficients,  rinner =    0.800

     atomic species   valence    mass     pseudopotential
        Ti1           12.00    47.86700     Ti( 1.00)
        O1             6.00    15.99900     O ( 1.00)
        N1             5.00    14.00700     N ( 1.00)
        C1             4.00    12.01100     C ( 1.00)
        H1             1.00     1.00800     H ( 1.00)

     No symmetry found

   Cartesian axes

     site n.     atom                  positions (alat units)
         1           Ti1 tau(   1) = (   0.0004258   2.9801865   6.0000000  )
         2           Ti1 tau(   2) = (   3.2906075   1.4906267   6.0002472  )
         3           O1  tau(   3) = (   0.0006271   0.0005054   7.9858123  )
         4           O1  tau(   4) = (   3.2906025   0.0005020   7.3038282  )
         5           O1  tau(   5) = (   4.5942328   1.4918067   9.2879030  )
         6           O1  tau(   6) = (   1.9868534   1.4903216   9.2879459  )
         7           Ti1 tau(   7) = (   3.2907910   2.8959150   9.1758416  )
         8           Ti1 tau(   8) = (   0.0015273   1.4827037   9.2680791  )
         9           O1  tau(   9) = (   3.2950996   0.0139504  11.3317891  )
        10           O1  tau(  10) = (   0.0116148   5.9584955  10.6183126  )
        11           O1  tau(  11) = (   1.2919129   1.4990403  12.6236220  )
        12           O1  tau(  12) = (   5.2764399   1.5074276  12.6212280  )
        13           Ti1 tau(  13) = (   0.0528816   2.9532107  12.6238214  )
        14           Ti1 tau(  14) = (   3.3640876   1.5054642  12.4823551  )
        15           O1  tau(  15) = (   0.0126464   0.0517330  14.6735668  )
        16           O1  tau(  16) = (   3.2893787   0.0313947  13.9162352  )
        17           O1  tau(  17) = (   4.5455072   1.5470193  16.0571763  )
        18           O1  tau(  18) = (   2.0683839   1.5479149  16.0688871  )
        19           Ti1 tau(  19) = (   3.3004933   3.0285056  15.7062229  )
        20           Ti1 tau(  20) = (   6.5748692   1.5544668  15.8636821  )
        21           O1  tau(  21) = (   3.2904802   0.0005063   4.7018136  )
        22           O1  tau(  22) = (   0.0156978   0.0568370  17.2307755  )
        23           O1  tau(  23) = (   1.3043587   1.4918075   6.0039043  )
        24           O1  tau(  24) = (   5.2767064   1.4903225   6.0039473  )
        25           Ti1 tau(  25) = (   0.0000382   5.9609847   6.0000000  )
        26           Ti1 tau(  26) = (   3.2902200   4.4714249   6.0002472  )
        27           O1  tau(  27) = (   0.0002396   2.9813036   7.9858123  )
        28           O1  tau(  28) = (   3.2902150   2.9813002   7.3038282  )
        29           O1  tau(  29) = (   4.5938453   4.4726049   9.2879030  )
        30           O1  tau(  30) = (   1.9864658   4.4711199   9.2879459  )
        31           Ti1 tau(  31) = (   3.2891106   5.8743827   9.1763621  )
        32           Ti1 tau(  32) = (   0.0006254   4.4649316   9.2693709  )
        33           O1  tau(  33) = (   3.2930415   3.0011583  11.3325650  )
        34           O1  tau(  34) = (   0.0092240   2.9805883  10.6323155  )
        35           O1  tau(  35) = (   1.2898468   4.4882246  12.6384491  )
        36           O1  tau(  36) = (   5.2806636   4.4975927  12.6358184  )
        37           Ti1 tau(  37) = (   0.0525728   5.9296047  12.5528222  )
        38           Ti1 tau(  38) = (   3.3636738   4.4864912  12.4891182  )
        39           O1  tau(  39) = (   0.0107234   2.9627607  14.6747216  )
        40           O1  tau(  40) = (   3.2927234   3.0099296  13.9079960  )
        41           O1  tau(  41) = (   4.5395255   4.5218754  16.0742521  )
        42           O1  tau(  42) = (   2.0629885   4.5199598  16.0715304  )
        43           Ti1 tau(  43) = (   3.2878121   0.0461507  15.7166771  )
        44           Ti1 tau(  44) = (   0.0020781   4.6962996  16.1098215  )
        45           O1  tau(  45) = (   3.2900926   2.9813045   4.7018136  )
        46           O1  tau(  46) = (   1.3039711   4.4726057   6.0039043  )
        47           O1  tau(  47) = (   5.2763189   4.4711207   6.0039473  )
        48           N1  tau(  48) = (   0.1203982   2.9507606  18.6152809  )
        49           N1  tau(  49) = (   0.0157770   3.0106383  17.4001577  )
        50           C1  tau(  50) = (   0.0651646   2.9076078  19.8026698  )
        51           H1  tau(  51) = (   0.7310076   2.8879977  20.6380856  )

     number of k points=    10  Fermi-Dirac smearing, width (Ry)=  0.0073
                       cart. coord. in units 2pi/alat
        k(    1) = (   0.0000000   0.0000000   0.0000000), wk =   0.1250000
        k(    2) = (   0.0000000   0.0419351   0.0000000), wk =   0.2500000
        k(    3) = (   0.0000000  -0.0838702   0.0000000), wk =   0.1250000
        k(    4) = (   0.0379955   0.0000049   0.0000000), wk =   0.2500000
        k(    5) = (   0.0379955   0.0419400   0.0000000), wk =   0.2500000
        k(    6) = (   0.0379955  -0.0838652   0.0000000), wk =   0.2500000
        k(    7) = (   0.0379955  -0.0419301   0.0000000), wk =   0.2500000
        k(    8) = (  -0.0759910  -0.0000099   0.0000000), wk =   0.1250000
        k(    9) = (  -0.0759910   0.0419252   0.0000000), wk =   0.2500000
        k(   10) = (  -0.0759910  -0.0838800   0.0000000), wk =   0.1250000

     Initial potential from superposition of free atoms

     starting charge  376.99918, renormalised to  393.00000

     negative rho (up, down):  1.564E-02 0.000E+00

     %%%%%%%%%%%%%%%%%%%%%%%%%%%%%%%%%%%%%%%%%%%%%%%%%%%%%%%%%%%%%%%%%%%%%%%%
     %                                                                      %
     % You are using vdW-DF, which was implemented by the Thonhauser group. %
     % Please cite the following two papers that made this development      %
     % possible and the two reviews that describe the various versions:     %
     %                                                                      %
     %   T. Thonhauser et al., PRL 115, 136402 (2015).                      %
     %   T. Thonhauser et al., PRB 76, 125112 (2007).                       %
     %   K. Berland et al., Rep. Prog. Phys. 78, 066501 (2015).             %
     %   D.C. Langreth et al., J. Phys.: Condens. Matter 21, 084203 (2009). %
     %                                                                      %
     %                                                                      %
     % If you are calculating the stress with vdW-DF, please also cite:     %
     %                                                                      %
     %   R. Sabatini et al., J. Phys.: Condens. Matter 24, 424209 (2012).   %
     %                                                                      %
     %%%%%%%%%%%%%%%%%%%%%%%%%%%%%%%%%%%%%%%%%%%%%%%%%%%%%%%%%%%%%%%%%%%%%%%%

     Adding external electric field

     Computed dipole along edir(3) :
        Dipole               -7.5501 Ry au,        -19.1904 Debye
        Dipole field         -0.0142 Ry au,

        Potential amp.        1.3208 Ry
        Total length         46.3494 bohr

     Starting wfcs are  297 atomic wfcs
  @ DRIVER MODE: Message from server: STATUS
  @ DRIVER MODE: Message from server: POSDATA
  @ DRIVER MODE: Reading and sharing cell
  @ DRIVER MODE: Reading and sharing positions
  @ DRIVER MODE: Received positions

     Self-consistent Calculation

     iteration #  1     ecut=    29.40 Ry     beta= 0.05
     Davidson diagonalization with overlap
     c_bands:  1 eigenvalues not converged
     c_bands:  1 eigenvalues not converged
     c_bands:  1 eigenvalues not converged
     ethr =  1.00E-05,  avg # of iterations = 18.4

[...]

     total energy              =   -2707.50608500 Ry
     estimated scf accuracy    <    2541.61535635 Ry

[...]

     iteration #  5     ecut=    29.40 Ry     beta= 0.05
     Davidson diagonalization with overlap
     ethr =  1.00E-02,  avg # of iterations = 12.0

[...]

     iteration # 62     ecut=    29.40 Ry     beta= 0.05
     Davidson diagonalization with overlap
     c_bands:  1 eigenvalues not converged
     c_bands:  1 eigenvalues not converged
     ethr =  7.15E-10,  avg # of iterations = 14.2

[...]

     total energy              =   -2936.63953244 Ry
     estimated scf accuracy    <       0.00000009 Ry

     iteration # 75     ecut=    29.40 Ry     beta= 0.05
     Davidson diagonalization with overlap
     ethr =  2.41E-11,  avg # of iterations =  8.7

     negative rho (up, down):  1.608E-02 0.000E+00

     Adding external electric field

     Computed dipole along edir(3) :
        Dipole                0.7500 Ry au,          1.9062 Debye
        Dipole field          0.0014 Ry au,

        Potential amp.       -0.1312 Ry
        Total length         46.3494 bohr

     End of self-consistent calculation

          k = 0.0000 0.0000 0.0000 ( 18029 PWs)   bands (ev):

   -55.9088 -55.9074 -55.8747 -55.8707 -55.7675 -55.7545 -55.7323 -55.7178
   -55.7168 -55.6839 -55.6837 -55.6500 -55.4655 -55.2245 -54.8874 -54.8533
   -32.4614 -32.3914 -32.2648 -32.2170 -32.2149 -32.2085 -32.2015 -32.1743
   -32.1515 -32.1260 -32.0954 -32.0858 -32.0809 -32.0611 -32.0536 -32.0472
   -32.0133 -32.0004 -31.9931 -31.9716 -31.9692 -31.9660 -31.9465 -31.9213
   -31.9147 -31.9069 -31.9040 -31.8950 -31.8934 -31.8856 -31.8802 -31.8589
   -31.8488 -31.8369 -31.8245 -31.8221 -31.7958 -31.6869 -31.6796 -31.5014
   -31.4543 -31.4530 -31.2946 -31.2062 -31.1838 -31.1113 -31.0248 -30.9137
   -19.2647 -16.6482 -16.3832 -16.1377 -16.0564 -16.0270 -15.9115 -15.7495
   -15.6324 -15.5715 -15.4712 -15.4652 -15.4454 -15.4122 -15.3820 -15.3574
   -15.3524 -15.3425 -15.3261 -15.2940 -15.2698 -15.2482 -15.2244 -15.1352
   -15.0781 -15.0431 -14.9832 -14.9751 -14.9655 -14.5047 -13.9339 -13.3899
   -13.2735  -6.6611  -5.3156  -4.2208  -4.0226  -3.9209  -3.8637  -3.8153
    -3.7600  -3.6563  -3.5190  -3.4498  -3.1363  -3.0841  -3.0721  -3.0474
    -3.0229  -2.8096  -2.7443  -2.7215  -2.6877  -2.6826  -2.6799  -2.6713
    -2.6544  -2.6219  -2.5007  -2.4444  -2.3724  -2.3325  -2.3032  -2.2955
    -2.2212  -2.1819  -2.1706  -2.1459  -2.1442  -2.1208  -2.1113  -2.0941
    -1.9566  -1.8898  -1.7680  -1.7028  -1.6690  -1.5176  -1.4909  -1.3864
    -1.3608  -1.3375  -1.3014  -1.2703  -1.2114  -1.0777  -1.0695  -1.0588
    -1.0270  -0.9281  -0.8755  -0.8024  -0.7467  -0.7280  -0.6779  -0.6657
    -0.6622  -0.6185  -0.4588  -0.3833  -0.3239  -0.3144  -0.2698  -0.2090
    -0.1791  -0.1009  -0.0586  -0.0285  -0.0152   0.0282   0.0651   0.0891
     0.0994   0.1091   0.1229   0.3084   0.3507   0.3689   0.4269   0.4442
     0.6166   0.6619   0.7468   0.8419   1.0601   1.1346   1.2186   1.3267
     1.3351   1.5834   1.7060   1.7517   3.2227   3.3124   3.3490   3.3577
     3.4649   3.5371   3.6794   3.6916   3.7122   3.7548

[...]

          k = 0.0380-0.0419 0.0000 ( 17876 PWs)   bands (ev):

[...]

          k =-0.0760-0.0000 0.0000 ( 17886 PWs)   bands (ev):

[...]

          k =-0.0760-0.0839 0.0000 ( 17948 PWs)   bands (ev):

   -55.8927 -55.8922 -55.8912 -55.8852 -55.7542 -55.7456 -55.7431 -55.7281
   -55.7017 -55.6994 -55.6686 -55.6654 -55.4643 -55.2255 -54.8703 -54.8703
   -32.2675 -32.2605 -32.2070 -32.2063 -32.1873 -32.1865 -32.1587 -32.1542
   -32.1143 -32.1067 -32.0809 -32.0787 -32.0393 -32.0319 -32.0238 -32.0213
   -32.0141 -32.0138 -32.0118 -32.0108 -32.0068 -32.0037 -31.9703 -31.9593
   -31.9510 -31.9446 -31.9306 -31.9274 -31.9020 -31.9013 -31.8995 -31.8969
   -31.8831 -31.8812 -31.8776 -31.8753 -31.8432 -31.6896 -31.6752 -31.5720
   -31.4752 -31.4561 -31.1965 -31.1964 -31.1074 -31.1072 -31.0681 -31.0681
   -19.2622 -16.0762 -16.0628 -15.8588 -15.8252 -15.8127 -15.8054 -15.6891
   -15.6099 -15.6018 -15.6006 -15.4991 -15.4873 -15.4787 -15.4466 -15.4368
   -15.4172 -15.4158 -15.3776 -15.3704 -15.3644 -15.3472 -15.3395 -15.2536
   -15.2274 -15.2232 -15.1918 -15.0783 -14.9437 -14.6851 -13.9397 -13.3753
   -13.3752  -6.6600  -5.2838  -4.1842  -3.9211  -3.3658  -3.3494  -3.0944
    -3.0630  -3.0539  -2.9986  -2.8264  -2.8090  -2.7853  -2.7633  -2.7328
    -2.7263  -2.7188  -2.7119  -2.6930  -2.6489  -2.6245  -2.5940  -2.5796
    -2.5652  -2.5648  -2.5343  -2.5214  -2.4800  -2.4658  -2.4553  -2.4326
    -2.4080  -2.3980  -2.2449  -2.1516  -2.1203  -2.0478  -2.0411  -1.9999
    -1.9737  -1.9587  -1.9353  -1.8998  -1.7580  -1.6433  -1.6074  -1.5927
    -1.5127  -1.4689  -1.3926  -1.3332  -1.2893  -1.2826  -1.2263  -1.1770
    -1.1162  -1.1050  -1.0416  -1.0085  -0.9704  -0.9384  -0.8980  -0.8677
    -0.8624  -0.7763  -0.7262  -0.7183  -0.6668  -0.6628  -0.6329  -0.5760
    -0.5568  -0.5286  -0.4060  -0.3861  -0.2787  -0.1964  -0.1364   0.0591
     0.1403   0.1651   0.2186   0.2890   0.3786   0.3928   0.4079   0.4137
     0.4621   0.5135   0.6204   0.6314   0.6697   0.8001   1.2538   1.4666
     1.4983   1.4990   1.5714   1.5716   3.5361   3.5458   3.5639   3.5802
     3.7358   3.7386   3.7582   3.7596   3.8939   3.9060

     the Fermi energy is     3.2243 ev

!    total energy              =   -2936.63954225 Ry
     estimated scf accuracy    <       0.00000005 Ry
     smearing contrib. (-TS)   =      -0.02146544 Ry
     internal energy E=F+TS    =   -2936.61807681 Ry

     The total energy is F=E-TS. E is the sum of the following terms:
     one-electron contribution =  -24291.83490669 Ry
     hartree contribution      =   12231.49888651 Ry
     xc contribution           =    -483.56651658 Ry
     ewald contribution        =    9607.28339856 Ry
     electric field correction =       0.00106140 Ry

     convergence has been achieved in  75 iterations

     Forces acting on atoms (cartesian axes, Ry/au):

     atom    1 type  1   force =     0.00009253   -0.00014566    0.09650799
     atom    2 type  1   force =    -0.00015461   -0.00057203   -0.17551500
     atom    3 type  2   force =    -0.00000039    0.00006136   -0.02460938
     atom    4 type  2   force =     0.00005223   -0.00130185    0.05297245
     atom    5 type  2   force =    -0.01197548    0.00009927    0.00367053
     atom    6 type  2   force =     0.01362306    0.00068968    0.00267707
     atom    7 type  1   force =    -0.00091653    0.00089177   -0.01121344
     atom    8 type  1   force =     0.00036172    0.00993283    0.02721755
     atom    9 type  2   force =    -0.00018493   -0.00023361    0.00014028
     atom   10 type  2   force =    -0.00142725    0.00227319   -0.01253118
     atom   11 type  2   force =    -0.00012626    0.00025296   -0.00025794
     atom   12 type  2   force =     0.00033842   -0.00000179   -0.00056581
     atom   13 type  1   force =     0.00034590   -0.00122191   -0.00057762
     atom   14 type  1   force =     0.00041449    0.00000642    0.00000186
     atom   15 type  2   force =    -0.00001879   -0.00105391   -0.00034949
     atom   16 type  2   force =     0.00009708   -0.00047927    0.00008284
     atom   17 type  2   force =    -0.00053467   -0.00058245    0.00005320
     atom   18 type  2   force =    -0.00025877   -0.00069859   -0.00017588
     atom   19 type  1   force =     0.00004766   -0.00035050   -0.00000199
     atom   20 type  1   force =     0.00012068    0.00008270   -0.00029944
     atom   21 type  2   force =     0.00003559   -0.00003915    0.10325458
     atom   22 type  2   force =    -0.00033944   -0.00083987   -0.00097795
     atom   23 type  2   force =    -0.07148889   -0.00010331   -0.02767439
     atom   24 type  2   force =     0.07140265    0.00032052   -0.02768013
     atom   25 type  1   force =     0.00006883   -0.00012789    0.09603410
     atom   26 type  1   force =    -0.00023323   -0.00022576   -0.17568789
     atom   27 type  2   force =     0.00006194   -0.00012975   -0.02362838
     atom   28 type  2   force =     0.00005699   -0.00109198    0.05315710
     atom   29 type  2   force =    -0.01209982    0.00086876    0.00327829
     atom   30 type  2   force =     0.01365720    0.00133800    0.00233286
     atom   31 type  1   force =    -0.00082525    0.00331566   -0.01191115
     atom   32 type  1   force =     0.00042956   -0.01206937    0.02753652
     atom   33 type  2   force =     0.00021771    0.00015820    0.00009374
     atom   34 type  2   force =    -0.00107110    0.00252671   -0.02035730
     atom   35 type  2   force =     0.00016496   -0.00087484   -0.00029791
     atom   36 type  2   force =     0.00038840   -0.00059325   -0.00059234
     atom   37 type  1   force =     0.00005984    0.00116882   -0.00029652
     atom   38 type  1   force =     0.00033022    0.00031862   -0.00011223
     atom   39 type  2   force =    -0.00004561    0.00040208   -0.00072918
     atom   40 type  2   force =    -0.00001540    0.00005811   -0.00052568
     atom   41 type  2   force =     0.00048450   -0.00007273   -0.00009753
     atom   42 type  2   force =    -0.00053468    0.00011758    0.00082439
     atom   43 type  1   force =    -0.00009883   -0.00032952    0.00021518
     atom   44 type  1   force =    -0.00006271   -0.00022072    0.00011081
     atom   45 type  2   force =     0.00004578   -0.00005388    0.10325813
     atom   46 type  2   force =    -0.07148683   -0.00006795   -0.02767500
     atom   47 type  2   force =     0.07141616    0.00034374   -0.02768794
     atom   48 type  3   force =    -0.00003238    0.00329713   -0.00379160
     atom   49 type  3   force =     0.00019452   -0.00270367    0.00120604
     atom   50 type  4   force =    -0.00104499   -0.00160236    0.00124852
     atom   51 type  5   force =     0.00046824   -0.00073651   -0.00005376

     Total force =     0.367670     Total SCF correction =     0.000333
  @ DRIVER MODE: Message from server: STATUS
  @ DRIVER MODE: Message from server: GETFORCE
  @ DRIVER MODE: Returning v,forces,stress,ensemble

     Writing output data file ./calc.save/
  @ DRIVER MODE: Message from server: EXIT
  @ DRIVE MODE: Exiting

     General routines

     Parallel routines

   This run was terminated on:  14:42:18  23Aug2021

   JOB DONE.