     Program PWSCF v.6.7GPU starts on  9Sep2021 at  1:29: 5

     R & G space division:  proc/nbgrp/npool/nimage =      10
     Reading input from /storage/home/hcoda1/3/ntian30/research/carbon/CxH_vib/CH_calc/ads_slab/CHO_a/out_0013/pw.inp
Warning: card &CELL ignored
Warning: card   CELL_DYNAMICS='IPI', ignored
Warning: card / ignored

     Current dimensions of program PWSCF are:
     Max number of different atomic species (ntypx) = 10
     Max number of k-points (npk) =  40000
     Max angular momentum in pseudopotentials (lmaxx) =  3
     Presently no symmetry can be used with electric field

     Message from routine cell_base_init:
     DEPRECATED: use true lattice parameter, not A to a.u. conversion factor

     IMPORTANT: XC functional enforced from input :
     Exchange-correlation= BEEF-VDW
                           (   1   4  43  14   2   0   0)
     Any further DFT definition will be discarded
     Please, verify this is what you really want

  @ DRIVER MODE: Connecting to
 qe_1139763_2767379.sched-torque.pace.gatech.edu5widmc_p_scratch
  using UNIX socket
  @ DRIVER MODE: Message from server: STATUS
  @ DRIVER MODE: Message from server: INIT
  @ DRIVER MODE: Receiving replica           0          -1
  @ DRIVER MODE: Receiving encoded integer          25
  @ DRIVER MODE:  SCF:  T  FORCE:  T  STRESS:  F  VC:  F  ENSEMBLE:  F
  @ DRIVER MODE:  SCF:  T  FORCE:  T  STRESS:  F  VC:  F  ENSEMBLE:  F

     Using Slab Decomposition

     bravais-lattice index     =            0
     lattice parameter (alat)  =       1.8897  a.u.
     unit-cell volume          =    6658.9804 (a.u.)^3
     number of atoms/cell      =           50
     number of atomic types    =            4
     number of electrons       =       389.00
     number of Kohn-Sham states=          204
     kinetic-energy cutoff     =      29.3995  Ry
     charge density cutoff     =     293.9946  Ry
     scf convergence threshold =      7.3E-08
     mixing beta               =       0.0500
     number of iterations used =            8  plain     mixing
     Exchange-correlation= BEEF-VDW
                           (   1   4  43  14   2   0   0)

     celldm(1)=   1.889726  celldm(2)=   0.000000  celldm(3)=   0.000000
     celldm(4)=   0.000000  celldm(5)=   0.000000  celldm(6)=   0.000000

     crystal axes: (cart. coord. in units of alat)
               a(1) = (   6.579727   0.000000   0.000000 )
               a(2) = (  -0.000775   5.961596   0.000000 )
               a(3) = (   0.000000   0.000000  25.155947 )

     reciprocal axes: (cart. coord. in units 2 pi/alat)
               b(1) = (  0.151982  0.000020  0.000000 )
               b(2) = (  0.000000  0.167740  0.000000 )
               b(3) = (  0.000000  0.000000  0.039752 )

     PseudoPot. # 1 for O  read from file:
     /storage/coda1/p-amedford6/0/shared/rich_project_chbe-medford/medford-share/data/pseudos_module/espresso/nninc/pbe/van/O.UPF
     MD5 check sum: 78c19812648e8988a0fe644b0f25305e
     Pseudo is Ultrasoft, Zval =  6.0
     Generated by new atomic code, or converted to UPF format
     Using radial grid of  737 points,  4 beta functions with:
                l(1) =   0
                l(2) =   0
                l(3) =   1
                l(4) =   1
     Q(r) pseudized with  8 coefficients,  rinner =    0.800   0.800   0.800

     PseudoPot. # 2 for Ti read from file:
     /storage/coda1/p-amedford6/0/shared/rich_project_chbe-medford/medford-share/data/pseudos_module/espresso/nninc/pbe/van/Ti.UPF
     MD5 check sum: 8e4df49b7f0d34bbd5052bf3f5ea0213
     Pseudo is Ultrasoft, Zval = 12.0
     Generated by new atomic code, or converted to UPF format
     Using radial grid of  851 points,  6 beta functions with:
                l(1) =   0
                l(2) =   0
                l(3) =   1
                l(4) =   1
                l(5) =   2
                l(6) =   2
     Q(r) pseudized with  8 coefficients,  rinner =    1.000   1.000   1.000
                                                       1.000   1.000

     PseudoPot. # 3 for C  read from file:
     /storage/coda1/p-amedford6/0/shared/rich_project_chbe-medford/medford-share/data/pseudos_module/espresso/nninc/pbe/van/C.UPF
     MD5 check sum: 1a69bf6b8db32088f5b2163dbdb77a27
     Pseudo is Ultrasoft, Zval =  4.0
     Generated by new atomic code, or converted to UPF format
     Using radial grid of  721 points,  4 beta functions with:
                l(1) =   0
                l(2) =   0
                l(3) =   1
                l(4) =   1
     Q(r) pseudized with  8 coefficients,  rinner =    0.800   0.800   0.800

     PseudoPot. # 4 for H  read from file:
     /storage/coda1/p-amedford6/0/shared/rich_project_chbe-medford/medford-share/data/pseudos_module/espresso/nninc/pbe/van/H.UPF
     MD5 check sum: b5ee9d7bfd3a09ee7748110bda690ff7
     Pseudo is Ultrasoft, Zval =  1.0
     Generated by new atomic code, or converted to UPF format
     Using radial grid of  615 points,  1 beta functions with:
                l(1) =   0
     Q(r) pseudized with  8 coefficients,  rinner =    0.800

     atomic species   valence    mass     pseudopotential
        O1             6.00    15.99900     O ( 1.00)
        Ti1           12.00    47.86700     Ti( 1.00)
        C1             4.00    12.01100     C ( 1.00)
        H1             1.00     1.00800     H ( 1.00)

     No symmetry found

   Cartesian axes

     site n.     atom                  positions (alat units)
         1           O1  tau(   1) = (   3.2904802   0.0005063   4.7018136  )
         2           O1  tau(   2) = (   3.2900926   2.9813045   4.7018136  )
         3           Ti1 tau(   3) = (   0.0004258   2.9801865   6.0000000  )
         4           Ti1 tau(   4) = (   0.0000382   5.9609847   6.0000000  )
         5           Ti1 tau(   5) = (   3.2906075   1.4906267   6.0002472  )
         6           Ti1 tau(   6) = (   3.2902200   4.4714249   6.0002472  )
         7           O1  tau(   7) = (   1.3043587   1.4918075   6.0039043  )
         8           O1  tau(   8) = (   1.3039711   4.4726057   6.0039043  )
         9           O1  tau(   9) = (   5.2767064   1.4903225   6.0039473  )
        10           O1  tau(  10) = (   5.2763189   4.4711207   6.0039473  )
        11           O1  tau(  11) = (   3.2906025   0.0005020   7.3038282  )
        12           O1  tau(  12) = (   3.2902150   2.9813002   7.3038282  )
        13           O1  tau(  13) = (   0.0006271   0.0005054   7.9858123  )
        14           O1  tau(  14) = (   0.0002396   2.9813036   7.9858123  )
        15           Ti1 tau(  15) = (   3.2969808   0.0564913   9.1534998  )
        16           Ti1 tau(  16) = (   3.3141337   3.0327768   9.1571505  )
        17           Ti1 tau(  17) = (   0.0233175   4.5369896   9.2585411  )
        18           Ti1 tau(  18) = (   0.0198836   1.6172415   9.3624336  )
        19           O1  tau(  19) = (   4.5942328   1.4918067   9.2879030  )
        20           O1  tau(  20) = (   4.5938453   4.4726049   9.2879030  )
        21           O1  tau(  21) = (   1.9868534   1.4903216   9.2879459  )
        22           O1  tau(  22) = (   1.9864658   4.4711199   9.2879459  )
        23           O1  tau(  23) = (   0.0063158   0.0123177  10.6034754  )
        24           O1  tau(  24) = (   0.0044132   2.9941235  10.5786081  )
        25           O1  tau(  25) = (   3.2970120   2.9984392  11.3520126  )
        26           O1  tau(  26) = (   3.2962737   0.0176366  11.3543537  )
        27           Ti1 tau(  27) = (   0.0302790   0.0280999  12.4961607  )
        28           Ti1 tau(  28) = (   3.3312859   4.4933669  12.4927350  )
        29           Ti1 tau(  29) = (   3.3314798   1.5140231  12.4973429  )
        30           Ti1 tau(  30) = (   0.0296678   3.0111287  12.7911082  )
        31           O1  tau(  31) = (   1.2935131   4.4896988  12.6418387  )
        32           O1  tau(  32) = (   1.2923886   1.5080263  12.6414434  )
        33           O1  tau(  33) = (   5.2919490   4.4892252  12.6414299  )
        34           O1  tau(  34) = (   5.2935099   1.5067266  12.6404615  )
        35           O1  tau(  35) = (   3.2972132   2.9952276  13.9333167  )
        36           O1  tau(  36) = (   3.2969292   0.0217920  13.9560627  )
        37           O1  tau(  37) = (   0.0109375   0.0110981  14.6876342  )
        38           O1  tau(  38) = (   0.0109565   3.0062585  14.7134293  )
        39           Ti1 tau(  39) = (   3.3068652   2.9980133  15.7272348  )
        40           Ti1 tau(  40) = (   3.3088638   0.0192678  15.7517854  )
        41           Ti1 tau(  41) = (   0.0288418   4.5446802  15.9499200  )
        42           Ti1 tau(  42) = (   0.0223207   1.3431340  16.0223868  )
        43           O1  tau(  43) = (   4.5495857   4.4747881  16.0802101  )
        44           O1  tau(  44) = (   4.5538725   1.5135375  16.1032510  )
        45           O1  tau(  45) = (   2.0418931   1.5171625  16.1093315  )
        46           O1  tau(  46) = (   2.0408760   4.4691196  16.0910022  )
        47           O1  tau(  47) = (   0.0096378   0.0051088  17.2033978  )
        48           O1  tau(  48) = (   6.5496506   3.0476207  17.4767105  )
        49           C1  tau(  49) = (   6.4067813   3.0303407  18.7370298  )
        50           H1  tau(  50) = (   6.3930715   1.9712591  19.1029599  )

     number of k points=    10  Fermi-Dirac smearing, width (Ry)=  0.0073
                       cart. coord. in units 2pi/alat
        k(    1) = (   0.0000000   0.0000000   0.0000000), wk =   0.1250000
        k(    2) = (   0.0000000   0.0419351   0.0000000), wk =   0.2500000
        k(    3) = (   0.0000000  -0.0838702   0.0000000), wk =   0.1250000
        k(    4) = (   0.0379955   0.0000049   0.0000000), wk =   0.2500000
        k(    5) = (   0.0379955   0.0419400   0.0000000), wk =   0.2500000
        k(    6) = (   0.0379955  -0.0838652   0.0000000), wk =   0.2500000
        k(    7) = (   0.0379955  -0.0419301   0.0000000), wk =   0.2500000
        k(    8) = (  -0.0759910  -0.0000099   0.0000000), wk =   0.1250000
        k(    9) = (  -0.0759910   0.0419252   0.0000000), wk =   0.2500000
        k(   10) = (  -0.0759910  -0.0838800   0.0000000), wk =   0.1250000

     Initial potential from superposition of free atoms

     starting charge  372.99920, renormalised to  389.00000

     negative rho (up, down):  1.925E-02 0.000E+00

     %%%%%%%%%%%%%%%%%%%%%%%%%%%%%%%%%%%%%%%%%%%%%%%%%%%%%%%%%%%%%%%%%%%%%%%%
     %                                                                      %
     % You are using vdW-DF, which was implemented by the Thonhauser group. %
     % Please cite the following two papers that made this development      %
     % possible and the two reviews that describe the various versions:     %
     %                                                                      %
     %   T. Thonhauser et al., PRL 115, 136402 (2015).                      %
     %   T. Thonhauser et al., PRB 76, 125112 (2007).                       %
     %   K. Berland et al., Rep. Prog. Phys. 78, 066501 (2015).             %
     %   D.C. Langreth et al., J. Phys.: Condens. Matter 21, 084203 (2009). %
     %                                                                      %
     %                                                                      %
     % If you are calculating the stress with vdW-DF, please also cite:     %
     %                                                                      %
     %   R. Sabatini et al., J. Phys.: Condens. Matter 24, 424209 (2012).   %
     %                                                                      %
     %%%%%%%%%%%%%%%%%%%%%%%%%%%%%%%%%%%%%%%%%%%%%%%%%%%%%%%%%%%%%%%%%%%%%%%%

     Adding external electric field

     Computed dipole along edir(3) :
        Dipole               -4.4813 Ry au,        -11.3903 Debye
        Dipole field         -0.0085 Ry au,

        Potential amp.        0.7839 Ry
        Total length         46.3494 bohr

     Starting wfcs are  293 atomic wfcs
  @ DRIVER MODE: Message from server: STATUS
  @ DRIVER MODE: Message from server: POSDATA
  @ DRIVER MODE: Reading and sharing cell
  @ DRIVER MODE: Reading and sharing positions
  @ DRIVER MODE: Received positions

     Self-consistent Calculation

     iteration #  1     ecut=    29.40 Ry     beta= 0.05
     Davidson diagonalization with overlap
     c_bands:  5 eigenvalues not converged
     c_bands:  5 eigenvalues not converged
     c_bands:  5 eigenvalues not converged
     c_bands:  3 eigenvalues not converged
     c_bands:  2 eigenvalues not converged
     c_bands:  1 eigenvalues not converged
     c_bands:  3 eigenvalues not converged
     c_bands:  3 eigenvalues not converged
     c_bands:  3 eigenvalues not converged
     c_bands:  1 eigenvalues not converged
     ethr =  1.00E-05,  avg # of iterations = 20.0

[...]

     total energy              =   -2877.60288498 Ry
     estimated scf accuracy    <     588.38547715 Ry

     iteration #  2     ecut=    29.40 Ry     beta= 0.05
     Davidson diagonalization with overlap
     ethr =  1.00E-02,  avg # of iterations = 14.4

[...]

     iteration # 65     ecut=    29.40 Ry     beta= 0.05
     Davidson diagonalization with overlap
     c_bands:  1 eigenvalues not converged
     ethr =  3.00E-11,  avg # of iterations = 15.1

[...]

     total energy              =   -2928.82042466 Ry
     estimated scf accuracy    <       0.00000011 Ry

     iteration # 66     ecut=    29.40 Ry     beta= 0.05
     Davidson diagonalization with overlap
     ethr =  2.93E-11,  avg # of iterations =  8.1

     negative rho (up, down):  1.792E-02 0.000E+00

     Adding external electric field

     Computed dipole along edir(3) :
        Dipole                0.1839 Ry au,          0.4675 Debye
        Dipole field          0.0003 Ry au,

        Potential amp.       -0.0322 Ry
        Total length         46.3494 bohr

     End of self-consistent calculation

          k = 0.0000 0.0000 0.0000 ( 18029 PWs)   bands (ev):

   -56.3032 -56.2901 -56.2666 -56.2539 -56.2017 -56.1897 -56.1569 -56.1363
   -56.1238 -56.0881 -56.0742 -56.0405 -55.9925 -55.9713 -55.3300 -55.2959
   -32.8567 -32.7753 -32.6805 -32.6646 -32.6440 -32.6121 -32.5990 -32.5808
   -32.5529 -32.5367 -32.5354 -32.5080 -32.5054 -32.4713 -32.4619 -32.4519
   -32.4360 -32.4247 -32.4239 -32.3971 -32.3763 -32.3685 -32.3665 -32.3566
   -32.3418 -32.3328 -32.3301 -32.3277 -32.3102 -32.3049 -32.2995 -32.2957
   -32.2577 -32.2474 -32.2258 -32.2180 -32.2083 -32.1951 -32.1791 -32.1616
   -32.1609 -32.1589 -31.7402 -31.6422 -31.6199 -31.5568 -31.4707 -31.3596
   -19.8956 -17.0624 -16.7772 -16.6255 -16.4951 -16.4476 -16.3154 -16.1738
   -16.0850 -16.0069 -15.9575 -15.9180 -15.8877 -15.8771 -15.8571 -15.8384
   -15.8359 -15.8253 -15.7549 -15.7513 -15.7177 -15.7012 -15.6981 -15.6013
   -15.5398 -15.4777 -15.4328 -15.3585 -15.3223 -15.2522 -13.8308 -13.7124
    -8.2699  -5.0604  -4.4107  -4.2413  -4.2107  -4.2039  -4.1305  -3.9122
    -3.8591  -3.6490  -3.6073  -3.4889  -3.4644  -3.4533  -3.4148  -3.3602
    -3.2712  -3.1442  -3.1415  -3.1311  -3.1241  -3.1112  -3.0755  -3.0519
    -3.0454  -3.0097  -2.9249  -2.8271  -2.8252  -2.7261  -2.6990  -2.6819
    -2.6234  -2.6130  -2.5806  -2.5611  -2.5495  -2.5280  -2.4836  -2.4621
    -2.3810  -2.2798  -2.1588  -2.1033  -2.0213  -1.9841  -1.8551  -1.7975
    -1.7413  -1.7161  -1.6681  -1.6392  -1.5999  -1.5696  -1.5358  -1.4617
    -1.3427  -1.3411  -1.2424  -1.1671  -1.1347  -1.1079  -1.0542  -1.0397
    -1.0316  -0.9292  -0.7961  -0.7875  -0.7788  -0.6890  -0.6458  -0.6279
    -0.5452  -0.5392  -0.5037  -0.4807  -0.4546  -0.3757  -0.3669  -0.3191
    -0.3032  -0.2757  -0.1621  -0.1123  -0.1002  -0.0592  -0.0167   0.1709
     0.1832   0.3249   0.4026   0.5957   0.6944   0.7496   0.8634   1.2825
     1.3408   2.6243   2.8713   2.8984   2.9291   2.9671   3.0103   3.1208
     3.2295   3.3105   3.3267   3.3589

[...]

          k = 0.0380-0.0419 0.0000 ( 17876 PWs)   bands (ev):

[...]

          k =-0.0760-0.0000 0.0000 ( 17886 PWs)   bands (ev):

[...]

          k =-0.0760-0.0839 0.0000 ( 17948 PWs)   bands (ev):

   -56.2916 -56.2780 -56.2729 -56.2709 -56.1967 -56.1759 -56.1707 -56.1410
   -56.1216 -56.0850 -56.0597 -56.0554 -55.9947 -55.9738 -55.3135 -55.3122
   -32.6607 -32.6572 -32.5989 -32.5973 -32.5855 -32.5839 -32.5810 -32.5633
   -32.5564 -32.5088 -32.5075 -32.4989 -32.4933 -32.4666 -32.4385 -32.4344
   -32.4212 -32.4191 -32.4160 -32.4075 -32.4069 -32.3952 -32.3835 -32.3812
   -32.3797 -32.3754 -32.3697 -32.3489 -32.3401 -32.3261 -32.3129 -32.3126
   -32.3120 -32.2879 -32.2683 -32.2672 -32.2643 -32.2541 -32.2164 -32.2117
   -32.2023 -32.1680 -31.6333 -31.6318 -31.5537 -31.5526 -31.5143 -31.5133
   -19.8878 -16.4900 -16.4595 -16.3541 -16.2329 -16.2202 -16.1893 -16.1469
   -16.0912 -16.0396 -16.0342 -15.9846 -15.9629 -15.9615 -15.9211 -15.8861
   -15.8374 -15.8294 -15.8231 -15.8190 -15.7679 -15.7632 -15.7231 -15.6970
   -15.6891 -15.6509 -15.6490 -15.5702 -15.4961 -15.4564 -13.8148 -13.8124
    -8.2698  -5.0116  -3.7812  -3.7403  -3.6455  -3.6075  -3.4505  -3.4406
    -3.3958  -3.3323  -3.2757  -3.2219  -3.1950  -3.1693  -3.1532  -3.1376
    -3.1278  -3.1167  -3.1065  -3.0525  -3.0462  -3.0094  -2.9909  -2.9572
    -2.9429  -2.9365  -2.9290  -2.8924  -2.8776  -2.8667  -2.8603  -2.8505
    -2.7504  -2.6701  -2.6284  -2.5624  -2.5108  -2.4556  -2.4387  -2.4202
    -2.3842  -2.3686  -2.3523  -2.2142  -2.1845  -2.0497  -2.0382  -2.0187
    -1.9990  -1.9124  -1.8759  -1.7686  -1.7515  -1.7459  -1.6568  -1.6235
    -1.5625  -1.5466  -1.4712  -1.4290  -1.4061  -1.3303  -1.2791  -1.2669
    -1.2160  -1.1968  -1.1105  -1.0696  -1.0643  -1.0463  -0.9908  -0.9618
    -0.8819  -0.8645  -0.8444  -0.7522  -0.6879  -0.6625  -0.4788  -0.3165
    -0.3081  -0.2701  -0.1800  -0.1269  -0.0827  -0.0319  -0.0296   0.0507
     0.1043   0.1972   0.2147   0.2206   0.2955   1.0529   1.0543   1.1455
     1.1564   2.5371   3.0473   3.0916   3.1175   3.1850   3.3132   3.3379
     3.3515   3.3604   3.3747   3.4819

     the Fermi energy is     2.8475 ev

!    total energy              =   -2928.82045616 Ry
     estimated scf accuracy    <       0.00000007 Ry
     smearing contrib. (-TS)   =      -0.02921723 Ry
     internal energy E=F+TS    =   -2928.79123893 Ry

     The total energy is F=E-TS. E is the sum of the following terms:
     one-electron contribution =  -24718.03850517 Ry
     hartree contribution      =   12438.94538889 Ry
     xc contribution           =    -480.34195552 Ry
     ewald contribution        =    9830.64376902 Ry
     electric field correction =       0.00006385 Ry

     convergence has been achieved in  66 iterations

     Forces acting on atoms (cartesian axes, Ry/au):

     atom    1 type  1   force =    -0.00009141    0.00005675    0.10425461
     atom    2 type  1   force =    -0.00008956    0.00006707    0.10433239
     atom    3 type  2   force =    -0.00023252   -0.00191260    0.10280059
     atom    4 type  2   force =    -0.00013184    0.00161604    0.11446738
     atom    5 type  2   force =    -0.00028260    0.00044498   -0.18035570
     atom    6 type  2   force =    -0.00019338   -0.00001909   -0.18073409
     atom    7 type  1   force =    -0.06892197    0.00068712   -0.02916196
     atom    8 type  1   force =    -0.06847921   -0.00125835   -0.02921357
     atom    9 type  1   force =     0.06855800    0.00119118   -0.02922390
     atom   10 type  1   force =     0.06819502   -0.00087898   -0.02929542
     atom   11 type  1   force =     0.00017960    0.00061667    0.04601078
     atom   12 type  1   force =     0.00045185    0.00080923    0.04735497
     atom   13 type  1   force =     0.00022644   -0.00580971   -0.03327333
     atom   14 type  1   force =     0.00032548    0.00433382   -0.02638220
     atom   15 type  2   force =     0.00024800   -0.00054096   -0.00005852
     atom   16 type  2   force =     0.00041662    0.00039853    0.00031746
     atom   17 type  2   force =    -0.00027400   -0.00074163   -0.00076479
     atom   18 type  2   force =    -0.00040373   -0.00092725   -0.00123095
     atom   19 type  1   force =    -0.01835470    0.00018829    0.00432652
     atom   20 type  1   force =    -0.01687187    0.00156467    0.00359527
     atom   21 type  1   force =     0.01895103   -0.00059987    0.00445441
     atom   22 type  1   force =     0.01761216    0.00155956    0.00358345
     atom   23 type  1   force =     0.00001754    0.00013726   -0.00074340
     atom   24 type  1   force =     0.00004841    0.00026751    0.00099489
     atom   25 type  1   force =     0.00000473   -0.00008768   -0.00002300
     atom   26 type  1   force =    -0.00006662   -0.00024370   -0.00055910
     atom   27 type  2   force =    -0.00008152    0.00037165    0.00135083
     atom   28 type  2   force =    -0.00006775   -0.00029033    0.00068238
     atom   29 type  2   force =     0.00004375    0.00018068    0.00041096
     atom   30 type  2   force =    -0.00001155   -0.00033133    0.00116526
     atom   31 type  1   force =    -0.00004498   -0.00043301    0.00004040
     atom   32 type  1   force =     0.00000888    0.00017297    0.00013294
     atom   33 type  1   force =     0.00017908   -0.00040020   -0.00007721
     atom   34 type  1   force =     0.00007238    0.00011441    0.00004098
     atom   35 type  1   force =    -0.00018237   -0.00013027   -0.00023101
     atom   36 type  1   force =    -0.00018766   -0.00063767    0.00080947
     atom   37 type  1   force =     0.00019694   -0.00074061    0.00105096
     atom   38 type  1   force =    -0.00016177    0.00028860   -0.00085467
     atom   39 type  2   force =    -0.00011045   -0.00026418    0.00015760
     atom   40 type  2   force =     0.00019603   -0.00039287   -0.00048480
     atom   41 type  2   force =    -0.00019431    0.00047576    0.00017539
     atom   42 type  2   force =     0.00000503    0.00033943   -0.00059137
     atom   43 type  1   force =     0.00089995   -0.00017807    0.00025040
     atom   44 type  1   force =    -0.00040086    0.00006236   -0.00046713
     atom   45 type  1   force =    -0.00017709    0.00012451   -0.00025580
     atom   46 type  1   force =    -0.00133136    0.00000795    0.00024935
     atom   47 type  1   force =    -0.00012355   -0.00026974    0.00034732
     atom   48 type  1   force =    -0.00046485    0.00044992    0.00111527
     atom   49 type  3   force =     0.00097553    0.00024014   -0.00078742
     atom   50 type  4   force =     0.00012103    0.00032104    0.00029708

     Total force =     0.374748     Total SCF correction =     0.001173
  @ DRIVER MODE: Message from server: STATUS
  @ DRIVER MODE: Message from server: GETFORCE
  @ DRIVER MODE: Returning v,forces,stress,ensemble

     Writing output data file ./calc.save/
  @ DRIVER MODE: Message from server: EXIT
  @ DRIVE MODE: Exiting

     General routines

     Parallel routines

   This run was terminated on:   1:45:40   9Sep2021

   JOB DONE.