     Program PWSCF v.6.7GPU starts on 23Aug2021 at 23:17:35

     R & G space division:  proc/nbgrp/npool/nimage =       6
     Reading input from /storage/home/hcoda1/3/ntian30/research/carbon/CH2_vib/ads_slab/CH2N2H_a/out_0020/pw.inp
Warning: card &CELL ignored
Warning: card   CELL_DYNAMICS='IPI', ignored
Warning: card / ignored

     Current dimensions of program PWSCF are:
     Max number of different atomic species (ntypx) = 10
     Max number of k-points (npk) =  40000
     Max angular momentum in pseudopotentials (lmaxx) =  3
     Presently no symmetry can be used with electric field

     Message from routine cell_base_init:
     DEPRECATED: use true lattice parameter, not A to a.u. conversion factor

     IMPORTANT: XC functional enforced from input :
     Exchange-correlation= BEEF-VDW
                           (   1   4  43  14   2   0   0)
     Any further DFT definition will be discarded
     Please, verify this is what you really want

  @ DRIVER MODE: Connecting to
 qe_1139763_2632802.sched-torque.pace.gatech.eduaw7ns5a2_scratch
  using UNIX socket
  @ DRIVER MODE: Message from server: STATUS
  @ DRIVER MODE: Message from server: INIT
  @ DRIVER MODE: Receiving replica           0          -1
  @ DRIVER MODE: Receiving encoded integer          25
  @ DRIVER MODE:  SCF:  T  FORCE:  T  STRESS:  F  VC:  F  ENSEMBLE:  F
  @ DRIVER MODE:  SCF:  T  FORCE:  T  STRESS:  F  VC:  F  ENSEMBLE:  F

     Using Slab Decomposition

     bravais-lattice index     =            0
     lattice parameter (alat)  =       1.8897  a.u.
     unit-cell volume          =    6658.9804 (a.u.)^3
     number of atoms/cell      =           53
     number of atomic types    =            5
     number of electrons       =       395.00
     number of Kohn-Sham states=          207
     kinetic-energy cutoff     =      29.3995  Ry
     charge density cutoff     =     293.9946  Ry
     scf convergence threshold =      7.3E-08
     mixing beta               =       0.0500
     number of iterations used =            8  plain     mixing
     Exchange-correlation= BEEF-VDW
                           (   1   4  43  14   2   0   0)

     celldm(1)=   1.889726  celldm(2)=   0.000000  celldm(3)=   0.000000
     celldm(4)=   0.000000  celldm(5)=   0.000000  celldm(6)=   0.000000

     crystal axes: (cart. coord. in units of alat)
               a(1) = (   6.579727   0.000000   0.000000 )
               a(2) = (  -0.000775   5.961596   0.000000 )
               a(3) = (   0.000000   0.000000  25.155947 )

     reciprocal axes: (cart. coord. in units 2 pi/alat)
               b(1) = (  0.151982  0.000020  0.000000 )
               b(2) = (  0.000000  0.167740  0.000000 )
               b(3) = (  0.000000  0.000000  0.039752 )

     PseudoPot. # 1 for Ti read from file:
     /storage/coda1/p-amedford6/0/shared/rich_project_chbe-medford/medford-share/data/pseudos_module/espresso/nninc/pbe/van/Ti.UPF
     MD5 check sum: 8e4df49b7f0d34bbd5052bf3f5ea0213
     Pseudo is Ultrasoft, Zval = 12.0
     Generated by new atomic code, or converted to UPF format
     Using radial grid of  851 points,  6 beta functions with:
                l(1) =   0
                l(2) =   0
                l(3) =   1
                l(4) =   1
                l(5) =   2
                l(6) =   2
     Q(r) pseudized with  8 coefficients,  rinner =    1.000   1.000   1.000
                                                       1.000   1.000

     PseudoPot. # 2 for O  read from file:
     /storage/coda1/p-amedford6/0/shared/rich_project_chbe-medford/medford-share/data/pseudos_module/espresso/nninc/pbe/van/O.UPF
     MD5 check sum: 78c19812648e8988a0fe644b0f25305e
     Pseudo is Ultrasoft, Zval =  6.0
     Generated by new atomic code, or converted to UPF format
     Using radial grid of  737 points,  4 beta functions with:
                l(1) =   0
                l(2) =   0
                l(3) =   1
                l(4) =   1
     Q(r) pseudized with  8 coefficients,  rinner =    0.800   0.800   0.800

     PseudoPot. # 3 for N  read from file:
     /storage/coda1/p-amedford6/0/shared/rich_project_chbe-medford/medford-share/data/pseudos_module/espresso/nninc/pbe/van/N.UPF
     MD5 check sum: 90d10febe142ad51ac9d5be1deb811c4
     Pseudo is Ultrasoft, Zval =  5.0
     Generated by new atomic code, or converted to UPF format
     Using radial grid of  729 points,  4 beta functions with:
                l(1) =   0
                l(2) =   0
                l(3) =   1
                l(4) =   1
     Q(r) pseudized with  8 coefficients,  rinner =    0.800   0.800   0.800

     PseudoPot. # 4 for C  read from file:
     /storage/coda1/p-amedford6/0/shared/rich_project_chbe-medford/medford-share/data/pseudos_module/espresso/nninc/pbe/van/C.UPF
     MD5 check sum: 1a69bf6b8db32088f5b2163dbdb77a27
     Pseudo is Ultrasoft, Zval =  4.0
     Generated by new atomic code, or converted to UPF format
     Using radial grid of  721 points,  4 beta functions with:
                l(1) =   0
                l(2) =   0
                l(3) =   1
                l(4) =   1
     Q(r) pseudized with  8 coefficients,  rinner =    0.800   0.800   0.800

     PseudoPot. # 5 for H  read from file:
     /storage/coda1/p-amedford6/0/shared/rich_project_chbe-medford/medford-share/data/pseudos_module/espresso/nninc/pbe/van/H.UPF
     MD5 check sum: b5ee9d7bfd3a09ee7748110bda690ff7
     Pseudo is Ultrasoft, Zval =  1.0
     Generated by new atomic code, or converted to UPF format
     Using radial grid of  615 points,  1 beta functions with:
                l(1) =   0
     Q(r) pseudized with  8 coefficients,  rinner =    0.800

     atomic species   valence    mass     pseudopotential
        Ti1           12.00    47.86700     Ti( 1.00)
        O1             6.00    15.99900     O ( 1.00)
        N1             5.00    14.00700     N ( 1.00)
        C1             4.00    12.01100     C ( 1.00)
        H1             1.00     1.00800     H ( 1.00)

     No symmetry found

   Cartesian axes

     site n.     atom                  positions (alat units)
         1           Ti1 tau(   1) = (   0.0004258   2.9801865   6.0000000  )
         2           Ti1 tau(   2) = (   3.2906075   1.4906267   6.0002472  )
         3           O1  tau(   3) = (   0.0006271   0.0005054   7.9858123  )
         4           O1  tau(   4) = (   3.2906025   0.0005020   7.3038282  )
         5           O1  tau(   5) = (   4.5942328   1.4918067   9.2879030  )
         6           O1  tau(   6) = (   1.9868534   1.4903216   9.2879459  )
         7           Ti1 tau(   7) = (   3.2907910   2.8959150   9.1758416  )
         8           Ti1 tau(   8) = (   0.0015273   1.4827037   9.2680791  )
         9           O1  tau(   9) = (   3.3007851   0.0027079  11.3193151  )
        10           O1  tau(  10) = (   0.0116148   5.9584955  10.6183126  )
        11           O1  tau(  11) = (   1.3147357   1.5019762  12.6210215  )
        12           O1  tau(  12) = (   5.3120411   1.4917641  12.6342566  )
        13           Ti1 tau(  13) = (   6.5359925   2.9538565  12.6086018  )
        14           Ti1 tau(  14) = (   3.2189980   1.4905645  12.4770757  )
        15           O1  tau(  15) = (   0.0426301   5.9606301  14.6312846  )
        16           O1  tau(  16) = (   3.3149351   0.0098317  13.8848037  )
        17           O1  tau(  17) = (   4.5523768   1.5206755  16.0744300  )
        18           O1  tau(  18) = (   2.0715852   1.4807026  15.9918588  )
        19           Ti1 tau(  19) = (   3.2935730   2.9941335  15.6827836  )
        20           Ti1 tau(  20) = (   0.0200723   1.3023755  15.9747514  )
        21           O1  tau(  21) = (   3.2904802   0.0005063   4.7018136  )
        22           O1  tau(  22) = (   6.5179923   0.0002674  17.1556216  )
        23           O1  tau(  23) = (   1.3043587   1.4918075   6.0039043  )
        24           O1  tau(  24) = (   5.2767064   1.4903225   6.0039473  )
        25           Ti1 tau(  25) = (   0.0000382   5.9609847   6.0000000  )
        26           Ti1 tau(  26) = (   3.2902200   4.4714249   6.0002472  )
        27           O1  tau(  27) = (   0.0002396   2.9813036   7.9858123  )
        28           O1  tau(  28) = (   3.2902150   2.9813002   7.3038282  )
        29           O1  tau(  29) = (   4.5938453   4.4726049   9.2879030  )
        30           O1  tau(  30) = (   1.9864658   4.4711199   9.2879459  )
        31           Ti1 tau(  31) = (   3.2891106   5.8743827   9.1763621  )
        32           Ti1 tau(  32) = (   0.0006254   4.4649316   9.2693709  )
        33           O1  tau(  33) = (   3.3053585   2.9833221  11.3185053  )
        34           O1  tau(  34) = (   0.0092240   2.9805883  10.6323155  )
        35           O1  tau(  35) = (   1.3157767   4.4721532  12.6203727  )
        36           O1  tau(  36) = (   5.3104355   4.4689601  12.6331991  )
        37           Ti1 tau(  37) = (   6.5385524   5.9338372  12.5465384  )
        38           Ti1 tau(  38) = (   3.2200853   4.4710709  12.4725482  )
        39           O1  tau(  39) = (   0.0068575   2.9964749  14.7765288  )
        40           O1  tau(  40) = (   3.3021705   2.9848394  13.8818356  )
        41           O1  tau(  41) = (   4.5334443   4.4765196  15.9883447  )
        42           O1  tau(  42) = (   2.0816803   4.4801587  16.0471567  )
        43           Ti1 tau(  43) = (   3.3155128   0.0116264  15.6901768  )
        44           Ti1 tau(  44) = (   6.5575601   4.4671909  15.9479714  )
        45           O1  tau(  45) = (   3.2900926   2.9813045   4.7018136  )
        46           O1  tau(  46) = (   1.3039711   4.4726057   6.0039043  )
        47           O1  tau(  47) = (   5.2763189   4.4711207   6.0039473  )
        48           N1  tau(  48) = (   0.4270260   2.3853988  17.9668900  )
        49           C1  tau(  49) = (   0.9469377   1.9340014  19.0583692  )
        50           H1  tau(  50) = (   1.0789317   2.5769861  19.9249762  )
        51           H1  tau(  51) = (   1.2426487   0.8959138  19.0941702  )
        52           N1  tau(  52) = (   0.0025679   3.6232397  17.7996529  )
        53           H1  tau(  53) = (   0.1020252   4.2324666  18.6151602  )

     number of k points=    10  Fermi-Dirac smearing, width (Ry)=  0.0073
                       cart. coord. in units 2pi/alat
        k(    1) = (   0.0000000   0.0000000   0.0000000), wk =   0.1250000
        k(    2) = (   0.0000000   0.0419351   0.0000000), wk =   0.2500000
        k(    3) = (   0.0000000  -0.0838702   0.0000000), wk =   0.1250000
        k(    4) = (   0.0379955   0.0000049   0.0000000), wk =   0.2500000
        k(    5) = (   0.0379955   0.0419400   0.0000000), wk =   0.2500000
        k(    6) = (   0.0379955  -0.0838652   0.0000000), wk =   0.2500000
        k(    7) = (   0.0379955  -0.0419301   0.0000000), wk =   0.2500000
        k(    8) = (  -0.0759910  -0.0000099   0.0000000), wk =   0.1250000
        k(    9) = (  -0.0759910   0.0419252   0.0000000), wk =   0.2500000
        k(   10) = (  -0.0759910  -0.0838800   0.0000000), wk =   0.1250000

     Initial potential from superposition of free atoms

     starting charge  378.99916, renormalised to  395.00000

     negative rho (up, down):  1.649E-02 0.000E+00

     %%%%%%%%%%%%%%%%%%%%%%%%%%%%%%%%%%%%%%%%%%%%%%%%%%%%%%%%%%%%%%%%%%%%%%%%
     %                                                                      %
     % You are using vdW-DF, which was implemented by the Thonhauser group. %
     % Please cite the following two papers that made this development      %
     % possible and the two reviews that describe the various versions:     %
     %                                                                      %
     %   T. Thonhauser et al., PRL 115, 136402 (2015).                      %
     %   T. Thonhauser et al., PRB 76, 125112 (2007).                       %
     %   K. Berland et al., Rep. Prog. Phys. 78, 066501 (2015).             %
     %   D.C. Langreth et al., J. Phys.: Condens. Matter 21, 084203 (2009). %
     %                                                                      %
     %                                                                      %
     % If you are calculating the stress with vdW-DF, please also cite:     %
     %                                                                      %
     %   R. Sabatini et al., J. Phys.: Condens. Matter 24, 424209 (2012).   %
     %                                                                      %
     %%%%%%%%%%%%%%%%%%%%%%%%%%%%%%%%%%%%%%%%%%%%%%%%%%%%%%%%%%%%%%%%%%%%%%%%

     Adding external electric field

     Computed dipole along edir(3) :
        Dipole               -8.3970 Ry au,        -21.3430 Debye
        Dipole field         -0.0158 Ry au,

        Potential amp.        1.4689 Ry
        Total length         46.3494 bohr

     Starting wfcs are  299 atomic wfcs
  @ DRIVER MODE: Message from server: STATUS
  @ DRIVER MODE: Message from server: POSDATA
  @ DRIVER MODE: Reading and sharing cell
  @ DRIVER MODE: Reading and sharing positions
  @ DRIVER MODE: Received positions

     Self-consistent Calculation

     iteration #  1     ecut=    29.40 Ry     beta= 0.05
     Davidson diagonalization with overlap
     c_bands:  2 eigenvalues not converged
     c_bands:  1 eigenvalues not converged
     c_bands:  2 eigenvalues not converged
     c_bands:  3 eigenvalues not converged
     c_bands:  3 eigenvalues not converged
     c_bands:  2 eigenvalues not converged
     c_bands:  1 eigenvalues not converged
     ethr =  1.00E-05,  avg # of iterations = 19.3

[...]

     total energy              =   -2613.95047283 Ry
     estimated scf accuracy    <    3601.30671561 Ry

[...]

     iteration #  3     ecut=    29.40 Ry     beta= 0.05
     Davidson diagonalization with overlap
     ethr =  1.00E-02,  avg # of iterations = 14.1

[...]

     iteration # 41     ecut=    29.40 Ry     beta= 0.05
     Davidson diagonalization with overlap
     c_bands:  1 eigenvalues not converged
     ethr =  4.89E-07,  avg # of iterations = 14.5

[...]

     total energy              =   -2939.13537790 Ry
     estimated scf accuracy    <       0.00000009 Ry

     iteration # 62     ecut=    29.40 Ry     beta= 0.05
     Davidson diagonalization with overlap
     ethr =  2.30E-11,  avg # of iterations =  6.2

     negative rho (up, down):  1.681E-02 0.000E+00

     Adding external electric field

     Computed dipole along edir(3) :
        Dipole                0.7874 Ry au,          2.0014 Debye
        Dipole field          0.0015 Ry au,

        Potential amp.       -0.1377 Ry
        Total length         46.3494 bohr

     End of self-consistent calculation

          k = 0.0000 0.0000 0.0000 ( 18029 PWs)   bands (ev):

   -55.8525 -55.8513 -55.8185 -55.8152 -55.7456 -55.7025 -55.6648 -55.6631
   -55.6299 -55.6291 -55.6244 -55.5907 -55.1901 -55.1442 -54.8282 -54.7942
   -32.4054 -32.3355 -32.2413 -32.1630 -32.1491 -32.1447 -32.1308 -32.1162
   -32.0955 -32.0823 -32.0294 -32.0116 -32.0050 -32.0030 -31.9930 -31.9894
   -31.9573 -31.9454 -31.9394 -31.9367 -31.9100 -31.9073 -31.8915 -31.8893
   -31.8586 -31.8544 -31.8521 -31.8511 -31.8260 -31.8109 -31.8033 -31.7932
   -31.7813 -31.7789 -31.7713 -31.7379 -31.7313 -31.4545 -31.4172 -31.3899
   -31.3375 -31.3023 -31.2350 -31.1474 -31.1250 -31.0521 -30.9656 -30.8542
   -17.9130 -16.6117 -16.3317 -16.0763 -16.0011 -15.9972 -15.8635 -15.7007
   -15.5880 -15.5210 -15.4407 -15.4110 -15.3892 -15.3535 -15.3473 -15.3093
   -15.3005 -15.2750 -15.2718 -15.2093 -15.2059 -15.1985 -15.1887 -15.1046
   -15.0468 -14.9954 -14.9878 -14.9143 -14.8803 -14.3521 -13.3302 -13.2138
   -12.1604  -7.8726  -5.3671  -4.5305  -3.9885  -3.8292  -3.7597  -3.7250
    -3.6475  -3.4887  -3.4099  -3.1277  -3.0791  -3.0236  -3.0142  -2.9776
    -2.9324  -2.7813  -2.7037  -2.6769  -2.6613  -2.6389  -2.6238  -2.6117
    -2.5957  -2.5765  -2.4956  -2.4144  -2.3702  -2.2934  -2.2797  -2.2447
    -2.1648  -2.1644  -2.1244  -2.1040  -2.0858  -2.0696  -2.0610  -2.0458
    -1.9053  -1.8486  -1.8344  -1.6535  -1.6365  -1.5882  -1.4606  -1.4547
    -1.3384  -1.3233  -1.2831  -1.2455  -1.1727  -1.1509  -1.0395  -0.9981
    -0.9366  -0.8895  -0.8743  -0.7985  -0.7338  -0.6954  -0.6822  -0.6171
    -0.6104  -0.5974  -0.4628  -0.3857  -0.3328  -0.2768  -0.2545  -0.1985
    -0.1590  -0.1157  -0.0283  -0.0012   0.0105   0.0688   0.0903   0.1158
     0.1274   0.1472   0.1762   0.2316   0.3499   0.3815   0.4575   0.4718
     0.5327   0.6666   0.8046   0.8718   0.9243   1.0200   1.1251   1.1945
     1.2679   1.3869   1.7647   1.8101   2.1376   3.2672   3.3692   3.4020
     3.4130   3.5161   3.6649   3.7264   3.7415   3.7829   3.8167

[...]

          k = 0.0380-0.0419 0.0000 ( 17876 PWs)   bands (ev):

[...]

          k =-0.0760-0.0000 0.0000 ( 17886 PWs)   bands (ev):

[...]

          k =-0.0760-0.0839 0.0000 ( 17948 PWs)   bands (ev):

   -55.8356 -55.8352 -55.8337 -55.8326 -55.7370 -55.7111 -55.6481 -55.6465
   -55.6464 -55.6454 -55.6083 -55.6070 -55.1822 -55.1519 -54.8112 -54.8110
   -32.2076 -32.2059 -32.1508 -32.1506 -32.1302 -32.1299 -32.0961 -32.0932
   -32.0840 -32.0674 -32.0018 -31.9991 -31.9936 -31.9917 -31.9698 -31.9622
   -31.9554 -31.9550 -31.9497 -31.9484 -31.9465 -31.9348 -31.9291 -31.9223
   -31.9103 -31.9053 -31.8603 -31.8502 -31.8483 -31.8475 -31.8392 -31.8384
   -31.8253 -31.8246 -31.8240 -31.8228 -31.6840 -31.4498 -31.4160 -31.4115
   -31.3934 -31.3385 -31.1378 -31.1376 -31.0479 -31.0477 -31.0089 -31.0088
   -17.8995 -16.0268 -16.0241 -15.8165 -15.7775 -15.7583 -15.7525 -15.6628
   -15.5770 -15.5436 -15.5406 -15.4535 -15.4274 -15.4113 -15.3952 -15.3897
   -15.3808 -15.3512 -15.3162 -15.3087 -15.2946 -15.2890 -15.2770 -15.2200
   -15.1688 -15.1646 -15.1421 -15.0699 -14.8312 -14.6920 -13.3157 -13.3155
   -12.1212  -7.8133  -5.4120  -4.5912  -3.3213  -3.3118  -3.0656  -3.0226
    -3.0183  -2.9915  -2.9506  -2.7896  -2.7771  -2.7576  -2.7499  -2.7051
    -2.6816  -2.6614  -2.6418  -2.6365  -2.6076  -2.5814  -2.5663  -2.5293
    -2.5223  -2.5135  -2.4821  -2.4712  -2.4244  -2.4194  -2.3986  -2.3711
    -2.3616  -2.3272  -2.1805  -2.1071  -2.0790  -1.9942  -1.9873  -1.9474
    -1.9246  -1.9034  -1.8946  -1.8684  -1.8306  -1.6944  -1.6117  -1.5502
    -1.5415  -1.4570  -1.4293  -1.3676  -1.2781  -1.2523  -1.2316  -1.1599
    -1.0843  -1.0460  -0.9950  -0.9816  -0.9141  -0.9053  -0.8475  -0.8111
    -0.8091  -0.7321  -0.7018  -0.6545  -0.6180  -0.6012  -0.5783  -0.5516
    -0.5360  -0.5129  -0.4376  -0.3528  -0.3011  -0.2400  -0.1475  -0.0176
     0.1022   0.2151   0.2368   0.2812   0.3338   0.3681   0.4613   0.4652
     0.5286   0.5518   0.5934   0.6708   0.6821   0.7066   0.8176   0.8480
     1.5590   1.5594   1.6300   1.6302   2.0781   3.5901   3.6190   3.6381
     3.6698   3.7993   3.8053   3.8161   3.8166   3.9528   3.9663

     the Fermi energy is     3.2771 ev

!    total energy              =   -2939.13541987 Ry
     estimated scf accuracy    <       0.00000004 Ry
     smearing contrib. (-TS)   =      -0.02098908 Ry
     internal energy E=F+TS    =   -2939.11443079 Ry

     The total energy is F=E-TS. E is the sum of the following terms:
     one-electron contribution =  -24492.31411293 Ry
     hartree contribution      =   12334.11018046 Ry
     xc contribution           =    -485.36899258 Ry
     ewald contribution        =    9704.45732424 Ry
     electric field correction =       0.00117002 Ry

     convergence has been achieved in  62 iterations

     Forces acting on atoms (cartesian axes, Ry/au):

     atom    1 type  1   force =     0.00008117   -0.00023485    0.09633196
     atom    2 type  1   force =     0.00005821   -0.00056381   -0.17514749
     atom    3 type  2   force =     0.00015217   -0.00013033   -0.02407907
     atom    4 type  2   force =    -0.00000344   -0.00124824    0.05222258
     atom    5 type  2   force =    -0.01056211   -0.00047598    0.00251241
     atom    6 type  2   force =     0.01237995    0.00022343    0.00288460
     atom    7 type  1   force =     0.00098909    0.00027114   -0.01173459
     atom    8 type  1   force =    -0.00013517    0.00774014    0.02263264
     atom    9 type  2   force =    -0.00019852   -0.00015587   -0.00027370
     atom   10 type  2   force =    -0.00262245    0.00115417   -0.01268298
     atom   11 type  2   force =     0.00006076   -0.00012374    0.00005173
     atom   12 type  2   force =     0.00010551    0.00018565   -0.00039412
     atom   13 type  1   force =     0.00043673   -0.00034962    0.00022332
     atom   14 type  1   force =     0.00015186    0.00032333   -0.00015436
     atom   15 type  2   force =    -0.00023823    0.00013428    0.00002537
     atom   16 type  2   force =     0.00010935   -0.00021460    0.00035040
     atom   17 type  2   force =     0.00048076   -0.00001653    0.00037014
     atom   18 type  2   force =     0.00069648   -0.00018102    0.00027416
     atom   19 type  1   force =    -0.00117565   -0.00002365    0.00024292
     atom   20 type  1   force =     0.00032377   -0.00042748   -0.00050708
     atom   21 type  2   force =     0.00004956    0.00000119    0.10310649
     atom   22 type  2   force =     0.00014229   -0.00028100   -0.00004455
     atom   23 type  2   force =    -0.07163476   -0.00015458   -0.02766088
     atom   24 type  2   force =     0.07157467    0.00034768   -0.02772421
     atom   25 type  1   force =     0.00015756   -0.00023656    0.09588352
     atom   26 type  1   force =     0.00010536   -0.00040902   -0.17542557
     atom   27 type  2   force =     0.00017751   -0.00021682   -0.02291047
     atom   28 type  2   force =     0.00006499   -0.00101374    0.05218580
     atom   29 type  2   force =    -0.01086300    0.00048077    0.00243584
     atom   30 type  2   force =     0.01255818    0.00064320    0.00278159
     atom   31 type  1   force =     0.00086904    0.00348373   -0.01291473
     atom   32 type  1   force =     0.00002465   -0.00924897    0.02305610
     atom   33 type  2   force =    -0.00048481    0.00013438    0.00022888
     atom   34 type  2   force =    -0.00302857    0.00022592   -0.01290697
     atom   35 type  2   force =     0.00008707    0.00008690   -0.00008829
     atom   36 type  2   force =     0.00011034    0.00033412   -0.00040585
     atom   37 type  1   force =     0.00033564    0.00037698    0.00004934
     atom   38 type  1   force =     0.00002671   -0.00043618    0.00013952
     atom   39 type  2   force =     0.00015151    0.00044381    0.00053104
     atom   40 type  2   force =     0.00035422    0.00013100   -0.00037739
     atom   41 type  2   force =     0.00039895    0.00003901    0.00027526
     atom   42 type  2   force =     0.00093619    0.00003439    0.00051233
     atom   43 type  1   force =    -0.00156055   -0.00036986   -0.00031259
     atom   44 type  1   force =     0.00069844   -0.00027163   -0.00073590
     atom   45 type  2   force =     0.00005848   -0.00003867    0.10308478
     atom   46 type  2   force =    -0.07165936   -0.00007371   -0.02768155
     atom   47 type  2   force =     0.07160032    0.00032475   -0.02774533
     atom   48 type  3   force =    -0.00008049   -0.00157771   -0.00031073
     atom   49 type  4   force =     0.00081351   -0.00288022    0.00000509
     atom   50 type  5   force =    -0.00106939    0.00082268    0.00064935
     atom   51 type  5   force =    -0.00124770    0.00268854   -0.00033460
     atom   52 type  3   force =    -0.00062429    0.00072884   -0.00125260
     atom   53 type  5   force =    -0.00013254   -0.00000564    0.00075842

     Total force =     0.365767     Total SCF correction =     0.000469
  @ DRIVER MODE: Message from server: STATUS
  @ DRIVER MODE: Message from server: GETFORCE
  @ DRIVER MODE: Returning v,forces,stress,ensemble

     Writing output data file ./calc.save/
  @ DRIVER MODE: Message from server: EXIT
  @ DRIVE MODE: Exiting

     General routines

     Parallel routines

   This run was terminated on:  23:43:46  23Aug2021

   JOB DONE.