     Program PWSCF v.6.7GPU starts on 24Aug2021 at  6: 4:38

     R & G space division:  proc/nbgrp/npool/nimage =       6
     Reading input from /storage/home/hcoda1/3/ntian30/research/carbon/CH2_vib/ads_slab/CH2N2H_a/out_0034/pw.inp
Warning: card &CELL ignored
Warning: card   CELL_DYNAMICS='IPI', ignored
Warning: card / ignored

     Current dimensions of program PWSCF are:
     Max number of different atomic species (ntypx) = 10
     Max number of k-points (npk) =  40000
     Max angular momentum in pseudopotentials (lmaxx) =  3
     Presently no symmetry can be used with electric field

     Message from routine cell_base_init:
     DEPRECATED: use true lattice parameter, not A to a.u. conversion factor

     IMPORTANT: XC functional enforced from input :
     Exchange-correlation= BEEF-VDW
                           (   1   4  43  14   2   0   0)
     Any further DFT definition will be discarded
     Please, verify this is what you really want

  @ DRIVER MODE: Connecting to
 qe_1139763_2632802.sched-torque.pace.gatech.edu56tq2c7h_scratch
  using UNIX socket
  @ DRIVER MODE: Message from server: STATUS
  @ DRIVER MODE: Message from server: INIT
  @ DRIVER MODE: Receiving replica           0          -1
  @ DRIVER MODE: Receiving encoded integer          25
  @ DRIVER MODE:  SCF:  T  FORCE:  T  STRESS:  F  VC:  F  ENSEMBLE:  F
  @ DRIVER MODE:  SCF:  T  FORCE:  T  STRESS:  F  VC:  F  ENSEMBLE:  F

     Using Slab Decomposition

     bravais-lattice index     =            0
     lattice parameter (alat)  =       1.8897  a.u.
     unit-cell volume          =    6658.9804 (a.u.)^3
     number of atoms/cell      =           53
     number of atomic types    =            5
     number of electrons       =       395.00
     number of Kohn-Sham states=          207
     kinetic-energy cutoff     =      29.3995  Ry
     charge density cutoff     =     293.9946  Ry
     scf convergence threshold =      7.3E-08
     mixing beta               =       0.0500
     number of iterations used =            8  plain     mixing
     Exchange-correlation= BEEF-VDW
                           (   1   4  43  14   2   0   0)

     celldm(1)=   1.889726  celldm(2)=   0.000000  celldm(3)=   0.000000
     celldm(4)=   0.000000  celldm(5)=   0.000000  celldm(6)=   0.000000

     crystal axes: (cart. coord. in units of alat)
               a(1) = (   6.579727   0.000000   0.000000 )
               a(2) = (  -0.000775   5.961596   0.000000 )
               a(3) = (   0.000000   0.000000  25.155947 )

     reciprocal axes: (cart. coord. in units 2 pi/alat)
               b(1) = (  0.151982  0.000020  0.000000 )
               b(2) = (  0.000000  0.167740  0.000000 )
               b(3) = (  0.000000  0.000000  0.039752 )

     PseudoPot. # 1 for Ti read from file:
     /storage/coda1/p-amedford6/0/shared/rich_project_chbe-medford/medford-share/data/pseudos_module/espresso/nninc/pbe/van/Ti.UPF
     MD5 check sum: 8e4df49b7f0d34bbd5052bf3f5ea0213
     Pseudo is Ultrasoft, Zval = 12.0
     Generated by new atomic code, or converted to UPF format
     Using radial grid of  851 points,  6 beta functions with:
                l(1) =   0
                l(2) =   0
                l(3) =   1
                l(4) =   1
                l(5) =   2
                l(6) =   2
     Q(r) pseudized with  8 coefficients,  rinner =    1.000   1.000   1.000
                                                       1.000   1.000

     PseudoPot. # 2 for O  read from file:
     /storage/coda1/p-amedford6/0/shared/rich_project_chbe-medford/medford-share/data/pseudos_module/espresso/nninc/pbe/van/O.UPF
     MD5 check sum: 78c19812648e8988a0fe644b0f25305e
     Pseudo is Ultrasoft, Zval =  6.0
     Generated by new atomic code, or converted to UPF format
     Using radial grid of  737 points,  4 beta functions with:
                l(1) =   0
                l(2) =   0
                l(3) =   1
                l(4) =   1
     Q(r) pseudized with  8 coefficients,  rinner =    0.800   0.800   0.800

     PseudoPot. # 3 for N  read from file:
     /storage/coda1/p-amedford6/0/shared/rich_project_chbe-medford/medford-share/data/pseudos_module/espresso/nninc/pbe/van/N.UPF
     MD5 check sum: 90d10febe142ad51ac9d5be1deb811c4
     Pseudo is Ultrasoft, Zval =  5.0
     Generated by new atomic code, or converted to UPF format
     Using radial grid of  729 points,  4 beta functions with:
                l(1) =   0
                l(2) =   0
                l(3) =   1
                l(4) =   1
     Q(r) pseudized with  8 coefficients,  rinner =    0.800   0.800   0.800

     PseudoPot. # 4 for C  read from file:
     /storage/coda1/p-amedford6/0/shared/rich_project_chbe-medford/medford-share/data/pseudos_module/espresso/nninc/pbe/van/C.UPF
     MD5 check sum: 1a69bf6b8db32088f5b2163dbdb77a27
     Pseudo is Ultrasoft, Zval =  4.0
     Generated by new atomic code, or converted to UPF format
     Using radial grid of  721 points,  4 beta functions with:
                l(1) =   0
                l(2) =   0
                l(3) =   1
                l(4) =   1
     Q(r) pseudized with  8 coefficients,  rinner =    0.800   0.800   0.800

     PseudoPot. # 5 for H  read from file:
     /storage/coda1/p-amedford6/0/shared/rich_project_chbe-medford/medford-share/data/pseudos_module/espresso/nninc/pbe/van/H.UPF
     MD5 check sum: b5ee9d7bfd3a09ee7748110bda690ff7
     Pseudo is Ultrasoft, Zval =  1.0
     Generated by new atomic code, or converted to UPF format
     Using radial grid of  615 points,  1 beta functions with:
                l(1) =   0
     Q(r) pseudized with  8 coefficients,  rinner =    0.800

     atomic species   valence    mass     pseudopotential
        Ti1           12.00    47.86700     Ti( 1.00)
        O1             6.00    15.99900     O ( 1.00)
        N1             5.00    14.00700     N ( 1.00)
        C1             4.00    12.01100     C ( 1.00)
        H1             1.00     1.00800     H ( 1.00)

     No symmetry found

   Cartesian axes

     site n.     atom                  positions (alat units)
         1           Ti1 tau(   1) = (   0.0004258   2.9801865   6.0000000  )
         2           Ti1 tau(   2) = (   3.2906075   1.4906267   6.0002472  )
         3           O1  tau(   3) = (   0.0006271   0.0005054   7.9858123  )
         4           O1  tau(   4) = (   3.2906025   0.0005020   7.3038282  )
         5           O1  tau(   5) = (   4.5942328   1.4918067   9.2879030  )
         6           O1  tau(   6) = (   1.9868534   1.4903216   9.2879459  )
         7           Ti1 tau(   7) = (   3.2907910   2.8959150   9.1758416  )
         8           Ti1 tau(   8) = (   0.0015273   1.4827037   9.2680791  )
         9           O1  tau(   9) = (   3.3007851   0.0027079  11.3193151  )
        10           O1  tau(  10) = (   0.0116148   5.9584955  10.6183126  )
        11           O1  tau(  11) = (   1.3147357   1.5019762  12.6210215  )
        12           O1  tau(  12) = (   5.3120411   1.4917641  12.6342566  )
        13           Ti1 tau(  13) = (   6.5359925   2.9538565  12.6086018  )
        14           Ti1 tau(  14) = (   3.2189980   1.4905645  12.4770757  )
        15           O1  tau(  15) = (   0.0426301   5.9606301  14.6312846  )
        16           O1  tau(  16) = (   3.3149351   0.0098317  13.8848037  )
        17           O1  tau(  17) = (   4.5523768   1.5206755  16.0744300  )
        18           O1  tau(  18) = (   2.0715852   1.4807026  15.9918588  )
        19           Ti1 tau(  19) = (   3.2935730   2.9941335  15.6827836  )
        20           Ti1 tau(  20) = (   0.0200723   1.3023755  15.9747514  )
        21           O1  tau(  21) = (   3.2904802   0.0005063   4.7018136  )
        22           O1  tau(  22) = (   6.5179923   0.0002674  17.1556216  )
        23           O1  tau(  23) = (   1.3043587   1.4918075   6.0039043  )
        24           O1  tau(  24) = (   5.2767064   1.4903225   6.0039473  )
        25           Ti1 tau(  25) = (   0.0000382   5.9609847   6.0000000  )
        26           Ti1 tau(  26) = (   3.2902200   4.4714249   6.0002472  )
        27           O1  tau(  27) = (   0.0002396   2.9813036   7.9858123  )
        28           O1  tau(  28) = (   3.2902150   2.9813002   7.3038282  )
        29           O1  tau(  29) = (   4.5938453   4.4726049   9.2879030  )
        30           O1  tau(  30) = (   1.9864658   4.4711199   9.2879459  )
        31           Ti1 tau(  31) = (   3.2891106   5.8743827   9.1763621  )
        32           Ti1 tau(  32) = (   0.0006254   4.4649316   9.2693709  )
        33           O1  tau(  33) = (   3.3053585   2.9833221  11.3185053  )
        34           O1  tau(  34) = (   0.0092240   2.9805883  10.6323155  )
        35           O1  tau(  35) = (   1.3157767   4.4721532  12.6203727  )
        36           O1  tau(  36) = (   5.3104355   4.4689601  12.6331991  )
        37           Ti1 tau(  37) = (   6.5385524   5.9338372  12.5465384  )
        38           Ti1 tau(  38) = (   3.2200853   4.4710709  12.4725482  )
        39           O1  tau(  39) = (   0.0068575   2.9964749  14.7765288  )
        40           O1  tau(  40) = (   3.3021705   2.9848394  13.8818356  )
        41           O1  tau(  41) = (   4.5334443   4.4765196  15.9883447  )
        42           O1  tau(  42) = (   2.0816803   4.4801587  16.0471567  )
        43           Ti1 tau(  43) = (   3.3155128   0.0116264  15.6901768  )
        44           Ti1 tau(  44) = (   6.5575601   4.4671909  15.9479714  )
        45           O1  tau(  45) = (   3.2900926   2.9813045   4.7018136  )
        46           O1  tau(  46) = (   1.3039711   4.4726057   6.0039043  )
        47           O1  tau(  47) = (   5.2763189   4.4711207   6.0039473  )
        48           N1  tau(  48) = (   0.4270260   2.3853988  17.9668900  )
        49           C1  tau(  49) = (   0.9469377   1.9340014  19.0583692  )
        50           H1  tau(  50) = (   1.0789317   2.5769861  19.9249762  )
        51           H1  tau(  51) = (   1.2326487   0.8959138  19.0941702  )
        52           N1  tau(  52) = (   0.0025679   3.6232397  17.7996529  )
        53           H1  tau(  53) = (   0.1020252   4.2424666  18.6151602  )

     number of k points=    10  Fermi-Dirac smearing, width (Ry)=  0.0073
                       cart. coord. in units 2pi/alat
        k(    1) = (   0.0000000   0.0000000   0.0000000), wk =   0.1250000
        k(    2) = (   0.0000000   0.0419351   0.0000000), wk =   0.2500000
        k(    3) = (   0.0000000  -0.0838702   0.0000000), wk =   0.1250000
        k(    4) = (   0.0379955   0.0000049   0.0000000), wk =   0.2500000
        k(    5) = (   0.0379955   0.0419400   0.0000000), wk =   0.2500000
        k(    6) = (   0.0379955  -0.0838652   0.0000000), wk =   0.2500000
        k(    7) = (   0.0379955  -0.0419301   0.0000000), wk =   0.2500000
        k(    8) = (  -0.0759910  -0.0000099   0.0000000), wk =   0.1250000
        k(    9) = (  -0.0759910   0.0419252   0.0000000), wk =   0.2500000
        k(   10) = (  -0.0759910  -0.0838800   0.0000000), wk =   0.1250000

     Initial potential from superposition of free atoms

     starting charge  378.99916, renormalised to  395.00000

     negative rho (up, down):  1.649E-02 0.000E+00

     %%%%%%%%%%%%%%%%%%%%%%%%%%%%%%%%%%%%%%%%%%%%%%%%%%%%%%%%%%%%%%%%%%%%%%%%
     %                                                                      %
     % You are using vdW-DF, which was implemented by the Thonhauser group. %
     % Please cite the following two papers that made this development      %
     % possible and the two reviews that describe the various versions:     %
     %                                                                      %
     %   T. Thonhauser et al., PRL 115, 136402 (2015).                      %
     %   T. Thonhauser et al., PRB 76, 125112 (2007).                       %
     %   K. Berland et al., Rep. Prog. Phys. 78, 066501 (2015).             %
     %   D.C. Langreth et al., J. Phys.: Condens. Matter 21, 084203 (2009). %
     %                                                                      %
     %                                                                      %
     % If you are calculating the stress with vdW-DF, please also cite:     %
     %                                                                      %
     %   R. Sabatini et al., J. Phys.: Condens. Matter 24, 424209 (2012).   %
     %                                                                      %
     %%%%%%%%%%%%%%%%%%%%%%%%%%%%%%%%%%%%%%%%%%%%%%%%%%%%%%%%%%%%%%%%%%%%%%%%

     Adding external electric field

     Computed dipole along edir(3) :
        Dipole               -8.3970 Ry au,        -21.3430 Debye
        Dipole field         -0.0158 Ry au,

        Potential amp.        1.4689 Ry
        Total length         46.3494 bohr

     Starting wfcs are  299 atomic wfcs
  @ DRIVER MODE: Message from server: STATUS
  @ DRIVER MODE: Message from server: POSDATA
  @ DRIVER MODE: Reading and sharing cell
  @ DRIVER MODE: Reading and sharing positions
  @ DRIVER MODE: Received positions

     Self-consistent Calculation

     iteration #  1     ecut=    29.40 Ry     beta= 0.05
     Davidson diagonalization with overlap
     c_bands:  2 eigenvalues not converged
     c_bands:  1 eigenvalues not converged
     c_bands:  2 eigenvalues not converged
     c_bands:  3 eigenvalues not converged
     c_bands:  3 eigenvalues not converged
     c_bands:  2 eigenvalues not converged
     c_bands:  1 eigenvalues not converged
     ethr =  1.00E-05,  avg # of iterations = 19.3

[...]

     total energy              =   -2613.94604140 Ry
     estimated scf accuracy    <    3601.42609261 Ry

[...]

     iteration #  3     ecut=    29.40 Ry     beta= 0.05
     Davidson diagonalization with overlap
     ethr =  1.00E-02,  avg # of iterations = 13.9

[...]

     iteration # 61     ecut=    29.40 Ry     beta= 0.05
     Davidson diagonalization with overlap
     c_bands:  1 eigenvalues not converged
     ethr =  3.09E-11,  avg # of iterations = 13.8

[...]

     total energy              =   -2939.13531425 Ry
     estimated scf accuracy    <       0.00000009 Ry

     iteration # 62     ecut=    29.40 Ry     beta= 0.05
     Davidson diagonalization with overlap
     ethr =  2.24E-11,  avg # of iterations =  1.4

     negative rho (up, down):  1.681E-02 0.000E+00

     Adding external electric field

     Computed dipole along edir(3) :
        Dipole                0.7871 Ry au,          2.0005 Debye
        Dipole field          0.0015 Ry au,

        Potential amp.       -0.1377 Ry
        Total length         46.3494 bohr

     End of self-consistent calculation

          k = 0.0000 0.0000 0.0000 ( 18029 PWs)   bands (ev):

   -55.8529 -55.8517 -55.8188 -55.8157 -55.7462 -55.7031 -55.6653 -55.6636
   -55.6304 -55.6296 -55.6246 -55.5910 -55.1902 -55.1444 -54.8285 -54.7944
   -32.4057 -32.3358 -32.2418 -32.1635 -32.1495 -32.1451 -32.1313 -32.1164
   -32.0959 -32.0827 -32.0298 -32.0120 -32.0053 -32.0034 -31.9935 -31.9898
   -31.9577 -31.9457 -31.9398 -31.9372 -31.9103 -31.9079 -31.8920 -31.8899
   -31.8590 -31.8548 -31.8527 -31.8514 -31.8262 -31.8114 -31.8037 -31.7936
   -31.7817 -31.7792 -31.7717 -31.7381 -31.7318 -31.4552 -31.4171 -31.3905
   -31.3369 -31.3026 -31.2353 -31.1476 -31.1252 -31.0523 -30.9658 -30.8545
   -17.9041 -16.6120 -16.3319 -16.0765 -16.0013 -15.9974 -15.8638 -15.7010
   -15.5882 -15.5213 -15.4410 -15.4112 -15.3892 -15.3537 -15.3475 -15.3096
   -15.3007 -15.2753 -15.2718 -15.2095 -15.2062 -15.1988 -15.1890 -15.1049
   -15.0470 -14.9956 -14.9879 -14.9145 -14.8806 -14.3535 -13.3305 -13.2141
   -12.1527  -7.8577  -5.3598  -4.5385  -3.9888  -3.8294  -3.7598  -3.7253
    -3.6485  -3.4890  -3.4102  -3.1278  -3.0795  -3.0238  -3.0144  -2.9779
    -2.9326  -2.7815  -2.7038  -2.6771  -2.6615  -2.6391  -2.6240  -2.6119
    -2.5959  -2.5767  -2.4955  -2.4145  -2.3705  -2.2937  -2.2800  -2.2449
    -2.1650  -2.1647  -2.1238  -2.1042  -2.0859  -2.0697  -2.0613  -2.0460
    -1.9044  -1.8469  -1.8347  -1.6536  -1.6340  -1.5883  -1.4620  -1.4554
    -1.3387  -1.3234  -1.2832  -1.2456  -1.1729  -1.1511  -1.0397  -0.9984
    -0.9366  -0.8883  -0.8739  -0.7987  -0.7340  -0.6960  -0.6825  -0.6174
    -0.6105  -0.5975  -0.4632  -0.3857  -0.3330  -0.2770  -0.2548  -0.1988
    -0.1593  -0.1160  -0.0285  -0.0014   0.0103   0.0686   0.0902   0.1157
     0.1273   0.1470   0.1760   0.2314   0.3496   0.3811   0.4574   0.4717
     0.5317   0.6663   0.8044   0.8711   0.9241   1.0194   1.1248   1.1942
     1.2677   1.3867   1.7644   1.8099   2.1384   3.2668   3.3688   3.4016
     3.4126   3.5158   3.6644   3.7260   3.7411   3.7824   3.8161

[...]

          k = 0.0380-0.0419 0.0000 ( 17876 PWs)   bands (ev):

[...]

          k =-0.0760-0.0000 0.0000 ( 17886 PWs)   bands (ev):

[...]

          k =-0.0760-0.0839 0.0000 ( 17948 PWs)   bands (ev):

   -55.8361 -55.8355 -55.8341 -55.8330 -55.7376 -55.7116 -55.6486 -55.6470
   -55.6469 -55.6459 -55.6085 -55.6073 -55.1823 -55.1522 -54.8115 -54.8113
   -32.2079 -32.2063 -32.1513 -32.1509 -32.1307 -32.1302 -32.0965 -32.0936
   -32.0845 -32.0678 -32.0022 -31.9995 -31.9941 -31.9922 -31.9703 -31.9626
   -31.9559 -31.9552 -31.9500 -31.9489 -31.9468 -31.9354 -31.9296 -31.9228
   -31.9107 -31.9058 -31.8609 -31.8507 -31.8487 -31.8479 -31.8394 -31.8387
   -31.8257 -31.8249 -31.8243 -31.8231 -31.6844 -31.4503 -31.4163 -31.4113
   -31.3943 -31.3379 -31.1380 -31.1378 -31.0482 -31.0480 -31.0092 -31.0090
   -17.8905 -16.0271 -16.0244 -15.8167 -15.7777 -15.7586 -15.7527 -15.6630
   -15.5772 -15.5437 -15.5407 -15.4537 -15.4277 -15.4116 -15.3954 -15.3899
   -15.3812 -15.3515 -15.3163 -15.3088 -15.2947 -15.2891 -15.2772 -15.2203
   -15.1689 -15.1647 -15.1423 -15.0701 -14.8313 -14.6941 -13.3160 -13.3158
   -12.1138  -7.7972  -5.4059  -4.5989  -3.3216  -3.3121  -3.0659  -3.0228
    -3.0188  -2.9924  -2.9508  -2.7898  -2.7773  -2.7578  -2.7502  -2.7054
    -2.6818  -2.6616  -2.6420  -2.6367  -2.6078  -2.5817  -2.5666  -2.5295
    -2.5227  -2.5137  -2.4822  -2.4714  -2.4247  -2.4196  -2.3988  -2.3713
    -2.3617  -2.3274  -2.1798  -2.1074  -2.0792  -1.9944  -1.9875  -1.9477
    -1.9243  -1.9036  -1.8922  -1.8687  -1.8304  -1.6947  -1.6120  -1.5504
    -1.5417  -1.4573  -1.4298  -1.3678  -1.2783  -1.2528  -1.2317  -1.1602
    -1.0844  -1.0463  -0.9943  -0.9818  -0.9140  -0.9058  -0.8481  -0.8111
    -0.8092  -0.7310  -0.7015  -0.6546  -0.6182  -0.6013  -0.5784  -0.5516
    -0.5361  -0.5130  -0.4360  -0.3530  -0.3014  -0.2407  -0.1478  -0.0181
     0.1019   0.2147   0.2366   0.2805   0.3338   0.3679   0.4612   0.4649
     0.5280   0.5516   0.5925   0.6706   0.6819   0.7063   0.8174   0.8468
     1.5588   1.5592   1.6298   1.6300   2.0790   3.5896   3.6185   3.6376
     3.6694   3.7988   3.8049   3.8154   3.8162   3.9513   3.9548

     the Fermi energy is     3.2767 ev

!    total energy              =   -2939.13536162 Ry
     estimated scf accuracy    <       0.00000007 Ry
     smearing contrib. (-TS)   =      -0.02098904 Ry
     internal energy E=F+TS    =   -2939.11437258 Ry

     The total energy is F=E-TS. E is the sum of the following terms:
     one-electron contribution =  -24492.28451442 Ry
     hartree contribution      =   12334.09200219 Ry
     xc contribution           =    -485.36584022 Ry
     ewald contribution        =    9704.44281087 Ry
     electric field correction =       0.00116901 Ry

     convergence has been achieved in  62 iterations

     Forces acting on atoms (cartesian axes, Ry/au):

     atom    1 type  1   force =     0.00008714   -0.00023802    0.09635133
     atom    2 type  1   force =     0.00005360   -0.00056665   -0.17513248
     atom    3 type  2   force =     0.00015339   -0.00013152   -0.02409069
     atom    4 type  2   force =    -0.00000464   -0.00124870    0.05221415
     atom    5 type  2   force =    -0.01056944   -0.00047365    0.00250823
     atom    6 type  2   force =     0.01238861    0.00022621    0.00287913
     atom    7 type  1   force =     0.00097970    0.00027088   -0.01173938
     atom    8 type  1   force =    -0.00013437    0.00774696    0.02263566
     atom    9 type  2   force =    -0.00019984   -0.00015552   -0.00027152
     atom   10 type  2   force =    -0.00262181    0.00115267   -0.01266480
     atom   11 type  2   force =     0.00006511   -0.00012758    0.00004696
     atom   12 type  2   force =     0.00010545    0.00018054   -0.00039459
     atom   13 type  1   force =     0.00043635   -0.00035185    0.00023735
     atom   14 type  1   force =     0.00015140    0.00032539   -0.00015905
     atom   15 type  2   force =    -0.00023370    0.00025911    0.00008563
     atom   16 type  2   force =     0.00011083   -0.00021320    0.00034086
     atom   17 type  2   force =     0.00049936   -0.00002780    0.00036111
     atom   18 type  2   force =     0.00063373   -0.00016996    0.00028392
     atom   19 type  1   force =    -0.00117090    0.00000501    0.00024765
     atom   20 type  1   force =     0.00028470   -0.00032536   -0.00071957
     atom   21 type  2   force =     0.00004799    0.00000320    0.10309786
     atom   22 type  2   force =     0.00013276   -0.00016271    0.00002967
     atom   23 type  2   force =    -0.07162469   -0.00014345   -0.02763943
     atom   24 type  2   force =     0.07156574    0.00035658   -0.02770734
     atom   25 type  1   force =     0.00015917   -0.00023790    0.09590076
     atom   26 type  1   force =     0.00010224   -0.00041087   -0.17540901
     atom   27 type  2   force =     0.00017788   -0.00021762   -0.02292594
     atom   28 type  2   force =     0.00006525   -0.00101314    0.05217250
     atom   29 type  2   force =    -0.01086946    0.00048166    0.00242998
     atom   30 type  2   force =     0.01256497    0.00064445    0.00277574
     atom   31 type  1   force =     0.00086706    0.00348436   -0.01292576
     atom   32 type  1   force =     0.00002883   -0.00924796    0.02305690
     atom   33 type  2   force =    -0.00048482    0.00013421    0.00022891
     atom   34 type  2   force =    -0.00302564    0.00022745   -0.01289524
     atom   35 type  2   force =     0.00008534    0.00009400   -0.00008594
     atom   36 type  2   force =     0.00011186    0.00033696   -0.00040329
     atom   37 type  1   force =     0.00033316    0.00037073    0.00005019
     atom   38 type  1   force =     0.00002607   -0.00043426    0.00013710
     atom   39 type  2   force =     0.00015127    0.00042663    0.00053429
     atom   40 type  2   force =     0.00035633    0.00012922   -0.00038932
     atom   41 type  2   force =     0.00039698    0.00004462    0.00027908
     atom   42 type  2   force =     0.00094268    0.00003851    0.00050667
     atom   43 type  1   force =    -0.00156115   -0.00039080   -0.00032283
     atom   44 type  1   force =     0.00067642   -0.00056988   -0.00099476
     atom   45 type  2   force =     0.00005818   -0.00004013    0.10308639
     atom   46 type  2   force =    -0.07165238   -0.00008178   -0.02766441
     atom   47 type  2   force =     0.07159079    0.00031673   -0.02772746
     atom   48 type  3   force =    -0.00071111    0.00035214    0.00079548
     atom   49 type  4   force =    -0.00073532   -0.00017204   -0.00012529
     atom   50 type  5   force =    -0.00098011    0.00066993    0.00055251
     atom   51 type  5   force =     0.00048344   -0.00056274    0.00016978
     atom   52 type  3   force =     0.00016410    0.00625929    0.00369758
     atom   53 type  5   force =    -0.00045845   -0.00682233   -0.00530526

     Total force =     0.365893     Total SCF correction =     0.000741
  @ DRIVER MODE: Message from server: STATUS
  @ DRIVER MODE: Message from server: GETFORCE
  @ DRIVER MODE: Returning v,forces,stress,ensemble

     Writing output data file ./calc.save/
  @ DRIVER MODE: Message from server: EXIT
  @ DRIVE MODE: Exiting

     General routines

     Parallel routines

   This run was terminated on:   6:32:14  24Aug2021

   JOB DONE.