     Program PWSCF v.6.7GPU starts on 15Sep2021 at 19: 9:43

     R & G space division:  proc/nbgrp/npool/nimage =      10
     Reading input from /storage/home/hcoda1/3/ntian30/research/carbon/CxH_vib/H2O_calc/ads_slab/CHNHHH2O_a/out_0011/pw.inp
Warning: card &CELL ignored
Warning: card   CELL_DYNAMICS='IPI', ignored
Warning: card / ignored

     Current dimensions of program PWSCF are:
     Max number of different atomic species (ntypx) = 10
     Max number of k-points (npk) =  40000
     Max angular momentum in pseudopotentials (lmaxx) =  3
     Presently no symmetry can be used with electric field

     Message from routine cell_base_init:
     DEPRECATED: use true lattice parameter, not A to a.u. conversion factor

     IMPORTANT: XC functional enforced from input :
     Exchange-correlation= BEEF-VDW
                           (   1   4  43  14   2   0   0)
     Any further DFT definition will be discarded
     Please, verify this is what you really want

  @ DRIVER MODE: Connecting to
 qe_1139763_2852629.sched-torque.pace.gatech.edu97_j_zkb_scratch
  using UNIX socket
  @ DRIVER MODE: Message from server: STATUS
  @ DRIVER MODE: Message from server: INIT
  @ DRIVER MODE: Receiving replica           0          -1
  @ DRIVER MODE: Receiving encoded integer          25
  @ DRIVER MODE:  SCF:  T  FORCE:  T  STRESS:  F  VC:  F  ENSEMBLE:  F
  @ DRIVER MODE:  SCF:  T  FORCE:  T  STRESS:  F  VC:  F  ENSEMBLE:  F

     Using Slab Decomposition

     bravais-lattice index     =            0
     lattice parameter (alat)  =       1.8897  a.u.
     unit-cell volume          =    6658.9804 (a.u.)^3
     number of atoms/cell      =           55
     number of atomic types    =            5
     number of electrons       =       398.00
     number of Kohn-Sham states=          209
     kinetic-energy cutoff     =      29.3995  Ry
     charge density cutoff     =     293.9946  Ry
     scf convergence threshold =      7.3E-08
     mixing beta               =       0.0500
     number of iterations used =            8  plain     mixing
     Exchange-correlation= BEEF-VDW
                           (   1   4  43  14   2   0   0)

     celldm(1)=   1.889726  celldm(2)=   0.000000  celldm(3)=   0.000000
     celldm(4)=   0.000000  celldm(5)=   0.000000  celldm(6)=   0.000000

     crystal axes: (cart. coord. in units of alat)
               a(1) = (   6.579727   0.000000   0.000000 )
               a(2) = (  -0.000775   5.961596   0.000000 )
               a(3) = (   0.000000   0.000000  25.155947 )

     reciprocal axes: (cart. coord. in units 2 pi/alat)
               b(1) = (  0.151982  0.000020  0.000000 )
               b(2) = (  0.000000  0.167740  0.000000 )
               b(3) = (  0.000000  0.000000  0.039752 )

     PseudoPot. # 1 for Ti read from file:
     /storage/coda1/p-amedford6/0/shared/rich_project_chbe-medford/medford-share/data/pseudos_module/espresso/nninc/pbe/van/Ti.UPF
     MD5 check sum: 8e4df49b7f0d34bbd5052bf3f5ea0213
     Pseudo is Ultrasoft, Zval = 12.0
     Generated by new atomic code, or converted to UPF format
     Using radial grid of  851 points,  6 beta functions with:
                l(1) =   0
                l(2) =   0
                l(3) =   1
                l(4) =   1
                l(5) =   2
                l(6) =   2
     Q(r) pseudized with  8 coefficients,  rinner =    1.000   1.000   1.000
                                                       1.000   1.000

     PseudoPot. # 2 for O  read from file:
     /storage/coda1/p-amedford6/0/shared/rich_project_chbe-medford/medford-share/data/pseudos_module/espresso/nninc/pbe/van/O.UPF
     MD5 check sum: 78c19812648e8988a0fe644b0f25305e
     Pseudo is Ultrasoft, Zval =  6.0
     Generated by new atomic code, or converted to UPF format
     Using radial grid of  737 points,  4 beta functions with:
                l(1) =   0
                l(2) =   0
                l(3) =   1
                l(4) =   1
     Q(r) pseudized with  8 coefficients,  rinner =    0.800   0.800   0.800

     PseudoPot. # 3 for N  read from file:
     /storage/coda1/p-amedford6/0/shared/rich_project_chbe-medford/medford-share/data/pseudos_module/espresso/nninc/pbe/van/N.UPF
     MD5 check sum: 90d10febe142ad51ac9d5be1deb811c4
     Pseudo is Ultrasoft, Zval =  5.0
     Generated by new atomic code, or converted to UPF format
     Using radial grid of  729 points,  4 beta functions with:
                l(1) =   0
                l(2) =   0
                l(3) =   1
                l(4) =   1
     Q(r) pseudized with  8 coefficients,  rinner =    0.800   0.800   0.800

     PseudoPot. # 4 for C  read from file:
     /storage/coda1/p-amedford6/0/shared/rich_project_chbe-medford/medford-share/data/pseudos_module/espresso/nninc/pbe/van/C.UPF
     MD5 check sum: 1a69bf6b8db32088f5b2163dbdb77a27
     Pseudo is Ultrasoft, Zval =  4.0
     Generated by new atomic code, or converted to UPF format
     Using radial grid of  721 points,  4 beta functions with:
                l(1) =   0
                l(2) =   0
                l(3) =   1
                l(4) =   1
     Q(r) pseudized with  8 coefficients,  rinner =    0.800   0.800   0.800

     PseudoPot. # 5 for H  read from file:
     /storage/coda1/p-amedford6/0/shared/rich_project_chbe-medford/medford-share/data/pseudos_module/espresso/nninc/pbe/van/H.UPF
     MD5 check sum: b5ee9d7bfd3a09ee7748110bda690ff7
     Pseudo is Ultrasoft, Zval =  1.0
     Generated by new atomic code, or converted to UPF format
     Using radial grid of  615 points,  1 beta functions with:
                l(1) =   0
     Q(r) pseudized with  8 coefficients,  rinner =    0.800

     atomic species   valence    mass     pseudopotential
        Ti1           12.00    47.86700     Ti( 1.00)
        O1             6.00    15.99900     O ( 1.00)
        N1             5.00    14.00700     N ( 1.00)
        C1             4.00    12.01100     C ( 1.00)
        H1             1.00     1.00800     H ( 1.00)

     No symmetry found

   Cartesian axes

     site n.     atom                  positions (alat units)
         1           Ti1 tau(   1) = (   0.0004258   2.9801865   6.0000000  )
         2           Ti1 tau(   2) = (   3.2906075   1.4906267   6.0002472  )
         3           O1  tau(   3) = (   0.0006271   0.0005054   7.9858123  )
         4           O1  tau(   4) = (   3.2906025   0.0005020   7.3038282  )
         5           O1  tau(   5) = (   4.5942328   1.4918067   9.2879030  )
         6           O1  tau(   6) = (   1.9868534   1.4903216   9.2879459  )
         7           Ti1 tau(   7) = (   3.2907910   2.8959150   9.1758416  )
         8           Ti1 tau(   8) = (   0.0015273   1.4827037   9.2680791  )
         9           O1  tau(   9) = (   3.2943807   5.9438157  11.3430345  )
        10           O1  tau(  10) = (   0.0116148   5.9584955  10.6183126  )
        11           O1  tau(  11) = (   1.2953376   1.4759649  12.6292060  )
        12           O1  tau(  12) = (   5.2846356   1.4785235  12.6176154  )
        13           Ti1 tau(  13) = (   0.0556596   2.9564334  12.6140783  )
        14           Ti1 tau(  14) = (   3.3658323   1.4657407  12.4949608  )
        15           O1  tau(  15) = (   6.5664030   0.0209144  14.6477191  )
        16           O1  tau(  16) = (   3.3113265   5.9542485  13.9698242  )
        17           O1  tau(  17) = (   4.5454210   1.5146250  16.1225105  )
        18           O1  tau(  18) = (   2.0305911   1.5113983  16.0894517  )
        19           Ti1 tau(  19) = (   3.2587399   2.9544808  15.6767922  )
        20           Ti1 tau(  20) = (   6.5654577   1.5458692  15.9193722  )
        21           O1  tau(  21) = (   3.2904802   0.0005063   4.7018136  )
        22           O1  tau(  22) = (   0.0418464   5.8849155  17.2380659  )
        23           O1  tau(  23) = (   1.3043587   1.4918075   6.0039043  )
        24           O1  tau(  24) = (   5.2767064   1.4903225   6.0039473  )
        25           Ti1 tau(  25) = (   0.0000382   5.9609847   6.0000000  )
        26           Ti1 tau(  26) = (   3.2902200   4.4714249   6.0002472  )
        27           O1  tau(  27) = (   0.0002396   2.9813036   7.9858123  )
        28           O1  tau(  28) = (   3.2902150   2.9813002   7.3038282  )
        29           O1  tau(  29) = (   4.5938453   4.4726049   9.2879030  )
        30           O1  tau(  30) = (   1.9864658   4.4711199   9.2879459  )
        31           Ti1 tau(  31) = (   3.2891106   5.8743827   9.1763621  )
        32           Ti1 tau(  32) = (   0.0006254   4.4649316   9.2693709  )
        33           O1  tau(  33) = (   3.2978316   2.9705197  11.3397625  )
        34           O1  tau(  34) = (   0.0092240   2.9805883  10.6323155  )
        35           O1  tau(  35) = (   1.2936985   4.4655287  12.6460247  )
        36           O1  tau(  36) = (   5.2856521   4.4646452  12.6308247  )
        37           Ti1 tau(  37) = (   0.0515089   5.9379728  12.5308627  )
        38           Ti1 tau(  38) = (   3.3654372   4.4547101  12.4935900  )
        39           O1  tau(  39) = (   6.5748852   2.9443291  14.6951209  )
        40           O1  tau(  40) = (   3.2957406   2.9584624  13.8938737  )
        41           O1  tau(  41) = (   4.5486474   4.4154460  16.0876977  )
        42           O1  tau(  42) = (   2.0388008   4.4257786  16.0448984  )
        43           Ti1 tau(  43) = (   3.3137362   5.9209902  15.7922403  )
        44           Ti1 tau(  44) = (   0.0032603   4.6697478  15.9558853  )
        45           O1  tau(  45) = (   3.2900926   2.9813045   4.7018136  )
        46           O1  tau(  46) = (   1.3039711   4.4726057   6.0039043  )
        47           O1  tau(  47) = (   5.2763189   4.4711207   6.0039473  )
        48           N1  tau(  48) = (   5.6270067   3.1633449  18.6203826  )
        49           C1  tau(  49) = (   0.0237924   2.7940403  17.7674691  )
        50           H1  tau(  50) = (   0.9584034   2.6460975  18.3247808  )
        51           H1  tau(  51) = (   4.7713523   3.5531088  18.2436842  )
        52           H1  tau(  52) = (   5.8168525   3.4166350  19.5804594  )
        53           O1  tau(  53) = (   3.2115967   5.9081562  18.2546127  )
        54           H1  tau(  54) = (   3.8106726   0.6855978  18.4519937  )
        55           H1  tau(  55) = (   2.3006756   0.2828797  18.3268221  )

     number of k points=    10  Fermi-Dirac smearing, width (Ry)=  0.0073
                       cart. coord. in units 2pi/alat
        k(    1) = (   0.0000000   0.0000000   0.0000000), wk =   0.1250000
        k(    2) = (   0.0000000   0.0419351   0.0000000), wk =   0.2500000
        k(    3) = (   0.0000000  -0.0838702   0.0000000), wk =   0.1250000
        k(    4) = (   0.0379955   0.0000049   0.0000000), wk =   0.2500000
        k(    5) = (   0.0379955   0.0419400   0.0000000), wk =   0.2500000
        k(    6) = (   0.0379955  -0.0838652   0.0000000), wk =   0.2500000
        k(    7) = (   0.0379955  -0.0419301   0.0000000), wk =   0.2500000
        k(    8) = (  -0.0759910  -0.0000099   0.0000000), wk =   0.1250000
        k(    9) = (  -0.0759910   0.0419252   0.0000000), wk =   0.2500000
        k(   10) = (  -0.0759910  -0.0838800   0.0000000), wk =   0.1250000

     Initial potential from superposition of free atoms

     starting charge  381.99915, renormalised to  398.00000

     negative rho (up, down):  1.708E-02 0.000E+00

     %%%%%%%%%%%%%%%%%%%%%%%%%%%%%%%%%%%%%%%%%%%%%%%%%%%%%%%%%%%%%%%%%%%%%%%%
     %                                                                      %
     % You are using vdW-DF, which was implemented by the Thonhauser group. %
     % Please cite the following two papers that made this development      %
     % possible and the two reviews that describe the various versions:     %
     %                                                                      %
     %   T. Thonhauser et al., PRL 115, 136402 (2015).                      %
     %   T. Thonhauser et al., PRB 76, 125112 (2007).                       %
     %   K. Berland et al., Rep. Prog. Phys. 78, 066501 (2015).             %
     %   D.C. Langreth et al., J. Phys.: Condens. Matter 21, 084203 (2009). %
     %                                                                      %
     %                                                                      %
     % If you are calculating the stress with vdW-DF, please also cite:     %
     %                                                                      %
     %   R. Sabatini et al., J. Phys.: Condens. Matter 24, 424209 (2012).   %
     %                                                                      %
     %%%%%%%%%%%%%%%%%%%%%%%%%%%%%%%%%%%%%%%%%%%%%%%%%%%%%%%%%%%%%%%%%%%%%%%%

     Adding external electric field

     Computed dipole along edir(3) :
        Dipole              -10.1321 Ry au,        -25.7531 Debye
        Dipole field         -0.0191 Ry au,

        Potential amp.        1.7724 Ry
        Total length         46.3494 bohr

     Starting wfcs are  301 atomic wfcs
  @ DRIVER MODE: Message from server: STATUS
  @ DRIVER MODE: Message from server: POSDATA
  @ DRIVER MODE: Reading and sharing cell
  @ DRIVER MODE: Reading and sharing positions
  @ DRIVER MODE: Received positions

     Self-consistent Calculation

     iteration #  1     ecut=    29.40 Ry     beta= 0.05
     Davidson diagonalization with overlap
     c_bands:  2 eigenvalues not converged
     c_bands:  1 eigenvalues not converged
     c_bands:  1 eigenvalues not converged
     c_bands:  3 eigenvalues not converged
     c_bands:  1 eigenvalues not converged
     c_bands:  3 eigenvalues not converged
     c_bands:  3 eigenvalues not converged
     c_bands:  3 eigenvalues not converged
     c_bands:  1 eigenvalues not converged
     ethr =  1.00E-05,  avg # of iterations = 19.8

[...]

     total energy              =   -2497.74064583 Ry
     estimated scf accuracy    <    5093.80121650 Ry

     iteration #  2     ecut=    29.40 Ry     beta= 0.05
     Davidson diagonalization with overlap
     ethr =  1.00E-02,  avg # of iterations = 25.6

[...]

     iteration # 62     ecut=    29.40 Ry     beta= 0.05
     Davidson diagonalization with overlap
     c_bands:  1 eigenvalues not converged
     ethr =  5.16E-07,  avg # of iterations = 14.1

[...]

     total energy              =   -2953.88244426 Ry
     estimated scf accuracy    <       0.00000010 Ry

     iteration # 82     ecut=    29.40 Ry     beta= 0.05
     Davidson diagonalization with overlap
     ethr =  2.49E-11,  avg # of iterations =  7.2

     negative rho (up, down):  1.668E-02 0.000E+00

     Adding external electric field

     Computed dipole along edir(3) :
        Dipole                1.2818 Ry au,          3.2581 Debye
        Dipole field          0.0024 Ry au,

        Potential amp.       -0.2242 Ry
        Total length         46.3494 bohr

     End of self-consistent calculation

          k = 0.0000 0.0000 0.0000 ( 18029 PWs)   bands (ev):

   -55.4540 -55.4475 -55.4270 -55.4199 -55.4114 -55.3093 -55.2676 -55.2621
   -55.2444 -55.2439 -55.2275 -55.2109 -54.8562 -54.7654 -54.4405 -54.4065
   -32.0034 -31.9380 -31.8272 -31.8043 -31.7635 -31.7608 -31.7453 -31.7349
   -31.6954 -31.6952 -31.6650 -31.6478 -31.6356 -31.6276 -31.6068 -31.5941
   -31.5849 -31.5598 -31.5555 -31.5195 -31.5117 -31.5083 -31.4746 -31.4617
   -31.4570 -31.4540 -31.4461 -31.4452 -31.4427 -31.4187 -31.4171 -31.4138
   -31.3969 -31.3933 -31.3688 -31.3540 -31.3484 -31.1893 -31.0746 -31.0240
   -30.9626 -30.9265 -30.8480 -30.7587 -30.7363 -30.6647 -30.5782 -30.4671
   -19.0508 -16.3869 -16.2081 -15.9483 -15.7584 -15.6358 -15.6080 -15.4345
   -15.3000 -15.1983 -15.1353 -15.0714 -15.0522 -15.0100 -15.0012 -14.9962
   -14.9943 -14.9628 -14.9151 -14.8934 -14.8741 -14.8312 -14.8212 -14.8067
   -14.7531 -14.7110 -14.6232 -14.5925 -14.5649 -14.5262 -14.0273 -12.9427
   -12.8261  -8.9745  -6.8575  -6.6474  -4.1844  -3.5807  -3.4191  -3.3655
    -3.3448  -3.3280  -3.2267  -3.1022  -2.9602  -2.7301  -2.6684  -2.6324
    -2.5998  -2.5621  -2.4402  -2.3906  -2.3783  -2.3149  -2.2721  -2.2625
    -2.2498  -2.2292  -2.2139  -2.1513  -2.1286  -2.0325  -1.9929  -1.9146
    -1.8585  -1.8351  -1.7808  -1.7707  -1.7245  -1.7205  -1.7068  -1.6850
    -1.6740  -1.6561  -1.5891  -1.5388  -1.4610  -1.2763  -1.2321  -1.1214
    -1.0964  -1.0683  -1.0148  -0.9402  -0.9133  -0.8921  -0.8530  -0.7612
    -0.7318  -0.6842  -0.5990  -0.5090  -0.4560  -0.4349  -0.3570  -0.3200
    -0.2919  -0.2286  -0.2216  -0.2094  -0.1253  -0.0747   0.0313   0.0658
     0.1004   0.1175   0.1321   0.2142   0.2521   0.3138   0.3567   0.4077
     0.4429   0.4575   0.4943   0.5138   0.5307   0.5578   0.5691   0.7530
     0.7922   0.8221   0.8583   0.9417   1.0402   1.1138   1.1880   1.2615
     1.5046   1.5820   1.6363   1.7725   2.1541   2.2004   3.6169   3.7449
     3.7642   3.7833   3.8136   3.8801   3.9394   4.1284   4.1516   4.1751
     4.2009

[...]

          k = 0.0380-0.0419 0.0000 ( 17876 PWs)   bands (ev):

[...]

          k =-0.0760-0.0000 0.0000 ( 17886 PWs)   bands (ev):

[...]

          k =-0.0760-0.0839 0.0000 ( 17948 PWs)   bands (ev):

   -55.4374 -55.4363 -55.4311 -55.4278 -55.4250 -55.3003 -55.2765 -55.2469
   -55.2454 -55.2419 -55.2294 -55.2264 -54.8530 -54.7685 -54.4235 -54.4234
   -31.8129 -31.8021 -31.7536 -31.7528 -31.7363 -31.7312 -31.7301 -31.7121
   -31.6978 -31.6570 -31.6497 -31.6445 -31.6336 -31.6146 -31.5804 -31.5701
   -31.5659 -31.5657 -31.5633 -31.5574 -31.5571 -31.5562 -31.5500 -31.5131
   -31.4922 -31.4868 -31.4750 -31.4622 -31.4570 -31.4531 -31.4510 -31.4485
   -31.4439 -31.4406 -31.4218 -31.4164 -31.2498 -31.1910 -31.0678 -31.0408
   -31.0250 -30.9625 -30.7491 -30.7489 -30.6608 -30.6606 -30.6216 -30.6214
   -19.0497 -16.3738 -15.6986 -15.5708 -15.4414 -15.3842 -15.3800 -15.3179
   -15.3131 -15.1981 -15.1898 -15.1639 -15.1397 -15.1190 -15.0913 -15.0705
   -15.0125 -14.9935 -14.9895 -14.9588 -14.9312 -14.9183 -14.9102 -14.8972
   -14.8940 -14.8403 -14.7850 -14.7819 -14.6678 -14.5613 -14.1829 -12.9280
   -12.9277  -8.9842  -6.8434  -6.6646  -4.1494  -3.2269  -2.9834  -2.8012
    -2.6966  -2.6411  -2.5785  -2.5599  -2.3927  -2.3781  -2.3672  -2.3270
    -2.3121  -2.2926  -2.2833  -2.2789  -2.2486  -2.2382  -2.2206  -2.1825
    -2.1552  -2.1386  -2.1293  -2.1235  -2.1064  -2.0873  -2.0664  -2.0442
    -2.0342  -2.0144  -1.9719  -1.9408  -1.8551  -1.7455  -1.7153  -1.6776
    -1.6092  -1.6027  -1.5449  -1.5323  -1.5039  -1.4768  -1.4065  -1.3854
    -1.2343  -1.1757  -1.1617  -1.1441  -1.1286  -1.0061  -0.9662  -0.8988
    -0.8718  -0.8008  -0.7719  -0.7598  -0.7117  -0.6130  -0.5999  -0.5460
    -0.5303  -0.4378  -0.4188  -0.4061  -0.3682  -0.3237  -0.2559  -0.2183
    -0.2030  -0.1926  -0.1618  -0.1533  -0.1135   0.0083   0.0672   0.1317
     0.1993   0.3078   0.4181   0.4297   0.5798   0.6036   0.6181   0.7220
     0.8114   0.8393   0.8574   0.8887   0.8906   1.0237   1.0602   1.0702
     1.0726   1.2231   1.9442   1.9456   2.0199   2.0204   3.7232   3.9290
     3.9486   3.9908   4.0361   4.1673   4.1760   4.2096   4.2109   4.2999
     4.3282

     the Fermi energy is     3.6766 ev

!    total energy              =   -2953.88245178 Ry
     estimated scf accuracy    <       0.00000006 Ry
     smearing contrib. (-TS)   =      -0.03275882 Ry
     internal energy E=F+TS    =   -2953.84969296 Ry

     The total energy is F=E-TS. E is the sum of the following terms:
     one-electron contribution =  -24260.28713596 Ry
     hartree contribution      =   12223.62141751 Ry
     xc contribution           =    -488.83478980 Ry
     ewald contribution        =    9571.64771449 Ry
     electric field correction =       0.00310080 Ry

     convergence has been achieved in  82 iterations

     Forces acting on atoms (cartesian axes, Ry/au):

     atom    1 type  1   force =     0.00021265   -0.00019328    0.09612627
     atom    2 type  1   force =    -0.00011770   -0.00026764   -0.17606790
     atom    3 type  2   force =     0.00002588    0.00001832   -0.02489169
     atom    4 type  2   force =     0.00003513   -0.00159887    0.05415912
     atom    5 type  2   force =    -0.01176349   -0.00148941    0.00428196
     atom    6 type  2   force =     0.01352484   -0.00071031    0.00348904
     atom    7 type  1   force =    -0.00084109    0.00087108   -0.01025478
     atom    8 type  1   force =     0.00025167    0.01224087    0.02356297
     atom    9 type  2   force =    -0.00036586   -0.00008508   -0.00027852
     atom   10 type  2   force =    -0.00088885   -0.00045437   -0.01494143
     atom   11 type  2   force =     0.00044999    0.00007177    0.00009321
     atom   12 type  2   force =    -0.00047166   -0.00008396   -0.00005513
     atom   13 type  1   force =    -0.00064561   -0.00008808   -0.00106083
     atom   14 type  1   force =     0.00061282    0.00019435    0.00050028
     atom   15 type  2   force =     0.00055949    0.00025870   -0.00056163
     atom   16 type  2   force =    -0.00028321    0.00006280    0.00011369
     atom   17 type  2   force =    -0.00054605   -0.00037368   -0.00075938
     atom   18 type  2   force =     0.00056569   -0.00021567   -0.00043646
     atom   19 type  1   force =     0.00075057   -0.00000984    0.00114813
     atom   20 type  1   force =    -0.00039911   -0.00081849   -0.00045213
     atom   21 type  2   force =     0.00006105    0.00004583    0.10333364
     atom   22 type  2   force =     0.00039827    0.00070143   -0.00076419
     atom   23 type  2   force =    -0.07129928   -0.00007613   -0.02764381
     atom   24 type  2   force =     0.07125596    0.00035853   -0.02768130
     atom   25 type  1   force =    -0.00006683   -0.00014510    0.09563685
     atom   26 type  1   force =    -0.00020081   -0.00031111   -0.17600971
     atom   27 type  2   force =     0.00012367   -0.00040241   -0.02390677
     atom   28 type  2   force =     0.00009674   -0.00126651    0.05362464
     atom   29 type  2   force =    -0.01199411    0.00045028    0.00380441
     atom   30 type  2   force =     0.01363845    0.00069203    0.00308509
     atom   31 type  1   force =    -0.00061262    0.00369163   -0.01329323
     atom   32 type  1   force =     0.00021074   -0.01325588    0.02343654
     atom   33 type  2   force =    -0.00008207   -0.00005362   -0.00033573
     atom   34 type  2   force =    -0.00009335    0.00021097   -0.01844032
     atom   35 type  2   force =     0.00036632   -0.00047621    0.00016879
     atom   36 type  2   force =    -0.00037419   -0.00015627    0.00002656
     atom   37 type  1   force =    -0.00081830   -0.00024112    0.00035925
     atom   38 type  1   force =     0.00050843    0.00007941    0.00081407
     atom   39 type  2   force =    -0.00002250    0.00093274   -0.00096748
     atom   40 type  2   force =    -0.00023195   -0.00018411   -0.00089612
     atom   41 type  2   force =    -0.00010030    0.00062513   -0.00029922
     atom   42 type  2   force =    -0.00034812    0.00031836   -0.00021017
     atom   43 type  1   force =     0.00082571    0.00008139    0.00054086
     atom   44 type  1   force =    -0.00041794   -0.00114616    0.00128482
     atom   45 type  2   force =     0.00006249    0.00003612    0.10330185
     atom   46 type  2   force =    -0.07128190   -0.00002009   -0.02761132
     atom   47 type  2   force =     0.07122649    0.00040325   -0.02763200
     atom   48 type  3   force =     0.00261454   -0.00130033   -0.00779149
     atom   49 type  4   force =    -0.00033879    0.00323213    0.01348986
     atom   50 type  5   force =    -0.00307992    0.00047287   -0.00356936
     atom   51 type  5   force =     0.00052965    0.00062339    0.00080252
     atom   52 type  5   force =     0.00102100   -0.00011069   -0.00055965
     atom   53 type  2   force =    -0.00153450   -0.00106880   -0.00095282
     atom   54 type  5   force =    -0.00068826    0.00085066    0.00058487
     atom   55 type  5   force =    -0.00001987   -0.00092080    0.00055529

     Total force =     0.367976     Total SCF correction =     0.000508
  @ DRIVER MODE: Message from server: STATUS
  @ DRIVER MODE: Message from server: GETFORCE
  @ DRIVER MODE: Returning v,forces,stress,ensemble

     Writing output data file ./calc.save/
  @ DRIVER MODE: Message from server: EXIT
  @ DRIVE MODE: Exiting

     General routines

     Parallel routines

   This run was terminated on:  19:29:50  15Sep2021

   JOB DONE.