     Program PWSCF v.6.7GPU starts on 12Oct2021 at 11: 7:19

     R & G space division:  proc/nbgrp/npool/nimage =       8
     Reading input from /storage/home/hcoda1/3/ntian30/research/carbon/ACS_vib/ads_slab/HNNH/out_0005/pw.inp
Warning: card &CELL ignored
Warning: card   CELL_DYNAMICS='IPI', ignored
Warning: card / ignored

     Current dimensions of program PWSCF are:
     Max number of different atomic species (ntypx) = 10
     Max number of k-points (npk) =  40000
     Max angular momentum in pseudopotentials (lmaxx) =  3
     Presently no symmetry can be used with electric field

     Message from routine cell_base_init:
     DEPRECATED: use true lattice parameter, not A to a.u. conversion factor

     IMPORTANT: XC functional enforced from input :
     Exchange-correlation= BEEF-VDW
                           (   1   4  43  14   2   0   0)
     Any further DFT definition will be discarded
     Please, verify this is what you really want

  @ DRIVER MODE: Connecting to
 qe_1139763_3181311.sched-torque.pace.gatech.eduiu8th_87_scratch
  using UNIX socket
  @ DRIVER MODE: Message from server: STATUS
  @ DRIVER MODE: Message from server: INIT
  @ DRIVER MODE: Receiving replica           0          -1
  @ DRIVER MODE: Receiving encoded integer          25
  @ DRIVER MODE:  SCF:  T  FORCE:  T  STRESS:  F  VC:  F  ENSEMBLE:  F
  @ DRIVER MODE:  SCF:  T  FORCE:  T  STRESS:  F  VC:  F  ENSEMBLE:  F

     Using Slab Decomposition

     bravais-lattice index     =            0
     lattice parameter (alat)  =       1.8897  a.u.
     unit-cell volume          =    6658.9804 (a.u.)^3
     number of atoms/cell      =           51
     number of atomic types    =            4
     number of electrons       =       390.00
     number of Kohn-Sham states=          205
     kinetic-energy cutoff     =      29.3995  Ry
     charge density cutoff     =     293.9946  Ry
     scf convergence threshold =      7.3E-08
     mixing beta               =       0.0500
     number of iterations used =            8  plain     mixing
     Exchange-correlation= BEEF-VDW
                           (   1   4  43  14   2   0   0)

     celldm(1)=   1.889726  celldm(2)=   0.000000  celldm(3)=   0.000000
     celldm(4)=   0.000000  celldm(5)=   0.000000  celldm(6)=   0.000000

     crystal axes: (cart. coord. in units of alat)
               a(1) = (   6.579727   0.000000   0.000000 )
               a(2) = (  -0.000775   5.961596   0.000000 )
               a(3) = (   0.000000   0.000000  25.155947 )

     reciprocal axes: (cart. coord. in units 2 pi/alat)
               b(1) = (  0.151982  0.000020  0.000000 )
               b(2) = (  0.000000  0.167740  0.000000 )
               b(3) = (  0.000000  0.000000  0.039752 )

     PseudoPot. # 1 for Ti read from file:
     /storage/coda1/p-amedford6/0/shared/rich_project_chbe-medford/medford-share/data/pseudos_module/espresso/nninc/pbe/van/Ti.UPF
     MD5 check sum: 8e4df49b7f0d34bbd5052bf3f5ea0213
     Pseudo is Ultrasoft, Zval = 12.0
     Generated by new atomic code, or converted to UPF format
     Using radial grid of  851 points,  6 beta functions with:
                l(1) =   0
                l(2) =   0
                l(3) =   1
                l(4) =   1
                l(5) =   2
                l(6) =   2
     Q(r) pseudized with  8 coefficients,  rinner =    1.000   1.000   1.000
                                                       1.000   1.000

     PseudoPot. # 2 for O  read from file:
     /storage/coda1/p-amedford6/0/shared/rich_project_chbe-medford/medford-share/data/pseudos_module/espresso/nninc/pbe/van/O.UPF
     MD5 check sum: 78c19812648e8988a0fe644b0f25305e
     Pseudo is Ultrasoft, Zval =  6.0
     Generated by new atomic code, or converted to UPF format
     Using radial grid of  737 points,  4 beta functions with:
                l(1) =   0
                l(2) =   0
                l(3) =   1
                l(4) =   1
     Q(r) pseudized with  8 coefficients,  rinner =    0.800   0.800   0.800

     PseudoPot. # 3 for H  read from file:
     /storage/coda1/p-amedford6/0/shared/rich_project_chbe-medford/medford-share/data/pseudos_module/espresso/nninc/pbe/van/H.UPF
     MD5 check sum: b5ee9d7bfd3a09ee7748110bda690ff7
     Pseudo is Ultrasoft, Zval =  1.0
     Generated by new atomic code, or converted to UPF format
     Using radial grid of  615 points,  1 beta functions with:
                l(1) =   0
     Q(r) pseudized with  8 coefficients,  rinner =    0.800

     PseudoPot. # 4 for N  read from file:
     /storage/coda1/p-amedford6/0/shared/rich_project_chbe-medford/medford-share/data/pseudos_module/espresso/nninc/pbe/van/N.UPF
     MD5 check sum: 90d10febe142ad51ac9d5be1deb811c4
     Pseudo is Ultrasoft, Zval =  5.0
     Generated by new atomic code, or converted to UPF format
     Using radial grid of  729 points,  4 beta functions with:
                l(1) =   0
                l(2) =   0
                l(3) =   1
                l(4) =   1
     Q(r) pseudized with  8 coefficients,  rinner =    0.800   0.800   0.800

     atomic species   valence    mass     pseudopotential
        Ti1           12.00    47.86700     Ti( 1.00)
        O1             6.00    15.99900     O ( 1.00)
        H1             1.00     1.00800     H ( 1.00)
        N1             5.00    14.00700     N ( 1.00)

     No symmetry found

   Cartesian axes

     site n.     atom                  positions (alat units)
         1           Ti1 tau(   1) = (   0.0004258   2.9801865   6.0000000  )
         2           Ti1 tau(   2) = (   3.2906075   1.4906267   6.0002472  )
         3           O1  tau(   3) = (   0.0006271   0.0005054   7.9858123  )
         4           O1  tau(   4) = (   3.2906025   0.0005020   7.3038282  )
         5           O1  tau(   5) = (   4.5942328   1.4918067   9.2879030  )
         6           O1  tau(   6) = (   1.9868534   1.4903216   9.2879459  )
         7           Ti1 tau(   7) = (   3.2908881   2.9042228   9.1664735  )
         8           Ti1 tau(   8) = (   0.0028208   1.4453605   9.2576896  )
         9           O1  tau(   9) = (   3.2707936   0.0024169  11.3547307  )
        10           O1  tau(  10) = (   6.5771562   5.9613851  10.5998947  )
        11           O1  tau(  11) = (   1.2750810   1.4887983  12.6623546  )
        12           O1  tau(  12) = (   5.2735957   1.4941237  12.6366476  )
        13           Ti1 tau(  13) = (   6.5484273   3.0048924  12.8091026  )
        14           Ti1 tau(  14) = (   3.2635572   1.4892482  12.5038529  )
        15           O1  tau(  15) = (   6.5112577   5.9342846  14.6610847  )
        16           O1  tau(  16) = (   3.2966729   5.9487847  13.9562402  )
        17           O1  tau(  17) = (   4.4981853   1.5100712  16.1215815  )
        18           O1  tau(  18) = (   1.9927245   1.4809274  16.0269182  )
        19           Ti1 tau(  19) = (   3.2349744   2.9714856  15.7300180  )
        20           Ti1 tau(  20) = (   6.5689460   1.3052557  15.9023701  )
        21           O1  tau(  21) = (   3.2904802   0.0005063   4.7018136  )
        22           O1  tau(  22) = (   6.5497555   0.0700294  17.2054191  )
        23           O1  tau(  23) = (   1.3043587   1.4918075   6.0039043  )
        24           O1  tau(  24) = (   5.2767064   1.4903225   6.0039473  )
        25           Ti1 tau(  25) = (   0.0000382   5.9609847   6.0000000  )
        26           Ti1 tau(  26) = (   3.2902200   4.4714249   6.0002472  )
        27           O1  tau(  27) = (   0.0002396   2.9813036   7.9858123  )
        28           O1  tau(  28) = (   3.2902150   2.9813002   7.3038282  )
        29           O1  tau(  29) = (   4.5938453   4.4726049   9.2879030  )
        30           O1  tau(  30) = (   1.9864658   4.4711199   9.2879459  )
        31           Ti1 tau(  31) = (   3.2899333   5.8856170   9.1744801  )
        32           Ti1 tau(  32) = (   0.0020137   4.3658053   9.3606106  )
        33           O1  tau(  33) = (   3.2690173   2.9735267  11.3530824  )
        34           O1  tau(  34) = (   0.0002412   2.9750176  10.5666245  )
        35           O1  tau(  35) = (   1.2748646   4.4726994  12.6423647  )
        36           O1  tau(  36) = (   5.2720213   4.4664742  12.6163582  )
        37           Ti1 tau(  37) = (   6.5582605   0.0201509  12.4985948  )
        38           Ti1 tau(  38) = (   3.2618569   4.4653106  12.4956167  )
        39           O1  tau(  39) = (   6.5348066   3.0079926  14.7180217  )
        40           O1  tau(  40) = (   3.2797409   2.9875293  13.9337705  )
        41           O1  tau(  41) = (   4.5027845   4.4373921  16.1556124  )
        42           O1  tau(  42) = (   1.9850320   4.4617864  16.0830993  )
        43           Ti1 tau(  43) = (   3.2823567   5.9555293  15.7495178  )
        44           Ti1 tau(  44) = (   6.5552429   4.5047081  16.0597439  )
        45           O1  tau(  45) = (   3.2900926   2.9813045   4.7018136  )
        46           O1  tau(  46) = (   1.3039711   4.4726057   6.0039043  )
        47           O1  tau(  47) = (   5.2763189   4.4711207   6.0039473  )
        48           H1  tau(  48) = (   0.5659039   2.5807529  19.4296776  )
        49           N1  tau(  49) = (   0.9330341   2.9538053  18.5544450  )
        50           N1  tau(  50) = (   6.5241730   3.1816813  17.7405862  )
        51           H1  tau(  51) = (   5.5906726   3.0068531  18.1306748  )

     number of k points=    10  Fermi-Dirac smearing, width (Ry)=  0.0073
                       cart. coord. in units 2pi/alat
        k(    1) = (   0.0000000   0.0000000   0.0000000), wk =   0.1250000
        k(    2) = (   0.0000000   0.0419351   0.0000000), wk =   0.2500000
        k(    3) = (   0.0000000  -0.0838702   0.0000000), wk =   0.1250000
        k(    4) = (   0.0379955   0.0000049   0.0000000), wk =   0.2500000
        k(    5) = (   0.0379955   0.0419400   0.0000000), wk =   0.2500000
        k(    6) = (   0.0379955  -0.0838652   0.0000000), wk =   0.2500000
        k(    7) = (   0.0379955  -0.0419301   0.0000000), wk =   0.2500000
        k(    8) = (  -0.0759910  -0.0000099   0.0000000), wk =   0.1250000
        k(    9) = (  -0.0759910   0.0419252   0.0000000), wk =   0.2500000
        k(   10) = (  -0.0759910  -0.0838800   0.0000000), wk =   0.1250000

     Initial potential from superposition of free atoms

     starting charge  373.99921, renormalised to  390.00000

     negative rho (up, down):  1.943E-02 0.000E+00

     %%%%%%%%%%%%%%%%%%%%%%%%%%%%%%%%%%%%%%%%%%%%%%%%%%%%%%%%%%%%%%%%%%%%%%%%
     %                                                                      %
     % You are using vdW-DF, which was implemented by the Thonhauser group. %
     % Please cite the following two papers that made this development      %
     % possible and the two reviews that describe the various versions:     %
     %                                                                      %
     %   T. Thonhauser et al., PRL 115, 136402 (2015).                      %
     %   T. Thonhauser et al., PRB 76, 125112 (2007).                       %
     %   K. Berland et al., Rep. Prog. Phys. 78, 066501 (2015).             %
     %   D.C. Langreth et al., J. Phys.: Condens. Matter 21, 084203 (2009). %
     %                                                                      %
     %                                                                      %
     % If you are calculating the stress with vdW-DF, please also cite:     %
     %                                                                      %
     %   R. Sabatini et al., J. Phys.: Condens. Matter 24, 424209 (2012).   %
     %                                                                      %
     %%%%%%%%%%%%%%%%%%%%%%%%%%%%%%%%%%%%%%%%%%%%%%%%%%%%%%%%%%%%%%%%%%%%%%%%

     Adding external electric field

     Computed dipole along edir(3) :
        Dipole               -5.1480 Ry au,        -13.0850 Debye
        Dipole field         -0.0097 Ry au,

        Potential amp.        0.9006 Ry
        Total length         46.3494 bohr

     Starting wfcs are  294 atomic wfcs
  @ DRIVER MODE: Message from server: STATUS
  @ DRIVER MODE: Message from server: POSDATA
  @ DRIVER MODE: Reading and sharing cell
  @ DRIVER MODE: Reading and sharing positions
  @ DRIVER MODE: Received positions

     Self-consistent Calculation

     iteration #  1     ecut=    29.40 Ry     beta= 0.05
     Davidson diagonalization with overlap
     c_bands:  5 eigenvalues not converged
     c_bands:  1 eigenvalues not converged
     c_bands:  3 eigenvalues not converged
     c_bands:  4 eigenvalues not converged
     c_bands:  1 eigenvalues not converged
     c_bands:  3 eigenvalues not converged
     c_bands:  2 eigenvalues not converged
     c_bands:  3 eigenvalues not converged
     ethr =  1.00E-05,  avg # of iterations = 20.5

[...]

     total energy              =   -2838.11371541 Ry
     estimated scf accuracy    <     988.98230153 Ry

     iteration #  2     ecut=    29.40 Ry     beta= 0.05
     Davidson diagonalization with overlap
     ethr =  1.00E-02,  avg # of iterations = 16.4

[...]

     iteration # 62     ecut=    29.40 Ry     beta= 0.05
     Davidson diagonalization with overlap
     c_bands:  1 eigenvalues not converged
     ethr =  1.09E-09,  avg # of iterations = 14.4

[...]

     total energy              =   -2926.39969488 Ry
     estimated scf accuracy    <       0.00000009 Ry

     iteration # 72     ecut=    29.40 Ry     beta= 0.05
     Davidson diagonalization with overlap
     ethr =  2.26E-11,  avg # of iterations = 11.8

     negative rho (up, down):  1.913E-02 0.000E+00

     Adding external electric field

     Computed dipole along edir(3) :
        Dipole                0.7833 Ry au,          1.9910 Debye
        Dipole field          0.0015 Ry au,

        Potential amp.       -0.1370 Ry
        Total length         46.3494 bohr

     End of self-consistent calculation

          k = 0.0000 0.0000 0.0000 ( 18029 PWs)   bands (ev):

   -55.9580 -55.9450 -55.9202 -55.9084 -55.8672 -55.8266 -55.8037 -55.7912
   -55.7329 -55.7086 -55.6750 -55.6182 -55.5686 -55.4993 -54.9253 -54.8913
   -32.5124 -32.4241 -32.3078 -32.2985 -32.2751 -32.2523 -32.2280 -32.2001
   -32.1935 -32.1854 -32.1658 -32.1531 -32.1265 -32.1251 -32.1172 -32.0992
   -32.0922 -32.0760 -32.0565 -32.0464 -32.0221 -32.0093 -32.0007 -32.0002
   -31.9846 -31.9707 -31.9525 -31.9446 -31.9317 -31.9228 -31.9179 -31.8928
   -31.8841 -31.8572 -31.8397 -31.8214 -31.8190 -31.8062 -31.7997 -31.7321
   -31.6846 -31.6133 -31.3335 -31.2422 -31.2196 -31.1498 -31.0634 -30.9527
   -18.0895 -16.7146 -16.4129 -16.2783 -16.1321 -16.0863 -15.9851 -15.8010
   -15.6973 -15.6465 -15.5820 -15.5586 -15.5561 -15.5048 -15.4953 -15.4895
   -15.4655 -15.4265 -15.3911 -15.3503 -15.3470 -15.3397 -15.3066 -15.2447
   -15.2137 -15.1170 -15.0629 -14.9665 -14.9624 -14.8287 -13.4281 -13.3112
   -10.3393  -6.6511  -4.0650  -3.9465  -3.8804  -3.8355  -3.7796  -3.5755
    -3.5221  -3.3231  -3.2513  -3.1481  -3.1040  -3.0849  -3.0790  -3.0111
    -2.8710  -2.7752  -2.7664  -2.7528  -2.7303  -2.7189  -2.7096  -2.6932
    -2.6882  -2.6428  -2.5692  -2.5013  -2.4384  -2.3780  -2.3271  -2.2477
    -2.2339  -2.2185  -2.2073  -2.2018  -2.1663  -2.1588  -2.1482  -2.0199
    -1.9965  -1.9078  -1.7852  -1.7644  -1.6490  -1.5689  -1.5501  -1.4206
    -1.3845  -1.3513  -1.3181  -1.2723  -1.2387  -1.2283  -1.1533  -1.1118
    -1.0159  -0.9800  -0.8807  -0.8355  -0.8303  -0.7694  -0.6923  -0.6811
    -0.6671  -0.5284  -0.4413  -0.4319  -0.4281  -0.3447  -0.2892  -0.2366
    -0.1895  -0.1810  -0.1620  -0.1231  -0.0956   0.0031   0.0127   0.0463
     0.0602   0.0983   0.1881   0.2575   0.2704   0.3298   0.3452   0.5548
     0.5663   0.5757   0.7158   0.7630   1.0109   1.0961   1.1219   1.2835
     1.6764   1.7313   3.1484   3.2367   3.2525   3.2894   3.3536   3.3990
     3.5521   3.6042   3.6485   3.6754   3.7002

[...]

          k = 0.0380-0.0419 0.0000 ( 17876 PWs)   bands (ev):

[...]

          k =-0.0760-0.0000 0.0000 ( 17886 PWs)   bands (ev):

[...]

          k =-0.0760-0.0839 0.0000 ( 17948 PWs)   bands (ev):

   -55.9474 -55.9307 -55.9294 -55.9238 -55.8622 -55.8162 -55.8085 -55.8015
   -55.7299 -55.6920 -55.6916 -55.6208 -55.5643 -55.5034 -54.9088 -54.9077
   -32.3172 -32.3130 -32.2495 -32.2493 -32.2401 -32.2318 -32.2150 -32.2142
   -32.1574 -32.1545 -32.1490 -32.1422 -32.1254 -32.0996 -32.0805 -32.0730
   -32.0691 -32.0669 -32.0643 -32.0617 -32.0494 -32.0299 -32.0239 -32.0162
   -32.0143 -32.0112 -32.0087 -32.0051 -31.9560 -31.9335 -31.9292 -31.9291
   -31.9140 -31.9015 -31.8973 -31.8897 -31.8465 -31.8198 -31.8160 -31.7363
   -31.7214 -31.6583 -31.2330 -31.2316 -31.1468 -31.1458 -31.1071 -31.1060
   -18.0843 -16.1526 -16.1245 -15.9744 -15.8836 -15.8724 -15.8272 -15.7684
   -15.7397 -15.6836 -15.6511 -15.6326 -15.6157 -15.5987 -15.5740 -15.5257
   -15.4760 -15.4701 -15.4604 -15.4450 -15.3947 -15.3852 -15.3601 -15.3513
   -15.3289 -15.2642 -15.2425 -15.1965 -15.1169 -14.9940 -13.4147 -13.4111
   -10.3439  -6.6519  -3.4384  -3.4055  -3.3142  -3.2081  -3.0985  -3.0940
    -3.0148  -2.9517  -2.9122  -2.8638  -2.8196  -2.7960  -2.7642  -2.7602
    -2.7524  -2.7406  -2.7317  -2.6997  -2.6871  -2.6805  -2.6467  -2.6312
    -2.6102  -2.6032  -2.5625  -2.5508  -2.5361  -2.4933  -2.4902  -2.4850
    -2.4801  -2.2881  -2.2486  -2.2021  -2.1512  -2.0722  -2.0561  -2.0425
    -2.0021  -1.9873  -1.9765  -1.9085  -1.8137  -1.6955  -1.6599  -1.6370
    -1.6240  -1.5823  -1.4065  -1.3745  -1.3594  -1.3363  -1.3047  -1.2522
    -1.2205  -1.2013  -1.1061  -1.0857  -1.0425  -0.9683  -0.9129  -0.8928
    -0.8620  -0.8245  -0.7801  -0.7410  -0.6991  -0.6837  -0.6188  -0.5702
    -0.5253  -0.5058  -0.4875  -0.4035  -0.3252  -0.3000  -0.0974   0.0354
     0.0691   0.0817   0.2185   0.2347   0.2711   0.3424   0.3757   0.4185
     0.4768   0.5813   0.5848   0.5956   0.6056   0.6657   1.4574   1.4620
     1.5365   1.5484   3.2124   3.3972   3.4404   3.4800   3.5410   3.6843
     3.7083   3.7098   3.7330   3.7872   3.8541

     the Fermi energy is     3.1934 ev

!    total energy              =   -2926.39971028 Ry
     estimated scf accuracy    <       0.00000006 Ry
     smearing contrib. (-TS)   =      -0.03279668 Ry
     internal energy E=F+TS    =   -2926.36691359 Ry

     The total energy is F=E-TS. E is the sum of the following terms:
     one-electron contribution =  -24581.59416467 Ry
     hartree contribution      =   12374.93519435 Ry
     xc contribution           =    -480.79632693 Ry
     ewald contribution        =    9761.08722575 Ry
     electric field correction =       0.00115790 Ry

     convergence has been achieved in  72 iterations

     Forces acting on atoms (cartesian axes, Ry/au):

     atom    1 type  1   force =     0.00019800    0.00160605    0.10334254
     atom    2 type  1   force =     0.00006772   -0.00228052   -0.17661297
     atom    3 type  2   force =     0.00017993    0.00647587   -0.03461576
     atom    4 type  2   force =    -0.00004837   -0.00102715    0.05239991
     atom    5 type  2   force =    -0.01730619   -0.00087430    0.00516231
     atom    6 type  2   force =     0.01631800   -0.00066826    0.00402473
     atom    7 type  1   force =     0.00051331    0.00280553   -0.00769928
     atom    8 type  1   force =    -0.00011488   -0.00004177    0.00049812
     atom    9 type  2   force =     0.00013785   -0.00018407   -0.00051695
     atom   10 type  2   force =     0.00006875   -0.00015197   -0.00043495
     atom   11 type  2   force =     0.00026550    0.00016991    0.00031006
     atom   12 type  2   force =     0.00016238    0.00030560    0.00019174
     atom   13 type  1   force =    -0.00041073    0.00068182   -0.00076526
     atom   14 type  1   force =    -0.00039654   -0.00004799   -0.00100334
     atom   15 type  2   force =    -0.00000072    0.00082933    0.00007842
     atom   16 type  2   force =     0.00004367   -0.00015373    0.00087313
     atom   17 type  2   force =     0.00026703    0.00038180    0.00033098
     atom   18 type  2   force =    -0.00041375    0.00030168    0.00008095
     atom   19 type  1   force =     0.00010192   -0.00048033    0.00048277
     atom   20 type  1   force =    -0.00011713   -0.00138767    0.00016647
     atom   21 type  2   force =     0.00012779   -0.00007754    0.10333205
     atom   22 type  2   force =    -0.00030417    0.00025763    0.00143351
     atom   23 type  2   force =    -0.07030499    0.00112815   -0.02967039
     atom   24 type  2   force =     0.07029342    0.00155792   -0.02967663
     atom   25 type  1   force =     0.00010709   -0.00166489    0.11620639
     atom   26 type  1   force =    -0.00002284    0.00129369   -0.17609722
     atom   27 type  2   force =     0.00011027   -0.00260198   -0.02894857
     atom   28 type  2   force =    -0.00004132   -0.00141276    0.05145486
     atom   29 type  2   force =    -0.01882282    0.00098083    0.00642577
     atom   30 type  2   force =     0.01782481    0.00162556    0.00534148
     atom   31 type  1   force =     0.00051995   -0.00133555   -0.01366385
     atom   32 type  1   force =    -0.00010233   -0.00101644    0.00066942
     atom   33 type  2   force =     0.00007270   -0.00014708   -0.00047484
     atom   34 type  2   force =     0.00008680   -0.00065503    0.00082454
     atom   35 type  2   force =     0.00038435   -0.00019208    0.00040526
     atom   36 type  2   force =     0.00006792   -0.00014828    0.00030081
     atom   37 type  1   force =    -0.00014796    0.00022331   -0.00001075
     atom   38 type  1   force =    -0.00051948   -0.00054262   -0.00078240
     atom   39 type  2   force =    -0.00033096   -0.00048777    0.00091414
     atom   40 type  2   force =     0.00010823   -0.00014817    0.00150492
     atom   41 type  2   force =     0.00037689   -0.00046384    0.00027470
     atom   42 type  2   force =    -0.00073953   -0.00020649   -0.00011865
     atom   43 type  1   force =     0.00019682    0.00021622    0.00006832
     atom   44 type  1   force =    -0.00007901    0.00128384    0.00067124
     atom   45 type  2   force =     0.00012412   -0.00004363    0.10352080
     atom   46 type  2   force =    -0.07073797   -0.00146810   -0.02963364
     atom   47 type  2   force =     0.07071550   -0.00103763   -0.02966724
     atom   48 type  3   force =    -0.00348130   -0.00525416    0.01213107
     atom   49 type  4   force =     0.00525731    0.00453533   -0.01097493
     atom   50 type  4   force =     0.00021246    0.00093691   -0.00230285
     atom   51 type  3   force =    -0.00046748   -0.00139519    0.00024906

     Total force =     0.375081     Total SCF correction =     0.000730
  @ DRIVER MODE: Message from server: STATUS
  @ DRIVER MODE: Message from server: GETFORCE
  @ DRIVER MODE: Returning v,forces,stress,ensemble

     Writing output data file ./calc.save/
  @ DRIVER MODE: Message from server: EXIT
  @ DRIVE MODE: Exiting

     General routines

     Parallel routines

   This run was terminated on:  12: 6:56  12Oct2021

   JOB DONE.