     Program PWSCF v.6.7GPU starts on 24Aug2021 at 10:24:56

     R & G space division:  proc/nbgrp/npool/nimage =      72
     Reading input from /storage/home/hcoda1/3/ntian30/research/carbon/CH2_vib/ads_slab/CH2N_a/out_0002/pw.inp
Warning: card &CELL ignored
Warning: card   CELL_DYNAMICS='IPI', ignored
Warning: card / ignored

     Current dimensions of program PWSCF are:
     Max number of different atomic species (ntypx) = 10
     Max number of k-points (npk) =  40000
     Max angular momentum in pseudopotentials (lmaxx) =  3
     Presently no symmetry can be used with electric field

     Message from routine cell_base_init:
     DEPRECATED: use true lattice parameter, not A to a.u. conversion factor

     IMPORTANT: XC functional enforced from input :
     Exchange-correlation= BEEF-VDW
                           (   1   4  43  14   2   0   0)
     Any further DFT definition will be discarded
     Please, verify this is what you really want

  @ DRIVER MODE: Connecting to
 qe_1139763_2641441.sched-torque.pace.gatech.eduryufmfkc_scratch
  using UNIX socket
  @ DRIVER MODE: Message from server: STATUS
  @ DRIVER MODE: Message from server: INIT
  @ DRIVER MODE: Receiving replica           0          -1
  @ DRIVER MODE: Receiving encoded integer          25
  @ DRIVER MODE:  SCF:  T  FORCE:  T  STRESS:  F  VC:  F  ENSEMBLE:  F
  @ DRIVER MODE:  SCF:  T  FORCE:  T  STRESS:  F  VC:  F  ENSEMBLE:  F

     Using Slab Decomposition

     bravais-lattice index     =            0
     lattice parameter (alat)  =       1.8897  a.u.
     unit-cell volume          =    6658.9804 (a.u.)^3
     number of atoms/cell      =           51
     number of atomic types    =            5
     number of electrons       =       389.00
     number of Kohn-Sham states=          204
     kinetic-energy cutoff     =      29.3995  Ry
     charge density cutoff     =     293.9946  Ry
     scf convergence threshold =      7.3E-08
     mixing beta               =       0.0500
     number of iterations used =            8  plain     mixing
     Exchange-correlation= BEEF-VDW
                           (   1   4  43  14   2   0   0)

     celldm(1)=   1.889726  celldm(2)=   0.000000  celldm(3)=   0.000000
     celldm(4)=   0.000000  celldm(5)=   0.000000  celldm(6)=   0.000000

     crystal axes: (cart. coord. in units of alat)
               a(1) = (   6.579727   0.000000   0.000000 )
               a(2) = (  -0.000775   5.961596   0.000000 )
               a(3) = (   0.000000   0.000000  25.155947 )

     reciprocal axes: (cart. coord. in units 2 pi/alat)
               b(1) = (  0.151982  0.000020  0.000000 )
               b(2) = (  0.000000  0.167740  0.000000 )
               b(3) = (  0.000000  0.000000  0.039752 )

     PseudoPot. # 1 for Ti read from file:
     /storage/coda1/p-amedford6/0/shared/rich_project_chbe-medford/medford-share/data/pseudos_module/espresso/nninc/pbe/van/Ti.UPF
     MD5 check sum: 8e4df49b7f0d34bbd5052bf3f5ea0213
     Pseudo is Ultrasoft, Zval = 12.0
     Generated by new atomic code, or converted to UPF format
     Using radial grid of  851 points,  6 beta functions with:
                l(1) =   0
                l(2) =   0
                l(3) =   1
                l(4) =   1
                l(5) =   2
                l(6) =   2
     Q(r) pseudized with  8 coefficients,  rinner =    1.000   1.000   1.000
                                                       1.000   1.000

     PseudoPot. # 2 for O  read from file:
     /storage/coda1/p-amedford6/0/shared/rich_project_chbe-medford/medford-share/data/pseudos_module/espresso/nninc/pbe/van/O.UPF
     MD5 check sum: 78c19812648e8988a0fe644b0f25305e
     Pseudo is Ultrasoft, Zval =  6.0
     Generated by new atomic code, or converted to UPF format
     Using radial grid of  737 points,  4 beta functions with:
                l(1) =   0
                l(2) =   0
                l(3) =   1
                l(4) =   1
     Q(r) pseudized with  8 coefficients,  rinner =    0.800   0.800   0.800

     PseudoPot. # 3 for N  read from file:
     /storage/coda1/p-amedford6/0/shared/rich_project_chbe-medford/medford-share/data/pseudos_module/espresso/nninc/pbe/van/N.UPF
     MD5 check sum: 90d10febe142ad51ac9d5be1deb811c4
     Pseudo is Ultrasoft, Zval =  5.0
     Generated by new atomic code, or converted to UPF format
     Using radial grid of  729 points,  4 beta functions with:
                l(1) =   0
                l(2) =   0
                l(3) =   1
                l(4) =   1
     Q(r) pseudized with  8 coefficients,  rinner =    0.800   0.800   0.800

     PseudoPot. # 4 for C  read from file:
     /storage/coda1/p-amedford6/0/shared/rich_project_chbe-medford/medford-share/data/pseudos_module/espresso/nninc/pbe/van/C.UPF
     MD5 check sum: 1a69bf6b8db32088f5b2163dbdb77a27
     Pseudo is Ultrasoft, Zval =  4.0
     Generated by new atomic code, or converted to UPF format
     Using radial grid of  721 points,  4 beta functions with:
                l(1) =   0
                l(2) =   0
                l(3) =   1
                l(4) =   1
     Q(r) pseudized with  8 coefficients,  rinner =    0.800   0.800   0.800

     PseudoPot. # 5 for H  read from file:
     /storage/coda1/p-amedford6/0/shared/rich_project_chbe-medford/medford-share/data/pseudos_module/espresso/nninc/pbe/van/H.UPF
     MD5 check sum: b5ee9d7bfd3a09ee7748110bda690ff7
     Pseudo is Ultrasoft, Zval =  1.0
     Generated by new atomic code, or converted to UPF format
     Using radial grid of  615 points,  1 beta functions with:
                l(1) =   0
     Q(r) pseudized with  8 coefficients,  rinner =    0.800

     atomic species   valence    mass     pseudopotential
        Ti1           12.00    47.86700     Ti( 1.00)
        O1             6.00    15.99900     O ( 1.00)
        N1             5.00    14.00700     N ( 1.00)
        C1             4.00    12.01100     C ( 1.00)
        H1             1.00     1.00800     H ( 1.00)

     No symmetry found

   Cartesian axes

     site n.     atom                  positions (alat units)
         1           Ti1 tau(   1) = (   0.0004258   2.9801865   6.0000000  )
         2           Ti1 tau(   2) = (   3.2906075   1.4906267   6.0002472  )
         3           O1  tau(   3) = (   0.0006271   0.0005054   7.9858123  )
         4           O1  tau(   4) = (   3.2906025   0.0005020   7.3038282  )
         5           O1  tau(   5) = (   4.5942328   1.4918067   9.2879030  )
         6           O1  tau(   6) = (   1.9868534   1.4903216   9.2879459  )
         7           Ti1 tau(   7) = (   3.2907910   2.8959150   9.1758416  )
         8           Ti1 tau(   8) = (   0.0015273   1.4827037   9.2680791  )
         9           O1  tau(   9) = (   3.3121109   0.0111249  11.3310253  )
        10           O1  tau(  10) = (   0.0116148   5.9584955  10.6183126  )
        11           O1  tau(  11) = (   1.3329579   1.5011098  12.6063046  )
        12           O1  tau(  12) = (   5.3158149   1.4916659  12.6245769  )
        13           Ti1 tau(  13) = (   6.5431557   2.9598450  12.6156978  )
        14           Ti1 tau(  14) = (   3.2273839   1.5049138  12.4779161  )
        15           O1  tau(  15) = (   0.0471551   0.0364395  14.6528705  )
        16           O1  tau(  16) = (   3.3160098   0.0207640  13.9215624  )
        17           O1  tau(  17) = (   4.5810600   1.5471256  16.0564497  )
        18           O1  tau(  18) = (   2.0947546   1.5446786  16.0656860  )
        19           Ti1 tau(  19) = (   3.3354243   3.0239694  15.7034691  )
        20           Ti1 tau(  20) = (   0.0419518   1.5622418  15.8401859  )
        21           O1  tau(  21) = (   3.2904802   0.0005063   4.7018136  )
        22           O1  tau(  22) = (   0.0415632   0.0558952  17.2248266  )
        23           O1  tau(  23) = (   1.3043587   1.4918075   6.0039043  )
        24           O1  tau(  24) = (   5.2767064   1.4903225   6.0039473  )
        25           Ti1 tau(  25) = (   0.0000382   5.9609847   6.0000000  )
        26           Ti1 tau(  26) = (   3.2902200   4.4714249   6.0002472  )
        27           O1  tau(  27) = (   0.0002396   2.9813036   7.9858123  )
        28           O1  tau(  28) = (   3.2902150   2.9813002   7.3038282  )
        29           O1  tau(  29) = (   4.5938453   4.4726049   9.2879030  )
        30           O1  tau(  30) = (   1.9864658   4.4711199   9.2879459  )
        31           Ti1 tau(  31) = (   3.2891106   5.8743827   9.1763621  )
        32           Ti1 tau(  32) = (   0.0006254   4.4649316   9.2693709  )
        33           O1  tau(  33) = (   3.3101407   2.9955762  11.3294870  )
        34           O1  tau(  34) = (   0.0092240   2.9805883  10.6323155  )
        35           O1  tau(  35) = (   1.3272401   4.4878838  12.6173354  )
        36           O1  tau(  36) = (   5.3164082   4.4812184  12.6342743  )
        37           Ti1 tau(  37) = (   6.5430856   5.9365306  12.5602028  )
        38           Ti1 tau(  38) = (   3.2246414   4.4845729  12.4831641  )
        39           O1  tau(  39) = (   0.0420920   2.9623338  14.6463429  )
        40           O1  tau(  40) = (   3.3182946   3.0055568  13.9055467  )
        41           O1  tau(  41) = (   4.5797692   4.5125808  16.0776662  )
        42           O1  tau(  42) = (   2.0972274   4.5146901  16.0918111  )
        43           Ti1 tau(  43) = (   3.3319946   0.0399457  15.7186693  )
        44           Ti1 tau(  44) = (   0.0407629   4.6953510  16.1098173  )
        45           O1  tau(  45) = (   3.2900926   2.9813045   4.7018136  )
        46           O1  tau(  46) = (   1.3039711   4.4726057   6.0039043  )
        47           O1  tau(  47) = (   5.2763189   4.4711207   6.0039473  )
        48           N1  tau(  48) = (   0.0654023   2.9932257  17.3910969  )
        49           C1  tau(  49) = (   0.1090839   2.9222626  18.6472186  )
        50           H1  tau(  50) = (   0.1225839   3.8204711  19.2773028  )
        51           H1  tau(  51) = (   0.1417253   1.9549180  19.1625725  )

     number of k points=    10  Fermi-Dirac smearing, width (Ry)=  0.0073
                       cart. coord. in units 2pi/alat
        k(    1) = (   0.0000000   0.0000000   0.0000000), wk =   0.1250000
        k(    2) = (   0.0000000   0.0419351   0.0000000), wk =   0.2500000
        k(    3) = (   0.0000000  -0.0838702   0.0000000), wk =   0.1250000
        k(    4) = (   0.0379955   0.0000049   0.0000000), wk =   0.2500000
        k(    5) = (   0.0379955   0.0419400   0.0000000), wk =   0.2500000
        k(    6) = (   0.0379955  -0.0838652   0.0000000), wk =   0.2500000
        k(    7) = (   0.0379955  -0.0419301   0.0000000), wk =   0.2500000
        k(    8) = (  -0.0759910  -0.0000099   0.0000000), wk =   0.1250000
        k(    9) = (  -0.0759910   0.0419252   0.0000000), wk =   0.2500000
        k(   10) = (  -0.0759910  -0.0838800   0.0000000), wk =   0.1250000

     Initial potential from superposition of free atoms

     starting charge  372.99918, renormalised to  389.00000

     negative rho (up, down):  1.813E-02 0.000E+00

     %%%%%%%%%%%%%%%%%%%%%%%%%%%%%%%%%%%%%%%%%%%%%%%%%%%%%%%%%%%%%%%%%%%%%%%%
     %                                                                      %
     % You are using vdW-DF, which was implemented by the Thonhauser group. %
     % Please cite the following two papers that made this development      %
     % possible and the two reviews that describe the various versions:     %
     %                                                                      %
     %   T. Thonhauser et al., PRL 115, 136402 (2015).                      %
     %   T. Thonhauser et al., PRB 76, 125112 (2007).                       %
     %   K. Berland et al., Rep. Prog. Phys. 78, 066501 (2015).             %
     %   D.C. Langreth et al., J. Phys.: Condens. Matter 21, 084203 (2009). %
     %                                                                      %
     %                                                                      %
     % If you are calculating the stress with vdW-DF, please also cite:     %
     %                                                                      %
     %   R. Sabatini et al., J. Phys.: Condens. Matter 24, 424209 (2012).   %
     %                                                                      %
     %%%%%%%%%%%%%%%%%%%%%%%%%%%%%%%%%%%%%%%%%%%%%%%%%%%%%%%%%%%%%%%%%%%%%%%%

     Adding external electric field

     Computed dipole along edir(3) :
        Dipole               -4.6856 Ry au,        -11.9097 Debye
        Dipole field         -0.0088 Ry au,

        Potential amp.        0.8197 Ry
        Total length         46.3494 bohr

     Starting wfcs are  294 atomic wfcs
  @ DRIVER MODE: Message from server: STATUS
  @ DRIVER MODE: Message from server: POSDATA
  @ DRIVER MODE: Reading and sharing cell
  @ DRIVER MODE: Reading and sharing positions
  @ DRIVER MODE: Received positions

     Self-consistent Calculation

     iteration #  1     ecut=    29.40 Ry     beta= 0.05
     Davidson diagonalization with overlap
     c_bands:  3 eigenvalues not converged
     c_bands:  1 eigenvalues not converged
     c_bands:  1 eigenvalues not converged
     c_bands:  3 eigenvalues not converged
     c_bands:  3 eigenvalues not converged
     c_bands:  2 eigenvalues not converged
     c_bands:  2 eigenvalues not converged
     ethr =  1.00E-05,  avg # of iterations = 19.8

[...]

     total energy              =   -2865.84285336 Ry
     estimated scf accuracy    <     593.69493747 Ry

     iteration #  2     ecut=    29.40 Ry     beta= 0.05
     Davidson diagonalization with overlap
     ethr =  1.00E-02,  avg # of iterations = 14.5

[...]

     iteration # 72     ecut=    29.40 Ry     beta= 0.05
     Davidson diagonalization with overlap
     c_bands:  1 eigenvalues not converged
     ethr =  2.30E-11,  avg # of iterations = 16.6

[...]

     total energy              =   -2917.92298495 Ry
     estimated scf accuracy    <       0.00000053 Ry

     iteration # 73     ecut=    29.40 Ry     beta= 0.05
     Davidson diagonalization with overlap
     ethr =  2.30E-11,  avg # of iterations =  8.8

     negative rho (up, down):  1.843E-02 0.000E+00

     Adding external electric field

     Computed dipole along edir(3) :
        Dipole                0.7705 Ry au,          1.9585 Debye
        Dipole field          0.0015 Ry au,

        Potential amp.       -0.1348 Ry
        Total length         46.3494 bohr

     End of self-consistent calculation

          k = 0.0000 0.0000 0.0000 ( 18029 PWs)   bands (ev):

   -55.9942 -55.9854 -55.9601 -55.9491 -55.8718 -55.8421 -55.8220 -55.8078
   -55.8033 -55.7693 -55.7670 -55.7334 -55.5213 -55.2475 -54.9714 -54.9373
   -32.5398 -32.4765 -32.3434 -32.3240 -32.3021 -32.2971 -32.2871 -32.2577
   -32.2369 -32.2120 -32.2051 -32.1831 -32.1656 -32.1464 -32.1385 -32.1253
   -32.1044 -32.0984 -32.0842 -32.0514 -32.0509 -32.0480 -32.0017 -32.0005
   -31.9993 -31.9976 -31.9912 -31.9835 -31.9694 -31.9571 -31.9494 -31.9426
   -31.9337 -31.9335 -31.9202 -31.9108 -31.8793 -31.7710 -31.7032 -31.5365
   -31.5021 -31.4597 -31.3786 -31.2903 -31.2678 -31.1953 -31.1088 -30.9978
   -16.7368 -16.4683 -16.2433 -16.1464 -16.1154 -15.9990 -15.8330 -15.7145
   -15.6637 -15.5656 -15.5520 -15.5303 -15.4965 -15.4662 -15.4639 -15.4375
   -15.4341 -15.4147 -15.4014 -15.3536 -15.3314 -15.2968 -15.1991 -15.1683
   -15.1285 -15.1004 -15.0593 -15.0500 -14.9276 -14.5614 -13.4740 -13.3576
    -7.5569  -4.3337  -4.1143  -4.0032  -3.9492  -3.8998  -3.8411  -3.6343
    -3.5434  -3.5200  -3.2247  -3.1782  -3.1607  -3.1482  -3.1099  -2.8943
    -2.8406  -2.8091  -2.7880  -2.7738  -2.7626  -2.7549  -2.7348  -2.7079
    -2.5946  -2.5387  -2.5353  -2.4126  -2.3847  -2.3279  -2.3064  -2.2594
    -2.2439  -2.2351  -2.2082  -2.1975  -2.1841  -2.1528  -2.0756  -1.9619
    -1.8113  -1.7924  -1.7568  -1.6313  -1.6014  -1.5400  -1.4503  -1.4343
    -1.4199  -1.3856  -1.3683  -1.2971  -1.1714  -1.1469  -1.1374  -1.0365
    -0.9900  -0.9715  -0.8749  -0.8395  -0.7695  -0.7584  -0.7470  -0.7096
    -0.5486  -0.4920  -0.4627  -0.3959  -0.3663  -0.3075  -0.2946  -0.2657
    -0.1833  -0.1311  -0.1109  -0.1041  -0.0558  -0.0195  -0.0028   0.0068
     0.0178   0.0320   0.2045   0.2775   0.2844   0.3636   0.3733   0.5343
     0.5952   0.6628   0.7709   0.9759   1.0504   1.1397   1.2429   1.4386
     1.6217   1.6673   3.1422   3.2258   3.2739   3.2833   3.3847   3.4214
     3.5955   3.6017   3.6157   3.6898

[...]

          k = 0.0380-0.0419 0.0000 ( 17876 PWs)   bands (ev):

[...]

          k =-0.0760-0.0000 0.0000 ( 17886 PWs)   bands (ev):

[...]

          k =-0.0760-0.0839 0.0000 ( 17948 PWs)   bands (ev):

   -55.9775 -55.9766 -55.9698 -55.9644 -55.8648 -55.8289 -55.8253 -55.8246
   -55.7868 -55.7853 -55.7510 -55.7495 -55.5203 -55.2483 -54.9544 -54.9542
   -32.3456 -32.3405 -32.2921 -32.2914 -32.2730 -32.2720 -32.2551 -32.2431
   -32.1951 -32.1889 -32.1827 -32.1759 -32.1389 -32.1208 -32.1157 -32.1144
   -32.1050 -32.0991 -32.0970 -32.0962 -32.0901 -32.0875 -32.0682 -32.0443
   -32.0408 -32.0302 -32.0206 -32.0069 -31.9858 -31.9855 -31.9827 -31.9813
   -31.9658 -31.9649 -31.9611 -31.9580 -31.8835 -31.7736 -31.6994 -31.6020
   -31.5038 -31.4804 -31.2806 -31.2805 -31.1914 -31.1913 -31.1521 -31.1520
   -16.1690 -16.1498 -15.9379 -15.9106 -15.9058 -15.8944 -15.7660 -15.7055
   -15.6890 -15.6871 -15.6083 -15.5866 -15.5650 -15.5376 -15.5261 -15.5137
   -15.5074 -15.4990 -15.4559 -15.4498 -15.4302 -15.4231 -15.3203 -15.3107
   -15.3066 -15.2508 -15.1771 -15.0385 -14.9448 -14.7294 -13.4596 -13.4592
    -7.5528  -4.3159  -3.6888  -3.4595  -3.4368  -3.1682  -3.1512  -3.1423
    -3.0820  -2.9093  -2.8934  -2.8705  -2.8496  -2.8210  -2.8192  -2.7978
    -2.7958  -2.7850  -2.7407  -2.7335  -2.7079  -2.6713  -2.6611  -2.6496
    -2.6408  -2.6171  -2.6067  -2.5648  -2.5354  -2.5281  -2.5133  -2.4896
    -2.3042  -2.2214  -2.1951  -2.1318  -2.1244  -2.0895  -2.0581  -2.0461
    -2.0301  -1.9795  -1.9017  -1.7272  -1.6944  -1.6764  -1.6188  -1.5898
    -1.5490  -1.4628  -1.3948  -1.3701  -1.3641  -1.3156  -1.2069  -1.1855
    -1.1711  -1.0976  -1.0624  -1.0440  -1.0027  -0.9877  -0.9546  -0.9492
    -0.8558  -0.8063  -0.7597  -0.7573  -0.7117  -0.6455  -0.6325  -0.6049
    -0.4960  -0.4771  -0.4071  -0.3778  -0.2761  -0.2078  -0.0106   0.0519
     0.0773   0.1358   0.2160   0.2970   0.3113   0.3252   0.3257   0.3730
     0.4421   0.5382   0.5476   0.6011   0.7059   1.3326   1.4142   1.4148
     1.4870   1.4873   3.4278   3.4377   3.4769   3.4987   3.6350   3.6505
     3.6736   3.6748   3.7299   3.8109

     the Fermi energy is     3.1398 ev

!    total energy              =   -2917.92299572 Ry
     estimated scf accuracy    <       0.00000006 Ry
     smearing contrib. (-TS)   =      -0.02181594 Ry
     internal energy E=F+TS    =   -2917.90117979 Ry

     The total energy is F=E-TS. E is the sum of the following terms:
     one-electron contribution =  -24778.21927533 Ry
     hartree contribution      =   12472.77246796 Ry
     xc contribution           =    -479.18561162 Ry
     ewald contribution        =    9866.73011877 Ry
     electric field correction =       0.00112043 Ry

     convergence has been achieved in  73 iterations

     Forces acting on atoms (cartesian axes, Ry/au):

     atom    1 type  1   force =     0.00017749   -0.00024126    0.09668313
     atom    2 type  1   force =     0.00007416   -0.00053141   -0.17541818
     atom    3 type  2   force =     0.00018396    0.00000775   -0.02479156
     atom    4 type  2   force =     0.00005959   -0.00133346    0.05294063
     atom    5 type  2   force =    -0.01178079    0.00012941    0.00258547
     atom    6 type  2   force =     0.01395389    0.00051483    0.00338718
     atom    7 type  1   force =     0.00129165    0.00070644   -0.01178317
     atom    8 type  1   force =    -0.00005103    0.00767256    0.02820550
     atom    9 type  2   force =    -0.00023812   -0.00023514   -0.00010958
     atom   10 type  2   force =    -0.00219907    0.00207385   -0.01526453
     atom   11 type  2   force =     0.00000893   -0.00008241    0.00023090
     atom   12 type  2   force =    -0.00004209    0.00013932   -0.00005836
     atom   13 type  1   force =    -0.00103433   -0.00026011   -0.00001177
     atom   14 type  1   force =    -0.00022251   -0.00026418    0.00056382
     atom   15 type  2   force =    -0.00007189   -0.00002269   -0.00021468
     atom   16 type  2   force =     0.00027156    0.00007704   -0.00055034
     atom   17 type  2   force =     0.00043048    0.00027104    0.00002933
     atom   18 type  2   force =     0.00024865    0.00009959   -0.00076446
     atom   19 type  1   force =    -0.00090111    0.00009727   -0.00033085
     atom   20 type  1   force =     0.00037013   -0.00099233    0.00025302
     atom   21 type  2   force =     0.00008779   -0.00004673    0.10322441
     atom   22 type  2   force =     0.00033750   -0.00028835   -0.00003327
     atom   23 type  2   force =    -0.07147063   -0.00015990   -0.02767353
     atom   24 type  2   force =     0.07146820    0.00033198   -0.02775751
     atom   25 type  1   force =     0.00019024   -0.00023095    0.09618939
     atom   26 type  1   force =     0.00011884   -0.00029842   -0.17555636
     atom   27 type  2   force =     0.00022441   -0.00011477   -0.02387355
     atom   28 type  2   force =     0.00009222   -0.00110228    0.05288019
     atom   29 type  2   force =    -0.01198655    0.00068025    0.00233631
     atom   30 type  2   force =     0.01402321    0.00103039    0.00318722
     atom   31 type  1   force =     0.00114483    0.00334045   -0.01211537
     atom   32 type  1   force =    -0.00023839   -0.00974059    0.02865173
     atom   33 type  2   force =    -0.00016988    0.00031620   -0.00008257
     atom   34 type  2   force =    -0.00173155    0.00175709   -0.02355957
     atom   35 type  2   force =     0.00000740    0.00008930    0.00022510
     atom   36 type  2   force =     0.00055580    0.00012957    0.00022216
     atom   37 type  1   force =    -0.00100636   -0.00039244    0.00026478
     atom   38 type  1   force =     0.00023159   -0.00010914    0.00050584
     atom   39 type  2   force =    -0.00017029   -0.00053402   -0.00075249
     atom   40 type  2   force =    -0.00003504    0.00026216    0.00045247
     atom   41 type  2   force =    -0.00031396   -0.00067121    0.00006566
     atom   42 type  2   force =     0.00023085   -0.00052935   -0.00095161
     atom   43 type  1   force =    -0.00071910    0.00003257   -0.00009317
     atom   44 type  1   force =     0.00034497    0.00029315    0.00044234
     atom   45 type  2   force =     0.00006612   -0.00006683    0.10325840
     atom   46 type  2   force =    -0.07147525   -0.00007836   -0.02769013
     atom   47 type  2   force =     0.07149309    0.00033890   -0.02776728
     atom   48 type  3   force =    -0.00140225   -0.00053996   -0.00080968
     atom   49 type  4   force =     0.00034762   -0.00066282    0.00044816
     atom   50 type  5   force =    -0.00011125   -0.00017554    0.00018572
     atom   51 type  5   force =    -0.00066374   -0.00068648    0.00059469

     Total force =     0.367976     Total SCF correction =     0.000601
  @ DRIVER MODE: Message from server: STATUS
  @ DRIVER MODE: Message from server: GETFORCE
  @ DRIVER MODE: Returning v,forces,stress,ensemble

     Writing output data file ./calc.save/
  @ DRIVER MODE: Message from server: EXIT
  @ DRIVE MODE: Exiting

     General routines

     Parallel routines

   This run was terminated on:  10:44: 5  24Aug2021

   JOB DONE.