     Program PWSCF v.6.7GPU starts on 16Sep2021 at  4:46:39

     R & G space division:  proc/nbgrp/npool/nimage =      10
     Reading input from /storage/home/hcoda1/3/ntian30/research/carbon/CxH_vib/H2O_calc/ads_slab/CH3NH2O_a/out_0043/pw.inp
Warning: card &CELL ignored
Warning: card   CELL_DYNAMICS='IPI', ignored
Warning: card / ignored

     Current dimensions of program PWSCF are:
     Max number of different atomic species (ntypx) = 10
     Max number of k-points (npk) =  40000
     Max angular momentum in pseudopotentials (lmaxx) =  3
     Presently no symmetry can be used with electric field

     Message from routine cell_base_init:
     DEPRECATED: use true lattice parameter, not A to a.u. conversion factor

     IMPORTANT: XC functional enforced from input :
     Exchange-correlation= BEEF-VDW
                           (   1   4  43  14   2   0   0)
     Any further DFT definition will be discarded
     Please, verify this is what you really want

  @ DRIVER MODE: Connecting to
 qe_1139763_2852618.sched-torque.pace.gatech.edueblsspzq_scratch
  using UNIX socket
  @ DRIVER MODE: Message from server: STATUS
  @ DRIVER MODE: Message from server: INIT
  @ DRIVER MODE: Receiving replica           0          -1
  @ DRIVER MODE: Receiving encoded integer          25
  @ DRIVER MODE:  SCF:  T  FORCE:  T  STRESS:  F  VC:  F  ENSEMBLE:  F
  @ DRIVER MODE:  SCF:  T  FORCE:  T  STRESS:  F  VC:  F  ENSEMBLE:  F

     Using Slab Decomposition

     bravais-lattice index     =            0
     lattice parameter (alat)  =       1.8897  a.u.
     unit-cell volume          =    6658.9804 (a.u.)^3
     number of atoms/cell      =           55
     number of atomic types    =            5
     number of electrons       =       398.00
     number of Kohn-Sham states=          209
     kinetic-energy cutoff     =      29.3995  Ry
     charge density cutoff     =     293.9946  Ry
     scf convergence threshold =      7.3E-08
     mixing beta               =       0.0500
     number of iterations used =            8  plain     mixing
     Exchange-correlation= BEEF-VDW
                           (   1   4  43  14   2   0   0)

     celldm(1)=   1.889726  celldm(2)=   0.000000  celldm(3)=   0.000000
     celldm(4)=   0.000000  celldm(5)=   0.000000  celldm(6)=   0.000000

     crystal axes: (cart. coord. in units of alat)
               a(1) = (   6.579727   0.000000   0.000000 )
               a(2) = (  -0.000775   5.961596   0.000000 )
               a(3) = (   0.000000   0.000000  25.155947 )

     reciprocal axes: (cart. coord. in units 2 pi/alat)
               b(1) = (  0.151982  0.000020  0.000000 )
               b(2) = (  0.000000  0.167740  0.000000 )
               b(3) = (  0.000000  0.000000  0.039752 )

     PseudoPot. # 1 for Ti read from file:
     /storage/coda1/p-amedford6/0/shared/rich_project_chbe-medford/medford-share/data/pseudos_module/espresso/nninc/pbe/van/Ti.UPF
     MD5 check sum: 8e4df49b7f0d34bbd5052bf3f5ea0213
     Pseudo is Ultrasoft, Zval = 12.0
     Generated by new atomic code, or converted to UPF format
     Using radial grid of  851 points,  6 beta functions with:
                l(1) =   0
                l(2) =   0
                l(3) =   1
                l(4) =   1
                l(5) =   2
                l(6) =   2
     Q(r) pseudized with  8 coefficients,  rinner =    1.000   1.000   1.000
                                                       1.000   1.000

     PseudoPot. # 2 for O  read from file:
     /storage/coda1/p-amedford6/0/shared/rich_project_chbe-medford/medford-share/data/pseudos_module/espresso/nninc/pbe/van/O.UPF
     MD5 check sum: 78c19812648e8988a0fe644b0f25305e
     Pseudo is Ultrasoft, Zval =  6.0
     Generated by new atomic code, or converted to UPF format
     Using radial grid of  737 points,  4 beta functions with:
                l(1) =   0
                l(2) =   0
                l(3) =   1
                l(4) =   1
     Q(r) pseudized with  8 coefficients,  rinner =    0.800   0.800   0.800

     PseudoPot. # 3 for N  read from file:
     /storage/coda1/p-amedford6/0/shared/rich_project_chbe-medford/medford-share/data/pseudos_module/espresso/nninc/pbe/van/N.UPF
     MD5 check sum: 90d10febe142ad51ac9d5be1deb811c4
     Pseudo is Ultrasoft, Zval =  5.0
     Generated by new atomic code, or converted to UPF format
     Using radial grid of  729 points,  4 beta functions with:
                l(1) =   0
                l(2) =   0
                l(3) =   1
                l(4) =   1
     Q(r) pseudized with  8 coefficients,  rinner =    0.800   0.800   0.800

     PseudoPot. # 4 for C  read from file:
     /storage/coda1/p-amedford6/0/shared/rich_project_chbe-medford/medford-share/data/pseudos_module/espresso/nninc/pbe/van/C.UPF
     MD5 check sum: 1a69bf6b8db32088f5b2163dbdb77a27
     Pseudo is Ultrasoft, Zval =  4.0
     Generated by new atomic code, or converted to UPF format
     Using radial grid of  721 points,  4 beta functions with:
                l(1) =   0
                l(2) =   0
                l(3) =   1
                l(4) =   1
     Q(r) pseudized with  8 coefficients,  rinner =    0.800   0.800   0.800

     PseudoPot. # 5 for H  read from file:
     /storage/coda1/p-amedford6/0/shared/rich_project_chbe-medford/medford-share/data/pseudos_module/espresso/nninc/pbe/van/H.UPF
     MD5 check sum: b5ee9d7bfd3a09ee7748110bda690ff7
     Pseudo is Ultrasoft, Zval =  1.0
     Generated by new atomic code, or converted to UPF format
     Using radial grid of  615 points,  1 beta functions with:
                l(1) =   0
     Q(r) pseudized with  8 coefficients,  rinner =    0.800

     atomic species   valence    mass     pseudopotential
        Ti1           12.00    47.86700     Ti( 1.00)
        O1             6.00    15.99900     O ( 1.00)
        N1             5.00    14.00700     N ( 1.00)
        C1             4.00    12.01100     C ( 1.00)
        H1             1.00     1.00800     H ( 1.00)

     No symmetry found

   Cartesian axes

     site n.     atom                  positions (alat units)
         1           Ti1 tau(   1) = (   0.0004258   2.9801865   6.0000000  )
         2           Ti1 tau(   2) = (   3.2906075   1.4906267   6.0002472  )
         3           O1  tau(   3) = (   0.0006271   0.0005054   7.9858123  )
         4           O1  tau(   4) = (   3.2906025   0.0005020   7.3038282  )
         5           O1  tau(   5) = (   4.5942328   1.4918067   9.2879030  )
         6           O1  tau(   6) = (   1.9868534   1.4903216   9.2879459  )
         7           Ti1 tau(   7) = (   3.2907910   2.8959150   9.1758416  )
         8           Ti1 tau(   8) = (   0.0015273   1.4827037   9.2680791  )
         9           O1  tau(   9) = (   3.2951577   0.0167633  11.2896499  )
        10           O1  tau(  10) = (   0.0116148   5.9584955  10.6183126  )
        11           O1  tau(  11) = (   1.3222759   1.5071707  12.6129440  )
        12           O1  tau(  12) = (   5.3060066   1.5095485  12.6267335  )
        13           Ti1 tau(  13) = (   6.4824898   3.0013615  12.7357613  )
        14           Ti1 tau(  14) = (   3.1735365   1.4973312  12.4739500  )
        15           O1  tau(  15) = (   0.0245190   0.0017265  14.5963640  )
        16           O1  tau(  16) = (   3.2983568   0.0259644  13.8884976  )
        17           O1  tau(  17) = (   4.5535709   1.5599051  15.9919625  )
        18           O1  tau(  18) = (   2.0723989   1.5598234  15.9883263  )
        19           Ti1 tau(  19) = (   3.3263631   3.0313633  15.6478355  )
        20           Ti1 tau(  20) = (   0.0083359   1.6222165  16.0589653  )
        21           O1  tau(  21) = (   3.2904802   0.0005063   4.7018136  )
        22           O1  tau(  22) = (   0.0206953   0.0548308  17.2083480  )
        23           O1  tau(  23) = (   1.3043587   1.4918075   6.0039043  )
        24           O1  tau(  24) = (   5.2767064   1.4903225   6.0039473  )
        25           Ti1 tau(  25) = (   0.0000382   5.9609847   6.0000000  )
        26           Ti1 tau(  26) = (   3.2902200   4.4714249   6.0002472  )
        27           O1  tau(  27) = (   0.0002396   2.9813036   7.9858123  )
        28           O1  tau(  28) = (   3.2902150   2.9813002   7.3038282  )
        29           O1  tau(  29) = (   4.5938453   4.4726049   9.2879030  )
        30           O1  tau(  30) = (   1.9864658   4.4711199   9.2879459  )
        31           Ti1 tau(  31) = (   3.2891106   5.8743827   9.1763621  )
        32           Ti1 tau(  32) = (   0.0006254   4.4649316   9.2693709  )
        33           O1  tau(  33) = (   3.2909539   2.9954008  11.2901670  )
        34           O1  tau(  34) = (   0.0092240   2.9805883  10.6323155  )
        35           O1  tau(  35) = (   1.3211080   4.4795309  12.6092917  )
        36           O1  tau(  36) = (   5.3058445   4.4798052  12.6251394  )
        37           Ti1 tau(  37) = (   6.5140999   0.0198189  12.7603067  )
        38           Ti1 tau(  38) = (   3.1705570   4.4938763  12.4677136  )
        39           O1  tau(  39) = (   0.0016069   2.9863809  14.6467327  )
        40           O1  tau(  40) = (   3.3112668   3.0122049  13.8485686  )
        41           O1  tau(  41) = (   4.5534170   4.5051619  16.0179686  )
        42           O1  tau(  42) = (   2.0797414   4.5084034  16.0201905  )
        43           Ti1 tau(  43) = (   3.2815144   0.0627375  15.7417980  )
        44           Ti1 tau(  44) = (   0.0076503   4.5954094  16.1032789  )
        45           O1  tau(  45) = (   3.2900926   2.9813045   4.7018136  )
        46           O1  tau(  46) = (   1.3039711   4.4726057   6.0039043  )
        47           O1  tau(  47) = (   5.2763189   4.4711207   6.0039473  )
        48           N1  tau(  48) = (   0.0651939   3.0276870  17.3150544  )
        49           C1  tau(  49) = (   0.3375872   3.0185870  18.7284822  )
        50           H1  tau(  50) = (   0.4544735   4.0311245  19.1352477  )
        51           H1  tau(  51) = (   6.1015407   2.5302758  19.2785169  )
        52           H1  tau(  52) = (   1.2508204   2.4494767  18.9518403  )
        53           O1  tau(  53) = (   3.3357083   0.1159715  18.1615364  )
        54           H1  tau(  54) = (   4.1514219   5.6051498  18.3929375  )
        55           H1  tau(  55) = (   2.5826282   5.5337384  18.4710493  )

     number of k points=    10  Fermi-Dirac smearing, width (Ry)=  0.0073
                       cart. coord. in units 2pi/alat
        k(    1) = (   0.0000000   0.0000000   0.0000000), wk =   0.1250000
        k(    2) = (   0.0000000   0.0419351   0.0000000), wk =   0.2500000
        k(    3) = (   0.0000000  -0.0838702   0.0000000), wk =   0.1250000
        k(    4) = (   0.0379955   0.0000049   0.0000000), wk =   0.2500000
        k(    5) = (   0.0379955   0.0419400   0.0000000), wk =   0.2500000
        k(    6) = (   0.0379955  -0.0838652   0.0000000), wk =   0.2500000
        k(    7) = (   0.0379955  -0.0419301   0.0000000), wk =   0.2500000
        k(    8) = (  -0.0759910  -0.0000099   0.0000000), wk =   0.1250000
        k(    9) = (  -0.0759910   0.0419252   0.0000000), wk =   0.2500000
        k(   10) = (  -0.0759910  -0.0838800   0.0000000), wk =   0.1250000

     Initial potential from superposition of free atoms

     starting charge  381.99915, renormalised to  398.00000

     negative rho (up, down):  1.656E-02 0.000E+00

     %%%%%%%%%%%%%%%%%%%%%%%%%%%%%%%%%%%%%%%%%%%%%%%%%%%%%%%%%%%%%%%%%%%%%%%%
     %                                                                      %
     % You are using vdW-DF, which was implemented by the Thonhauser group. %
     % Please cite the following two papers that made this development      %
     % possible and the two reviews that describe the various versions:     %
     %                                                                      %
     %   T. Thonhauser et al., PRL 115, 136402 (2015).                      %
     %   T. Thonhauser et al., PRB 76, 125112 (2007).                       %
     %   K. Berland et al., Rep. Prog. Phys. 78, 066501 (2015).             %
     %   D.C. Langreth et al., J. Phys.: Condens. Matter 21, 084203 (2009). %
     %                                                                      %
     %                                                                      %
     % If you are calculating the stress with vdW-DF, please also cite:     %
     %                                                                      %
     %   R. Sabatini et al., J. Phys.: Condens. Matter 24, 424209 (2012).   %
     %                                                                      %
     %%%%%%%%%%%%%%%%%%%%%%%%%%%%%%%%%%%%%%%%%%%%%%%%%%%%%%%%%%%%%%%%%%%%%%%%

     Adding external electric field

     Computed dipole along edir(3) :
        Dipole               -9.1079 Ry au,        -23.1500 Debye
        Dipole field         -0.0172 Ry au,

        Potential amp.        1.5933 Ry
        Total length         46.3494 bohr

     Starting wfcs are  301 atomic wfcs
  @ DRIVER MODE: Message from server: STATUS
  @ DRIVER MODE: Message from server: POSDATA
  @ DRIVER MODE: Reading and sharing cell
  @ DRIVER MODE: Reading and sharing positions
  @ DRIVER MODE: Received positions

     Self-consistent Calculation

     iteration #  1     ecut=    29.40 Ry     beta= 0.05
     Davidson diagonalization with overlap
     c_bands:  1 eigenvalues not converged
     c_bands:  1 eigenvalues not converged
     c_bands:  1 eigenvalues not converged
     c_bands:  1 eigenvalues not converged
     c_bands:  1 eigenvalues not converged
     c_bands:  1 eigenvalues not converged
     c_bands:  1 eigenvalues not converged
     c_bands:  2 eigenvalues not converged
     ethr =  1.00E-05,  avg # of iterations = 19.6

[...]

     total energy              =   -2564.53765978 Ry
     estimated scf accuracy    <    4317.21768197 Ry

     iteration #  2     ecut=    29.40 Ry     beta= 0.05
     Davidson diagonalization with overlap
     ethr =  1.00E-02,  avg # of iterations = 24.6

[...]

     iteration # 44     ecut=    29.40 Ry     beta= 0.05
     Davidson diagonalization with overlap
     c_bands:  2 eigenvalues not converged
     ethr =  1.31E-06,  avg # of iterations = 13.4

[...]

     total energy              =   -2953.97096226 Ry
     estimated scf accuracy    <       0.00000014 Ry

     iteration # 71     ecut=    29.40 Ry     beta= 0.05
     Davidson diagonalization with overlap
     ethr =  3.41E-11,  avg # of iterations =  4.9

     negative rho (up, down):  1.668E-02 0.000E+00

     Adding external electric field

     Computed dipole along edir(3) :
        Dipole                0.5294 Ry au,          1.3457 Debye
        Dipole field          0.0010 Ry au,

        Potential amp.       -0.0926 Ry
        Total length         46.3494 bohr

     End of self-consistent calculation

          k = 0.0000 0.0000 0.0000 ( 18029 PWs)   bands (ev):

   -56.5946 -56.5610 -55.7125 -55.6785 -55.6684 -55.6337 -55.4920 -55.4558
   -55.3610 -55.2429 -55.2296 -55.2278 -55.2090 -55.1324 -54.7259 -54.6762
   -33.0213 -32.8691 -32.8409 -32.7710 -32.6801 -32.6475 -32.1803 -32.1509
   -32.0275 -31.9774 -31.9295 -31.9105 -31.8812 -31.8711 -31.8433 -31.8373
   -31.8182 -31.8133 -31.7904 -31.7752 -31.7678 -31.7116 -31.7071 -31.6696
   -31.6560 -31.6338 -31.6258 -31.6181 -31.5947 -31.5860 -31.5826 -31.5584
   -31.4658 -31.4530 -31.4191 -31.4062 -31.3791 -31.3698 -31.3566 -31.3376
   -31.3097 -31.2588 -31.2407 -30.9696 -30.9480 -30.9185 -30.8945 -30.7854
   -18.7348 -16.7501 -16.2864 -16.0452 -15.9508 -15.8686 -15.8289 -15.7856
   -15.6377 -15.5650 -15.5449 -15.5426 -15.4748 -15.3305 -15.2766 -15.1787
   -15.0925 -14.9513 -14.9398 -14.8998 -14.8859 -14.8500 -14.8460 -14.7950
   -14.6269 -14.5909 -14.5452 -14.4861 -14.3947 -14.1746 -13.7414 -13.6317
   -12.9725  -7.7749  -6.5574  -4.3172  -3.7849  -3.5192  -3.4877  -3.3591
    -3.3547  -3.3113  -3.1696  -3.1620  -3.0888  -3.0637  -3.0109  -2.9497
    -2.9050  -2.8650  -2.7783  -2.7653  -2.7457  -2.7371  -2.7158  -2.5996
    -2.5549  -2.5043  -2.4019  -2.2915  -2.2491  -2.2220  -2.1762  -2.1428
    -2.0916  -2.0798  -2.0682  -2.0565  -1.9514  -1.8308  -1.8054  -1.7823
    -1.7361  -1.7213  -1.7131  -1.6894  -1.6049  -1.4950  -1.4028  -1.3346
    -1.3278  -1.2531  -1.2450  -1.1866  -1.0736  -1.0128  -1.0100  -0.9887
    -0.8848  -0.8599  -0.7884  -0.7258  -0.6668  -0.6138  -0.5512  -0.4989
    -0.4759  -0.4664  -0.3685  -0.2990  -0.2740  -0.2186  -0.2091  -0.2048
    -0.1786  -0.0833  -0.0480   0.0286   0.0642   0.1119   0.1475   0.2260
     0.2859   0.3519   0.3988   0.4206   0.4862   0.5416   0.5971   0.6880
     0.7453   0.7511   0.7787   0.8373   0.8508   0.9250   1.0070   1.0271
     1.0933   1.1649   1.3284   1.3674   1.6132   1.6870   2.3114   2.6827
     2.8438   3.1391   3.3287   3.4667   3.6620   3.6723   3.6795   3.9007
     3.9291

[...]

          k = 0.0380-0.0419 0.0000 ( 17876 PWs)   bands (ev):

[...]

          k =-0.0760-0.0000 0.0000 ( 17886 PWs)   bands (ev):

[...]

          k =-0.0760-0.0839 0.0000 ( 17948 PWs)   bands (ev):

   -56.5779 -56.5776 -55.6974 -55.6931 -55.6556 -55.6466 -55.4780 -55.4696
   -55.3586 -55.2318 -55.2260 -55.2258 -55.2245 -55.1356 -54.7188 -54.6832
   -32.8549 -32.8546 -32.8383 -32.8381 -32.7242 -32.7239 -32.0040 -31.9982
   -31.9867 -31.9798 -31.9035 -31.8889 -31.8876 -31.8833 -31.8766 -31.8751
   -31.8677 -31.8597 -31.8333 -31.8163 -31.7229 -31.7165 -31.6850 -31.6772
   -31.6534 -31.6177 -31.5860 -31.5715 -31.5713 -31.5694 -31.5486 -31.5305
   -31.4798 -31.4507 -31.4505 -31.4469 -31.4309 -31.4117 -31.4115 -31.4010
   -31.3745 -31.3391 -31.1017 -31.0390 -30.9456 -30.9200 -30.9041 -30.8571
   -18.7339 -16.1009 -16.0989 -16.0634 -16.0627 -15.7963 -15.7929 -15.7030
   -15.6975 -15.5658 -15.4453 -15.3412 -15.3286 -15.2945 -15.2680 -15.1578
   -15.1368 -15.1255 -15.1152 -15.0073 -14.9881 -14.9403 -14.9261 -14.9102
   -14.9031 -14.6084 -14.5920 -14.4920 -14.4661 -14.3272 -13.7353 -13.7353
   -12.9910  -7.7684  -6.5504  -3.1951  -3.1906  -3.1368  -3.1353  -3.1352
    -3.0780  -2.9774  -2.9304  -2.9285  -2.9275  -2.8398  -2.7823  -2.7746
    -2.7007  -2.6677  -2.6503  -2.5921  -2.5786  -2.5149  -2.4884  -2.4802
    -2.4624  -2.4388  -2.4375  -2.3437  -2.2776  -2.2317  -2.2265  -2.1670
    -2.1369  -2.0778  -2.0554  -2.0440  -2.0114  -1.9702  -1.9580  -1.9185
    -1.8779  -1.8431  -1.7798  -1.6135  -1.6044  -1.5954  -1.5749  -1.4520
    -1.4451  -1.4110  -1.3795  -1.3739  -1.3029  -1.2521  -1.2157  -1.1620
    -1.0769  -1.0553  -0.9508  -0.8987  -0.8555  -0.7985  -0.6945  -0.6740
    -0.6659  -0.6553  -0.6253  -0.5552  -0.5197  -0.5172  -0.3941  -0.3698
    -0.3313  -0.3020  -0.2437  -0.2152  -0.1551  -0.1240  -0.0545  -0.0401
    -0.0004   0.0763   0.1516   0.1856   0.2366   0.2430   0.5174   0.5911
     0.7204   0.7836   0.8459   0.9141   0.9794   1.0075   1.0371   1.1625
     1.1668   1.1763   1.1768   1.2470   1.2522   1.5918   2.1896   3.2588
     3.2590   3.3253   3.3259   3.6469   3.6531   3.7602   3.7704   3.9305
     3.9448

     the Fermi energy is     2.5096 ev

!    total energy              =   -2953.97098169 Ry
     estimated scf accuracy    <       0.00000006 Ry
     smearing contrib. (-TS)   =      -0.00442979 Ry
     internal energy E=F+TS    =   -2953.96655190 Ry

     The total energy is F=E-TS. E is the sum of the following terms:
     one-electron contribution =  -24343.87379504 Ry
     hartree contribution      =   12263.83566625 Ry
     xc contribution           =    -488.76449584 Ry
     ewald contribution        =    9614.83554374 Ry
     electric field correction =       0.00052899 Ry

     convergence has been achieved in  71 iterations

     Forces acting on atoms (cartesian axes, Ry/au):

     atom    1 type  1   force =    -0.00002588   -0.00048404    0.12440452
     atom    2 type  1   force =    -0.00003669   -0.00048582   -0.15979638
     atom    3 type  2   force =     0.00020052   -0.00023693   -0.06784486
     atom    4 type  2   force =     0.00000168   -0.00009182    0.02611032
     atom    5 type  2   force =    -0.01436425    0.00191536   -0.00991999
     atom    6 type  2   force =     0.01614854    0.00232571   -0.01029563
     atom    7 type  1   force =     0.00071734   -0.00389341    0.02848531
     atom    8 type  1   force =    -0.00033524   -0.00435836    0.10935616
     atom    9 type  2   force =     0.00002418    0.00001647    0.00005999
     atom   10 type  2   force =    -0.00225613    0.00266746   -0.07361365
     atom   11 type  2   force =     0.00079131   -0.00003055   -0.00022612
     atom   12 type  2   force =    -0.00042533    0.00004820   -0.00018833
     atom   13 type  1   force =    -0.00000759    0.00013611   -0.00012265
     atom   14 type  1   force =    -0.00034558    0.00047982   -0.00039763
     atom   15 type  2   force =     0.00002174   -0.00065409   -0.00020312
     atom   16 type  2   force =    -0.00018590   -0.00000480    0.00037751
     atom   17 type  2   force =    -0.00061520   -0.00031604   -0.00033195
     atom   18 type  2   force =     0.00025844   -0.00019300    0.00011178
     atom   19 type  1   force =     0.00045479    0.00000060   -0.00018209
     atom   20 type  1   force =    -0.00022416   -0.00059065   -0.00085929
     atom   21 type  2   force =     0.00006659   -0.00004028    0.09953510
     atom   22 type  2   force =     0.00011850   -0.00049993    0.00032858
     atom   23 type  2   force =    -0.07970338   -0.00006205   -0.03245842
     atom   24 type  2   force =     0.07957466    0.00037794   -0.03251554
     atom   25 type  1   force =    -0.00000593   -0.00057795    0.12404165
     atom   26 type  1   force =    -0.00010847   -0.00062736   -0.15992446
     atom   27 type  2   force =     0.00033234   -0.00035974   -0.06691704
     atom   28 type  2   force =    -0.00002472    0.00017847    0.02513427
     atom   29 type  2   force =    -0.01495481    0.00189505   -0.00989749
     atom   30 type  2   force =     0.01664178    0.00242236   -0.01022961
     atom   31 type  1   force =     0.00078149   -0.00077124    0.02375592
     atom   32 type  1   force =    -0.00022740    0.00200549    0.10998251
     atom   33 type  2   force =     0.00004625   -0.00027043    0.00032427
     atom   34 type  2   force =    -0.00212191    0.00206965   -0.07173448
     atom   35 type  2   force =     0.00021725   -0.00012255   -0.00008080
     atom   36 type  2   force =    -0.00015689   -0.00024794   -0.00015208
     atom   37 type  1   force =     0.00042461   -0.00002491    0.00036150
     atom   38 type  1   force =     0.00001450   -0.00056560   -0.00018075
     atom   39 type  2   force =     0.00006747    0.00018723    0.00065392
     atom   40 type  2   force =    -0.00008906   -0.00024260    0.00026448
     atom   41 type  2   force =     0.00073645   -0.00034687    0.00007706
     atom   42 type  2   force =    -0.00103029   -0.00041269    0.00057798
     atom   43 type  1   force =     0.00006891   -0.00035550    0.00026607
     atom   44 type  1   force =    -0.00033506   -0.00007453   -0.00100974
     atom   45 type  2   force =     0.00005698   -0.00004631    0.09949689
     atom   46 type  2   force =    -0.07971176    0.00000051   -0.03248128
     atom   47 type  2   force =     0.07959168    0.00042828   -0.03250701
     atom   48 type  3   force =    -0.00048092   -0.00009909   -0.00038333
     atom   49 type  4   force =    -0.00033632    0.00008183    0.00017235
     atom   50 type  5   force =    -0.00049202    0.00001462    0.00019552
     atom   51 type  5   force =    -0.00014281   -0.00062758    0.00056365
     atom   52 type  5   force =     0.00057592    0.00012675    0.00020534
     atom   53 type  2   force =    -0.01198672   -0.00631822    0.00280965
     atom   54 type  5   force =    -0.00015464   -0.00062744    0.00124582
     atom   55 type  5   force =     0.01295112    0.00728243   -0.00444442

     Total force =     0.423873     Total SCF correction =     0.000838
  @ DRIVER MODE: Message from server: STATUS
  @ DRIVER MODE: Message from server: GETFORCE
  @ DRIVER MODE: Returning v,forces,stress,ensemble

     Writing output data file ./calc.save/
  @ DRIVER MODE: Message from server: EXIT
  @ DRIVE MODE: Exiting

     General routines

     Parallel routines

   This run was terminated on:   5: 6: 1  16Sep2021

   JOB DONE.