     Program PWSCF v.6.8 starts on 15Oct2021 at 16:12:46

     R & G space division:  proc/nbgrp/npool/nimage =       4

     Reading input from /storage/home/hcoda1/3/ntian30/research/carbon/Thiel_calc/ads_slab/NH2NH2_perslab/Thiel_calc.log/pw.inp
Warning: card &CELL ignored
Warning: card   CELL_DYNAMICS='IPI', ignored
Warning: card / ignored

     Current dimensions of program PWSCF are:
     Max number of different atomic species (ntypx) = 10
     Max number of k-points (npk) =  40000
     Max angular momentum in pseudopotentials (lmaxx) =  4
     Presently no symmetry can be used with electric field

     Message from routine cell_base_init:
     DEPRECATED: use true lattice parameter, not A to a.u. conversion factor

     IMPORTANT: XC functional enforced from input :
     Exchange-correlation= BEEF-VDW
                           (   1   4  43  14   2   0   0)
     Any further DFT definition will be discarded
     Please, verify this is what you really want

  @ DRIVER MODE: Connecting to
 qe_1139763_3223922.sched-torque.pace.gatech.edu0586b0vd_scratch
  using UNIX socket
  @ DRIVER MODE: Message from server: STATUS
  @ DRIVER MODE: Message from server: INIT
  @ DRIVER MODE: Receiving replica           0          -1
  @ DRIVER MODE: Receiving encoded integer          25
  @ DRIVER MODE:  SCF:  T  FORCE:  T  STRESS:  F  VC:  F  ENSEMBLE:  F
  @ DRIVER MODE:  SCF:  T  FORCE:  T  STRESS:  F  VC:  F  ENSEMBLE:  F

     Using Slab Decomposition

     bravais-lattice index     =            0
     lattice parameter (alat)  =       1.8897  a.u.
     unit-cell volume          =    9988.4706 (a.u.)^3
     number of atoms/cell      =           59
     number of atomic types    =            4
     number of electrons       =       440.00
     number of Kohn-Sham states=          230
     kinetic-energy cutoff     =      29.3995  Ry
     charge density cutoff     =     293.9946  Ry
     scf convergence threshold =      7.3E-08
     mixing beta               =       0.0500
     number of iterations used =            8  plain     mixing
     Exchange-correlation= BEEF-VDW
                           (   1   4  43  14   2   0   0)

     celldm(1)=   1.889726  celldm(2)=   0.000000  celldm(3)=   0.000000
     celldm(4)=   0.000000  celldm(5)=   0.000000  celldm(6)=   0.000000

     crystal axes: (cart. coord. in units of alat)
               a(1) = (   6.579727   0.000000   0.000000 )
               a(2) = (  -0.001163   8.942395   0.000000 )
               a(3) = (   0.000000   0.000000  25.155947 )

     reciprocal axes: (cart. coord. in units 2 pi/alat)
               b(1) = (  0.151982  0.000020  0.000000 )
               b(2) = (  0.000000  0.111827  0.000000 )
               b(3) = (  0.000000  0.000000  0.039752 )

     PseudoPot. # 1 for O  read from file:
     /storage/coda1/p-amedford6/0/shared/rich_project_chbe-medford/medford-share/data/pseudos_module/espresso/nninc/pbe/van/O.UPF
     MD5 check sum: 78c19812648e8988a0fe644b0f25305e
     Pseudo is Ultrasoft, Zval =  6.0
     Generated by new atomic code, or converted to UPF format
     Using radial grid of  737 points,  4 beta functions with:
                l(1) =   0
                l(2) =   0
                l(3) =   1
                l(4) =   1
     Q(r) pseudized with  8 coefficients,  rinner =    0.800   0.800   0.800

     PseudoPot. # 2 for Ti read from file:
     /storage/coda1/p-amedford6/0/shared/rich_project_chbe-medford/medford-share/data/pseudos_module/espresso/nninc/pbe/van/Ti.UPF
     MD5 check sum: 8e4df49b7f0d34bbd5052bf3f5ea0213
     Pseudo is Ultrasoft, Zval = 12.0
     Generated by new atomic code, or converted to UPF format
     Using radial grid of  851 points,  6 beta functions with:
                l(1) =   0
                l(2) =   0
                l(3) =   1
                l(4) =   1
                l(5) =   2
                l(6) =   2
     Q(r) pseudized with  8 coefficients,  rinner =    1.000   1.000   1.000
                                                       1.000   1.000

     PseudoPot. # 3 for N  read from file:
     /storage/coda1/p-amedford6/0/shared/rich_project_chbe-medford/medford-share/data/pseudos_module/espresso/nninc/pbe/van/N.UPF
     MD5 check sum: 90d10febe142ad51ac9d5be1deb811c4
     Pseudo is Ultrasoft, Zval =  5.0
     Generated by new atomic code, or converted to UPF format
     Using radial grid of  729 points,  4 beta functions with:
                l(1) =   0
                l(2) =   0
                l(3) =   1
                l(4) =   1
     Q(r) pseudized with  8 coefficients,  rinner =    0.800   0.800   0.800

     PseudoPot. # 4 for H  read from file:
     /storage/coda1/p-amedford6/0/shared/rich_project_chbe-medford/medford-share/data/pseudos_module/espresso/nninc/pbe/van/H.UPF
     MD5 check sum: b5ee9d7bfd3a09ee7748110bda690ff7
     Pseudo is Ultrasoft, Zval =  1.0
     Generated by new atomic code, or converted to UPF format
     Using radial grid of  615 points,  1 beta functions with:
                l(1) =   0
     Q(r) pseudized with  8 coefficients,  rinner =    0.800

     atomic species   valence    mass     pseudopotential
        O1             6.00    15.99900     O ( 1.00)
        Ti1           12.00    47.86700     Ti( 1.00)
        N1             5.00    14.00700     N ( 1.00)
        H1             1.00     1.00800     H ( 1.00)

     No symmetry found

   Cartesian axes

     site n.     atom                  positions (alat units)
         1           O1  tau(   1) = (   0.0007354   0.0005023  10.5931620  )
         2           O1  tau(   2) = (   3.2905955   0.0005026  13.8824958  )
         3           O1  tau(   3) = (   0.0007284   0.0005029  17.1718295  )
         4           O1  tau(   4) = (   0.0006271   0.0005054   7.9858123  )
         5           O1  tau(   5) = (   3.2904872   0.0005057  11.2751460  )
         6           O1  tau(   6) = (   0.0006201   0.0005060  14.5644798  )
         7           O1  tau(   7) = (   1.9868534   1.4903216   9.2879459  )
         8           O1  tau(   8) = (   5.2767135   1.4903219  12.5772797  )
         9           O1  tau(   9) = (   1.9868463   1.4903222  15.8666135  )
        10           Ti1 tau(  10) = (   0.0007404   1.4906270   9.2895810  )
        11           Ti1 tau(  11) = (   3.2906005   1.4906273  12.5789147  )
        12           Ti1 tau(  12) = (   0.0007334   1.4906276  15.8682485  )
        13           O1  tau(  13) = (   4.5942328   1.4918067   9.2879030  )
        14           O1  tau(  14) = (   1.3043657   1.4918069  12.5772368  )
        15           O1  tau(  15) = (   4.5942258   1.4918072  15.8665706  )
        16           Ti1 tau(  16) = (   3.2902859   2.9801868   9.2893338  )
        17           Ti1 tau(  17) = (   0.0004188   2.9801870  12.5786675  )
        18           Ti1 tau(  18) = (   3.2902789   2.9801873  15.8680013  )
        19           O1  tau(  19) = (   0.0003479   2.9813005  10.5931620  )
        20           O1  tau(  20) = (   3.2902079   2.9813008  13.8824958  )
        21           O1  tau(  21) = (   0.0002396   2.9813036   7.9858123  )
        22           O1  tau(  22) = (   3.2900997   2.9813039  11.2751460  )
        23           O1  tau(  23) = (   0.0002325   2.9813042  14.5644798  )
        24           O1  tau(  24) = (   1.9864658   4.4711199   9.2879459  )
        25           O1  tau(  25) = (   5.2763259   4.4711201  12.5772797  )
        26           O1  tau(  26) = (   1.9864588   4.4711204  15.8666135  )
        27           Ti1 tau(  27) = (   0.0003529   4.4714252   9.2895810  )
        28           Ti1 tau(  28) = (   3.2902129   4.4714255  12.5789147  )
        29           Ti1 tau(  29) = (   0.0003458   4.4714258  15.8682485  )
        30           O1  tau(  30) = (   4.5938453   4.4726049   9.2879030  )
        31           O1  tau(  31) = (   1.3039782   4.4726052  12.5772368  )
        32           O1  tau(  32) = (   4.5938383   4.4726054  15.8665706  )
        33           Ti1 tau(  33) = (   3.2898983   5.9609850   9.2893338  )
        34           Ti1 tau(  34) = (   0.0000312   5.9609853  12.5786675  )
        35           Ti1 tau(  35) = (   3.2898913   5.9609855  15.8680013  )
        36           O1  tau(  36) = (  -0.0000397   5.9620987  10.5931620  )
        37           O1  tau(  37) = (   3.2898204   5.9620990  13.8824958  )
        38           O1  tau(  38) = (  -0.0000467   5.9620993  17.1718295  )
        39           O1  tau(  39) = (  -0.0001480   5.9621018   7.9858123  )
        40           O1  tau(  40) = (   3.2897121   5.9621021  11.2751460  )
        41           O1  tau(  41) = (  -0.0001550   5.9621024  14.5644798  )
        42           O1  tau(  42) = (   1.9860782   7.4519181   9.2879459  )
        43           O1  tau(  43) = (   5.2759383   7.4519184  12.5772797  )
        44           O1  tau(  44) = (   1.9860712   7.4519187  15.8666135  )
        45           Ti1 tau(  45) = (  -0.0000347   7.4522234   9.2895810  )
        46           Ti1 tau(  46) = (   3.2898254   7.4522237  12.5789147  )
        47           Ti1 tau(  47) = (  -0.0000417   7.4522240  15.8682485  )
        48           O1  tau(  48) = (   4.5934577   7.4534031   9.2879030  )
        49           O1  tau(  49) = (   1.3035906   7.4534034  12.5772368  )
        50           O1  tau(  50) = (   4.5934507   7.4534037  15.8665706  )
        51           Ti1 tau(  51) = (   3.2895107   8.9417832   9.2893338  )
        52           Ti1 tau(  52) = (  -0.0003564   8.9417835  12.5786675  )
        53           Ti1 tau(  53) = (   3.2895037   8.9417838  15.8680013  )
        54           N1  tau(  54) = (   3.2898913   5.9609855  18.1718295  )
        55           H1  tau(  55) = (   3.2898913   5.1545435  18.8094325  )
        56           H1  tau(  56) = (   3.2898913   6.7674275  18.8094325  )
        57           N1  tau(  57) = (   0.0003408   2.9813011  17.9718295  )
        58           H1  tau(  58) = (   0.0003408   2.1748591  18.6094325  )
        59           H1  tau(  59) = (   0.0003408   3.7877431  18.6094325  )

     number of k points=     1  Fermi-Dirac smearing, width (Ry)=  0.0073
                       cart. coord. in units 2pi/alat
        k(    1) = (   0.0000000   0.0000000   0.0000000), wk =   2.0000000

     Initial potential from superposition of free atoms

     starting charge  421.99910, renormalised to  440.00000

     negative rho (up, down):  3.320E-02 0.000E+00

     %%%%%%%%%%%%%%%%%%%%%%%%%%%%%%%%%%%%%%%%%%%%%%%%%%%%%%%%%%%%%%%%%%%%%%%%
     %                                                                      %
     % You are using vdW-DF, which was implemented by the Thonhauser group. %
     % Please cite the following two papers that made this development      %
     % possible and the two reviews that describe the various versions:     %
     %                                                                      %
     %   T. Thonhauser et al., PRL 115, 136402 (2015).                      %
     %   T. Thonhauser et al., PRB 76, 125112 (2007).                       %
     %   K. Berland et al., Rep. Prog. Phys. 78, 066501 (2015).             %
[...]
     atom   31 type  1   force =     0.01135556   -0.00233534    0.00444490
     atom   32 type  1   force =    -0.03562112   -0.04298071    0.02261746
     atom   33 type  2   force =     0.00008212   -0.00050239    0.11260363
     atom   34 type  2   force =     0.00009466   -0.00085583   -0.03991368
     atom   35 type  2   force =     0.00008878    0.01511121    0.06483516
     atom   36 type  1   force =     0.00000375   -0.00050601    0.05813273
     atom   37 type  1   force =     0.00001752   -0.00114319   -0.01510942
     atom   38 type  1   force =     0.00003464   -0.03270815   -0.09922252
     atom   39 type  1   force =     0.00004910   -0.00005159    0.09933675
     atom   40 type  1   force =     0.00005048   -0.00003944   -0.03235666
     atom   41 type  1   force =     0.00005425   -0.03382979    0.01040176
     atom   42 type  1   force =     0.08476181    0.00053236   -0.03304332
     atom   43 type  1   force =    -0.01056717    0.00209952    0.00545511
     atom   44 type  1   force =     0.05959310    0.03045340    0.01766785
     atom   45 type  2   force =    -0.00003916   -0.00049731   -0.14644515
     atom   46 type  2   force =    -0.00002639   -0.01483457    0.00642452
     atom   47 type  2   force =    -0.00000933   -0.01356307    0.12754743
     atom   48 type  1   force =    -0.08485753    0.00022425   -0.03300429
     atom   49 type  1   force =     0.01046028    0.00166958    0.00548170
     atom   50 type  1   force =    -0.05973780    0.03010111    0.01770242
     atom   51 type  2   force =     0.00007385   -0.00040562    0.11197707
     atom   52 type  2   force =     0.00008756   -0.00235648   -0.04228287
     atom   53 type  2   force =     0.00013502   -0.05017155   -0.11982668
     atom   54 type  3   force =    -0.00002187   -0.00129614   -0.03453256
     atom   55 type  4   force =     0.00000398    0.00413634   -0.01912195
     atom   56 type  4   force =    -0.00002720   -0.00464813   -0.01971701
     atom   57 type  3   force =     0.00000544   -0.00340776   -0.03480355
     atom   58 type  4   force =    -0.00001418    0.00204866   -0.02602845
     atom   59 type  4   force =    -0.00000523   -0.00058271   -0.02682461

     Total force =     0.598651     Total SCF correction =     0.000438
  @ DRIVER MODE: Message from server: STATUS
  @ DRIVER MODE: Message from server: GETFORCE
  @ DRIVER MODE: Returning v,forces,stress,ensemble

     Writing config to output data dir ./calc.save/
     Message from routine punch:
     wavefunctions written to file
  @ DRIVER MODE: Message from server: STATUS
  @ DRIVER MODE: Message from server: INIT
  @ DRIVER MODE: Receiving replica           0           0
  @ DRIVER MODE: Receiving encoded integer          25
  @ DRIVER MODE:  SCF:  T  FORCE:  T  STRESS:  F  VC:  F  ENSEMBLE:  F
  @ DRIVER MODE:  SCF:  T  FORCE:  T  STRESS:  F  VC:  F  ENSEMBLE:  F
  @ DRIVER MODE: Message from server: STATUS
  @ DRIVER MODE: Message from server: POSDATA
  @ DRIVER MODE: Reading and sharing positions
  @ DRIVER MODE: Received positions
     NEW-OLD atomic charge density approx. for the potential

[...]

     iteration #  9     ecut=    29.40 Ry     beta= 0.05
     Davidson diagonalization with overlap
     c_bands:  1 eigenvalues not converged
     ethr =  5.32E-08,  avg # of iterations = 20.0

[...]

     Self-consistent Calculation

[...]

     total energy              =   -3293.22103336 Ry
     estimated scf accuracy    <       0.00000009 Ry

     iteration # 20     ecut=    29.40 Ry     beta= 0.05
     Davidson diagonalization with overlap
     ethr =  2.09E-11,  avg # of iterations =  5.0

[...]

     End of self-consistent calculation

          k = 0.0000 0.0000 0.0000 ( 26871 PWs)   bands (ev):

   -58.4729 -58.4490 -58.4443 -58.3670 -58.3180 -58.0172 -57.9592 -57.8972
   -57.8601 -57.7200 -57.6470 -57.5710 -57.4706 -57.1891 -57.1521 -57.1126
   -57.1088 -57.0999 -34.8580 -34.8272 -34.8093 -34.7997 -34.7957 -34.7762
   -34.6906 -34.6517 -34.6347 -34.5689 -34.5652 -34.5639 -34.5480 -34.5160
   -34.5140 -34.4152 -34.3888 -34.3536 -34.3020 -34.2768 -34.2489 -34.2234
   -34.1980 -34.1891 -34.1760 -34.1369 -34.1214 -34.0563 -33.9986 -33.9639
   -33.9509 -33.9379 -33.8791 -33.8633 -33.8491 -33.7833 -33.7567 -33.6872
   -33.6751 -33.6722 -33.5540 -33.4959 -33.4602 -33.4500 -33.4420 -33.4224
   -33.4185 -33.4128 -33.3884 -33.3503 -33.3241 -33.2866 -33.2657 -33.1405
   -19.0180 -18.5071 -18.4869 -18.3536 -18.3107 -18.2885 -18.2629 -18.1151
   -17.9329 -17.8722 -17.7813 -17.7803 -17.7712 -17.7656 -17.7307 -17.7062
   -17.6145 -17.5959 -17.5919 -17.5461 -17.5362 -17.5307 -17.5070 -17.4249
   -17.3335 -17.2960 -17.2866 -17.1700 -17.1326 -16.9014 -16.6205 -16.5570
   -15.5378 -15.4972 -15.4898 -15.2346 -15.1512  -6.7188  -6.5978  -6.3483
    -6.1015  -5.9800  -5.8266  -5.6932  -5.6316  -5.5424  -5.5074  -5.4686
    -5.4502  -5.3720  -5.3514  -5.2892  -5.2303  -5.1751  -5.0783  -5.0601
    -5.0274  -5.0008  -4.9365  -4.9308  -4.8755  -4.8443  -4.8013  -4.7811
    -4.7404  -4.6852  -4.6676  -4.6595  -4.6456  -4.5847  -4.5545  -4.4752
    -4.4594  -4.4033  -4.3607  -4.3115  -4.2254  -4.2237  -4.2047  -4.1729
    -4.1528  -4.1164  -4.0836  -3.9104  -3.8659  -3.8515  -3.8184  -3.7133
    -3.6380  -3.5860  -3.5615  -3.5083  -3.4227  -3.3719  -3.3468  -3.3307
    -3.2922  -3.2250  -3.1915  -3.1455  -3.1209  -3.0811  -3.0240  -3.0229
    -2.9913  -2.9209  -2.9036  -2.8923  -2.8668  -2.8332  -2.8150  -2.7889
    -2.7801  -2.7238  -2.6353  -2.5992  -2.5487  -2.5403  -2.4465  -2.4247
    -2.3926  -2.3694  -2.3417  -2.1841  -2.1783  -2.0999  -1.9918  -1.9901
    -1.9175  -1.9074  -1.8182  -1.7891  -1.7739  -1.7194  -1.7057  -1.5911
    -1.5035  -1.3977  -1.1885  -0.9965  -0.8331  -0.7712  -0.7594  -0.7042
    -0.5507  -0.5320  -0.4484  -0.4301   0.8296   0.9590   1.1052   1.1246
     1.3169   1.4654   1.4743   1.5219   1.5769   1.7161

     the Fermi energy is     0.2316 ev

!    total energy              =   -3293.22103348 Ry
     estimated scf accuracy    <       0.00000004 Ry
     smearing contrib. (-TS)   =      -0.00081514 Ry
     internal energy E=F+TS    =   -3293.22021835 Ry

     The total energy is F=E-TS. E is the sum of the following terms:
     one-electron contribution =  -34586.30608709 Ry
     hartree contribution      =   17355.18841132 Ry
     xc contribution           =    -542.17776144 Ry
     ewald contribution        =   14480.07408236 Ry
     electric field correction =       0.00113651 Ry

     convergence has been achieved in  20 iterations

     Forces acting on atoms (cartesian axes, Ry/au):

     atom    1 type  1   force =    -0.00000730    0.00765810    0.04868373
     atom    2 type  1   force =     0.00002372    0.00006055    0.00012757
     atom    3 type  1   force =    -0.00003875   -0.00099040    0.00057171
     atom    4 type  1   force =     0.00005011    0.00393166    0.10398485
     atom    5 type  1   force =     0.00001864   -0.00029066    0.00044200
     atom    6 type  1   force =    -0.00002547   -0.00046509   -0.00015148
     atom    7 type  1   force =     0.07156216    0.00175212   -0.03728558
     atom    8 type  1   force =     0.00011540   -0.00004737   -0.00006909
     atom    9 type  1   force =     0.00043977    0.00013357   -0.00005556
     atom   10 type  2   force =    -0.00003031   -0.00420305   -0.17678526
     atom   11 type  2   force =    -0.00011586    0.00079741    0.00007955
     atom   12 type  2   force =     0.00001804    0.00119582   -0.00009778
     atom   13 type  1   force =    -0.07165363    0.00140279   -0.03724069
     atom   14 type  1   force =    -0.00018430    0.00005653   -0.00007733
     atom   15 type  1   force =    -0.00039762    0.00007233   -0.00004514
     atom   16 type  2   force =     0.00009295    0.00178731    0.08486449
     atom   17 type  2   force =     0.00019309    0.00055386    0.00011315
     atom   18 type  2   force =    -0.00014915   -0.00065508    0.00015561
     atom   19 type  1   force =     0.00000767    0.00058389    0.06387960
     atom   20 type  1   force =     0.00000536    0.00004065    0.00015740
     atom   21 type  1   force =     0.00004915   -0.00309916    0.10483520
     atom   22 type  1   force =     0.00000531    0.00033534    0.00053502
     atom   23 type  1   force =    -0.00001603    0.00029976    0.00079772
     atom   24 type  1   force =     0.07349403   -0.00042132   -0.03928198
     atom   25 type  1   force =    -0.00010023    0.00001755    0.00009036
     atom   26 type  1   force =     0.00026733   -0.00029258   -0.00001538
     atom   27 type  2   force =    -0.00004705    0.01585243   -0.16278286
     atom   28 type  2   force =    -0.00014804    0.00026699    0.00001965
     atom   29 type  2   force =     0.00007484   -0.00168279   -0.00013037
     atom   30 type  1   force =    -0.07358604   -0.00074720   -0.03923296
     atom   31 type  1   force =     0.00004818    0.00012141    0.00008734
     atom   32 type  1   force =    -0.00018680   -0.00035804    0.00001373
     atom   33 type  2   force =     0.00009049   -0.00480862    0.08784450
     atom   34 type  2   force =     0.00019089   -0.00049146    0.00011560
     atom   35 type  2   force =    -0.00006310    0.00011418   -0.00015090
     atom   36 type  1   force =     0.00002082    0.00044782    0.05759998
     atom   37 type  1   force =     0.00002594    0.00088531    0.00017343
     atom   38 type  1   force =    -0.00001866   -0.00039544   -0.00019995
     atom   39 type  1   force =     0.00004856   -0.00001601    0.10215426
     atom   40 type  1   force =     0.00001710    0.00044786   -0.00016632
     atom   41 type  1   force =    -0.00002403    0.00015469    0.00103525
     atom   42 type  1   force =     0.07460501    0.00244913   -0.03709468
     atom   43 type  1   force =    -0.00056509   -0.00012276   -0.00004605
     atom   44 type  1   force =    -0.00013176   -0.00028395    0.00012031
     atom   45 type  2   force =    -0.00004314   -0.01641502   -0.16126578
     atom   46 type  2   force =    -0.00009138   -0.00121334    0.00037396
     atom   47 type  2   force =     0.00006173    0.00001728   -0.00054407
     atom   48 type  1   force =    -0.07469179    0.00211611   -0.03704290
     atom   49 type  1   force =     0.00043778   -0.00000343   -0.00005166
     atom   50 type  1   force =     0.00021976   -0.00038276    0.00013408
     atom   51 type  2   force =     0.00007870   -0.00566132    0.07157314
     atom   52 type  2   force =     0.00018620    0.00030098   -0.00074659
     atom   53 type  2   force =    -0.00012732    0.00062989    0.00053972
     atom   54 type  3   force =     0.00001374    0.00059217   -0.00032912
     atom   55 type  4   force =     0.00002957   -0.00001875   -0.00000549
     atom   56 type  4   force =    -0.00005704   -0.00007813   -0.00011530
     atom   57 type  3   force =    -0.00000301   -0.00187407    0.00041149
     atom   58 type  4   force =     0.00007027    0.00136184   -0.00052857
     atom   59 type  4   force =    -0.00005941   -0.00141953    0.00002446

     Total force =     0.432843     Total SCF correction =     0.000469
  @ DRIVER MODE: Message from server: STATUS
  @ DRIVER MODE: Message from server: GETFORCE
  @ DRIVER MODE: Returning v,forces,stress,ensemble

     Writing config to output data dir ./calc.save/
     Message from routine punch:
     wavefunctions written to file
  @ DRIVER MODE: Message from server: STATUS
  @ DRIVER MODE: Message from server: INIT
  @ DRIVER MODE: Receiving replica           0           0
  @ DRIVER MODE: Receiving encoded integer           2
  @ DRIVER MODE:  SCF:  T  FORCE:  T  STRESS:  F  VC:  F  ENSEMBLE:  F
  @ DRIVER MODE:  SCF:  F  FORCE:  F  STRESS:  F  VC:  F  ENSEMBLE:  T
  @ DRIVER MODE: Message from server: STATUS
  @ DRIVER MODE: Message from server: POSDATA
  @ DRIVER MODE: Reading and sharing positions
  @ DRIVER MODE: Received positions
     NEW-OLD atomic charge density approx. for the potential

[...]

     Adding external electric field

     Computed dipole along edir(3) :
        Dipole                0.9505 Ry au,          2.4158 Debye
        Dipole field          0.0012 Ry au,

        Potential amp.       -0.1108 Ry
        Total length         46.3494 bohr

  @ DRIVER MODE: BEEF-vdw

[...]

     negative rho (up, down):  3.617E-02 0.000E+00

     negative rho (up, down):  3.617E-02 0.000E+00
 BEEFens 2000 ensemble energies
             -0.389222948365708E+02
             -0.225997239642376E+01
             -0.804516567390770E+01
              0.270126642060520E+02
             -0.133901886691165E+02
             -0.103644521910646E+02
             -0.270321575215318E+02
             -0.565070019770660E+02
             -0.241739040377557E+02
             -0.253998150826202E+02
             -0.235338069367170E+02
              0.478391191488770E+01
              0.222601890388034E+01
             -0.115910512470985E+01
              0.194567480423459E+01
              0.297235388003367E+02
             -0.115098154925115E+02
             -0.813259473545801E+01
              0.131159202942698E+02
             -0.695361525851841E+02
              0.348440037896255E+02
             -0.149028290289527E+02
             -0.270839793534680E+01
             -0.629491881063207E+01
             -0.109326720340584E+01
             -0.242440318486877E+01
              0.539350408627964E+02
             -0.167546146624393E+02
             -0.456182770193686E+01
             -0.340644770787320E+02
              0.441032140532391E+02
             -0.492386609260566E+01
             -0.239780857274162E+02
              0.126440144595550E+02
             -0.229915486121232E+01
              0.145730881361995E+02
             -0.604748818707435E+00
              0.310918000284329E+01
              0.211813104103450E+02
             -0.614105708501309E+02
              0.341727554992645E+02
              0.910886885300643E+01
             -0.698309699818688E+01
             -0.196648586317381E+02
              0.771120937764837E+01
             -0.122787374278722E+02
              0.279295960180625E+02
              0.223513391829888E+02
             -0.143965764226300E+02
             -0.183612547110375E+02
             -0.193615474292790E+02
             -0.233217701244880E+02
              0.117977725952788E+02
             -0.304486654139490E+02
              0.931538018881554E+01
              0.388820108667001E+02
              0.447646593750947E+02
              0.208962596319743E+02
              0.937201199292258E+01
              0.194417590393630E+02
[...]
             -0.457910338282607E+02
              0.307836991792232E+01
             -0.157812972131685E+01
             -0.638213362933334E+01
              0.893074310601492E-01
             -0.407765596505101E+02
             -0.790205657842654E+01
              0.553660267738880E+01
              0.829633715238680E+01
              0.305282912331076E+02
             -0.266667431168072E+02
              0.349304594163119E+02
             -0.249409392911159E+02
              0.160148883349844E+02
              0.252446263122794E+02

 BEEF-vdW xc energy contributions
           1 :   -459.418330980984
           2 :    400.124496588064
           3 :   -304.676000338000
           4 :    205.309603021658
           5 :   -127.383334241949
           6 :    80.7060910773612
           7 :   -60.9425381373957
           8 :    56.9765615907747
           9 :   -58.4987072057082
          10 :    59.8050782483551
          11 :   -59.4911722158555
          12 :    58.0222450978790
          13 :   -55.7159264899068
          14 :    52.2406295919315
          15 :   -47.2671348035506
          16 :    41.1544421665236
          17 :   -35.0123619517913
          18 :    30.1399084783204
          19 :   -27.3527935627644
          20 :    26.6552255128038
          21 :   -27.4098520225772
          22 :    28.7645197723500
          23 :   -30.0141245009539
          24 :    30.7058633324471
          25 :   -30.5694397146248
          26 :    29.4476335627769
          27 :   -27.3315361183483
          28 :    24.4470353558717
          29 :   -21.2871494258355
          30 :    18.5019719791675
          31 :   -53.9161004943762
          32 :   -36.5709010418811
  @ DRIVER MODE: Message from server: STATUS
  @ DRIVER MODE: Message from server: GETFORCE
  @ DRIVER MODE: Returning v,forces,stress,ensemble
  @ DRIVE MODE: Returning Ensemble Energies

     Writing config to output data dir ./calc.save/
     Message from routine punch:
     wavefunctions written to file
  @ DRIVER MODE: Message from server: EXIT
  @ DRIVE MODE: Exiting

     General routines

     Parallel routines

   This run was terminated on:  23:41:46  15Oct2021

   JOB DONE.