     Program PWSCF v.6.7GPU starts on 12Oct2021 at 19:28:29

     R & G space division:  proc/nbgrp/npool/nimage =       8
     Reading input from /storage/home/hcoda1/3/ntian30/research/carbon/ACS_vib/ads_slab/HNNH/out_0014/pw.inp
Warning: card &CELL ignored
Warning: card   CELL_DYNAMICS='IPI', ignored
Warning: card / ignored

     Current dimensions of program PWSCF are:
     Max number of different atomic species (ntypx) = 10
     Max number of k-points (npk) =  40000
     Max angular momentum in pseudopotentials (lmaxx) =  3
     Presently no symmetry can be used with electric field

     Message from routine cell_base_init:
     DEPRECATED: use true lattice parameter, not A to a.u. conversion factor

     IMPORTANT: XC functional enforced from input :
     Exchange-correlation= BEEF-VDW
                           (   1   4  43  14   2   0   0)
     Any further DFT definition will be discarded
     Please, verify this is what you really want

  @ DRIVER MODE: Connecting to
 qe_1139763_3181311.sched-torque.pace.gatech.edu34cpga44_scratch
  using UNIX socket
  @ DRIVER MODE: Message from server: STATUS
  @ DRIVER MODE: Message from server: INIT
  @ DRIVER MODE: Receiving replica           0          -1
  @ DRIVER MODE: Receiving encoded integer          25
  @ DRIVER MODE:  SCF:  T  FORCE:  T  STRESS:  F  VC:  F  ENSEMBLE:  F
  @ DRIVER MODE:  SCF:  T  FORCE:  T  STRESS:  F  VC:  F  ENSEMBLE:  F

     Using Slab Decomposition

     bravais-lattice index     =            0
     lattice parameter (alat)  =       1.8897  a.u.
     unit-cell volume          =    6658.9804 (a.u.)^3
     number of atoms/cell      =           51
     number of atomic types    =            4
     number of electrons       =       390.00
     number of Kohn-Sham states=          205
     kinetic-energy cutoff     =      29.3995  Ry
     charge density cutoff     =     293.9946  Ry
     scf convergence threshold =      7.3E-08
     mixing beta               =       0.0500
     number of iterations used =            8  plain     mixing
     Exchange-correlation= BEEF-VDW
                           (   1   4  43  14   2   0   0)

     celldm(1)=   1.889726  celldm(2)=   0.000000  celldm(3)=   0.000000
     celldm(4)=   0.000000  celldm(5)=   0.000000  celldm(6)=   0.000000

     crystal axes: (cart. coord. in units of alat)
               a(1) = (   6.579727   0.000000   0.000000 )
               a(2) = (  -0.000775   5.961596   0.000000 )
               a(3) = (   0.000000   0.000000  25.155947 )

     reciprocal axes: (cart. coord. in units 2 pi/alat)
               b(1) = (  0.151982  0.000020  0.000000 )
               b(2) = (  0.000000  0.167740  0.000000 )
               b(3) = (  0.000000  0.000000  0.039752 )

     PseudoPot. # 1 for Ti read from file:
     /storage/coda1/p-amedford6/0/shared/rich_project_chbe-medford/medford-share/data/pseudos_module/espresso/nninc/pbe/van/Ti.UPF
     MD5 check sum: 8e4df49b7f0d34bbd5052bf3f5ea0213
     Pseudo is Ultrasoft, Zval = 12.0
     Generated by new atomic code, or converted to UPF format
     Using radial grid of  851 points,  6 beta functions with:
                l(1) =   0
                l(2) =   0
                l(3) =   1
                l(4) =   1
                l(5) =   2
                l(6) =   2
     Q(r) pseudized with  8 coefficients,  rinner =    1.000   1.000   1.000
                                                       1.000   1.000

     PseudoPot. # 2 for O  read from file:
     /storage/coda1/p-amedford6/0/shared/rich_project_chbe-medford/medford-share/data/pseudos_module/espresso/nninc/pbe/van/O.UPF
     MD5 check sum: 78c19812648e8988a0fe644b0f25305e
     Pseudo is Ultrasoft, Zval =  6.0
     Generated by new atomic code, or converted to UPF format
     Using radial grid of  737 points,  4 beta functions with:
                l(1) =   0
                l(2) =   0
                l(3) =   1
                l(4) =   1
     Q(r) pseudized with  8 coefficients,  rinner =    0.800   0.800   0.800

     PseudoPot. # 3 for H  read from file:
     /storage/coda1/p-amedford6/0/shared/rich_project_chbe-medford/medford-share/data/pseudos_module/espresso/nninc/pbe/van/H.UPF
     MD5 check sum: b5ee9d7bfd3a09ee7748110bda690ff7
     Pseudo is Ultrasoft, Zval =  1.0
     Generated by new atomic code, or converted to UPF format
     Using radial grid of  615 points,  1 beta functions with:
                l(1) =   0
     Q(r) pseudized with  8 coefficients,  rinner =    0.800

     PseudoPot. # 4 for N  read from file:
     /storage/coda1/p-amedford6/0/shared/rich_project_chbe-medford/medford-share/data/pseudos_module/espresso/nninc/pbe/van/N.UPF
     MD5 check sum: 90d10febe142ad51ac9d5be1deb811c4
     Pseudo is Ultrasoft, Zval =  5.0
     Generated by new atomic code, or converted to UPF format
     Using radial grid of  729 points,  4 beta functions with:
                l(1) =   0
                l(2) =   0
                l(3) =   1
                l(4) =   1
     Q(r) pseudized with  8 coefficients,  rinner =    0.800   0.800   0.800

     atomic species   valence    mass     pseudopotential
        Ti1           12.00    47.86700     Ti( 1.00)
        O1             6.00    15.99900     O ( 1.00)
        H1             1.00     1.00800     H ( 1.00)
        N1             5.00    14.00700     N ( 1.00)

     No symmetry found

   Cartesian axes

     site n.     atom                  positions (alat units)
         1           Ti1 tau(   1) = (   0.0004258   2.9801865   6.0000000  )
         2           Ti1 tau(   2) = (   3.2906075   1.4906267   6.0002472  )
         3           O1  tau(   3) = (   0.0006271   0.0005054   7.9858123  )
         4           O1  tau(   4) = (   3.2906025   0.0005020   7.3038282  )
         5           O1  tau(   5) = (   4.5942328   1.4918067   9.2879030  )
         6           O1  tau(   6) = (   1.9868534   1.4903216   9.2879459  )
         7           Ti1 tau(   7) = (   3.2908881   2.9042228   9.1664735  )
         8           Ti1 tau(   8) = (   0.0028208   1.4453605   9.2576896  )
         9           O1  tau(   9) = (   3.2707936   0.0024169  11.3547307  )
        10           O1  tau(  10) = (   6.5771562   5.9613851  10.5998947  )
        11           O1  tau(  11) = (   1.2750810   1.4887983  12.6623546  )
        12           O1  tau(  12) = (   5.2735957   1.4941237  12.6366476  )
        13           Ti1 tau(  13) = (   6.5484273   3.0048924  12.8091026  )
        14           Ti1 tau(  14) = (   3.2635572   1.4892482  12.5038529  )
        15           O1  tau(  15) = (   6.5112577   5.9342846  14.6610847  )
        16           O1  tau(  16) = (   3.2966729   5.9487847  13.9562402  )
        17           O1  tau(  17) = (   4.4981853   1.5100712  16.1215815  )
        18           O1  tau(  18) = (   1.9927245   1.4809274  16.0269182  )
        19           Ti1 tau(  19) = (   3.2349744   2.9714856  15.7300180  )
        20           Ti1 tau(  20) = (   6.5689460   1.3052557  15.9023701  )
        21           O1  tau(  21) = (   3.2904802   0.0005063   4.7018136  )
        22           O1  tau(  22) = (   6.5497555   0.0700294  17.2054191  )
        23           O1  tau(  23) = (   1.3043587   1.4918075   6.0039043  )
        24           O1  tau(  24) = (   5.2767064   1.4903225   6.0039473  )
        25           Ti1 tau(  25) = (   0.0000382   5.9609847   6.0000000  )
        26           Ti1 tau(  26) = (   3.2902200   4.4714249   6.0002472  )
        27           O1  tau(  27) = (   0.0002396   2.9813036   7.9858123  )
        28           O1  tau(  28) = (   3.2902150   2.9813002   7.3038282  )
        29           O1  tau(  29) = (   4.5938453   4.4726049   9.2879030  )
        30           O1  tau(  30) = (   1.9864658   4.4711199   9.2879459  )
        31           Ti1 tau(  31) = (   3.2899333   5.8856170   9.1744801  )
        32           Ti1 tau(  32) = (   0.0020137   4.3658053   9.3606106  )
        33           O1  tau(  33) = (   3.2690173   2.9735267  11.3530824  )
        34           O1  tau(  34) = (   0.0002412   2.9750176  10.5666245  )
        35           O1  tau(  35) = (   1.2748646   4.4726994  12.6423647  )
        36           O1  tau(  36) = (   5.2720213   4.4664742  12.6163582  )
        37           Ti1 tau(  37) = (   6.5582605   0.0201509  12.4985948  )
        38           Ti1 tau(  38) = (   3.2618569   4.4653106  12.4956167  )
        39           O1  tau(  39) = (   6.5348066   3.0079926  14.7180217  )
        40           O1  tau(  40) = (   3.2797409   2.9875293  13.9337705  )
        41           O1  tau(  41) = (   4.5027845   4.4373921  16.1556124  )
        42           O1  tau(  42) = (   1.9850320   4.4617864  16.0830993  )
        43           Ti1 tau(  43) = (   3.2823567   5.9555293  15.7495178  )
        44           Ti1 tau(  44) = (   6.5552429   4.5047081  16.0597439  )
        45           O1  tau(  45) = (   3.2900926   2.9813045   4.7018136  )
        46           O1  tau(  46) = (   1.3039711   4.4726057   6.0039043  )
        47           O1  tau(  47) = (   5.2763189   4.4711207   6.0039473  )
        48           H1  tau(  48) = (   0.5659039   2.5807529  19.4396776  )
        49           N1  tau(  49) = (   0.9330341   2.9538053  18.5544450  )
        50           N1  tau(  50) = (   6.5341730   3.1816813  17.7405862  )
        51           H1  tau(  51) = (   5.5906726   3.0068531  18.1306748  )

     number of k points=    10  Fermi-Dirac smearing, width (Ry)=  0.0073
                       cart. coord. in units 2pi/alat
        k(    1) = (   0.0000000   0.0000000   0.0000000), wk =   0.1250000
        k(    2) = (   0.0000000   0.0419351   0.0000000), wk =   0.2500000
        k(    3) = (   0.0000000  -0.0838702   0.0000000), wk =   0.1250000
        k(    4) = (   0.0379955   0.0000049   0.0000000), wk =   0.2500000
        k(    5) = (   0.0379955   0.0419400   0.0000000), wk =   0.2500000
        k(    6) = (   0.0379955  -0.0838652   0.0000000), wk =   0.2500000
        k(    7) = (   0.0379955  -0.0419301   0.0000000), wk =   0.2500000
        k(    8) = (  -0.0759910  -0.0000099   0.0000000), wk =   0.1250000
        k(    9) = (  -0.0759910   0.0419252   0.0000000), wk =   0.2500000
        k(   10) = (  -0.0759910  -0.0838800   0.0000000), wk =   0.1250000

     Initial potential from superposition of free atoms

     starting charge  373.99921, renormalised to  390.00000

     negative rho (up, down):  1.941E-02 0.000E+00

     %%%%%%%%%%%%%%%%%%%%%%%%%%%%%%%%%%%%%%%%%%%%%%%%%%%%%%%%%%%%%%%%%%%%%%%%
     %                                                                      %
     % You are using vdW-DF, which was implemented by the Thonhauser group. %
     % Please cite the following two papers that made this development      %
     % possible and the two reviews that describe the various versions:     %
     %                                                                      %
     %   T. Thonhauser et al., PRL 115, 136402 (2015).                      %
     %   T. Thonhauser et al., PRB 76, 125112 (2007).                       %
     %   K. Berland et al., Rep. Prog. Phys. 78, 066501 (2015).             %
     %   D.C. Langreth et al., J. Phys.: Condens. Matter 21, 084203 (2009). %
     %                                                                      %
     %                                                                      %
     % If you are calculating the stress with vdW-DF, please also cite:     %
     %                                                                      %
     %   R. Sabatini et al., J. Phys.: Condens. Matter 24, 424209 (2012).   %
     %                                                                      %
     %%%%%%%%%%%%%%%%%%%%%%%%%%%%%%%%%%%%%%%%%%%%%%%%%%%%%%%%%%%%%%%%%%%%%%%%

     Adding external electric field

     Computed dipole along edir(3) :
        Dipole               -5.1488 Ry au,        -13.0871 Debye
        Dipole field         -0.0097 Ry au,

        Potential amp.        0.9007 Ry
        Total length         46.3494 bohr

     Starting wfcs are  294 atomic wfcs
  @ DRIVER MODE: Message from server: STATUS
  @ DRIVER MODE: Message from server: POSDATA
  @ DRIVER MODE: Reading and sharing cell
  @ DRIVER MODE: Reading and sharing positions
  @ DRIVER MODE: Received positions

     Self-consistent Calculation

     iteration #  1     ecut=    29.40 Ry     beta= 0.05
     Davidson diagonalization with overlap
     c_bands:  5 eigenvalues not converged
     c_bands:  1 eigenvalues not converged
     c_bands:  3 eigenvalues not converged
     c_bands:  3 eigenvalues not converged
     c_bands:  1 eigenvalues not converged
     c_bands:  3 eigenvalues not converged
     c_bands:  2 eigenvalues not converged
     c_bands:  3 eigenvalues not converged
     ethr =  1.00E-05,  avg # of iterations = 20.5

[...]

     total energy              =   -2838.00455086 Ry
     estimated scf accuracy    <     990.16893444 Ry

     iteration #  2     ecut=    29.40 Ry     beta= 0.05
     Davidson diagonalization with overlap
     ethr =  1.00E-02,  avg # of iterations = 16.7

[...]

     iteration # 62     ecut=    29.40 Ry     beta= 0.05
     Davidson diagonalization with overlap
     c_bands:  1 eigenvalues not converged
     ethr =  9.22E-11,  avg # of iterations = 15.6

[...]

     total energy              =   -2926.39960018 Ry
     estimated scf accuracy    <       0.00000022 Ry

     iteration # 63     ecut=    29.40 Ry     beta= 0.05
     Davidson diagonalization with overlap
     ethr =  5.57E-11,  avg # of iterations = 15.3

     negative rho (up, down):  1.911E-02 0.000E+00

     Adding external electric field

     Computed dipole along edir(3) :
        Dipole                0.7968 Ry au,          2.0254 Debye
        Dipole field          0.0015 Ry au,

        Potential amp.       -0.1394 Ry
        Total length         46.3494 bohr

     End of self-consistent calculation

          k = 0.0000 0.0000 0.0000 ( 18029 PWs)   bands (ev):

   -55.9490 -55.9355 -55.9112 -55.8990 -55.8588 -55.8170 -55.7952 -55.7818
   -55.7233 -55.6992 -55.6655 -55.6087 -55.5593 -55.4926 -54.9162 -54.8821
   -32.5030 -32.4149 -32.2995 -32.2891 -32.2665 -32.2432 -32.2186 -32.1915
   -32.1841 -32.1761 -32.1575 -32.1437 -32.1192 -32.1157 -32.1082 -32.0908
   -32.0828 -32.0666 -32.0469 -32.0372 -32.0131 -31.9999 -31.9914 -31.9907
   -31.9761 -31.9613 -31.9429 -31.9351 -31.9223 -31.9144 -31.9085 -31.8834
   -31.8753 -31.8478 -31.8301 -31.8149 -31.8097 -31.7968 -31.7901 -31.7260
   -31.6764 -31.6047 -31.3243 -31.2331 -31.2104 -31.1407 -31.0543 -30.9435
   -18.1853 -16.7063 -16.4047 -16.2719 -16.1235 -16.0774 -15.9767 -15.7921
   -15.6905 -15.6383 -15.5745 -15.5527 -15.5478 -15.4989 -15.4873 -15.4810
   -15.4563 -15.4172 -15.3823 -15.3409 -15.3377 -15.3305 -15.2973 -15.2353
   -15.2083 -15.1083 -15.0536 -14.9572 -14.9533 -14.8244 -13.4190 -13.3021
   -10.2776  -6.6764  -4.0563  -3.9441  -3.8715  -3.8263  -3.7705  -3.5683
    -3.5140  -3.3329  -3.2518  -3.1396  -3.0959  -3.0771  -3.0702  -3.0199
    -2.8681  -2.7673  -2.7589  -2.7439  -2.7246  -2.7103  -2.7015  -2.7001
    -2.6792  -2.6439  -2.5628  -2.5069  -2.4355  -2.3693  -2.3182  -2.2385
    -2.2322  -2.2147  -2.2013  -2.1936  -2.1587  -2.1497  -2.1413  -2.0115
    -1.9936  -1.8991  -1.7771  -1.7565  -1.6435  -1.5596  -1.5450  -1.4124
    -1.3757  -1.3420  -1.3087  -1.2639  -1.2310  -1.2218  -1.1467  -1.1044
    -1.0084  -0.9715  -0.8722  -0.8282  -0.8228  -0.7668  -0.6837  -0.6722
    -0.6583  -0.5248  -0.4337  -0.4245  -0.4199  -0.3391  -0.2803  -0.2281
    -0.1818  -0.1727  -0.1548  -0.1150  -0.0891   0.0118   0.0215   0.0555
     0.0689   0.1075   0.1966   0.2650   0.2784   0.3384   0.3543   0.5635
     0.5741   0.5927   0.7250   0.7708   1.0201   1.1052   1.1310   1.2926
     1.6855   1.7404   3.1574   3.2457   3.2617   3.2986   3.3617   3.4085
     3.5621   3.6124   3.6578   3.6847   3.7095

[...]

          k = 0.0380-0.0419 0.0000 ( 17876 PWs)   bands (ev):

[...]

          k =-0.0760-0.0000 0.0000 ( 17886 PWs)   bands (ev):

[...]

          k =-0.0760-0.0839 0.0000 ( 17948 PWs)   bands (ev):

   -55.9384 -55.9217 -55.9200 -55.9143 -55.8537 -55.8066 -55.8001 -55.7921
   -55.7203 -55.6826 -55.6822 -55.6113 -55.5549 -55.4969 -54.8996 -54.8986
   -32.3079 -32.3035 -32.2410 -32.2404 -32.2310 -32.2226 -32.2064 -32.2051
   -32.1487 -32.1450 -32.1398 -32.1328 -32.1169 -32.0912 -32.0713 -32.0640
   -32.0597 -32.0585 -32.0549 -32.0527 -32.0406 -32.0217 -32.0145 -32.0067
   -32.0048 -32.0018 -32.0000 -31.9960 -31.9464 -31.9240 -31.9197 -31.9195
   -31.9045 -31.8920 -31.8878 -31.8809 -31.8370 -31.8133 -31.8066 -31.7300
   -31.7141 -31.6490 -31.2238 -31.2225 -31.1376 -31.1367 -31.0980 -31.0969
   -18.1805 -16.1443 -16.1160 -15.9667 -15.8752 -15.8640 -15.8182 -15.7607
   -15.7321 -15.6772 -15.6438 -15.6239 -15.6078 -15.5913 -15.5671 -15.5181
   -15.4672 -15.4613 -15.4513 -15.4370 -15.3854 -15.3759 -15.3509 -15.3441
   -15.3196 -15.2548 -15.2331 -15.1871 -15.1076 -14.9906 -13.4057 -13.4020
   -10.2823  -6.6771  -3.4300  -3.3970  -3.3368  -3.2039  -3.0897  -3.0851
    -3.0066  -2.9474  -2.9084  -2.8552  -2.8179  -2.7884  -2.7592  -2.7539
    -2.7447  -2.7318  -2.7287  -2.7095  -2.6877  -2.6790  -2.6441  -2.6274
    -2.6014  -2.5975  -2.5535  -2.5417  -2.5272  -2.4844  -2.4814  -2.4759
    -2.4715  -2.2858  -2.2427  -2.1945  -2.1451  -2.0629  -2.0469  -2.0409
    -1.9927  -1.9788  -1.9673  -1.9018  -1.8073  -1.6875  -1.6516  -1.6279
    -1.6159  -1.5752  -1.4020  -1.3663  -1.3511  -1.3334  -1.3000  -1.2443
    -1.2128  -1.1927  -1.0984  -1.0773  -1.0347  -0.9607  -0.9038  -0.8836
    -0.8547  -0.8165  -0.7725  -0.7325  -0.6901  -0.6748  -0.6099  -0.5613
    -0.5165  -0.4975  -0.4787  -0.3977  -0.3224  -0.2914  -0.0892   0.0421
     0.0774   0.0902   0.2267   0.2415   0.2776   0.3509   0.3812   0.4275
     0.4854   0.5933   0.5941   0.6086   0.6187   0.6749   1.4665   1.4711
     1.5456   1.5576   3.2235   3.4047   3.4493   3.4876   3.5500   3.6935
     3.7176   3.7191   3.7420   3.7944   3.8630

     the Fermi energy is     3.2027 ev

!    total energy              =   -2926.39963044 Ry
     estimated scf accuracy    <       0.00000004 Ry
     smearing contrib. (-TS)   =      -0.03285645 Ry
     internal energy E=F+TS    =   -2926.36677399 Ry

     The total energy is F=E-TS. E is the sum of the following terms:
     one-electron contribution =  -24581.37710371 Ry
     hartree contribution      =   12374.90329453 Ry
     xc contribution           =    -480.79280298 Ry
     ewald contribution        =    9760.89863992 Ry
     electric field correction =       0.00119825 Ry

     convergence has been achieved in  63 iterations

     Forces acting on atoms (cartesian axes, Ry/au):

     atom    1 type  1   force =     0.00019938    0.00161352    0.10333692
     atom    2 type  1   force =     0.00006521   -0.00227654   -0.17661689
     atom    3 type  2   force =     0.00018088    0.00647609   -0.03461764
     atom    4 type  2   force =    -0.00004867   -0.00102663    0.05241503
     atom    5 type  2   force =    -0.01731329   -0.00087001    0.00516690
     atom    6 type  2   force =     0.01632600   -0.00066456    0.00402706
     atom    7 type  1   force =     0.00051238    0.00280542   -0.00771217
     atom    8 type  1   force =    -0.00011236   -0.00003405    0.00049704
     atom    9 type  2   force =     0.00014213   -0.00018698   -0.00050707
     atom   10 type  2   force =     0.00007097   -0.00015287   -0.00039892
     atom   11 type  2   force =     0.00025446    0.00017889    0.00032453
     atom   12 type  2   force =     0.00018380    0.00030841    0.00021865
     atom   13 type  1   force =    -0.00040256    0.00066814   -0.00091500
     atom   14 type  1   force =    -0.00040437   -0.00004284   -0.00108018
     atom   15 type  2   force =     0.00014249    0.00085538    0.00023137
     atom   16 type  2   force =     0.00004775   -0.00015470    0.00098745
     atom   17 type  2   force =     0.00056786    0.00051783    0.00056536
     atom   18 type  2   force =    -0.00052078    0.00033380    0.00027097
     atom   19 type  1   force =     0.00012042   -0.00044163    0.00011778
     atom   20 type  1   force =    -0.00004482   -0.00185494   -0.00084079
     atom   21 type  2   force =     0.00012799   -0.00007493    0.10330300
     atom   22 type  2   force =    -0.00037921    0.00034441    0.00208017
     atom   23 type  2   force =    -0.07031625    0.00113236   -0.02965959
     atom   24 type  2   force =     0.07030478    0.00156313   -0.02966499
     atom   25 type  1   force =     0.00010771   -0.00166439    0.11621857
     atom   26 type  1   force =    -0.00002210    0.00127732   -0.17609566
     atom   27 type  2   force =     0.00010984   -0.00260277   -0.02895356
     atom   28 type  2   force =    -0.00004182   -0.00141234    0.05146698
     atom   29 type  2   force =    -0.01882978    0.00097931    0.00643373
     atom   30 type  2   force =     0.01783341    0.00162499    0.00534838
     atom   31 type  1   force =     0.00051812   -0.00133354   -0.01368658
     atom   32 type  1   force =    -0.00011129   -0.00101498    0.00067582
     atom   33 type  2   force =     0.00007460   -0.00014558   -0.00046756
     atom   34 type  2   force =     0.00008439   -0.00065572    0.00084746
     atom   35 type  2   force =     0.00036793   -0.00020161    0.00042615
     atom   36 type  2   force =     0.00007791   -0.00015117    0.00032063
     atom   37 type  1   force =    -0.00012871    0.00021298   -0.00011756
     atom   38 type  1   force =    -0.00052194   -0.00054399   -0.00086461
     atom   39 type  2   force =    -0.00040761   -0.00056258    0.00114475
     atom   40 type  2   force =     0.00010983   -0.00014829    0.00163808
     atom   41 type  2   force =     0.00074703   -0.00062928    0.00063904
     atom   42 type  2   force =    -0.00065424   -0.00017370   -0.00000831
     atom   43 type  1   force =     0.00011839    0.00019155   -0.00016873
     atom   44 type  1   force =     0.00014157    0.00162309   -0.00076064
     atom   45 type  2   force =     0.00012309   -0.00004248    0.10349870
     atom   46 type  2   force =    -0.07074578   -0.00147221   -0.02962265
     atom   47 type  2   force =     0.07072575   -0.00104201   -0.02965707
     atom   48 type  3   force =     0.00036944   -0.00061791    0.00046893
     atom   49 type  4   force =     0.01134360   -0.00152176    0.00645243
     atom   50 type  4   force =    -0.02116630    0.00000072   -0.00158613
     atom   51 type  3   force =     0.01007276    0.00100961   -0.00511958

     Total force =     0.375611     Total SCF correction =     0.000642
  @ DRIVER MODE: Message from server: STATUS
  @ DRIVER MODE: Message from server: GETFORCE
  @ DRIVER MODE: Returning v,forces,stress,ensemble

     Writing output data file ./calc.save/
  @ DRIVER MODE: Message from server: EXIT
  @ DRIVE MODE: Exiting

     General routines

     Parallel routines

   This run was terminated on:  20: 7:13  12Oct2021

   JOB DONE.