     Program PWSCF v.6.7GPU starts on 15Sep2021 at 15:34:19

     R & G space division:  proc/nbgrp/npool/nimage =      10
     Reading input from /storage/home/hcoda1/3/ntian30/research/carbon/CxH_vib/H2O_calc/ads_slab/CH2NHNH2O_a/out_0000/pw.inp
Warning: card &CELL ignored
Warning: card   CELL_DYNAMICS='IPI', ignored
Warning: card / ignored

     Current dimensions of program PWSCF are:
     Max number of different atomic species (ntypx) = 10
     Max number of k-points (npk) =  40000
     Max angular momentum in pseudopotentials (lmaxx) =  3
     Presently no symmetry can be used with electric field

     Message from routine cell_base_init:
     DEPRECATED: use true lattice parameter, not A to a.u. conversion factor

     IMPORTANT: XC functional enforced from input :
     Exchange-correlation= BEEF-VDW
                           (   1   4  43  14   2   0   0)
     Any further DFT definition will be discarded
     Please, verify this is what you really want

  @ DRIVER MODE: Connecting to
 qe_1139763_2852610.sched-torque.pace.gatech.eduae0cz96u_scratch
  using UNIX socket
  @ DRIVER MODE: Message from server: STATUS
  @ DRIVER MODE: Message from server: INIT
  @ DRIVER MODE: Receiving replica           0          -1
  @ DRIVER MODE: Receiving encoded integer          25
  @ DRIVER MODE:  SCF:  T  FORCE:  T  STRESS:  F  VC:  F  ENSEMBLE:  F
  @ DRIVER MODE:  SCF:  T  FORCE:  T  STRESS:  F  VC:  F  ENSEMBLE:  F

     Using Slab Decomposition

     bravais-lattice index     =            0
     lattice parameter (alat)  =       1.8897  a.u.
     unit-cell volume          =    6658.9804 (a.u.)^3
     number of atoms/cell      =           56
     number of atomic types    =            5
     number of electrons       =       403.00
     number of Kohn-Sham states=          211
     kinetic-energy cutoff     =      29.3995  Ry
     charge density cutoff     =     293.9946  Ry
     scf convergence threshold =      7.3E-08
     mixing beta               =       0.0500
     number of iterations used =            8  plain     mixing
     Exchange-correlation= BEEF-VDW
                           (   1   4  43  14   2   0   0)

     celldm(1)=   1.889726  celldm(2)=   0.000000  celldm(3)=   0.000000
     celldm(4)=   0.000000  celldm(5)=   0.000000  celldm(6)=   0.000000

     crystal axes: (cart. coord. in units of alat)
               a(1) = (   6.579727   0.000000   0.000000 )
               a(2) = (  -0.000775   5.961596   0.000000 )
               a(3) = (   0.000000   0.000000  25.155947 )

     reciprocal axes: (cart. coord. in units 2 pi/alat)
               b(1) = (  0.151982  0.000020  0.000000 )
               b(2) = (  0.000000  0.167740  0.000000 )
               b(3) = (  0.000000  0.000000  0.039752 )

     PseudoPot. # 1 for Ti read from file:
     /storage/coda1/p-amedford6/0/shared/rich_project_chbe-medford/medford-share/data/pseudos_module/espresso/nninc/pbe/van/Ti.UPF
     MD5 check sum: 8e4df49b7f0d34bbd5052bf3f5ea0213
     Pseudo is Ultrasoft, Zval = 12.0
     Generated by new atomic code, or converted to UPF format
     Using radial grid of  851 points,  6 beta functions with:
                l(1) =   0
                l(2) =   0
                l(3) =   1
                l(4) =   1
                l(5) =   2
                l(6) =   2
     Q(r) pseudized with  8 coefficients,  rinner =    1.000   1.000   1.000
                                                       1.000   1.000

     PseudoPot. # 2 for O  read from file:
     /storage/coda1/p-amedford6/0/shared/rich_project_chbe-medford/medford-share/data/pseudos_module/espresso/nninc/pbe/van/O.UPF
     MD5 check sum: 78c19812648e8988a0fe644b0f25305e
     Pseudo is Ultrasoft, Zval =  6.0
     Generated by new atomic code, or converted to UPF format
     Using radial grid of  737 points,  4 beta functions with:
                l(1) =   0
                l(2) =   0
                l(3) =   1
                l(4) =   1
     Q(r) pseudized with  8 coefficients,  rinner =    0.800   0.800   0.800

     PseudoPot. # 3 for H  read from file:
     /storage/coda1/p-amedford6/0/shared/rich_project_chbe-medford/medford-share/data/pseudos_module/espresso/nninc/pbe/van/H.UPF
     MD5 check sum: b5ee9d7bfd3a09ee7748110bda690ff7
     Pseudo is Ultrasoft, Zval =  1.0
     Generated by new atomic code, or converted to UPF format
     Using radial grid of  615 points,  1 beta functions with:
                l(1) =   0
     Q(r) pseudized with  8 coefficients,  rinner =    0.800

     PseudoPot. # 4 for N  read from file:
     /storage/coda1/p-amedford6/0/shared/rich_project_chbe-medford/medford-share/data/pseudos_module/espresso/nninc/pbe/van/N.UPF
     MD5 check sum: 90d10febe142ad51ac9d5be1deb811c4
     Pseudo is Ultrasoft, Zval =  5.0
     Generated by new atomic code, or converted to UPF format
     Using radial grid of  729 points,  4 beta functions with:
                l(1) =   0
                l(2) =   0
                l(3) =   1
                l(4) =   1
     Q(r) pseudized with  8 coefficients,  rinner =    0.800   0.800   0.800

     PseudoPot. # 5 for C  read from file:
     /storage/coda1/p-amedford6/0/shared/rich_project_chbe-medford/medford-share/data/pseudos_module/espresso/nninc/pbe/van/C.UPF
     MD5 check sum: 1a69bf6b8db32088f5b2163dbdb77a27
     Pseudo is Ultrasoft, Zval =  4.0
     Generated by new atomic code, or converted to UPF format
     Using radial grid of  721 points,  4 beta functions with:
                l(1) =   0
                l(2) =   0
                l(3) =   1
                l(4) =   1
     Q(r) pseudized with  8 coefficients,  rinner =    0.800   0.800   0.800

     atomic species   valence    mass     pseudopotential
        Ti1           12.00    47.86700     Ti( 1.00)
        O1             6.00    15.99900     O ( 1.00)
        H1             1.00     1.00800     H ( 1.00)
        N1             5.00    14.00700     N ( 1.00)
        C1             4.00    12.01100     C ( 1.00)

     No symmetry found

   Cartesian axes

     site n.     atom                  positions (alat units)
         1           Ti1 tau(   1) = (   0.0004258   2.9801865   6.0000000  )
         2           Ti1 tau(   2) = (   3.2906075   1.4906267   6.0002472  )
         3           O1  tau(   3) = (   0.0006271   0.0005054   7.9858123  )
         4           O1  tau(   4) = (   3.2906025   0.0005020   7.3038282  )
         5           O1  tau(   5) = (   4.5942328   1.4918067   9.2879030  )
         6           O1  tau(   6) = (   1.9868534   1.4903216   9.2879459  )
         7           Ti1 tau(   7) = (   3.2907910   2.8959150   9.1758416  )
         8           Ti1 tau(   8) = (   0.0015273   1.4827037   9.2680791  )
         9           O1  tau(   9) = (   3.2960012   0.0062018  11.3595187  )
        10           O1  tau(  10) = (   0.0116148   5.9584955  10.6183126  )
        11           O1  tau(  11) = (   1.2731109   1.5057875  12.6314550  )
        12           O1  tau(  12) = (   5.2959999   1.4755877  12.6679080  )
        13           Ti1 tau(  13) = (   0.0553992   2.9538365  12.5526742  )
        14           Ti1 tau(  14) = (   3.3268292   1.5427496  12.5634199  )
        15           O1  tau(  15) = (   0.1371361   5.9015051  14.6217027  )
        16           O1  tau(  16) = (   3.1880369   0.0098958  13.9252199  )
        17           O1  tau(  17) = (   4.6462182   1.4014471  15.8552565  )
        18           O1  tau(  18) = (   2.0822703   1.5558083  16.1249119  )
        19           Ti1 tau(  19) = (   3.3548958   3.0525267  15.8597497  )
        20           Ti1 tau(  20) = (   0.0948755   1.3182250  15.7908873  )
        21           O1  tau(  21) = (   3.2904802   0.0005063   4.7018136  )
        22           O1  tau(  22) = (   0.0722171   0.0319689  17.1393915  )
        23           O1  tau(  23) = (   1.3043587   1.4918075   6.0039043  )
        24           O1  tau(  24) = (   5.2767064   1.4903225   6.0039473  )
        25           Ti1 tau(  25) = (   0.0000382   5.9609847   6.0000000  )
        26           Ti1 tau(  26) = (   3.2902200   4.4714249   6.0002472  )
        27           O1  tau(  27) = (   0.0002396   2.9813036   7.9858123  )
        28           O1  tau(  28) = (   3.2902150   2.9813002   7.3038282  )
        29           O1  tau(  29) = (   4.5938453   4.4726049   9.2879030  )
        30           O1  tau(  30) = (   1.9864658   4.4711199   9.2879459  )
        31           Ti1 tau(  31) = (   3.2891106   5.8743827   9.1763621  )
        32           Ti1 tau(  32) = (   0.0006254   4.4649316   9.2693709  )
        33           O1  tau(  33) = (   3.2982667   2.9897935  11.3544942  )
        34           O1  tau(  34) = (   0.0092240   2.9805883  10.6323155  )
        35           O1  tau(  35) = (   1.2737041   4.4504026  12.6113924  )
        36           O1  tau(  36) = (   5.2903739   4.4874249  12.6576873  )
        37           Ti1 tau(  37) = (   6.5697415   5.9260651  12.4959683  )
        38           Ti1 tau(  38) = (   3.3125242   4.5024033  12.5372123  )
        39           O1  tau(  39) = (   0.0674008   2.9793056  14.8363759  )
        40           O1  tau(  40) = (   3.2999477   2.9756493  13.9369993  )
        41           O1  tau(  41) = (   4.6108370   4.5787535  15.7719701  )
        42           O1  tau(  42) = (   2.0428421   4.3627697  16.1441833  )
        43           Ti1 tau(  43) = (   3.3552955   0.0804576  15.7648105  )
        44           Ti1 tau(  44) = (   6.5672415   4.5273692  15.9765751  )
        45           O1  tau(  45) = (   3.2900926   2.9813045   4.7018136  )
        46           O1  tau(  46) = (   1.3039711   4.4726057   6.0039043  )
        47           O1  tau(  47) = (   5.2763189   4.4711207   6.0039473  )
        48           H1  tau(  48) = (   4.1035413   2.4672077  18.5646977  )
        49           N1  tau(  49) = (   5.6961598   3.2907635  17.7856741  )
        50           C1  tau(  50) = (   6.4968133   2.7471819  18.6454045  )
        51           H1  tau(  51) = (   6.1325458   2.1374441  19.4677963  )
        52           H1  tau(  52) = (   0.9799315   2.9096255  18.5325614  )
        53           N1  tau(  53) = (   4.3409097   3.1788467  17.8642182  )
        54           O1  tau(  54) = (   3.3174094   5.8609012  18.0981057  )
        55           H1  tau(  55) = (   3.6736973   4.9388346  18.2201127  )
        56           H1  tau(  56) = (   2.3597147   5.7972335  18.2603650  )

     number of k points=    10  Fermi-Dirac smearing, width (Ry)=  0.0073
                       cart. coord. in units 2pi/alat
        k(    1) = (   0.0000000   0.0000000   0.0000000), wk =   0.1250000
        k(    2) = (   0.0000000   0.0419351   0.0000000), wk =   0.2500000
        k(    3) = (   0.0000000  -0.0838702   0.0000000), wk =   0.1250000
        k(    4) = (   0.0379955   0.0000049   0.0000000), wk =   0.2500000
        k(    5) = (   0.0379955   0.0419400   0.0000000), wk =   0.2500000
        k(    6) = (   0.0379955  -0.0838652   0.0000000), wk =   0.2500000
        k(    7) = (   0.0379955  -0.0419301   0.0000000), wk =   0.2500000
        k(    8) = (  -0.0759910  -0.0000099   0.0000000), wk =   0.1250000
        k(    9) = (  -0.0759910   0.0419252   0.0000000), wk =   0.2500000
        k(   10) = (  -0.0759910  -0.0838800   0.0000000), wk =   0.1250000

     Initial potential from superposition of free atoms

     starting charge  386.99914, renormalised to  403.00000

     negative rho (up, down):  1.703E-02 0.000E+00

     %%%%%%%%%%%%%%%%%%%%%%%%%%%%%%%%%%%%%%%%%%%%%%%%%%%%%%%%%%%%%%%%%%%%%%%%
     %                                                                      %
     % You are using vdW-DF, which was implemented by the Thonhauser group. %
     % Please cite the following two papers that made this development      %
     % possible and the two reviews that describe the various versions:     %
     %                                                                      %
     %   T. Thonhauser et al., PRL 115, 136402 (2015).                      %
     %   T. Thonhauser et al., PRB 76, 125112 (2007).                       %
     %   K. Berland et al., Rep. Prog. Phys. 78, 066501 (2015).             %
     %   D.C. Langreth et al., J. Phys.: Condens. Matter 21, 084203 (2009). %
     %                                                                      %
     %                                                                      %
     % If you are calculating the stress with vdW-DF, please also cite:     %
     %                                                                      %
     %   R. Sabatini et al., J. Phys.: Condens. Matter 24, 424209 (2012).   %
     %                                                                      %
     %%%%%%%%%%%%%%%%%%%%%%%%%%%%%%%%%%%%%%%%%%%%%%%%%%%%%%%%%%%%%%%%%%%%%%%%

     Adding external electric field

     Computed dipole along edir(3) :
        Dipole              -12.3736 Ry au,        -31.4507 Debye
        Dipole field         -0.0234 Ry au,

        Potential amp.        2.1646 Ry
        Total length         46.3494 bohr

     Starting wfcs are  305 atomic wfcs
  @ DRIVER MODE: Message from server: STATUS
  @ DRIVER MODE: Message from server: POSDATA
  @ DRIVER MODE: Reading and sharing cell
  @ DRIVER MODE: Reading and sharing positions
  @ DRIVER MODE: Received positions

     Self-consistent Calculation

     iteration #  1     ecut=    29.40 Ry     beta= 0.05
     Davidson diagonalization with overlap
     ethr =  1.00E-02,  avg # of iterations =  3.4

[...]

     total energy              =   -2403.09332511 Ry
     estimated scf accuracy    <    6508.70926275 Ry

[...]

     iteration #  9     ecut=    29.40 Ry     beta= 0.05
     Davidson diagonalization with overlap
     c_bands:  1 eigenvalues not converged
     ethr =  5.59E-03,  avg # of iterations = 16.1

[...]

     iteration # 55     ecut=    29.40 Ry     beta= 0.05
     Davidson diagonalization with overlap
     c_bands:  1 eigenvalues not converged
     ethr =  2.23E-08,  avg # of iterations = 14.9

[...]

     total energy              =   -2973.97652063 Ry
     estimated scf accuracy    <       0.00000008 Ry

     iteration # 70     ecut=    29.40 Ry     beta= 0.05
     Davidson diagonalization with overlap
     ethr =  2.08E-11,  avg # of iterations =  9.3

     negative rho (up, down):  1.700E-02 0.000E+00

     Adding external electric field

     Computed dipole along edir(3) :
        Dipole                0.9082 Ry au,          2.3084 Debye
        Dipole field          0.0017 Ry au,

        Potential amp.       -0.1589 Ry
        Total length         46.3494 bohr

     End of self-consistent calculation

          k = 0.0000 0.0000 0.0000 ( 18029 PWs)   bands (ev):

   -55.6371 -55.6030 -55.5185 -55.4827 -55.4764 -55.4634 -55.4416 -55.4295
   -55.4246 -55.4070 -55.3905 -55.3893 -55.3557 -55.2389 -54.6233 -54.5893
   -32.1228 -32.0243 -31.9709 -31.9654 -31.9575 -31.9283 -31.9143 -31.8956
   -31.8827 -31.7897 -31.7833 -31.7775 -31.7499 -31.7447 -31.7393 -31.7045
   -31.6945 -31.6811 -31.6761 -31.6683 -31.6616 -31.6598 -31.6443 -31.6412
   -31.6350 -31.6251 -31.6231 -31.6187 -31.6132 -31.6074 -31.6022 -31.5931
   -31.5831 -31.5808 -31.5804 -31.5781 -31.5725 -31.5374 -31.5287 -31.5133
   -31.4396 -31.3673 -31.0303 -30.9418 -30.9194 -30.8472 -30.7608 -30.6495
   -18.4395 -17.7386 -16.3001 -16.1095 -15.8842 -15.7824 -15.7424 -15.5692
   -15.4387 -15.3958 -15.2693 -15.2036 -15.1801 -15.1614 -15.1473 -15.1147
   -15.0916 -15.0677 -15.0660 -15.0467 -15.0220 -14.9993 -14.9714 -14.9536
   -14.9111 -14.7857 -14.7775 -14.7660 -14.7283 -14.6909 -14.2916 -13.1234
   -13.0069 -12.3733  -7.9255  -6.2093  -5.4259  -4.8384  -3.6715  -3.5796
    -3.5471  -3.5234  -3.4461  -3.3272  -3.2297  -3.0353  -2.9263  -2.8965
    -2.8754  -2.7886  -2.7069  -2.6657  -2.5631  -2.5308  -2.5204  -2.4760
    -2.4211  -2.4062  -2.3763  -2.3630  -2.3270  -2.1940  -2.1749  -2.1365
    -2.0251  -2.0087  -2.0006  -1.9584  -1.9548  -1.9243  -1.9139  -1.8961
    -1.8793  -1.8676  -1.8001  -1.7181  -1.6862  -1.6367  -1.5818  -1.5765
    -1.2743  -1.2578  -1.1903  -1.1588  -1.0882  -1.0545  -1.0404  -1.0256
    -0.9940  -0.8938  -0.8045  -0.7854  -0.7222  -0.6611  -0.5617  -0.5474
    -0.4467  -0.3978  -0.3922  -0.3792  -0.3469  -0.2883  -0.2314  -0.1749
    -0.1249  -0.0423   0.0120   0.0210   0.0630   0.1067   0.1362   0.1945
     0.2569   0.2842   0.3174   0.3326   0.3739   0.4341   0.4555   0.4683
     0.5469   0.5870   0.6121   0.7101   0.7194   0.7584   0.8300   1.0145
     1.0604   1.1997   1.3381   1.4014   1.4674   1.5935   1.8692   1.9716
     2.0177   3.4531   3.5870   3.6079   3.6436   3.7153   3.7620   3.9347
     4.0307   4.0525   4.1144

[...]

          k = 0.0380-0.0419 0.0000 ( 17876 PWs)   bands (ev):

[...]

          k =-0.0760-0.0000 0.0000 ( 17886 PWs)   bands (ev):

[...]

          k =-0.0760-0.0839 0.0000 ( 17948 PWs)   bands (ev):

   -55.6201 -55.6199 -55.5037 -55.4971 -55.4611 -55.4571 -55.4464 -55.4460
   -55.4105 -55.4047 -55.4046 -55.3734 -55.3719 -55.2407 -54.6063 -54.6061
   -31.9382 -31.9380 -31.9138 -31.9137 -31.8834 -31.8475 -31.8187 -31.8002
   -31.7896 -31.7745 -31.7653 -31.7529 -31.7486 -31.7398 -31.7394 -31.7320
   -31.7315 -31.7190 -31.7163 -31.7099 -31.6838 -31.6815 -31.6763 -31.6703
   -31.6557 -31.6534 -31.6524 -31.6387 -31.6328 -31.6310 -31.6273 -31.6272
   -31.6233 -31.6204 -31.6199 -31.6154 -31.6137 -31.6022 -31.5870 -31.5361
   -31.4496 -31.4465 -30.9322 -30.9320 -30.8432 -30.8430 -30.8041 -30.8040
   -18.4322 -17.7391 -15.8508 -15.6072 -15.5936 -15.5568 -15.5380 -15.4188
   -15.3738 -15.3697 -15.3489 -15.2937 -15.2580 -15.2211 -15.1897 -15.1721
   -15.1486 -15.1373 -15.0956 -15.0926 -15.0857 -15.0637 -15.0220 -15.0116
   -14.9873 -14.9670 -14.9624 -14.9499 -14.9171 -14.7491 -14.6396 -13.1087
   -13.1085 -12.3892  -7.8854  -6.1942  -5.4845  -4.7602  -3.1457  -3.0660
    -3.0187  -2.8002  -2.7557  -2.7377  -2.7015  -2.6417  -2.5883  -2.5712
    -2.5527  -2.5245  -2.5149  -2.4622  -2.4365  -2.4104  -2.3861  -2.3698
    -2.3607  -2.3474  -2.3213  -2.3020  -2.2798  -2.2697  -2.2465  -2.2357
    -2.2137  -2.2054  -2.1915  -2.1688  -2.0804  -1.9983  -1.8969  -1.8376
    -1.7941  -1.7937  -1.7632  -1.7343  -1.7063  -1.7018  -1.6624  -1.6331
    -1.5616  -1.5025  -1.3192  -1.3054  -1.2608  -1.1762  -1.1751  -1.1276
    -1.1187  -1.0673  -1.0400  -0.9934  -0.9438  -0.9109  -0.8230  -0.6697
    -0.6211  -0.6012  -0.5954  -0.5799  -0.5393  -0.5249  -0.4726  -0.4553
    -0.4387  -0.3729  -0.3421  -0.3380  -0.2874  -0.2691  -0.1568  -0.0589
    -0.0315   0.0224   0.0620   0.1814   0.2937   0.3629   0.4640   0.4785
     0.4970   0.5505   0.6586   0.6684   0.7137   0.7760   0.8413   0.8471
     0.8774   0.9416   0.9534   0.9903   1.7643   1.7660   1.8181   1.8377
     1.8379   3.8619   3.9026   3.9530   3.9591   3.9830   4.0331   4.0404
     4.0714   4.1215   4.1372

     the Fermi energy is     3.4855 ev

!    total energy              =   -2973.97654317 Ry
     estimated scf accuracy    <       0.00000003 Ry
     smearing contrib. (-TS)   =      -0.01977905 Ry
     internal energy E=F+TS    =   -2973.95676412 Ry

     The total energy is F=E-TS. E is the sum of the following terms:
     one-electron contribution =  -24367.67392955 Ry
     hartree contribution      =   12278.39847635 Ry
     xc contribution           =    -494.13175022 Ry
     ewald contribution        =    9609.44888280 Ry
     electric field correction =       0.00155651 Ry

     convergence has been achieved in  70 iterations

     Forces acting on atoms (cartesian axes, Ry/au):

     atom    1 type  1   force =     0.00016247   -0.00031187    0.09440283
     atom    2 type  1   force =    -0.00007387   -0.00076642   -0.17589617
     atom    3 type  2   force =     0.00005790   -0.00019227   -0.02182486
     atom    4 type  2   force =     0.00003702   -0.00134009    0.05334080
     atom    5 type  2   force =    -0.00870214   -0.00018093    0.00366577
     atom    6 type  2   force =     0.01037036    0.00047107    0.00301916
     atom    7 type  1   force =    -0.00045089    0.00080978   -0.00103142
     atom    8 type  1   force =     0.00044832    0.00751300    0.00863816
     atom    9 type  2   force =     0.00046770    0.00015280    0.00004882
     atom   10 type  2   force =    -0.00262775    0.00131867   -0.01723827
     atom   11 type  2   force =    -0.00008728    0.00009177   -0.00039817
     atom   12 type  2   force =     0.00030745    0.00007717   -0.00007295
     atom   13 type  1   force =    -0.00040673   -0.00038156   -0.00021490
     atom   14 type  1   force =     0.00035718    0.00009148    0.00023248
     atom   15 type  2   force =     0.00013156   -0.00006235   -0.00027820
     atom   16 type  2   force =     0.00020298    0.00018643    0.00006677
     atom   17 type  2   force =    -0.00007253   -0.00007362    0.00009301
     atom   18 type  2   force =     0.00002896   -0.00006215   -0.00007700
     atom   19 type  1   force =    -0.00049235    0.00025758   -0.00069281
     atom   20 type  1   force =     0.00015540   -0.00015244    0.00005789
     atom   21 type  2   force =     0.00006633   -0.00000258    0.10325621
     atom   22 type  2   force =    -0.00026415   -0.00042735   -0.00006911
     atom   23 type  2   force =    -0.07155685   -0.00010945   -0.02735847
     atom   24 type  2   force =     0.07149450    0.00037900   -0.02737186
     atom   25 type  1   force =     0.00004474   -0.00021115    0.09438750
     atom   26 type  1   force =    -0.00013610   -0.00029596   -0.17602383
     atom   27 type  2   force =     0.00003647   -0.00018757   -0.02072731
     atom   28 type  2   force =     0.00009445   -0.00112624    0.05373014
     atom   29 type  2   force =    -0.00878477   -0.00002120    0.00343203
     atom   30 type  2   force =     0.01029916    0.00036667    0.00286451
     atom   31 type  1   force =    -0.00032701    0.00465256    0.00190643
     atom   32 type  1   force =     0.00043010   -0.00852357    0.00859037
     atom   33 type  2   force =    -0.00003561    0.00003170   -0.00001911
     atom   34 type  2   force =    -0.00403290   -0.00112127   -0.01183606
     atom   35 type  2   force =     0.00013994    0.00007720    0.00034067
     atom   36 type  2   force =     0.00053480    0.00005872   -0.00021532
     atom   37 type  1   force =     0.00061574   -0.00019980    0.00000346
     atom   38 type  1   force =     0.00022209   -0.00016563   -0.00009090
     atom   39 type  2   force =    -0.00014045   -0.00002783   -0.00021180
     atom   40 type  2   force =     0.00046403    0.00000719    0.00039155
     atom   41 type  2   force =    -0.00014179    0.00045980    0.00008495
     atom   42 type  2   force =     0.00014927    0.00017978   -0.00011397
     atom   43 type  1   force =    -0.00027745   -0.00013989   -0.00011324
     atom   44 type  1   force =     0.00030547    0.00053311    0.00090291
     atom   45 type  2   force =     0.00005062    0.00000034    0.10332691
     atom   46 type  2   force =    -0.07155339   -0.00004343   -0.02734842
     atom   47 type  2   force =     0.07149496    0.00035192   -0.02737427
     atom   48 type  3   force =     0.00044199   -0.00052845   -0.00067929
     atom   49 type  4   force =     0.00024698    0.00010784   -0.00038923
     atom   50 type  5   force =    -0.00000062   -0.00157830   -0.00103692
     atom   51 type  3   force =    -0.00043104    0.00043273    0.00100098
     atom   52 type  3   force =    -0.00006746   -0.00025648    0.00002777
     atom   53 type  4   force =    -0.00002741    0.00014827    0.00097445
     atom   54 type  2   force =     0.00040031   -0.00062868    0.00077194
     atom   55 type  3   force =    -0.00040563    0.00035736   -0.00050976
     atom   56 type  3   force =     0.00083692    0.00000456   -0.00034486

     Total force =     0.363836     Total SCF correction =     0.000441
  @ DRIVER MODE: Message from server: STATUS
  @ DRIVER MODE: Message from server: GETFORCE
  @ DRIVER MODE: Returning v,forces,stress,ensemble

     Writing output data file ./calc.save/
  @ DRIVER MODE: Message from server: EXIT
  @ DRIVE MODE: Exiting

     General routines

     Parallel routines

   This run was terminated on:  15:53:32  15Sep2021

   JOB DONE.