     Program PWSCF v.6.7GPU starts on  1Oct2021 at  7:26:48

     R & G space division:  proc/nbgrp/npool/nimage =       8
     Reading input from /storage/home/hcoda1/3/ntian30/research/carbon/CxH_vib/pristine/ads_slab/CHHNN_a/out_0013/pw.inp
Warning: card &CELL ignored
Warning: card   CELL_DYNAMICS='IPI', ignored
Warning: card / ignored

     Current dimensions of program PWSCF are:
     Max number of different atomic species (ntypx) = 10
     Max number of k-points (npk) =  40000
     Max angular momentum in pseudopotentials (lmaxx) =  3
     Presently no symmetry can be used with electric field

     Message from routine cell_base_init:
     DEPRECATED: use true lattice parameter, not A to a.u. conversion factor

     IMPORTANT: XC functional enforced from input :
     Exchange-correlation= BEEF-VDW
                           (   1   4  43  14   2   0   0)
     Any further DFT definition will be discarded
     Please, verify this is what you really want

  @ DRIVER MODE: Connecting to
 qe_1139763_3035467.sched-torque.pace.gatech.edu6q7a0d___scratch
  using UNIX socket
  @ DRIVER MODE: Message from server: STATUS
  @ DRIVER MODE: Message from server: INIT
  @ DRIVER MODE: Receiving replica           0          -1
  @ DRIVER MODE: Receiving encoded integer          25
  @ DRIVER MODE:  SCF:  T  FORCE:  T  STRESS:  F  VC:  F  ENSEMBLE:  F
  @ DRIVER MODE:  SCF:  T  FORCE:  T  STRESS:  F  VC:  F  ENSEMBLE:  F

     Using Slab Decomposition

     bravais-lattice index     =            0
     lattice parameter (alat)  =       1.8897  a.u.
     unit-cell volume          =    6658.9804 (a.u.)^3
     number of atoms/cell      =           53
     number of atomic types    =            5
     number of electrons       =       400.00
     number of Kohn-Sham states=          210
     kinetic-energy cutoff     =      29.3995  Ry
     charge density cutoff     =     293.9946  Ry
     scf convergence threshold =      7.3E-08
     mixing beta               =       0.0500
     number of iterations used =            8  plain     mixing
     Exchange-correlation= BEEF-VDW
                           (   1   4  43  14   2   0   0)

     celldm(1)=   1.889726  celldm(2)=   0.000000  celldm(3)=   0.000000
     celldm(4)=   0.000000  celldm(5)=   0.000000  celldm(6)=   0.000000

     crystal axes: (cart. coord. in units of alat)
               a(1) = (   6.579727   0.000000   0.000000 )
               a(2) = (  -0.000775   5.961596   0.000000 )
               a(3) = (   0.000000   0.000000  25.155947 )

     reciprocal axes: (cart. coord. in units 2 pi/alat)
               b(1) = (  0.151982  0.000020  0.000000 )
               b(2) = (  0.000000  0.167740  0.000000 )
               b(3) = (  0.000000  0.000000  0.039752 )

     PseudoPot. # 1 for Ti read from file:
     /storage/coda1/p-amedford6/0/shared/rich_project_chbe-medford/medford-share/data/pseudos_module/espresso/nninc/pbe/van/Ti.UPF
     MD5 check sum: 8e4df49b7f0d34bbd5052bf3f5ea0213
     Pseudo is Ultrasoft, Zval = 12.0
     Generated by new atomic code, or converted to UPF format
     Using radial grid of  851 points,  6 beta functions with:
                l(1) =   0
                l(2) =   0
                l(3) =   1
                l(4) =   1
                l(5) =   2
                l(6) =   2
     Q(r) pseudized with  8 coefficients,  rinner =    1.000   1.000   1.000
                                                       1.000   1.000

     PseudoPot. # 2 for O  read from file:
     /storage/coda1/p-amedford6/0/shared/rich_project_chbe-medford/medford-share/data/pseudos_module/espresso/nninc/pbe/van/O.UPF
     MD5 check sum: 78c19812648e8988a0fe644b0f25305e
     Pseudo is Ultrasoft, Zval =  6.0
     Generated by new atomic code, or converted to UPF format
     Using radial grid of  737 points,  4 beta functions with:
                l(1) =   0
                l(2) =   0
                l(3) =   1
                l(4) =   1
     Q(r) pseudized with  8 coefficients,  rinner =    0.800   0.800   0.800

     PseudoPot. # 3 for N  read from file:
     /storage/coda1/p-amedford6/0/shared/rich_project_chbe-medford/medford-share/data/pseudos_module/espresso/nninc/pbe/van/N.UPF
     MD5 check sum: 90d10febe142ad51ac9d5be1deb811c4
     Pseudo is Ultrasoft, Zval =  5.0
     Generated by new atomic code, or converted to UPF format
     Using radial grid of  729 points,  4 beta functions with:
                l(1) =   0
                l(2) =   0
                l(3) =   1
                l(4) =   1
     Q(r) pseudized with  8 coefficients,  rinner =    0.800   0.800   0.800

     PseudoPot. # 4 for C  read from file:
     /storage/coda1/p-amedford6/0/shared/rich_project_chbe-medford/medford-share/data/pseudos_module/espresso/nninc/pbe/van/C.UPF
     MD5 check sum: 1a69bf6b8db32088f5b2163dbdb77a27
     Pseudo is Ultrasoft, Zval =  4.0
     Generated by new atomic code, or converted to UPF format
     Using radial grid of  721 points,  4 beta functions with:
                l(1) =   0
                l(2) =   0
                l(3) =   1
                l(4) =   1
     Q(r) pseudized with  8 coefficients,  rinner =    0.800   0.800   0.800

     PseudoPot. # 5 for H  read from file:
     /storage/coda1/p-amedford6/0/shared/rich_project_chbe-medford/medford-share/data/pseudos_module/espresso/nninc/pbe/van/H.UPF
     MD5 check sum: b5ee9d7bfd3a09ee7748110bda690ff7
     Pseudo is Ultrasoft, Zval =  1.0
     Generated by new atomic code, or converted to UPF format
     Using radial grid of  615 points,  1 beta functions with:
                l(1) =   0
     Q(r) pseudized with  8 coefficients,  rinner =    0.800

     atomic species   valence    mass     pseudopotential
        Ti1           12.00    47.86700     Ti( 1.00)
        O1             6.00    15.99900     O ( 1.00)
        N1             5.00    14.00700     N ( 1.00)
        C1             4.00    12.01100     C ( 1.00)
        H1             1.00     1.00800     H ( 1.00)

     No symmetry found

   Cartesian axes

     site n.     atom                  positions (alat units)
         1           Ti1 tau(   1) = (   0.0004258   2.9801865   6.0000000  )
         2           Ti1 tau(   2) = (   3.2906075   1.4906267   6.0002472  )
         3           O1  tau(   3) = (   0.0006271   0.0005054   7.9858123  )
         4           O1  tau(   4) = (   3.2906025   0.0005020   7.3038282  )
         5           O1  tau(   5) = (   4.5942328   1.4918067   9.2879030  )
         6           O1  tau(   6) = (   1.9868534   1.4903216   9.2879459  )
         7           Ti1 tau(   7) = (   3.2961651   2.9340025   9.1571600  )
         8           Ti1 tau(   8) = (   0.0257383   1.5005952   9.3383585  )
         9           O1  tau(   9) = (   3.3091981   5.9584344  11.3361002  )
        10           O1  tau(  10) = (   6.5780281   5.9600862  10.6016087  )
        11           O1  tau(  11) = (   1.3203574   1.4925043  12.6130903  )
        12           O1  tau(  12) = (   5.3210186   1.4819496  12.6412376  )
        13           Ti1 tau(  13) = (   6.5659556   2.9650791  12.8176139  )
        14           Ti1 tau(  14) = (   3.2164003   1.4877187  12.4769567  )
        15           O1  tau(  15) = (   0.0404395   5.9536100  14.6624943  )
        16           O1  tau(  16) = (   3.3074673   5.9584959  13.9062718  )
        17           O1  tau(  17) = (   4.5856532   1.4904827  16.0465219  )
        18           O1  tau(  18) = (   2.1034043   1.4884928  16.0442595  )
        19           Ti1 tau(  19) = (   3.2939248   2.9785878  15.7144947  )
        20           Ti1 tau(  20) = (   6.5451327   1.4142704  16.0395912  )
        21           O1  tau(  21) = (   3.2904802   0.0005063   4.7018136  )
        22           O1  tau(  22) = (   0.0457580   0.0044623  17.2034710  )
        23           O1  tau(  23) = (   1.3043587   1.4918075   6.0039043  )
        24           O1  tau(  24) = (   5.2767064   1.4903225   6.0039473  )
        25           Ti1 tau(  25) = (   0.0000382   5.9609847   6.0000000  )
        26           Ti1 tau(  26) = (   3.2902200   4.4714249   6.0002472  )
        27           O1  tau(  27) = (   0.0002396   2.9813036   7.9858123  )
        28           O1  tau(  28) = (   3.2902150   2.9813002   7.3038282  )
        29           O1  tau(  29) = (   4.5938453   4.4726049   9.2879030  )
        30           O1  tau(  30) = (   1.9864658   4.4711199   9.2879459  )
        31           Ti1 tau(  31) = (   3.3296195   5.9152860   9.1560537  )
        32           Ti1 tau(  32) = (   0.0304643   4.4420822   9.3322224  )
        33           O1  tau(  33) = (   3.3127198   2.9780151  11.3348310  )
        34           O1  tau(  34) = (   0.0025308   2.9791118  10.5479895  )
        35           O1  tau(  35) = (   1.3183054   4.4635934  12.6126975  )
        36           O1  tau(  36) = (   5.3202651   4.4673696  12.6407401  )
        37           Ti1 tau(  37) = (   6.5108624   5.9459213  12.5946634  )
        38           Ti1 tau(  38) = (   3.2137380   4.4666137  12.4775098  )
        39           O1  tau(  39) = (   0.0464109   2.9731917  14.6594554  )
        40           O1  tau(  40) = (   3.3098714   2.9789900  13.9126757  )
        41           O1  tau(  41) = (   4.5859750   4.4686661  16.0488133  )
        42           O1  tau(  42) = (   2.1005049   4.4706468  16.0453856  )
        43           Ti1 tau(  43) = (   3.2853703   5.9589473  15.7052640  )
        44           Ti1 tau(  44) = (   6.5509595   4.5658457  16.0514827  )
        45           O1  tau(  45) = (   3.2900926   2.9813045   4.7018136  )
        46           O1  tau(  46) = (   0.0949885   2.9744829  17.2486893  )
        47           O1  tau(  47) = (   1.3039711   4.4726057   6.0039043  )
        48           O1  tau(  48) = (   5.2763189   4.4711207   6.0039473  )
        49           N1  tau(  49) = (   0.3730515   3.1615268  19.4484725  )
        50           N1  tau(  50) = (   6.0186590   2.9946300  18.5893579  )
        51           C1  tau(  51) = (   0.0216377   3.3059097  20.7092049  )
        52           H1  tau(  52) = (   5.5749133   3.3461147  21.0318256  )
        53           H1  tau(  53) = (   0.8315635   3.3875449  21.4270997  )

     number of k points=    10  Fermi-Dirac smearing, width (Ry)=  0.0073
                       cart. coord. in units 2pi/alat
        k(    1) = (   0.0000000   0.0000000   0.0000000), wk =   0.1250000
        k(    2) = (   0.0000000   0.0419351   0.0000000), wk =   0.2500000
        k(    3) = (   0.0000000  -0.0838702   0.0000000), wk =   0.1250000
        k(    4) = (   0.0379955   0.0000049   0.0000000), wk =   0.2500000
        k(    5) = (   0.0379955   0.0419400   0.0000000), wk =   0.2500000
        k(    6) = (   0.0379955  -0.0838652   0.0000000), wk =   0.2500000
        k(    7) = (   0.0379955  -0.0419301   0.0000000), wk =   0.2500000
        k(    8) = (  -0.0759910  -0.0000099   0.0000000), wk =   0.1250000
        k(    9) = (  -0.0759910   0.0419252   0.0000000), wk =   0.2500000
        k(   10) = (  -0.0759910  -0.0838800   0.0000000), wk =   0.1250000

     Initial potential from superposition of free atoms

     starting charge  383.99917, renormalised to  400.00000

     negative rho (up, down):  1.225E-02 0.000E+00

     %%%%%%%%%%%%%%%%%%%%%%%%%%%%%%%%%%%%%%%%%%%%%%%%%%%%%%%%%%%%%%%%%%%%%%%%
     %                                                                      %
     % You are using vdW-DF, which was implemented by the Thonhauser group. %
     % Please cite the following two papers that made this development      %
     % possible and the two reviews that describe the various versions:     %
     %                                                                      %
     %   T. Thonhauser et al., PRL 115, 136402 (2015).                      %
     %   T. Thonhauser et al., PRB 76, 125112 (2007).                       %
     %   K. Berland et al., Rep. Prog. Phys. 78, 066501 (2015).             %
     %   D.C. Langreth et al., J. Phys.: Condens. Matter 21, 084203 (2009). %
     %                                                                      %
     %                                                                      %
     % If you are calculating the stress with vdW-DF, please also cite:     %
     %                                                                      %
     %   R. Sabatini et al., J. Phys.: Condens. Matter 24, 424209 (2012).   %
     %                                                                      %
     %%%%%%%%%%%%%%%%%%%%%%%%%%%%%%%%%%%%%%%%%%%%%%%%%%%%%%%%%%%%%%%%%%%%%%%%

     Adding external electric field

     Computed dipole along edir(3) :
        Dipole              -11.7961 Ry au,        -29.9828 Debye
        Dipole field         -0.0223 Ry au,

        Potential amp.        2.0636 Ry
        Total length         46.3494 bohr

     Starting wfcs are  302 atomic wfcs
  @ DRIVER MODE: Message from server: STATUS
  @ DRIVER MODE: Message from server: POSDATA
  @ DRIVER MODE: Reading and sharing cell
  @ DRIVER MODE: Reading and sharing positions
  @ DRIVER MODE: Received positions

     Self-consistent Calculation

     iteration #  1     ecut=    29.40 Ry     beta= 0.05
     Davidson diagonalization with overlap
     c_bands:  3 eigenvalues not converged
     c_bands:  1 eigenvalues not converged
     c_bands:  2 eigenvalues not converged
     c_bands:  3 eigenvalues not converged
     c_bands:  3 eigenvalues not converged
     c_bands:  3 eigenvalues not converged
     c_bands:  1 eigenvalues not converged
     c_bands:  5 eigenvalues not converged
     c_bands:  2 eigenvalues not converged
     ethr =  1.00E-05,  avg # of iterations = 19.9

[...]

     total energy              =   -2452.84822173 Ry
     estimated scf accuracy    <    5806.09908905 Ry

     iteration #  2     ecut=    29.40 Ry     beta= 0.05
     Davidson diagonalization with overlap
     ethr =  1.00E-02,  avg # of iterations = 22.1

[...]

     iteration # 47     ecut=    29.40 Ry     beta= 0.05
     Davidson diagonalization with overlap
     c_bands:  1 eigenvalues not converged
     c_bands:  1 eigenvalues not converged
     c_bands:  1 eigenvalues not converged
     c_bands:  1 eigenvalues not converged
     ethr =  1.58E-06,  avg # of iterations = 15.3

[...]

     total energy              =   -2970.15564679 Ry
     estimated scf accuracy    <       0.00000010 Ry

     iteration # 74     ecut=    29.40 Ry     beta= 0.05
     Davidson diagonalization with overlap
     ethr =  2.46E-11,  avg # of iterations =  2.0

     negative rho (up, down):  1.340E-02 0.000E+00

     Adding external electric field

     Computed dipole along edir(3) :
        Dipole                0.4193 Ry au,          1.0658 Debye
        Dipole field          0.0008 Ry au,

        Potential amp.       -0.0734 Ry
        Total length         46.3494 bohr

     End of self-consistent calculation

          k = 0.0000 0.0000 0.0000 ( 18029 PWs)   bands (ev):

   -56.1024 -56.0642 -56.0520 -56.0159 -55.9484 -55.9223 -55.8872 -55.8520
   -55.7977 -55.7869 -55.7636 -55.7604 -55.7521 -55.7181 -55.0682 -55.0341
   -32.6036 -32.5557 -32.4126 -32.3910 -32.3851 -32.3589 -32.3495 -32.3237
   -32.2828 -32.2802 -32.2733 -32.2695 -32.2529 -32.2433 -32.2332 -32.2073
   -32.1858 -32.1789 -32.1755 -32.1748 -32.1484 -32.1353 -32.0773 -32.0758
   -32.0681 -32.0540 -32.0486 -32.0235 -32.0217 -32.0176 -32.0075 -31.9945
   -31.9577 -31.9574 -31.9428 -31.9401 -31.9387 -31.9304 -31.9226 -31.9008
   -31.8864 -31.8432 -31.4764 -31.3827 -31.3600 -31.2934 -31.2075 -31.0961
   -19.0520 -16.7894 -16.4891 -16.3943 -16.2042 -16.1727 -16.0866 -16.0395
   -15.8087 -15.7137 -15.6554 -15.6249 -15.5969 -15.5894 -15.5833 -15.5585
   -15.5158 -15.5137 -15.4826 -15.4642 -15.4552 -15.4009 -15.3530 -15.3067
   -15.2462 -15.2130 -15.1815 -15.1786 -15.0727 -15.0241 -14.9769 -13.5675
   -13.4499 -10.9357  -6.4460  -4.8626  -4.1517  -3.9949  -3.9523  -3.9510
    -3.8368  -3.6716  -3.5895  -3.5491  -3.4422  -3.2222  -3.2094  -3.1919
    -3.1700  -3.1129  -2.9408  -2.8932  -2.8860  -2.8685  -2.8487  -2.8272
    -2.8038  -2.7892  -2.7599  -2.7332  -2.7169  -2.5760  -2.5702  -2.4704
    -2.4515  -2.4025  -2.3720  -2.3573  -2.3137  -2.2670  -2.2244  -2.2039
    -2.1811  -2.1562  -2.0764  -1.9077  -1.9018  -1.8686  -1.7913  -1.7374
    -1.7314  -1.4723  -1.4713  -1.4642  -1.4001  -1.3560  -1.3477  -1.2711
    -1.2191  -1.1952  -1.1797  -1.1539  -1.0797  -1.0022  -0.9583  -0.9053
    -0.8690  -0.8194  -0.7882  -0.7726  -0.7542  -0.5464  -0.5236  -0.4905
    -0.4533  -0.3369  -0.3271  -0.2817  -0.2685  -0.2257  -0.2170  -0.1043
    -0.0818  -0.0635  -0.0475  -0.0271  -0.0038   0.0117   0.0704   0.1202
     0.1537   0.1793   0.3708   0.3810   0.5428   0.5842   0.6149   0.7609
     0.8704   0.9569   1.0833   1.1324   1.5491   1.6188   1.7036   2.9837
     3.1141   3.1952   3.2452   3.2770   3.3361   3.5001   3.5493   3.5790
     3.6189   3.6265

[...]

          k = 0.0380-0.0419 0.0000 ( 17876 PWs)   bands (ev):

[...]

          k =-0.0760-0.0000 0.0000 ( 17886 PWs)   bands (ev):

[...]

          k =-0.0760-0.0839 0.0000 ( 17948 PWs)   bands (ev):

   -56.0921 -56.0743 -56.0346 -56.0331 -55.9455 -55.9067 -55.9026 -55.8549
   -55.7850 -55.7750 -55.7719 -55.7649 -55.7551 -55.7265 -55.0511 -55.0511
   -32.4064 -32.4046 -32.3794 -32.3781 -32.3636 -32.3504 -32.3087 -32.3075
   -32.2897 -32.2438 -32.2389 -32.2375 -32.2265 -32.2150 -32.2134 -32.2032
   -32.1951 -32.1926 -32.1752 -32.1542 -32.1289 -32.1236 -32.1130 -32.1114
   -32.1035 -32.0928 -32.0855 -32.0730 -32.0606 -32.0372 -32.0263 -31.9906
   -31.9862 -31.9852 -31.9764 -31.9682 -31.9648 -31.9624 -31.9612 -31.9535
   -31.9467 -31.9362 -31.3727 -31.3727 -31.2896 -31.2894 -31.2506 -31.2505
   -19.0435 -16.2099 -16.2011 -16.1841 -15.9479 -15.9445 -15.9107 -15.8567
   -15.7606 -15.7591 -15.7524 -15.7402 -15.6759 -15.6672 -15.6614 -15.5901
   -15.5789 -15.5758 -15.5689 -15.5446 -15.4902 -15.4893 -15.3784 -15.3560
   -15.3532 -15.3474 -15.3276 -15.3206 -15.2561 -15.2001 -15.1946 -13.5526
   -13.5500 -10.9372  -6.4336  -4.8266  -3.6677  -3.5025  -3.4936  -3.4162
    -3.1860  -3.1769  -3.0604  -3.0492  -3.0007  -2.9549  -2.9147  -2.9035
    -2.8930  -2.8727  -2.8646  -2.8487  -2.8294  -2.8121  -2.7948  -2.7680
    -2.7209  -2.6882  -2.6723  -2.6494  -2.6411  -2.6318  -2.6034  -2.5948
    -2.5732  -2.5703  -2.5508  -2.4509  -2.3142  -2.2888  -2.2259  -2.1825
    -2.1552  -2.1252  -2.1195  -2.0876  -2.0748  -2.0485  -1.9269  -1.8565
    -1.7795  -1.7469  -1.7231  -1.6608  -1.5803  -1.4972  -1.4276  -1.4051
    -1.3576  -1.3111  -1.2905  -1.2619  -1.2188  -1.2068  -1.1560  -1.0827
    -1.0746  -1.0349  -1.0252  -1.0043  -0.9328  -0.9235  -0.8668  -0.8097
    -0.7952  -0.7089  -0.6541  -0.6310  -0.6185  -0.5588  -0.5403  -0.4727
    -0.3952  -0.3171  -0.0420  -0.0248   0.0289   0.0403   0.0736   0.1691
     0.2355   0.2520   0.3265   0.3491   0.4271   0.4776   0.5107   0.5153
     0.5957   0.6136   1.3220   1.3256   1.4086   1.4178   1.7266   2.9437
     3.3917   3.4215   3.4279   3.4493   3.5851   3.5924   3.6094   3.6176
     3.7550   3.7931

     the Fermi energy is     3.0604 ev

!    total energy              =   -2970.15565773 Ry
     estimated scf accuracy    <       0.00000006 Ry
     smearing contrib. (-TS)   =      -0.02349806 Ry
     internal energy E=F+TS    =   -2970.13215967 Ry

     The total energy is F=E-TS. E is the sum of the following terms:
     one-electron contribution =  -23559.49101741 Ry
     hartree contribution      =   11867.97363616 Ry
     xc contribution           =    -491.49620656 Ry
     ewald contribution        =    9212.88109631 Ry
     electric field correction =       0.00033182 Ry

     convergence has been achieved in  74 iterations

     Forces acting on atoms (cartesian axes, Ry/au):

     atom    1 type  1   force =    -0.00000627   -0.00028470    0.11744438
     atom    2 type  1   force =    -0.00002943   -0.00048334   -0.17832966
     atom    3 type  2   force =     0.00020320    0.00070598   -0.03807554
     atom    4 type  2   force =     0.00087855   -0.00059863    0.04407980
     atom    5 type  2   force =    -0.02136140   -0.00158896    0.00210046
     atom    6 type  2   force =     0.02128269    0.00124898    0.00429633
     atom    7 type  1   force =     0.00091733   -0.00016995   -0.00005235
     atom    8 type  1   force =     0.00006455   -0.00014449    0.00093562
     atom    9 type  2   force =    -0.00048926    0.00006681   -0.00043069
     atom   10 type  2   force =     0.00025215    0.00008182   -0.00102341
     atom   11 type  2   force =     0.00061372    0.00009175   -0.00003328
     atom   12 type  2   force =    -0.00029705    0.00039687   -0.00024349
     atom   13 type  1   force =    -0.00137003    0.00032510   -0.00004803
     atom   14 type  1   force =     0.00116073    0.00020533   -0.00038478
     atom   15 type  2   force =    -0.00034666    0.00018648    0.00108429
     atom   16 type  2   force =    -0.00027691    0.00003412    0.00156604
     atom   17 type  2   force =     0.00008657   -0.00027939    0.00048528
     atom   18 type  2   force =    -0.00044265   -0.00043439    0.00029339
     atom   19 type  1   force =    -0.00031010    0.00019945    0.00043850
     atom   20 type  1   force =     0.00023687    0.00002829    0.00012594
     atom   21 type  2   force =    -0.00000649    0.00005392    0.10375850
     atom   22 type  2   force =    -0.00038211    0.00027456   -0.00094942
     atom   23 type  2   force =    -0.06937192    0.00107906   -0.03120684
     atom   24 type  2   force =     0.06913112    0.00148379   -0.03120566
     atom   25 type  1   force =    -0.00022711   -0.00019733    0.12920915
     atom   26 type  1   force =    -0.00004631   -0.00003884   -0.17840707
     atom   27 type  2   force =     0.00040775    0.00016062   -0.03708024
     atom   28 type  2   force =     0.00033151   -0.00056461    0.04504660
     atom   29 type  2   force =    -0.02054297    0.00077192    0.00198712
     atom   30 type  2   force =     0.02219358    0.00158685    0.00424737
     atom   31 type  1   force =     0.00022353   -0.00043592   -0.00060007
     atom   32 type  1   force =    -0.00009438   -0.00106168    0.00108805
     atom   33 type  2   force =    -0.00050349   -0.00016347    0.00080698
     atom   34 type  2   force =     0.00011098   -0.00009227   -0.00021508
     atom   35 type  2   force =     0.00071001   -0.00022717   -0.00013821
     atom   36 type  2   force =    -0.00020083   -0.00014099   -0.00039361
     atom   37 type  1   force =    -0.00080090   -0.00049971    0.00034927
     atom   38 type  1   force =     0.00124257   -0.00043253   -0.00033302
     atom   39 type  2   force =    -0.00029856   -0.00017327   -0.00081315
     atom   40 type  2   force =    -0.00030256   -0.00009863   -0.00016566
     atom   41 type  2   force =    -0.00010928    0.00052806    0.00035855
     atom   42 type  2   force =    -0.00024169    0.00057660    0.00026638
     atom   43 type  1   force =    -0.00013859   -0.00007476   -0.00074232
     atom   44 type  1   force =     0.00007269   -0.00012725   -0.00005103
     atom   45 type  2   force =     0.00001396    0.00004834    0.10385647
     atom   46 type  2   force =    -0.00012747   -0.00018088    0.00015495
     atom   47 type  2   force =    -0.06934191   -0.00128576   -0.03117255
     atom   48 type  2   force =     0.06912993   -0.00082336   -0.03122546
     atom   49 type  3   force =    -0.00338639    0.00078156    0.00312012
     atom   50 type  3   force =    -0.00135126   -0.00018767   -0.00141338
     atom   51 type  4   force =     0.02342573    0.00023596    0.00050398
     atom   52 type  5   force =    -0.01184848    0.00006517    0.00205006
     atom   53 type  5   force =    -0.00843722   -0.00042745   -0.00491958

     Total force =     0.385050     Total SCF correction =     0.000636
  @ DRIVER MODE: Message from server: STATUS
  @ DRIVER MODE: Message from server: GETFORCE
  @ DRIVER MODE: Returning v,forces,stress,ensemble

     Writing output data file ./calc.save/
  @ DRIVER MODE: Message from server: EXIT
  @ DRIVE MODE: Exiting

     General routines

     Parallel routines

   This run was terminated on:   8:23:39   1Oct2021

   JOB DONE.