     Program PWSCF v.6.7GPU starts on 16Sep2021 at  7:12:42

     R & G space division:  proc/nbgrp/npool/nimage =      10
     Reading input from /storage/home/hcoda1/3/ntian30/research/carbon/CxH_vib/H2O_calc/ads_slab/CH2NHHH2O_a/out_0046/pw.inp
Warning: card &CELL ignored
Warning: card   CELL_DYNAMICS='IPI', ignored
Warning: card / ignored

     Current dimensions of program PWSCF are:
     Max number of different atomic species (ntypx) = 10
     Max number of k-points (npk) =  40000
     Max angular momentum in pseudopotentials (lmaxx) =  3
     Presently no symmetry can be used with electric field

     Message from routine cell_base_init:
     DEPRECATED: use true lattice parameter, not A to a.u. conversion factor

     IMPORTANT: XC functional enforced from input :
     Exchange-correlation= BEEF-VDW
                           (   1   4  43  14   2   0   0)
     Any further DFT definition will be discarded
     Please, verify this is what you really want

  @ DRIVER MODE: Connecting to
 qe_1139763_2852609.sched-torque.pace.gatech.edu0_askb2m_scratch
  using UNIX socket
  @ DRIVER MODE: Message from server: STATUS
  @ DRIVER MODE: Message from server: INIT
  @ DRIVER MODE: Receiving replica           0          -1
  @ DRIVER MODE: Receiving encoded integer          25
  @ DRIVER MODE:  SCF:  T  FORCE:  T  STRESS:  F  VC:  F  ENSEMBLE:  F
  @ DRIVER MODE:  SCF:  T  FORCE:  T  STRESS:  F  VC:  F  ENSEMBLE:  F

     Using Slab Decomposition

     bravais-lattice index     =            0
     lattice parameter (alat)  =       1.8897  a.u.
     unit-cell volume          =    6658.9804 (a.u.)^3
     number of atoms/cell      =           56
     number of atomic types    =            5
     number of electrons       =       399.00
     number of Kohn-Sham states=          209
     kinetic-energy cutoff     =      29.3995  Ry
     charge density cutoff     =     293.9946  Ry
     scf convergence threshold =      7.3E-08
     mixing beta               =       0.0500
     number of iterations used =            8  plain     mixing
     Exchange-correlation= BEEF-VDW
                           (   1   4  43  14   2   0   0)

     celldm(1)=   1.889726  celldm(2)=   0.000000  celldm(3)=   0.000000
     celldm(4)=   0.000000  celldm(5)=   0.000000  celldm(6)=   0.000000

     crystal axes: (cart. coord. in units of alat)
               a(1) = (   6.579727   0.000000   0.000000 )
               a(2) = (  -0.000775   5.961596   0.000000 )
               a(3) = (   0.000000   0.000000  25.155947 )

     reciprocal axes: (cart. coord. in units 2 pi/alat)
               b(1) = (  0.151982  0.000020  0.000000 )
               b(2) = (  0.000000  0.167740  0.000000 )
               b(3) = (  0.000000  0.000000  0.039752 )

     PseudoPot. # 1 for Ti read from file:
     /storage/coda1/p-amedford6/0/shared/rich_project_chbe-medford/medford-share/data/pseudos_module/espresso/nninc/pbe/van/Ti.UPF
     MD5 check sum: 8e4df49b7f0d34bbd5052bf3f5ea0213
     Pseudo is Ultrasoft, Zval = 12.0
     Generated by new atomic code, or converted to UPF format
     Using radial grid of  851 points,  6 beta functions with:
                l(1) =   0
                l(2) =   0
                l(3) =   1
                l(4) =   1
                l(5) =   2
                l(6) =   2
     Q(r) pseudized with  8 coefficients,  rinner =    1.000   1.000   1.000
                                                       1.000   1.000

     PseudoPot. # 2 for O  read from file:
     /storage/coda1/p-amedford6/0/shared/rich_project_chbe-medford/medford-share/data/pseudos_module/espresso/nninc/pbe/van/O.UPF
     MD5 check sum: 78c19812648e8988a0fe644b0f25305e
     Pseudo is Ultrasoft, Zval =  6.0
     Generated by new atomic code, or converted to UPF format
     Using radial grid of  737 points,  4 beta functions with:
                l(1) =   0
                l(2) =   0
                l(3) =   1
                l(4) =   1
     Q(r) pseudized with  8 coefficients,  rinner =    0.800   0.800   0.800

     PseudoPot. # 3 for N  read from file:
     /storage/coda1/p-amedford6/0/shared/rich_project_chbe-medford/medford-share/data/pseudos_module/espresso/nninc/pbe/van/N.UPF
     MD5 check sum: 90d10febe142ad51ac9d5be1deb811c4
     Pseudo is Ultrasoft, Zval =  5.0
     Generated by new atomic code, or converted to UPF format
     Using radial grid of  729 points,  4 beta functions with:
                l(1) =   0
                l(2) =   0
                l(3) =   1
                l(4) =   1
     Q(r) pseudized with  8 coefficients,  rinner =    0.800   0.800   0.800

     PseudoPot. # 4 for C  read from file:
     /storage/coda1/p-amedford6/0/shared/rich_project_chbe-medford/medford-share/data/pseudos_module/espresso/nninc/pbe/van/C.UPF
     MD5 check sum: 1a69bf6b8db32088f5b2163dbdb77a27
     Pseudo is Ultrasoft, Zval =  4.0
     Generated by new atomic code, or converted to UPF format
     Using radial grid of  721 points,  4 beta functions with:
                l(1) =   0
                l(2) =   0
                l(3) =   1
                l(4) =   1
     Q(r) pseudized with  8 coefficients,  rinner =    0.800   0.800   0.800

     PseudoPot. # 5 for H  read from file:
     /storage/coda1/p-amedford6/0/shared/rich_project_chbe-medford/medford-share/data/pseudos_module/espresso/nninc/pbe/van/H.UPF
     MD5 check sum: b5ee9d7bfd3a09ee7748110bda690ff7
     Pseudo is Ultrasoft, Zval =  1.0
     Generated by new atomic code, or converted to UPF format
     Using radial grid of  615 points,  1 beta functions with:
                l(1) =   0
     Q(r) pseudized with  8 coefficients,  rinner =    0.800

     atomic species   valence    mass     pseudopotential
        Ti1           12.00    47.86700     Ti( 1.00)
        O1             6.00    15.99900     O ( 1.00)
        N1             5.00    14.00700     N ( 1.00)
        C1             4.00    12.01100     C ( 1.00)
        H1             1.00     1.00800     H ( 1.00)

     No symmetry found

   Cartesian axes

     site n.     atom                  positions (alat units)
         1           Ti1 tau(   1) = (   0.0004258   2.9801865   6.0000000  )
         2           Ti1 tau(   2) = (   3.2906075   1.4906267   6.0002472  )
         3           O1  tau(   3) = (   0.0006271   0.0005054   7.9858123  )
         4           O1  tau(   4) = (   3.2906025   0.0005020   7.3038282  )
         5           O1  tau(   5) = (   4.5942328   1.4918067   9.2879030  )
         6           O1  tau(   6) = (   1.9868534   1.4903216   9.2879459  )
         7           Ti1 tau(   7) = (   3.2907910   2.8959150   9.1758416  )
         8           Ti1 tau(   8) = (   0.0015273   1.4827037   9.2680791  )
         9           O1  tau(   9) = (   3.2861202   0.0128588  11.3777969  )
        10           O1  tau(  10) = (   0.0116148   5.9584955  10.6183126  )
        11           O1  tau(  11) = (   1.2831632   1.4993340  12.6921085  )
        12           O1  tau(  12) = (   5.2921761   1.5015178  12.6679780  )
        13           Ti1 tau(  13) = (   0.0111066   2.9912061  12.5123142  )
        14           Ti1 tau(  14) = (   3.3187119   1.4875497  12.5412637  )
        15           O1  tau(  15) = (   6.5416963   5.9006142  14.6662030  )
        16           O1  tau(  16) = (   3.3066524   0.0016155  14.0179881  )
        17           O1  tau(  17) = (   4.5377470   1.5714702  16.1207712  )
        18           O1  tau(  18) = (   1.9925948   1.5577299  16.0387284  )
        19           Ti1 tau(  19) = (   3.2598466   3.0207798  15.7337896  )
        20           Ti1 tau(  20) = (   0.0086319   1.3133152  15.8444473  )
        21           O1  tau(  21) = (   3.2904802   0.0005063   4.7018136  )
        22           O1  tau(  22) = (   6.5660721   0.1678205  17.2271563  )
        23           O1  tau(  23) = (   1.3043587   1.4918075   6.0039043  )
        24           O1  tau(  24) = (   5.2767064   1.4903225   6.0039473  )
        25           Ti1 tau(  25) = (   0.0000382   5.9609847   6.0000000  )
        26           Ti1 tau(  26) = (   3.2902200   4.4714249   6.0002472  )
        27           O1  tau(  27) = (   0.0002396   2.9813036   7.9858123  )
        28           O1  tau(  28) = (   3.2902150   2.9813002   7.3038282  )
        29           O1  tau(  29) = (   4.5938453   4.4726049   9.2879030  )
        30           O1  tau(  30) = (   1.9864658   4.4711199   9.2879459  )
        31           Ti1 tau(  31) = (   3.2891106   5.8743827   9.1763621  )
        32           Ti1 tau(  32) = (   0.0006254   4.4649316   9.2693709  )
        33           O1  tau(  33) = (   3.2870289   2.9785969  11.3746142  )
        34           O1  tau(  34) = (   0.0092240   2.9805883  10.6323155  )
        35           O1  tau(  35) = (   1.2865429   4.4729593  12.6568099  )
        36           O1  tau(  36) = (   5.2907978   4.4713399  12.6331247  )
        37           Ti1 tau(  37) = (   0.0245089   0.0029545  12.5000319  )
        38           Ti1 tau(  38) = (   3.3192338   4.4773935  12.5310228  )
        39           O1  tau(  39) = (   6.5398775   3.0461246  14.9162120  )
        40           O1  tau(  40) = (   3.2968145   3.0151409  13.9465962  )
        41           O1  tau(  41) = (   4.5189833   4.4812017  16.2068643  )
        42           O1  tau(  42) = (   1.9905864   4.4756957  16.1679402  )
        43           Ti1 tau(  43) = (   3.3140030   0.0507474  15.8534526  )
        44           Ti1 tau(  44) = (   0.0184218   4.5194176  15.9927436  )
        45           O1  tau(  45) = (   3.2900926   2.9813045   4.7018136  )
        46           O1  tau(  46) = (   1.3039711   4.4726057   6.0039043  )
        47           O1  tau(  47) = (   5.2763189   4.4711207   6.0039473  )
        48           N1  tau(  48) = (   6.2908993   3.4294391  18.1752670  )
        49           C1  tau(  49) = (   0.7550536   3.1452864  19.0745941  )
        50           H1  tau(  50) = (   1.1396299   3.9643166  19.6610198  )
        51           H1  tau(  51) = (   1.3301158   2.2513941  18.9084762  )
        52           H1  tau(  52) = (   5.7550451   4.2450011  18.4501662  )
        53           H1  tau(  53) = (   5.6463078   2.6497838  18.0429669  )
        54           O1  tau(  54) = (   3.1180431   0.1968263  18.2683150  )
        55           H1  tau(  55) = (   3.8687171   5.7282160  18.6922429  )
        56           H1  tau(  56) = (   2.3371514   5.6040609  18.4451484  )

     number of k points=    10  Fermi-Dirac smearing, width (Ry)=  0.0073
                       cart. coord. in units 2pi/alat
        k(    1) = (   0.0000000   0.0000000   0.0000000), wk =   0.1250000
        k(    2) = (   0.0000000   0.0419351   0.0000000), wk =   0.2500000
        k(    3) = (   0.0000000  -0.0838702   0.0000000), wk =   0.1250000
        k(    4) = (   0.0379955   0.0000049   0.0000000), wk =   0.2500000
        k(    5) = (   0.0379955   0.0419400   0.0000000), wk =   0.2500000
        k(    6) = (   0.0379955  -0.0838652   0.0000000), wk =   0.2500000
        k(    7) = (   0.0379955  -0.0419301   0.0000000), wk =   0.2500000
        k(    8) = (  -0.0759910  -0.0000099   0.0000000), wk =   0.1250000
        k(    9) = (  -0.0759910   0.0419252   0.0000000), wk =   0.2500000
        k(   10) = (  -0.0759910  -0.0838800   0.0000000), wk =   0.1250000

     Initial potential from superposition of free atoms

     starting charge  382.99914, renormalised to  399.00000

     negative rho (up, down):  1.613E-02 0.000E+00

     %%%%%%%%%%%%%%%%%%%%%%%%%%%%%%%%%%%%%%%%%%%%%%%%%%%%%%%%%%%%%%%%%%%%%%%%
     %                                                                      %
     % You are using vdW-DF, which was implemented by the Thonhauser group. %
     % Please cite the following two papers that made this development      %
     % possible and the two reviews that describe the various versions:     %
     %                                                                      %
     %   T. Thonhauser et al., PRL 115, 136402 (2015).                      %
     %   T. Thonhauser et al., PRB 76, 125112 (2007).                       %
     %   K. Berland et al., Rep. Prog. Phys. 78, 066501 (2015).             %
     %   D.C. Langreth et al., J. Phys.: Condens. Matter 21, 084203 (2009). %
     %                                                                      %
     %                                                                      %
     % If you are calculating the stress with vdW-DF, please also cite:     %
     %                                                                      %
     %   R. Sabatini et al., J. Phys.: Condens. Matter 24, 424209 (2012).   %
     %                                                                      %
     %%%%%%%%%%%%%%%%%%%%%%%%%%%%%%%%%%%%%%%%%%%%%%%%%%%%%%%%%%%%%%%%%%%%%%%%

     Adding external electric field

     Computed dipole along edir(3) :
        Dipole              -11.3169 Ry au,        -28.7647 Debye
        Dipole field         -0.0214 Ry au,

        Potential amp.        1.9797 Ry
        Total length         46.3494 bohr

     Starting wfcs are  302 atomic wfcs
  @ DRIVER MODE: Message from server: STATUS
  @ DRIVER MODE: Message from server: POSDATA
  @ DRIVER MODE: Reading and sharing cell
  @ DRIVER MODE: Reading and sharing positions
  @ DRIVER MODE: Received positions

     Self-consistent Calculation

     iteration #  1     ecut=    29.40 Ry     beta= 0.05
     Davidson diagonalization with overlap
     c_bands:  3 eigenvalues not converged
     c_bands:  3 eigenvalues not converged
     c_bands:  1 eigenvalues not converged
     c_bands:  4 eigenvalues not converged
     c_bands:  1 eigenvalues not converged
     c_bands:  1 eigenvalues not converged
     c_bands:  1 eigenvalues not converged
     c_bands:  2 eigenvalues not converged
     c_bands:  3 eigenvalues not converged
     ethr =  1.00E-05,  avg # of iterations = 24.0

[...]

     total energy              =   -2437.55545180 Ry
     estimated scf accuracy    <    5825.83031158 Ry

     iteration #  2     ecut=    29.40 Ry     beta= 0.05
     Davidson diagonalization with overlap
     ethr =  1.00E-02,  avg # of iterations = 27.5

[...]

     iteration # 67     ecut=    29.40 Ry     beta= 0.05
     Davidson diagonalization with overlap
     c_bands:  1 eigenvalues not converged
     c_bands:  1 eigenvalues not converged
     ethr =  1.60E-09,  avg # of iterations = 13.3

[...]

     total energy              =   -2955.08679542 Ry
     estimated scf accuracy    <       0.00000010 Ry

     iteration # 78     ecut=    29.40 Ry     beta= 0.05
     Davidson diagonalization with overlap
     ethr =  2.10E-11,  avg # of iterations = 11.4

     negative rho (up, down):  1.530E-02 0.000E+00

     Adding external electric field

     Computed dipole along edir(3) :
        Dipole                0.9592 Ry au,          2.4381 Debye
        Dipole field          0.0018 Ry au,

        Potential amp.       -0.1678 Ry
        Total length         46.3494 bohr

     End of self-consistent calculation

          k = 0.0000 0.0000 0.0000 ( 18029 PWs)   bands (ev):

   -55.5425 -55.5091 -55.5060 -55.4885 -55.4750 -55.4265 -55.3902 -55.3706
   -55.3538 -55.3411 -55.3358 -55.3076 -55.2957 -55.1134 -54.5351 -54.5011
   -32.0984 -32.0013 -31.9147 -31.8998 -31.8748 -31.8595 -31.8459 -31.8409
   -31.7981 -31.7630 -31.7572 -31.7540 -31.7440 -31.7200 -31.7143 -31.6935
   -31.6839 -31.6813 -31.6697 -31.6614 -31.6401 -31.6227 -31.6055 -31.5994
   -31.5703 -31.5663 -31.5617 -31.5591 -31.5568 -31.5443 -31.5351 -31.5281
   -31.5240 -31.5188 -31.5082 -31.4959 -31.4844 -31.4691 -31.4671 -31.4521
   -31.3388 -31.2944 -30.9444 -30.8506 -30.8285 -30.7608 -30.6740 -30.5631
   -19.2573 -16.3996 -16.3094 -16.0870 -15.9221 -15.8428 -15.7462 -15.6055
   -15.5340 -15.4235 -15.3873 -15.2284 -15.2038 -15.1972 -15.1624 -15.1453
   -15.1061 -15.0879 -15.0588 -15.0472 -15.0458 -15.0239 -14.9873 -14.9835
   -14.9410 -14.9280 -14.8685 -14.7725 -14.7047 -14.6408 -14.3283 -13.0377
   -12.9203  -9.2137  -7.0532  -6.5546  -4.6046  -3.7148  -3.5790  -3.5608
    -3.5014  -3.4476  -3.4037  -3.2989  -3.0688  -3.0215  -2.9775  -2.9303
    -2.8105  -2.7394  -2.7351  -2.6555  -2.5803  -2.5384  -2.4836  -2.4750
    -2.3970  -2.3632  -2.3454  -2.3219  -2.2786  -2.2506  -2.2093  -2.1181
    -2.0969  -2.0192  -1.9893  -1.9449  -1.9411  -1.8938  -1.8758  -1.8371
    -1.8360  -1.8261  -1.8050  -1.7678  -1.7253  -1.6694  -1.5787  -1.5514
    -1.3852  -1.2735  -1.2093  -1.1818  -1.1292  -1.0974  -1.0321  -0.9837
    -0.9698  -0.9337  -0.8666  -0.7642  -0.6984  -0.6858  -0.6257  -0.5345
    -0.4764  -0.4386  -0.3562  -0.3305  -0.3120  -0.3065  -0.2424  -0.1746
    -0.1283  -0.0540  -0.0379   0.0177   0.0402   0.0902   0.1213   0.1881
     0.2438   0.2841   0.3357   0.3901   0.3916   0.4066   0.4416   0.4433
     0.5434   0.5553   0.5776   0.6783   0.7773   0.9650   1.0632   1.0984
     1.3957   1.4114   1.4876   1.6720   2.0633   2.1114   3.5184   3.5486
     3.6324   3.6878   3.6967   3.7266   3.7831   4.0365   4.0480   4.0700
     4.0831

[...]

          k = 0.0380-0.0419 0.0000 ( 17876 PWs)   bands (ev):

[...]

          k =-0.0760-0.0000 0.0000 ( 17886 PWs)   bands (ev):

[...]

          k =-0.0760-0.0839 0.0000 ( 17948 PWs)   bands (ev):

   -55.5280 -55.5203 -55.4921 -55.4919 -55.4863 -55.4141 -55.4025 -55.3560
   -55.3558 -55.3499 -55.3247 -55.3242 -55.2939 -55.1152 -54.5182 -54.5179
   -31.9101 -31.8979 -31.8165 -31.8163 -31.7996 -31.7987 -31.7873 -31.7835
   -31.7834 -31.7673 -31.7558 -31.7486 -31.7313 -31.7136 -31.6946 -31.6884
   -31.6853 -31.6832 -31.6787 -31.6719 -31.6692 -31.6595 -31.6317 -31.6307
   -31.6118 -31.6115 -31.6086 -31.5992 -31.5880 -31.5797 -31.5693 -31.5636
   -31.5543 -31.5541 -31.5516 -31.5421 -31.5124 -31.5043 -31.5037 -31.4812
   -31.3781 -31.3418 -30.8413 -30.8410 -30.7570 -30.7568 -30.7175 -30.7173
   -19.2565 -16.3281 -15.8836 -15.7842 -15.6544 -15.5715 -15.5489 -15.4755
   -15.4173 -15.3836 -15.3274 -15.3044 -15.2907 -15.2750 -15.2405 -15.2144
   -15.1947 -15.1514 -15.1341 -15.1160 -15.0846 -15.0596 -15.0486 -15.0434
   -15.0377 -15.0033 -14.9989 -14.9132 -14.9041 -14.9007 -14.5703 -13.0219
   -13.0217  -9.2127  -7.0825  -6.4972  -4.5875  -3.5386  -3.0935  -3.0477
    -2.9935  -2.8530  -2.7941  -2.7281  -2.6923  -2.6496  -2.5992  -2.5656
    -2.5475  -2.4964  -2.4888  -2.4237  -2.4081  -2.3929  -2.3744  -2.3709
    -2.3624  -2.3252  -2.2902  -2.2766  -2.2696  -2.2604  -2.2466  -2.1998
    -2.1846  -2.1531  -2.1436  -2.1101  -2.0807  -2.0506  -1.9371  -1.9054
    -1.8804  -1.8168  -1.7525  -1.7467  -1.6654  -1.6436  -1.5874  -1.5836
    -1.5639  -1.5251  -1.3979  -1.2918  -1.2805  -1.2295  -1.1970  -1.1728
    -1.1101  -1.0593  -1.0049  -1.0021  -0.9106  -0.8645  -0.8382  -0.7363
    -0.7063  -0.6984  -0.5815  -0.5568  -0.5180  -0.5069  -0.5008  -0.4413
    -0.4338  -0.4092  -0.3275  -0.3086  -0.2816  -0.2700  -0.2075  -0.0469
    -0.0163   0.0282   0.1558   0.1951   0.3588   0.3897   0.4218   0.5280
     0.5727   0.6204   0.6249   0.7476   0.7575   0.8448   0.8563   0.8741
     0.9099   0.9216   1.8445   1.8458   1.9313   1.9315   3.5342   3.7778
     3.8432   3.8505   3.8877   4.0239   4.0676   4.1264   4.1298   4.1394
     4.1578

     the Fermi energy is     3.6048 ev

!    total energy              =   -2955.08681201 Ry
     estimated scf accuracy    <       0.00000004 Ry
     smearing contrib. (-TS)   =      -0.04071612 Ry
     internal energy E=F+TS    =   -2955.04609589 Ry

     The total energy is F=E-TS. E is the sum of the following terms:
     one-electron contribution =  -23873.35816343 Ry
     hartree contribution      =   12028.85446508 Ry
     xc contribution           =    -489.73691301 Ry
     ewald contribution        =    9379.19277911 Ry
     electric field correction =       0.00173636 Ry

     convergence has been achieved in  78 iterations

     Forces acting on atoms (cartesian axes, Ry/au):

     atom    1 type  1   force =    -0.00000670   -0.00025507    0.09340326
     atom    2 type  1   force =    -0.00015903   -0.00040109   -0.17805518
     atom    3 type  2   force =     0.00001310   -0.00034572   -0.02034101
     atom    4 type  2   force =    -0.00003625   -0.00190215    0.05857428
     atom    5 type  2   force =    -0.01018374   -0.00085104    0.00745580
     atom    6 type  2   force =     0.01152407   -0.00017825    0.00625539
     atom    7 type  1   force =    -0.00076633    0.00203360   -0.01055342
     atom    8 type  1   force =     0.00032080    0.00073491   -0.00333390
     atom    9 type  2   force =     0.00024664    0.00042885    0.00015070
     atom   10 type  2   force =    -0.00108364    0.00268032   -0.00406650
     atom   11 type  2   force =    -0.00027524    0.00005987    0.00002050
     atom   12 type  2   force =    -0.00004147   -0.00002235    0.00012512
     atom   13 type  1   force =     0.00074918    0.00071674    0.00040690
     atom   14 type  1   force =    -0.00093079   -0.00010826   -0.00008195
     atom   15 type  2   force =    -0.00012967   -0.00026334    0.00058828
     atom   16 type  2   force =     0.00032107    0.00055945    0.00004454
     atom   17 type  2   force =     0.00015093   -0.00028960    0.00030978
     atom   18 type  2   force =     0.00059143    0.00022457    0.00000799
     atom   19 type  1   force =    -0.00080598   -0.00059910    0.00007362
     atom   20 type  1   force =     0.00026242   -0.00051668   -0.00043993
     atom   21 type  2   force =     0.00002114   -0.00011647    0.10389789
     atom   22 type  2   force =    -0.00003362   -0.00132188    0.00060431
     atom   23 type  2   force =    -0.07055522   -0.00021628   -0.02693514
     atom   24 type  2   force =     0.07037458    0.00022161   -0.02698050
     atom   25 type  1   force =     0.00003528   -0.00022054    0.09300105
     atom   26 type  1   force =    -0.00023975   -0.00043785   -0.17802766
     atom   27 type  2   force =     0.00007041   -0.00025229   -0.01931838
     atom   28 type  2   force =     0.00002383   -0.00162551    0.05767227
     atom   29 type  2   force =    -0.01077138   -0.00046580    0.00808501
     atom   30 type  2   force =     0.01199212   -0.00007554    0.00684498
     atom   31 type  1   force =    -0.00063770    0.00609890   -0.01378936
     atom   32 type  1   force =     0.00028468   -0.00084838   -0.00339372
     atom   33 type  2   force =     0.00014318    0.00006405    0.00001505
     atom   34 type  2   force =    -0.00051065   -0.00107787   -0.00265823
     atom   35 type  2   force =    -0.00041740    0.00005670    0.00004708
     atom   36 type  2   force =     0.00004982    0.00000981    0.00026687
     atom   37 type  1   force =     0.00082216   -0.00082214    0.00024240
     atom   38 type  1   force =    -0.00088365    0.00033242   -0.00053378
     atom   39 type  2   force =    -0.00023097   -0.00014539   -0.00012143
     atom   40 type  2   force =     0.00033317    0.00013984    0.00042919
     atom   41 type  2   force =     0.00005622   -0.00027847   -0.00010508
     atom   42 type  2   force =     0.00053046   -0.00010389   -0.00045204
     atom   43 type  1   force =    -0.00105635    0.00000972    0.00038520
     atom   44 type  1   force =     0.00124975   -0.00051503   -0.00033286
     atom   45 type  2   force =     0.00000848   -0.00012051    0.10389094
     atom   46 type  2   force =    -0.07054988   -0.00016693   -0.02691372
     atom   47 type  2   force =     0.07037862    0.00027368   -0.02698333
     atom   48 type  3   force =     0.00066319   -0.00023571    0.00028685
     atom   49 type  4   force =     0.00080239    0.00136446    0.00003474
     atom   50 type  5   force =    -0.00049686   -0.00092209   -0.00061715
     atom   51 type  5   force =     0.00020239    0.00007280    0.00027307
     atom   52 type  5   force =     0.00022575   -0.00019759   -0.00029411
     atom   53 type  5   force =    -0.00038035   -0.00019584    0.00065096
     atom   54 type  2   force =    -0.00708399    0.00496476   -0.00424122
     atom   55 type  5   force =     0.00556313   -0.00475513    0.00398003
     atom   56 type  5   force =     0.00025622   -0.00019729    0.00054554

     Total force =     0.366013     Total SCF correction =     0.000622
  @ DRIVER MODE: Message from server: STATUS
  @ DRIVER MODE: Message from server: GETFORCE
  @ DRIVER MODE: Returning v,forces,stress,ensemble

     Writing output data file ./calc.save/
  @ DRIVER MODE: Message from server: EXIT
  @ DRIVE MODE: Exiting

     General routines

     Parallel routines

   This run was terminated on:   7:33:33  16Sep2021

   JOB DONE.