     Program PWSCF v.6.7GPU starts on 18Oct2021 at 18:41:23

     R & G space division:  proc/nbgrp/npool/nimage =       8
     Reading input from /storage/home/hcoda1/3/ntian30/research/carbon/CxH_vib/Thiel_calc/ads_slab/NH2NHH_perslab/out_0016/pw.inp
Warning: card &CELL ignored
Warning: card   CELL_DYNAMICS='IPI', ignored
Warning: card / ignored

     Current dimensions of program PWSCF are:
     Max number of different atomic species (ntypx) = 10
     Max number of k-points (npk) =  40000
     Max angular momentum in pseudopotentials (lmaxx) =  3
     Presently no symmetry can be used with electric field

     Message from routine cell_base_init:
     DEPRECATED: use true lattice parameter, not A to a.u. conversion factor

     IMPORTANT: XC functional enforced from input :
     Exchange-correlation= BEEF-VDW
                           (   1   4  43  14   2   0   0)
     Any further DFT definition will be discarded
     Please, verify this is what you really want

  @ DRIVER MODE: Connecting to
 qe_1139763_3255134.sched-torque.pace.gatech.edubhxvsj5y_scratch
  using UNIX socket
  @ DRIVER MODE: Message from server: STATUS
  @ DRIVER MODE: Message from server: INIT
  @ DRIVER MODE: Receiving replica           0          -1
  @ DRIVER MODE: Receiving encoded integer          25
  @ DRIVER MODE:  SCF:  T  FORCE:  T  STRESS:  F  VC:  F  ENSEMBLE:  F
  @ DRIVER MODE:  SCF:  T  FORCE:  T  STRESS:  F  VC:  F  ENSEMBLE:  F

     Using Slab Decomposition

     bravais-lattice index     =            0
     lattice parameter (alat)  =       1.8897  a.u.
     unit-cell volume          =    9988.4706 (a.u.)^3
     number of atoms/cell      =           59
     number of atomic types    =            4
     number of electrons       =       440.00
     number of Kohn-Sham states=          230
     kinetic-energy cutoff     =      29.3995  Ry
     charge density cutoff     =     293.9946  Ry
     scf convergence threshold =      7.3E-08
     mixing beta               =       0.0500
     number of iterations used =            8  plain     mixing
     Exchange-correlation= BEEF-VDW
                           (   1   4  43  14   2   0   0)

     celldm(1)=   1.889726  celldm(2)=   0.000000  celldm(3)=   0.000000
     celldm(4)=   0.000000  celldm(5)=   0.000000  celldm(6)=   0.000000

     crystal axes: (cart. coord. in units of alat)
               a(1) = (   6.579727   0.000000   0.000000 )
               a(2) = (  -0.001163   8.942395   0.000000 )
               a(3) = (   0.000000   0.000000  25.155947 )

     reciprocal axes: (cart. coord. in units 2 pi/alat)
               b(1) = (  0.151982  0.000020  0.000000 )
               b(2) = (  0.000000  0.111827  0.000000 )
               b(3) = (  0.000000  0.000000  0.039752 )

     PseudoPot. # 1 for O  read from file:
     /storage/coda1/p-amedford6/0/shared/rich_project_chbe-medford/medford-share/data/pseudos_module/espresso/nninc/pbe/van/O.UPF
     MD5 check sum: 78c19812648e8988a0fe644b0f25305e
     Pseudo is Ultrasoft, Zval =  6.0
     Generated by new atomic code, or converted to UPF format
     Using radial grid of  737 points,  4 beta functions with:
                l(1) =   0
                l(2) =   0
                l(3) =   1
                l(4) =   1
     Q(r) pseudized with  8 coefficients,  rinner =    0.800   0.800   0.800

     PseudoPot. # 2 for Ti read from file:
     /storage/coda1/p-amedford6/0/shared/rich_project_chbe-medford/medford-share/data/pseudos_module/espresso/nninc/pbe/van/Ti.UPF
     MD5 check sum: 8e4df49b7f0d34bbd5052bf3f5ea0213
     Pseudo is Ultrasoft, Zval = 12.0
     Generated by new atomic code, or converted to UPF format
     Using radial grid of  851 points,  6 beta functions with:
                l(1) =   0
                l(2) =   0
                l(3) =   1
                l(4) =   1
                l(5) =   2
                l(6) =   2
     Q(r) pseudized with  8 coefficients,  rinner =    1.000   1.000   1.000
                                                       1.000   1.000

     PseudoPot. # 3 for H  read from file:
     /storage/coda1/p-amedford6/0/shared/rich_project_chbe-medford/medford-share/data/pseudos_module/espresso/nninc/pbe/van/H.UPF
     MD5 check sum: b5ee9d7bfd3a09ee7748110bda690ff7
     Pseudo is Ultrasoft, Zval =  1.0
     Generated by new atomic code, or converted to UPF format
     Using radial grid of  615 points,  1 beta functions with:
                l(1) =   0
     Q(r) pseudized with  8 coefficients,  rinner =    0.800

     PseudoPot. # 4 for N  read from file:
     /storage/coda1/p-amedford6/0/shared/rich_project_chbe-medford/medford-share/data/pseudos_module/espresso/nninc/pbe/van/N.UPF
     MD5 check sum: 90d10febe142ad51ac9d5be1deb811c4
     Pseudo is Ultrasoft, Zval =  5.0
     Generated by new atomic code, or converted to UPF format
     Using radial grid of  729 points,  4 beta functions with:
                l(1) =   0
                l(2) =   0
                l(3) =   1
                l(4) =   1
     Q(r) pseudized with  8 coefficients,  rinner =    0.800   0.800   0.800

     atomic species   valence    mass     pseudopotential
        O1             6.00    15.99900     O ( 1.00)
        Ti1           12.00    47.86700     Ti( 1.00)
        H1             1.00     1.00800     H ( 1.00)
        N1             5.00    14.00700     N ( 1.00)

     No symmetry found

   Cartesian axes

     site n.     atom                  positions (alat units)
         1           O1  tau(   1) = (   0.0007354   0.0005023  10.5931620  )
         2           O1  tau(   2) = (   3.2887669   8.9343558  13.7857904  )
         3           O1  tau(   3) = (  -0.0004435   8.9037079  17.1656601  )
         4           O1  tau(   4) = (   0.0006271   0.0005054   7.9858123  )
         5           O1  tau(   5) = (   3.2907596   0.0056730  11.1454013  )
         6           O1  tau(   6) = (   0.0000918   8.9024801  14.5153886  )
         7           O1  tau(   7) = (   1.9868534   1.4903216   9.2879459  )
         8           O1  tau(   8) = (   5.2129768   1.5767634  12.5412193  )
         9           O1  tau(   9) = (   2.0410104   1.4081166  15.9738913  )
        10           Ti1 tau(  10) = (   0.0007404   1.4906270   9.2895810  )
        11           Ti1 tau(  11) = (   3.2923993   1.3029312  12.4395176  )
        12           Ti1 tau(  12) = (   6.5786190   1.6682186  16.0479855  )
        13           O1  tau(  13) = (   4.5942328   1.4918067   9.2879030  )
        14           O1  tau(  14) = (   1.3693608   1.5763615  12.5409223  )
        15           O1  tau(  15) = (   4.5388119   1.4066068  15.9736107  )
        16           Ti1 tau(  16) = (   3.2902859   2.9801868   9.2893338  )
        17           Ti1 tau(  17) = (   0.0025983   2.7818652  12.5490862  )
        18           Ti1 tau(  18) = (   3.2890997   3.0957086  15.6341045  )
        19           O1  tau(  19) = (   0.0003479   2.9813005  10.5931620  )
        20           O1  tau(  20) = (   3.2906043   2.9558292  13.7911244  )
        21           O1  tau(  21) = (   0.0002396   2.9813036   7.9858123  )
        22           O1  tau(  22) = (   3.2907828   2.9846389  11.1656624  )
        23           O1  tau(  23) = (   0.0000664   2.9755257  14.5967958  )
        24           O1  tau(  24) = (   1.9864658   4.4711199   9.2879459  )
        25           O1  tau(  25) = (   5.2254851   4.5442098  12.5530165  )
        26           O1  tau(  26) = (   2.0413797   4.3804877  15.9810922  )
        27           Ti1 tau(  27) = (   0.0003529   4.4714252   9.2895810  )
        28           Ti1 tau(  28) = (   3.2927641   4.3249026  12.5337624  )
        29           Ti1 tau(  29) = (  -0.0001393   4.3779101  16.0758329  )
        30           O1  tau(  30) = (   4.5938453   4.4726049   9.2879030  )
        31           O1  tau(  31) = (   1.3554856   4.5423027  12.5528228  )
        32           O1  tau(  32) = (   4.5375453   4.3808357  15.9816482  )
        33           Ti1 tau(  33) = (   3.2898983   5.9609850   9.2893338  )
        34           Ti1 tau(  34) = (   0.0022780   5.7553130  12.5179661  )
        35           Ti1 tau(  35) = (   3.2911749   6.0723021  16.2828521  )
        36           O1  tau(  36) = (  -0.0000397   5.9620987  10.5931620  )
        37           O1  tau(  37) = (   3.2898444   5.9099340  13.7874885  )
        38           O1  tau(  38) = (  -0.0002305   5.9963729  17.1613877  )
        39           O1  tau(  39) = (  -0.0001480   5.9621018   7.9858123  )
        40           O1  tau(  40) = (   3.2898933   5.9403142  11.1650959  )
        41           O1  tau(  41) = (   0.0001730   6.0398540  14.5337486  )
        42           O1  tau(  42) = (   1.9860782   7.4519181   9.2879459  )
        43           O1  tau(  43) = (   5.2203866   7.5240042  12.5266709  )
        44           O1  tau(  44) = (   2.0308607   7.4363189  15.9936472  )
        45           Ti1 tau(  45) = (  -0.0000347   7.4522234   9.2895810  )
        46           Ti1 tau(  46) = (   3.2897547   7.2013570  12.5904776  )
        47           Ti1 tau(  47) = (  -0.0001197   7.5007381  15.6461876  )
        48           O1  tau(  48) = (   4.5934577   7.4534031   9.2879030  )
        49           O1  tau(  49) = (   1.3580612   7.5226468  12.5263262  )
        50           O1  tau(  50) = (   4.5486487   7.4363691  15.9933312  )
        51           Ti1 tau(  51) = (   3.2895107   8.9417832   9.2893338  )
        52           Ti1 tau(  52) = (  -0.0005051   8.7269297  12.4809553  )
        53           Ti1 tau(  53) = (   3.2886672   0.0795926  15.6360096  )
        54           H1  tau(  54) = (   6.5784023   6.0277306  18.1241331  )
        55           H1  tau(  55) = (   6.5784455   8.8634660  18.1266539  )
        56           N1  tau(  56) = (   6.5791914   3.0163145  17.2269018  )
        57           N1  tau(  57) = (   3.2902358   5.9939226  18.1904466  )
        58           H1  tau(  58) = (   3.2886139   5.1344262  18.7255412  )
        59           H1  tau(  59) = (   3.2892998   6.7958846  18.8069972  )

     number of k points=    10  Fermi-Dirac smearing, width (Ry)=  0.0073
                       cart. coord. in units 2pi/alat
        k(    1) = (   0.0000000   0.0000000   0.0000000), wk =   0.1250000
        k(    2) = (   0.0000000   0.0279567   0.0000000), wk =   0.2500000
        k(    3) = (   0.0000000  -0.0559134   0.0000000), wk =   0.1250000
        k(    4) = (   0.0379955   0.0000049   0.0000000), wk =   0.2500000
        k(    5) = (   0.0379955   0.0279617   0.0000000), wk =   0.2500000
        k(    6) = (   0.0379955  -0.0559085   0.0000000), wk =   0.2500000
        k(    7) = (   0.0379955  -0.0279518   0.0000000), wk =   0.2500000
        k(    8) = (  -0.0759910  -0.0000099   0.0000000), wk =   0.1250000
        k(    9) = (  -0.0759910   0.0279468   0.0000000), wk =   0.2500000
        k(   10) = (  -0.0759910  -0.0559233   0.0000000), wk =   0.1250000

     Initial potential from superposition of free atoms

     starting charge  421.99910, renormalised to  440.00000

     negative rho (up, down):  3.748E-02 0.000E+00

     %%%%%%%%%%%%%%%%%%%%%%%%%%%%%%%%%%%%%%%%%%%%%%%%%%%%%%%%%%%%%%%%%%%%%%%%
     %                                                                      %
     % You are using vdW-DF, which was implemented by the Thonhauser group. %
     % Please cite the following two papers that made this development      %
     % possible and the two reviews that describe the various versions:     %
     %                                                                      %
     %   T. Thonhauser et al., PRL 115, 136402 (2015).                      %
     %   T. Thonhauser et al., PRB 76, 125112 (2007).                       %
     %   K. Berland et al., Rep. Prog. Phys. 78, 066501 (2015).             %
     %   D.C. Langreth et al., J. Phys.: Condens. Matter 21, 084203 (2009). %
     %                                                                      %
     %                                                                      %
     % If you are calculating the stress with vdW-DF, please also cite:     %
     %                                                                      %
     %   R. Sabatini et al., J. Phys.: Condens. Matter 24, 424209 (2012).   %
     %                                                                      %
     %%%%%%%%%%%%%%%%%%%%%%%%%%%%%%%%%%%%%%%%%%%%%%%%%%%%%%%%%%%%%%%%%%%%%%%%

     Adding external electric field

     Computed dipole along edir(3) :
        Dipole               -3.9322 Ry au,         -9.9948 Debye
        Dipole field         -0.0049 Ry au,

        Potential amp.        0.4586 Ry
        Total length         46.3494 bohr

     Starting wfcs are  332 atomic wfcs
  @ DRIVER MODE: Message from server: STATUS
  @ DRIVER MODE: Message from server: POSDATA
  @ DRIVER MODE: Reading and sharing cell
  @ DRIVER MODE: Reading and sharing positions
  @ DRIVER MODE: Received positions

     Self-consistent Calculation

     iteration #  1     ecut=    29.40 Ry     beta= 0.05
     Davidson diagonalization with overlap
     c_bands:  2 eigenvalues not converged
     c_bands:  3 eigenvalues not converged
     c_bands:  5 eigenvalues not converged
     c_bands:  4 eigenvalues not converged
     c_bands:  1 eigenvalues not converged
     c_bands:  4 eigenvalues not converged
     c_bands:  5 eigenvalues not converged
     c_bands:  3 eigenvalues not converged
     c_bands:  3 eigenvalues not converged
     ethr =  1.00E-05,  avg # of iterations = 19.8

[...]

     total energy              =   -3294.69848212 Ry
     estimated scf accuracy    <      19.95241653 Ry

     iteration #  2     ecut=    29.40 Ry     beta= 0.05
     Davidson diagonalization with overlap
     ethr =  4.53E-03,  avg # of iterations =  1.4

[...]

     iteration # 31     ecut=    29.40 Ry     beta= 0.05
     Davidson diagonalization with overlap
     c_bands:  1 eigenvalues not converged
     ethr =  1.09E-07,  avg # of iterations =  7.9

[...]

     total energy              =   -3293.27269758 Ry
     estimated scf accuracy    <       0.00000010 Ry

     iteration # 62     ecut=    29.40 Ry     beta= 0.05
     Davidson diagonalization with overlap
     ethr =  2.35E-11,  avg # of iterations =  5.0

     negative rho (up, down):  3.595E-02 0.000E+00

     Adding external electric field

     Computed dipole along edir(3) :
        Dipole                1.3167 Ry au,          3.3466 Debye
        Dipole field          0.0017 Ry au,

        Potential amp.       -0.1536 Ry
        Total length         46.3494 bohr

     End of self-consistent calculation

          k = 0.0000 0.0000 0.0000 ( 26871 PWs)   bands (ev):

   -58.2799 -58.2565 -58.2511 -58.2270 -58.1664 -57.7758 -57.7738 -57.7573
   -57.6699 -57.5701 -57.5675 -57.5462 -57.3362 -56.8618 -56.8379 -56.8211
   -56.7160 -56.6613 -34.6900 -34.6503 -34.6175 -34.6020 -34.5978 -34.5964
   -34.5471 -34.4930 -34.4551 -34.4110 -34.4059 -34.3891 -34.3842 -34.3634
   -34.3164 -34.1902 -34.1426 -34.1353 -34.1264 -34.1231 -34.0754 -34.0547
   -34.0538 -34.0118 -34.0010 -33.9602 -33.9567 -33.8571 -33.8526 -33.8267
   -33.8190 -33.8041 -33.7669 -33.7579 -33.7488 -33.7316 -33.6839 -33.5762
   -33.5445 -33.2308 -33.2066 -33.1884 -33.1717 -33.1657 -33.1485 -33.0699
   -33.0282 -33.0114 -32.9929 -32.9796 -32.9692 -32.9027 -32.8704 -32.7701
   -18.9460 -18.8266 -18.7387 -18.3606 -18.3016 -18.1684 -18.1114 -18.1042
   -18.0103 -17.9414 -17.7181 -17.6699 -17.6580 -17.6335 -17.5379 -17.5223
   -17.5156 -17.4838 -17.4593 -17.4559 -17.3516 -17.3084 -17.2990 -17.2946
   -17.2656 -17.1839 -17.1344 -17.0397 -17.0084 -17.0064 -16.8336 -16.7945
   -15.3387 -15.2977 -15.2889 -15.2462 -11.6050  -6.9796  -6.8119  -6.6970
    -6.1801  -5.9693  -5.7728  -5.6094  -5.5137  -5.4468  -5.3772  -5.3103
    -5.2759  -5.2547  -5.2030  -5.1627  -5.0627  -5.0545  -4.9618  -4.9059
    -4.8749  -4.8440  -4.7666  -4.7463  -4.7280  -4.6801  -4.6196  -4.6074
    -4.5686  -4.4937  -4.4838  -4.4702  -4.4326  -4.4259  -4.3712  -4.2833
    -4.1943  -4.1641  -4.1537  -4.1128  -4.0410  -4.0302  -4.0083  -3.9820
    -3.9748  -3.9438  -3.8675  -3.8426  -3.7356  -3.6449  -3.6137  -3.6000
    -3.5109  -3.4316  -3.3722  -3.3468  -3.1734  -3.1455  -3.1029  -3.0395
    -3.0289  -2.9657  -2.9435  -2.9223  -2.8912  -2.8678  -2.8039  -2.7961
    -2.7931  -2.7725  -2.7481  -2.7024  -2.6499  -2.6286  -2.5679  -2.5374
    -2.5236  -2.4992  -2.4558  -2.4340  -2.3193  -2.2702  -2.2564  -2.2370
    -2.2324  -2.1535  -2.0752  -2.0181  -1.9982  -1.8715  -1.8663  -1.7525
    -1.7083  -1.7025  -1.6488  -1.5783  -1.5308  -1.4804  -1.3726  -1.2423
    -1.1799  -1.0874  -1.0275  -0.7649  -0.6692  -0.5550  -0.5479  -0.5337
    -0.5151  -0.3666  -0.3521  -0.2558   0.9954   1.1314   1.2895   1.3128
     1.5132   1.5998   1.6245   1.6679   1.7664   1.8169

[...]

          k = 0.0380-0.0280 0.0000 ( 26873 PWs)   bands (ev):

[...]

          k =-0.0760-0.0000 0.0000 ( 26902 PWs)   bands (ev):

[...]

          k =-0.0760-0.0559 0.0000 ( 26868 PWs)   bands (ev):

   -58.2734 -58.2688 -58.2451 -58.2269 -58.1665 -57.7755 -57.7736 -57.7578
   -57.6697 -57.5701 -57.5684 -57.5454 -57.3362 -56.8586 -56.8438 -56.8182
   -56.7161 -56.6612 -34.7182 -34.6927 -34.6510 -34.6232 -34.5917 -34.5062
   -34.4917 -34.4325 -34.4276 -34.4176 -34.4099 -34.4059 -34.4022 -34.3650
   -34.3639 -34.2315 -34.1728 -34.1593 -34.1292 -34.1217 -34.0606 -34.0057
   -33.9939 -33.9894 -33.9671 -33.9618 -33.9258 -33.8998 -33.8827 -33.8749
   -33.8308 -33.8037 -33.7677 -33.7548 -33.7476 -33.7325 -33.6858 -33.5758
   -33.5492 -33.2489 -33.2175 -33.2075 -33.1938 -33.1690 -33.0562 -33.0391
   -33.0313 -32.9816 -32.9795 -32.9737 -32.9691 -32.9586 -32.9030 -32.7773
   -18.9042 -18.7551 -18.6282 -18.4711 -18.2347 -18.1317 -17.9701 -17.8871
   -17.8622 -17.8593 -17.8438 -17.7446 -17.7384 -17.6997 -17.6485 -17.6188
   -17.6080 -17.6035 -17.5521 -17.5515 -17.3557 -17.3463 -17.2951 -17.2507
   -17.2261 -17.2048 -17.1049 -17.1015 -17.0322 -16.9598 -16.8518 -16.7705
   -15.3492 -15.3386 -15.2466 -15.2277 -11.6018  -6.9171  -6.8379  -6.6977
    -5.9556  -5.7460  -5.7183  -5.6691  -5.3511  -5.2967  -5.1961  -5.1682
    -5.1294  -5.1125  -5.0721  -5.0703  -5.0006  -4.9562  -4.9420  -4.9173
    -4.9016  -4.8716  -4.8376  -4.8162  -4.7538  -4.7495  -4.7347  -4.6913
    -4.6437  -4.5591  -4.5362  -4.5208  -4.4653  -4.4293  -4.2526  -4.2079
    -4.1809  -4.1668  -4.0792  -4.0568  -3.9789  -3.9501  -3.9065  -3.8292
    -3.7355  -3.6892  -3.6383  -3.5832  -3.5573  -3.5269  -3.5205  -3.4687
    -3.4397  -3.3907  -3.3585  -3.3537  -3.3020  -3.2453  -3.1989  -3.1807
    -3.1542  -3.1490  -3.1261  -3.1002  -3.0697  -3.0465  -3.0431  -2.9850
    -2.9358  -2.9251  -2.8487  -2.8173  -2.7636  -2.7122  -2.6866  -2.6299
    -2.6235  -2.5698  -2.5640  -2.5000  -2.4688  -2.4232  -2.4103  -2.3409
    -2.1598  -2.0960  -1.9906  -1.9456  -1.9328  -1.8670  -1.8358  -1.8178
    -1.6823  -1.6719  -1.6075  -1.6039  -1.5823  -1.3676  -1.3408  -1.3044
    -1.2732  -1.2354  -1.2023  -1.0896  -0.7978  -0.7077  -0.6738  -0.4840
    -0.4622  -0.4180  -0.3871  -0.3727   1.0405   1.2090   1.2772   1.3587
     1.3796   1.4219   1.4517   1.6381   1.6689   1.7002

     the Fermi energy is     0.3953 ev

!    total energy              =   -3293.27272891 Ry
     estimated scf accuracy    <       0.00000007 Ry
     smearing contrib. (-TS)   =      -0.00047483 Ry
     internal energy E=F+TS    =   -3293.27225408 Ry

     The total energy is F=E-TS. E is the sum of the following terms:
     one-electron contribution =  -34645.93424640 Ry
     hartree contribution      =   17387.49770563 Ry
     xc contribution           =    -542.12993003 Ry
     ewald contribution        =   14507.29203574 Ry
     electric field correction =       0.00218098 Ry

     convergence has been achieved in  62 iterations

     Forces acting on atoms (cartesian axes, Ry/au):

     atom    1 type  1   force =     0.00002224    0.00609256    0.04341106
     atom    2 type  1   force =     0.00000562   -0.00402388   -0.00286443
     atom    3 type  1   force =     0.00001622    0.00352244   -0.00209964
     atom    4 type  1   force =     0.00005080   -0.00044280    0.10165534
     atom    5 type  1   force =    -0.00000494    0.00015242    0.00750374
     atom    6 type  1   force =    -0.00000837    0.00398498    0.00080042
     atom    7 type  1   force =     0.07785480    0.00122206   -0.03551146
     atom    8 type  1   force =     0.00795947   -0.02608565    0.00026214
     atom    9 type  1   force =     0.00847661    0.01915498    0.00081124
     atom   10 type  2   force =    -0.00006463    0.00813191   -0.15940142
     atom   11 type  2   force =    -0.00007035    0.02239322   -0.00336469
     atom   12 type  2   force =     0.00002408   -0.01931995   -0.00259199
     atom   13 type  1   force =    -0.07794310    0.00075612   -0.03550185
     atom   14 type  1   force =    -0.00808430   -0.02596226    0.00028090
     atom   15 type  1   force =    -0.00856799    0.01924128    0.00085411
     atom   16 type  2   force =     0.00009862    0.00153589    0.07237251
     atom   17 type  2   force =     0.00008984    0.03135693    0.00134690
     atom   18 type  2   force =     0.00002370   -0.02500284    0.00330939
     atom   19 type  1   force =     0.00005373    0.00276287    0.05724901
     atom   20 type  1   force =     0.00000771   -0.00186835    0.00080331
     atom   21 type  1   force =     0.00005181   -0.00089970    0.10058207
     atom   22 type  1   force =     0.00000473   -0.00259698    0.00648919
     atom   23 type  1   force =    -0.00003111    0.00179182    0.00453286
     atom   24 type  1   force =     0.07897390    0.00059509   -0.03633125
     atom   25 type  1   force =     0.00960963   -0.03002921    0.00061790
     atom   26 type  1   force =     0.01113519    0.01546734    0.00372317
     atom   27 type  2   force =    -0.00007992   -0.00567543   -0.15461515
     atom   28 type  2   force =     0.00001363    0.02795102   -0.00269660
     atom   29 type  2   force =     0.00003080   -0.00686659   -0.01542472
     atom   30 type  1   force =    -0.07905816    0.00019289   -0.03633467
     atom   31 type  1   force =    -0.00969259   -0.02986480    0.00062270
     atom   32 type  1   force =    -0.01112305    0.01543161    0.00372156
     atom   33 type  2   force =     0.00011785   -0.00294726    0.07718700
     atom   34 type  2   force =     0.00003835    0.03530680    0.00355905
     atom   35 type  2   force =    -0.00005792   -0.01811605   -0.00017310
     atom   36 type  1   force =     0.00008415    0.00418688    0.05145922
     atom   37 type  1   force =    -0.00000128   -0.00278785   -0.00290578
     atom   38 type  1   force =     0.00001099    0.00285001    0.00347689
     atom   39 type  1   force =     0.00004595    0.00293687    0.10098151
     atom   40 type  1   force =    -0.00000579   -0.00194359    0.00747024
     atom   41 type  1   force =    -0.00000086    0.00153686    0.00026679
     atom   42 type  1   force =     0.07838304    0.00163541   -0.03443362
     atom   43 type  1   force =     0.00609436   -0.02317249   -0.00032898
     atom   44 type  1   force =     0.01010723    0.01615003   -0.00674773
     atom   45 type  2   force =    -0.00005644   -0.00742879   -0.16391773
     atom   46 type  2   force =    -0.00003424    0.01835430    0.00059144
     atom   47 type  2   force =     0.00001939   -0.01595504    0.01691518
     atom   48 type  1   force =    -0.07848791    0.00119157   -0.03441750
     atom   49 type  1   force =    -0.00608350   -0.02319837   -0.00032467
     atom   50 type  1   force =    -0.01009629    0.01616949   -0.00672876
     atom   51 type  2   force =     0.00010705   -0.00343482    0.06015030
     atom   52 type  2   force =     0.00004942    0.02826952    0.00320546
     atom   53 type  2   force =     0.00008939   -0.02177771    0.00065983
     atom   54 type  3   force =    -0.00003552    0.00065169   -0.00186863
     atom   55 type  3   force =    -0.00002478   -0.00078897   -0.00036401
     atom   56 type  4   force =    -0.00002647   -0.00974434    0.00166918
     atom   57 type  4   force =     0.00001453   -0.00072779    0.00051035
     atom   58 type  3   force =    -0.00002416   -0.00044961   -0.00035282
     atom   59 type  3   force =    -0.00000116    0.00013422    0.00024926

     Total force =     0.434703     Total SCF correction =     0.000602
  @ DRIVER MODE: Message from server: STATUS
  @ DRIVER MODE: Message from server: GETFORCE
  @ DRIVER MODE: Returning v,forces,stress,ensemble

     Writing output data file ./calc.save/
  @ DRIVER MODE: Message from server: EXIT
  @ DRIVE MODE: Exiting

     General routines

     Parallel routines

   This run was terminated on:  19:11:15  18Oct2021

   JOB DONE.