     Program PWSCF v.6.7GPU starts on 18Oct2021 at 20:25:12

     R & G space division:  proc/nbgrp/npool/nimage =       8
     Reading input from /storage/home/hcoda1/3/ntian30/research/carbon/CxH_vib/Thiel_calc/ads_slab/HNNH_perslab/out_0017/pw.inp
Warning: card &CELL ignored
Warning: card   CELL_DYNAMICS='IPI', ignored
Warning: card / ignored

     Current dimensions of program PWSCF are:
     Max number of different atomic species (ntypx) = 10
     Max number of k-points (npk) =  40000
     Max angular momentum in pseudopotentials (lmaxx) =  3
     Presently no symmetry can be used with electric field

     Message from routine cell_base_init:
     DEPRECATED: use true lattice parameter, not A to a.u. conversion factor

     IMPORTANT: XC functional enforced from input :
     Exchange-correlation= BEEF-VDW
                           (   1   4  43  14   2   0   0)
     Any further DFT definition will be discarded
     Please, verify this is what you really want

  @ DRIVER MODE: Connecting to
 qe_1139763_3255131.sched-torque.pace.gatech.eduu4ac7it0_scratch
  using UNIX socket
  @ DRIVER MODE: Message from server: STATUS
  @ DRIVER MODE: Message from server: INIT
  @ DRIVER MODE: Receiving replica           0          -1
  @ DRIVER MODE: Receiving encoded integer          25
  @ DRIVER MODE:  SCF:  T  FORCE:  T  STRESS:  F  VC:  F  ENSEMBLE:  F
  @ DRIVER MODE:  SCF:  T  FORCE:  T  STRESS:  F  VC:  F  ENSEMBLE:  F

     Using Slab Decomposition

     bravais-lattice index     =            0
     lattice parameter (alat)  =       1.8897  a.u.
     unit-cell volume          =    9988.4706 (a.u.)^3
     number of atoms/cell      =           57
     number of atomic types    =            4
     number of electrons       =       438.00
     number of Kohn-Sham states=          229
     kinetic-energy cutoff     =      29.3995  Ry
     charge density cutoff     =     293.9946  Ry
     scf convergence threshold =      7.3E-08
     mixing beta               =       0.0500
     number of iterations used =            8  plain     mixing
     Exchange-correlation= BEEF-VDW
                           (   1   4  43  14   2   0   0)

     celldm(1)=   1.889726  celldm(2)=   0.000000  celldm(3)=   0.000000
     celldm(4)=   0.000000  celldm(5)=   0.000000  celldm(6)=   0.000000

     crystal axes: (cart. coord. in units of alat)
               a(1) = (   6.579727   0.000000   0.000000 )
               a(2) = (  -0.001163   8.942395   0.000000 )
               a(3) = (   0.000000   0.000000  25.155947 )

     reciprocal axes: (cart. coord. in units 2 pi/alat)
               b(1) = (  0.151982  0.000020  0.000000 )
               b(2) = (  0.000000  0.111827  0.000000 )
               b(3) = (  0.000000  0.000000  0.039752 )

     PseudoPot. # 1 for O  read from file:
     /storage/coda1/p-amedford6/0/shared/rich_project_chbe-medford/medford-share/data/pseudos_module/espresso/nninc/pbe/van/O.UPF
     MD5 check sum: 78c19812648e8988a0fe644b0f25305e
     Pseudo is Ultrasoft, Zval =  6.0
     Generated by new atomic code, or converted to UPF format
     Using radial grid of  737 points,  4 beta functions with:
                l(1) =   0
                l(2) =   0
                l(3) =   1
                l(4) =   1
     Q(r) pseudized with  8 coefficients,  rinner =    0.800   0.800   0.800

     PseudoPot. # 2 for Ti read from file:
     /storage/coda1/p-amedford6/0/shared/rich_project_chbe-medford/medford-share/data/pseudos_module/espresso/nninc/pbe/van/Ti.UPF
     MD5 check sum: 8e4df49b7f0d34bbd5052bf3f5ea0213
     Pseudo is Ultrasoft, Zval = 12.0
     Generated by new atomic code, or converted to UPF format
     Using radial grid of  851 points,  6 beta functions with:
                l(1) =   0
                l(2) =   0
                l(3) =   1
                l(4) =   1
                l(5) =   2
                l(6) =   2
     Q(r) pseudized with  8 coefficients,  rinner =    1.000   1.000   1.000
                                                       1.000   1.000

     PseudoPot. # 3 for H  read from file:
     /storage/coda1/p-amedford6/0/shared/rich_project_chbe-medford/medford-share/data/pseudos_module/espresso/nninc/pbe/van/H.UPF
     MD5 check sum: b5ee9d7bfd3a09ee7748110bda690ff7
     Pseudo is Ultrasoft, Zval =  1.0
     Generated by new atomic code, or converted to UPF format
     Using radial grid of  615 points,  1 beta functions with:
                l(1) =   0
     Q(r) pseudized with  8 coefficients,  rinner =    0.800

     PseudoPot. # 4 for N  read from file:
     /storage/coda1/p-amedford6/0/shared/rich_project_chbe-medford/medford-share/data/pseudos_module/espresso/nninc/pbe/van/N.UPF
     MD5 check sum: 90d10febe142ad51ac9d5be1deb811c4
     Pseudo is Ultrasoft, Zval =  5.0
     Generated by new atomic code, or converted to UPF format
     Using radial grid of  729 points,  4 beta functions with:
                l(1) =   0
                l(2) =   0
                l(3) =   1
                l(4) =   1
     Q(r) pseudized with  8 coefficients,  rinner =    0.800   0.800   0.800

     atomic species   valence    mass     pseudopotential
        O1             6.00    15.99900     O ( 1.00)
        Ti1           12.00    47.86700     Ti( 1.00)
        H1             1.00     1.00800     H ( 1.00)
        N1             5.00    14.00700     N ( 1.00)

     No symmetry found

   Cartesian axes

     site n.     atom                  positions (alat units)
         1           O1  tau(   1) = (   0.0007354   0.0005023  10.5931620  )
         2           O1  tau(   2) = (   3.2896598   8.9340738  13.9086047  )
         3           O1  tau(   3) = (   6.5779785   8.9335072  17.2267929  )
         4           O1  tau(   4) = (   0.0006271   0.0005054   7.9858123  )
         5           O1  tau(   5) = (   3.2892818   8.9168625  11.1887994  )
         6           O1  tau(   6) = (   0.0000953   0.0200859  14.6187425  )
         7           O1  tau(   7) = (   1.9868534   1.4903216   9.2879459  )
         8           O1  tau(   8) = (   5.2299496   1.5903429  12.5639559  )
         9           O1  tau(   9) = (   2.0057315   1.6103507  16.0678580  )
        10           Ti1 tau(  10) = (   0.0007404   1.4906270   9.2895810  )
        11           Ti1 tau(  11) = (   3.2903845   1.3415648  12.5012035  )
        12           Ti1 tau(  12) = (   0.0001950   1.2451541  15.9845895  )
        13           O1  tau(  13) = (   4.5942328   1.4918067   9.2879030  )
        14           O1  tau(  14) = (   1.3504490   1.5899334  12.5641350  )
        15           O1  tau(  15) = (   4.5723762   1.6092463  16.0679920  )
        16           Ti1 tau(  16) = (   3.2902859   2.9801868   9.2893338  )
        17           Ti1 tau(  17) = (  -0.0000381   2.8017340  12.4757424  )
        18           Ti1 tau(  18) = (   3.2890522   2.9119407  15.7046117  )
        19           O1  tau(  19) = (   0.0003479   2.9813005  10.5931620  )
        20           O1  tau(  20) = (   3.2896940   2.9634103  13.8950687  )
        21           O1  tau(  21) = (   0.0002396   2.9813036   7.9858123  )
        22           O1  tau(  22) = (   3.2899864   2.9652420  11.1892519  )
        23           O1  tau(  23) = (  -0.0000843   3.0239999  14.5506518  )
        24           O1  tau(  24) = (   1.9864658   4.4711199   9.2879459  )
        25           O1  tau(  25) = (   5.2265999   4.6000300  12.5825491  )
        26           O1  tau(  26) = (   2.0173024   4.5375175  16.0298170  )
        27           Ti1 tau(  27) = (   0.0003529   4.4714252   9.2895810  )
        28           Ti1 tau(  28) = (   3.2900658   4.3228872  12.5050252  )
        29           Ti1 tau(  29) = (   0.0015352   4.3959346  15.6897578  )
        30           O1  tau(  30) = (   4.5938453   4.4726049   9.2879030  )
        31           O1  tau(  31) = (   1.3532953   4.6000771  12.5829012  )
        32           O1  tau(  32) = (   4.5620845   4.5358613  16.0300787  )
        33           Ti1 tau(  33) = (   3.2898983   5.9609850   9.2893338  )
        34           Ti1 tau(  34) = (  -0.0003676   5.8120669  12.4544080  )
        35           Ti1 tau(  35) = (   3.2921900   5.8807914  15.7090278  )
        36           O1  tau(  36) = (  -0.0000397   5.9620987  10.5931620  )
        37           O1  tau(  37) = (   3.2903388   5.9631658  13.9136923  )
        38           O1  tau(  38) = (  -0.0000761   5.9602876  17.3216368  )
        39           O1  tau(  39) = (  -0.0001480   5.9621018   7.9858123  )
        40           O1  tau(  40) = (   3.2896813   5.9437884  11.1873515  )
        41           O1  tau(  41) = (  -0.0004454   6.0514558  14.6911356  )
        42           O1  tau(  42) = (   1.9860782   7.4519181   9.2879459  )
        43           O1  tau(  43) = (   5.2331690   7.5528723  12.5749626  )
        44           O1  tau(  44) = (   2.0197658   7.5481525  16.0489791  )
        45           Ti1 tau(  45) = (  -0.0000347   7.4522234   9.2895810  )
        46           Ti1 tau(  46) = (   3.2899396   7.3045924  12.4973202  )
        47           Ti1 tau(  47) = (   0.0022254   7.3576980  16.0878887  )
        48           O1  tau(  48) = (   4.5934577   7.4534031   9.2879030  )
        49           O1  tau(  49) = (   1.3462119   7.5526743  12.5754142  )
        50           O1  tau(  50) = (   4.5579802   7.5455642  16.0489991  )
        51           Ti1 tau(  51) = (   3.2895107   8.9417832   9.2893338  )
        52           Ti1 tau(  52) = (  -0.0004108   8.7719052  12.5005688  )
        53           Ti1 tau(  53) = (   3.2909707   8.8596889  15.7095313  )
        54           H1  tau(  54) = (   6.5770345   5.6246256  18.2315160  )
        55           N1  tau(  55) = (   6.5773047   3.3138987  18.5316601  )
        56           N1  tau(  56) = (   6.5788436   3.1068121  17.3110979  )
        57           H1  tau(  57) = (   6.5767427   2.4184016  19.0716447  )

     number of k points=    10  Fermi-Dirac smearing, width (Ry)=  0.0073
                       cart. coord. in units 2pi/alat
        k(    1) = (   0.0000000   0.0000000   0.0000000), wk =   0.1250000
        k(    2) = (   0.0000000   0.0279567   0.0000000), wk =   0.2500000
        k(    3) = (   0.0000000  -0.0559134   0.0000000), wk =   0.1250000
        k(    4) = (   0.0379955   0.0000049   0.0000000), wk =   0.2500000
        k(    5) = (   0.0379955   0.0279617   0.0000000), wk =   0.2500000
        k(    6) = (   0.0379955  -0.0559085   0.0000000), wk =   0.2500000
        k(    7) = (   0.0379955  -0.0279518   0.0000000), wk =   0.2500000
        k(    8) = (  -0.0759910  -0.0000099   0.0000000), wk =   0.1250000
        k(    9) = (  -0.0759910   0.0279468   0.0000000), wk =   0.2500000
        k(   10) = (  -0.0759910  -0.0559233   0.0000000), wk =   0.1250000

     Initial potential from superposition of free atoms

     starting charge  419.99912, renormalised to  438.00000

     negative rho (up, down):  3.865E-02 0.000E+00

     %%%%%%%%%%%%%%%%%%%%%%%%%%%%%%%%%%%%%%%%%%%%%%%%%%%%%%%%%%%%%%%%%%%%%%%%
     %                                                                      %
     % You are using vdW-DF, which was implemented by the Thonhauser group. %
     % Please cite the following two papers that made this development      %
     % possible and the two reviews that describe the various versions:     %
     %                                                                      %
     %   T. Thonhauser et al., PRL 115, 136402 (2015).                      %
     %   T. Thonhauser et al., PRB 76, 125112 (2007).                       %
     %   K. Berland et al., Rep. Prog. Phys. 78, 066501 (2015).             %
     %   D.C. Langreth et al., J. Phys.: Condens. Matter 21, 084203 (2009). %
     %                                                                      %
     %                                                                      %
     % If you are calculating the stress with vdW-DF, please also cite:     %
     %                                                                      %
     %   R. Sabatini et al., J. Phys.: Condens. Matter 24, 424209 (2012).   %
     %                                                                      %
     %%%%%%%%%%%%%%%%%%%%%%%%%%%%%%%%%%%%%%%%%%%%%%%%%%%%%%%%%%%%%%%%%%%%%%%%

     Adding external electric field

     Computed dipole along edir(3) :
        Dipole               -4.5366 Ry au,        -11.5310 Debye
        Dipole field         -0.0057 Ry au,

        Potential amp.        0.5291 Ry
        Total length         46.3494 bohr

     Starting wfcs are  330 atomic wfcs
  @ DRIVER MODE: Message from server: STATUS
  @ DRIVER MODE: Message from server: POSDATA
  @ DRIVER MODE: Reading and sharing cell
  @ DRIVER MODE: Reading and sharing positions
  @ DRIVER MODE: Received positions

     Self-consistent Calculation

     iteration #  1     ecut=    29.40 Ry     beta= 0.05
     Davidson diagonalization with overlap
     c_bands:  3 eigenvalues not converged
     c_bands:  2 eigenvalues not converged
     c_bands:  3 eigenvalues not converged
     c_bands:  5 eigenvalues not converged
     c_bands:  4 eigenvalues not converged
     c_bands:  5 eigenvalues not converged
     c_bands:  1 eigenvalues not converged
     c_bands:  2 eigenvalues not converged
     ethr =  1.00E-05,  avg # of iterations = 23.5

[...]

     total energy              =   -3289.01642456 Ry
     estimated scf accuracy    <      59.24861530 Ry

     iteration #  2     ecut=    29.40 Ry     beta= 0.05
     Davidson diagonalization with overlap
     ethr =  1.00E-02,  avg # of iterations =  5.6

[...]

     iteration # 74     ecut=    29.40 Ry     beta= 0.05
     Davidson diagonalization with overlap
     c_bands:  1 eigenvalues not converged
     ethr =  2.63E-10,  avg # of iterations = 12.6

[...]

     total energy              =   -3290.76643200 Ry
     estimated scf accuracy    <       0.00000009 Ry

     iteration # 79     ecut=    29.40 Ry     beta= 0.05
     Davidson diagonalization with overlap
     ethr =  2.15E-11,  avg # of iterations =  8.3

     negative rho (up, down):  3.653E-02 0.000E+00

     Adding external electric field

     Computed dipole along edir(3) :
        Dipole                1.1948 Ry au,          3.0368 Debye
        Dipole field          0.0015 Ry au,

        Potential amp.       -0.1393 Ry
        Total length         46.3494 bohr

     End of self-consistent calculation

          k = 0.0000 0.0000 0.0000 ( 26871 PWs)   bands (ev):

   -57.9914 -57.9845 -57.9786 -57.9669 -57.9643 -57.9252 -57.8596 -57.8238
   -57.8000 -57.7907 -57.7178 -57.6957 -57.6627 -57.3849 -57.3632 -56.9305
   -56.9073 -56.8933 -34.3802 -34.3750 -34.3741 -34.3660 -34.3632 -34.3303
   -34.3187 -34.3115 -34.3084 -34.3020 -34.2605 -34.2543 -34.2018 -34.1971
   -34.1879 -34.1840 -34.1681 -34.1653 -34.1587 -34.1575 -34.1343 -34.1165
   -34.1074 -34.0889 -34.0869 -34.0769 -34.0768 -34.0472 -34.0316 -33.9846
   -33.9818 -33.9735 -33.9543 -33.9479 -33.9434 -33.9375 -33.9102 -33.8842
   -33.8729 -33.8219 -33.6857 -33.6645 -33.6291 -33.6045 -33.5737 -33.2524
   -33.2447 -33.2358 -33.2296 -33.2234 -33.1519 -33.0929 -33.0774 -32.9497
   -20.6158 -19.3858 -18.8214 -18.4188 -18.2358 -18.2184 -18.2094 -18.1526
   -18.0782 -18.0747 -17.8877 -17.8024 -17.7745 -17.7530 -17.7349 -17.6977
   -17.6409 -17.6237 -17.6037 -17.5943 -17.5741 -17.5672 -17.4902 -17.4234
   -17.3988 -17.3908 -17.3879 -17.3844 -17.3108 -17.2211 -17.1321 -17.0800
   -17.0355 -15.3949 -15.3415 -15.3361 -11.2631  -7.6511  -7.1319  -6.1447
    -5.9251  -5.8695  -5.7928  -5.4420  -5.4272  -5.3930  -5.3447  -5.3401
    -5.2846  -5.2819  -5.2409  -5.2215  -5.2177  -5.1809  -5.1105  -5.0943
    -5.0674  -4.9883  -4.9413  -4.9012  -4.8638  -4.8497  -4.7490  -4.7484
    -4.7271  -4.7253  -4.7128  -4.6912  -4.6417  -4.6365  -4.5203  -4.5192
    -4.4773  -4.3585  -4.3231  -4.2802  -4.2604  -4.2308  -4.1461  -4.0856
    -4.0691  -4.0518  -4.0192  -3.9896  -3.9529  -3.9215  -3.8676  -3.7865
    -3.7273  -3.6886  -3.5758  -3.5172  -3.4767  -3.4614  -3.3796  -3.3598
    -3.3184  -3.2493  -3.2034  -3.1609  -3.1294  -3.1242  -3.0886  -2.9928
    -2.9826  -2.9042  -2.8255  -2.7977  -2.7236  -2.7077  -2.7055  -2.6873
    -2.6653  -2.6388  -2.6113  -2.5812  -2.5010  -2.4827  -2.4624  -2.4078
    -2.3019  -2.2842  -2.2789  -2.2628  -2.2551  -2.1923  -2.0931  -1.9812
    -1.9809  -1.9782  -1.8289  -1.8023  -1.7557  -1.7523  -1.7008  -1.6310
    -1.5736  -1.1850  -0.9484  -0.6624  -0.6301  -0.6216  -0.3835  -0.3735
    -0.2555  -0.0196   0.9863   1.2552   1.3295   1.4266   1.4725   1.4778
     1.6057   1.6271   1.6590   1.7056   1.7576

[...]

          k = 0.0380-0.0280 0.0000 ( 26873 PWs)   bands (ev):

[...]

          k =-0.0760-0.0000 0.0000 ( 26902 PWs)   bands (ev):

[...]

          k =-0.0760-0.0559 0.0000 ( 26868 PWs)   bands (ev):

   -57.9841 -57.9836 -57.9814 -57.9790 -57.9570 -57.9258 -57.8593 -57.8196
   -57.8084 -57.7862 -57.7157 -57.6990 -57.6616 -57.3851 -57.3630 -56.9266
   -56.9146 -56.8899 -34.4577 -34.4420 -34.3829 -34.3767 -34.3445 -34.3237
   -34.3203 -34.3076 -34.2799 -34.2722 -34.2333 -34.2116 -34.2081 -34.1750
   -34.1729 -34.1723 -34.1694 -34.1517 -34.1335 -34.1314 -34.1268 -34.1165
   -34.1122 -34.0745 -34.0723 -34.0646 -34.0448 -34.0394 -34.0167 -34.0106
   -34.0041 -34.0027 -33.9894 -33.9858 -33.9609 -33.9417 -33.9371 -33.8851
   -33.8673 -33.7752 -33.7267 -33.6676 -33.6306 -33.6064 -33.5750 -33.3290
   -33.2542 -33.2429 -33.2198 -33.1373 -33.1228 -33.0644 -33.0526 -33.0392
   -20.6144 -19.3802 -18.5141 -18.5012 -18.1883 -18.1172 -18.0840 -18.0529
   -18.0123 -17.9787 -17.9466 -17.9319 -17.9041 -17.8078 -17.8047 -17.7343
   -17.7015 -17.6855 -17.6726 -17.6445 -17.6107 -17.6065 -17.5925 -17.4780
   -17.4666 -17.3867 -17.3707 -17.3254 -17.2688 -17.2239 -17.1209 -17.1145
   -17.0035 -15.3975 -15.3896 -15.2759 -11.2605  -7.6344  -7.1128  -5.7733
    -5.7677  -5.7323  -5.7060  -5.6203  -5.3618  -5.3129  -5.2266  -5.2173
    -5.2081  -5.1792  -5.1601  -5.1192  -5.1034  -5.0883  -5.0793  -5.0744
    -5.0081  -4.9893  -4.9534  -4.9197  -4.8767  -4.8659  -4.8615  -4.8029
    -4.7791  -4.7423  -4.7317  -4.6579  -4.5779  -4.5580  -4.5367  -4.4911
    -4.4598  -4.4375  -4.3420  -4.2900  -4.2294  -4.1217  -4.0941  -4.0932
    -4.0368  -3.9895  -3.9338  -3.8813  -3.7261  -3.6928  -3.6650  -3.6030
    -3.5752  -3.5572  -3.5439  -3.5240  -3.5109  -3.4541  -3.4530  -3.3995
    -3.3610  -3.3217  -3.3111  -3.2181  -3.1688  -3.1389  -3.0993  -3.0771
    -3.0696  -3.0608  -3.0329  -3.0235  -3.0227  -2.9561  -2.9456  -2.9066
    -2.8561  -2.7757  -2.7463  -2.7075  -2.6476  -2.5419  -2.5245  -2.4748
    -2.4533  -2.3991  -2.2169  -2.2005  -2.1839  -2.1421  -2.0924  -2.0561
    -2.0476  -2.0267  -1.9804  -1.8682  -1.7402  -1.7209  -1.5587  -1.4905
    -1.4848  -1.4640  -1.2630  -0.8461  -0.5616  -0.5337  -0.5284  -0.3869
    -0.3836  -0.0171   1.1446   1.1713   1.2386   1.3084   1.3459   1.3542
     1.3744   1.4778   1.4827   1.5836   1.6480

     the Fermi energy is     1.0852 ev

!    total energy              =   -3290.76644383 Ry
     estimated scf accuracy    <       0.00000007 Ry
     smearing contrib. (-TS)   =      -0.03252941 Ry
     internal energy E=F+TS    =   -3290.73391441 Ry

     The total energy is F=E-TS. E is the sum of the following terms:
     one-electron contribution =  -34501.26340763 Ry
     hartree contribution      =   17311.92816197 Ry
     xc contribution           =    -540.49997213 Ry
     ewald contribution        =   14439.09950744 Ry
     electric field correction =       0.00179594 Ry

     convergence has been achieved in  79 iterations

     Forces acting on atoms (cartesian axes, Ry/au):

     atom    1 type  1   force =    -0.00000280    0.00296934    0.06140464
     atom    2 type  1   force =     0.00005570    0.00054116   -0.00892232
     atom    3 type  1   force =     0.00000772   -0.00483380    0.00101063
     atom    4 type  1   force =     0.00004741   -0.00106348    0.10515474
     atom    5 type  1   force =     0.00004982   -0.00000636    0.01002704
     atom    6 type  1   force =    -0.00003393   -0.00454884    0.00618925
     atom    7 type  1   force =     0.07082814   -0.00018568   -0.02969096
     atom    8 type  1   force =     0.00413987   -0.02885441    0.00194904
     atom    9 type  1   force =     0.00697886   -0.02321717    0.00238320
     atom   10 type  2   force =    -0.00005624   -0.00529767   -0.17411250
     atom   11 type  2   force =    -0.00024947    0.02025296   -0.00504030
     atom   12 type  2   force =    -0.00005957    0.02669151   -0.00728826
     atom   13 type  1   force =    -0.07092087   -0.00063551   -0.02963214
     atom   14 type  1   force =    -0.00443419   -0.02855812    0.00192349
     atom   15 type  1   force =    -0.00686862   -0.02327479    0.00235682
     atom   16 type  2   force =     0.00010278   -0.00199984    0.06353782
     atom   17 type  2   force =     0.00047003    0.03496889    0.00430215
     atom   18 type  2   force =    -0.00005654    0.01802722   -0.00026384
     atom   19 type  1   force =    -0.00001182    0.00869179    0.05602134
     atom   20 type  1   force =     0.00004117    0.00030691   -0.00850496
     atom   21 type  1   force =     0.00004801    0.00237482    0.10553154
     atom   22 type  1   force =     0.00004390   -0.00044709    0.00965393
     atom   23 type  1   force =    -0.00001516   -0.00192732    0.00203451
     atom   24 type  1   force =     0.06934653   -0.00028844   -0.02954818
     atom   25 type  1   force =     0.00464805   -0.02807116    0.00236868
     atom   26 type  1   force =     0.00687228   -0.01471851   -0.00067561
     atom   27 type  2   force =    -0.00005438   -0.00799573   -0.18323908
     atom   28 type  2   force =    -0.00026508    0.02033337   -0.00578657
     atom   29 type  2   force =    -0.00008435    0.02303702    0.00466900
     atom   30 type  1   force =    -0.06944146   -0.00074298   -0.02949303
     atom   31 type  1   force =    -0.00491916   -0.02777765    0.00233454
     atom   32 type  1   force =    -0.00660990   -0.01457563   -0.00067533
     atom   33 type  2   force =     0.00008243   -0.00101515    0.06384024
     atom   34 type  2   force =     0.00047923    0.03459924    0.00524646
     atom   35 type  2   force =    -0.00013125    0.02085624    0.00191512
     atom   36 type  1   force =    -0.00001227    0.00378676    0.05844531
     atom   37 type  1   force =     0.00004840   -0.00061691   -0.00695860
     atom   38 type  1   force =     0.00000198   -0.00110281   -0.00010036
     atom   39 type  1   force =     0.00005527   -0.00050591    0.10663234
     atom   40 type  1   force =     0.00004852   -0.00048188    0.00897429
     atom   41 type  1   force =    -0.00000986   -0.00330514   -0.00122554
     atom   42 type  1   force =     0.06975088   -0.00119635   -0.02999135
     atom   43 type  1   force =     0.00442814   -0.02931617    0.00141823
     atom   44 type  1   force =     0.01009367   -0.02488341    0.00492698
     atom   45 type  2   force =    -0.00006861    0.00913750   -0.17959877
     atom   46 type  2   force =    -0.00025366    0.02117357   -0.00501081
     atom   47 type  2   force =    -0.00011873    0.02442337   -0.00966500
     atom   48 type  1   force =    -0.06985032   -0.00164522   -0.02994146
     atom   49 type  1   force =    -0.00471012   -0.02901007    0.00139190
     atom   50 type  1   force =    -0.00984463   -0.02478401    0.00495606
     atom   51 type  2   force =     0.00010938   -0.00179671    0.06385426
     atom   52 type  2   force =     0.00047204    0.03634773    0.00367629
     atom   53 type  2   force =    -0.00014625    0.03631121    0.00404222
     atom   54 type  3   force =    -0.00000184   -0.00121071   -0.00100480
     atom   55 type  4   force =     0.00002948   -0.00012079   -0.02070905
     atom   56 type  4   force =    -0.00002423   -0.00399406    0.02723638
     atom   57 type  3   force =    -0.00002437   -0.00082517   -0.00232959

     Total force =     0.454453     Total SCF correction =     0.000798
  @ DRIVER MODE: Message from server: STATUS
  @ DRIVER MODE: Message from server: GETFORCE
  @ DRIVER MODE: Returning v,forces,stress,ensemble

     Writing output data file ./calc.save/
  @ DRIVER MODE: Message from server: EXIT
  @ DRIVE MODE: Exiting

     General routines

     Parallel routines

   This run was terminated on:  21: 4:19  18Oct2021

   JOB DONE.