     Program PWSCF v.6.7GPU starts on 15Sep2021 at 22:37:36

     R & G space division:  proc/nbgrp/npool/nimage =      10
     Reading input from /storage/home/hcoda1/3/ntian30/research/carbon/CxH_vib/H2O_calc/ads_slab/CH2OH2O_a/out_0021/pw.inp
Warning: card &CELL ignored
Warning: card   CELL_DYNAMICS='IPI', ignored
Warning: card / ignored

     Current dimensions of program PWSCF are:
     Max number of different atomic species (ntypx) = 10
     Max number of k-points (npk) =  40000
     Max angular momentum in pseudopotentials (lmaxx) =  3
     Presently no symmetry can be used with electric field

     Message from routine cell_base_init:
     DEPRECATED: use true lattice parameter, not A to a.u. conversion factor

     IMPORTANT: XC functional enforced from input :
     Exchange-correlation= BEEF-VDW
                           (   1   4  43  14   2   0   0)
     Any further DFT definition will be discarded
     Please, verify this is what you really want

  @ DRIVER MODE: Connecting to
 qe_1139763_2852613.sched-torque.pace.gatech.edu7jnxhayc_scratch
  using UNIX socket
  @ DRIVER MODE: Message from server: STATUS
  @ DRIVER MODE: Message from server: INIT
  @ DRIVER MODE: Receiving replica           0          -1
  @ DRIVER MODE: Receiving encoded integer          25
  @ DRIVER MODE:  SCF:  T  FORCE:  T  STRESS:  F  VC:  F  ENSEMBLE:  F
  @ DRIVER MODE:  SCF:  T  FORCE:  T  STRESS:  F  VC:  F  ENSEMBLE:  F

     Using Slab Decomposition

     bravais-lattice index     =            0
     lattice parameter (alat)  =       1.8897  a.u.
     unit-cell volume          =    6658.9804 (a.u.)^3
     number of atoms/cell      =           54
     number of atomic types    =            4
     number of electrons       =       398.00
     number of Kohn-Sham states=          209
     kinetic-energy cutoff     =      29.3995  Ry
     charge density cutoff     =     293.9946  Ry
     scf convergence threshold =      7.3E-08
     mixing beta               =       0.0500
     number of iterations used =            8  plain     mixing
     Exchange-correlation= BEEF-VDW
                           (   1   4  43  14   2   0   0)

     celldm(1)=   1.889726  celldm(2)=   0.000000  celldm(3)=   0.000000
     celldm(4)=   0.000000  celldm(5)=   0.000000  celldm(6)=   0.000000

     crystal axes: (cart. coord. in units of alat)
               a(1) = (   6.579727   0.000000   0.000000 )
               a(2) = (  -0.000775   5.961596   0.000000 )
               a(3) = (   0.000000   0.000000  25.155947 )

     reciprocal axes: (cart. coord. in units 2 pi/alat)
               b(1) = (  0.151982  0.000020  0.000000 )
               b(2) = (  0.000000  0.167740  0.000000 )
               b(3) = (  0.000000  0.000000  0.039752 )

     PseudoPot. # 1 for O  read from file:
     /storage/coda1/p-amedford6/0/shared/rich_project_chbe-medford/medford-share/data/pseudos_module/espresso/nninc/pbe/van/O.UPF
     MD5 check sum: 78c19812648e8988a0fe644b0f25305e
     Pseudo is Ultrasoft, Zval =  6.0
     Generated by new atomic code, or converted to UPF format
     Using radial grid of  737 points,  4 beta functions with:
                l(1) =   0
                l(2) =   0
                l(3) =   1
                l(4) =   1
     Q(r) pseudized with  8 coefficients,  rinner =    0.800   0.800   0.800

     PseudoPot. # 2 for Ti read from file:
     /storage/coda1/p-amedford6/0/shared/rich_project_chbe-medford/medford-share/data/pseudos_module/espresso/nninc/pbe/van/Ti.UPF
     MD5 check sum: 8e4df49b7f0d34bbd5052bf3f5ea0213
     Pseudo is Ultrasoft, Zval = 12.0
     Generated by new atomic code, or converted to UPF format
     Using radial grid of  851 points,  6 beta functions with:
                l(1) =   0
                l(2) =   0
                l(3) =   1
                l(4) =   1
                l(5) =   2
                l(6) =   2
     Q(r) pseudized with  8 coefficients,  rinner =    1.000   1.000   1.000
                                                       1.000   1.000

     PseudoPot. # 3 for C  read from file:
     /storage/coda1/p-amedford6/0/shared/rich_project_chbe-medford/medford-share/data/pseudos_module/espresso/nninc/pbe/van/C.UPF
     MD5 check sum: 1a69bf6b8db32088f5b2163dbdb77a27
     Pseudo is Ultrasoft, Zval =  4.0
     Generated by new atomic code, or converted to UPF format
     Using radial grid of  721 points,  4 beta functions with:
                l(1) =   0
                l(2) =   0
                l(3) =   1
                l(4) =   1
     Q(r) pseudized with  8 coefficients,  rinner =    0.800   0.800   0.800

     PseudoPot. # 4 for H  read from file:
     /storage/coda1/p-amedford6/0/shared/rich_project_chbe-medford/medford-share/data/pseudos_module/espresso/nninc/pbe/van/H.UPF
     MD5 check sum: b5ee9d7bfd3a09ee7748110bda690ff7
     Pseudo is Ultrasoft, Zval =  1.0
     Generated by new atomic code, or converted to UPF format
     Using radial grid of  615 points,  1 beta functions with:
                l(1) =   0
     Q(r) pseudized with  8 coefficients,  rinner =    0.800

     atomic species   valence    mass     pseudopotential
        O1             6.00    15.99900     O ( 1.00)
        Ti1           12.00    47.86700     Ti( 1.00)
        C1             4.00    12.01100     C ( 1.00)
        H1             1.00     1.00800     H ( 1.00)

     No symmetry found

   Cartesian axes

     site n.     atom                  positions (alat units)
         1           O1  tau(   1) = (   3.2904802   0.0005063   4.7018136  )
         2           O1  tau(   2) = (   3.2900926   2.9813045   4.7018136  )
         3           Ti1 tau(   3) = (   0.0004258   2.9801865   6.0000000  )
         4           Ti1 tau(   4) = (   0.0000382   5.9609847   6.0000000  )
         5           Ti1 tau(   5) = (   3.2906075   1.4906267   6.0002472  )
         6           Ti1 tau(   6) = (   3.2902200   4.4714249   6.0002472  )
         7           O1  tau(   7) = (   1.3043587   1.4918075   6.0039043  )
         8           O1  tau(   8) = (   1.3039711   4.4726057   6.0039043  )
         9           O1  tau(   9) = (   5.2767064   1.4903225   6.0039473  )
        10           O1  tau(  10) = (   5.2763189   4.4711207   6.0039473  )
        11           O1  tau(  11) = (   3.2906025   0.0005020   7.3038282  )
        12           O1  tau(  12) = (   3.2902150   2.9813002   7.3038282  )
        13           O1  tau(  13) = (   0.0006271   0.0005054   7.9858123  )
        14           O1  tau(  14) = (   0.0002396   2.9813036   7.9858123  )
        15           Ti1 tau(  15) = (   3.3036605   0.0548493   9.1550340  )
        16           Ti1 tau(  16) = (   3.3179312   3.0323762   9.1622521  )
        17           Ti1 tau(  17) = (   0.0293130   4.5303424   9.2586280  )
        18           Ti1 tau(  18) = (   0.0255512   1.6071936   9.3606264  )
        19           O1  tau(  19) = (   4.5942328   1.4918067   9.2879030  )
        20           O1  tau(  20) = (   4.5938453   4.4726049   9.2879030  )
        21           O1  tau(  21) = (   1.9868534   1.4903216   9.2879459  )
        22           O1  tau(  22) = (   1.9864658   4.4711199   9.2879459  )
        23           O1  tau(  23) = (   0.0067149   0.0090568  10.6008527  )
        24           O1  tau(  24) = (   0.0066098   2.9904127  10.5810825  )
        25           O1  tau(  25) = (   3.3023248   2.9935247  11.3558429  )
        26           O1  tau(  26) = (   3.3019398   0.0103095  11.3581380  )
        27           Ti1 tau(  27) = (   0.0322082   0.0188897  12.5014682  )
        28           Ti1 tau(  28) = (   3.3323403   4.4947089  12.5096490  )
        29           Ti1 tau(  29) = (   3.3327227   1.5059056  12.5040540  )
        30           Ti1 tau(  30) = (   0.0321551   3.0004163  12.7750784  )
        31           O1  tau(  31) = (   1.2963378   4.4834263  12.6382484  )
        32           O1  tau(  32) = (   1.2968596   1.4996660  12.6342602  )
        33           O1  tau(  33) = (   5.3004736   4.4821179  12.6410582  )
        34           O1  tau(  34) = (   5.3007909   1.4998706  12.6367838  )
        35           O1  tau(  35) = (   3.3017874   2.9879694  13.9086975  )
        36           O1  tau(  36) = (   3.3040514   0.0100701  13.9766235  )
        37           O1  tau(  37) = (   0.0177811   0.0165449  14.6846256  )
        38           O1  tau(  38) = (   0.0218693   2.9952767  14.7100221  )
        39           Ti1 tau(  39) = (   3.3083447   2.9915206  15.7010863  )
        40           Ti1 tau(  40) = (   3.3165693   0.0114089  15.8055842  )
        41           Ti1 tau(  41) = (   0.0300915   4.5703342  15.9344200  )
        42           Ti1 tau(  42) = (   0.0294271   1.3911826  15.9958598  )
        43           O1  tau(  43) = (   4.5666857   4.4545776  16.0545193  )
        44           O1  tau(  44) = (   4.5654216   1.5273373  16.0688375  )
        45           O1  tau(  45) = (   2.0398213   1.5345912  16.0698912  )
        46           O1  tau(  46) = (   2.0372649   4.4468515  16.0554978  )
        47           O1  tau(  47) = (   0.0160947   0.0056016  17.2166677  )
        48           O1  tau(  48) = (   6.5639191   3.0028441  17.4181802  )
        49           C1  tau(  49) = (   6.3909186   3.0704891  18.6902598  )
        50           H1  tau(  50) = (   6.3116585   4.0479728  19.1570877  )
        51           H1  tau(  51) = (   6.3127454   2.1432251  19.2664540  )
        52           O1  tau(  52) = (   3.2659488   5.9319982  18.2141537  )
        53           H1  tau(  53) = (   4.0486762   5.9278262  18.7801078  )
        54           H1  tau(  54) = (   2.4667005   5.9275743  18.7583984  )

     number of k points=    10  Fermi-Dirac smearing, width (Ry)=  0.0073
                       cart. coord. in units 2pi/alat
        k(    1) = (   0.0000000   0.0000000   0.0000000), wk =   0.1250000
        k(    2) = (   0.0000000   0.0419351   0.0000000), wk =   0.2500000
        k(    3) = (   0.0000000  -0.0838702   0.0000000), wk =   0.1250000
        k(    4) = (   0.0379955   0.0000049   0.0000000), wk =   0.2500000
        k(    5) = (   0.0379955   0.0419400   0.0000000), wk =   0.2500000
        k(    6) = (   0.0379955  -0.0838652   0.0000000), wk =   0.2500000
        k(    7) = (   0.0379955  -0.0419301   0.0000000), wk =   0.2500000
        k(    8) = (  -0.0759910  -0.0000099   0.0000000), wk =   0.1250000
        k(    9) = (  -0.0759910   0.0419252   0.0000000), wk =   0.2500000
        k(   10) = (  -0.0759910  -0.0838800   0.0000000), wk =   0.1250000

     Initial potential from superposition of free atoms

     starting charge  381.99917, renormalised to  398.00000

     negative rho (up, down):  1.686E-02 0.000E+00

     %%%%%%%%%%%%%%%%%%%%%%%%%%%%%%%%%%%%%%%%%%%%%%%%%%%%%%%%%%%%%%%%%%%%%%%%
     %                                                                      %
     % You are using vdW-DF, which was implemented by the Thonhauser group. %
     % Please cite the following two papers that made this development      %
     % possible and the two reviews that describe the various versions:     %
     %                                                                      %
     %   T. Thonhauser et al., PRL 115, 136402 (2015).                      %
     %   T. Thonhauser et al., PRB 76, 125112 (2007).                       %
     %   K. Berland et al., Rep. Prog. Phys. 78, 066501 (2015).             %
     %   D.C. Langreth et al., J. Phys.: Condens. Matter 21, 084203 (2009). %
     %                                                                      %
     %                                                                      %
     % If you are calculating the stress with vdW-DF, please also cite:     %
     %                                                                      %
     %   R. Sabatini et al., J. Phys.: Condens. Matter 24, 424209 (2012).   %
     %                                                                      %
     %%%%%%%%%%%%%%%%%%%%%%%%%%%%%%%%%%%%%%%%%%%%%%%%%%%%%%%%%%%%%%%%%%%%%%%%

     Adding external electric field

     Computed dipole along edir(3) :
        Dipole               -9.6373 Ry au,        -24.4955 Debye
        Dipole field         -0.0182 Ry au,

        Potential amp.        1.6859 Ry
        Total length         46.3494 bohr

     Starting wfcs are  300 atomic wfcs
  @ DRIVER MODE: Message from server: STATUS
  @ DRIVER MODE: Message from server: POSDATA
  @ DRIVER MODE: Reading and sharing cell
  @ DRIVER MODE: Reading and sharing positions
  @ DRIVER MODE: Received positions

     Self-consistent Calculation

     iteration #  1     ecut=    29.40 Ry     beta= 0.05
     Davidson diagonalization with overlap
     c_bands:  1 eigenvalues not converged
     c_bands:  3 eigenvalues not converged
     c_bands:  2 eigenvalues not converged
     c_bands:  2 eigenvalues not converged
     c_bands:  2 eigenvalues not converged
     c_bands:  1 eigenvalues not converged
     c_bands:  2 eigenvalues not converged
     c_bands:  1 eigenvalues not converged
     c_bands:  2 eigenvalues not converged
     ethr =  1.00E-05,  avg # of iterations = 19.6

[...]

     total energy              =   -2526.85155348 Ry
     estimated scf accuracy    <    4873.67889215 Ry

     iteration #  2     ecut=    29.40 Ry     beta= 0.05
     Davidson diagonalization with overlap
     ethr =  1.00E-02,  avg # of iterations = 26.2

[...]

     iteration # 73     ecut=    29.40 Ry     beta= 0.05
     Davidson diagonalization with overlap
     c_bands:  1 eigenvalues not converged
     ethr =  1.38E-10,  avg # of iterations = 11.9

[...]

     total energy              =   -2964.99527681 Ry
     estimated scf accuracy    <       0.00000009 Ry

     iteration # 77     ecut=    29.40 Ry     beta= 0.05
     Davidson diagonalization with overlap
     ethr =  2.21E-11,  avg # of iterations =  9.0

     negative rho (up, down):  1.528E-02 0.000E+00

     Adding external electric field

     Computed dipole along edir(3) :
        Dipole                1.2216 Ry au,          3.1049 Debye
        Dipole field          0.0023 Ry au,

        Potential amp.       -0.2137 Ry
        Total length         46.3494 bohr

     End of self-consistent calculation

          k = 0.0000 0.0000 0.0000 ( 18029 PWs)   bands (ev):

   -55.5394 -55.5027 -55.5026 -55.4666 -55.4629 -55.4184 -55.3821 -55.3150
   -55.3021 -55.2794 -55.2687 -55.2595 -55.2182 -55.2097 -54.5506 -54.5165
   -32.0585 -32.0097 -31.8962 -31.8535 -31.8515 -31.8336 -31.8133 -31.8050
   -31.7812 -31.7694 -31.7360 -31.7262 -31.6982 -31.6859 -31.6840 -31.6495
   -31.6462 -31.6405 -31.6356 -31.6317 -31.6029 -31.5977 -31.5904 -31.5858
   -31.5586 -31.5545 -31.5507 -31.5304 -31.5233 -31.5215 -31.4760 -31.4749
   -31.4489 -31.4469 -31.4336 -31.4281 -31.4224 -31.4081 -31.3965 -31.3952
   -31.3919 -31.3758 -30.9602 -30.8638 -30.8414 -30.7766 -30.6905 -30.5796
   -19.3665 -19.1360 -16.2550 -15.9921 -15.8206 -15.7094 -15.6625 -15.4604
   -15.3674 -15.2868 -15.2231 -15.1456 -15.1287 -15.0913 -15.0648 -15.0594
   -15.0544 -15.0058 -14.9966 -14.9572 -14.9450 -14.9439 -14.9252 -14.9064
   -14.8245 -14.7223 -14.6789 -14.6603 -14.6018 -14.5452 -14.5321 -13.0512
   -12.9332  -8.9948  -7.1501  -5.2130  -5.1698  -3.7755  -3.5761  -3.4585
    -3.4239  -3.3884  -3.3196  -3.1391  -3.1305  -3.0371  -2.7996  -2.7094
    -2.6760  -2.6185  -2.6083  -2.5088  -2.4675  -2.3612  -2.3523  -2.3482
    -2.3319  -2.3062  -2.2732  -2.2311  -2.2068  -2.1949  -2.0668  -2.0561
    -1.9278  -1.9219  -1.8983  -1.8431  -1.8387  -1.7964  -1.7834  -1.7801
    -1.7671  -1.7190  -1.7072  -1.5942  -1.5198  -1.4567  -1.3702  -1.2318
    -1.1704  -1.0979  -1.0442  -1.0094  -0.9470  -0.9434  -0.8893  -0.8488
    -0.7906  -0.7771  -0.7718  -0.6751  -0.5765  -0.5545  -0.5243  -0.4459
    -0.3682  -0.2811  -0.2619  -0.2598  -0.2585  -0.2373  -0.1003  -0.0163
     0.0410   0.0459   0.1422   0.1754   0.2105   0.2247   0.2568   0.2775
     0.3334   0.4083   0.4198   0.4333   0.4591   0.5048   0.5102   0.6228
     0.6989   0.7005   0.7368   0.7696   0.9448   0.9799   1.1071   1.2141
     1.3807   1.4738   1.5454   1.6468   2.0598   2.1174   3.6336   3.6753
     3.6904   3.7328   3.7824   3.8091   3.8766   4.0760   4.0922   4.1410
     4.1853

[...]

          k = 0.0380-0.0419 0.0000 ( 17876 PWs)   bands (ev):

[...]

          k =-0.0760-0.0000 0.0000 ( 17886 PWs)   bands (ev):

[...]

          k =-0.0760-0.0839 0.0000 ( 17948 PWs)   bands (ev):

   -55.5280 -55.5139 -55.4859 -55.4831 -55.4613 -55.4081 -55.3923 -55.3115
   -55.2869 -55.2844 -55.2739 -55.2610 -55.2235 -55.2125 -54.5341 -54.5329
   -31.8691 -31.8543 -31.8338 -31.8210 -31.8183 -31.7988 -31.7742 -31.7565
   -31.7437 -31.7387 -31.7381 -31.7306 -31.6972 -31.6629 -31.6567 -31.6527
   -31.6436 -31.6414 -31.6380 -31.6357 -31.6295 -31.6106 -31.6096 -31.6086
   -31.6037 -31.5892 -31.5683 -31.5530 -31.5399 -31.5382 -31.5314 -31.5143
   -31.4967 -31.4923 -31.4856 -31.4838 -31.4659 -31.4476 -31.4425 -31.4368
   -31.4063 -31.4001 -30.8548 -30.8534 -30.7736 -30.7727 -30.7341 -30.7331
   -19.3577 -19.1357 -15.7064 -15.5973 -15.5630 -15.4159 -15.4117 -15.3607
   -15.3524 -15.3166 -15.2366 -15.2331 -15.1832 -15.1642 -15.1297 -15.1061
   -15.0942 -15.0487 -15.0462 -15.0277 -15.0037 -14.9851 -14.9685 -14.9411
   -14.9170 -14.9099 -14.8719 -14.8635 -14.7990 -14.7452 -14.7234 -13.0356
   -13.0334  -8.9956  -7.1476  -5.1921  -5.1440  -3.7317  -3.1584  -2.9904
    -2.8031  -2.7875  -2.6552  -2.6202  -2.6023  -2.5119  -2.4785  -2.4449
    -2.3818  -2.3707  -2.3642  -2.3428  -2.3377  -2.3241  -2.3032  -2.2660
    -2.2560  -2.2245  -2.1944  -2.1806  -2.1598  -2.1502  -2.1216  -2.1021
    -2.0896  -2.0858  -2.0241  -1.9963  -1.9112  -1.8449  -1.7638  -1.7115
    -1.6799  -1.6776  -1.6413  -1.6027  -1.5949  -1.5796  -1.4337  -1.3848
    -1.2619  -1.2487  -1.2293  -1.1533  -1.1377  -1.1034  -1.0973  -1.0320
    -0.9447  -0.9403  -0.9163  -0.8894  -0.8019  -0.7340  -0.6928  -0.6570
    -0.6132  -0.5830  -0.5093  -0.4954  -0.4846  -0.4225  -0.3821  -0.2969
    -0.2832  -0.2640  -0.2129  -0.1838  -0.1492  -0.0803  -0.0624  -0.0393
     0.0413   0.1070   0.1138   0.3238   0.4864   0.5151   0.5316   0.6166
     0.6631   0.7723   0.7949   0.8044   0.8469   0.8922   0.9797   1.0057
     1.0076   1.0850   1.8342   1.8349   1.9223   1.9328   3.5656   3.8790
     3.9435   3.9668   3.9917   4.1073   4.1098   4.1291   4.1376   4.2807
     4.2985

     the Fermi energy is     3.6119 ev

!    total energy              =   -2964.99529118 Ry
     estimated scf accuracy    <       0.00000006 Ry
     smearing contrib. (-TS)   =      -0.03110810 Ry
     internal energy E=F+TS    =   -2964.96418307 Ry

     The total energy is F=E-TS. E is the sum of the following terms:
     one-electron contribution =  -24342.40958302 Ry
     hartree contribution      =   12264.26153640 Ry
     xc contribution           =    -490.09631418 Ry
     ewald contribution        =    9603.27736176 Ry
     electric field correction =       0.00281596 Ry

     convergence has been achieved in  77 iterations

     Forces acting on atoms (cartesian axes, Ry/au):

     atom    1 type  1   force =    -0.00009971    0.00006899    0.10406469
     atom    2 type  1   force =    -0.00008960    0.00006273    0.10408039
     atom    3 type  2   force =    -0.00029841   -0.00188594    0.10329331
     atom    4 type  2   force =    -0.00015472    0.00151590    0.11463059
     atom    5 type  2   force =    -0.00037548    0.00124331   -0.17935739
     atom    6 type  2   force =    -0.00017002   -0.00076741   -0.17974056
     atom    7 type  1   force =    -0.06938104    0.00065501   -0.02929815
     atom    8 type  1   force =    -0.06892758   -0.00122764   -0.02934428
     atom    9 type  1   force =     0.06902471    0.00114774   -0.02936025
     atom   10 type  1   force =     0.06865476   -0.00080850   -0.02941443
     atom   11 type  1   force =     0.00041969    0.00056714    0.04681359
     atom   12 type  1   force =     0.00063041    0.00080668    0.04851890
     atom   13 type  1   force =     0.00026684   -0.00568101   -0.03323814
     atom   14 type  1   force =     0.00033238    0.00339906   -0.02636758
     atom   15 type  2   force =    -0.00010964   -0.00002210    0.00039499
     atom   16 type  2   force =     0.00001395    0.00002531    0.00050529
     atom   17 type  2   force =    -0.00001942    0.00012639    0.00041394
     atom   18 type  2   force =    -0.00006670   -0.00033425    0.00007073
     atom   19 type  1   force =    -0.01805938   -0.00015608    0.00403468
     atom   20 type  1   force =    -0.01683553    0.00147968    0.00328823
     atom   21 type  1   force =     0.01933174   -0.00136584    0.00448133
     atom   22 type  1   force =     0.01789964    0.00116555    0.00355988
     atom   23 type  1   force =     0.00001752    0.00003059   -0.00013896
     atom   24 type  1   force =    -0.00005305   -0.00000224   -0.00006857
     atom   25 type  1   force =    -0.00004883    0.00000498   -0.00059080
     atom   26 type  1   force =    -0.00023097    0.00014378   -0.00067550
     atom   27 type  2   force =     0.00004464    0.00014325   -0.00044083
     atom   28 type  2   force =     0.00023554    0.00002305   -0.00009044
     atom   29 type  2   force =     0.00022211    0.00001058   -0.00021855
     atom   30 type  2   force =    -0.00008528    0.00020242    0.00017047
     atom   31 type  1   force =    -0.00062500   -0.00024615    0.00053476
     atom   32 type  1   force =    -0.00053589    0.00032784    0.00056483
     atom   33 type  1   force =     0.00037939   -0.00014618    0.00035175
     atom   34 type  1   force =     0.00030159    0.00019423    0.00037965
     atom   35 type  1   force =    -0.00014944    0.00000927    0.00020995
     atom   36 type  1   force =    -0.00008970    0.00000822   -0.00020909
     atom   37 type  1   force =    -0.00036371    0.00001671   -0.00019490
     atom   38 type  1   force =    -0.00051381    0.00026194   -0.00001973
     atom   39 type  2   force =    -0.00016344   -0.00008504    0.00131018
     atom   40 type  2   force =     0.00009070    0.00022248   -0.00133059
     atom   41 type  2   force =    -0.00030935   -0.00090437   -0.00069549
     atom   42 type  2   force =    -0.00028216    0.00091378   -0.00057930
     atom   43 type  1   force =    -0.00000233    0.00022172    0.00030900
     atom   44 type  1   force =    -0.00006009   -0.00009117    0.00010005
     atom   45 type  1   force =    -0.00042482   -0.00025662   -0.00000828
     atom   46 type  1   force =    -0.00047638    0.00042226    0.00014253
     atom   47 type  1   force =    -0.00005500   -0.00019940    0.00027984
     atom   48 type  1   force =    -0.00026380    0.00054449    0.00098141
     atom   49 type  3   force =    -0.00029841   -0.01011461    0.00411595
     atom   50 type  4   force =     0.00041325   -0.00157449    0.00090641
     atom   51 type  4   force =     0.00097689    0.00925627   -0.00516795
     atom   52 type  1   force =     0.00048378    0.00064751   -0.00056259
     atom   53 type  4   force =     0.00033825    0.00000800    0.00024128
     atom   54 type  4   force =    -0.00045907   -0.00000786   -0.00163628

     Total force =     0.374784     Total SCF correction =     0.000704
  @ DRIVER MODE: Message from server: STATUS
  @ DRIVER MODE: Message from server: GETFORCE
  @ DRIVER MODE: Returning v,forces,stress,ensemble

     Writing output data file ./calc.save/
  @ DRIVER MODE: Message from server: EXIT
  @ DRIVE MODE: Exiting

     General routines

     Parallel routines

   This run was terminated on:  22:56:58  15Sep2021

   JOB DONE.