     Program PWSCF v.6.7GPU starts on  5Oct2021 at 18:35:33

     R & G space division:  proc/nbgrp/npool/nimage =       8
     Reading input from /storage/home/hcoda1/3/ntian30/research/carbon/CxH_vib/pristine/ads_slab/CH2N2_a/out_0021/pw.inp
Warning: card &CELL ignored
Warning: card   CELL_DYNAMICS='IPI', ignored
Warning: card / ignored

     Current dimensions of program PWSCF are:
     Max number of different atomic species (ntypx) = 10
     Max number of k-points (npk) =  40000
     Max angular momentum in pseudopotentials (lmaxx) =  3
     Presently no symmetry can be used with electric field

     Message from routine cell_base_init:
     DEPRECATED: use true lattice parameter, not A to a.u. conversion factor

     IMPORTANT: XC functional enforced from input :
     Exchange-correlation= BEEF-VDW
                           (   1   4  43  14   2   0   0)
     Any further DFT definition will be discarded
     Please, verify this is what you really want

  @ DRIVER MODE: Connecting to
 qe_1139763_3091261.sched-torque.pace.gatech.edud6ek3doj_scratch
  using UNIX socket
  @ DRIVER MODE: Message from server: STATUS
  @ DRIVER MODE: Message from server: INIT
  @ DRIVER MODE: Receiving replica           0          -1
  @ DRIVER MODE: Receiving encoded integer          25
  @ DRIVER MODE:  SCF:  T  FORCE:  T  STRESS:  F  VC:  F  ENSEMBLE:  F
  @ DRIVER MODE:  SCF:  T  FORCE:  T  STRESS:  F  VC:  F  ENSEMBLE:  F

     Using Slab Decomposition

     bravais-lattice index     =            0
     lattice parameter (alat)  =       1.8897  a.u.
     unit-cell volume          =    6658.9804 (a.u.)^3
     number of atoms/cell      =           53
     number of atomic types    =            5
     number of electrons       =       400.00
     number of Kohn-Sham states=          210
     kinetic-energy cutoff     =      29.3995  Ry
     charge density cutoff     =     293.9946  Ry
     scf convergence threshold =      7.3E-08
     mixing beta               =       0.0500
     number of iterations used =            8  plain     mixing
     Exchange-correlation= BEEF-VDW
                           (   1   4  43  14   2   0   0)

     celldm(1)=   1.889726  celldm(2)=   0.000000  celldm(3)=   0.000000
     celldm(4)=   0.000000  celldm(5)=   0.000000  celldm(6)=   0.000000

     crystal axes: (cart. coord. in units of alat)
               a(1) = (   6.579727   0.000000   0.000000 )
               a(2) = (  -0.000775   5.961596   0.000000 )
               a(3) = (   0.000000   0.000000  25.155947 )

     reciprocal axes: (cart. coord. in units 2 pi/alat)
               b(1) = (  0.151982  0.000020  0.000000 )
               b(2) = (  0.000000  0.167740  0.000000 )
               b(3) = (  0.000000  0.000000  0.039752 )

     PseudoPot. # 1 for Ti read from file:
     /storage/coda1/p-amedford6/0/shared/rich_project_chbe-medford/medford-share/data/pseudos_module/espresso/nninc/pbe/van/Ti.UPF
     MD5 check sum: 8e4df49b7f0d34bbd5052bf3f5ea0213
     Pseudo is Ultrasoft, Zval = 12.0
     Generated by new atomic code, or converted to UPF format
     Using radial grid of  851 points,  6 beta functions with:
                l(1) =   0
                l(2) =   0
                l(3) =   1
                l(4) =   1
                l(5) =   2
                l(6) =   2
     Q(r) pseudized with  8 coefficients,  rinner =    1.000   1.000   1.000
                                                       1.000   1.000

     PseudoPot. # 2 for O  read from file:
     /storage/coda1/p-amedford6/0/shared/rich_project_chbe-medford/medford-share/data/pseudos_module/espresso/nninc/pbe/van/O.UPF
     MD5 check sum: 78c19812648e8988a0fe644b0f25305e
     Pseudo is Ultrasoft, Zval =  6.0
     Generated by new atomic code, or converted to UPF format
     Using radial grid of  737 points,  4 beta functions with:
                l(1) =   0
                l(2) =   0
                l(3) =   1
                l(4) =   1
     Q(r) pseudized with  8 coefficients,  rinner =    0.800   0.800   0.800

     PseudoPot. # 3 for N  read from file:
     /storage/coda1/p-amedford6/0/shared/rich_project_chbe-medford/medford-share/data/pseudos_module/espresso/nninc/pbe/van/N.UPF
     MD5 check sum: 90d10febe142ad51ac9d5be1deb811c4
     Pseudo is Ultrasoft, Zval =  5.0
     Generated by new atomic code, or converted to UPF format
     Using radial grid of  729 points,  4 beta functions with:
                l(1) =   0
                l(2) =   0
                l(3) =   1
                l(4) =   1
     Q(r) pseudized with  8 coefficients,  rinner =    0.800   0.800   0.800

     PseudoPot. # 4 for C  read from file:
     /storage/coda1/p-amedford6/0/shared/rich_project_chbe-medford/medford-share/data/pseudos_module/espresso/nninc/pbe/van/C.UPF
     MD5 check sum: 1a69bf6b8db32088f5b2163dbdb77a27
     Pseudo is Ultrasoft, Zval =  4.0
     Generated by new atomic code, or converted to UPF format
     Using radial grid of  721 points,  4 beta functions with:
                l(1) =   0
                l(2) =   0
                l(3) =   1
                l(4) =   1
     Q(r) pseudized with  8 coefficients,  rinner =    0.800   0.800   0.800

     PseudoPot. # 5 for H  read from file:
     /storage/coda1/p-amedford6/0/shared/rich_project_chbe-medford/medford-share/data/pseudos_module/espresso/nninc/pbe/van/H.UPF
     MD5 check sum: b5ee9d7bfd3a09ee7748110bda690ff7
     Pseudo is Ultrasoft, Zval =  1.0
     Generated by new atomic code, or converted to UPF format
     Using radial grid of  615 points,  1 beta functions with:
                l(1) =   0
     Q(r) pseudized with  8 coefficients,  rinner =    0.800

     atomic species   valence    mass     pseudopotential
        Ti1           12.00    47.86700     Ti( 1.00)
        O1             6.00    15.99900     O ( 1.00)
        N1             5.00    14.00700     N ( 1.00)
        C1             4.00    12.01100     C ( 1.00)
        H1             1.00     1.00800     H ( 1.00)

     No symmetry found

   Cartesian axes

     site n.     atom                  positions (alat units)
         1           Ti1 tau(   1) = (   0.0004258   2.9801865   6.0000000  )
         2           Ti1 tau(   2) = (   3.2906075   1.4906267   6.0002472  )
         3           O1  tau(   3) = (   0.0006271   0.0005054   7.9858123  )
         4           O1  tau(   4) = (   3.2906025   0.0005020   7.3038282  )
         5           O1  tau(   5) = (   4.5942328   1.4918067   9.2879030  )
         6           O1  tau(   6) = (   1.9868534   1.4903216   9.2879459  )
         7           Ti1 tau(   7) = (   3.2967797   2.8647345   9.1688538  )
         8           Ti1 tau(   8) = (   0.0139078   1.4260134   9.3797207  )
         9           O1  tau(   9) = (   3.2818202   5.9426219  11.3413624  )
        10           O1  tau(  10) = (  -0.0006713   5.9438105  10.5613913  )
        11           O1  tau(  11) = (   1.2629550   1.4689526  12.6431422  )
        12           O1  tau(  12) = (   5.2627372   1.4724369  12.6244454  )
        13           Ti1 tau(  13) = (   0.0649248   2.9521173  12.8162972  )
        14           Ti1 tau(  14) = (   3.3900010   1.4623865  12.4921655  )
        15           O1  tau(  15) = (   6.5612248   5.9427239  14.6529025  )
        16           O1  tau(  16) = (   3.2707349   5.9499158  13.9186396  )
        17           O1  tau(  17) = (   4.5120437   1.4930778  16.0516072  )
        18           O1  tau(  18) = (   2.0188724   1.4901805  16.0528637  )
        19           Ti1 tau(  19) = (   3.2526435   2.9656207  15.7242400  )
        20           Ti1 tau(  20) = (   6.5390660   1.5270114  16.1581541  )
        21           O1  tau(  21) = (   3.2904802   0.0005063   4.7018136  )
        22           O1  tau(  22) = (   6.5517350   0.0054997  17.2382445  )
        23           O1  tau(  23) = (   1.3043587   1.4918075   6.0039043  )
        24           O1  tau(  24) = (   5.2767064   1.4903225   6.0039473  )
        25           Ti1 tau(  25) = (   0.0000382   5.9609847   6.0000000  )
        26           Ti1 tau(  26) = (   3.2902200   4.4714249   6.0002472  )
        27           O1  tau(  27) = (   0.0002396   2.9813036   7.9858123  )
        28           O1  tau(  28) = (   3.2902150   2.9813002   7.3038282  )
        29           O1  tau(  29) = (   4.5938453   4.4726049   9.2879030  )
        30           O1  tau(  30) = (   1.9864658   4.4711199   9.2879459  )
        31           Ti1 tau(  31) = (   3.2991641   5.8454459   9.1677744  )
        32           Ti1 tau(  32) = (   0.0142928   4.4069258   9.3804372  )
        33           O1  tau(  33) = (   3.2794024   2.9620648  11.3429404  )
        34           O1  tau(  34) = (   0.0008107   2.9631099  10.5617750  )
        35           O1  tau(  35) = (   1.2628400   4.4505553  12.6449227  )
        36           O1  tau(  36) = (   5.2621040   4.4508628  12.6271667  )
        37           Ti1 tau(  37) = (   0.0634051   5.9337149  12.8176510  )
        38           Ti1 tau(  38) = (   3.3888395   4.4462795  12.4902329  )
        39           O1  tau(  39) = (   6.5643088   2.9532696  14.6533357  )
        40           O1  tau(  40) = (   3.2687884   2.9653797  13.9163527  )
        41           O1  tau(  41) = (   4.5138939   4.4677068  16.0260545  )
        42           O1  tau(  42) = (   2.0159196   4.4685127  16.0260682  )
        43           Ti1 tau(  43) = (   3.2551286   5.9518885  15.7372992  )
        44           Ti1 tau(  44) = (   6.5382561   4.5045293  16.1449140  )
        45           O1  tau(  45) = (   3.2900926   2.9813045   4.7018136  )
        46           O1  tau(  46) = (   6.5520679   2.9954315  17.2342401  )
        47           O1  tau(  47) = (   1.3039711   4.4726057   6.0039043  )
        48           O1  tau(  48) = (   5.2763189   4.4711207   6.0039473  )
        49           N1  tau(  49) = (   3.2718132   4.4933032  18.6889481  )
        50           N1  tau(  50) = (   3.2619367   3.3563452  18.5802627  )
        51           C1  tau(  51) = (   3.2831389   5.7900214  18.6539038  )
        52           H1  tau(  52) = (   2.3406966   0.3170794  18.8225995  )
        53           H1  tau(  53) = (   4.2401870   0.3074325  18.8013464  )

     number of k points=    10  Fermi-Dirac smearing, width (Ry)=  0.0073
                       cart. coord. in units 2pi/alat
        k(    1) = (   0.0000000   0.0000000   0.0000000), wk =   0.1250000
        k(    2) = (   0.0000000   0.0419351   0.0000000), wk =   0.2500000
        k(    3) = (   0.0000000  -0.0838702   0.0000000), wk =   0.1250000
        k(    4) = (   0.0379955   0.0000049   0.0000000), wk =   0.2500000
        k(    5) = (   0.0379955   0.0419400   0.0000000), wk =   0.2500000
        k(    6) = (   0.0379955  -0.0838652   0.0000000), wk =   0.2500000
        k(    7) = (   0.0379955  -0.0419301   0.0000000), wk =   0.2500000
        k(    8) = (  -0.0759910  -0.0000099   0.0000000), wk =   0.1250000
        k(    9) = (  -0.0759910   0.0419252   0.0000000), wk =   0.2500000
        k(   10) = (  -0.0759910  -0.0838800   0.0000000), wk =   0.1250000

     Initial potential from superposition of free atoms

     starting charge  383.99917, renormalised to  400.00000

     negative rho (up, down):  1.829E-02 0.000E+00

     %%%%%%%%%%%%%%%%%%%%%%%%%%%%%%%%%%%%%%%%%%%%%%%%%%%%%%%%%%%%%%%%%%%%%%%%
     %                                                                      %
     % You are using vdW-DF, which was implemented by the Thonhauser group. %
     % Please cite the following two papers that made this development      %
     % possible and the two reviews that describe the various versions:     %
     %                                                                      %
     %   T. Thonhauser et al., PRL 115, 136402 (2015).                      %
     %   T. Thonhauser et al., PRB 76, 125112 (2007).                       %
     %   K. Berland et al., Rep. Prog. Phys. 78, 066501 (2015).             %
     %   D.C. Langreth et al., J. Phys.: Condens. Matter 21, 084203 (2009). %
     %                                                                      %
     %                                                                      %
     % If you are calculating the stress with vdW-DF, please also cite:     %
     %                                                                      %
     %   R. Sabatini et al., J. Phys.: Condens. Matter 24, 424209 (2012).   %
     %                                                                      %
     %%%%%%%%%%%%%%%%%%%%%%%%%%%%%%%%%%%%%%%%%%%%%%%%%%%%%%%%%%%%%%%%%%%%%%%%

     Adding external electric field

     Computed dipole along edir(3) :
        Dipole               -9.8398 Ry au,        -25.0102 Debye
        Dipole field         -0.0186 Ry au,

        Potential amp.        1.7213 Ry
        Total length         46.3494 bohr

     Starting wfcs are  302 atomic wfcs
  @ DRIVER MODE: Message from server: STATUS
  @ DRIVER MODE: Message from server: POSDATA
  @ DRIVER MODE: Reading and sharing cell
  @ DRIVER MODE: Reading and sharing positions
  @ DRIVER MODE: Received positions

     Self-consistent Calculation

     iteration #  1     ecut=    29.40 Ry     beta= 0.05
     Davidson diagonalization with overlap
     c_bands:  1 eigenvalues not converged
     c_bands:  2 eigenvalues not converged
     c_bands:  1 eigenvalues not converged
     c_bands:  2 eigenvalues not converged
     c_bands:  2 eigenvalues not converged
     c_bands:  2 eigenvalues not converged
     c_bands:  1 eigenvalues not converged
     c_bands:  3 eigenvalues not converged
     ethr =  1.00E-05,  avg # of iterations = 20.0

[...]

     total energy              =   -2519.77741223 Ry
     estimated scf accuracy    <    5013.02575538 Ry

     iteration #  2     ecut=    29.40 Ry     beta= 0.05
     Davidson diagonalization with overlap
     ethr =  1.00E-02,  avg # of iterations = 24.5

[...]

     iteration # 43     ecut=    29.40 Ry     beta= 0.05
     Davidson diagonalization with overlap
     c_bands:  1 eigenvalues not converged
     c_bands:  1 eigenvalues not converged
     ethr =  1.81E-06,  avg # of iterations =  8.0

[...]

     total energy              =   -2970.35084302 Ry
     estimated scf accuracy    <       0.00000041 Ry

     iteration # 66     ecut=    29.40 Ry     beta= 0.05
     Davidson diagonalization with overlap
     ethr =  6.33E-11,  avg # of iterations =  5.0

     negative rho (up, down):  1.789E-02 0.000E+00

     Adding external electric field

     Computed dipole along edir(3) :
        Dipole                0.5365 Ry au,          1.3637 Debye
        Dipole field          0.0010 Ry au,

        Potential amp.       -0.0939 Ry
        Total length         46.3494 bohr

     End of self-consistent calculation

          k = 0.0000 0.0000 0.0000 ( 18029 PWs)   bands (ev):

   -56.2391 -56.2055 -55.8895 -55.8538 -55.7648 -55.7299 -55.6315 -55.6079
   -55.5969 -55.5739 -55.5270 -55.4920 -55.4812 -55.4444 -55.0122 -54.9782
   -32.6660 -32.4867 -32.4588 -32.4304 -32.4246 -32.3393 -32.2929 -32.2389
   -32.1858 -32.1345 -32.1035 -32.0999 -32.0687 -32.0672 -32.0511 -32.0455
   -32.0322 -32.0125 -32.0069 -31.9912 -31.9056 -31.8828 -31.8720 -31.8608
   -31.8516 -31.8463 -31.8230 -31.8141 -31.8009 -31.7725 -31.7658 -31.7439
   -31.7374 -31.7242 -31.7060 -31.7042 -31.7041 -31.6875 -31.6849 -31.6570
   -31.6310 -31.5520 -31.4115 -31.3393 -31.3155 -31.2298 -31.1449 -31.0330
   -21.0529 -16.5568 -16.3931 -16.1719 -16.0186 -15.9296 -15.7984 -15.6030
   -15.5777 -15.4848 -15.4822 -15.4586 -15.3879 -15.3873 -15.3539 -15.3488
   -15.3201 -15.2990 -15.2594 -15.2426 -15.2403 -15.1976 -15.1378 -15.1123
   -15.0196 -14.9724 -14.8672 -14.8620 -14.8316 -14.7471 -14.7159 -14.2858
   -13.5059 -13.3925  -6.8072  -5.8870  -5.1010  -3.9841  -3.9272  -3.8930
    -3.7783  -3.7594  -3.6331  -3.3549  -3.2998  -3.0487  -2.9938  -2.9771
    -2.9316  -2.9096  -2.8425  -2.8408  -2.7376  -2.7331  -2.6869  -2.6799
    -2.6467  -2.6444  -2.6281  -2.5673  -2.5465  -2.4615  -2.4530  -2.4213
    -2.3963  -2.2799  -2.2353  -2.1906  -2.1887  -2.1599  -2.0606  -2.0531
    -2.0393  -2.0100  -1.9276  -1.8767  -1.7497  -1.6492  -1.6331  -1.5879
    -1.5269  -1.4942  -1.2953  -1.2479  -1.2443  -1.2233  -1.2009  -1.1884
    -1.1196  -1.0531  -0.9304  -0.8560  -0.8296  -0.7748  -0.7543  -0.7484
    -0.7290  -0.6509  -0.6214  -0.6150  -0.5919  -0.4508  -0.3053  -0.2663
    -0.2439  -0.2293  -0.2076  -0.1285  -0.1121  -0.0759  -0.0349  -0.0175
     0.0028   0.0512   0.0797   0.0885   0.1927   0.2130   0.2744   0.2958
     0.3056   0.3411   0.3851   0.5307   0.6176   0.7312   0.7403   0.8198
     0.9678   0.9746   1.0156   1.2188   1.2299   1.2771   1.6010   1.6742
     3.0329   3.2163   3.4481   3.5186   3.5390   3.6315   3.7373   3.7671
     3.8339   3.9124

[...]

          k = 0.0380-0.0419 0.0000 ( 17876 PWs)   bands (ev):

[...]

          k =-0.0760-0.0000 0.0000 ( 17886 PWs)   bands (ev):

[...]

          k =-0.0760-0.0839 0.0000 ( 17948 PWs)   bands (ev):

   -56.2223 -56.2222 -55.8719 -55.8713 -55.7495 -55.7450 -55.6149 -55.6134
   -55.5912 -55.5903 -55.5102 -55.5089 -55.4631 -55.4623 -54.9951 -54.9951
   -32.4836 -32.4834 -32.4724 -32.4722 -32.3832 -32.3831 -32.2308 -32.2264
   -32.1356 -32.1308 -32.0779 -32.0769 -32.0675 -32.0568 -32.0369 -32.0285
   -31.9547 -31.9473 -31.9361 -31.9344 -31.9212 -31.9204 -31.8546 -31.8541
   -31.8431 -31.8418 -31.8363 -31.8359 -31.8297 -31.8293 -31.8014 -31.8006
   -31.7902 -31.7839 -31.7261 -31.7251 -31.7166 -31.7155 -31.6994 -31.6982
   -31.6828 -31.6819 -31.3284 -31.3284 -31.2257 -31.2257 -31.1875 -31.1875
   -21.0518 -15.9777 -15.9660 -15.7724 -15.7674 -15.7043 -15.7042 -15.6640
   -15.6616 -15.6116 -15.6102 -15.4721 -15.4690 -15.4678 -15.4638 -15.3879
   -15.3866 -15.3726 -15.3715 -15.3207 -15.3190 -15.1846 -15.1834 -15.0973
   -15.0964 -15.0525 -15.0518 -14.9957 -14.9949 -14.8957 -14.8818 -14.2980
   -13.4949 -13.4948  -6.6502  -5.8578  -5.0894  -4.1504  -3.2634  -3.2502
    -2.9840  -2.9782  -2.8916  -2.8631  -2.8522  -2.8260  -2.8248  -2.7393
    -2.7316  -2.7076  -2.7022  -2.6748  -2.6707  -2.6132  -2.6119  -2.5891
    -2.5834  -2.5738  -2.5727  -2.5674  -2.5653  -2.4758  -2.4723  -2.4590
    -2.4570  -2.3845  -2.3784  -2.3443  -2.3319  -2.1235  -2.1231  -2.0536
    -2.0526  -1.9345  -1.9333  -1.9169  -1.9129  -1.8769  -1.8371  -1.5984
    -1.5962  -1.5389  -1.5363  -1.4872  -1.4730  -1.3671  -1.3380  -1.2105
    -1.1914  -1.1751  -1.1677  -1.0175  -1.0139  -1.0120  -1.0084  -0.9847
    -0.9813  -0.8654  -0.8518  -0.7656  -0.7586  -0.7417  -0.7382  -0.7001
    -0.6825  -0.5322  -0.5318  -0.5087  -0.5030  -0.3616  -0.3605  -0.3013
    -0.2947  -0.0528  -0.0445   0.0678   0.0680   0.2974   0.3315   0.3524
     0.3637   0.5062   0.5147   0.5284   0.5372   0.6625   0.6671   0.6840
     0.6898   0.7770   0.7770   1.2159   1.4032   1.4037   1.4556   1.4557
     3.5739   3.5784   3.5829   3.5873   3.6276   3.6292   3.6747   3.6765
     3.9320   3.9545

     the Fermi energy is     2.4058 ev

!    total energy              =   -2970.35087169 Ry
     estimated scf accuracy    <       0.00000007 Ry
     smearing contrib. (-TS)   =      -0.00009819 Ry
     internal energy E=F+TS    =   -2970.35077350 Ry

     The total energy is F=E-TS. E is the sum of the following terms:
     one-electron contribution =  -24066.93708666 Ry
     hartree contribution      =   12123.77790622 Ry
     xc contribution           =    -491.48778955 Ry
     ewald contribution        =    9464.29565324 Ry
     electric field correction =       0.00054326 Ry

     convergence has been achieved in  66 iterations

     Forces acting on atoms (cartesian axes, Ry/au):

     atom    1 type  1   force =     0.00011840   -0.00011305    0.14849969
     atom    2 type  1   force =    -0.00010743   -0.00049076   -0.16836061
     atom    3 type  2   force =     0.00014014    0.00223510   -0.05993755
     atom    4 type  2   force =     0.00015655   -0.00146526    0.03992332
     atom    5 type  2   force =    -0.02120189   -0.00097305    0.00398025
     atom    6 type  2   force =     0.02099899    0.00032928    0.00311326
     atom    7 type  1   force =    -0.00011715   -0.00020122   -0.00002560
     atom    8 type  1   force =    -0.00022001    0.00002357    0.00002957
     atom    9 type  2   force =    -0.00023406   -0.00005568    0.00012970
     atom   10 type  2   force =     0.00001733    0.00000020    0.00002880
     atom   11 type  2   force =    -0.00000611   -0.00006429   -0.00013605
     atom   12 type  2   force =    -0.00009105   -0.00013414   -0.00007631
     atom   13 type  1   force =    -0.00008463   -0.00000986   -0.00008268
     atom   14 type  1   force =     0.00006181   -0.00002803    0.00003988
     atom   15 type  2   force =     0.00010599    0.00001180   -0.00001102
     atom   16 type  2   force =     0.00007580   -0.00004259    0.00012808
     atom   17 type  2   force =     0.00004446   -0.00013185    0.00021652
     atom   18 type  2   force =     0.00022120   -0.00008809   -0.00005843
     atom   19 type  1   force =     0.00019977    0.00005932    0.00000436
     atom   20 type  1   force =    -0.00012785   -0.00001830   -0.00012921
     atom   21 type  2   force =     0.00004279   -0.00004455    0.10204458
     atom   22 type  2   force =     0.00007251   -0.00006888    0.00000457
     atom   23 type  2   force =    -0.07528023    0.00015733   -0.03468748
     atom   24 type  2   force =     0.07521285    0.00058344   -0.03476150
     atom   25 type  1   force =     0.00011117   -0.00013160    0.14840374
     atom   26 type  1   force =    -0.00013608   -0.00085900   -0.16860191
     atom   27 type  2   force =     0.00012404    0.00218317   -0.05989081
     atom   28 type  2   force =     0.00009115   -0.00146045    0.04020582
     atom   29 type  2   force =    -0.02099839   -0.00107760    0.00396025
     atom   30 type  2   force =     0.02119166    0.00041010    0.00311184
     atom   31 type  1   force =    -0.00019944   -0.00010377   -0.00002481
     atom   32 type  1   force =    -0.00011352   -0.00006025   -0.00009693
     atom   33 type  2   force =     0.00013354    0.00008266    0.00004639
     atom   34 type  2   force =    -0.00008599    0.00002881   -0.00004972
     atom   35 type  2   force =    -0.00003829    0.00002873    0.00002637
     atom   36 type  2   force =    -0.00013725    0.00022672   -0.00015646
     atom   37 type  1   force =    -0.00007197   -0.00014237   -0.00005186
     atom   38 type  1   force =     0.00004926    0.00005243    0.00020204
     atom   39 type  2   force =    -0.00007776   -0.00000794   -0.00015544
     atom   40 type  2   force =     0.00011397    0.00001941    0.00007008
     atom   41 type  2   force =     0.00023117   -0.00010742    0.00009538
     atom   42 type  2   force =     0.00022382   -0.00004574    0.00025243
     atom   43 type  1   force =    -0.00010756    0.00032821    0.00022097
     atom   44 type  1   force =    -0.00007066    0.00002894    0.00000950
     atom   45 type  2   force =     0.00003725   -0.00004646    0.10203526
     atom   46 type  2   force =     0.00003192    0.00003833   -0.00013079
     atom   47 type  2   force =    -0.07527948    0.00019820   -0.03468855
     atom   48 type  2   force =     0.07521747    0.00063012   -0.03475676
     atom   49 type  3   force =     0.00097512   -0.00179603   -0.00147845
     atom   50 type  3   force =     0.00005337    0.00078598    0.00116066
     atom   51 type  4   force =     0.00336770   -0.00366870   -0.00140033
     atom   52 type  5   force =    -0.00475231    0.00426156    0.00121606
     atom   53 type  5   force =     0.00011793    0.00073352    0.00058992

     Total force =     0.401824     Total SCF correction =     0.000714
  @ DRIVER MODE: Message from server: STATUS
  @ DRIVER MODE: Message from server: GETFORCE
  @ DRIVER MODE: Returning v,forces,stress,ensemble

     Writing output data file ./calc.save/
  @ DRIVER MODE: Message from server: EXIT
  @ DRIVE MODE: Exiting

     General routines

     Parallel routines

   This run was terminated on:  18:58:37   5Oct2021

   JOB DONE.