     Program PWSCF v.6.7GPU starts on 23Sep2021 at  3:51:44

     R & G space division:  proc/nbgrp/npool/nimage =      10
     Reading input from /storage/home/hcoda1/3/ntian30/research/carbon/CxH_vib/H2O_calc/ads_slab/CHNNHHHO_a/out_0035/pw.inp
Warning: card &CELL ignored
Warning: card   CELL_DYNAMICS='IPI', ignored
Warning: card / ignored

     Current dimensions of program PWSCF are:
     Max number of different atomic species (ntypx) = 10
     Max number of k-points (npk) =  40000
     Max angular momentum in pseudopotentials (lmaxx) =  3
     Presently no symmetry can be used with electric field

     Message from routine cell_base_init:
     DEPRECATED: use true lattice parameter, not A to a.u. conversion factor

     IMPORTANT: XC functional enforced from input :
     Exchange-correlation= BEEF-VDW
                           (   1   4  43  14   2   0   0)
     Any further DFT definition will be discarded
     Please, verify this is what you really want

  @ DRIVER MODE: Connecting to
 qe_1139763_2937315.sched-torque.pace.gatech.edukyxik9my_scratch
  using UNIX socket
  @ DRIVER MODE: Message from server: STATUS
  @ DRIVER MODE: Message from server: INIT
  @ DRIVER MODE: Receiving replica           0          -1
  @ DRIVER MODE: Receiving encoded integer          25
  @ DRIVER MODE:  SCF:  T  FORCE:  T  STRESS:  F  VC:  F  ENSEMBLE:  F
  @ DRIVER MODE:  SCF:  T  FORCE:  T  STRESS:  F  VC:  F  ENSEMBLE:  F

     Using Slab Decomposition

     bravais-lattice index     =            0
     lattice parameter (alat)  =       1.8897  a.u.
     unit-cell volume          =    6658.9804 (a.u.)^3
     number of atoms/cell      =           55
     number of atomic types    =            5
     number of electrons       =       402.00
     number of Kohn-Sham states=          211
     kinetic-energy cutoff     =      29.3995  Ry
     charge density cutoff     =     293.9946  Ry
     scf convergence threshold =      7.3E-08
     mixing beta               =       0.0500
     number of iterations used =            8  plain     mixing
     Exchange-correlation= BEEF-VDW
                           (   1   4  43  14   2   0   0)

     celldm(1)=   1.889726  celldm(2)=   0.000000  celldm(3)=   0.000000
     celldm(4)=   0.000000  celldm(5)=   0.000000  celldm(6)=   0.000000

     crystal axes: (cart. coord. in units of alat)
               a(1) = (   6.579727   0.000000   0.000000 )
               a(2) = (  -0.000775   5.961596   0.000000 )
               a(3) = (   0.000000   0.000000  25.155947 )

     reciprocal axes: (cart. coord. in units 2 pi/alat)
               b(1) = (  0.151982  0.000020  0.000000 )
               b(2) = (  0.000000  0.167740  0.000000 )
               b(3) = (  0.000000  0.000000  0.039752 )

     PseudoPot. # 1 for Ti read from file:
     /storage/coda1/p-amedford6/0/shared/rich_project_chbe-medford/medford-share/data/pseudos_module/espresso/nninc/pbe/van/Ti.UPF
     MD5 check sum: 8e4df49b7f0d34bbd5052bf3f5ea0213
     Pseudo is Ultrasoft, Zval = 12.0
     Generated by new atomic code, or converted to UPF format
     Using radial grid of  851 points,  6 beta functions with:
                l(1) =   0
                l(2) =   0
                l(3) =   1
                l(4) =   1
                l(5) =   2
                l(6) =   2
     Q(r) pseudized with  8 coefficients,  rinner =    1.000   1.000   1.000
                                                       1.000   1.000

     PseudoPot. # 2 for O  read from file:
     /storage/coda1/p-amedford6/0/shared/rich_project_chbe-medford/medford-share/data/pseudos_module/espresso/nninc/pbe/van/O.UPF
     MD5 check sum: 78c19812648e8988a0fe644b0f25305e
     Pseudo is Ultrasoft, Zval =  6.0
     Generated by new atomic code, or converted to UPF format
     Using radial grid of  737 points,  4 beta functions with:
                l(1) =   0
                l(2) =   0
                l(3) =   1
                l(4) =   1
     Q(r) pseudized with  8 coefficients,  rinner =    0.800   0.800   0.800

     PseudoPot. # 3 for N  read from file:
     /storage/coda1/p-amedford6/0/shared/rich_project_chbe-medford/medford-share/data/pseudos_module/espresso/nninc/pbe/van/N.UPF
     MD5 check sum: 90d10febe142ad51ac9d5be1deb811c4
     Pseudo is Ultrasoft, Zval =  5.0
     Generated by new atomic code, or converted to UPF format
     Using radial grid of  729 points,  4 beta functions with:
                l(1) =   0
                l(2) =   0
                l(3) =   1
                l(4) =   1
     Q(r) pseudized with  8 coefficients,  rinner =    0.800   0.800   0.800

     PseudoPot. # 4 for C  read from file:
     /storage/coda1/p-amedford6/0/shared/rich_project_chbe-medford/medford-share/data/pseudos_module/espresso/nninc/pbe/van/C.UPF
     MD5 check sum: 1a69bf6b8db32088f5b2163dbdb77a27
     Pseudo is Ultrasoft, Zval =  4.0
     Generated by new atomic code, or converted to UPF format
     Using radial grid of  721 points,  4 beta functions with:
                l(1) =   0
                l(2) =   0
                l(3) =   1
                l(4) =   1
     Q(r) pseudized with  8 coefficients,  rinner =    0.800   0.800   0.800

     PseudoPot. # 5 for H  read from file:
     /storage/coda1/p-amedford6/0/shared/rich_project_chbe-medford/medford-share/data/pseudos_module/espresso/nninc/pbe/van/H.UPF
     MD5 check sum: b5ee9d7bfd3a09ee7748110bda690ff7
     Pseudo is Ultrasoft, Zval =  1.0
     Generated by new atomic code, or converted to UPF format
     Using radial grid of  615 points,  1 beta functions with:
                l(1) =   0
     Q(r) pseudized with  8 coefficients,  rinner =    0.800

     atomic species   valence    mass     pseudopotential
        Ti1           12.00    47.86700     Ti( 1.00)
        O1             6.00    15.99900     O ( 1.00)
        N1             5.00    14.00700     N ( 1.00)
        C1             4.00    12.01100     C ( 1.00)
        H1             1.00     1.00800     H ( 1.00)

     No symmetry found

   Cartesian axes

     site n.     atom                  positions (alat units)
         1           Ti1 tau(   1) = (   0.0004258   2.9801865   6.0000000  )
         2           Ti1 tau(   2) = (   3.2906075   1.4906267   6.0002472  )
         3           O1  tau(   3) = (   0.0006271   0.0005054   7.9858123  )
         4           O1  tau(   4) = (   3.2906025   0.0005020   7.3038282  )
         5           O1  tau(   5) = (   4.5942328   1.4918067   9.2879030  )
         6           O1  tau(   6) = (   1.9868534   1.4903216   9.2879459  )
         7           Ti1 tau(   7) = (   3.2907910   2.8959150   9.1758416  )
         8           Ti1 tau(   8) = (   0.0015273   1.4827037   9.2680791  )
         9           O1  tau(   9) = (   3.3019041   5.9340972  11.2780832  )
        10           O1  tau(  10) = (   0.0116148   5.9584955  10.6183126  )
        11           O1  tau(  11) = (   1.2869077   1.4717189  12.6473688  )
        12           O1  tau(  12) = (   5.3188397   1.4655789  12.6430575  )
        13           Ti1 tau(  13) = (   0.0521173   3.0639968  12.7333969  )
        14           Ti1 tau(  14) = (   3.2906581   1.3001642  12.6471297  )
        15           O1  tau(  15) = (   0.0021475   5.9326859  14.6872502  )
        16           O1  tau(  16) = (   3.3040199   0.0265785  13.8678754  )
        17           O1  tau(  17) = (   4.6240569   1.6264218  16.1080407  )
        18           O1  tau(  18) = (   2.0715169   1.5429601  15.9546445  )
        19           Ti1 tau(  19) = (   3.3363059   2.9874148  15.6109769  )
        20           Ti1 tau(  20) = (   0.0492893   1.4028208  15.7974426  )
        21           O1  tau(  21) = (   3.2904802   0.0005063   4.7018136  )
        22           O1  tau(  22) = (   0.0944532   0.0627470  17.1934044  )
        23           O1  tau(  23) = (   1.3043587   1.4918075   6.0039043  )
        24           O1  tau(  24) = (   5.2767064   1.4903225   6.0039473  )
        25           Ti1 tau(  25) = (   0.0000382   5.9609847   6.0000000  )
        26           Ti1 tau(  26) = (   3.2902200   4.4714249   6.0002472  )
        27           O1  tau(  27) = (   0.0002396   2.9813036   7.9858123  )
        28           O1  tau(  28) = (   3.2902150   2.9813002   7.3038282  )
        29           O1  tau(  29) = (   4.5938453   4.4726049   9.2879030  )
        30           O1  tau(  30) = (   1.9864658   4.4711199   9.2879459  )
        31           Ti1 tau(  31) = (   3.2891106   5.8743827   9.1763621  )
        32           Ti1 tau(  32) = (   0.0006254   4.4649316   9.2693709  )
        33           O1  tau(  33) = (   3.3033179   3.0104581  11.2528581  )
        34           O1  tau(  34) = (   0.0092240   2.9805883  10.6323155  )
        35           O1  tau(  35) = (   1.3074756   4.4469578  12.6382572  )
        36           O1  tau(  36) = (   5.3202433   4.4545580  12.6357595  )
        37           Ti1 tau(  37) = (   6.5572640   0.0741000  12.5519234  )
        38           Ti1 tau(  38) = (   3.3179412   4.3950854  12.4030220  )
        39           O1  tau(  39) = (   0.0383827   2.9948909  14.7437145  )
        40           O1  tau(  40) = (   3.3238341   2.9662938  13.8354460  )
        41           O1  tau(  41) = (   4.5722604   4.5101538  15.9256862  )
        42           O1  tau(  42) = (   2.0839069   4.4665637  16.0501180  )
        43           Ti1 tau(  43) = (   3.2507700   5.9423238  16.2547716  )
        44           Ti1 tau(  44) = (   6.5063516   4.5631136  16.2071476  )
        45           O1  tau(  45) = (   3.2900926   2.9813045   4.7018136  )
        46           O1  tau(  46) = (   1.3039711   4.4726057   6.0039043  )
        47           O1  tau(  47) = (   5.2763189   4.4711207   6.0039473  )
        48           N1  tau(  48) = (   0.4124544   2.9287237  17.8391456  )
        49           C1  tau(  49) = (   1.3780350   3.0145335  18.6736463  )
        50           H1  tau(  50) = (   2.3027514   2.5668077  18.2879847  )
        51           N1  tau(  51) = (   5.7762606   3.6115528  18.1636368  )
        52           H1  tau(  52) = (   5.8537390   4.1179332  19.0469945  )
        53           H1  tau(  53) = (   5.0130290   2.9392956  18.1602355  )
        54           O1  tau(  54) = (   3.2882145   0.0116813  18.0866318  )
        55           H1  tau(  55) = (   2.5950809   5.5738040  18.6371346  )

     number of k points=    10  Fermi-Dirac smearing, width (Ry)=  0.0073
                       cart. coord. in units 2pi/alat
        k(    1) = (   0.0000000   0.0000000   0.0000000), wk =   0.1250000
        k(    2) = (   0.0000000   0.0419351   0.0000000), wk =   0.2500000
        k(    3) = (   0.0000000  -0.0838702   0.0000000), wk =   0.1250000
        k(    4) = (   0.0379955   0.0000049   0.0000000), wk =   0.2500000
        k(    5) = (   0.0379955   0.0419400   0.0000000), wk =   0.2500000
        k(    6) = (   0.0379955  -0.0838652   0.0000000), wk =   0.2500000
        k(    7) = (   0.0379955  -0.0419301   0.0000000), wk =   0.2500000
        k(    8) = (  -0.0759910  -0.0000099   0.0000000), wk =   0.1250000
        k(    9) = (  -0.0759910   0.0419252   0.0000000), wk =   0.2500000
        k(   10) = (  -0.0759910  -0.0838800   0.0000000), wk =   0.1250000

     Initial potential from superposition of free atoms

     starting charge  385.99915, renormalised to  402.00000

     negative rho (up, down):  1.703E-02 0.000E+00

     %%%%%%%%%%%%%%%%%%%%%%%%%%%%%%%%%%%%%%%%%%%%%%%%%%%%%%%%%%%%%%%%%%%%%%%%
     %                                                                      %
     % You are using vdW-DF, which was implemented by the Thonhauser group. %
     % Please cite the following two papers that made this development      %
     % possible and the two reviews that describe the various versions:     %
     %                                                                      %
     %   T. Thonhauser et al., PRL 115, 136402 (2015).                      %
     %   T. Thonhauser et al., PRB 76, 125112 (2007).                       %
     %   K. Berland et al., Rep. Prog. Phys. 78, 066501 (2015).             %
     %   D.C. Langreth et al., J. Phys.: Condens. Matter 21, 084203 (2009). %
     %                                                                      %
     %                                                                      %
     % If you are calculating the stress with vdW-DF, please also cite:     %
     %                                                                      %
     %   R. Sabatini et al., J. Phys.: Condens. Matter 24, 424209 (2012).   %
     %                                                                      %
     %%%%%%%%%%%%%%%%%%%%%%%%%%%%%%%%%%%%%%%%%%%%%%%%%%%%%%%%%%%%%%%%%%%%%%%%

     Adding external electric field

     Computed dipole along edir(3) :
        Dipole              -11.1536 Ry au,        -28.3496 Debye
        Dipole field         -0.0210 Ry au,

        Potential amp.        1.9511 Ry
        Total length         46.3494 bohr

     Starting wfcs are  304 atomic wfcs
  @ DRIVER MODE: Message from server: STATUS
  @ DRIVER MODE: Message from server: POSDATA
  @ DRIVER MODE: Reading and sharing cell
  @ DRIVER MODE: Reading and sharing positions
  @ DRIVER MODE: Received positions

     Self-consistent Calculation

     iteration #  1     ecut=    29.40 Ry     beta= 0.05
     Davidson diagonalization with overlap
     c_bands:  2 eigenvalues not converged
     c_bands:  3 eigenvalues not converged
     c_bands:  1 eigenvalues not converged
     c_bands:  5 eigenvalues not converged
     c_bands:  1 eigenvalues not converged
     c_bands:  5 eigenvalues not converged
     c_bands:  3 eigenvalues not converged
     ethr =  1.00E-05,  avg # of iterations = 27.6

[...]

     total energy              =   -2400.32403714 Ry
     estimated scf accuracy    <    6416.09460727 Ry

     iteration #  2     ecut=    29.40 Ry     beta= 0.05
     Davidson diagonalization with overlap
     ethr =  1.00E-02,  avg # of iterations = 23.7

[...]

     iteration # 51     ecut=    29.40 Ry     beta= 0.05
     Davidson diagonalization with overlap
     c_bands:  1 eigenvalues not converged
     ethr =  2.79E-07,  avg # of iterations = 12.4

[...]

     total energy              =   -2972.60994809 Ry
     estimated scf accuracy    <       0.00000013 Ry

     iteration # 71     ecut=    29.40 Ry     beta= 0.05
     Davidson diagonalization with overlap
     ethr =  3.19E-11,  avg # of iterations =  5.7

     negative rho (up, down):  1.638E-02 0.000E+00

     Adding external electric field

     Computed dipole along edir(3) :
        Dipole                0.2191 Ry au,          0.5568 Debye
        Dipole field          0.0004 Ry au,

        Potential amp.       -0.0383 Ry
        Total length         46.3494 bohr

     End of self-consistent calculation

          k = 0.0000 0.0000 0.0000 ( 18029 PWs)   bands (ev):

   -56.4670 -56.4332 -56.0107 -55.9748 -55.7589 -55.7044 -55.6463 -55.6381
   -55.6046 -55.5144 -55.5078 -55.4512 -55.4079 -55.2832 -55.2117 -55.1777
   -32.9134 -32.7582 -32.7309 -32.6269 -32.5379 -32.5345 -32.4922 -32.2422
   -32.2284 -32.2064 -32.1596 -32.1546 -32.1288 -32.1093 -32.0261 -32.0133
   -31.9936 -31.9802 -31.9627 -31.9242 -31.9192 -31.9104 -31.9069 -31.8850
   -31.8653 -31.8636 -31.8601 -31.8065 -31.7899 -31.7699 -31.7474 -31.7238
   -31.7110 -31.6961 -31.6787 -31.6747 -31.6457 -31.6068 -31.5976 -31.5778
   -31.5481 -31.5466 -31.5229 -31.5148 -31.4913 -31.4259 -31.3416 -31.2295
   -17.9091 -16.7390 -16.4753 -16.4028 -16.2042 -16.0138 -15.9204 -15.9055
   -15.8852 -15.7653 -15.7640 -15.6132 -15.5328 -15.4771 -15.4149 -15.4039
   -15.3348 -15.3175 -15.2544 -15.2270 -15.2140 -15.1890 -15.1406 -15.0775
   -15.0667 -15.0401 -14.8547 -14.8287 -14.8138 -14.6283 -14.5351 -13.7090
   -13.5974 -13.2140  -7.8323  -6.1941  -4.2571  -4.2519  -4.1357  -3.9343
    -3.7351  -3.6736  -3.5785  -3.4349  -3.4047  -3.1622  -3.1469  -3.1050
    -3.0166  -2.9896  -2.9622  -2.9020  -2.8439  -2.8245  -2.7645  -2.6867
    -2.6836  -2.6742  -2.6433  -2.6203  -2.5167  -2.4777  -2.4147  -2.3749
    -2.3489  -2.3383  -2.2991  -2.2441  -2.2166  -2.1642  -2.1467  -2.0670
    -2.0368  -1.9484  -1.8888  -1.8712  -1.8185  -1.7592  -1.7549  -1.6999
    -1.5682  -1.4582  -1.3913  -1.3504  -1.2953  -1.2401  -1.2105  -1.1550
    -1.0905  -1.0677  -1.0438  -1.0070  -0.9461  -0.9175  -0.8703  -0.8168
    -0.7399  -0.6728  -0.6268  -0.6062  -0.5001  -0.4350  -0.3972  -0.3809
    -0.3441  -0.2899  -0.2351  -0.1952  -0.1853  -0.1625  -0.1015   0.0226
     0.0332   0.0923   0.1470   0.1804   0.1933   0.2087   0.2703   0.3377
     0.4118   0.4549   0.4675   0.5252   0.5895   0.6282   0.7429   0.8129
     0.8394   0.8800   0.9555   1.0327   1.0475   1.3540   1.3672   1.3967
     2.5150   2.7679   2.8987   3.0779   3.1988   3.3338   3.6524   3.6694
     3.6812   3.7017   3.7561

[...]

          k = 0.0380-0.0419 0.0000 ( 17876 PWs)   bands (ev):

[...]

          k =-0.0760-0.0000 0.0000 ( 17886 PWs)   bands (ev):

[...]

          k =-0.0760-0.0839 0.0000 ( 17948 PWs)   bands (ev):

   -56.4503 -56.4498 -55.9990 -55.9863 -55.7530 -55.7102 -55.6377 -55.6366
   -55.6131 -55.5121 -55.5093 -55.4496 -55.4100 -55.2848 -55.1952 -55.1941
   -32.7440 -32.7435 -32.7297 -32.7295 -32.5794 -32.5785 -32.3210 -32.3100
   -32.1909 -32.1846 -32.1765 -32.1749 -32.0608 -32.0283 -31.9819 -31.9748
   -31.9623 -31.9571 -31.9487 -31.9401 -31.9367 -31.9288 -31.9093 -31.8722
   -31.8637 -31.8583 -31.8551 -31.8408 -31.8214 -31.7968 -31.7830 -31.7732
   -31.7266 -31.7107 -31.7020 -31.6821 -31.6514 -31.6331 -31.6309 -31.6019
   -31.5504 -31.5362 -31.5354 -31.4954 -31.4224 -31.4212 -31.3843 -31.3835
   -17.8997 -16.4559 -16.1447 -16.1338 -16.0160 -16.0104 -15.8589 -15.8380
   -15.8198 -15.7463 -15.6822 -15.6608 -15.5133 -15.5007 -15.4644 -15.4291
   -15.4009 -15.3630 -15.3587 -15.3350 -15.3027 -15.2372 -15.2155 -15.1909
   -15.1801 -15.1047 -14.9247 -14.9008 -14.8975 -14.8231 -14.6848 -13.7010
   -13.7001 -13.2251  -7.7968  -6.1238  -4.3735  -4.0825  -3.3153  -3.2513
    -3.1763  -3.1407  -3.1301  -3.0575  -3.0420  -2.9273  -2.8987  -2.8597
    -2.8336  -2.8232  -2.8034  -2.7524  -2.7304  -2.6850  -2.6687  -2.6674
    -2.6352  -2.5952  -2.5757  -2.5522  -2.5412  -2.4713  -2.4417  -2.3987
    -2.3813  -2.3698  -2.3231  -2.2633  -2.2468  -2.1877  -2.1760  -2.1424
    -2.1056  -2.0457  -2.0069  -1.9641  -1.8663  -1.8463  -1.7768  -1.6592
    -1.6381  -1.5541  -1.5258  -1.5043  -1.4824  -1.4044  -1.3728  -1.3392
    -1.2513  -1.2244  -1.2167  -1.1904  -1.1576  -1.1330  -1.0764  -1.0138
    -0.9181  -0.8544  -0.8429  -0.8238  -0.7850  -0.7585  -0.7179  -0.6255
    -0.6041  -0.5689  -0.5593  -0.5177  -0.4050  -0.3794  -0.2290  -0.1920
    -0.1026  -0.0750  -0.0556  -0.0145   0.1079   0.1353   0.1856   0.2059
     0.2650   0.3099   0.3601   0.4502   0.5524   0.5651   0.6969   0.7237
     0.7445   0.8175   0.9515   0.9919   1.2072   1.2119   1.2135   1.2156
     2.4943   3.3205   3.3230   3.3563   3.3686   3.5718   3.5918   3.7175
     3.8019   3.8114   3.8307

     the Fermi energy is     2.6945 ev

!    total energy              =   -2972.60998158 Ry
     estimated scf accuracy    <       0.00000005 Ry
     smearing contrib. (-TS)   =      -0.01175611 Ry
     internal energy E=F+TS    =   -2972.59822548 Ry

     The total energy is F=E-TS. E is the sum of the following terms:
     one-electron contribution =  -24037.08129870 Ry
     hartree contribution      =   12109.92665435 Ry
     xc contribution           =    -493.07622639 Ry
     ewald contribution        =    9447.63255469 Ry
     electric field correction =       0.00009057 Ry

     convergence has been achieved in  71 iterations

     Forces acting on atoms (cartesian axes, Ry/au):

     atom    1 type  1   force =    -0.00004164   -0.00046190    0.10839781
     atom    2 type  1   force =     0.00001769    0.00008135   -0.16406544
     atom    3 type  2   force =     0.00013278    0.00046918   -0.04116980
     atom    4 type  2   force =     0.00009570   -0.00056611    0.03216575
     atom    5 type  2   force =    -0.00382200   -0.00332820   -0.00774354
     atom    6 type  2   force =     0.00588350   -0.00273709   -0.00757018
     atom    7 type  1   force =     0.00016732   -0.00552240    0.03629455
     atom    8 type  1   force =     0.00012957    0.02543778    0.06347382
     atom    9 type  2   force =     0.00013945    0.00039574    0.00016447
     atom   10 type  2   force =    -0.00195071    0.00076418   -0.03773234
     atom   11 type  2   force =     0.00010356   -0.00015301   -0.00016059
     atom   12 type  2   force =    -0.00074036    0.00020472   -0.00016762
     atom   13 type  1   force =     0.00045087    0.00043649    0.00080793
     atom   14 type  1   force =    -0.00056624   -0.00026453    0.00009083
     atom   15 type  2   force =    -0.00014772    0.00008008    0.00078311
     atom   16 type  2   force =    -0.00011995    0.00032079   -0.00013779
     atom   17 type  2   force =    -0.00103590    0.00057608    0.00012737
     atom   18 type  2   force =     0.00063712   -0.00006833   -0.00033563
     atom   19 type  1   force =     0.00010934   -0.00069848   -0.00017404
     atom   20 type  1   force =    -0.00032998   -0.00012123   -0.00028906
     atom   21 type  2   force =     0.00009758    0.00018751    0.10009826
     atom   22 type  2   force =    -0.00009227   -0.00024572    0.00038311
     atom   23 type  2   force =    -0.07740131    0.00001330   -0.03032822
     atom   24 type  2   force =     0.07739582    0.00043127   -0.03037116
     atom   25 type  1   force =    -0.00001405   -0.00031057    0.10859121
     atom   26 type  1   force =    -0.00003912   -0.00109719   -0.16409786
     atom   27 type  2   force =     0.00011604   -0.00017868   -0.03918116
     atom   28 type  2   force =     0.00011491    0.00117790    0.02838260
     atom   29 type  2   force =    -0.00232464    0.00468221   -0.01047573
     atom   30 type  2   force =     0.00439945    0.00496474   -0.01043474
     atom   31 type  1   force =     0.00004966    0.00319265    0.01911416
     atom   32 type  1   force =     0.00036683   -0.02766440    0.06520731
     atom   33 type  2   force =    -0.00003403   -0.00078300   -0.00037555
     atom   34 type  2   force =    -0.00062636    0.00085908   -0.05563635
     atom   35 type  2   force =    -0.00035450   -0.00024077   -0.00025389
     atom   36 type  2   force =    -0.00006342   -0.00004041   -0.00017660
     atom   37 type  1   force =     0.00029367   -0.00052676    0.00007398
     atom   38 type  1   force =    -0.00036390   -0.00014917    0.00021671
     atom   39 type  2   force =    -0.00018035    0.00032343   -0.00012239
     atom   40 type  2   force =    -0.00016346   -0.00025997   -0.00022772
     atom   41 type  2   force =    -0.00030307    0.00008079    0.00008737
     atom   42 type  2   force =    -0.00039109    0.00004827    0.00006800
     atom   43 type  1   force =     0.00020365    0.00025104   -0.00000686
     atom   44 type  1   force =    -0.00022103    0.00028287   -0.00054734
     atom   45 type  2   force =     0.00010200    0.00001175    0.09990385
     atom   46 type  2   force =    -0.07743218   -0.00001068   -0.03033685
     atom   47 type  2   force =     0.07745230    0.00042119   -0.03037869
     atom   48 type  3   force =    -0.00025587    0.00024174   -0.00004836
     atom   49 type  4   force =    -0.00001580   -0.00015145   -0.00072437
     atom   50 type  5   force =    -0.00024436   -0.00011339   -0.00013228
     atom   51 type  3   force =     0.00200807   -0.00113316   -0.00165836
     atom   52 type  5   force =    -0.00070841   -0.00044160   -0.00027404
     atom   53 type  5   force =    -0.00007645    0.00134258    0.00150675
     atom   54 type  2   force =     0.00078063    0.00067051   -0.00139032
     atom   55 type  5   force =    -0.00118736   -0.00068100    0.00078589

     Total force =     0.382842     Total SCF correction =     0.000535
  @ DRIVER MODE: Message from server: STATUS
  @ DRIVER MODE: Message from server: GETFORCE
  @ DRIVER MODE: Returning v,forces,stress,ensemble

     Writing output data file ./calc.save/
  @ DRIVER MODE: Message from server: EXIT
  @ DRIVE MODE: Exiting

     General routines

     Parallel routines

   This run was terminated on:   4:10:23  23Sep2021

   JOB DONE.