     Program PWSCF v.6.7GPU starts on 18Oct2021 at 18:33:28

     R & G space division:  proc/nbgrp/npool/nimage =       8
     Reading input from /storage/home/hcoda1/3/ntian30/research/carbon/CxH_vib/Thiel_calc/ads_slab/NH2HNH_perslab/out_0015/pw.inp
Warning: card &CELL ignored
Warning: card   CELL_DYNAMICS='IPI', ignored
Warning: card / ignored

     Current dimensions of program PWSCF are:
     Max number of different atomic species (ntypx) = 10
     Max number of k-points (npk) =  40000
     Max angular momentum in pseudopotentials (lmaxx) =  3
     Presently no symmetry can be used with electric field

     Message from routine cell_base_init:
     DEPRECATED: use true lattice parameter, not A to a.u. conversion factor

     IMPORTANT: XC functional enforced from input :
     Exchange-correlation= BEEF-VDW
                           (   1   4  43  14   2   0   0)
     Any further DFT definition will be discarded
     Please, verify this is what you really want

  @ DRIVER MODE: Connecting to
 qe_1139763_3255135.sched-torque.pace.gatech.edu_b9o6fih_scratch
  using UNIX socket
  @ DRIVER MODE: Message from server: STATUS
  @ DRIVER MODE: Message from server: INIT
  @ DRIVER MODE: Receiving replica           0          -1
  @ DRIVER MODE: Receiving encoded integer          25
  @ DRIVER MODE:  SCF:  T  FORCE:  T  STRESS:  F  VC:  F  ENSEMBLE:  F
  @ DRIVER MODE:  SCF:  T  FORCE:  T  STRESS:  F  VC:  F  ENSEMBLE:  F

     Using Slab Decomposition

     bravais-lattice index     =            0
     lattice parameter (alat)  =       1.8897  a.u.
     unit-cell volume          =    9988.4706 (a.u.)^3
     number of atoms/cell      =           59
     number of atomic types    =            4
     number of electrons       =       440.00
     number of Kohn-Sham states=          230
     kinetic-energy cutoff     =      29.3995  Ry
     charge density cutoff     =     293.9946  Ry
     scf convergence threshold =      7.3E-08
     mixing beta               =       0.0500
     number of iterations used =            8  plain     mixing
     Exchange-correlation= BEEF-VDW
                           (   1   4  43  14   2   0   0)

     celldm(1)=   1.889726  celldm(2)=   0.000000  celldm(3)=   0.000000
     celldm(4)=   0.000000  celldm(5)=   0.000000  celldm(6)=   0.000000

     crystal axes: (cart. coord. in units of alat)
               a(1) = (   6.579727   0.000000   0.000000 )
               a(2) = (  -0.001163   8.942395   0.000000 )
               a(3) = (   0.000000   0.000000  25.155947 )

     reciprocal axes: (cart. coord. in units 2 pi/alat)
               b(1) = (  0.151982  0.000020  0.000000 )
               b(2) = (  0.000000  0.111827  0.000000 )
               b(3) = (  0.000000  0.000000  0.039752 )

     PseudoPot. # 1 for O  read from file:
     /storage/coda1/p-amedford6/0/shared/rich_project_chbe-medford/medford-share/data/pseudos_module/espresso/nninc/pbe/van/O.UPF
     MD5 check sum: 78c19812648e8988a0fe644b0f25305e
     Pseudo is Ultrasoft, Zval =  6.0
     Generated by new atomic code, or converted to UPF format
     Using radial grid of  737 points,  4 beta functions with:
                l(1) =   0
                l(2) =   0
                l(3) =   1
                l(4) =   1
     Q(r) pseudized with  8 coefficients,  rinner =    0.800   0.800   0.800

     PseudoPot. # 2 for Ti read from file:
     /storage/coda1/p-amedford6/0/shared/rich_project_chbe-medford/medford-share/data/pseudos_module/espresso/nninc/pbe/van/Ti.UPF
     MD5 check sum: 8e4df49b7f0d34bbd5052bf3f5ea0213
     Pseudo is Ultrasoft, Zval = 12.0
     Generated by new atomic code, or converted to UPF format
     Using radial grid of  851 points,  6 beta functions with:
                l(1) =   0
                l(2) =   0
                l(3) =   1
                l(4) =   1
                l(5) =   2
                l(6) =   2
     Q(r) pseudized with  8 coefficients,  rinner =    1.000   1.000   1.000
                                                       1.000   1.000

     PseudoPot. # 3 for H  read from file:
     /storage/coda1/p-amedford6/0/shared/rich_project_chbe-medford/medford-share/data/pseudos_module/espresso/nninc/pbe/van/H.UPF
     MD5 check sum: b5ee9d7bfd3a09ee7748110bda690ff7
     Pseudo is Ultrasoft, Zval =  1.0
     Generated by new atomic code, or converted to UPF format
     Using radial grid of  615 points,  1 beta functions with:
                l(1) =   0
     Q(r) pseudized with  8 coefficients,  rinner =    0.800

     PseudoPot. # 4 for N  read from file:
     /storage/coda1/p-amedford6/0/shared/rich_project_chbe-medford/medford-share/data/pseudos_module/espresso/nninc/pbe/van/N.UPF
     MD5 check sum: 90d10febe142ad51ac9d5be1deb811c4
     Pseudo is Ultrasoft, Zval =  5.0
     Generated by new atomic code, or converted to UPF format
     Using radial grid of  729 points,  4 beta functions with:
                l(1) =   0
                l(2) =   0
                l(3) =   1
                l(4) =   1
     Q(r) pseudized with  8 coefficients,  rinner =    0.800   0.800   0.800

     atomic species   valence    mass     pseudopotential
        O1             6.00    15.99900     O ( 1.00)
        Ti1           12.00    47.86700     Ti( 1.00)
        H1             1.00     1.00800     H ( 1.00)
        N1             5.00    14.00700     N ( 1.00)

     No symmetry found

   Cartesian axes

     site n.     atom                  positions (alat units)
         1           O1  tau(   1) = (   0.0007354   0.0005023  10.5931620  )
         2           O1  tau(   2) = (   3.2891522   8.9193323  13.7813865  )
         3           O1  tau(   3) = (  -0.0003195   8.9357148  17.1597790  )
         4           O1  tau(   4) = (   0.0006271   0.0005054   7.9858123  )
         5           O1  tau(   5) = (   3.2896276   8.9330874  11.1456747  )
         6           O1  tau(   6) = (   0.0000757   8.8957392  14.5326415  )
         7           O1  tau(   7) = (   1.9868534   1.4903216   9.2879459  )
         8           O1  tau(   8) = (   5.2085136   1.5567490  12.5272226  )
         9           O1  tau(   9) = (   2.0368910   1.4086519  15.9478609  )
        10           Ti1 tau(  10) = (   0.0007404   1.4906270   9.2895810  )
        11           Ti1 tau(  11) = (   3.2920048   1.2896434  12.4335303  )
        12           Ti1 tau(  12) = (   0.0003947   1.7483972  15.9485354  )
        13           O1  tau(  13) = (   4.5942328   1.4918067   9.2879030  )
        14           O1  tau(  14) = (   1.3734151   1.5562871  12.5269411  )
        15           O1  tau(  15) = (   4.5446063   1.4075665  15.9467422  )
        16           Ti1 tau(  16) = (   3.2902859   2.9801868   9.2893338  )
        17           Ti1 tau(  17) = (   0.0022843   2.7629733  12.5422407  )
        18           Ti1 tau(  18) = (   3.2887740   3.1097933  15.6402895  )
        19           O1  tau(  19) = (   0.0003479   2.9813005  10.5931620  )
        20           O1  tau(  20) = (   3.2903674   2.9527630  13.7969158  )
        21           O1  tau(  21) = (   0.0002396   2.9813036   7.9858123  )
        22           O1  tau(  22) = (   3.2906228   2.9775883  11.1663003  )
        23           O1  tau(  23) = (   0.0006598   2.9368866  14.5305733  )
        24           O1  tau(  24) = (   1.9864658   4.4711199   9.2879459  )
        25           O1  tau(  25) = (   5.2231876   4.5386380  12.5467233  )
        26           O1  tau(  26) = (   2.0248981   4.3679406  15.9930346  )
        27           Ti1 tau(  27) = (   0.0003529   4.4714252   9.2895810  )
        28           Ti1 tau(  28) = (   3.2918124   4.3135021  12.5344809  )
        29           Ti1 tau(  29) = (   6.5788423   4.6929592  16.0739603  )
        30           O1  tau(  30) = (   4.5938453   4.4726049   9.2879030  )
        31           O1  tau(  31) = (   1.3570704   4.5373869  12.5465102  )
        32           O1  tau(  32) = (   4.5538814   4.3671241  15.9936543  )
        33           Ti1 tau(  33) = (   3.2898983   5.9609850   9.2893338  )
        34           Ti1 tau(  34) = (   0.0013264   5.7428985  12.5110789  )
        35           Ti1 tau(  35) = (   3.2898306   6.0937744  16.2866611  )
        36           O1  tau(  36) = (  -0.0000397   5.9620987  10.5931620  )
        37           O1  tau(  37) = (   3.2897329   5.8964334  13.7986068  )
        38           O1  tau(  38) = (  -0.0007474   6.0119579  17.1634496  )
        39           O1  tau(  39) = (  -0.0001480   5.9621018   7.9858123  )
        40           O1  tau(  40) = (   3.2898370   5.9388437  11.1687384  )
        41           O1  tau(  41) = (  -0.0001539   5.9931028  14.5676369  )
        42           O1  tau(  42) = (   1.9860782   7.4519181   9.2879459  )
        43           O1  tau(  43) = (   5.2258842   7.5046952  12.5406166  )
        44           O1  tau(  44) = (   2.0242945   7.4351242  16.0034066  )
        45           Ti1 tau(  45) = (  -0.0000347   7.4522234   9.2895810  )
        46           Ti1 tau(  46) = (   3.2896699   7.1866417  12.6007890  )
        47           Ti1 tau(  47) = (   0.0000787   7.5542351  15.7482610  )
        48           O1  tau(  48) = (   4.5934577   7.4534031   9.2879030  )
        49           O1  tau(  49) = (   1.3527639   7.5038087  12.5404143  )
        50           O1  tau(  50) = (   4.5545665   7.4356877  16.0029592  )
        51           Ti1 tau(  51) = (   3.2895107   8.9417832   9.2893338  )
        52           Ti1 tau(  52) = (  -0.0005703   8.7121504  12.4856418  )
        53           Ti1 tau(  53) = (   3.2909615   0.1005107  15.6284087  )
        54           H1  tau(  54) = (   6.5785809   3.1351568  18.2688824  )
        55           H1  tau(  55) = (   6.5783155   8.7923607  18.1116139  )
        56           N1  tau(  56) = (  -0.0001347   2.9616693  17.2674093  )
        57           N1  tau(  57) = (   3.2897564   5.9921341  18.1800631  )
        58           H1  tau(  58) = (   3.2887465   5.1266479  18.7045293  )
        59           H1  tau(  59) = (   3.2892443   6.7858760  18.8071070  )

     number of k points=    10  Fermi-Dirac smearing, width (Ry)=  0.0073
                       cart. coord. in units 2pi/alat
        k(    1) = (   0.0000000   0.0000000   0.0000000), wk =   0.1250000
        k(    2) = (   0.0000000   0.0279567   0.0000000), wk =   0.2500000
        k(    3) = (   0.0000000  -0.0559134   0.0000000), wk =   0.1250000
        k(    4) = (   0.0379955   0.0000049   0.0000000), wk =   0.2500000
        k(    5) = (   0.0379955   0.0279617   0.0000000), wk =   0.2500000
        k(    6) = (   0.0379955  -0.0559085   0.0000000), wk =   0.2500000
        k(    7) = (   0.0379955  -0.0279518   0.0000000), wk =   0.2500000
        k(    8) = (  -0.0759910  -0.0000099   0.0000000), wk =   0.1250000
        k(    9) = (  -0.0759910   0.0279468   0.0000000), wk =   0.2500000
        k(   10) = (  -0.0759910  -0.0559233   0.0000000), wk =   0.1250000

     Initial potential from superposition of free atoms

     starting charge  421.99910, renormalised to  440.00000

     negative rho (up, down):  3.702E-02 0.000E+00

     %%%%%%%%%%%%%%%%%%%%%%%%%%%%%%%%%%%%%%%%%%%%%%%%%%%%%%%%%%%%%%%%%%%%%%%%
     %                                                                      %
     % You are using vdW-DF, which was implemented by the Thonhauser group. %
     % Please cite the following two papers that made this development      %
     % possible and the two reviews that describe the various versions:     %
     %                                                                      %
     %   T. Thonhauser et al., PRL 115, 136402 (2015).                      %
     %   T. Thonhauser et al., PRB 76, 125112 (2007).                       %
     %   K. Berland et al., Rep. Prog. Phys. 78, 066501 (2015).             %
     %   D.C. Langreth et al., J. Phys.: Condens. Matter 21, 084203 (2009). %
     %                                                                      %
     %                                                                      %
     % If you are calculating the stress with vdW-DF, please also cite:     %
     %                                                                      %
     %   R. Sabatini et al., J. Phys.: Condens. Matter 24, 424209 (2012).   %
     %                                                                      %
     %%%%%%%%%%%%%%%%%%%%%%%%%%%%%%%%%%%%%%%%%%%%%%%%%%%%%%%%%%%%%%%%%%%%%%%%

     Adding external electric field

     Computed dipole along edir(3) :
        Dipole               -3.9424 Ry au,        -10.0206 Debye
        Dipole field         -0.0050 Ry au,

        Potential amp.        0.4598 Ry
        Total length         46.3494 bohr

     Starting wfcs are  332 atomic wfcs
  @ DRIVER MODE: Message from server: STATUS
  @ DRIVER MODE: Message from server: POSDATA
  @ DRIVER MODE: Reading and sharing cell
  @ DRIVER MODE: Reading and sharing positions
  @ DRIVER MODE: Received positions

     Self-consistent Calculation

     iteration #  1     ecut=    29.40 Ry     beta= 0.05
     Davidson diagonalization with overlap
     c_bands:  1 eigenvalues not converged
     c_bands:  2 eigenvalues not converged
     c_bands:  4 eigenvalues not converged
     c_bands:  2 eigenvalues not converged
     c_bands:  2 eigenvalues not converged
     c_bands:  2 eigenvalues not converged
     c_bands:  4 eigenvalues not converged
     c_bands:  3 eigenvalues not converged
     c_bands:  2 eigenvalues not converged
     ethr =  1.00E-05,  avg # of iterations = 19.2

[...]

     total energy              =   -3294.67506443 Ry
     estimated scf accuracy    <      19.62341610 Ry

     iteration #  2     ecut=    29.40 Ry     beta= 0.05
     Davidson diagonalization with overlap
     ethr =  4.46E-03,  avg # of iterations =  1.0

[...]

     iteration # 26     ecut=    29.40 Ry     beta= 0.05
     Davidson diagonalization with overlap
     c_bands:  1 eigenvalues not converged
     ethr =  5.14E-07,  avg # of iterations =  6.9

[...]

     total energy              =   -3293.29211852 Ry
     estimated scf accuracy    <       0.00000045 Ry

     iteration # 53     ecut=    29.40 Ry     beta= 0.05
     Davidson diagonalization with overlap
     ethr =  7.30E-11,  avg # of iterations =  5.0

     negative rho (up, down):  3.602E-02 0.000E+00

     Adding external electric field

     Computed dipole along edir(3) :
        Dipole                1.2964 Ry au,          3.2952 Debye
        Dipole field          0.0016 Ry au,

        Potential amp.       -0.1512 Ry
        Total length         46.3494 bohr

     End of self-consistent calculation

          k = 0.0000 0.0000 0.0000 ( 26871 PWs)   bands (ev):

   -58.2956 -58.2717 -58.2679 -58.2077 -58.1605 -57.7929 -57.7741 -57.7556
   -57.6189 -57.5913 -57.5704 -57.5156 -57.4890 -56.9142 -56.8761 -56.8502
   -56.8352 -56.8195 -34.6865 -34.6596 -34.6296 -34.6178 -34.6122 -34.6070
   -34.5444 -34.4803 -34.4707 -34.4087 -34.4040 -34.4012 -34.3867 -34.3575
   -34.3323 -34.1966 -34.1490 -34.1446 -34.1226 -34.0943 -34.0823 -34.0769
   -34.0585 -34.0199 -34.0094 -33.9619 -33.9164 -33.8734 -33.8606 -33.8493
   -33.8363 -33.8256 -33.7790 -33.7539 -33.7502 -33.7430 -33.6968 -33.6932
   -33.6791 -33.3601 -33.2208 -33.2122 -33.2007 -33.1897 -33.1864 -33.1797
   -33.1613 -33.1194 -33.0838 -33.0573 -33.0244 -33.0134 -33.0069 -32.8838
   -18.9079 -18.8248 -18.3701 -18.2947 -18.1729 -18.1182 -18.1116 -18.0475
   -17.9436 -17.7221 -17.6820 -17.6732 -17.6452 -17.5370 -17.5297 -17.5294
   -17.4904 -17.4846 -17.4724 -17.3854 -17.3301 -17.3127 -17.3073 -17.3071
   -17.1982 -17.1751 -17.1240 -17.0561 -17.0416 -16.9507 -16.7571 -16.4388
   -15.3520 -15.3113 -15.3015 -15.1603 -13.5965  -6.9732  -6.6302  -6.1777
    -5.9840  -5.7738  -5.6360  -5.5207  -5.4676  -5.3752  -5.3091  -5.2841
    -5.2667  -5.2257  -5.1926  -5.1665  -5.0630  -5.0540  -4.9729  -4.9180
    -4.8727  -4.8283  -4.7843  -4.7374  -4.7363  -4.6952  -4.6277  -4.6181
    -4.5827  -4.5347  -4.5061  -4.4969  -4.4418  -4.4136  -4.3929  -4.2753
    -4.2600  -4.1903  -4.1801  -4.1722  -4.0651  -4.0596  -4.0168  -3.9883
    -3.9798  -3.9622  -3.9104  -3.8323  -3.8023  -3.6424  -3.6213  -3.6104
    -3.5179  -3.3814  -3.3660  -3.3237  -3.2037  -3.1346  -3.1111  -3.0777
    -3.0554  -3.0382  -3.0156  -3.0031  -2.9701  -2.8750  -2.8743  -2.8131
    -2.8111  -2.7963  -2.7765  -2.7689  -2.7302  -2.6576  -2.5985  -2.5862
    -2.5639  -2.5467  -2.4599  -2.4470  -2.3551  -2.3430  -2.2835  -2.2409
    -2.2336  -2.1691  -2.0959  -2.0876  -2.0236  -1.9990  -1.8253  -1.8009
    -1.7217  -1.7164  -1.6497  -1.6230  -1.6003  -1.5474  -1.4251  -1.3904
    -1.3000  -1.1931  -1.0213  -0.7803  -0.5943  -0.5687  -0.5594  -0.5276
    -0.4466  -0.3809  -0.3651  -0.2698   0.9826   1.1285   1.2815   1.3033
     1.4967   1.6064   1.6190   1.6744   1.7531   1.8516

[...]

          k = 0.0380-0.0280 0.0000 ( 26873 PWs)   bands (ev):

[...]

          k =-0.0760-0.0000 0.0000 ( 26902 PWs)   bands (ev):

[...]

          k =-0.0760-0.0559 0.0000 ( 26868 PWs)   bands (ev):

   -58.2889 -58.2849 -58.2613 -58.2075 -58.1607 -57.7928 -57.7737 -57.7560
   -57.6170 -57.5950 -57.5685 -57.5155 -57.4891 -56.9142 -56.8733 -56.8560
   -56.8321 -56.8194 -34.7120 -34.7082 -34.6618 -34.6374 -34.6044 -34.4961
   -34.4809 -34.4473 -34.4442 -34.4317 -34.4251 -34.4058 -34.3824 -34.3797
   -34.3596 -34.2317 -34.1716 -34.1658 -34.1385 -34.1213 -34.0776 -34.0034
   -33.9987 -33.9976 -33.9629 -33.9249 -33.9186 -33.9056 -33.8977 -33.8767
   -33.8664 -33.8487 -33.7745 -33.7634 -33.7383 -33.7157 -33.7131 -33.6948
   -33.6913 -33.3376 -33.2624 -33.2218 -33.2136 -33.2064 -33.1918 -33.1833
   -33.1308 -33.0707 -33.0583 -33.0517 -33.0165 -32.9948 -32.9883 -32.9712
   -18.8857 -18.6202 -18.4731 -18.2366 -18.1367 -17.9731 -17.8906 -17.8767
   -17.8595 -17.8585 -17.7592 -17.7484 -17.7003 -17.6720 -17.6295 -17.6200
   -17.6076 -17.5728 -17.5649 -17.4550 -17.3618 -17.3495 -17.2561 -17.2411
   -17.2136 -17.1541 -17.1350 -17.0434 -17.0272 -16.9542 -16.7660 -16.4230
   -15.3631 -15.3512 -15.2408 -15.1610 -13.5935  -6.9453  -6.6313  -5.9483
    -5.7536  -5.7190  -5.6686  -5.3479  -5.3106  -5.2224  -5.2004  -5.1609
    -5.1378  -5.1223  -5.0923  -5.0809  -5.0057  -4.9686  -4.9593  -4.9556
    -4.9129  -4.8937  -4.8462  -4.8277  -4.7749  -4.7543  -4.7457  -4.7121
    -4.6705  -4.6498  -4.5766  -4.5691  -4.4942  -4.4560  -4.3174  -4.2352
    -4.2084  -4.1784  -4.0820  -4.0705  -4.0362  -3.9408  -3.9251  -3.9025
    -3.7763  -3.7416  -3.6313  -3.6161  -3.5668  -3.5433  -3.5164  -3.4888
    -3.4242  -3.3816  -3.3661  -3.3606  -3.3262  -3.2584  -3.2283  -3.2125
    -3.1803  -3.1614  -3.1510  -3.1403  -3.0744  -3.0576  -3.0282  -2.9877
    -2.9262  -2.9046  -2.8503  -2.8482  -2.7857  -2.7472  -2.6913  -2.6853
    -2.6134  -2.5928  -2.5853  -2.5769  -2.4789  -2.4520  -2.4425  -2.2999
    -2.1626  -2.1130  -2.0714  -1.9668  -1.9082  -1.9051  -1.8795  -1.8145
    -1.7873  -1.7025  -1.6497  -1.6237  -1.6184  -1.5957  -1.3735  -1.3440
    -1.3326  -1.2871  -1.2246  -1.1327  -0.8109  -0.5953  -0.5900  -0.4982
    -0.4753  -0.4217  -0.4008  -0.3864   1.0317   1.2066   1.2785   1.3714
     1.3721   1.4046   1.4543   1.6197   1.6538   1.7681

     the Fermi energy is     0.3890 ev

!    total energy              =   -3293.29219657 Ry
     estimated scf accuracy    <       0.00000006 Ry
     smearing contrib. (-TS)   =      -0.00047526 Ry
     internal energy E=F+TS    =   -3293.29172131 Ry

     The total energy is F=E-TS. E is the sum of the following terms:
     one-electron contribution =  -34638.98401614 Ry
     hartree contribution      =   17383.79481288 Ry
     xc contribution           =    -542.08755350 Ry
     ewald contribution        =   14503.98292094 Ry
     electric field correction =       0.00211451 Ry

     convergence has been achieved in  53 iterations

     Forces acting on atoms (cartesian axes, Ry/au):

     atom    1 type  1   force =     0.00000966    0.00243322    0.04674846
     atom    2 type  1   force =     0.00000701   -0.00346802   -0.00295896
     atom    3 type  1   force =    -0.00001065    0.00252193   -0.00114162
     atom    4 type  1   force =     0.00005052   -0.00100188    0.10169680
     atom    5 type  1   force =    -0.00000926   -0.00074298    0.00561813
     atom    6 type  1   force =    -0.00001341    0.00320599    0.00077941
     atom    7 type  1   force =     0.07820535    0.00086266   -0.03539972
     atom    8 type  1   force =     0.00825206   -0.02594002    0.00014565
     atom    9 type  1   force =     0.00910760    0.02056130    0.00108254
     atom   10 type  2   force =    -0.00005757    0.00871909   -0.15833257
     atom   11 type  2   force =    -0.00004001    0.02304766   -0.00226328
     atom   12 type  2   force =     0.00005939   -0.02899246   -0.00666499
     atom   13 type  1   force =    -0.07829845    0.00040676   -0.03538708
     atom   14 type  1   force =    -0.00829766   -0.02585251    0.00015296
     atom   15 type  1   force =    -0.00906183    0.02066734    0.00111611
     atom   16 type  2   force =     0.00012887    0.00084711    0.07317473
     atom   17 type  2   force =     0.00006170    0.03071070    0.00297399
     atom   18 type  2   force =    -0.00006474   -0.02787903    0.00039843
     atom   19 type  1   force =     0.00003948    0.00302407    0.04999056
     atom   20 type  1   force =    -0.00002035   -0.00120664   -0.00125577
     atom   21 type  1   force =     0.00005083   -0.00064201    0.10015954
     atom   22 type  1   force =    -0.00001563   -0.00175968    0.00549257
     atom   23 type  1   force =    -0.00002048    0.00336204    0.00284215
     atom   24 type  1   force =     0.07915253    0.00065284   -0.03604798
     atom   25 type  1   force =     0.00923690   -0.02939186    0.00062684
     atom   26 type  1   force =     0.00781542    0.02163890    0.00359041
     atom   27 type  2   force =    -0.00007192   -0.00821755   -0.15491323
     atom   28 type  2   force =    -0.00001094    0.02628328   -0.00233054
     atom   29 type  2   force =     0.00005075   -0.02514650   -0.00440243
     atom   30 type  1   force =    -0.07924243    0.00024279   -0.03604483
     atom   31 type  1   force =    -0.00924310   -0.02932293    0.00063168
     atom   32 type  1   force =    -0.00776768    0.02171504    0.00362001
     atom   33 type  2   force =     0.00013411   -0.00255535    0.07885485
     atom   34 type  2   force =     0.00004873    0.03575800    0.00238490
     atom   35 type  2   force =    -0.00006757   -0.02877516    0.00283607
     atom   36 type  1   force =     0.00004185    0.00305452    0.05249727
     atom   37 type  1   force =    -0.00000421   -0.00191186   -0.00274466
     atom   38 type  1   force =    -0.00002075    0.00130455    0.00092860
     atom   39 type  1   force =     0.00004588    0.00288422    0.10110546
     atom   40 type  1   force =    -0.00000936   -0.00169686    0.00624129
     atom   41 type  1   force =    -0.00002802    0.00233711    0.00472477
     atom   42 type  1   force =     0.07825744    0.00075523   -0.03486987
     atom   43 type  1   force =     0.00660991   -0.02310524   -0.00017362
     atom   44 type  1   force =     0.01114822    0.02185125   -0.00711255
     atom   45 type  2   force =    -0.00006150   -0.00548735   -0.16467188
     atom   46 type  2   force =    -0.00007442    0.01965053    0.00097018
     atom   47 type  2   force =     0.00002273   -0.01749384    0.00735325
     atom   48 type  1   force =    -0.07835351    0.00030582   -0.03485181
     atom   49 type  1   force =    -0.00665086   -0.02307207   -0.00016923
     atom   50 type  1   force =    -0.01111892    0.02183489   -0.00706695
     atom   51 type  2   force =     0.00012856   -0.00437058    0.06098831
     atom   52 type  2   force =     0.00012655    0.02976965    0.00360326
     atom   53 type  2   force =    -0.00007525   -0.02439574    0.00104068
     atom   54 type  3   force =    -0.00000334    0.00010763   -0.00273769
     atom   55 type  3   force =    -0.00001669   -0.00001543    0.00009795
     atom   56 type  4   force =    -0.00003206    0.01294844    0.00632817
     atom   57 type  4   force =    -0.00000901   -0.00051150    0.00057207
     atom   58 type  3   force =    -0.00000568   -0.00011464   -0.00004581
     atom   59 type  3   force =    -0.00001479   -0.00039489    0.00021903

     Total force =     0.437678     Total SCF correction =     0.000629
  @ DRIVER MODE: Message from server: STATUS
  @ DRIVER MODE: Message from server: GETFORCE
  @ DRIVER MODE: Returning v,forces,stress,ensemble

     Writing output data file ./calc.save/
  @ DRIVER MODE: Message from server: EXIT
  @ DRIVE MODE: Exiting

     General routines

     Parallel routines

   This run was terminated on:  18:58:44  18Oct2021

   JOB DONE.