     Program PWSCF v.6.7GPU starts on 16Sep2021 at 15:48:14

     R & G space division:  proc/nbgrp/npool/nimage =      10
     Reading input from /storage/home/hcoda1/3/ntian30/research/carbon/CxH_vib/H2O_calc/ads_slab/CH3NHNH2H2O_a/out_0069/pw.inp
Warning: card &CELL ignored
Warning: card   CELL_DYNAMICS='IPI', ignored
Warning: card / ignored

     Current dimensions of program PWSCF are:
     Max number of different atomic species (ntypx) = 10
     Max number of k-points (npk) =  40000
     Max angular momentum in pseudopotentials (lmaxx) =  3
     Presently no symmetry can be used with electric field

     Message from routine cell_base_init:
     DEPRECATED: use true lattice parameter, not A to a.u. conversion factor

     IMPORTANT: XC functional enforced from input :
     Exchange-correlation= BEEF-VDW
                           (   1   4  43  14   2   0   0)
     Any further DFT definition will be discarded
     Please, verify this is what you really want

  @ DRIVER MODE: Connecting to
 qe_1139763_2852619.sched-torque.pace.gatech.edux20n8_nl_scratch
  using UNIX socket
  @ DRIVER MODE: Message from server: STATUS
  @ DRIVER MODE: Message from server: INIT
  @ DRIVER MODE: Receiving replica           0          -1
  @ DRIVER MODE: Receiving encoded integer          25
  @ DRIVER MODE:  SCF:  T  FORCE:  T  STRESS:  F  VC:  F  ENSEMBLE:  F
  @ DRIVER MODE:  SCF:  T  FORCE:  T  STRESS:  F  VC:  F  ENSEMBLE:  F

     Using Slab Decomposition

     bravais-lattice index     =            0
     lattice parameter (alat)  =       1.8897  a.u.
     unit-cell volume          =    6658.9804 (a.u.)^3
     number of atoms/cell      =           59
     number of atomic types    =            5
     number of electrons       =       406.00
     number of Kohn-Sham states=          213
     kinetic-energy cutoff     =      29.3995  Ry
     charge density cutoff     =     293.9946  Ry
     scf convergence threshold =      7.3E-08
     mixing beta               =       0.0500
     number of iterations used =            8  plain     mixing
     Exchange-correlation= BEEF-VDW
                           (   1   4  43  14   2   0   0)

     celldm(1)=   1.889726  celldm(2)=   0.000000  celldm(3)=   0.000000
     celldm(4)=   0.000000  celldm(5)=   0.000000  celldm(6)=   0.000000

     crystal axes: (cart. coord. in units of alat)
               a(1) = (   6.579727   0.000000   0.000000 )
               a(2) = (  -0.000775   5.961596   0.000000 )
               a(3) = (   0.000000   0.000000  25.155947 )

     reciprocal axes: (cart. coord. in units 2 pi/alat)
               b(1) = (  0.151982  0.000020  0.000000 )
               b(2) = (  0.000000  0.167740  0.000000 )
               b(3) = (  0.000000  0.000000  0.039752 )

     PseudoPot. # 1 for Ti read from file:
     /storage/coda1/p-amedford6/0/shared/rich_project_chbe-medford/medford-share/data/pseudos_module/espresso/nninc/pbe/van/Ti.UPF
     MD5 check sum: 8e4df49b7f0d34bbd5052bf3f5ea0213
     Pseudo is Ultrasoft, Zval = 12.0
     Generated by new atomic code, or converted to UPF format
     Using radial grid of  851 points,  6 beta functions with:
                l(1) =   0
                l(2) =   0
                l(3) =   1
                l(4) =   1
                l(5) =   2
                l(6) =   2
     Q(r) pseudized with  8 coefficients,  rinner =    1.000   1.000   1.000
                                                       1.000   1.000

     PseudoPot. # 2 for O  read from file:
     /storage/coda1/p-amedford6/0/shared/rich_project_chbe-medford/medford-share/data/pseudos_module/espresso/nninc/pbe/van/O.UPF
     MD5 check sum: 78c19812648e8988a0fe644b0f25305e
     Pseudo is Ultrasoft, Zval =  6.0
     Generated by new atomic code, or converted to UPF format
     Using radial grid of  737 points,  4 beta functions with:
                l(1) =   0
                l(2) =   0
                l(3) =   1
                l(4) =   1
     Q(r) pseudized with  8 coefficients,  rinner =    0.800   0.800   0.800

     PseudoPot. # 3 for N  read from file:
     /storage/coda1/p-amedford6/0/shared/rich_project_chbe-medford/medford-share/data/pseudos_module/espresso/nninc/pbe/van/N.UPF
     MD5 check sum: 90d10febe142ad51ac9d5be1deb811c4
     Pseudo is Ultrasoft, Zval =  5.0
     Generated by new atomic code, or converted to UPF format
     Using radial grid of  729 points,  4 beta functions with:
                l(1) =   0
                l(2) =   0
                l(3) =   1
                l(4) =   1
     Q(r) pseudized with  8 coefficients,  rinner =    0.800   0.800   0.800

     PseudoPot. # 4 for C  read from file:
     /storage/coda1/p-amedford6/0/shared/rich_project_chbe-medford/medford-share/data/pseudos_module/espresso/nninc/pbe/van/C.UPF
     MD5 check sum: 1a69bf6b8db32088f5b2163dbdb77a27
     Pseudo is Ultrasoft, Zval =  4.0
     Generated by new atomic code, or converted to UPF format
     Using radial grid of  721 points,  4 beta functions with:
                l(1) =   0
                l(2) =   0
                l(3) =   1
                l(4) =   1
     Q(r) pseudized with  8 coefficients,  rinner =    0.800   0.800   0.800

     PseudoPot. # 5 for H  read from file:
     /storage/coda1/p-amedford6/0/shared/rich_project_chbe-medford/medford-share/data/pseudos_module/espresso/nninc/pbe/van/H.UPF
     MD5 check sum: b5ee9d7bfd3a09ee7748110bda690ff7
     Pseudo is Ultrasoft, Zval =  1.0
     Generated by new atomic code, or converted to UPF format
     Using radial grid of  615 points,  1 beta functions with:
                l(1) =   0
     Q(r) pseudized with  8 coefficients,  rinner =    0.800

     atomic species   valence    mass     pseudopotential
        Ti1           12.00    47.86700     Ti( 1.00)
        O1             6.00    15.99900     O ( 1.00)
        N1             5.00    14.00700     N ( 1.00)
        C1             4.00    12.01100     C ( 1.00)
        H1             1.00     1.00800     H ( 1.00)

     No symmetry found

   Cartesian axes

     site n.     atom                  positions (alat units)
         1           Ti1 tau(   1) = (   0.0004258   2.9801865   6.0000000  )
         2           Ti1 tau(   2) = (   3.2906075   1.4906267   6.0002472  )
         3           O1  tau(   3) = (   0.0006271   0.0005054   7.9858123  )
         4           O1  tau(   4) = (   3.2906025   0.0005020   7.3038282  )
         5           O1  tau(   5) = (   4.5942328   1.4918067   9.2879030  )
         6           O1  tau(   6) = (   1.9868534   1.4903216   9.2879459  )
         7           Ti1 tau(   7) = (   3.2907910   2.8959150   9.1758416  )
         8           Ti1 tau(   8) = (   0.0015273   1.4827037   9.2680791  )
         9           O1  tau(   9) = (   3.2683845   0.0132936  11.3796717  )
        10           O1  tau(  10) = (   0.0116148   5.9584955  10.6183126  )
        11           O1  tau(  11) = (   1.2681313   1.5011218  12.7194972  )
        12           O1  tau(  12) = (   5.2787963   1.4993765  12.6897032  )
        13           Ti1 tau(  13) = (   6.5560253   2.9823375  12.4990790  )
        14           Ti1 tau(  14) = (   3.2673924   1.4925278  12.5394213  )
        15           O1  tau(  15) = (   6.5345332   5.8735037  14.6996474  )
        16           O1  tau(  16) = (   3.2898196   5.9462848  13.9939205  )
        17           O1  tau(  17) = (   4.4957945   1.5291507  16.1605787  )
        18           O1  tau(  18) = (   1.9883785   1.5110281  16.0762771  )
        19           Ti1 tau(  19) = (   3.2526948   3.0056396  15.7740191  )
        20           Ti1 tau(  20) = (   0.0000763   1.3299063  15.8143521  )
        21           O1  tau(  21) = (   3.2904802   0.0005063   4.7018136  )
        22           O1  tau(  22) = (   6.5205728   0.2065101  17.2442985  )
        23           O1  tau(  23) = (   1.3043587   1.4918075   6.0039043  )
        24           O1  tau(  24) = (   5.2767064   1.4903225   6.0039473  )
        25           Ti1 tau(  25) = (   0.0000382   5.9609847   6.0000000  )
        26           Ti1 tau(  26) = (   3.2902200   4.4714249   6.0002472  )
        27           O1  tau(  27) = (   0.0002396   2.9813036   7.9858123  )
        28           O1  tau(  28) = (   3.2902150   2.9813002   7.3038282  )
        29           O1  tau(  29) = (   4.5938453   4.4726049   9.2879030  )
        30           O1  tau(  30) = (   1.9864658   4.4711199   9.2879459  )
        31           Ti1 tau(  31) = (   3.2891106   5.8743827   9.1763621  )
        32           Ti1 tau(  32) = (   0.0006254   4.4649316   9.2693709  )
        33           O1  tau(  33) = (   3.2688559   2.9716192  11.3757022  )
        34           O1  tau(  34) = (   0.0092240   2.9805883  10.6323155  )
        35           O1  tau(  35) = (   1.2711362   4.4646907  12.6658965  )
        36           O1  tau(  36) = (   5.2748280   4.4660984  12.6332574  )
        37           Ti1 tau(  37) = (   6.5627654   5.9477838  12.5072267  )
        38           Ti1 tau(  38) = (   3.2667511   4.4702655  12.5260729  )
        39           O1  tau(  39) = (   6.5087961   3.0586107  15.0099536  )
        40           O1  tau(  40) = (   3.2849776   3.0149387  13.9815115  )
        41           O1  tau(  41) = (   4.4906635   4.4862850  16.2792570  )
        42           O1  tau(  42) = (   1.9756856   4.4939852  16.2100911  )
        43           Ti1 tau(  43) = (   3.2747729   0.0241646  15.7895078  )
        44           Ti1 tau(  44) = (   6.5697470   4.5456975  16.1185117  )
        45           O1  tau(  45) = (   3.2900926   2.9813045   4.7018136  )
        46           O1  tau(  46) = (   1.3039711   4.4726057   6.0039043  )
        47           O1  tau(  47) = (   5.2763189   4.4711207   6.0039473  )
        48           N1  tau(  48) = (   0.9980056   3.0961469  19.0053282  )
        49           N1  tau(  49) = (   6.4063515   3.4839273  18.2229180  )
        50           C1  tau(  50) = (   1.6570833   4.2684698  19.5811903  )
        51           H1  tau(  51) = (   0.9936588   4.8902639  20.1979557  )
        52           H1  tau(  52) = (   2.4789334   3.9063689  20.1993048  )
        53           H1  tau(  53) = (   2.0598354   4.8861676  18.7819781  )
        54           H1  tau(  54) = (   0.6510520   2.5058952  19.7602174  )
        55           H1  tau(  55) = (   5.8507131   4.1735594  18.7414995  )
        56           H1  tau(  56) = (   5.8147758   2.6545292  18.1916272  )
        57           O1  tau(  57) = (   5.1718451   0.7889162  19.5681371  )
        58           H1  tau(  58) = (   5.5516362   0.5215711  18.6954158  )
        59           H1  tau(  59) = (   4.2099197   0.7412590  19.4668632  )

     number of k points=    10  Fermi-Dirac smearing, width (Ry)=  0.0073
                       cart. coord. in units 2pi/alat
        k(    1) = (   0.0000000   0.0000000   0.0000000), wk =   0.1250000
        k(    2) = (   0.0000000   0.0419351   0.0000000), wk =   0.2500000
        k(    3) = (   0.0000000  -0.0838702   0.0000000), wk =   0.1250000
        k(    4) = (   0.0379955   0.0000049   0.0000000), wk =   0.2500000
        k(    5) = (   0.0379955   0.0419400   0.0000000), wk =   0.2500000
        k(    6) = (   0.0379955  -0.0838652   0.0000000), wk =   0.2500000
        k(    7) = (   0.0379955  -0.0419301   0.0000000), wk =   0.2500000
        k(    8) = (  -0.0759910  -0.0000099   0.0000000), wk =   0.1250000
        k(    9) = (  -0.0759910   0.0419252   0.0000000), wk =   0.2500000
        k(   10) = (  -0.0759910  -0.0838800   0.0000000), wk =   0.1250000

     Initial potential from superposition of free atoms

     starting charge  389.99912, renormalised to  406.00000

     negative rho (up, down):  1.389E-02 0.000E+00

     %%%%%%%%%%%%%%%%%%%%%%%%%%%%%%%%%%%%%%%%%%%%%%%%%%%%%%%%%%%%%%%%%%%%%%%%
     %                                                                      %
     % You are using vdW-DF, which was implemented by the Thonhauser group. %
     % Please cite the following two papers that made this development      %
     % possible and the two reviews that describe the various versions:     %
     %                                                                      %
     %   T. Thonhauser et al., PRL 115, 136402 (2015).                      %
     %   T. Thonhauser et al., PRB 76, 125112 (2007).                       %
     %   K. Berland et al., Rep. Prog. Phys. 78, 066501 (2015).             %
     %   D.C. Langreth et al., J. Phys.: Condens. Matter 21, 084203 (2009). %
     %                                                                      %
     %                                                                      %
     % If you are calculating the stress with vdW-DF, please also cite:     %
     %                                                                      %
     %   R. Sabatini et al., J. Phys.: Condens. Matter 24, 424209 (2012).   %
     %                                                                      %
     %%%%%%%%%%%%%%%%%%%%%%%%%%%%%%%%%%%%%%%%%%%%%%%%%%%%%%%%%%%%%%%%%%%%%%%%

     Adding external electric field

     Computed dipole along edir(3) :
        Dipole              -16.7176 Ry au,        -42.4920 Debye
        Dipole field         -0.0315 Ry au,

        Potential amp.        2.9245 Ry
        Total length         46.3494 bohr

     Starting wfcs are  308 atomic wfcs
  @ DRIVER MODE: Message from server: STATUS
  @ DRIVER MODE: Message from server: POSDATA
  @ DRIVER MODE: Reading and sharing cell
  @ DRIVER MODE: Reading and sharing positions
  @ DRIVER MODE: Received positions

     Self-consistent Calculation

     iteration #  1     ecut=    29.40 Ry     beta= 0.05
     Davidson diagonalization with overlap
     c_bands:  2 eigenvalues not converged
     c_bands:  3 eigenvalues not converged
     c_bands:  2 eigenvalues not converged
     c_bands:  4 eigenvalues not converged
     c_bands:  1 eigenvalues not converged
     c_bands:  4 eigenvalues not converged
     c_bands:  3 eigenvalues not converged
     c_bands:  5 eigenvalues not converged
     c_bands:  3 eigenvalues not converged
     ethr =  1.00E-05,  avg # of iterations = 24.8

[...]

     total energy              =   -2136.65122682 Ry
     estimated scf accuracy    <    9692.88416384 Ry

     iteration #  2     ecut=    29.40 Ry     beta= 0.05
     Davidson diagonalization with overlap
     ethr =  1.00E-02,  avg # of iterations = 32.2

[...]

     iteration # 86     ecut=    29.40 Ry     beta= 0.05
     Davidson diagonalization with overlap
     c_bands:  1 eigenvalues not converged
     ethr =  8.99E-11,  avg # of iterations = 12.6

[...]

     total energy              =   -2977.68384576 Ry
     estimated scf accuracy    <       0.00000009 Ry

     iteration # 89     ecut=    29.40 Ry     beta= 0.05
     Davidson diagonalization with overlap
     ethr =  2.24E-11,  avg # of iterations = 12.3

     negative rho (up, down):  1.439E-02 0.000E+00

     Adding external electric field

     Computed dipole along edir(3) :
        Dipole                1.0205 Ry au,          2.5938 Debye
        Dipole field          0.0019 Ry au,

        Potential amp.       -0.1785 Ry
        Total length         46.3494 bohr

     End of self-consistent calculation

          k = 0.0000 0.0000 0.0000 ( 18029 PWs)   bands (ev):

   -55.3595 -55.3223 -55.3100 -55.2925 -55.2759 -55.2406 -55.2386 -55.2041
   -55.1826 -55.1813 -55.1483 -55.1423 -55.1086 -55.0178 -54.3421 -54.3080
   -31.9259 -31.8082 -31.8029 -31.7276 -31.6758 -31.6718 -31.6718 -31.6487
   -31.5989 -31.5948 -31.5717 -31.5693 -31.5550 -31.5388 -31.5298 -31.5265
   -31.5140 -31.5070 -31.4965 -31.4789 -31.4641 -31.4626 -31.4349 -31.4242
   -31.4173 -31.4132 -31.3926 -31.3852 -31.3692 -31.3671 -31.3626 -31.3537
   -31.3415 -31.3407 -31.3318 -31.3292 -31.2962 -31.2930 -31.2706 -31.2535
   -31.2300 -31.2278 -30.7516 -30.6570 -30.6349 -30.5679 -30.4811 -30.3702
   -18.0038 -17.6361 -16.1931 -15.9324 -15.7870 -15.6585 -15.5608 -15.4327
   -15.4134 -15.2915 -15.2211 -15.1173 -15.0663 -15.0479 -15.0121 -15.0020
   -14.9786 -14.9080 -14.9019 -14.8881 -14.8640 -14.8551 -14.8091 -14.8013
   -14.7600 -14.7356 -14.7114 -14.6127 -14.5225 -14.4476 -14.3402 -13.1537
   -12.8449 -12.7274  -9.4102  -6.3156  -5.8675  -5.7426  -4.2529  -3.5317
    -3.3830  -3.3141  -3.2779  -3.2524  -3.1191  -2.9618  -2.9244  -2.8066
    -2.7886  -2.6902  -2.6444  -2.5731  -2.5565  -2.5414  -2.3952  -2.3731
    -2.3482  -2.2808  -2.2546  -2.1873  -2.1651  -2.1555  -2.1452  -2.1217
    -2.0939  -2.0541  -1.9923  -1.9331  -1.8400  -1.8146  -1.7641  -1.7343
    -1.7136  -1.6965  -1.6508  -1.6397  -1.6004  -1.5859  -1.5662  -1.5516
    -1.3886  -1.3660  -1.2643  -1.2027  -1.1038  -0.9997  -0.9640  -0.9497
    -0.8525  -0.8340  -0.7815  -0.7405  -0.7375  -0.7031  -0.5914  -0.5288
    -0.4763  -0.4128  -0.3901  -0.3499  -0.2821  -0.1992  -0.1429  -0.1288
    -0.1123  -0.0962   0.0136   0.0259   0.0776   0.1524   0.1619   0.1681
     0.2417   0.2983   0.3685   0.3934   0.4112   0.5163   0.5319   0.5641
     0.5700   0.5998   0.6206   0.6456   0.7058   0.7361   0.8192   0.9410
     1.1328   1.2220   1.2494   1.3617   1.5725   1.5849   1.6805   1.8638
     2.2569   2.3053   3.7376   3.8086   3.8835   3.8875   3.9101   3.9739
     4.2107   4.2279   4.2425   4.2462   4.2702

[...]

          k = 0.0380-0.0419 0.0000 ( 17876 PWs)   bands (ev):

[...]

          k =-0.0760-0.0000 0.0000 ( 17886 PWs)   bands (ev):

[...]

          k =-0.0760-0.0839 0.0000 ( 17948 PWs)   bands (ev):

   -55.3458 -55.3357 -55.2931 -55.2926 -55.2913 -55.2331 -55.2285 -55.2161
   -55.1868 -55.1667 -55.1638 -55.1258 -55.1252 -55.0189 -54.3252 -54.3248
   -31.7340 -31.7260 -31.7238 -31.6395 -31.6198 -31.6181 -31.6178 -31.5842
   -31.5840 -31.5732 -31.5590 -31.5578 -31.5510 -31.5311 -31.5193 -31.5061
   -31.4995 -31.4963 -31.4948 -31.4934 -31.4866 -31.4793 -31.4469 -31.4393
   -31.4362 -31.4359 -31.4222 -31.4173 -31.4128 -31.4123 -31.4073 -31.3994
   -31.3970 -31.3798 -31.3767 -31.3744 -31.3597 -31.3565 -31.3067 -31.3064
   -31.3002 -31.2338 -30.6477 -30.6474 -30.5641 -30.5639 -30.5246 -30.5245
   -17.9921 -17.6449 -15.6738 -15.5887 -15.5678 -15.4126 -15.3609 -15.3345
   -15.3236 -15.2081 -15.1656 -15.1467 -15.1319 -15.1101 -15.0719 -15.0623
   -15.0555 -14.9924 -14.9722 -14.9632 -14.9373 -14.8833 -14.8758 -14.8677
   -14.8600 -14.8100 -14.8061 -14.7666 -14.7154 -14.7119 -14.6364 -13.1599
   -12.8288 -12.8288  -9.4152  -6.3376  -5.8993  -5.6567  -4.2308  -2.9359
    -2.8468  -2.8361  -2.8296  -2.6996  -2.6260  -2.5507  -2.5285  -2.5073
    -2.4227  -2.4091  -2.3784  -2.3532  -2.3241  -2.2845  -2.2472  -2.2403
    -2.2044  -2.1957  -2.1799  -2.1632  -2.1415  -2.1264  -2.0923  -2.0816
    -2.0682  -2.0242  -1.9981  -1.9844  -1.9629  -1.9427  -1.9354  -1.9161
    -1.8433  -1.7515  -1.7267  -1.6413  -1.5724  -1.5702  -1.5642  -1.5023
    -1.4589  -1.4205  -1.3954  -1.3783  -1.2390  -1.1679  -1.1237  -1.1094
    -1.0948  -0.9639  -0.9577  -0.8817  -0.8592  -0.8527  -0.7594  -0.7146
    -0.6761  -0.6691  -0.5826  -0.5704  -0.4945  -0.3960  -0.3741  -0.3602
    -0.3150  -0.3133  -0.2758  -0.2629  -0.1666  -0.1310  -0.1082  -0.0971
    -0.0804  -0.0389   0.1119   0.1610   0.1675   0.3005   0.3324   0.4709
     0.5008   0.5650   0.6449   0.6935   0.7459   0.7788   0.8654   0.9401
     0.9433   1.0066   1.0222   1.0884   1.1006   1.3672   2.0367   2.0373
     2.1251   2.1255   3.8855   4.0006   4.0042   4.0334   4.1556   4.1789
     4.2553   4.2828   4.3221   4.3255   4.3837

     the Fermi energy is     3.8016 ev

!    total energy              =   -2977.68385256 Ry
     estimated scf accuracy    <       0.00000004 Ry
     smearing contrib. (-TS)   =      -0.03717743 Ry
     internal energy E=F+TS    =   -2977.64667513 Ry

     The total energy is F=E-TS. E is the sum of the following terms:
     one-electron contribution =  -22681.86789627 Ry
     hartree contribution      =   11438.29578099 Ry
     xc contribution           =    -496.61488669 Ry
     ewald contribution        =    8762.53836166 Ry
     electric field correction =       0.00196517 Ry

     convergence has been achieved in  89 iterations

     Forces acting on atoms (cartesian axes, Ry/au):

     atom    1 type  1   force =     0.00024358   -0.00037901    0.09321298
     atom    2 type  1   force =     0.00002332   -0.00038947   -0.17818734
     atom    3 type  2   force =     0.00005055   -0.00041768   -0.02000363
     atom    4 type  2   force =     0.00001201   -0.00190314    0.05911888
     atom    5 type  2   force =    -0.01035481   -0.00059341    0.00861661
     atom    6 type  2   force =     0.01130455    0.00009745    0.00628942
     atom    7 type  1   force =    -0.00096278    0.00197359   -0.01428500
     atom    8 type  1   force =     0.00097299   -0.00255791   -0.00598513
     atom    9 type  2   force =     0.00016605   -0.00001418    0.00011214
     atom   10 type  2   force =    -0.00230959    0.00309230    0.00262878
     atom   11 type  2   force =     0.00040935   -0.00043554   -0.00057698
     atom   12 type  2   force =     0.00004530   -0.00041476   -0.00058374
     atom   13 type  1   force =     0.00032594   -0.00027364   -0.00019767
     atom   14 type  1   force =     0.00005598   -0.00008378   -0.00006140
     atom   15 type  2   force =    -0.00000039    0.00060088   -0.00005082
     atom   16 type  2   force =     0.00030786    0.00027232   -0.00014842
     atom   17 type  2   force =     0.00039486    0.00022930    0.00034639
     atom   18 type  2   force =    -0.00051976    0.00019625   -0.00010332
     atom   19 type  1   force =    -0.00012412    0.00003872    0.00034880
     atom   20 type  1   force =    -0.00010323   -0.00011120    0.00059898
     atom   21 type  2   force =     0.00011909   -0.00011238    0.10401781
     atom   22 type  2   force =     0.00016699   -0.00027899    0.00050047
     atom   23 type  2   force =    -0.07027417   -0.00019445   -0.02686150
     atom   24 type  2   force =     0.07025872    0.00025075   -0.02686166
     atom   25 type  1   force =     0.00017192   -0.00029655    0.09240063
     atom   26 type  1   force =     0.00005794   -0.00054557   -0.17851008
     atom   27 type  2   force =     0.00008228   -0.00020964   -0.01906805
     atom   28 type  2   force =     0.00005997   -0.00173349    0.05853562
     atom   29 type  2   force =    -0.01102135   -0.00114101    0.00945247
     atom   30 type  2   force =     0.01187923   -0.00069841    0.00723569
     atom   31 type  1   force =    -0.00087679    0.00646078   -0.01494123
     atom   32 type  1   force =     0.00101783    0.00220226   -0.00637941
     atom   33 type  2   force =     0.00025843    0.00009317    0.00004183
     atom   34 type  2   force =    -0.00214410   -0.00243492   -0.00029788
     atom   35 type  2   force =     0.00026912    0.00013136   -0.00001870
     atom   36 type  2   force =     0.00026516    0.00004014    0.00049896
     atom   37 type  1   force =    -0.00010628    0.00001943   -0.00005016
     atom   38 type  1   force =     0.00015777   -0.00007381    0.00000336
     atom   39 type  2   force =    -0.00010387   -0.00020669    0.00041680
     atom   40 type  2   force =    -0.00014223    0.00008821    0.00003522
     atom   41 type  2   force =    -0.00042432    0.00015917    0.00029759
     atom   42 type  2   force =     0.00025086   -0.00008950   -0.00014291
     atom   43 type  1   force =     0.00038791    0.00033130   -0.00006298
     atom   44 type  1   force =    -0.00002061   -0.00015395   -0.00001544
     atom   45 type  2   force =     0.00012719   -0.00011032    0.10395672
     atom   46 type  2   force =    -0.07024419   -0.00013074   -0.02679951
     atom   47 type  2   force =     0.07023588    0.00027805   -0.02686385
     atom   48 type  3   force =    -0.00026632   -0.00002347   -0.00034261
     atom   49 type  3   force =     0.00027954    0.00003338   -0.00077415
     atom   50 type  4   force =    -0.00030951   -0.00012661   -0.00024630
     atom   51 type  5   force =    -0.00069323    0.00035520    0.00038210
     atom   52 type  5   force =     0.00042149   -0.00005410    0.00037267
     atom   53 type  5   force =    -0.00003916    0.00020234   -0.00049301
     atom   54 type  5   force =     0.00009915   -0.00013863   -0.00000911
     atom   55 type  5   force =     0.00033821    0.00035227   -0.00028164
     atom   56 type  5   force =    -0.00038156   -0.00080560    0.00057088
     atom   57 type  2   force =    -0.00212867   -0.00087718    0.00029302
     atom   58 type  5   force =     0.00054979   -0.00029190   -0.00011553
     atom   59 type  5   force =     0.00178423    0.00080303   -0.00096567

     Total force =     0.366278     Total SCF correction =     0.000672
  @ DRIVER MODE: Message from server: STATUS
  @ DRIVER MODE: Message from server: GETFORCE
  @ DRIVER MODE: Returning v,forces,stress,ensemble

     Writing output data file ./calc.save/
  @ DRIVER MODE: Message from server: EXIT
  @ DRIVE MODE: Exiting

     General routines

     Parallel routines

   This run was terminated on:  16:12: 6  16Sep2021

   JOB DONE.