     Program PWSCF v.6.7GPU starts on 10Sep2021 at  5: 5:10

     R & G space division:  proc/nbgrp/npool/nimage =      10
     Reading input from /storage/home/hcoda1/3/ntian30/research/carbon/CxH_vib/CH3_calc/ads_slab/CH3N2OH_j/out_0025/pw.inp
Warning: card &CELL ignored
Warning: card   CELL_DYNAMICS='IPI', ignored
Warning: card / ignored

     Current dimensions of program PWSCF are:
     Max number of different atomic species (ntypx) = 10
     Max number of k-points (npk) =  40000
     Max angular momentum in pseudopotentials (lmaxx) =  3
     Presently no symmetry can be used with electric field

     Message from routine cell_base_init:
     DEPRECATED: use true lattice parameter, not A to a.u. conversion factor

     IMPORTANT: XC functional enforced from input :
     Exchange-correlation= BEEF-VDW
                           (   1   4  43  14   2   0   0)
     Any further DFT definition will be discarded
     Please, verify this is what you really want

  @ DRIVER MODE: Connecting to
 qe_1139763_2779713.sched-torque.pace.gatech.eduplyijenj_scratch
  using UNIX socket
  @ DRIVER MODE: Message from server: STATUS
  @ DRIVER MODE: Message from server: INIT
  @ DRIVER MODE: Receiving replica           0          -1
  @ DRIVER MODE: Receiving encoded integer          25
  @ DRIVER MODE:  SCF:  T  FORCE:  T  STRESS:  F  VC:  F  ENSEMBLE:  F
  @ DRIVER MODE:  SCF:  T  FORCE:  T  STRESS:  F  VC:  F  ENSEMBLE:  F

     Using Slab Decomposition

     bravais-lattice index     =            0
     lattice parameter (alat)  =       1.8897  a.u.
     unit-cell volume          =    6658.9804 (a.u.)^3
     number of atoms/cell      =           55
     number of atomic types    =            5
     number of electrons       =       402.00
     number of Kohn-Sham states=          211
     kinetic-energy cutoff     =      29.3995  Ry
     charge density cutoff     =     293.9946  Ry
     scf convergence threshold =      7.3E-08
     mixing beta               =       0.0500
     number of iterations used =            8  plain     mixing
     Exchange-correlation= BEEF-VDW
                           (   1   4  43  14   2   0   0)

     celldm(1)=   1.889726  celldm(2)=   0.000000  celldm(3)=   0.000000
     celldm(4)=   0.000000  celldm(5)=   0.000000  celldm(6)=   0.000000

     crystal axes: (cart. coord. in units of alat)
               a(1) = (   6.579727   0.000000   0.000000 )
               a(2) = (  -0.000775   5.961596   0.000000 )
               a(3) = (   0.000000   0.000000  25.155947 )

     reciprocal axes: (cart. coord. in units 2 pi/alat)
               b(1) = (  0.151982  0.000020  0.000000 )
               b(2) = (  0.000000  0.167740  0.000000 )
               b(3) = (  0.000000  0.000000  0.039752 )

     PseudoPot. # 1 for Ti read from file:
     /storage/coda1/p-amedford6/0/shared/rich_project_chbe-medford/medford-share/data/pseudos_module/espresso/nninc/pbe/van/Ti.UPF
     MD5 check sum: 8e4df49b7f0d34bbd5052bf3f5ea0213
     Pseudo is Ultrasoft, Zval = 12.0
     Generated by new atomic code, or converted to UPF format
     Using radial grid of  851 points,  6 beta functions with:
                l(1) =   0
                l(2) =   0
                l(3) =   1
                l(4) =   1
                l(5) =   2
                l(6) =   2
     Q(r) pseudized with  8 coefficients,  rinner =    1.000   1.000   1.000
                                                       1.000   1.000

     PseudoPot. # 2 for O  read from file:
     /storage/coda1/p-amedford6/0/shared/rich_project_chbe-medford/medford-share/data/pseudos_module/espresso/nninc/pbe/van/O.UPF
     MD5 check sum: 78c19812648e8988a0fe644b0f25305e
     Pseudo is Ultrasoft, Zval =  6.0
     Generated by new atomic code, or converted to UPF format
     Using radial grid of  737 points,  4 beta functions with:
                l(1) =   0
                l(2) =   0
                l(3) =   1
                l(4) =   1
     Q(r) pseudized with  8 coefficients,  rinner =    0.800   0.800   0.800

     PseudoPot. # 3 for N  read from file:
     /storage/coda1/p-amedford6/0/shared/rich_project_chbe-medford/medford-share/data/pseudos_module/espresso/nninc/pbe/van/N.UPF
     MD5 check sum: 90d10febe142ad51ac9d5be1deb811c4
     Pseudo is Ultrasoft, Zval =  5.0
     Generated by new atomic code, or converted to UPF format
     Using radial grid of  729 points,  4 beta functions with:
                l(1) =   0
                l(2) =   0
                l(3) =   1
                l(4) =   1
     Q(r) pseudized with  8 coefficients,  rinner =    0.800   0.800   0.800

     PseudoPot. # 4 for C  read from file:
     /storage/coda1/p-amedford6/0/shared/rich_project_chbe-medford/medford-share/data/pseudos_module/espresso/nninc/pbe/van/C.UPF
     MD5 check sum: 1a69bf6b8db32088f5b2163dbdb77a27
     Pseudo is Ultrasoft, Zval =  4.0
     Generated by new atomic code, or converted to UPF format
     Using radial grid of  721 points,  4 beta functions with:
                l(1) =   0
                l(2) =   0
                l(3) =   1
                l(4) =   1
     Q(r) pseudized with  8 coefficients,  rinner =    0.800   0.800   0.800

     PseudoPot. # 5 for H  read from file:
     /storage/coda1/p-amedford6/0/shared/rich_project_chbe-medford/medford-share/data/pseudos_module/espresso/nninc/pbe/van/H.UPF
     MD5 check sum: b5ee9d7bfd3a09ee7748110bda690ff7
     Pseudo is Ultrasoft, Zval =  1.0
     Generated by new atomic code, or converted to UPF format
     Using radial grid of  615 points,  1 beta functions with:
                l(1) =   0
     Q(r) pseudized with  8 coefficients,  rinner =    0.800

     atomic species   valence    mass     pseudopotential
        Ti1           12.00    47.86700     Ti( 1.00)
        O1             6.00    15.99900     O ( 1.00)
        N1             5.00    14.00700     N ( 1.00)
        C1             4.00    12.01100     C ( 1.00)
        H1             1.00     1.00800     H ( 1.00)

     No symmetry found

   Cartesian axes

     site n.     atom                  positions (alat units)
         1           Ti1 tau(   1) = (   0.0004258   2.9801865   6.0000000  )
         2           Ti1 tau(   2) = (   3.2906075   1.4906267   6.0002472  )
         3           O1  tau(   3) = (   0.0006271   0.0005054   7.9858123  )
         4           O1  tau(   4) = (   3.2906025   0.0005020   7.3038282  )
         5           O1  tau(   5) = (   4.5942328   1.4918067   9.2879030  )
         6           O1  tau(   6) = (   1.9868534   1.4903216   9.2879459  )
         7           Ti1 tau(   7) = (   3.2907910   2.8959150   9.1758416  )
         8           Ti1 tau(   8) = (   0.0015273   1.4827037   9.2680791  )
         9           O1  tau(   9) = (   3.2817971   0.0424577  11.2706337  )
        10           O1  tau(  10) = (   0.0116148   5.9584955  10.6183126  )
        11           O1  tau(  11) = (   1.2813654   1.4951502  12.6332405  )
        12           O1  tau(  12) = (   5.2815101   1.4921423  12.6269808  )
        13           Ti1 tau(  13) = (   6.5662594   2.8603684  12.6843660  )
        14           Ti1 tau(  14) = (   3.2717346   1.4252475  12.4210995  )
        15           O1  tau(  15) = (   6.5710910   0.0045200  14.6317625  )
        16           O1  tau(  16) = (   3.2759495   0.0084639  13.8932321  )
        17           O1  tau(  17) = (   4.5517014   1.4983445  16.0008815  )
        18           O1  tau(  18) = (   2.0271237   1.5070609  16.0478782  )
        19           Ti1 tau(  19) = (   3.2345769   3.0092735  16.2435900  )
        20           Ti1 tau(  20) = (   6.4941389   1.4975806  15.8145731  )
        21           O1  tau(  21) = (   3.2904802   0.0005063   4.7018136  )
        22           O1  tau(  22) = (   6.5579512   0.0396517  17.1742205  )
        23           O1  tau(  23) = (   1.3043587   1.4918075   6.0039043  )
        24           O1  tau(  24) = (   5.2767064   1.4903225   6.0039473  )
        25           Ti1 tau(  25) = (   0.0000382   5.9609847   6.0000000  )
        26           Ti1 tau(  26) = (   3.2902200   4.4714249   6.0002472  )
        27           O1  tau(  27) = (   0.0002396   2.9813036   7.9858123  )
        28           O1  tau(  28) = (   3.2902150   2.9813002   7.3038282  )
        29           O1  tau(  29) = (   4.5938453   4.4726049   9.2879030  )
        30           O1  tau(  30) = (   1.9864658   4.4711199   9.2879459  )
        31           Ti1 tau(  31) = (   3.2891106   5.8743827   9.1763621  )
        32           Ti1 tau(  32) = (   0.0006254   4.4649316   9.2693709  )
        33           O1  tau(  33) = (   3.2800217   2.9666125  11.2981572  )
        34           O1  tau(  34) = (   0.0092240   2.9805883  10.6323155  )
        35           O1  tau(  35) = (   1.2755083   4.4823741  12.6262202  )
        36           O1  tau(  36) = (   5.2848398   4.4807727  12.6177486  )
        37           Ti1 tau(  37) = (   6.5672004   5.8338186  12.5551636  )
        38           Ti1 tau(  38) = (   3.2732152   4.2974050  12.6602233  )
        39           O1  tau(  39) = (   6.5693882   2.9786051  14.6782399  )
        40           O1  tau(  40) = (   3.2805734   3.0393479  13.9038923  )
        41           O1  tau(  41) = (   4.5335661   4.5240572  16.0872286  )
        42           O1  tau(  42) = (   2.0073973   4.5295938  16.0607137  )
        43           Ti1 tau(  43) = (   3.2598295   0.0330142  15.6732764  )
        44           Ti1 tau(  44) = (   6.5464637   4.6748829  16.0422594  )
        45           O1  tau(  45) = (   3.2900926   2.9813045   4.7018136  )
        46           O1  tau(  46) = (   1.3039711   4.4726057   6.0039043  )
        47           O1  tau(  47) = (   5.2763189   4.4711207   6.0039473  )
        48           N1  tau(  48) = (   0.1126456   2.6876119  18.6539570  )
        49           N1  tau(  49) = (   0.0165868   2.9082207  17.4746156  )
        50           C1  tau(  50) = (   0.2746321   3.7930379  19.6319179  )
        51           H1  tau(  51) = (   0.1055085   4.7742840  19.1878107  )
        52           H1  tau(  52) = (   6.1660284   3.5871646  20.4591619  )
        53           H1  tau(  53) = (   1.2982147   3.7051261  19.9977701  )
        54           O1  tau(  54) = (   3.2987527   2.9937385  18.0942264  )
        55           H1  tau(  55) = (   3.7476408   3.7324850  18.5320624  )

     number of k points=    10  Fermi-Dirac smearing, width (Ry)=  0.0073
                       cart. coord. in units 2pi/alat
        k(    1) = (   0.0000000   0.0000000   0.0000000), wk =   0.1250000
        k(    2) = (   0.0000000   0.0419351   0.0000000), wk =   0.2500000
        k(    3) = (   0.0000000  -0.0838702   0.0000000), wk =   0.1250000
        k(    4) = (   0.0379955   0.0000049   0.0000000), wk =   0.2500000
        k(    5) = (   0.0379955   0.0419400   0.0000000), wk =   0.2500000
        k(    6) = (   0.0379955  -0.0838652   0.0000000), wk =   0.2500000
        k(    7) = (   0.0379955  -0.0419301   0.0000000), wk =   0.2500000
        k(    8) = (  -0.0759910  -0.0000099   0.0000000), wk =   0.1250000
        k(    9) = (  -0.0759910   0.0419252   0.0000000), wk =   0.2500000
        k(   10) = (  -0.0759910  -0.0838800   0.0000000), wk =   0.1250000

     Initial potential from superposition of free atoms

     starting charge  385.99915, renormalised to  402.00000

     negative rho (up, down):  1.467E-02 0.000E+00

     %%%%%%%%%%%%%%%%%%%%%%%%%%%%%%%%%%%%%%%%%%%%%%%%%%%%%%%%%%%%%%%%%%%%%%%%
     %                                                                      %
     % You are using vdW-DF, which was implemented by the Thonhauser group. %
     % Please cite the following two papers that made this development      %
     % possible and the two reviews that describe the various versions:     %
     %                                                                      %
     %   T. Thonhauser et al., PRL 115, 136402 (2015).                      %
     %   T. Thonhauser et al., PRB 76, 125112 (2007).                       %
     %   K. Berland et al., Rep. Prog. Phys. 78, 066501 (2015).             %
     %   D.C. Langreth et al., J. Phys.: Condens. Matter 21, 084203 (2009). %
     %                                                                      %
     %                                                                      %
     % If you are calculating the stress with vdW-DF, please also cite:     %
     %                                                                      %
     %   R. Sabatini et al., J. Phys.: Condens. Matter 24, 424209 (2012).   %
     %                                                                      %
     %%%%%%%%%%%%%%%%%%%%%%%%%%%%%%%%%%%%%%%%%%%%%%%%%%%%%%%%%%%%%%%%%%%%%%%%

     Adding external electric field

     Computed dipole along edir(3) :
        Dipole              -11.9798 Ry au,        -30.4497 Debye
        Dipole field         -0.0226 Ry au,

        Potential amp.        2.0957 Ry
        Total length         46.3494 bohr

     Starting wfcs are  304 atomic wfcs
  @ DRIVER MODE: Message from server: STATUS
  @ DRIVER MODE: Message from server: POSDATA
  @ DRIVER MODE: Reading and sharing cell
  @ DRIVER MODE: Reading and sharing positions
  @ DRIVER MODE: Received positions

     Self-consistent Calculation

     iteration #  1     ecut=    29.40 Ry     beta= 0.05
     Davidson diagonalization with overlap
     c_bands:  4 eigenvalues not converged
     c_bands:  3 eigenvalues not converged
     c_bands:  5 eigenvalues not converged
     c_bands:  5 eigenvalues not converged
     c_bands:  3 eigenvalues not converged
     c_bands:  4 eigenvalues not converged
     c_bands:  2 eigenvalues not converged
     c_bands:  1 eigenvalues not converged
     ethr =  1.00E-05,  avg # of iterations = 25.4

[...]

     total energy              =   -2401.03573726 Ry
     estimated scf accuracy    <    6440.97050073 Ry

     iteration #  2     ecut=    29.40 Ry     beta= 0.05
     Davidson diagonalization with overlap
     ethr =  1.00E-02,  avg # of iterations = 22.8

[...]

     iteration # 42     ecut=    29.40 Ry     beta= 0.05
     Davidson diagonalization with overlap
     c_bands:  1 eigenvalues not converged
     ethr =  5.84E-07,  avg # of iterations =  8.9

[...]

     total energy              =   -2972.74454752 Ry
     estimated scf accuracy    <       0.00000008 Ry

     iteration # 76     ecut=    29.40 Ry     beta= 0.05
     Davidson diagonalization with overlap
     ethr =  2.10E-11,  avg # of iterations =  2.0

     negative rho (up, down):  1.547E-02 0.000E+00

     Adding external electric field

     Computed dipole along edir(3) :
        Dipole                0.6076 Ry au,          1.5444 Debye
        Dipole field          0.0011 Ry au,

        Potential amp.       -0.1063 Ry
        Total length         46.3494 bohr

     End of self-consistent calculation

          k = 0.0000 0.0000 0.0000 ( 18029 PWs)   bands (ev):

   -56.2392 -56.2054 -55.8243 -55.7907 -55.5918 -55.5323 -55.4817 -55.4063
   -55.3819 -55.3268 -55.2366 -55.1645 -55.0843 -55.0118 -54.9906 -54.9779
   -32.6896 -32.5316 -32.5047 -32.3977 -32.3138 -32.3051 -32.3035 -32.0719
   -32.0433 -32.0242 -31.9720 -31.9656 -31.9316 -31.8987 -31.8698 -31.8180
   -31.8086 -31.7934 -31.7552 -31.7355 -31.7288 -31.7077 -31.6947 -31.6932
   -31.6916 -31.6512 -31.6043 -31.5747 -31.5559 -31.5370 -31.5358 -31.4982
   -31.4886 -31.4283 -31.4186 -31.4086 -31.3687 -31.3449 -31.3400 -31.3212
   -31.3158 -31.2923 -31.2397 -31.2274 -31.2272 -31.2126 -31.1426 -31.0308
   -18.8598 -16.5334 -16.3545 -16.1984 -15.9875 -15.8192 -15.7273 -15.7191
   -15.6710 -15.5499 -15.5229 -15.4279 -15.3367 -15.2631 -15.2629 -15.2380
   -15.1415 -15.0852 -15.0593 -15.0188 -14.9987 -14.9921 -14.9788 -14.8804
   -14.8636 -14.8586 -14.7159 -14.6945 -14.6087 -14.3605 -14.2637 -13.5097
   -13.3974 -11.5186  -6.9303  -4.4134  -4.1706  -4.0427  -3.9999  -3.8354
    -3.7491  -3.5315  -3.4326  -3.3563  -3.2335  -3.1480  -2.9580  -2.9468
    -2.8928  -2.8233  -2.7487  -2.6896  -2.6376  -2.6268  -2.5537  -2.5153
    -2.4741  -2.4666  -2.4046  -2.3887  -2.3011  -2.2910  -2.2177  -2.1829
    -2.1521  -2.1220  -2.1028  -2.0422  -2.0344  -2.0048  -1.9727  -1.9205
    -1.8553  -1.8112  -1.7248  -1.6702  -1.6553  -1.5645  -1.5445  -1.5342
    -1.5177  -1.3221  -1.2482  -1.2264  -1.2155  -1.0678  -1.0253  -1.0004
    -0.9203  -0.8964  -0.8495  -0.8099  -0.7618  -0.7049  -0.6737  -0.6679
    -0.6433  -0.5918  -0.4044  -0.3714  -0.3225  -0.2928  -0.2552  -0.1987
    -0.1683  -0.1373  -0.0548  -0.0495  -0.0404  -0.0030   0.0468   0.1278
     0.1874   0.2080   0.3007   0.3067   0.3486   0.3833   0.4396   0.4669
     0.5509   0.5946   0.6101   0.6649   0.6850   0.8734   0.9104   0.9471
     0.9844   1.0125   1.0582   1.1726   1.2415   1.5428   1.5605   1.6000
     2.7522   2.9871   3.1159   3.2719   3.4194   3.5140   3.8242   3.8529
     3.8880   3.9464   3.9742

[...]

          k = 0.0380-0.0419 0.0000 ( 17876 PWs)   bands (ev):

[...]

          k =-0.0760-0.0000 0.0000 ( 17886 PWs)   bands (ev):

[...]

          k =-0.0760-0.0839 0.0000 ( 17948 PWs)   bands (ev):

   -56.2228 -56.2218 -55.8086 -55.8062 -55.5865 -55.5375 -55.4788 -55.4090
   -55.3759 -55.3326 -55.2348 -55.1629 -55.0860 -54.9952 -54.9944 -54.9921
   -32.5178 -32.5165 -32.5060 -32.5053 -32.3502 -32.3491 -32.1282 -32.1243
   -32.0030 -32.0009 -31.9975 -31.9958 -31.8920 -31.8534 -31.8173 -31.8099
   -31.8047 -31.7651 -31.7534 -31.7486 -31.7223 -31.7071 -31.7001 -31.6681
   -31.6629 -31.6268 -31.6218 -31.6028 -31.5953 -31.5654 -31.5592 -31.5455
   -31.4890 -31.4346 -31.4323 -31.4222 -31.3664 -31.3447 -31.3344 -31.3339
   -31.2968 -31.2963 -31.2462 -31.2291 -31.2238 -31.2228 -31.1854 -31.1847
   -18.8560 -16.3418 -15.9433 -15.9310 -15.8076 -15.8010 -15.6288 -15.6123
   -15.5916 -15.5343 -15.5132 -15.4655 -15.3254 -15.3159 -15.2560 -15.2233
   -15.1982 -15.1815 -15.1528 -15.1524 -15.1331 -15.0596 -15.0320 -15.0048
   -14.9557 -14.9517 -14.7861 -14.7202 -14.7061 -14.4926 -14.4605 -13.5006
   -13.5003 -11.5166  -6.9441  -4.3613  -4.0408  -3.9819  -3.9376  -3.1116
    -3.0570  -2.9467  -2.9199  -2.8459  -2.8237  -2.7160  -2.6923  -2.6512
    -2.6378  -2.6341  -2.5789  -2.5566  -2.5343  -2.4903  -2.4782  -2.4654
    -2.4407  -2.3930  -2.3827  -2.3638  -2.3483  -2.3322  -2.2382  -2.2337
    -2.2148  -2.1702  -2.1667  -2.1544  -2.0769  -2.0067  -1.9641  -1.9578
    -1.9258  -1.8693  -1.7885  -1.6802  -1.6582  -1.6074  -1.5786  -1.5028
    -1.4738  -1.4289  -1.3343  -1.3270  -1.2997  -1.2820  -1.2213  -1.2069
    -1.0641  -1.0309  -1.0253  -1.0183  -1.0157  -0.9186  -0.8572  -0.7978
    -0.7455  -0.6633  -0.6493  -0.6284  -0.6094  -0.6002  -0.5810  -0.5569
    -0.4953  -0.4540  -0.4035  -0.3863  -0.2824  -0.2034  -0.1689  -0.1026
    -0.0249   0.0640   0.1426   0.1562   0.1938   0.2481   0.3369   0.3784
     0.4209   0.4896   0.5317   0.6045   0.6662   0.7514   0.7752   0.8638
     0.9754   0.9920   1.0421   1.1298   1.4030   1.4097   1.4162   1.4170
     2.7579   3.5349   3.5387   3.5685   3.5768   3.7766   3.7886   3.9142
     3.9684   3.9939   4.0300

     the Fermi energy is     2.9238 ev

!    total energy              =   -2972.74456253 Ry
     estimated scf accuracy    <       0.00000006 Ry
     smearing contrib. (-TS)   =      -0.01283946 Ry
     internal energy E=F+TS    =   -2972.73172307 Ry

     The total energy is F=E-TS. E is the sum of the following terms:
     one-electron contribution =  -23700.60822907 Ry
     hartree contribution      =   11943.58677114 Ry
     xc contribution           =    -493.12036015 Ry
     ewald contribution        =    9277.40939830 Ry
     electric field correction =       0.00069670 Ry

     convergence has been achieved in  76 iterations

     Forces acting on atoms (cartesian axes, Ry/au):

     atom    1 type  1   force =     0.00008840   -0.00038105    0.10701881
     atom    2 type  1   force =    -0.00004657   -0.00169096   -0.16537156
     atom    3 type  2   force =     0.00003548   -0.00025715   -0.03867072
     atom    4 type  2   force =     0.00004530    0.00076220    0.03118510
     atom    5 type  2   force =    -0.00356165    0.00294742   -0.00839877
     atom    6 type  2   force =     0.00470070    0.00361541   -0.01016984
     atom    7 type  1   force =    -0.00073062    0.00048743    0.02122353
     atom    8 type  1   force =     0.00100934    0.01539329    0.06094728
     atom    9 type  2   force =     0.00011355   -0.00014473    0.00009807
     atom   10 type  2   force =    -0.00289371    0.00226540   -0.04713475
     atom   11 type  2   force =    -0.00004261   -0.00020717   -0.00003437
     atom   12 type  2   force =     0.00000723   -0.00003095    0.00018854
     atom   13 type  1   force =     0.00028313   -0.00013337    0.00009181
     atom   14 type  1   force =     0.00040422   -0.00014423    0.00023276
     atom   15 type  2   force =     0.00015756    0.00013159   -0.00030881
     atom   16 type  2   force =     0.00014443   -0.00015709    0.00004071
     atom   17 type  2   force =     0.00014749    0.00016408    0.00026073
     atom   18 type  2   force =     0.00013719    0.00026995    0.00008287
     atom   19 type  1   force =     0.00004966   -0.00014520   -0.00019592
     atom   20 type  1   force =    -0.00033194    0.00018532    0.00004873
     atom   21 type  2   force =     0.00010375    0.00000311    0.10027836
     atom   22 type  2   force =     0.00002999    0.00005797   -0.00018188
     atom   23 type  2   force =    -0.07668553   -0.00004431   -0.03005226
     atom   24 type  2   force =     0.07667229    0.00038772   -0.03007752
     atom   25 type  1   force =     0.00005161   -0.00042995    0.10696545
     atom   26 type  1   force =    -0.00010344    0.00062427   -0.16567264
     atom   27 type  2   force =     0.00012211   -0.00027134   -0.03748426
     atom   28 type  2   force =     0.00004524   -0.00043714    0.03535987
     atom   29 type  2   force =    -0.00569998   -0.00043474   -0.00598515
     atom   30 type  2   force =     0.00686474    0.00006375   -0.00767297
     atom   31 type  1   force =    -0.00056638   -0.00239322    0.03460010
     atom   32 type  1   force =     0.00111363   -0.01877395    0.06147264
     atom   33 type  2   force =     0.00022476   -0.00012142    0.00005963
     atom   34 type  2   force =    -0.00253655    0.00012762   -0.05384694
     atom   35 type  2   force =     0.00022234   -0.00024959   -0.00012714
     atom   36 type  2   force =     0.00017714   -0.00002475    0.00026966
     atom   37 type  1   force =     0.00035297   -0.00019176   -0.00014010
     atom   38 type  1   force =     0.00047229   -0.00022308    0.00026923
     atom   39 type  2   force =     0.00016112   -0.00044058    0.00024775
     atom   40 type  2   force =    -0.00019069   -0.00006837   -0.00010256
     atom   41 type  2   force =     0.00009984   -0.00038725    0.00011508
     atom   42 type  2   force =     0.00022948   -0.00042118    0.00012673
     atom   43 type  1   force =    -0.00024770    0.00004854   -0.00026987
     atom   44 type  1   force =    -0.00006686   -0.00028233    0.00027055
     atom   45 type  2   force =     0.00009480    0.00010986    0.10049212
     atom   46 type  2   force =    -0.07666479   -0.00006012   -0.03006402
     atom   47 type  2   force =     0.07665703    0.00036133   -0.03009311
     atom   48 type  3   force =     0.00039515   -0.00032891    0.00022851
     atom   49 type  3   force =     0.00011138    0.00009336   -0.00112921
     atom   50 type  4   force =    -0.00616248    0.00036649    0.00433783
     atom   51 type  5   force =     0.00048033   -0.00095881    0.00050044
     atom   52 type  5   force =     0.00601703    0.00141157   -0.00558722
     atom   53 type  5   force =    -0.00106129   -0.00032438    0.00152363
     atom   54 type  2   force =     0.00040165    0.00121821    0.00073235
     atom   55 type  5   force =    -0.00083153   -0.00093682   -0.00049731

     Total force =     0.381482     Total SCF correction =     0.000592
  @ DRIVER MODE: Message from server: STATUS
  @ DRIVER MODE: Message from server: GETFORCE
  @ DRIVER MODE: Returning v,forces,stress,ensemble

     Writing output data file ./calc.save/
  @ DRIVER MODE: Message from server: EXIT
  @ DRIVE MODE: Exiting

     General routines

     Parallel routines

   This run was terminated on:   5:25:26  10Sep2021

   JOB DONE.