     Program PWSCF v.6.7GPU starts on 19Oct2021 at  7:10:58

     R & G space division:  proc/nbgrp/npool/nimage =       8
     Reading input from /storage/home/hcoda1/3/ntian30/research/carbon/CxH_vib/Thiel_calc/ads_slab/NH3NH2H_perslab/out_0039/pw.inp
Warning: card &CELL ignored
Warning: card   CELL_DYNAMICS='IPI', ignored
Warning: card / ignored

     Current dimensions of program PWSCF are:
     Max number of different atomic species (ntypx) = 10
     Max number of k-points (npk) =  40000
     Max angular momentum in pseudopotentials (lmaxx) =  3
     Presently no symmetry can be used with electric field

     Message from routine cell_base_init:
     DEPRECATED: use true lattice parameter, not A to a.u. conversion factor

     IMPORTANT: XC functional enforced from input :
     Exchange-correlation= BEEF-VDW
                           (   1   4  43  14   2   0   0)
     Any further DFT definition will be discarded
     Please, verify this is what you really want

  @ DRIVER MODE: Connecting to
 qe_1139763_3255139.sched-torque.pace.gatech.eduoxz7_k1e_scratch
  using UNIX socket
  @ DRIVER MODE: Message from server: STATUS
  @ DRIVER MODE: Message from server: INIT
  @ DRIVER MODE: Receiving replica           0          -1
  @ DRIVER MODE: Receiving encoded integer          25
  @ DRIVER MODE:  SCF:  T  FORCE:  T  STRESS:  F  VC:  F  ENSEMBLE:  F
  @ DRIVER MODE:  SCF:  T  FORCE:  T  STRESS:  F  VC:  F  ENSEMBLE:  F

     Using Slab Decomposition

     bravais-lattice index     =            0
     lattice parameter (alat)  =       1.8897  a.u.
     unit-cell volume          =    9988.4706 (a.u.)^3
     number of atoms/cell      =           61
     number of atomic types    =            4
     number of electrons       =       442.00
     number of Kohn-Sham states=          231
     kinetic-energy cutoff     =      29.3995  Ry
     charge density cutoff     =     293.9946  Ry
     scf convergence threshold =      7.3E-08
     mixing beta               =       0.0500
     number of iterations used =            8  plain     mixing
     Exchange-correlation= BEEF-VDW
                           (   1   4  43  14   2   0   0)

     celldm(1)=   1.889726  celldm(2)=   0.000000  celldm(3)=   0.000000
     celldm(4)=   0.000000  celldm(5)=   0.000000  celldm(6)=   0.000000

     crystal axes: (cart. coord. in units of alat)
               a(1) = (   6.579727   0.000000   0.000000 )
               a(2) = (  -0.001163   8.942395   0.000000 )
               a(3) = (   0.000000   0.000000  25.155947 )

     reciprocal axes: (cart. coord. in units 2 pi/alat)
               b(1) = (  0.151982  0.000020  0.000000 )
               b(2) = (  0.000000  0.111827  0.000000 )
               b(3) = (  0.000000  0.000000  0.039752 )

     PseudoPot. # 1 for O  read from file:
     /storage/coda1/p-amedford6/0/shared/rich_project_chbe-medford/medford-share/data/pseudos_module/espresso/nninc/pbe/van/O.UPF
     MD5 check sum: 78c19812648e8988a0fe644b0f25305e
     Pseudo is Ultrasoft, Zval =  6.0
     Generated by new atomic code, or converted to UPF format
     Using radial grid of  737 points,  4 beta functions with:
                l(1) =   0
                l(2) =   0
                l(3) =   1
                l(4) =   1
     Q(r) pseudized with  8 coefficients,  rinner =    0.800   0.800   0.800

     PseudoPot. # 2 for Ti read from file:
     /storage/coda1/p-amedford6/0/shared/rich_project_chbe-medford/medford-share/data/pseudos_module/espresso/nninc/pbe/van/Ti.UPF
     MD5 check sum: 8e4df49b7f0d34bbd5052bf3f5ea0213
     Pseudo is Ultrasoft, Zval = 12.0
     Generated by new atomic code, or converted to UPF format
     Using radial grid of  851 points,  6 beta functions with:
                l(1) =   0
                l(2) =   0
                l(3) =   1
                l(4) =   1
                l(5) =   2
                l(6) =   2
     Q(r) pseudized with  8 coefficients,  rinner =    1.000   1.000   1.000
                                                       1.000   1.000

     PseudoPot. # 3 for H  read from file:
     /storage/coda1/p-amedford6/0/shared/rich_project_chbe-medford/medford-share/data/pseudos_module/espresso/nninc/pbe/van/H.UPF
     MD5 check sum: b5ee9d7bfd3a09ee7748110bda690ff7
     Pseudo is Ultrasoft, Zval =  1.0
     Generated by new atomic code, or converted to UPF format
     Using radial grid of  615 points,  1 beta functions with:
                l(1) =   0
     Q(r) pseudized with  8 coefficients,  rinner =    0.800

     PseudoPot. # 4 for N  read from file:
     /storage/coda1/p-amedford6/0/shared/rich_project_chbe-medford/medford-share/data/pseudos_module/espresso/nninc/pbe/van/N.UPF
     MD5 check sum: 90d10febe142ad51ac9d5be1deb811c4
     Pseudo is Ultrasoft, Zval =  5.0
     Generated by new atomic code, or converted to UPF format
     Using radial grid of  729 points,  4 beta functions with:
                l(1) =   0
                l(2) =   0
                l(3) =   1
                l(4) =   1
     Q(r) pseudized with  8 coefficients,  rinner =    0.800   0.800   0.800

     atomic species   valence    mass     pseudopotential
        O1             6.00    15.99900     O ( 1.00)
        Ti1           12.00    47.86700     Ti( 1.00)
        H1             1.00     1.00800     H ( 1.00)
        N1             5.00    14.00700     N ( 1.00)

     No symmetry found

   Cartesian axes

     site n.     atom                  positions (alat units)
         1           O1  tau(   1) = (   0.0007354   0.0005023  10.5931620  )
         2           O1  tau(   2) = (   3.2892937   8.9423630  13.8814308  )
         3           O1  tau(   3) = (   6.5785080   0.0907754  17.2996570  )
         4           O1  tau(   4) = (   0.0006271   0.0005054   7.9858123  )
         5           O1  tau(   5) = (   3.2892617   8.9274694  11.1867540  )
         6           O1  tau(   6) = (   0.0001068   0.0384811  14.5856928  )
         7           O1  tau(   7) = (   1.9868534   1.4903216   9.2879459  )
         8           O1  tau(   8) = (   5.2392332   1.6199063  12.5840971  )
         9           O1  tau(   9) = (   2.0046145   1.5651943  16.0652335  )
        10           Ti1 tau(  10) = (   0.0007404   1.4906270   9.2895810  )
        11           Ti1 tau(  11) = (   3.2903033   1.3475644  12.4784176  )
        12           Ti1 tau(  12) = (   0.0002083   1.2954417  15.7753146  )
        13           O1  tau(  13) = (   4.5942328   1.4918067   9.2879030  )
        14           O1  tau(  14) = (   1.3408909   1.6195689  12.5841697  )
        15           O1  tau(  15) = (   4.5747373   1.5650701  16.0650860  )
        16           Ti1 tau(  16) = (   3.2902859   2.9801868   9.2893338  )
        17           Ti1 tau(  17) = (   0.0003213   2.8429885  12.4272127  )
        18           Ti1 tau(  18) = (   3.2894782   2.8703589  15.6911549  )
        19           O1  tau(  19) = (   0.0003479   2.9813005  10.5931620  )
        20           O1  tau(  20) = (   3.2897922   2.9583395  13.9032781  )
        21           O1  tau(  21) = (   0.0002396   2.9813036   7.9858123  )
        22           O1  tau(  22) = (   3.2900450   2.9730570  11.1907869  )
        23           O1  tau(  23) = (   0.0001206   2.9807552  14.9070210  )
        24           O1  tau(  24) = (   1.9864658   4.4711199   9.2879459  )
        25           O1  tau(  25) = (   5.2482068   4.5640541  12.6028892  )
        26           O1  tau(  26) = (   2.0118887   4.5193519  16.0312246  )
        27           Ti1 tau(  27) = (   0.0003529   4.4714252   9.2895810  )
        28           Ti1 tau(  28) = (   3.2901403   4.3402809  12.5217819  )
        29           Ti1 tau(  29) = (   0.0009811   4.3515161  16.1888847  )
        30           O1  tau(  30) = (   4.5938453   4.4726049   9.2879030  )
        31           O1  tau(  31) = (   1.3314901   4.5639303  12.6028828  )
        32           O1  tau(  32) = (   4.5682806   4.5188618  16.0312494  )
        33           Ti1 tau(  33) = (   3.2898983   5.9609850   9.2893338  )
        34           Ti1 tau(  34) = (   0.0001002   5.8006911  12.4939615  )
        35           Ti1 tau(  35) = (   3.2910898   5.8128663  15.8108673  )
        36           O1  tau(  36) = (  -0.0000397   5.9620987  10.5931620  )
        37           O1  tau(  37) = (   3.2898758   5.9691391  13.9384534  )
        38           O1  tau(  38) = (   0.0001572   5.9906873  17.2924393  )
        39           O1  tau(  39) = (  -0.0001480   5.9621018   7.9858123  )
        40           O1  tau(  40) = (   3.2897271   5.9334558  11.2049738  )
        41           O1  tau(  41) = (   0.0000685   5.9641935  14.6703060  )
        42           O1  tau(  42) = (   1.9860782   7.4519181   9.2879459  )
        43           O1  tau(  43) = (   5.2398882   7.5535610  12.5750285  )
        44           O1  tau(  44) = (   1.9879998   7.5809304  16.0172394  )
        45           Ti1 tau(  45) = (  -0.0000347   7.4522234   9.2895810  )
        46           Ti1 tau(  46) = (   3.2896426   7.2731609  12.5447809  )
        47           Ti1 tau(  47) = (   0.0002275   7.1890881  15.9781391  )
        48           O1  tau(  48) = (   4.5934577   7.4534031   9.2879030  )
        49           O1  tau(  49) = (   1.3388943   7.5534522  12.5751898  )
        50           O1  tau(  50) = (   4.5903976   7.5792304  16.0166626  )
        51           Ti1 tau(  51) = (   3.2895107   8.9417832   9.2893338  )
        52           Ti1 tau(  52) = (  -0.0003648   8.7758640  12.4444508  )
        53           Ti1 tau(  53) = (   3.2897763   8.8353469  15.6829021  )
        54           H1  tau(  54) = (   0.0028024   0.0378429  18.2586218  )
        55           N1  tau(  55) = (   0.0000016   3.3024973  17.8430138  )
        56           H1  tau(  56) = (   6.5772996   2.3364033  18.1430564  )
        57           H1  tau(  57) = (   6.5785254   3.8921159  18.6668881  )
        58           N1  tau(  58) = (   3.2892544   5.9906839  18.1401779  )
        59           H1  tau(  59) = (   3.2890604   5.0659402  18.5578254  )
        60           H1  tau(  60) = (   2.4549486   6.4684715  18.4500629  )
        61           H1  tau(  61) = (   4.1227990   6.4789769  18.4516084  )

     number of k points=    10  Fermi-Dirac smearing, width (Ry)=  0.0073
                       cart. coord. in units 2pi/alat
        k(    1) = (   0.0000000   0.0000000   0.0000000), wk =   0.1250000
        k(    2) = (   0.0000000   0.0279567   0.0000000), wk =   0.2500000
        k(    3) = (   0.0000000  -0.0559134   0.0000000), wk =   0.1250000
        k(    4) = (   0.0379955   0.0000049   0.0000000), wk =   0.2500000
        k(    5) = (   0.0379955   0.0279617   0.0000000), wk =   0.2500000
        k(    6) = (   0.0379955  -0.0559085   0.0000000), wk =   0.2500000
        k(    7) = (   0.0379955  -0.0279518   0.0000000), wk =   0.2500000
        k(    8) = (  -0.0759910  -0.0000099   0.0000000), wk =   0.1250000
        k(    9) = (  -0.0759910   0.0279468   0.0000000), wk =   0.2500000
        k(   10) = (  -0.0759910  -0.0559233   0.0000000), wk =   0.1250000

     Initial potential from superposition of free atoms

     starting charge  423.99908, renormalised to  442.00000

     negative rho (up, down):  3.654E-02 0.000E+00

     %%%%%%%%%%%%%%%%%%%%%%%%%%%%%%%%%%%%%%%%%%%%%%%%%%%%%%%%%%%%%%%%%%%%%%%%
     %                                                                      %
     % You are using vdW-DF, which was implemented by the Thonhauser group. %
     % Please cite the following two papers that made this development      %
     % possible and the two reviews that describe the various versions:     %
     %                                                                      %
     %   T. Thonhauser et al., PRL 115, 136402 (2015).                      %
     %   T. Thonhauser et al., PRB 76, 125112 (2007).                       %
     %   K. Berland et al., Rep. Prog. Phys. 78, 066501 (2015).             %
     %   D.C. Langreth et al., J. Phys.: Condens. Matter 21, 084203 (2009). %
     %                                                                      %
     %                                                                      %
     % If you are calculating the stress with vdW-DF, please also cite:     %
     %                                                                      %
     %   R. Sabatini et al., J. Phys.: Condens. Matter 24, 424209 (2012).   %
     %                                                                      %
     %%%%%%%%%%%%%%%%%%%%%%%%%%%%%%%%%%%%%%%%%%%%%%%%%%%%%%%%%%%%%%%%%%%%%%%%

     Adding external electric field

     Computed dipole along edir(3) :
        Dipole               -6.3674 Ry au,        -16.1843 Debye
        Dipole field         -0.0080 Ry au,

        Potential amp.        0.7426 Ry
        Total length         46.3494 bohr

     Starting wfcs are  334 atomic wfcs
  @ DRIVER MODE: Message from server: STATUS
  @ DRIVER MODE: Message from server: POSDATA
  @ DRIVER MODE: Reading and sharing cell
  @ DRIVER MODE: Reading and sharing positions
  @ DRIVER MODE: Received positions

     Self-consistent Calculation

     iteration #  1     ecut=    29.40 Ry     beta= 0.05
     Davidson diagonalization with overlap
     c_bands:  2 eigenvalues not converged
     c_bands:  3 eigenvalues not converged
     c_bands:  3 eigenvalues not converged
     c_bands:  2 eigenvalues not converged
     c_bands:  1 eigenvalues not converged
     c_bands:  4 eigenvalues not converged
     c_bands:  1 eigenvalues not converged
     c_bands:  1 eigenvalues not converged
     c_bands:  5 eigenvalues not converged
     ethr =  1.00E-05,  avg # of iterations = 20.0

[...]

     total energy              =   -3277.30546683 Ry
     estimated scf accuracy    <     250.06405014 Ry

     iteration #  2     ecut=    29.40 Ry     beta= 0.05
     Davidson diagonalization with overlap
     ethr =  1.00E-02,  avg # of iterations = 16.4

[...]

     iteration # 54     ecut=    29.40 Ry     beta= 0.05
     Davidson diagonalization with overlap
     c_bands:  1 eigenvalues not converged
     ethr =  8.86E-10,  avg # of iterations = 10.6

[...]

     total energy              =   -3295.81878769 Ry
     estimated scf accuracy    <       0.00000012 Ry

     iteration # 68     ecut=    29.40 Ry     beta= 0.05
     Davidson diagonalization with overlap
     ethr =  2.40E-11,  avg # of iterations =  9.3

     negative rho (up, down):  3.514E-02 0.000E+00

     Adding external electric field

     Computed dipole along edir(3) :
        Dipole                2.0095 Ry au,          5.1077 Debye
        Dipole field          0.0025 Ry au,

        Potential amp.       -0.2344 Ry
        Total length         46.3494 bohr

     End of self-consistent calculation

          k = 0.0000 0.0000 0.0000 ( 26871 PWs)   bands (ev):

   -57.4454 -57.4223 -57.4139 -57.4066 -57.3632 -57.3525 -57.3116 -57.3068
   -57.2923 -57.2630 -57.2424 -57.2342 -57.2251 -57.1903 -57.0111 -56.5105
   -56.4837 -56.4672 -33.8431 -33.8316 -33.8248 -33.8204 -33.8113 -33.7787
   -33.7675 -33.7611 -33.7524 -33.7384 -33.7345 -33.7139 -33.6930 -33.6801
   -33.6525 -33.6492 -33.6372 -33.6340 -33.6136 -33.6121 -33.5915 -33.5801
   -33.5568 -33.5539 -33.5527 -33.5433 -33.5397 -33.5372 -33.5351 -33.5262
   -33.5173 -33.5049 -33.4898 -33.4742 -33.4667 -33.4555 -33.4407 -33.4387
   -33.4342 -33.4318 -33.4031 -33.3798 -33.3407 -33.3052 -33.2325 -32.8300
   -32.8227 -32.8091 -32.8019 -32.7878 -32.7349 -32.6760 -32.6560 -32.5311
   -19.1393 -18.3005 -17.9743 -17.7573 -17.7097 -17.6871 -17.6092 -17.5430
   -17.5383 -17.4702 -17.3844 -17.3050 -17.2766 -17.2725 -17.2369 -17.2090
   -17.1900 -17.1658 -17.1646 -17.1242 -17.1135 -17.0941 -17.0673 -17.0198
   -16.9467 -16.9338 -16.8995 -16.8923 -16.8867 -16.8867 -16.7431 -16.6656
   -16.5842 -15.2669 -14.9707 -14.9143 -14.9070  -7.7428  -7.6298  -7.2332
    -6.7468  -5.6242  -5.4639  -5.3784  -5.2764  -4.9377  -4.8715  -4.8501
    -4.8367  -4.7913  -4.7527  -4.7515  -4.6939  -4.6849  -4.6662  -4.5854
    -4.5717  -4.5490  -4.4975  -4.4751  -4.4249  -4.4246  -4.3745  -4.3201
    -4.2694  -4.2612  -4.2601  -4.2343  -4.2337  -4.2109  -4.2067  -4.0937
    -4.0885  -4.0134  -3.9058  -3.8975  -3.8488  -3.7762  -3.7667  -3.7406
    -3.7131  -3.6511  -3.6043  -3.5507  -3.5429  -3.5296  -3.4660  -3.4414
    -3.3619  -3.2562  -3.2441  -3.2114  -3.1667  -3.1527  -3.1064  -3.0755
    -3.0027  -2.9275  -2.8482  -2.8219  -2.7171  -2.6716  -2.6523  -2.6192
    -2.6119  -2.5384  -2.5344  -2.5094  -2.3572  -2.2545  -2.2438  -2.2243
    -2.2131  -2.1859  -2.1824  -2.1548  -2.0898  -2.0437  -2.0361  -2.0200
    -2.0004  -1.9881  -1.8987  -1.8398  -1.8124  -1.7836  -1.7677  -1.6738
    -1.6349  -1.5991  -1.5885  -1.4836  -1.4290  -1.3223  -1.3175  -1.3035
    -1.2325  -1.1863  -1.1140  -0.7970  -0.6278  -0.5557  -0.2686  -0.2106
    -0.2026   0.0575   0.0697   0.1979   1.5434   1.7746   1.9752   1.9775
     1.9931   2.0638   2.1317   2.1448   2.2095   2.2619   2.2780

[...]

          k = 0.0380-0.0280 0.0000 ( 26873 PWs)   bands (ev):

[...]

          k =-0.0760-0.0000 0.0000 ( 26902 PWs)   bands (ev):

[...]

          k =-0.0760-0.0559 0.0000 ( 26868 PWs)   bands (ev):

   -57.4399 -57.4328 -57.4089 -57.4058 -57.3641 -57.3526 -57.3105 -57.3075
   -57.2913 -57.2615 -57.2451 -57.2361 -57.2234 -57.1897 -57.0110 -56.5079
   -56.4890 -56.4645 -33.9220 -33.9041 -33.8540 -33.8228 -33.8068 -33.7826
   -33.7737 -33.7652 -33.7234 -33.7080 -33.6936 -33.6638 -33.6409 -33.6369
   -33.6328 -33.6122 -33.5989 -33.5981 -33.5969 -33.5890 -33.5869 -33.5810
   -33.5693 -33.5609 -33.5565 -33.5526 -33.5355 -33.5294 -33.5230 -33.5174
   -33.5164 -33.5134 -33.5044 -33.5015 -33.4946 -33.4868 -33.4563 -33.4555
   -33.4470 -33.4350 -33.4335 -33.3945 -33.3618 -33.3047 -33.2359 -32.9114
   -32.8255 -32.8080 -32.7850 -32.7230 -32.7017 -32.6461 -32.6364 -32.6174
   -19.1328 -17.9939 -17.9229 -17.6894 -17.6269 -17.6146 -17.5991 -17.5643
   -17.5078 -17.4770 -17.4448 -17.4116 -17.3722 -17.3298 -17.3133 -17.2389
   -17.2341 -17.2305 -17.1642 -17.1623 -17.1447 -17.0998 -17.0864 -17.0638
   -17.0147 -16.9738 -16.9599 -16.8810 -16.8558 -16.8155 -16.7207 -16.6524
   -16.6175 -15.2644 -14.9720 -14.9617 -14.8488  -7.7250  -7.6280  -7.2240
    -6.7495  -5.2460  -5.2146  -5.1800  -5.1513  -5.0464  -4.8610  -4.7846
    -4.7515  -4.7475  -4.6825  -4.6621  -4.6558  -4.6114  -4.5992  -4.5744
    -4.5513  -4.5218  -4.4872  -4.4794  -4.4432  -4.4113  -4.3960  -4.3746
    -4.3569  -4.3515  -4.3376  -4.2492  -4.1872  -4.1741  -4.1165  -4.0895
    -4.0638  -4.0211  -4.0079  -3.9671  -3.9395  -3.7123  -3.6248  -3.6092
    -3.6082  -3.5818  -3.5458  -3.4898  -3.4317  -3.4023  -3.3699  -3.2440
    -3.2041  -3.1910  -3.1864  -3.1513  -3.0677  -3.0414  -3.0122  -2.9798
    -2.9642  -2.9147  -2.9021  -2.8618  -2.8213  -2.7502  -2.7061  -2.6688
    -2.6366  -2.6031  -2.5921  -2.5656  -2.5364  -2.5320  -2.5052  -2.4859
    -2.4135  -2.4116  -2.3727  -2.3159  -2.2428  -2.2092  -2.1912  -2.1125
    -2.0342  -1.9831  -1.9595  -1.9390  -1.8615  -1.7445  -1.7187  -1.7099
    -1.6762  -1.6279  -1.5770  -1.5431  -1.4930  -1.4024  -1.2704  -1.2501
    -1.1818  -1.0857  -1.0647  -1.0444  -0.8234  -0.7329  -0.4195  -0.1606
    -0.1158  -0.0966   0.0624   0.0700   1.7040   1.7710   1.8336   1.8668
     1.8832   1.9144   1.9171   1.9862   2.0419   2.1109   2.1293

     the Fermi energy is     1.6430 ev

!    total energy              =   -3295.81880529 Ry
     estimated scf accuracy    <       0.00000004 Ry
     smearing contrib. (-TS)   =      -0.03294927 Ry
     internal energy E=F+TS    =   -3295.78585602 Ry

     The total energy is F=E-TS. E is the sum of the following terms:
     one-electron contribution =  -34382.86432455 Ry
     hartree contribution      =   17260.72849844 Ry
     xc contribution           =    -543.90079494 Ry
     ewald contribution        =   14370.24568467 Ry
     electric field correction =       0.00508036 Ry

     convergence has been achieved in  68 iterations

     Forces acting on atoms (cartesian axes, Ry/au):

     atom    1 type  1   force =     0.00000534    0.00791249    0.05043330
     atom    2 type  1   force =    -0.00000853    0.00035666   -0.00970875
     atom    3 type  1   force =    -0.00004435   -0.00469177   -0.00056828
     atom    4 type  1   force =     0.00005802    0.00282648    0.10762491
     atom    5 type  1   force =     0.00000366    0.00070258    0.00921990
     atom    6 type  1   force =    -0.00000766   -0.00164031    0.00011840
     atom    7 type  1   force =     0.06464146    0.00007754   -0.02898975
     atom    8 type  1   force =     0.00390049   -0.02786247    0.00323983
     atom    9 type  1   force =     0.00826734   -0.01830165    0.00240469
     atom   10 type  2   force =    -0.00005123   -0.00797133   -0.19370972
     atom   11 type  2   force =    -0.00002611    0.02062202   -0.00635445
     atom   12 type  2   force =    -0.00005139    0.02206089   -0.00301090
     atom   13 type  1   force =    -0.06473618   -0.00037639   -0.02893680
     atom   14 type  1   force =    -0.00389915   -0.02784326    0.00323448
     atom   15 type  1   force =    -0.00825835   -0.01828838    0.00239468
     atom   16 type  2   force =     0.00010055    0.00059088    0.06675798
     atom   17 type  2   force =     0.00002417    0.03325753    0.00614388
     atom   18 type  2   force =     0.00001895    0.02088664    0.00184997
     atom   19 type  1   force =     0.00000436    0.00225704    0.05628377
     atom   20 type  1   force =    -0.00000648   -0.00132663   -0.00686103
     atom   21 type  1   force =     0.00006005   -0.00139033    0.10888204
     atom   22 type  1   force =     0.00000734   -0.00024432    0.00986093
     atom   23 type  1   force =     0.00001145   -0.00479145    0.00115542
     atom   24 type  1   force =     0.06620422   -0.00050629   -0.02949117
     atom   25 type  1   force =     0.00418665   -0.03009092    0.00219767
     atom   26 type  1   force =     0.00994367   -0.02415685    0.00226197
     atom   27 type  2   force =    -0.00006723    0.01375791   -0.18653497
     atom   28 type  2   force =    -0.00001846    0.02335210   -0.00581403
     atom   29 type  2   force =    -0.00007556    0.01730937   -0.00919657
     atom   30 type  1   force =    -0.06631154   -0.00095755   -0.02944652
     atom   31 type  1   force =    -0.00418111   -0.03006246    0.00219842
     atom   32 type  1   force =    -0.00987767   -0.02413836    0.00220524
     atom   33 type  2   force =     0.00009595   -0.00141602    0.06833594
     atom   34 type  2   force =     0.00002235    0.03782284    0.00401678
     atom   35 type  2   force =    -0.00000144    0.03583997    0.00768194
     atom   36 type  1   force =     0.00001545    0.00056973    0.06524768
     atom   37 type  1   force =    -0.00001077    0.00226949   -0.01098330
     atom   38 type  1   force =     0.00001674   -0.00091103    0.00182560
     atom   39 type  1   force =     0.00005859   -0.00143476    0.10681838
     atom   40 type  1   force =     0.00000085   -0.00039730    0.00775590
     atom   41 type  1   force =    -0.00000103   -0.00032224    0.00575519
     atom   42 type  1   force =     0.06733182   -0.00097260   -0.02905815
     atom   43 type  1   force =     0.00312113   -0.02830569    0.00237323
     atom   44 type  1   force =     0.00713098   -0.02152710    0.00452199
     atom   45 type  2   force =    -0.00006754   -0.00850605   -0.18087037
     atom   46 type  2   force =    -0.00000409    0.01745471   -0.00234532
     atom   47 type  2   force =    -0.00001555    0.02046247   -0.00638246
     atom   48 type  1   force =    -0.06742786   -0.00142009   -0.02901353
     atom   49 type  1   force =    -0.00308996   -0.02830417    0.00237018
     atom   50 type  1   force =    -0.00708161   -0.02149525    0.00452025
     atom   51 type  2   force =     0.00012281   -0.00305002    0.06676873
     atom   52 type  2   force =     0.00000529    0.03509845    0.00727279
     atom   53 type  2   force =    -0.00005420    0.02411982    0.00302597
     atom   54 type  3   force =     0.00012736   -0.00018549    0.00058388
     atom   55 type  4   force =    -0.00000081   -0.00012442    0.00094928
     atom   56 type  3   force =    -0.00003444    0.00070321    0.00035303
     atom   57 type  3   force =    -0.00001389    0.00052120    0.00080030
     atom   58 type  4   force =     0.00549070   -0.00459056   -0.00324552
     atom   59 type  3   force =     0.00116639   -0.00065076   -0.00049633
     atom   60 type  3   force =    -0.00644765    0.00632647    0.00172577
     atom   61 type  3   force =    -0.00027228    0.00109580   -0.00015234

     Total force =     0.461767     Total SCF correction =     0.000413
  @ DRIVER MODE: Message from server: STATUS
  @ DRIVER MODE: Message from server: GETFORCE
  @ DRIVER MODE: Returning v,forces,stress,ensemble

     Writing output data file ./calc.save/
  @ DRIVER MODE: Message from server: EXIT
  @ DRIVE MODE: Exiting

     General routines

     Parallel routines

   This run was terminated on:   7:45:27  19Oct2021

   JOB DONE.