     Program PWSCF v.6.7GPU starts on 22Sep2021 at 21: 4: 8

     R & G space division:  proc/nbgrp/npool/nimage =      10
     Reading input from /storage/home/hcoda1/3/ntian30/research/carbon/CxH_vib/H2O_calc/ads_slab/CH3OHO_a/out_0015/pw.inp
Warning: card &CELL ignored
Warning: card   CELL_DYNAMICS='IPI', ignored
Warning: card / ignored

     Current dimensions of program PWSCF are:
     Max number of different atomic species (ntypx) = 10
     Max number of k-points (npk) =  40000
     Max angular momentum in pseudopotentials (lmaxx) =  3
     Presently no symmetry can be used with electric field

     Message from routine cell_base_init:
     DEPRECATED: use true lattice parameter, not A to a.u. conversion factor

     IMPORTANT: XC functional enforced from input :
     Exchange-correlation= BEEF-VDW
                           (   1   4  43  14   2   0   0)
     Any further DFT definition will be discarded
     Please, verify this is what you really want

  @ DRIVER MODE: Connecting to
 qe_1139763_2937320.sched-torque.pace.gatech.eduknd2e9bb_scratch
  using UNIX socket
  @ DRIVER MODE: Message from server: STATUS
  @ DRIVER MODE: Message from server: INIT
  @ DRIVER MODE: Receiving replica           0          -1
  @ DRIVER MODE: Receiving encoded integer          25
  @ DRIVER MODE:  SCF:  T  FORCE:  T  STRESS:  F  VC:  F  ENSEMBLE:  F
  @ DRIVER MODE:  SCF:  T  FORCE:  T  STRESS:  F  VC:  F  ENSEMBLE:  F

     Using Slab Decomposition

     bravais-lattice index     =            0
     lattice parameter (alat)  =       1.8897  a.u.
     unit-cell volume          =    6658.9804 (a.u.)^3
     number of atoms/cell      =           54
     number of atomic types    =            4
     number of electrons       =       398.00
     number of Kohn-Sham states=          209
     kinetic-energy cutoff     =      29.3995  Ry
     charge density cutoff     =     293.9946  Ry
     scf convergence threshold =      7.3E-08
     mixing beta               =       0.0500
     number of iterations used =            8  plain     mixing
     Exchange-correlation= BEEF-VDW
                           (   1   4  43  14   2   0   0)

     celldm(1)=   1.889726  celldm(2)=   0.000000  celldm(3)=   0.000000
     celldm(4)=   0.000000  celldm(5)=   0.000000  celldm(6)=   0.000000

     crystal axes: (cart. coord. in units of alat)
               a(1) = (   6.579727   0.000000   0.000000 )
               a(2) = (  -0.000775   5.961596   0.000000 )
               a(3) = (   0.000000   0.000000  25.155947 )

     reciprocal axes: (cart. coord. in units 2 pi/alat)
               b(1) = (  0.151982  0.000020  0.000000 )
               b(2) = (  0.000000  0.167740  0.000000 )
               b(3) = (  0.000000  0.000000  0.039752 )

     PseudoPot. # 1 for Ti read from file:
     /storage/coda1/p-amedford6/0/shared/rich_project_chbe-medford/medford-share/data/pseudos_module/espresso/nninc/pbe/van/Ti.UPF
     MD5 check sum: 8e4df49b7f0d34bbd5052bf3f5ea0213
     Pseudo is Ultrasoft, Zval = 12.0
     Generated by new atomic code, or converted to UPF format
     Using radial grid of  851 points,  6 beta functions with:
                l(1) =   0
                l(2) =   0
                l(3) =   1
                l(4) =   1
                l(5) =   2
                l(6) =   2
     Q(r) pseudized with  8 coefficients,  rinner =    1.000   1.000   1.000
                                                       1.000   1.000

     PseudoPot. # 2 for O  read from file:
     /storage/coda1/p-amedford6/0/shared/rich_project_chbe-medford/medford-share/data/pseudos_module/espresso/nninc/pbe/van/O.UPF
     MD5 check sum: 78c19812648e8988a0fe644b0f25305e
     Pseudo is Ultrasoft, Zval =  6.0
     Generated by new atomic code, or converted to UPF format
     Using radial grid of  737 points,  4 beta functions with:
                l(1) =   0
                l(2) =   0
                l(3) =   1
                l(4) =   1
     Q(r) pseudized with  8 coefficients,  rinner =    0.800   0.800   0.800

     PseudoPot. # 3 for C  read from file:
     /storage/coda1/p-amedford6/0/shared/rich_project_chbe-medford/medford-share/data/pseudos_module/espresso/nninc/pbe/van/C.UPF
     MD5 check sum: 1a69bf6b8db32088f5b2163dbdb77a27
     Pseudo is Ultrasoft, Zval =  4.0
     Generated by new atomic code, or converted to UPF format
     Using radial grid of  721 points,  4 beta functions with:
                l(1) =   0
                l(2) =   0
                l(3) =   1
                l(4) =   1
     Q(r) pseudized with  8 coefficients,  rinner =    0.800   0.800   0.800

     PseudoPot. # 4 for H  read from file:
     /storage/coda1/p-amedford6/0/shared/rich_project_chbe-medford/medford-share/data/pseudos_module/espresso/nninc/pbe/van/H.UPF
     MD5 check sum: b5ee9d7bfd3a09ee7748110bda690ff7
     Pseudo is Ultrasoft, Zval =  1.0
     Generated by new atomic code, or converted to UPF format
     Using radial grid of  615 points,  1 beta functions with:
                l(1) =   0
     Q(r) pseudized with  8 coefficients,  rinner =    0.800

     atomic species   valence    mass     pseudopotential
        Ti1           12.00    47.86700     Ti( 1.00)
        O1             6.00    15.99900     O ( 1.00)
        C1             4.00    12.01100     C ( 1.00)
        H1             1.00     1.00800     H ( 1.00)

     No symmetry found

   Cartesian axes

     site n.     atom                  positions (alat units)
         1           Ti1 tau(   1) = (   0.0004258   2.9801865   6.0000000  )
         2           Ti1 tau(   2) = (   3.2906075   1.4906267   6.0002472  )
         3           O1  tau(   3) = (   0.0006271   0.0005054   7.9858123  )
         4           O1  tau(   4) = (   3.2906025   0.0005020   7.3038282  )
         5           O1  tau(   5) = (   4.5942328   1.4918067   9.2879030  )
         6           O1  tau(   6) = (   1.9868534   1.4903216   9.2879459  )
         7           Ti1 tau(   7) = (   3.2957662   3.1068914   9.2181075  )
         8           Ti1 tau(   8) = (   0.0157633   1.6119101   9.3474628  )
         9           O1  tau(   9) = (   3.3075722   0.0245345  11.3221904  )
        10           O1  tau(  10) = (   0.0080709   0.0223756  10.5933645  )
        11           O1  tau(  11) = (   1.2996580   1.5014007  12.6293879  )
        12           O1  tau(  12) = (   5.3220639   1.4985920  12.6296061  )
        13           Ti1 tau(  13) = (   0.0338638   3.0995910  12.8036746  )
        14           Ti1 tau(  14) = (   3.3037623   1.5692239  12.4279754  )
        15           O1  tau(  15) = (   0.0261714   0.0103614  14.6808343  )
        16           O1  tau(  16) = (   3.3158872   5.9294016  13.9235834  )
        17           O1  tau(  17) = (   4.5845781   1.5190771  16.0542726  )
        18           O1  tau(  18) = (   2.0543804   1.5366111  16.0227792  )
        19           Ti1 tau(  19) = (   3.3281905   2.9581697  15.6655982  )
        20           Ti1 tau(  20) = (   0.0947853   1.4300879  15.9722461  )
        21           O1  tau(  21) = (   3.2904802   0.0005063   4.7018136  )
        22           O1  tau(  22) = (   0.0746355   0.0166105  17.2029963  )
        23           O1  tau(  23) = (   1.3043587   1.4918075   6.0039043  )
        24           O1  tau(  24) = (   5.2767064   1.4903225   6.0039473  )
        25           Ti1 tau(  25) = (   0.0000382   5.9609847   6.0000000  )
        26           Ti1 tau(  26) = (   3.2902200   4.4714249   6.0002472  )
        27           O1  tau(  27) = (   0.0002396   2.9813036   7.9858123  )
        28           O1  tau(  28) = (   3.2902150   2.9813002   7.3038282  )
        29           O1  tau(  29) = (   4.5938453   4.4726049   9.2879030  )
        30           O1  tau(  30) = (   1.9864658   4.4711199   9.2879459  )
        31           Ti1 tau(  31) = (   3.3049890   0.1224192   9.1815931  )
        32           Ti1 tau(  32) = (   0.0115838   4.5621182   9.3618056  )
        33           O1  tau(  33) = (   3.3056077   2.9569042  11.2892548  )
        34           O1  tau(  34) = (   0.0073068   3.0072357  10.5542745  )
        35           O1  tau(  35) = (   1.3032543   4.4799722  12.6367586  )
        36           O1  tau(  36) = (   5.3275811   4.4862388  12.6364370  )
        37           Ti1 tau(  37) = (   0.0060541   0.1153383  12.6179110  )
        38           Ti1 tau(  38) = (   3.3135592   4.6638430  12.6816895  )
        39           O1  tau(  39) = (   0.0323206   2.9919573  14.6814448  )
        40           O1  tau(  40) = (   3.3290587   2.9835885  13.8850256  )
        41           O1  tau(  41) = (   4.5809508   4.4372854  16.0867525  )
        42           O1  tau(  42) = (   2.0525355   4.4234120  16.0327814  )
        43           Ti1 tau(  43) = (   3.4083040   5.9395600  16.2643712  )
        44           Ti1 tau(  44) = (   0.1061243   4.5568233  16.0547075  )
        45           O1  tau(  45) = (   3.2900926   2.9813045   4.7018136  )
        46           O1  tau(  46) = (   1.3039711   4.4726057   6.0039043  )
        47           O1  tau(  47) = (   5.2763189   4.4711207   6.0039473  )
        48           C1  tau(  48) = (   6.0247352   2.9430639  18.6208924  )
        49           O1  tau(  49) = (   0.0129984   2.9830681  17.3098104  )
        50           H1  tau(  50) = (   4.9427965   2.7912130  18.5644550  )
        51           H1  tau(  51) = (   6.4567215   2.1053551  19.1708771  )
        52           H1  tau(  52) = (   6.2362830   3.8810018  19.1352789  )
        53           O1  tau(  53) = (   3.2195589   0.0134334  18.0862892  )
        54           H1  tau(  54) = (   2.3313237   0.1261415  18.4590370  )

     number of k points=    10  Fermi-Dirac smearing, width (Ry)=  0.0073
                       cart. coord. in units 2pi/alat
        k(    1) = (   0.0000000   0.0000000   0.0000000), wk =   0.1250000
        k(    2) = (   0.0000000   0.0419351   0.0000000), wk =   0.2500000
        k(    3) = (   0.0000000  -0.0838702   0.0000000), wk =   0.1250000
        k(    4) = (   0.0379955   0.0000049   0.0000000), wk =   0.2500000
        k(    5) = (   0.0379955   0.0419400   0.0000000), wk =   0.2500000
        k(    6) = (   0.0379955  -0.0838652   0.0000000), wk =   0.2500000
        k(    7) = (   0.0379955  -0.0419301   0.0000000), wk =   0.2500000
        k(    8) = (  -0.0759910  -0.0000099   0.0000000), wk =   0.1250000
        k(    9) = (  -0.0759910   0.0419252   0.0000000), wk =   0.2500000
        k(   10) = (  -0.0759910  -0.0838800   0.0000000), wk =   0.1250000

     Initial potential from superposition of free atoms

     starting charge  381.99917, renormalised to  398.00000

     negative rho (up, down):  1.724E-02 0.000E+00

     %%%%%%%%%%%%%%%%%%%%%%%%%%%%%%%%%%%%%%%%%%%%%%%%%%%%%%%%%%%%%%%%%%%%%%%%
     %                                                                      %
     % You are using vdW-DF, which was implemented by the Thonhauser group. %
     % Please cite the following two papers that made this development      %
     % possible and the two reviews that describe the various versions:     %
     %                                                                      %
     %   T. Thonhauser et al., PRL 115, 136402 (2015).                      %
     %   T. Thonhauser et al., PRB 76, 125112 (2007).                       %
     %   K. Berland et al., Rep. Prog. Phys. 78, 066501 (2015).             %
     %   D.C. Langreth et al., J. Phys.: Condens. Matter 21, 084203 (2009). %
     %                                                                      %
     %                                                                      %
     % If you are calculating the stress with vdW-DF, please also cite:     %
     %                                                                      %
     %   R. Sabatini et al., J. Phys.: Condens. Matter 24, 424209 (2012).   %
     %                                                                      %
     %%%%%%%%%%%%%%%%%%%%%%%%%%%%%%%%%%%%%%%%%%%%%%%%%%%%%%%%%%%%%%%%%%%%%%%%

     Adding external electric field

     Computed dipole along edir(3) :
        Dipole               -8.3452 Ry au,        -21.2113 Debye
        Dipole field         -0.0157 Ry au,

        Potential amp.        1.4599 Ry
        Total length         46.3494 bohr

     Starting wfcs are  300 atomic wfcs
  @ DRIVER MODE: Message from server: STATUS
  @ DRIVER MODE: Message from server: POSDATA
  @ DRIVER MODE: Reading and sharing cell
  @ DRIVER MODE: Reading and sharing positions
  @ DRIVER MODE: Received positions

     Self-consistent Calculation

     iteration #  1     ecut=    29.40 Ry     beta= 0.05
     Davidson diagonalization with overlap
     c_bands:  1 eigenvalues not converged
     c_bands:  1 eigenvalues not converged
     c_bands:  1 eigenvalues not converged
     c_bands:  1 eigenvalues not converged
     c_bands:  1 eigenvalues not converged
     ethr =  1.00E-05,  avg # of iterations = 18.4

[...]

     total energy              =   -2613.21007106 Ry
     estimated scf accuracy    <    3888.91761606 Ry

     iteration #  2     ecut=    29.40 Ry     beta= 0.05
     Davidson diagonalization with overlap
     ethr =  1.00E-02,  avg # of iterations = 22.5

[...]

     iteration # 45     ecut=    29.40 Ry     beta= 0.05
     Davidson diagonalization with overlap
     c_bands:  2 eigenvalues not converged
     c_bands:  2 eigenvalues not converged
     c_bands:  1 eigenvalues not converged
     c_bands:  1 eigenvalues not converged
     ethr =  4.07E-07,  avg # of iterations = 12.3

[...]

     total energy              =   -2965.10863417 Ry
     estimated scf accuracy    <       0.00000009 Ry

     iteration # 67     ecut=    29.40 Ry     beta= 0.05
     Davidson diagonalization with overlap
     ethr =  2.35E-11,  avg # of iterations =  4.4

     negative rho (up, down):  1.731E-02 0.000E+00

     Adding external electric field

     Computed dipole along edir(3) :
        Dipole                0.5357 Ry au,          1.3616 Debye
        Dipole field          0.0010 Ry au,

        Potential amp.       -0.0937 Ry
        Total length         46.3494 bohr

     End of self-consistent calculation

          k = 0.0000 0.0000 0.0000 ( 18029 PWs)   bands (ev):

   -56.4419 -56.3951 -55.8698 -55.8382 -55.8284 -55.8168 -55.7733 -55.7359
   -55.7110 -55.6977 -55.6592 -55.6169 -55.6131 -55.4666 -55.0453 -55.0114
   -32.8543 -32.7068 -32.6573 -32.6213 -32.5269 -32.4808 -32.3618 -32.3153
   -32.3089 -32.1940 -32.1567 -32.1338 -32.1316 -32.1111 -32.1057 -32.0692
   -32.0660 -32.0515 -32.0343 -32.0289 -32.0166 -31.9791 -31.9682 -31.9513
   -31.9434 -31.9306 -31.9280 -31.9180 -31.9159 -31.9047 -31.8998 -31.8873
   -31.8628 -31.8613 -31.8557 -31.8224 -31.8109 -31.8100 -31.7810 -31.7223
   -31.6918 -31.6729 -31.4394 -31.3862 -31.3618 -31.2562 -31.1713 -31.0606
   -17.6021 -16.6288 -16.5866 -16.4415 -16.2036 -16.0570 -15.9758 -15.7562
   -15.7536 -15.6344 -15.6232 -15.5884 -15.4506 -15.4381 -15.4309 -15.3756
   -15.3601 -15.3491 -15.3431 -15.3357 -15.3229 -15.2747 -15.2617 -15.2098
   -15.1514 -15.0848 -15.0550 -15.0117 -14.9926 -14.9567 -14.7263 -13.5474
   -13.4391  -9.3476  -4.3285  -4.2472  -4.1216  -4.0389  -3.8813  -3.7796
    -3.7492  -3.6625  -3.5778  -3.4683  -3.2695  -3.1076  -3.0508  -3.0142
    -2.9810  -2.9274  -2.8727  -2.8141  -2.7686  -2.7398  -2.7107  -2.6439
    -2.6273  -2.6164  -2.5883  -2.5801  -2.5443  -2.5113  -2.4998  -2.3686
    -2.3391  -2.3016  -2.2962  -2.2372  -2.2180  -2.1935  -2.1867  -2.1360
    -2.0432  -1.9624  -1.9265  -1.8876  -1.6978  -1.6422  -1.5727  -1.5067
    -1.4282  -1.3811  -1.3614  -1.3382  -1.2681  -1.2401  -1.1286  -1.1064
    -1.0606  -0.9972  -0.9938  -0.9542  -0.8967  -0.8699  -0.8059  -0.7734
    -0.7477  -0.6047  -0.5786  -0.5506  -0.5087  -0.5001  -0.4010  -0.3380
    -0.2889  -0.2691  -0.2215  -0.1875  -0.1494  -0.1015  -0.0839  -0.0571
     0.0315   0.0573   0.0819   0.1263   0.1615   0.1846   0.2033   0.2965
     0.3449   0.3624   0.3785   0.5345   0.5731   0.5894   0.7183   0.7310
     0.9028   0.9714   1.0090   1.1882   1.2346   1.5213   1.5634   2.8598
     3.0180   3.2892   3.4364   3.5046   3.5436   3.5972   3.6146   3.7555
     3.7901

[...]

          k = 0.0380-0.0419 0.0000 ( 17876 PWs)   bands (ev):

[...]

          k =-0.0760-0.0000 0.0000 ( 17886 PWs)   bands (ev):

[...]

          k =-0.0760-0.0839 0.0000 ( 17948 PWs)   bands (ev):

   -56.4348 -56.4021 -55.8679 -55.8326 -55.8274 -55.8128 -55.7783 -55.7397
   -55.7128 -55.6991 -55.6507 -55.6254 -55.6112 -55.4684 -55.0285 -55.0280
   -32.7022 -32.6851 -32.6614 -32.6573 -32.5866 -32.5587 -32.2497 -32.1856
   -32.1591 -32.1274 -32.1046 -32.1007 -32.0901 -32.0756 -32.0680 -32.0536
   -32.0491 -32.0412 -32.0358 -32.0281 -32.0280 -32.0201 -31.9981 -31.9973
   -31.9946 -31.9795 -31.9680 -31.9532 -31.9448 -31.9385 -31.9178 -31.9047
   -31.9011 -31.8882 -31.8749 -31.8604 -31.8600 -31.8260 -31.8153 -31.7961
   -31.7246 -31.6764 -31.3749 -31.3747 -31.2549 -31.2533 -31.2136 -31.2127
   -17.5643 -16.6008 -15.9837 -15.9041 -15.8999 -15.8885 -15.8619 -15.8199
   -15.7425 -15.7357 -15.6646 -15.5979 -15.5644 -15.5193 -15.4968 -15.4853
   -15.4478 -15.4433 -15.3859 -15.3423 -15.3258 -15.3146 -15.2948 -15.2514
   -15.2457 -15.2430 -15.2193 -15.2039 -15.1536 -15.0534 -14.8668 -13.5434
   -13.5422  -9.3478  -4.2588  -4.1697  -3.9732  -3.7367  -3.2160  -3.1400
    -3.0654  -3.0575  -2.9827  -2.9230  -2.9085  -2.8637  -2.8566  -2.8250
    -2.7531  -2.7426  -2.7297  -2.7193  -2.7119  -2.7031  -2.6803  -2.6353
    -2.6221  -2.6149  -2.5988  -2.5904  -2.5787  -2.5751  -2.5482  -2.5093
    -2.4392  -2.3786  -2.2552  -2.2476  -2.2121  -2.1963  -2.1553  -2.1432
    -2.0893  -1.9974  -1.9852  -1.9824  -1.8937  -1.8373  -1.6239  -1.6088
    -1.5920  -1.5253  -1.4531  -1.3864  -1.3628  -1.3397  -1.3072  -1.2843
    -1.2352  -1.1859  -1.1513  -1.1149  -1.0987  -1.0600  -1.0076  -0.9593
    -0.9068  -0.9027  -0.8597  -0.8123  -0.7814  -0.7015  -0.6956  -0.6722
    -0.6489  -0.6097  -0.5244  -0.4724  -0.4298  -0.3351  -0.2934  -0.2602
    -0.1203  -0.0609  -0.0241   0.0513   0.0954   0.1959   0.2205   0.2973
     0.3097   0.3389   0.3632   0.4386   0.5056   0.5617   0.6038   0.6474
     0.6590   0.7083   0.7717   1.3654   1.3658   1.3732   1.3809   3.4051
     3.4299   3.4376   3.4675   3.6940   3.7116   3.7837   3.8131   3.8305
     3.8851

     the Fermi energy is     2.2695 ev

!    total energy              =   -2965.10866300 Ry
     estimated scf accuracy    <       0.00000006 Ry
     smearing contrib. (-TS)   =      -0.00015939 Ry
     internal energy E=F+TS    =   -2965.10850361 Ry

     The total energy is F=E-TS. E is the sum of the following terms:
     one-electron contribution =  -24222.97976712 Ry
     hartree contribution      =   12200.79128844 Ry
     xc contribution           =    -490.02771240 Ry
     ewald contribution        =    9547.10714595 Ry
     electric field correction =       0.00054152 Ry

     convergence has been achieved in  67 iterations

     Forces acting on atoms (cartesian axes, Ry/au):

     atom    1 type  1   force =    -0.00002388    0.00003186    0.13240963
     atom    2 type  1   force =    -0.00019259    0.00778679   -0.15738991
     atom    3 type  2   force =     0.00008417   -0.00480403   -0.05218081
     atom    4 type  2   force =     0.00035875    0.00109079    0.04043429
     atom    5 type  2   force =    -0.00610808   -0.00278509   -0.00018997
     atom    6 type  2   force =     0.00839457   -0.00338430    0.00078889
     atom    7 type  1   force =    -0.00002908   -0.00015311   -0.00001581
     atom    8 type  1   force =     0.00021266   -0.00057141    0.00040477
     atom    9 type  2   force =    -0.00004558    0.00020811   -0.00004486
     atom   10 type  2   force =    -0.00014502   -0.00037923   -0.00016767
     atom   11 type  2   force =     0.00042429    0.00026707   -0.00018398
     atom   12 type  2   force =    -0.00025863    0.00016582   -0.00004824
     atom   13 type  1   force =    -0.00068779    0.00048702   -0.00029228
     atom   14 type  1   force =     0.00007276   -0.00032428   -0.00022153
     atom   15 type  2   force =    -0.00020716    0.00002875   -0.00076266
     atom   16 type  2   force =    -0.00033166    0.00011839    0.00006009
     atom   17 type  2   force =     0.00009979   -0.00000554    0.00002948
     atom   18 type  2   force =    -0.00065469    0.00017855   -0.00016391
     atom   19 type  1   force =     0.00004614   -0.00037660   -0.00013247
     atom   20 type  1   force =    -0.00004169   -0.00019898    0.00015465
     atom   21 type  2   force =    -0.00002570    0.00002078    0.09911220
     atom   22 type  2   force =     0.00000532    0.00012921    0.00018069
     atom   23 type  2   force =    -0.08090110    0.00049144   -0.03408256
     atom   24 type  2   force =     0.08070014    0.00095773   -0.03414654
     atom   25 type  1   force =    -0.00001855   -0.00027115    0.14102254
     atom   26 type  1   force =    -0.00012987   -0.00647411   -0.15703388
     atom   27 type  2   force =     0.00016207    0.00109335   -0.05218175
     atom   28 type  2   force =     0.00018708    0.00033378    0.04176477
     atom   29 type  2   force =    -0.00752209    0.00512453    0.00201908
     atom   30 type  2   force =     0.00859286    0.00383198    0.00272232
     atom   31 type  1   force =    -0.00002654    0.00016381    0.00001149
     atom   32 type  1   force =     0.00030485   -0.00006524   -0.00051034
     atom   33 type  2   force =    -0.00005963    0.00039604    0.00020591
     atom   34 type  2   force =    -0.00011971    0.00019693    0.00038542
     atom   35 type  2   force =    -0.00051033   -0.00034533   -0.00006583
     atom   36 type  2   force =     0.00049455   -0.00043676    0.00016640
     atom   37 type  1   force =    -0.00056154   -0.00029374   -0.00010928
     atom   38 type  1   force =     0.00001086   -0.00001795   -0.00044283
     atom   39 type  2   force =    -0.00001324   -0.00014479   -0.00021993
     atom   40 type  2   force =    -0.00014019   -0.00014871   -0.00034495
     atom   41 type  2   force =    -0.00008681    0.00015359   -0.00042490
     atom   42 type  2   force =    -0.00004200    0.00033901   -0.00019528
     atom   43 type  1   force =    -0.00021405    0.00030193   -0.00011094
     atom   44 type  1   force =    -0.00001808   -0.00045763    0.00027861
     atom   45 type  2   force =    -0.00003065    0.00012362    0.09866824
     atom   46 type  2   force =    -0.08085995   -0.00164743   -0.03408160
     atom   47 type  2   force =     0.08066726   -0.00117528   -0.03414846
     atom   48 type  3   force =    -0.00137844   -0.00168468   -0.00025886
     atom   49 type  2   force =     0.00005946    0.00035647   -0.00073937
     atom   50 type  4   force =     0.00094030    0.00204562    0.00004427
     atom   51 type  4   force =     0.00105530    0.00007883    0.00026676
     atom   52 type  4   force =    -0.00109521    0.00030774    0.00014179
     atom   53 type  2   force =     0.00037803   -0.00025544   -0.00125253
     atom   54 type  4   force =    -0.00077166   -0.00040869    0.00087161

     Total force =     0.382701     Total SCF correction =     0.000527
  @ DRIVER MODE: Message from server: STATUS
  @ DRIVER MODE: Message from server: GETFORCE
  @ DRIVER MODE: Returning v,forces,stress,ensemble

     Writing output data file ./calc.save/
  @ DRIVER MODE: Message from server: EXIT
  @ DRIVE MODE: Exiting

     General routines

     Parallel routines

   This run was terminated on:  21:22:58  22Sep2021

   JOB DONE.