     Program PWSCF v.6.7GPU starts on 23Sep2021 at 14:40:28

     R & G space division:  proc/nbgrp/npool/nimage =       8
     Reading input from /storage/home/hcoda1/3/ntian30/research/carbon/CxH_vib/H2O_calc/ads_slab/CH3NHNH2HO_a/out_0009/pw.inp
Warning: card &CELL ignored
Warning: card   CELL_DYNAMICS='IPI', ignored
Warning: card / ignored

     Current dimensions of program PWSCF are:
     Max number of different atomic species (ntypx) = 10
     Max number of k-points (npk) =  40000
     Max angular momentum in pseudopotentials (lmaxx) =  3
     Presently no symmetry can be used with electric field

     Message from routine cell_base_init:
     DEPRECATED: use true lattice parameter, not A to a.u. conversion factor

     IMPORTANT: XC functional enforced from input :
     Exchange-correlation= BEEF-VDW
                           (   1   4  43  14   2   0   0)
     Any further DFT definition will be discarded
     Please, verify this is what you really want

  @ DRIVER MODE: Connecting to
 qe_1139763_2947307.sched-torque.pace.gatech.eduks3zim9t_scratch
  using UNIX socket
  @ DRIVER MODE: Message from server: STATUS
  @ DRIVER MODE: Message from server: INIT
  @ DRIVER MODE: Receiving replica           0          -1
  @ DRIVER MODE: Receiving encoded integer          25
  @ DRIVER MODE:  SCF:  T  FORCE:  T  STRESS:  F  VC:  F  ENSEMBLE:  F
  @ DRIVER MODE:  SCF:  T  FORCE:  T  STRESS:  F  VC:  F  ENSEMBLE:  F

     Using Slab Decomposition

     bravais-lattice index     =            0
     lattice parameter (alat)  =       1.8897  a.u.
     unit-cell volume          =    6658.9804 (a.u.)^3
     number of atoms/cell      =           58
     number of atomic types    =            5
     number of electrons       =       405.00
     number of Kohn-Sham states=          212
     kinetic-energy cutoff     =      29.3995  Ry
     charge density cutoff     =     293.9946  Ry
     scf convergence threshold =      7.3E-08
     mixing beta               =       0.0500
     number of iterations used =            8  plain     mixing
     Exchange-correlation= BEEF-VDW
                           (   1   4  43  14   2   0   0)

     celldm(1)=   1.889726  celldm(2)=   0.000000  celldm(3)=   0.000000
     celldm(4)=   0.000000  celldm(5)=   0.000000  celldm(6)=   0.000000

     crystal axes: (cart. coord. in units of alat)
               a(1) = (   6.579727   0.000000   0.000000 )
               a(2) = (  -0.000775   5.961596   0.000000 )
               a(3) = (   0.000000   0.000000  25.155947 )

     reciprocal axes: (cart. coord. in units 2 pi/alat)
               b(1) = (  0.151982  0.000020  0.000000 )
               b(2) = (  0.000000  0.167740  0.000000 )
               b(3) = (  0.000000  0.000000  0.039752 )

     PseudoPot. # 1 for Ti read from file:
     /storage/coda1/p-amedford6/0/shared/rich_project_chbe-medford/medford-share/data/pseudos_module/espresso/nninc/pbe/van/Ti.UPF
     MD5 check sum: 8e4df49b7f0d34bbd5052bf3f5ea0213
     Pseudo is Ultrasoft, Zval = 12.0
     Generated by new atomic code, or converted to UPF format
     Using radial grid of  851 points,  6 beta functions with:
                l(1) =   0
                l(2) =   0
                l(3) =   1
                l(4) =   1
                l(5) =   2
                l(6) =   2
     Q(r) pseudized with  8 coefficients,  rinner =    1.000   1.000   1.000
                                                       1.000   1.000

     PseudoPot. # 2 for O  read from file:
     /storage/coda1/p-amedford6/0/shared/rich_project_chbe-medford/medford-share/data/pseudos_module/espresso/nninc/pbe/van/O.UPF
     MD5 check sum: 78c19812648e8988a0fe644b0f25305e
     Pseudo is Ultrasoft, Zval =  6.0
     Generated by new atomic code, or converted to UPF format
     Using radial grid of  737 points,  4 beta functions with:
                l(1) =   0
                l(2) =   0
                l(3) =   1
                l(4) =   1
     Q(r) pseudized with  8 coefficients,  rinner =    0.800   0.800   0.800

     PseudoPot. # 3 for N  read from file:
     /storage/coda1/p-amedford6/0/shared/rich_project_chbe-medford/medford-share/data/pseudos_module/espresso/nninc/pbe/van/N.UPF
     MD5 check sum: 90d10febe142ad51ac9d5be1deb811c4
     Pseudo is Ultrasoft, Zval =  5.0
     Generated by new atomic code, or converted to UPF format
     Using radial grid of  729 points,  4 beta functions with:
                l(1) =   0
                l(2) =   0
                l(3) =   1
                l(4) =   1
     Q(r) pseudized with  8 coefficients,  rinner =    0.800   0.800   0.800

     PseudoPot. # 4 for C  read from file:
     /storage/coda1/p-amedford6/0/shared/rich_project_chbe-medford/medford-share/data/pseudos_module/espresso/nninc/pbe/van/C.UPF
     MD5 check sum: 1a69bf6b8db32088f5b2163dbdb77a27
     Pseudo is Ultrasoft, Zval =  4.0
     Generated by new atomic code, or converted to UPF format
     Using radial grid of  721 points,  4 beta functions with:
                l(1) =   0
                l(2) =   0
                l(3) =   1
                l(4) =   1
     Q(r) pseudized with  8 coefficients,  rinner =    0.800   0.800   0.800

     PseudoPot. # 5 for H  read from file:
     /storage/coda1/p-amedford6/0/shared/rich_project_chbe-medford/medford-share/data/pseudos_module/espresso/nninc/pbe/van/H.UPF
     MD5 check sum: b5ee9d7bfd3a09ee7748110bda690ff7
     Pseudo is Ultrasoft, Zval =  1.0
     Generated by new atomic code, or converted to UPF format
     Using radial grid of  615 points,  1 beta functions with:
                l(1) =   0
     Q(r) pseudized with  8 coefficients,  rinner =    0.800

     atomic species   valence    mass     pseudopotential
        Ti1           12.00    47.86700     Ti( 1.00)
        O1             6.00    15.99900     O ( 1.00)
        N1             5.00    14.00700     N ( 1.00)
        C1             4.00    12.01100     C ( 1.00)
        H1             1.00     1.00800     H ( 1.00)

     No symmetry found

   Cartesian axes

     site n.     atom                  positions (alat units)
         1           Ti1 tau(   1) = (   0.0004258   2.9801865   6.0000000  )
         2           Ti1 tau(   2) = (   3.2906075   1.4906267   6.0002472  )
         3           O1  tau(   3) = (   0.0006271   0.0005054   7.9858123  )
         4           O1  tau(   4) = (   3.2906025   0.0005020   7.3038282  )
         5           O1  tau(   5) = (   4.5942328   1.4918067   9.2879030  )
         6           O1  tau(   6) = (   1.9868534   1.4903216   9.2879459  )
         7           Ti1 tau(   7) = (   3.2907910   2.8959150   9.1758416  )
         8           Ti1 tau(   8) = (   0.0015273   1.4827037   9.2680791  )
         9           O1  tau(   9) = (   3.3003128   0.0493987  11.3625472  )
        10           O1  tau(  10) = (   0.0116148   5.9584955  10.6183126  )
        11           O1  tau(  11) = (   1.2863924   1.5188706  12.6959087  )
        12           O1  tau(  12) = (   5.3173592   1.5183023  12.6957539  )
        13           Ti1 tau(  13) = (   0.0130489   2.9571150  12.5182267  )
        14           Ti1 tau(  14) = (   3.3124343   1.5987737  12.4587140  )
        15           O1  tau(  15) = (   0.0455642   5.8537743  14.6515032  )
        16           O1  tau(  16) = (   3.3135256   5.8999501  14.0036581  )
        17           O1  tau(  17) = (   4.5824137   1.5787328  16.0473457  )
        18           O1  tau(  18) = (   2.0456054   1.5356268  16.0652349  )
        19           Ti1 tau(  19) = (   3.2855744   2.9948502  15.7047272  )
        20           Ti1 tau(  20) = (   0.0729980   1.3194477  15.7501807  )
        21           O1  tau(  21) = (   3.2904802   0.0005063   4.7018136  )
        22           O1  tau(  22) = (   6.5643345   0.1786488  17.1561759  )
        23           O1  tau(  23) = (   1.3043587   1.4918075   6.0039043  )
        24           O1  tau(  24) = (   5.2767064   1.4903225   6.0039473  )
        25           Ti1 tau(  25) = (   0.0000382   5.9609847   6.0000000  )
        26           Ti1 tau(  26) = (   3.2902200   4.4714249   6.0002472  )
        27           O1  tau(  27) = (   0.0002396   2.9813036   7.9858123  )
        28           O1  tau(  28) = (   3.2902150   2.9813002   7.3038282  )
        29           O1  tau(  29) = (   4.5938453   4.4726049   9.2879030  )
        30           O1  tau(  30) = (   1.9864658   4.4711199   9.2879459  )
        31           Ti1 tau(  31) = (   3.2891106   5.8743827   9.1763621  )
        32           Ti1 tau(  32) = (   0.0006254   4.4649316   9.2693709  )
        33           O1  tau(  33) = (   3.3044115   2.9646987  11.3227374  )
        34           O1  tau(  34) = (   0.0092240   2.9805883  10.6323155  )
        35           O1  tau(  35) = (   1.2889249   4.4812606  12.6373974  )
        36           O1  tau(  36) = (   5.3198440   4.4849614  12.6453916  )
        37           Ti1 tau(  37) = (   0.0274371   5.9167426  12.5032498  )
        38           Ti1 tau(  38) = (   3.3124303   4.6827448  12.7121475  )
        39           O1  tau(  39) = (   0.0064664   3.0605765  14.9143048  )
        40           O1  tau(  40) = (   3.2921723   3.0190953  13.9337278  )
        41           O1  tau(  41) = (   4.5343043   4.4484976  16.2223827  )
        42           O1  tau(  42) = (   2.0055671   4.4324605  16.2273083  )
        43           Ti1 tau(  43) = (   3.3963104   0.0511244  16.3072024  )
        44           Ti1 tau(  44) = (   0.1011521   4.5293608  16.0606835  )
        45           O1  tau(  45) = (   3.2900926   2.9813045   4.7018136  )
        46           O1  tau(  46) = (   1.3039711   4.4726057   6.0039043  )
        47           O1  tau(  47) = (   5.2763189   4.4711207   6.0039473  )
        48           N1  tau(  48) = (   0.7799224   3.1460235  19.0808133  )
        49           N1  tau(  49) = (   6.3029119   3.3042126  18.0946246  )
        50           C1  tau(  50) = (   0.9829876   4.3811599  19.8296872  )
        51           H1  tau(  51) = (   0.0599524   4.7630682  20.2995108  )
        52           H1  tau(  52) = (   1.7087173   4.1728717  20.6153690  )
        53           H1  tau(  53) = (   1.3778604   5.1510331  19.1745456  )
        54           H1  tau(  54) = (   0.4845774   2.4057476  19.7140978  )
        55           H1  tau(  55) = (   5.5451363   3.8924421  18.4761980  )
        56           H1  tau(  56) = (   5.8791802   2.3931312  17.9634808  )
        57           O1  tau(  57) = (   3.3895457   0.1916509  18.1699706  )
        58           H1  tau(  58) = (   3.8128180   5.4341384  18.6581559  )

     number of k points=    10  Fermi-Dirac smearing, width (Ry)=  0.0073
                       cart. coord. in units 2pi/alat
        k(    1) = (   0.0000000   0.0000000   0.0000000), wk =   0.1250000
        k(    2) = (   0.0000000   0.0419351   0.0000000), wk =   0.2500000
        k(    3) = (   0.0000000  -0.0838702   0.0000000), wk =   0.1250000
        k(    4) = (   0.0379955   0.0000049   0.0000000), wk =   0.2500000
        k(    5) = (   0.0379955   0.0419400   0.0000000), wk =   0.2500000
        k(    6) = (   0.0379955  -0.0838652   0.0000000), wk =   0.2500000
        k(    7) = (   0.0379955  -0.0419301   0.0000000), wk =   0.2500000
        k(    8) = (  -0.0759910  -0.0000099   0.0000000), wk =   0.1250000
        k(    9) = (  -0.0759910   0.0419252   0.0000000), wk =   0.2500000
        k(   10) = (  -0.0759910  -0.0838800   0.0000000), wk =   0.1250000

     Initial potential from superposition of free atoms

     starting charge  388.99913, renormalised to  405.00000

     negative rho (up, down):  1.368E-02 0.000E+00

     %%%%%%%%%%%%%%%%%%%%%%%%%%%%%%%%%%%%%%%%%%%%%%%%%%%%%%%%%%%%%%%%%%%%%%%%
     %                                                                      %
     % You are using vdW-DF, which was implemented by the Thonhauser group. %
     % Please cite the following two papers that made this development      %
     % possible and the two reviews that describe the various versions:     %
     %                                                                      %
     %   T. Thonhauser et al., PRL 115, 136402 (2015).                      %
     %   T. Thonhauser et al., PRB 76, 125112 (2007).                       %
     %   K. Berland et al., Rep. Prog. Phys. 78, 066501 (2015).             %
     %   D.C. Langreth et al., J. Phys.: Condens. Matter 21, 084203 (2009). %
     %                                                                      %
     %                                                                      %
     % If you are calculating the stress with vdW-DF, please also cite:     %
     %                                                                      %
     %   R. Sabatini et al., J. Phys.: Condens. Matter 24, 424209 (2012).   %
     %                                                                      %
     %%%%%%%%%%%%%%%%%%%%%%%%%%%%%%%%%%%%%%%%%%%%%%%%%%%%%%%%%%%%%%%%%%%%%%%%

     Adding external electric field

     Computed dipole along edir(3) :
        Dipole              -14.8124 Ry au,        -37.6493 Debye
        Dipole field         -0.0280 Ry au,

        Potential amp.        2.5912 Ry
        Total length         46.3494 bohr

     Starting wfcs are  307 atomic wfcs
  @ DRIVER MODE: Message from server: STATUS
  @ DRIVER MODE: Message from server: POSDATA
  @ DRIVER MODE: Reading and sharing cell
  @ DRIVER MODE: Reading and sharing positions
  @ DRIVER MODE: Received positions

     Self-consistent Calculation

     iteration #  1     ecut=    29.40 Ry     beta= 0.05
     Davidson diagonalization with overlap
     c_bands:  5 eigenvalues not converged
     c_bands:  4 eigenvalues not converged
     c_bands:  5 eigenvalues not converged
     c_bands:  2 eigenvalues not converged
     c_bands:  3 eigenvalues not converged
     c_bands:  4 eigenvalues not converged
     c_bands:  2 eigenvalues not converged
     ethr =  1.00E-05,  avg # of iterations = 22.9

[...]

     total energy              =   -2202.97439507 Ry
     estimated scf accuracy    <    8803.86692674 Ry

     iteration #  2     ecut=    29.40 Ry     beta= 0.05
     Davidson diagonalization with overlap
     ethr =  1.00E-02,  avg # of iterations = 30.1

[...]

     iteration # 54     ecut=    29.40 Ry     beta= 0.05
     Davidson diagonalization with overlap
     c_bands:  1 eigenvalues not converged
     ethr =  4.72E-07,  avg # of iterations =  6.4

[...]

     total energy              =   -2976.46384333 Ry
     estimated scf accuracy    <       0.00000013 Ry

     iteration # 75     ecut=    29.40 Ry     beta= 0.05
     Davidson diagonalization with overlap
     ethr =  3.17E-11,  avg # of iterations =  9.5

     negative rho (up, down):  1.441E-02 0.000E+00

     Adding external electric field

     Computed dipole along edir(3) :
        Dipole                1.2265 Ry au,          3.1174 Debye
        Dipole field          0.0023 Ry au,

        Potential amp.       -0.2146 Ry
        Total length         46.3494 bohr

     End of self-consistent calculation

          k = 0.0000 0.0000 0.0000 ( 18029 PWs)   bands (ev):

   -55.4449 -55.3572 -55.3231 -55.2196 -55.2154 -55.1879 -55.1856 -55.1779
   -55.1538 -55.1307 -55.0876 -54.9859 -54.9378 -54.8940 -54.3320 -54.2980
   -31.8424 -31.7913 -31.7227 -31.7046 -31.6907 -31.6755 -31.6547 -31.6481
   -31.6168 -31.6034 -31.5972 -31.5098 -31.4947 -31.4877 -31.4677 -31.4643
   -31.4602 -31.4521 -31.4514 -31.4208 -31.4147 -31.3928 -31.3860 -31.3760
   -31.3712 -31.3551 -31.3541 -31.3222 -31.3221 -31.3153 -31.3146 -31.3088
   -31.3005 -31.2824 -31.2587 -31.2401 -31.1750 -31.1535 -31.1414 -31.1336
   -31.1124 -31.1032 -30.7381 -30.6516 -30.6292 -30.5556 -30.4692 -30.3574
   -17.7497 -16.3668 -16.0113 -15.8475 -15.6327 -15.5401 -15.5130 -15.3142
   -15.2191 -15.1609 -14.9594 -14.9322 -14.8951 -14.8818 -14.8732 -14.8521
   -14.8485 -14.7970 -14.7816 -14.7716 -14.7680 -14.7377 -14.7108 -14.6714
   -14.6115 -14.5980 -14.4957 -14.4401 -14.4002 -14.1588 -14.1390 -13.1851
   -12.8310 -12.7146  -9.4388  -6.4796  -5.7168  -4.2840  -3.9336  -3.3694
    -3.2681  -3.2564  -3.1998  -3.1325  -2.9976  -2.8846  -2.7835  -2.7429
    -2.6101  -2.5979  -2.4928  -2.4440  -2.3709  -2.3249  -2.2834  -2.2487
    -2.2203  -2.1651  -2.1429  -2.1172  -2.1056  -2.0328  -2.0144  -1.9250
    -1.8920  -1.8786  -1.7604  -1.7259  -1.6910  -1.6775  -1.6692  -1.6584
    -1.6179  -1.6089  -1.5982  -1.5528  -1.4552  -1.4480  -1.4303  -1.3395
    -1.2416  -0.9921  -0.9609  -0.9102  -0.8987  -0.8205  -0.7820  -0.7505
    -0.7175  -0.6477  -0.6360  -0.6105  -0.5494  -0.4737  -0.4197  -0.3719
    -0.3377  -0.2258  -0.1758  -0.1320  -0.0992  -0.0625   0.0007   0.0395
     0.0641   0.1074   0.1950   0.2587   0.2859   0.3024   0.3527   0.3947
     0.4326   0.4731   0.5448   0.5674   0.5775   0.6166   0.6254   0.6463
     0.7417   0.7602   0.8197   0.8471   0.9348   0.9658   1.0100   1.1799
     1.2494   1.3072   1.3873   1.4865   1.6395   1.6939   1.7192   1.8880
     2.2614   2.3068   3.7265   3.8741   3.8903   3.9681   3.9850   4.0493
     4.2156   4.2749   4.4121   4.4233

[...]

          k = 0.0380-0.0419 0.0000 ( 17876 PWs)   bands (ev):

[...]

          k =-0.0760-0.0000 0.0000 ( 17886 PWs)   bands (ev):

[...]

          k =-0.0760-0.0839 0.0000 ( 17948 PWs)   bands (ev):

   -55.4440 -55.3402 -55.3400 -55.2183 -55.2037 -55.1895 -55.1863 -55.1721
   -55.1693 -55.1226 -55.0957 -54.9828 -54.9388 -54.8970 -54.3150 -54.3149
   -31.7299 -31.6696 -31.6577 -31.6576 -31.6563 -31.6427 -31.6337 -31.6334
   -31.5761 -31.5311 -31.5098 -31.4990 -31.4936 -31.4886 -31.4657 -31.4601
   -31.4596 -31.4569 -31.4500 -31.4377 -31.4314 -31.4286 -31.4163 -31.3903
   -31.3857 -31.3838 -31.3764 -31.3685 -31.3502 -31.3447 -31.3412 -31.3409
   -31.3384 -31.3178 -31.3164 -31.2519 -31.2348 -31.2076 -31.1792 -31.1558
   -31.1492 -31.1080 -30.6420 -30.6419 -30.5511 -30.5508 -30.5125 -30.5123
   -17.7456 -16.3568 -15.5923 -15.4469 -15.3386 -15.3283 -15.2044 -15.1371
   -15.1274 -15.0936 -15.0710 -15.0489 -15.0304 -15.0154 -14.9604 -14.9210
   -14.8896 -14.8622 -14.8576 -14.8146 -14.8049 -14.7935 -14.7757 -14.7641
   -14.7088 -14.6728 -14.6631 -14.6041 -14.4653 -14.4457 -14.2890 -13.1864
   -12.8166 -12.8163  -9.4579  -6.4639  -5.7236  -4.2690  -3.9225  -2.9849
    -2.8015  -2.6585  -2.6050  -2.5631  -2.4495  -2.4249  -2.3674  -2.3169
    -2.2925  -2.2712  -2.2190  -2.2092  -2.1635  -2.1473  -2.1226  -2.1080
    -2.0917  -2.0850  -2.0575  -2.0415  -2.0312  -2.0186  -1.9912  -1.9799
    -1.9618  -1.9332  -1.9129  -1.9039  -1.8702  -1.8279  -1.7657  -1.6545
    -1.5801  -1.5689  -1.5273  -1.5026  -1.4864  -1.4453  -1.4328  -1.3917
    -1.3743  -1.3080  -1.1501  -1.1240  -1.1102  -0.9682  -0.9609  -0.9319
    -0.8579  -0.8162  -0.7944  -0.7362  -0.7068  -0.6653  -0.5893  -0.5462
    -0.4916  -0.4256  -0.3257  -0.3184  -0.3023  -0.2822  -0.2661  -0.2581
    -0.2251  -0.1878  -0.1148  -0.0681  -0.0596  -0.0536  -0.0024   0.0776
     0.1284   0.2429   0.3888   0.3934   0.4606   0.4611   0.6608   0.6698
     0.7467   0.7818   0.8161   0.8434   0.9372   0.9551   0.9929   1.0754
     1.1392   1.1688   1.1896   1.1945   1.2475   1.4722   2.0563   2.0641
     2.1271   2.1272   3.9675   4.2007   4.2411   4.2542   4.2722   4.2990
     4.3124   4.3267   4.3936   4.4169

     the Fermi energy is     3.7639 ev

!    total energy              =   -2976.46386242 Ry
     estimated scf accuracy    <       0.00000005 Ry
     smearing contrib. (-TS)   =      -0.01955525 Ry
     internal energy E=F+TS    =   -2976.44430716 Ry

     The total energy is F=E-TS. E is the sum of the following terms:
     one-electron contribution =  -23037.21240191 Ry
     hartree contribution      =   11616.31956287 Ry
     xc contribution           =    -495.72817280 Ry
     ewald contribution        =    8940.17386586 Ry
     electric field correction =       0.00283880 Ry

     convergence has been achieved in  75 iterations

     Forces acting on atoms (cartesian axes, Ry/au):

     atom    1 type  1   force =     0.00016112   -0.00022766    0.09414071
     atom    2 type  1   force =    -0.00010055    0.00018346   -0.17538034
     atom    3 type  2   force =     0.00005562   -0.00049345   -0.02104615
     atom    4 type  2   force =    -0.00002459   -0.00093712    0.05425845
     atom    5 type  2   force =    -0.00489082   -0.00216190    0.00106726
     atom    6 type  2   force =     0.00671472   -0.00138624    0.00108240
     atom    7 type  1   force =     0.00005584    0.00331300    0.00865761
     atom    8 type  1   force =    -0.00010638    0.00119983    0.00272825
     atom    9 type  2   force =    -0.00021930   -0.00031198   -0.00059182
     atom   10 type  2   force =    -0.00111964    0.00429369   -0.01023506
     atom   11 type  2   force =    -0.00007997   -0.00055521   -0.00010351
     atom   12 type  2   force =     0.00062304   -0.00032235   -0.00026601
     atom   13 type  1   force =    -0.00142637    0.00020496   -0.00055212
     atom   14 type  1   force =     0.00071005    0.00017938   -0.00047122
     atom   15 type  2   force =     0.00015243   -0.00018059    0.00007771
     atom   16 type  2   force =    -0.00009693   -0.00069340   -0.00031004
     atom   17 type  2   force =    -0.00042679    0.00069849    0.00007757
     atom   18 type  2   force =    -0.00076759    0.00029958   -0.00023246
     atom   19 type  1   force =     0.00043435   -0.00094500    0.00060408
     atom   20 type  1   force =    -0.00065281    0.00026788    0.00054518
     atom   21 type  2   force =     0.00003827   -0.00001047    0.10319609
     atom   22 type  2   force =    -0.00010749   -0.00044796    0.00048917
     atom   23 type  2   force =    -0.07198605   -0.00020482   -0.02725019
     atom   24 type  2   force =     0.07186326    0.00025231   -0.02731892
     atom   25 type  1   force =     0.00007729   -0.00016174    0.09387563
     atom   26 type  1   force =    -0.00012271   -0.00136446   -0.17549452
     atom   27 type  2   force =     0.00011158   -0.00005185   -0.01985483
     atom   28 type  2   force =     0.00006388   -0.00105008    0.04980434
     atom   29 type  2   force =    -0.00747247    0.00209489    0.00339166
     atom   30 type  2   force =     0.00907796    0.00223676    0.00330812
     atom   31 type  1   force =     0.00019121    0.00151494    0.00005567
     atom   32 type  1   force =    -0.00008478   -0.00227052    0.00303440
     atom   33 type  2   force =    -0.00017577   -0.00030729   -0.00003178
     atom   34 type  2   force =    -0.00117105   -0.00218238   -0.00963027
     atom   35 type  2   force =     0.00063626    0.00006093   -0.00022468
     atom   36 type  2   force =     0.00037866    0.00012171   -0.00035619
     atom   37 type  1   force =    -0.00096844    0.00023414    0.00033596
     atom   38 type  1   force =     0.00096909   -0.00023997    0.00019751
     atom   39 type  2   force =    -0.00016690   -0.00053598   -0.00005353
     atom   40 type  2   force =    -0.00020116   -0.00018669   -0.00017920
     atom   41 type  2   force =     0.00029966   -0.00030152   -0.00009398
     atom   42 type  2   force =    -0.00071623    0.00007245   -0.00007512
     atom   43 type  1   force =     0.00023664    0.00093261    0.00051677
     atom   44 type  1   force =    -0.00050381    0.00059201    0.00003599
     atom   45 type  2   force =     0.00002369    0.00003534    0.10302695
     atom   46 type  2   force =    -0.07193556   -0.00007403   -0.02720338
     atom   47 type  2   force =     0.07182736    0.00035751   -0.02728840
     atom   48 type  3   force =     0.00023215   -0.00495226   -0.00009171
     atom   49 type  3   force =    -0.00062416    0.02267470    0.00361983
     atom   50 type  4   force =    -0.00089473   -0.00003235   -0.00093347
     atom   51 type  5   force =    -0.00115498   -0.00014458    0.00046988
     atom   52 type  5   force =     0.00050558   -0.00028745    0.00019755
     atom   53 type  5   force =    -0.00021519    0.00070887   -0.00043217
     atom   54 type  5   force =     0.00166231   -0.00018507    0.00060528
     atom   55 type  5   force =     0.00570333   -0.00602601   -0.00378916
     atom   56 type  5   force =    -0.00430475   -0.01303193   -0.00023429
     atom   57 type  2   force =     0.00069859   -0.00118786    0.00009047
     atom   58 type  5   force =    -0.00078597    0.00092274    0.00023401

     Total force =     0.363109     Total SCF correction =     0.000566
  @ DRIVER MODE: Message from server: STATUS
  @ DRIVER MODE: Message from server: GETFORCE
  @ DRIVER MODE: Returning v,forces,stress,ensemble

     Writing output data file ./calc.save/
  @ DRIVER MODE: Message from server: EXIT
  @ DRIVE MODE: Exiting

     General routines

     Parallel routines

   This run was terminated on:  15: 9: 7  23Sep2021

   JOB DONE.