     Program PWSCF v.6.7GPU starts on  3Aug2021 at 20:10:36

     R & G space division:  proc/nbgrp/npool/nimage =      16
     Reading input from /storage/home/hcoda1/3/ntian30/research/carbon/02Aug_vib_paired/ads_slab/CH3NH3NH3_a/out_0017/pw.inp
Warning: card &CELL ignored
Warning: card   CELL_DYNAMICS='IPI', ignored
Warning: card / ignored

     Current dimensions of program PWSCF are:
     Max number of different atomic species (ntypx) = 10
     Max number of k-points (npk) =  40000
     Max angular momentum in pseudopotentials (lmaxx) =  3
     Presently no symmetry can be used with electric field

     Message from routine cell_base_init:
     DEPRECATED: use true lattice parameter, not A to a.u. conversion factor

     IMPORTANT: XC functional enforced from input :
     Exchange-correlation= BEEF-VDW
                           (   1   4  43  14   2   0   0)
     Any further DFT definition will be discarded
     Please, verify this is what you really want

  @ DRIVER MODE: Connecting to
 qe_1139763_2492108.sched-torque.pace.gatech.eduac8pa56q_scratch
  using UNIX socket
  @ DRIVER MODE: Message from server: STATUS
  @ DRIVER MODE: Message from server: INIT
  @ DRIVER MODE: Receiving replica           0          -1
  @ DRIVER MODE: Receiving encoded integer          25
  @ DRIVER MODE:  SCF:  T  FORCE:  T  STRESS:  F  VC:  F  ENSEMBLE:  F
  @ DRIVER MODE:  SCF:  T  FORCE:  T  STRESS:  F  VC:  F  ENSEMBLE:  F

     Using Slab Decomposition

     bravais-lattice index     =            0
     lattice parameter (alat)  =       1.8897  a.u.
     unit-cell volume          =    6658.9804 (a.u.)^3
     number of atoms/cell      =           59
     number of atomic types    =            5
     number of electrons       =       401.00
     number of Kohn-Sham states=          210
     kinetic-energy cutoff     =      29.3995  Ry
     charge density cutoff     =     293.9946  Ry
     scf convergence threshold =      7.3E-08
     mixing beta               =       0.0500
     number of iterations used =            8  plain     mixing
     Exchange-correlation= BEEF-VDW
                           (   1   4  43  14   2   0   0)

     celldm(1)=   1.889726  celldm(2)=   0.000000  celldm(3)=   0.000000
     celldm(4)=   0.000000  celldm(5)=   0.000000  celldm(6)=   0.000000

     crystal axes: (cart. coord. in units of alat)
               a(1) = (   6.579727   0.000000   0.000000 )
               a(2) = (  -0.000775   5.961596   0.000000 )
               a(3) = (   0.000000   0.000000  25.155947 )

     reciprocal axes: (cart. coord. in units 2 pi/alat)
               b(1) = (  0.151982  0.000020  0.000000 )
               b(2) = (  0.000000  0.167740  0.000000 )
               b(3) = (  0.000000  0.000000  0.039752 )

     PseudoPot. # 1 for Ti read from file:
     /storage/coda1/p-amedford6/0/shared/rich_project_chbe-medford/medford-share/data/pseudos_module/espresso/nninc/pbe/van/Ti.UPF
     MD5 check sum: 8e4df49b7f0d34bbd5052bf3f5ea0213
     Pseudo is Ultrasoft, Zval = 12.0
     Generated by new atomic code, or converted to UPF format
     Using radial grid of  851 points,  6 beta functions with:
                l(1) =   0
                l(2) =   0
                l(3) =   1
                l(4) =   1
                l(5) =   2
                l(6) =   2
     Q(r) pseudized with  8 coefficients,  rinner =    1.000   1.000   1.000
                                                       1.000   1.000

     PseudoPot. # 2 for O  read from file:
     /storage/coda1/p-amedford6/0/shared/rich_project_chbe-medford/medford-share/data/pseudos_module/espresso/nninc/pbe/van/O.UPF
     MD5 check sum: 78c19812648e8988a0fe644b0f25305e
     Pseudo is Ultrasoft, Zval =  6.0
     Generated by new atomic code, or converted to UPF format
     Using radial grid of  737 points,  4 beta functions with:
                l(1) =   0
                l(2) =   0
                l(3) =   1
                l(4) =   1
     Q(r) pseudized with  8 coefficients,  rinner =    0.800   0.800   0.800

     PseudoPot. # 3 for C  read from file:
     /storage/coda1/p-amedford6/0/shared/rich_project_chbe-medford/medford-share/data/pseudos_module/espresso/nninc/pbe/van/C.UPF
     MD5 check sum: 1a69bf6b8db32088f5b2163dbdb77a27
     Pseudo is Ultrasoft, Zval =  4.0
     Generated by new atomic code, or converted to UPF format
     Using radial grid of  721 points,  4 beta functions with:
                l(1) =   0
                l(2) =   0
                l(3) =   1
                l(4) =   1
     Q(r) pseudized with  8 coefficients,  rinner =    0.800   0.800   0.800

     PseudoPot. # 4 for H  read from file:
     /storage/coda1/p-amedford6/0/shared/rich_project_chbe-medford/medford-share/data/pseudos_module/espresso/nninc/pbe/van/H.UPF
     MD5 check sum: b5ee9d7bfd3a09ee7748110bda690ff7
     Pseudo is Ultrasoft, Zval =  1.0
     Generated by new atomic code, or converted to UPF format
     Using radial grid of  615 points,  1 beta functions with:
                l(1) =   0
     Q(r) pseudized with  8 coefficients,  rinner =    0.800

     PseudoPot. # 5 for N  read from file:
     /storage/coda1/p-amedford6/0/shared/rich_project_chbe-medford/medford-share/data/pseudos_module/espresso/nninc/pbe/van/N.UPF
     MD5 check sum: 90d10febe142ad51ac9d5be1deb811c4
     Pseudo is Ultrasoft, Zval =  5.0
     Generated by new atomic code, or converted to UPF format
     Using radial grid of  729 points,  4 beta functions with:
                l(1) =   0
                l(2) =   0
                l(3) =   1
                l(4) =   1
     Q(r) pseudized with  8 coefficients,  rinner =    0.800   0.800   0.800

     atomic species   valence    mass     pseudopotential
        Ti1           12.00    47.86700     Ti( 1.00)
        O1             6.00    15.99900     O ( 1.00)
        C1             4.00    12.01100     C ( 1.00)
        H1             1.00     1.00800     H ( 1.00)
        N1             5.00    14.00700     N ( 1.00)

     No symmetry found

   Cartesian axes

     site n.     atom                  positions (alat units)
         1           Ti1 tau(   1) = (   0.0004258   2.9801865   6.0000000  )
         2           Ti1 tau(   2) = (   3.2906075   1.4906267   6.0002472  )
         3           O1  tau(   3) = (   0.0006271   0.0005054   7.9858123  )
         4           O1  tau(   4) = (   3.2906025   0.0005020   7.3038282  )
         5           O1  tau(   5) = (   4.5942328   1.4918067   9.2879030  )
         6           O1  tau(   6) = (   1.9868534   1.4903216   9.2879459  )
         7           Ti1 tau(   7) = (   3.2907910   2.8959150   9.1758416  )
         8           Ti1 tau(   8) = (   0.0015273   1.4827037   9.2680791  )
         9           O1  tau(   9) = (   3.3006472   5.9526327  11.3326431  )
        10           O1  tau(  10) = (   0.0116148   5.9584955  10.6183126  )
        11           O1  tau(  11) = (   1.2986171   1.4856602  12.6180737  )
        12           O1  tau(  12) = (   5.2832837   1.4869688  12.6136912  )
        13           Ti1 tau(  13) = (   0.0716907   2.9700601  12.6329626  )
        14           Ti1 tau(  14) = (   3.3921379   1.4824266  12.4783935  )
        15           O1  tau(  15) = (   0.0098915   0.0277142  14.6273811  )
        16           O1  tau(  16) = (   3.2980527   0.0034327  13.9214941  )
        17           O1  tau(  17) = (   4.5491770   1.5035522  16.0668258  )
        18           O1  tau(  18) = (   2.0540802   1.5011373  16.0688643  )
        19           Ti1 tau(  19) = (   3.2973159   2.9845483  15.7023000  )
        20           Ti1 tau(  20) = (   6.5754392   1.4353193  15.8239573  )
        21           O1  tau(  21) = (   3.2904802   0.0005063   4.7018136  )
        22           O1  tau(  22) = (   0.0048264   5.9571524  17.1588256  )
        23           O1  tau(  23) = (   1.3043587   1.4918075   6.0039043  )
        24           O1  tau(  24) = (   5.2767064   1.4903225   6.0039473  )
        25           Ti1 tau(  25) = (   0.0000382   5.9609847   6.0000000  )
        26           Ti1 tau(  26) = (   3.2902200   4.4714249   6.0002472  )
        27           O1  tau(  27) = (   0.0002396   2.9813036   7.9858123  )
        28           O1  tau(  28) = (   3.2902150   2.9813002   7.3038282  )
        29           O1  tau(  29) = (   4.5938453   4.4726049   9.2879030  )
        30           O1  tau(  30) = (   1.9864658   4.4711199   9.2879459  )
        31           Ti1 tau(  31) = (   3.2891106   5.8743827   9.1763621  )
        32           Ti1 tau(  32) = (   0.0006254   4.4649316   9.2693709  )
        33           O1  tau(  33) = (   3.3024910   2.9811918  11.3312481  )
        34           O1  tau(  34) = (   0.0092240   2.9805883  10.6323155  )
        35           O1  tau(  35) = (   1.2967186   4.4682081  12.6345707  )
        36           O1  tau(  36) = (   5.2888097   4.4704914  12.6297389  )
        37           Ti1 tau(  37) = (   0.0778612   5.9457776  12.5489457  )
        38           Ti1 tau(  38) = (   3.3928769   4.4622707  12.4864817  )
        39           O1  tau(  39) = (   0.0140712   2.9461142  14.6842920  )
        40           O1  tau(  40) = (   3.2991745   2.9776924  13.9065265  )
        41           O1  tau(  41) = (   4.5418516   4.4678888  16.0645815  )
        42           O1  tau(  42) = (   2.0574864   4.4691885  16.0636024  )
        43           Ti1 tau(  43) = (   3.2861726   0.0051191  15.7195692  )
        44           Ti1 tau(  44) = (   6.5761434   4.5285208  16.1368719  )
        45           O1  tau(  45) = (   3.2900926   2.9813045   4.7018136  )
        46           O1  tau(  46) = (   1.3039711   4.4726057   6.0039043  )
        47           O1  tau(  47) = (   5.2763189   4.4711207   6.0039473  )
        48           C1  tau(  48) = (   0.0175971   3.0427671  17.7901079  )
        49           H1  tau(  49) = (   5.6823727   3.3959267  18.2745233  )
        50           H1  tau(  50) = (   0.1100020   1.9921885  18.0671921  )
        51           H1  tau(  51) = (   0.8707680   3.5346006  18.2680029  )
        52           N1  tau(  52) = (   6.1495222   1.5591847  21.8098380  )
        53           H1  tau(  53) = (   6.1793786   2.4948735  21.3946126  )
        54           H1  tau(  54) = (   6.2462200   0.9013766  21.0428083  )
        55           H1  tau(  55) = (   5.2088654   1.4380024  22.1828036  )
        56           N1  tau(  56) = (   2.8510371   0.9663425  23.1735989  )
        57           H1  tau(  57) = (   2.8683653   5.9129692  23.1556095  )
        58           H1  tau(  58) = (   1.9074079   1.2374795  22.9038124  )
        59           H1  tau(  59) = (   2.9640119   1.2328864  24.1466208  )

     number of k points=    10  Fermi-Dirac smearing, width (Ry)=  0.0073
                       cart. coord. in units 2pi/alat
        k(    1) = (   0.0000000   0.0000000   0.0000000), wk =   0.1250000
        k(    2) = (   0.0000000   0.0419351   0.0000000), wk =   0.2500000
        k(    3) = (   0.0000000  -0.0838702   0.0000000), wk =   0.1250000
        k(    4) = (   0.0379955   0.0000049   0.0000000), wk =   0.2500000
        k(    5) = (   0.0379955   0.0419400   0.0000000), wk =   0.2500000
        k(    6) = (   0.0379955  -0.0838652   0.0000000), wk =   0.2500000
        k(    7) = (   0.0379955  -0.0419301   0.0000000), wk =   0.2500000
        k(    8) = (  -0.0759910  -0.0000099   0.0000000), wk =   0.1250000
        k(    9) = (  -0.0759910   0.0419252   0.0000000), wk =   0.2500000
        k(   10) = (  -0.0759910  -0.0838800   0.0000000), wk =   0.1250000

     Initial potential from superposition of free atoms

     starting charge  384.99911, renormalised to  401.00000

     negative rho (up, down):  4.921E-03 0.000E+00

     %%%%%%%%%%%%%%%%%%%%%%%%%%%%%%%%%%%%%%%%%%%%%%%%%%%%%%%%%%%%%%%%%%%%%%%%
     %                                                                      %
     % You are using vdW-DF, which was implemented by the Thonhauser group. %
     % Please cite the following two papers that made this development      %
     % possible and the two reviews that describe the various versions:     %
     %                                                                      %
     %   T. Thonhauser et al., PRL 115, 136402 (2015).                      %
     %   T. Thonhauser et al., PRB 76, 125112 (2007).                       %
     %   K. Berland et al., Rep. Prog. Phys. 78, 066501 (2015).             %
     %   D.C. Langreth et al., J. Phys.: Condens. Matter 21, 084203 (2009). %
     %                                                                      %
     %                                                                      %
     % If you are calculating the stress with vdW-DF, please also cite:     %
     %                                                                      %
     %   R. Sabatini et al., J. Phys.: Condens. Matter 24, 424209 (2012).   %
     %                                                                      %
     %%%%%%%%%%%%%%%%%%%%%%%%%%%%%%%%%%%%%%%%%%%%%%%%%%%%%%%%%%%%%%%%%%%%%%%%

     Adding external electric field

     Computed dipole along edir(3) :
        Dipole              -16.7053 Ry au,        -42.4606 Debye
        Dipole field         -0.0315 Ry au,

        Potential amp.        2.9223 Ry
        Total length         46.3494 bohr

     Starting wfcs are  305 atomic wfcs
  @ DRIVER MODE: Message from server: STATUS
  @ DRIVER MODE: Message from server: POSDATA
  @ DRIVER MODE: Reading and sharing cell
  @ DRIVER MODE: Reading and sharing positions
  @ DRIVER MODE: Received positions

     Self-consistent Calculation

     iteration #  1     ecut=    29.40 Ry     beta= 0.05
     Davidson diagonalization with overlap
     c_bands:  2 eigenvalues not converged
     c_bands:  3 eigenvalues not converged
     c_bands:  1 eigenvalues not converged
     c_bands:  4 eigenvalues not converged
     c_bands:  4 eigenvalues not converged
     c_bands:  2 eigenvalues not converged
     c_bands:  3 eigenvalues not converged
     c_bands:  3 eigenvalues not converged
     c_bands:  4 eigenvalues not converged
     ethr =  1.00E-05,  avg # of iterations = 19.8

[...]

     total energy              =   -2364.29306605 Ry
     estimated scf accuracy    <    6692.60367686 Ry

     iteration #  2     ecut=    29.40 Ry     beta= 0.05
     Davidson diagonalization with overlap
     ethr =  1.00E-02,  avg # of iterations = 22.3

[...]

     iteration # 62     ecut=    29.40 Ry     beta= 0.05
     Davidson diagonalization with overlap
     c_bands:  1 eigenvalues not converged
     ethr =  4.23E-08,  avg # of iterations = 16.5

[...]

     total energy              =   -2946.58238523 Ry
     estimated scf accuracy    <       0.00000014 Ry

     iteration # 78     ecut=    29.40 Ry     beta= 0.05
     Davidson diagonalization with overlap
     ethr =  1.95E-11,  avg # of iterations =  6.0

     negative rho (up, down):  6.989E-03 0.000E+00

     Adding external electric field

     Computed dipole along edir(3) :
        Dipole                0.3162 Ry au,          0.8037 Debye
        Dipole field          0.0006 Ry au,

        Potential amp.       -0.0553 Ry
        Total length         46.3494 bohr

     End of self-consistent calculation

          k = 0.0000 0.0000 0.0000 ( 18029 PWs)   bands (ev):

   -55.9969 -55.9872 -55.9628 -55.9501 -55.8776 -55.8532 -55.8323 -55.8141
   -55.8042 -55.7707 -55.7702 -55.7370 -55.6117 -55.3897 -54.9777 -54.9437
   -32.5410 -32.4794 -32.3521 -32.3320 -32.3035 -32.3012 -32.2897 -32.2611
   -32.2391 -32.2158 -32.2088 -32.1943 -32.1669 -32.1489 -32.1402 -32.1262
   -32.1099 -32.1012 -32.0864 -32.0580 -32.0544 -32.0539 -32.0263 -32.0070
   -32.0064 -32.0016 -31.9924 -31.9883 -31.9751 -31.9730 -31.9646 -31.9449
   -31.9427 -31.9363 -31.9235 -31.9098 -31.8826 -31.8649 -31.8274 -31.6665
   -31.6402 -31.5275 -31.3849 -31.2961 -31.2737 -31.2014 -31.1150 -31.0041
   -16.7421 -16.4727 -16.2463 -16.1503 -16.1232 -16.0040 -15.8387 -15.7168
   -15.6685 -15.5683 -15.5588 -15.5339 -15.5012 -15.4773 -15.4766 -15.4424
   -15.4395 -15.4202 -15.4086 -15.3585 -15.3355 -15.3238 -15.2085 -15.1749
   -15.1323 -15.1113 -15.0537 -15.0411 -14.6186 -13.4809 -13.3645 -13.0194
   -12.9135  -9.1013  -4.1154  -3.9586  -3.9041  -3.8592  -3.8285  -3.6115
    -3.5455  -3.2478  -3.1837  -3.1690  -3.1518  -3.1194  -3.1188  -3.0664
    -3.0303  -2.9860  -2.9009  -2.8327  -2.8235  -2.8084  -2.8054  -2.7761
    -2.7665  -2.7543  -2.7137  -2.6880  -2.6619  -2.6118  -2.5569  -2.4947
    -2.4114  -2.3935  -2.3116  -2.2893  -2.2832  -2.2402  -2.2259  -2.2179
    -2.1990  -2.1739  -2.1608  -1.9774  -1.9388  -1.8361  -1.7800  -1.7779
    -1.6065  -1.5066  -1.4648  -1.4538  -1.4245  -1.3907  -1.3841  -1.2980
    -1.1811  -1.1499  -1.1169  -1.0449  -1.0013  -0.9695  -0.8719  -0.8446
    -0.7615  -0.7592  -0.7370  -0.6491  -0.5954  -0.4818  -0.4339  -0.4238
    -0.3859  -0.3568  -0.2875  -0.2732  -0.2164  -0.1440  -0.1232  -0.0604
    -0.0299  -0.0158  -0.0046   0.0122   0.0386   0.0690   0.1730   0.2034
     0.2828   0.3506   0.4459   0.5434   0.6492   0.6582   0.7595   0.9687
     1.0424   1.1407   1.1994   1.2366   1.6157   1.6615   1.7489   2.1882
     3.1401   3.2240   3.2716   3.2823   3.3734   3.3897   3.5903   3.6144
     3.6355   3.6873

[...]

          k = 0.0380-0.0419 0.0000 ( 17876 PWs)   bands (ev):

[...]

          k =-0.0760-0.0000 0.0000 ( 17886 PWs)   bands (ev):

[...]

          k =-0.0760-0.0839 0.0000 ( 17948 PWs)   bands (ev):

   -55.9803 -55.9793 -55.9731 -55.9640 -55.8697 -55.8430 -55.8401 -55.8243
   -55.7883 -55.7857 -55.7552 -55.7527 -55.6105 -55.3907 -54.9607 -54.9606
   -32.3487 -32.3400 -32.2950 -32.2943 -32.2755 -32.2746 -32.2587 -32.2497
   -32.2033 -32.1915 -32.1853 -32.1826 -32.1448 -32.1289 -32.1273 -32.1180
   -32.1074 -32.0998 -32.0997 -32.0986 -32.0933 -32.0905 -32.0696 -32.0598
   -32.0406 -32.0377 -32.0283 -32.0113 -31.9882 -31.9873 -31.9858 -31.9841
   -31.9695 -31.9681 -31.9649 -31.9609 -31.9325 -31.8561 -31.8307 -31.6801
   -31.6684 -31.5718 -31.2864 -31.2863 -31.1977 -31.1976 -31.1582 -31.1582
   -16.1749 -16.1555 -15.9478 -15.9111 -15.9081 -15.8989 -15.7871 -15.7021
   -15.6921 -15.6914 -15.6090 -15.5968 -15.5806 -15.5363 -15.5322 -15.5228
   -15.5132 -15.5012 -15.4581 -15.4531 -15.4342 -15.4267 -15.3448 -15.3144
   -15.3107 -15.2723 -15.1402 -15.0088 -14.8604 -13.4664 -13.4662 -12.9679
   -12.9645  -9.1178  -3.4670  -3.4413  -3.1911  -3.1549  -3.1456  -3.0995
    -3.0815  -3.0608  -2.9710  -2.9416  -2.9211  -2.8948  -2.8801  -2.8754
    -2.8390  -2.8267  -2.8168  -2.8048  -2.7866  -2.7524  -2.7435  -2.7112
    -2.7002  -2.6801  -2.6669  -2.6514  -2.6266  -2.6140  -2.6077  -2.5765
    -2.5623  -2.5455  -2.5249  -2.5019  -2.4189  -2.2298  -2.2000  -2.1353
    -2.1262  -2.0957  -2.0841  -2.0605  -2.0462  -2.0279  -1.9810  -1.8280
    -1.7260  -1.6998  -1.6720  -1.5969  -1.5760  -1.5282  -1.4142  -1.3795
    -1.3521  -1.3263  -1.2762  -1.2252  -1.2078  -1.1848  -1.1158  -1.1022
    -1.0246  -0.9811  -0.9584  -0.9541  -0.8894  -0.8464  -0.7644  -0.7591
    -0.7151  -0.6794  -0.6320  -0.5918  -0.5871  -0.5000  -0.4744  -0.3578
    -0.3031  -0.0434   0.0062   0.0575   0.0838   0.1426   0.1930   0.2078
     0.3169   0.3212   0.3576   0.4014   0.4420   0.5296   0.5488   0.5837
     0.7298   1.3037   1.4070   1.4076   1.4809   1.4813   1.9548   1.9670
     3.4248   3.4402   3.4706   3.5030   3.6444   3.6483   3.6697   3.6715
     3.7973   3.8116

     the Fermi energy is     3.1377 ev

!    total energy              =   -2946.58240772 Ry
     estimated scf accuracy    <       0.00000002 Ry
     smearing contrib. (-TS)   =      -0.02179375 Ry
     internal energy E=F+TS    =   -2946.56061398 Ry

     The total energy is F=E-TS. E is the sum of the following terms:
     one-electron contribution =  -22199.55847439 Ry
     hartree contribution      =   11188.78530946 Ry
     xc contribution           =    -489.83917779 Ry
     ewald contribution        =    8554.05154006 Ry
     electric field correction =       0.00018868 Ry

     convergence has been achieved in  78 iterations

     Forces acting on atoms (cartesian axes, Ry/au):

     atom    1 type  1   force =     0.00012966   -0.00026191    0.09671085
     atom    2 type  1   force =    -0.00013329   -0.00055091   -0.17511013
     atom    3 type  2   force =    -0.00000279   -0.00002601   -0.02501222
     atom    4 type  2   force =     0.00007485   -0.00144115    0.05271249
     atom    5 type  2   force =    -0.01210687   -0.00083466    0.00339508
     atom    6 type  2   force =     0.01401986   -0.00015010    0.00290512
     atom    7 type  1   force =    -0.00082082    0.00068274   -0.01137196
     atom    8 type  1   force =     0.00026099    0.01148970    0.02861283
     atom    9 type  2   force =    -0.00010251    0.00008742   -0.00001800
     atom   10 type  2   force =    -0.00084971    0.00077218   -0.01662019
     atom   11 type  2   force =    -0.00031228    0.00010359    0.00002532
     atom   12 type  2   force =    -0.00000645    0.00021004    0.00004699
     atom   13 type  1   force =    -0.00011629   -0.00019919    0.00009938
     atom   14 type  1   force =    -0.00021828    0.00000687   -0.00004342
     atom   15 type  2   force =    -0.00003175    0.00005518   -0.00011059
     atom   16 type  2   force =    -0.00012190   -0.00004061    0.00001883
     atom   17 type  2   force =    -0.00003406   -0.00015918   -0.00000943
     atom   18 type  2   force =    -0.00019453   -0.00017842   -0.00001233
     atom   19 type  1   force =     0.00000674   -0.00020381    0.00014003
     atom   20 type  1   force =     0.00010075   -0.00036204   -0.00005239
     atom   21 type  2   force =     0.00006572    0.00000910    0.10295059
     atom   22 type  2   force =    -0.00010495   -0.00009145   -0.00041678
     atom   23 type  2   force =    -0.07138766   -0.00010116   -0.02771721
     atom   24 type  2   force =     0.07134441    0.00030539   -0.02775434
     atom   25 type  1   force =     0.00001070   -0.00030567    0.09648702
     atom   26 type  1   force =    -0.00018477   -0.00027305   -0.17529108
     atom   27 type  2   force =     0.00009314   -0.00019897   -0.02391752
     atom   28 type  2   force =     0.00011488   -0.00119975    0.05274814
     atom   29 type  2   force =    -0.01213925    0.00045709    0.00287977
     atom   30 type  2   force =     0.01397283    0.00080214    0.00242583
     atom   31 type  1   force =    -0.00076545    0.00310783   -0.01228046
     atom   32 type  1   force =     0.00027790   -0.01311671    0.02918861
     atom   33 type  2   force =    -0.00009818   -0.00002739    0.00003755
     atom   34 type  2   force =    -0.00028731    0.00077299   -0.02207204
     atom   35 type  2   force =    -0.00016460    0.00008063   -0.00004554
     atom   36 type  2   force =    -0.00010385    0.00020400   -0.00003457
     atom   37 type  1   force =    -0.00001581   -0.00031296   -0.00017413
     atom   38 type  1   force =     0.00002906    0.00000812    0.00000052
     atom   39 type  2   force =    -0.00008019    0.00013443    0.00027431
     atom   40 type  2   force =    -0.00013493   -0.00001084   -0.00007044
     atom   41 type  2   force =     0.00000279   -0.00021140    0.00002030
     atom   42 type  2   force =    -0.00019682   -0.00021759    0.00019218
     atom   43 type  1   force =     0.00031646   -0.00016328   -0.00018136
     atom   44 type  1   force =     0.00017833   -0.00027946    0.00020278
     atom   45 type  2   force =     0.00006483   -0.00006989    0.10293918
     atom   46 type  2   force =    -0.07139955   -0.00008787   -0.02772765
     atom   47 type  2   force =     0.07135900    0.00036984   -0.02773732
     atom   48 type  3   force =    -0.00018407    0.00039393    0.00002175
     atom   49 type  4   force =    -0.00007625    0.00041527    0.00021132
     atom   50 type  4   force =    -0.00008472    0.00013540    0.00005706
     atom   51 type  4   force =     0.00008855    0.00029551    0.00038223
     atom   52 type  5   force =     0.00015375    0.01249871   -0.00291470
     atom   53 type  4   force =    -0.00046123   -0.01335896    0.00457659
     atom   54 type  4   force =    -0.00043601    0.00050308   -0.00195393
     atom   55 type  4   force =     0.00048023    0.00042355   -0.00059484
     atom   56 type  5   force =     0.00069598    0.00036030   -0.00062923
     atom   57 type  4   force =     0.00005359   -0.00032676    0.00032418
     atom   58 type  4   force =    -0.00050423   -0.00003283   -0.00059132
     atom   59 type  4   force =    -0.00003364    0.00010897   -0.00012174

     Total force =     0.368227     Total SCF correction =     0.000582
  @ DRIVER MODE: Message from server: STATUS
  @ DRIVER MODE: Message from server: GETFORCE
  @ DRIVER MODE: Returning v,forces,stress,ensemble

     Writing output data file ./calc.save/
  @ DRIVER MODE: Message from server: EXIT
  @ DRIVE MODE: Exiting

     General routines

     Parallel routines

   This run was terminated on:  20:52:32   3Aug2021

   JOB DONE.