     Program PWSCF v.6.7GPU starts on  2Aug2021 at 23:44:50

     R & G space division:  proc/nbgrp/npool/nimage =      16
     Reading input from /storage/home/hcoda1/3/ntian30/research/carbon/02Aug_vib_paired/ads_slab/CH3NHHH_a/out_0037/pw.inp
Warning: card &CELL ignored
Warning: card   CELL_DYNAMICS='IPI', ignored
Warning: card / ignored

     Current dimensions of program PWSCF are:
     Max number of different atomic species (ntypx) = 10
     Max number of k-points (npk) =  40000
     Max angular momentum in pseudopotentials (lmaxx) =  3
     Presently no symmetry can be used with electric field

     Message from routine cell_base_init:
     DEPRECATED: use true lattice parameter, not A to a.u. conversion factor

     IMPORTANT: XC functional enforced from input :
     Exchange-correlation= BEEF-VDW
                           (   1   4  43  14   2   0   0)
     Any further DFT definition will be discarded
     Please, verify this is what you really want

  @ DRIVER MODE: Connecting to
 qe_1139763_2482537.sched-torque.pace.gatech.edu_iynoa9l_scratch
  using UNIX socket
  @ DRIVER MODE: Message from server: STATUS
  @ DRIVER MODE: Message from server: INIT
  @ DRIVER MODE: Receiving replica           0          -1
  @ DRIVER MODE: Receiving encoded integer          25
  @ DRIVER MODE:  SCF:  T  FORCE:  T  STRESS:  F  VC:  F  ENSEMBLE:  F
  @ DRIVER MODE:  SCF:  T  FORCE:  T  STRESS:  F  VC:  F  ENSEMBLE:  F

     Using Slab Decomposition

     bravais-lattice index     =            0
     lattice parameter (alat)  =       1.8897  a.u.
     unit-cell volume          =    6658.9804 (a.u.)^3
     number of atoms/cell      =           55
     number of atomic types    =            5
     number of electrons       =       393.00
     number of Kohn-Sham states=          206
     kinetic-energy cutoff     =      29.3995  Ry
     charge density cutoff     =     293.9946  Ry
     scf convergence threshold =      7.3E-08
     mixing beta               =       0.0500
     number of iterations used =            8  plain     mixing
     Exchange-correlation= BEEF-VDW
                           (   1   4  43  14   2   0   0)

     celldm(1)=   1.889726  celldm(2)=   0.000000  celldm(3)=   0.000000
     celldm(4)=   0.000000  celldm(5)=   0.000000  celldm(6)=   0.000000

     crystal axes: (cart. coord. in units of alat)
               a(1) = (   6.579727   0.000000   0.000000 )
               a(2) = (  -0.000775   5.961596   0.000000 )
               a(3) = (   0.000000   0.000000  25.155947 )

     reciprocal axes: (cart. coord. in units 2 pi/alat)
               b(1) = (  0.151982  0.000020  0.000000 )
               b(2) = (  0.000000  0.167740  0.000000 )
               b(3) = (  0.000000  0.000000  0.039752 )

     PseudoPot. # 1 for Ti read from file:
     /storage/coda1/p-amedford6/0/shared/rich_project_chbe-medford/medford-share/data/pseudos_module/espresso/nninc/pbe/van/Ti.UPF
     MD5 check sum: 8e4df49b7f0d34bbd5052bf3f5ea0213
     Pseudo is Ultrasoft, Zval = 12.0
     Generated by new atomic code, or converted to UPF format
     Using radial grid of  851 points,  6 beta functions with:
                l(1) =   0
                l(2) =   0
                l(3) =   1
                l(4) =   1
                l(5) =   2
                l(6) =   2
     Q(r) pseudized with  8 coefficients,  rinner =    1.000   1.000   1.000
                                                       1.000   1.000

     PseudoPot. # 2 for O  read from file:
     /storage/coda1/p-amedford6/0/shared/rich_project_chbe-medford/medford-share/data/pseudos_module/espresso/nninc/pbe/van/O.UPF
     MD5 check sum: 78c19812648e8988a0fe644b0f25305e
     Pseudo is Ultrasoft, Zval =  6.0
     Generated by new atomic code, or converted to UPF format
     Using radial grid of  737 points,  4 beta functions with:
                l(1) =   0
                l(2) =   0
                l(3) =   1
                l(4) =   1
     Q(r) pseudized with  8 coefficients,  rinner =    0.800   0.800   0.800

     PseudoPot. # 3 for N  read from file:
     /storage/coda1/p-amedford6/0/shared/rich_project_chbe-medford/medford-share/data/pseudos_module/espresso/nninc/pbe/van/N.UPF
     MD5 check sum: 90d10febe142ad51ac9d5be1deb811c4
     Pseudo is Ultrasoft, Zval =  5.0
     Generated by new atomic code, or converted to UPF format
     Using radial grid of  729 points,  4 beta functions with:
                l(1) =   0
                l(2) =   0
                l(3) =   1
                l(4) =   1
     Q(r) pseudized with  8 coefficients,  rinner =    0.800   0.800   0.800

     PseudoPot. # 4 for C  read from file:
     /storage/coda1/p-amedford6/0/shared/rich_project_chbe-medford/medford-share/data/pseudos_module/espresso/nninc/pbe/van/C.UPF
     MD5 check sum: 1a69bf6b8db32088f5b2163dbdb77a27
     Pseudo is Ultrasoft, Zval =  4.0
     Generated by new atomic code, or converted to UPF format
     Using radial grid of  721 points,  4 beta functions with:
                l(1) =   0
                l(2) =   0
                l(3) =   1
                l(4) =   1
     Q(r) pseudized with  8 coefficients,  rinner =    0.800   0.800   0.800

     PseudoPot. # 5 for H  read from file:
     /storage/coda1/p-amedford6/0/shared/rich_project_chbe-medford/medford-share/data/pseudos_module/espresso/nninc/pbe/van/H.UPF
     MD5 check sum: b5ee9d7bfd3a09ee7748110bda690ff7
     Pseudo is Ultrasoft, Zval =  1.0
     Generated by new atomic code, or converted to UPF format
     Using radial grid of  615 points,  1 beta functions with:
                l(1) =   0
     Q(r) pseudized with  8 coefficients,  rinner =    0.800

     atomic species   valence    mass     pseudopotential
        Ti1           12.00    47.86700     Ti( 1.00)
        O1             6.00    15.99900     O ( 1.00)
        N1             5.00    14.00700     N ( 1.00)
        C1             4.00    12.01100     C ( 1.00)
        H1             1.00     1.00800     H ( 1.00)

     No symmetry found

   Cartesian axes

     site n.     atom                  positions (alat units)
         1           Ti1 tau(   1) = (   0.0004258   2.9801865   6.0000000  )
         2           Ti1 tau(   2) = (   3.2906075   1.4906267   6.0002472  )
         3           O1  tau(   3) = (   0.0006271   0.0005054   7.9858123  )
         4           O1  tau(   4) = (   3.2906025   0.0005020   7.3038282  )
         5           O1  tau(   5) = (   4.5942328   1.4918067   9.2879030  )
         6           O1  tau(   6) = (   1.9868534   1.4903216   9.2879459  )
         7           Ti1 tau(   7) = (   3.2907910   2.8959150   9.1758416  )
         8           Ti1 tau(   8) = (   0.0015273   1.4827037   9.2680791  )
         9           O1  tau(   9) = (   3.2636084   5.9406443  11.4082010  )
        10           O1  tau(  10) = (   0.0116148   5.9584955  10.6183126  )
        11           O1  tau(  11) = (   1.2642105   1.4849797  12.6947803  )
        12           O1  tau(  12) = (   5.2691575   1.4821021  12.6650678  )
        13           Ti1 tau(  13) = (   6.5574234   2.9640577  12.4921542  )
        14           Ti1 tau(  14) = (   3.2619390   1.4709553  12.5527290  )
        15           O1  tau(  15) = (   6.5247406   5.9594380  14.6832748  )
        16           O1  tau(  16) = (   3.2695906   5.9428997  14.0562986  )
        17           O1  tau(  17) = (   4.5175969   1.4707097  16.2986306  )
        18           O1  tau(  18) = (   1.9406912   1.4777946  16.2473769  )
        19           Ti1 tau(  19) = (   3.2491105   2.9422209  15.8109686  )
        20           Ti1 tau(  20) = (   6.5361480   1.3378720  15.9626387  )
        21           O1  tau(  21) = (   3.2904802   0.0005063   4.7018136  )
        22           O1  tau(  22) = (   6.5280740   5.8897732  17.4332532  )
        23           O1  tau(  23) = (   1.3043587   1.4918075   6.0039043  )
        24           O1  tau(  24) = (   5.2767064   1.4903225   6.0039473  )
        25           Ti1 tau(  25) = (   0.0000382   5.9609847   6.0000000  )
        26           Ti1 tau(  26) = (   3.2902200   4.4714249   6.0002472  )
        27           O1  tau(  27) = (   0.0002396   2.9813036   7.9858123  )
        28           O1  tau(  28) = (   3.2902150   2.9813002   7.3038282  )
        29           O1  tau(  29) = (   4.5938453   4.4726049   9.2879030  )
        30           O1  tau(  30) = (   1.9864658   4.4711199   9.2879459  )
        31           Ti1 tau(  31) = (   3.2891106   5.8743827   9.1763621  )
        32           Ti1 tau(  32) = (   0.0006254   4.4649316   9.2693709  )
        33           O1  tau(  33) = (   3.2649920   2.9642658  11.3997388  )
        34           O1  tau(  34) = (   0.0092240   2.9805883  10.6323155  )
        35           O1  tau(  35) = (   1.2634527   4.4478426  12.7061968  )
        36           O1  tau(  36) = (   5.2693862   4.4495813  12.6755241  )
        37           Ti1 tau(  37) = (   6.5522441   5.9483113  12.5008436  )
        38           Ti1 tau(  38) = (   3.2626494   4.4468850  12.5575576  )
        39           O1  tau(  39) = (   6.4970557   2.9363996  15.0046851  )
        40           O1  tau(  40) = (   3.2722650   2.9529576  14.0194401  )
        41           O1  tau(  41) = (   4.5170401   4.4205294  16.2730734  )
        42           O1  tau(  42) = (   1.9466746   4.4191161  16.2235312  )
        43           Ti1 tau(  43) = (   3.2419262   5.9323414  15.8513663  )
        44           Ti1 tau(  44) = (   6.5549466   4.5556212  15.8889459  )
        45           O1  tau(  45) = (   3.2900926   2.9813045   4.7018136  )
        46           O1  tau(  46) = (   1.3039711   4.4726057   6.0039043  )
        47           O1  tau(  47) = (   5.2763189   4.4711207   6.0039473  )
        48           N1  tau(  48) = (   4.8657738   4.5798987  19.4796958  )
        49           C1  tau(  49) = (   5.7271871   3.4329544  19.8049648  )
        50           H1  tau(  50) = (   6.3241292   3.1721029  18.9298488  )
        51           H1  tau(  51) = (   6.4229137   3.7195585  20.5942015  )
        52           H1  tau(  52) = (   5.1874390   2.5328885  20.1195193  )
        53           H1  tau(  53) = (   5.9066942   5.7389963  18.1772939  )
        54           H1  tau(  54) = (   4.2003208   4.3266459  18.7469397  )
        55           H1  tau(  55) = (   4.3187305   4.8545830  20.2870342  )

     number of k points=    10  Fermi-Dirac smearing, width (Ry)=  0.0073
                       cart. coord. in units 2pi/alat
        k(    1) = (   0.0000000   0.0000000   0.0000000), wk =   0.1250000
        k(    2) = (   0.0000000   0.0419351   0.0000000), wk =   0.2500000
        k(    3) = (   0.0000000  -0.0838702   0.0000000), wk =   0.1250000
        k(    4) = (   0.0379955   0.0000049   0.0000000), wk =   0.2500000
        k(    5) = (   0.0379955   0.0419400   0.0000000), wk =   0.2500000
        k(    6) = (   0.0379955  -0.0838652   0.0000000), wk =   0.2500000
        k(    7) = (   0.0379955  -0.0419301   0.0000000), wk =   0.2500000
        k(    8) = (  -0.0759910  -0.0000099   0.0000000), wk =   0.1250000
        k(    9) = (  -0.0759910   0.0419252   0.0000000), wk =   0.2500000
        k(   10) = (  -0.0759910  -0.0838800   0.0000000), wk =   0.1250000

     Initial potential from superposition of free atoms

     starting charge  376.99914, renormalised to  393.00000

     negative rho (up, down):  1.330E-02 0.000E+00

     %%%%%%%%%%%%%%%%%%%%%%%%%%%%%%%%%%%%%%%%%%%%%%%%%%%%%%%%%%%%%%%%%%%%%%%%
     %                                                                      %
     % You are using vdW-DF, which was implemented by the Thonhauser group. %
     % Please cite the following two papers that made this development      %
     % possible and the two reviews that describe the various versions:     %
     %                                                                      %
     %   T. Thonhauser et al., PRL 115, 136402 (2015).                      %
     %   T. Thonhauser et al., PRB 76, 125112 (2007).                       %
     %   K. Berland et al., Rep. Prog. Phys. 78, 066501 (2015).             %
     %   D.C. Langreth et al., J. Phys.: Condens. Matter 21, 084203 (2009). %
     %                                                                      %
     %                                                                      %
     % If you are calculating the stress with vdW-DF, please also cite:     %
     %                                                                      %
     %   R. Sabatini et al., J. Phys.: Condens. Matter 24, 424209 (2012).   %
     %                                                                      %
     %%%%%%%%%%%%%%%%%%%%%%%%%%%%%%%%%%%%%%%%%%%%%%%%%%%%%%%%%%%%%%%%%%%%%%%%

     Adding external electric field

     Computed dipole along edir(3) :
        Dipole               -9.4918 Ry au,        -24.1257 Debye
        Dipole field         -0.0179 Ry au,

        Potential amp.        1.6604 Ry
        Total length         46.3494 bohr

     Starting wfcs are  298 atomic wfcs
  @ DRIVER MODE: Message from server: STATUS
  @ DRIVER MODE: Message from server: POSDATA
  @ DRIVER MODE: Reading and sharing cell
  @ DRIVER MODE: Reading and sharing positions
  @ DRIVER MODE: Received positions

     Self-consistent Calculation

     iteration #  1     ecut=    29.40 Ry     beta= 0.05
     Davidson diagonalization with overlap
     c_bands:  2 eigenvalues not converged
     c_bands:  1 eigenvalues not converged
     c_bands:  2 eigenvalues not converged
     c_bands:  3 eigenvalues not converged
     c_bands:  3 eigenvalues not converged
     c_bands:  1 eigenvalues not converged
     ethr =  1.00E-05,  avg # of iterations = 18.9

[...]

     total energy              =   -2620.46486535 Ry
     estimated scf accuracy    <    3390.23467019 Ry

[...]

     iteration #  3     ecut=    29.40 Ry     beta= 0.05
     Davidson diagonalization with overlap
     ethr =  1.00E-02,  avg # of iterations = 15.5

[...]

     iteration # 62     ecut=    29.40 Ry     beta= 0.05
     Davidson diagonalization with overlap
     ethr =  4.71E-11,  avg # of iterations =  6.1

[...]

     total energy              =   -2922.77373917 Ry
     estimated scf accuracy    <       0.00000008 Ry

     iteration # 63     ecut=    29.40 Ry     beta= 0.05
     Davidson diagonalization with overlap
     c_bands:  2 eigenvalues not converged
     ethr =  2.09E-11,  avg # of iterations = 11.2

     negative rho (up, down):  1.444E-02 0.000E+00

     Adding external electric field

     Computed dipole along edir(3) :
        Dipole                1.4055 Ry au,          3.5724 Debye
        Dipole field          0.0027 Ry au,

        Potential amp.       -0.2459 Ry
        Total length         46.3494 bohr

     End of self-consistent calculation

          k = 0.0000 0.0000 0.0000 ( 18029 PWs)   bands (ev):

   -55.3078 -55.2719 -55.2562 -55.2220 -55.1715 -55.1476 -55.1466 -55.1371
   -55.1132 -55.0832 -55.0723 -55.0493 -55.0306 -54.9725 -54.2997 -54.2656
   -31.8747 -31.7505 -31.6882 -31.6598 -31.6355 -31.6148 -31.5902 -31.5497
   -31.5455 -31.5441 -31.5149 -31.5039 -31.5001 -31.4754 -31.4648 -31.4596
   -31.4464 -31.4364 -31.4091 -31.4004 -31.3963 -31.3799 -31.3718 -31.3541
   -31.3517 -31.3142 -31.3134 -31.3037 -31.3019 -31.2887 -31.2839 -31.2819
   -31.2751 -31.2743 -31.2593 -31.2564 -31.2241 -31.2106 -31.1996 -31.1939
   -31.1810 -31.1063 -30.7100 -30.6135 -30.5916 -30.5260 -30.4391 -30.3285
   -16.8235 -16.1467 -15.8905 -15.7696 -15.6604 -15.5748 -15.5199 -15.4408
   -15.3569 -15.2564 -15.1949 -15.0899 -15.0557 -15.0157 -15.0008 -14.9819
   -14.9549 -14.8750 -14.8640 -14.8533 -14.8278 -14.8095 -14.7812 -14.7724
   -14.7656 -14.7263 -14.6890 -14.5765 -14.4862 -14.4007 -12.8031 -12.6854
   -10.0111  -5.8231  -4.7423  -4.4303  -3.5212  -3.4744  -3.3425  -3.2377
    -3.2041  -3.1962  -3.0750  -2.8920  -2.7969  -2.7697  -2.6843  -2.6285
    -2.5328  -2.5290  -2.4889  -2.3885  -2.3508  -2.3241  -2.2409  -2.2140
    -2.1678  -2.1169  -2.1066  -2.1034  -2.0829  -2.0425  -2.0037  -1.8849
    -1.8000  -1.7782  -1.7045  -1.6883  -1.6822  -1.6541  -1.6111  -1.5919
    -1.5426  -1.5255  -1.4848  -1.4162  -1.3549  -1.2726  -1.2356  -1.1987
    -0.9928  -0.9638  -0.9133  -0.9107  -0.8822  -0.8140  -0.7845  -0.7549
    -0.6888  -0.6864  -0.6579  -0.5516  -0.5089  -0.3880  -0.3174  -0.2379
    -0.1161  -0.1029  -0.0790  -0.0295  -0.0058   0.0538   0.1137   0.1505
     0.1899   0.2026   0.2899   0.3192   0.3959   0.4103   0.4476   0.5121
     0.5283   0.5544   0.5707   0.5844   0.6186   0.6345   0.6686   0.7353
     0.7674   0.8689   0.9175   1.2013   1.2867   1.5957   1.6189   1.7224
     1.9037   2.3008   2.3499   3.7866   3.8478   3.8883   3.9309   3.9344
     4.0162   4.1469   4.2898   4.2992   4.3105   4.3173

[...]

          k = 0.0380-0.0419 0.0000 ( 17876 PWs)   bands (ev):

[...]

          k =-0.0760-0.0000 0.0000 ( 17886 PWs)   bands (ev):

[...]

          k =-0.0760-0.0839 0.0000 ( 17948 PWs)   bands (ev):

   -55.2912 -55.2883 -55.2394 -55.2387 -55.1547 -55.1538 -55.1426 -55.1324
   -55.1281 -55.0761 -55.0676 -55.0650 -55.0235 -54.9796 -54.2827 -54.2825
   -31.6824 -31.6773 -31.5873 -31.5818 -31.5658 -31.5653 -31.5561 -31.5297
   -31.5291 -31.5083 -31.5036 -31.5016 -31.4884 -31.4622 -31.4573 -31.4561
   -31.4303 -31.4297 -31.4232 -31.4024 -31.3799 -31.3777 -31.3675 -31.3637
   -31.3630 -31.3589 -31.3583 -31.3491 -31.3475 -31.3416 -31.3379 -31.3226
   -31.3198 -31.3071 -31.3040 -31.2928 -31.2643 -31.2472 -31.2452 -31.2427
   -31.2257 -31.1727 -30.6043 -30.6041 -30.5225 -30.5223 -30.4825 -30.4825
   -16.7620 -15.8197 -15.5763 -15.5389 -15.4984 -15.4039 -15.3301 -15.2993
   -15.2889 -15.2759 -15.1500 -15.1219 -15.1122 -15.0841 -15.0522 -15.0279
   -15.0240 -14.9890 -14.9318 -14.9257 -14.9178 -14.9096 -14.8460 -14.8378
   -14.8340 -14.8272 -14.7617 -14.7593 -14.6773 -14.6753 -12.7867 -12.7867
   -10.0209  -5.8235  -4.8691  -4.4123  -3.5342  -2.8230  -2.7955  -2.7433
    -2.7012  -2.6122  -2.5266  -2.4993  -2.4628  -2.4051  -2.3529  -2.3055
    -2.3034  -2.2678  -2.2482  -2.2292  -2.1857  -2.1640  -2.1416  -2.1233
    -2.1086  -2.0549  -2.0520  -2.0429  -2.0186  -1.9844  -1.9670  -1.9538
    -1.9375  -1.9191  -1.8937  -1.8745  -1.7314  -1.7105  -1.6700  -1.5528
    -1.5348  -1.5313  -1.4984  -1.4546  -1.4298  -1.4222  -1.3483  -1.3412
    -1.3087  -1.1514  -1.0792  -1.0774  -1.0543  -1.0303  -0.9351  -0.8836
    -0.8432  -0.7934  -0.7175  -0.6862  -0.6675  -0.5950  -0.5680  -0.4766
    -0.3871  -0.3603  -0.3521  -0.2747  -0.2733  -0.2398  -0.2267  -0.1577
    -0.0975  -0.0459  -0.0419  -0.0378   0.0909   0.1278   0.2080   0.3220
     0.4024   0.4109   0.4615   0.5224   0.6029   0.6510   0.6660   0.7891
     0.7910   0.9774   0.9807   1.0292   1.0442   1.1245   1.1297   2.0765
     2.0772   2.1695   2.1698   3.7620   3.9450   3.9992   4.0722   4.0976
     4.1954   4.2803   4.3140   4.3440   4.3661   4.3725

     the Fermi energy is     3.8551 ev

!    total energy              =   -2922.77377205 Ry
     estimated scf accuracy    <       0.00000005 Ry
     smearing contrib. (-TS)   =      -0.04552224 Ry
     internal energy E=F+TS    =   -2922.72824981 Ry

     The total energy is F=E-TS. E is the sum of the following terms:
     one-electron contribution =  -23201.58403853 Ry
     hartree contribution      =   11691.08105747 Ry
     xc contribution           =    -482.54287828 Ry
     ewald contribution        =    9070.31388165 Ry
     electric field correction =       0.00372788 Ry

     convergence has been achieved in  63 iterations

     Forces acting on atoms (cartesian axes, Ry/au):

     atom    1 type  1   force =     0.00016788   -0.00007916    0.09302094
     atom    2 type  1   force =    -0.00001001   -0.00014413   -0.17878528
     atom    3 type  2   force =     0.00002132   -0.00029825   -0.02020983
     atom    4 type  2   force =    -0.00000280   -0.00223952    0.06097019
     atom    5 type  2   force =    -0.01151098   -0.00128273    0.01054503
     atom    6 type  2   force =     0.01242135   -0.00058623    0.00810711
     atom    7 type  1   force =    -0.00124299    0.00346725   -0.01488693
     atom    8 type  1   force =     0.00123202   -0.00359035   -0.00846148
     atom    9 type  2   force =     0.00001617   -0.00004868   -0.00024985
     atom   10 type  2   force =    -0.00281485   -0.00047901    0.00152817
     atom   11 type  2   force =     0.00011999   -0.00023352   -0.00029731
     atom   12 type  2   force =     0.00000558    0.00008836   -0.00010382
     atom   13 type  1   force =    -0.00019233   -0.00031221   -0.00063076
     atom   14 type  1   force =    -0.00003275   -0.00004215    0.00019619
     atom   15 type  2   force =    -0.00011337   -0.00023993   -0.00009779
     atom   16 type  2   force =     0.00032082    0.00035225   -0.00009991
     atom   17 type  2   force =     0.00077670    0.00027840   -0.00025617
     atom   18 type  2   force =     0.00008824   -0.00027166   -0.00003831
     atom   19 type  1   force =     0.00031207    0.00045130   -0.00041689
     atom   20 type  1   force =     0.00009309    0.00006787    0.00048911
     atom   21 type  2   force =     0.00012426   -0.00002970    0.10426969
     atom   22 type  2   force =    -0.00047733    0.00018391    0.00018190
     atom   23 type  2   force =    -0.06990927   -0.00010972   -0.02679110
     atom   24 type  2   force =     0.06988031    0.00034691   -0.02679556
     atom   25 type  1   force =     0.00019282   -0.00021376    0.09229819
     atom   26 type  1   force =    -0.00008071   -0.00037373   -0.17898472
     atom   27 type  2   force =     0.00003993   -0.00025677   -0.01894004
     atom   28 type  2   force =     0.00006598   -0.00192545    0.06021148
     atom   29 type  2   force =    -0.01169860   -0.00162497    0.01033764
     atom   30 type  2   force =     0.01248347   -0.00120734    0.00786906
     atom   31 type  1   force =    -0.00101193    0.00608638   -0.01577405
     atom   32 type  1   force =     0.00116486    0.00334247   -0.00864088
     atom   33 type  2   force =     0.00003215    0.00020193   -0.00023925
     atom   34 type  2   force =    -0.00240837   -0.00053576    0.00057831
     atom   35 type  2   force =     0.00000150    0.00000046    0.00004885
     atom   36 type  2   force =     0.00003910   -0.00007526    0.00036179
     atom   37 type  1   force =     0.00035738   -0.00003749   -0.00005494
     atom   38 type  1   force =    -0.00034779   -0.00030241    0.00044777
     atom   39 type  2   force =     0.00037326   -0.00015170    0.00063130
     atom   40 type  2   force =     0.00024867   -0.00017529    0.00004095
     atom   41 type  2   force =     0.00001569    0.00037386   -0.00050365
     atom   42 type  2   force =     0.00051065    0.00021928   -0.00015658
     atom   43 type  1   force =     0.00030587   -0.00019043   -0.00038143
     atom   44 type  1   force =     0.00009038   -0.00129530    0.00061374
     atom   45 type  2   force =     0.00011733   -0.00005587    0.10421971
     atom   46 type  2   force =    -0.06992231   -0.00005547   -0.02678419
     atom   47 type  2   force =     0.06991199    0.00035061   -0.02680492
     atom   48 type  3   force =    -0.00615351   -0.00134090   -0.00817480
     atom   49 type  4   force =    -0.00000816    0.00085171   -0.00109845
     atom   50 type  5   force =     0.00006605    0.00003455   -0.00007161
     atom   51 type  5   force =    -0.00074974   -0.00013712    0.00022503
     atom   52 type  5   force =    -0.00008324   -0.00032564    0.00030196
     atom   53 type  5   force =     0.00005908    0.00066800   -0.00105072
     atom   54 type  5   force =     0.00727131    0.00181447    0.00619668
     atom   55 type  5   force =    -0.00015624    0.00108762    0.00209046

     Total force =     0.367839     Total SCF correction =     0.000619
  @ DRIVER MODE: Message from server: STATUS
  @ DRIVER MODE: Message from server: GETFORCE
  @ DRIVER MODE: Returning v,forces,stress,ensemble

     Writing output data file ./calc.save/
  @ DRIVER MODE: Message from server: EXIT
  @ DRIVE MODE: Exiting

     General routines

     Parallel routines

   This run was terminated on:  23:58:57   2Aug2021

   JOB DONE.