     Program PWSCF v.6.7GPU starts on 16Sep2021 at  0:18:22

     R & G space division:  proc/nbgrp/npool/nimage =      10
     Reading input from /storage/home/hcoda1/3/ntian30/research/carbon/CxH_vib/H2O_calc/ads_slab/CHOH2O_a/out_0027/pw.inp
Warning: card &CELL ignored
Warning: card   CELL_DYNAMICS='IPI', ignored
Warning: card / ignored

     Current dimensions of program PWSCF are:
     Max number of different atomic species (ntypx) = 10
     Max number of k-points (npk) =  40000
     Max angular momentum in pseudopotentials (lmaxx) =  3
     Presently no symmetry can be used with electric field

     Message from routine cell_base_init:
     DEPRECATED: use true lattice parameter, not A to a.u. conversion factor

     IMPORTANT: XC functional enforced from input :
     Exchange-correlation= BEEF-VDW
                           (   1   4  43  14   2   0   0)
     Any further DFT definition will be discarded
     Please, verify this is what you really want

  @ DRIVER MODE: Connecting to
 qe_1139763_2852631.sched-torque.pace.gatech.eduafph2fkw_scratch
  using UNIX socket
  @ DRIVER MODE: Message from server: STATUS
  @ DRIVER MODE: Message from server: INIT
  @ DRIVER MODE: Receiving replica           0          -1
  @ DRIVER MODE: Receiving encoded integer          25
  @ DRIVER MODE:  SCF:  T  FORCE:  T  STRESS:  F  VC:  F  ENSEMBLE:  F
  @ DRIVER MODE:  SCF:  T  FORCE:  T  STRESS:  F  VC:  F  ENSEMBLE:  F

     Using Slab Decomposition

     bravais-lattice index     =            0
     lattice parameter (alat)  =       1.8897  a.u.
     unit-cell volume          =    6658.9804 (a.u.)^3
     number of atoms/cell      =           53
     number of atomic types    =            4
     number of electrons       =       397.00
     number of Kohn-Sham states=          208
     kinetic-energy cutoff     =      29.3995  Ry
     charge density cutoff     =     293.9946  Ry
     scf convergence threshold =      7.3E-08
     mixing beta               =       0.0500
     number of iterations used =            8  plain     mixing
     Exchange-correlation= BEEF-VDW
                           (   1   4  43  14   2   0   0)

     celldm(1)=   1.889726  celldm(2)=   0.000000  celldm(3)=   0.000000
     celldm(4)=   0.000000  celldm(5)=   0.000000  celldm(6)=   0.000000

     crystal axes: (cart. coord. in units of alat)
               a(1) = (   6.579727   0.000000   0.000000 )
               a(2) = (  -0.000775   5.961596   0.000000 )
               a(3) = (   0.000000   0.000000  25.155947 )

     reciprocal axes: (cart. coord. in units 2 pi/alat)
               b(1) = (  0.151982  0.000020  0.000000 )
               b(2) = (  0.000000  0.167740  0.000000 )
               b(3) = (  0.000000  0.000000  0.039752 )

     PseudoPot. # 1 for O  read from file:
     /storage/coda1/p-amedford6/0/shared/rich_project_chbe-medford/medford-share/data/pseudos_module/espresso/nninc/pbe/van/O.UPF
     MD5 check sum: 78c19812648e8988a0fe644b0f25305e
     Pseudo is Ultrasoft, Zval =  6.0
     Generated by new atomic code, or converted to UPF format
     Using radial grid of  737 points,  4 beta functions with:
                l(1) =   0
                l(2) =   0
                l(3) =   1
                l(4) =   1
     Q(r) pseudized with  8 coefficients,  rinner =    0.800   0.800   0.800

     PseudoPot. # 2 for Ti read from file:
     /storage/coda1/p-amedford6/0/shared/rich_project_chbe-medford/medford-share/data/pseudos_module/espresso/nninc/pbe/van/Ti.UPF
     MD5 check sum: 8e4df49b7f0d34bbd5052bf3f5ea0213
     Pseudo is Ultrasoft, Zval = 12.0
     Generated by new atomic code, or converted to UPF format
     Using radial grid of  851 points,  6 beta functions with:
                l(1) =   0
                l(2) =   0
                l(3) =   1
                l(4) =   1
                l(5) =   2
                l(6) =   2
     Q(r) pseudized with  8 coefficients,  rinner =    1.000   1.000   1.000
                                                       1.000   1.000

     PseudoPot. # 3 for C  read from file:
     /storage/coda1/p-amedford6/0/shared/rich_project_chbe-medford/medford-share/data/pseudos_module/espresso/nninc/pbe/van/C.UPF
     MD5 check sum: 1a69bf6b8db32088f5b2163dbdb77a27
     Pseudo is Ultrasoft, Zval =  4.0
     Generated by new atomic code, or converted to UPF format
     Using radial grid of  721 points,  4 beta functions with:
                l(1) =   0
                l(2) =   0
                l(3) =   1
                l(4) =   1
     Q(r) pseudized with  8 coefficients,  rinner =    0.800   0.800   0.800

     PseudoPot. # 4 for H  read from file:
     /storage/coda1/p-amedford6/0/shared/rich_project_chbe-medford/medford-share/data/pseudos_module/espresso/nninc/pbe/van/H.UPF
     MD5 check sum: b5ee9d7bfd3a09ee7748110bda690ff7
     Pseudo is Ultrasoft, Zval =  1.0
     Generated by new atomic code, or converted to UPF format
     Using radial grid of  615 points,  1 beta functions with:
                l(1) =   0
     Q(r) pseudized with  8 coefficients,  rinner =    0.800

     atomic species   valence    mass     pseudopotential
        O1             6.00    15.99900     O ( 1.00)
        Ti1           12.00    47.86700     Ti( 1.00)
        C1             4.00    12.01100     C ( 1.00)
        H1             1.00     1.00800     H ( 1.00)

     No symmetry found

   Cartesian axes

     site n.     atom                  positions (alat units)
         1           O1  tau(   1) = (   3.2904802   0.0005063   4.7018136  )
         2           O1  tau(   2) = (   3.2900926   2.9813045   4.7018136  )
         3           Ti1 tau(   3) = (   0.0004258   2.9801865   6.0000000  )
         4           Ti1 tau(   4) = (   0.0000382   5.9609847   6.0000000  )
         5           Ti1 tau(   5) = (   3.2906075   1.4906267   6.0002472  )
         6           Ti1 tau(   6) = (   3.2902200   4.4714249   6.0002472  )
         7           O1  tau(   7) = (   1.3043587   1.4918075   6.0039043  )
         8           O1  tau(   8) = (   1.3039711   4.4726057   6.0039043  )
         9           O1  tau(   9) = (   5.2767064   1.4903225   6.0039473  )
        10           O1  tau(  10) = (   5.2763189   4.4711207   6.0039473  )
        11           O1  tau(  11) = (   3.2906025   0.0005020   7.3038282  )
        12           O1  tau(  12) = (   3.2902150   2.9813002   7.3038282  )
        13           O1  tau(  13) = (   0.0006271   0.0005054   7.9858123  )
        14           O1  tau(  14) = (   0.0002396   2.9813036   7.9858123  )
        15           Ti1 tau(  15) = (   3.2898052   0.0549011   9.1556235  )
        16           Ti1 tau(  16) = (   3.3203827   3.0319468   9.1649589  )
        17           Ti1 tau(  17) = (   0.0233352   4.5284096   9.2575609  )
        18           Ti1 tau(  18) = (   0.0173867   1.6076536   9.3607995  )
        19           O1  tau(  19) = (   4.5942328   1.4918067   9.2879030  )
        20           O1  tau(  20) = (   4.5938453   4.4726049   9.2879030  )
        21           O1  tau(  21) = (   1.9868534   1.4903216   9.2879459  )
        22           O1  tau(  22) = (   1.9864658   4.4711199   9.2879459  )
        23           O1  tau(  23) = (   0.0034721   0.0125384  10.6021848  )
        24           O1  tau(  24) = (   0.0020335   2.9928551  10.5785608  )
        25           O1  tau(  25) = (   3.2937812   2.9995440  11.3622203  )
        26           O1  tau(  26) = (   3.2898347   0.0201518  11.3605052  )
        27           Ti1 tau(  27) = (   0.0300534   0.0302837  12.4945235  )
        28           Ti1 tau(  28) = (   3.3347356   4.5017157  12.5123549  )
        29           Ti1 tau(  29) = (   3.3349302   1.5071924  12.5110355  )
        30           Ti1 tau(  30) = (   0.0295963   3.0145660  12.7881340  )
        31           O1  tau(  31) = (   1.2797855   4.4923438  12.6426172  )
        32           O1  tau(  32) = (   1.2799313   1.5104473  12.6443552  )
        33           O1  tau(  33) = (   5.2866386   4.4922094  12.6434695  )
        34           O1  tau(  34) = (   5.2866683   1.5083124  12.6439979  )
        35           O1  tau(  35) = (   3.2814828   3.0070543  13.9178409  )
        36           O1  tau(  36) = (   3.2867003   0.0227894  13.9786966  )
        37           O1  tau(  37) = (   0.0021618   0.0175046  14.6784646  )
        38           O1  tau(  38) = (   0.0002945   3.0143855  14.7103493  )
        39           Ti1 tau(  39) = (   3.2869621   3.0144872  15.7052805  )
        40           Ti1 tau(  40) = (   3.3044863   0.0423327  15.8215216  )
        41           Ti1 tau(  41) = (   0.0135451   4.5796903  15.9522020  )
        42           Ti1 tau(  42) = (   0.0105102   1.3838334  15.9764479  )
        43           O1  tau(  43) = (   4.5519026   4.4709862  16.0573678  )
        44           O1  tau(  44) = (   4.5564327   1.5473262  16.0430495  )
        45           O1  tau(  45) = (   2.0152543   1.5518810  16.0555283  )
        46           O1  tau(  46) = (   2.0123771   4.4621050  16.0713562  )
        47           O1  tau(  47) = (   0.0008539   0.0298781  17.1953024  )
        48           O1  tau(  48) = (   6.5358978   3.0350243  17.4695059  )
        49           C1  tau(  49) = (   6.3916590   3.0774531  18.7359330  )
        50           H1  tau(  50) = (   6.4332689   2.0249999  19.1325638  )
        51           O1  tau(  51) = (   3.2941481   0.0813851  18.1811625  )
        52           H1  tau(  52) = (   4.0521942   5.5677154  18.5714528  )
        53           H1  tau(  53) = (   2.4879692   5.6555715  18.5615442  )

     number of k points=    10  Fermi-Dirac smearing, width (Ry)=  0.0073
                       cart. coord. in units 2pi/alat
        k(    1) = (   0.0000000   0.0000000   0.0000000), wk =   0.1250000
        k(    2) = (   0.0000000   0.0419351   0.0000000), wk =   0.2500000
        k(    3) = (   0.0000000  -0.0838702   0.0000000), wk =   0.1250000
        k(    4) = (   0.0379955   0.0000049   0.0000000), wk =   0.2500000
        k(    5) = (   0.0379955   0.0419400   0.0000000), wk =   0.2500000
        k(    6) = (   0.0379955  -0.0838652   0.0000000), wk =   0.2500000
        k(    7) = (   0.0379955  -0.0419301   0.0000000), wk =   0.2500000
        k(    8) = (  -0.0759910  -0.0000099   0.0000000), wk =   0.1250000
        k(    9) = (  -0.0759910   0.0419252   0.0000000), wk =   0.2500000
        k(   10) = (  -0.0759910  -0.0838800   0.0000000), wk =   0.1250000

     Initial potential from superposition of free atoms

     starting charge  380.99918, renormalised to  397.00000

     negative rho (up, down):  1.751E-02 0.000E+00

     %%%%%%%%%%%%%%%%%%%%%%%%%%%%%%%%%%%%%%%%%%%%%%%%%%%%%%%%%%%%%%%%%%%%%%%%
     %                                                                      %
     % You are using vdW-DF, which was implemented by the Thonhauser group. %
     % Please cite the following two papers that made this development      %
     % possible and the two reviews that describe the various versions:     %
     %                                                                      %
     %   T. Thonhauser et al., PRL 115, 136402 (2015).                      %
     %   T. Thonhauser et al., PRB 76, 125112 (2007).                       %
     %   K. Berland et al., Rep. Prog. Phys. 78, 066501 (2015).             %
     %   D.C. Langreth et al., J. Phys.: Condens. Matter 21, 084203 (2009). %
     %                                                                      %
     %                                                                      %
     % If you are calculating the stress with vdW-DF, please also cite:     %
     %                                                                      %
     %   R. Sabatini et al., J. Phys.: Condens. Matter 24, 424209 (2012).   %
     %                                                                      %
     %%%%%%%%%%%%%%%%%%%%%%%%%%%%%%%%%%%%%%%%%%%%%%%%%%%%%%%%%%%%%%%%%%%%%%%%

     Adding external electric field

     Computed dipole along edir(3) :
        Dipole               -8.9490 Ry au,        -22.7462 Debye
        Dipole field         -0.0169 Ry au,

        Potential amp.        1.5655 Ry
        Total length         46.3494 bohr

     Starting wfcs are  299 atomic wfcs
  @ DRIVER MODE: Message from server: STATUS
  @ DRIVER MODE: Message from server: POSDATA
  @ DRIVER MODE: Reading and sharing cell
  @ DRIVER MODE: Reading and sharing positions
  @ DRIVER MODE: Received positions

     Self-consistent Calculation

     iteration #  1     ecut=    29.40 Ry     beta= 0.05
     Davidson diagonalization with overlap
     c_bands:  1 eigenvalues not converged
     c_bands:  1 eigenvalues not converged
     c_bands:  1 eigenvalues not converged
     c_bands:  1 eigenvalues not converged
     c_bands:  2 eigenvalues not converged
     ethr =  1.00E-05,  avg # of iterations = 19.3

[...]

     total energy              =   -2583.16926100 Ry
     estimated scf accuracy    <    4233.83811537 Ry

     iteration #  2     ecut=    29.40 Ry     beta= 0.05
     Davidson diagonalization with overlap
     ethr =  1.00E-02,  avg # of iterations = 24.7

[...]

     iteration # 84     ecut=    29.40 Ry     beta= 0.05
     Davidson diagonalization with overlap
     c_bands:  1 eigenvalues not converged
     ethr =  3.76E-11,  avg # of iterations = 14.9

[...]

     total energy              =   -2963.67532647 Ry
     estimated scf accuracy    <       0.00000028 Ry

     iteration # 85     ecut=    29.40 Ry     beta= 0.05
     Davidson diagonalization with overlap
     ethr =  3.76E-11,  avg # of iterations = 11.8

     negative rho (up, down):  1.624E-02 0.000E+00

     Adding external electric field

     Computed dipole along edir(3) :
        Dipole                0.4636 Ry au,          1.1784 Debye
        Dipole field          0.0009 Ry au,

        Potential amp.       -0.0811 Ry
        Total length         46.3494 bohr

     End of self-consistent calculation

          k = 0.0000 0.0000 0.0000 ( 18029 PWs)   bands (ev):

   -56.0139 -55.9781 -55.9770 -55.9556 -55.9420 -55.8969 -55.8630 -55.8279
   -55.7966 -55.7920 -55.7810 -55.7541 -55.7474 -55.6872 -55.0232 -54.9891
   -32.5314 -32.4845 -32.4060 -32.3738 -32.3645 -32.3098 -32.2902 -32.2794
   -32.2594 -32.2465 -32.2085 -32.2012 -32.1910 -32.1724 -32.1715 -32.1603
   -32.1329 -32.1203 -32.1066 -32.1065 -32.0853 -32.0771 -32.0721 -32.0653
   -32.0506 -32.0424 -32.0400 -32.0284 -32.0121 -32.0023 -31.9986 -31.9850
   -31.9653 -31.9592 -31.9564 -31.9538 -31.9255 -31.9076 -31.8968 -31.8865
   -31.8737 -31.8697 -31.4327 -31.3368 -31.3144 -31.2491 -31.1630 -31.0520
   -19.4386 -19.0940 -16.7347 -16.4735 -16.3137 -16.1950 -16.1464 -15.9301
   -15.8460 -15.7956 -15.7078 -15.6325 -15.6037 -15.5867 -15.5535 -15.5389
   -15.5326 -15.5114 -15.4595 -15.4426 -15.4204 -15.4153 -15.4036 -15.3845
   -15.3031 -15.2302 -15.1677 -15.1354 -15.0627 -15.0235 -14.9851 -13.5242
   -13.4063  -7.8976  -6.8820  -4.6593  -4.0930  -3.9502  -3.9304  -3.9019
    -3.8314  -3.6602  -3.6167  -3.4716  -3.3163  -3.3054  -3.1858  -3.1488
    -3.1241  -3.0564  -3.0385  -2.9779  -2.8493  -2.8359  -2.8251  -2.8072
    -2.7966  -2.7532  -2.7311  -2.6945  -2.6542  -2.5876  -2.5165  -2.4908
    -2.4164  -2.4100  -2.3732  -2.3175  -2.3122  -2.2873  -2.2731  -2.2470
    -2.1966  -2.1821  -2.1710  -2.0676  -1.9799  -1.8681  -1.7074  -1.6818
    -1.6781  -1.5550  -1.5059  -1.4489  -1.4194  -1.4175  -1.3678  -1.3191
    -1.2728  -1.2542  -1.1494  -1.0359  -1.0036  -0.9429  -0.9160  -0.7913
    -0.7413  -0.7357  -0.7264  -0.7179  -0.6942  -0.6243  -0.5106  -0.4381
    -0.4287  -0.3376  -0.3154  -0.3026  -0.2440  -0.2348  -0.2137  -0.1590
    -0.1138  -0.0668  -0.0498  -0.0199   0.0172   0.0221   0.1525   0.2021
     0.2306   0.2514   0.2894   0.4583   0.5025   0.6324   0.7380   0.9084
     1.0007   1.0658   1.1752   1.5863   1.6437   2.8412   3.1635   3.2077
     3.2213   3.2358   3.2984   3.4009   3.5462   3.6169   3.6619   3.7167

[...]

          k = 0.0380-0.0419 0.0000 ( 17876 PWs)   bands (ev):

[...]

          k =-0.0760-0.0000 0.0000 ( 17886 PWs)   bands (ev):

[...]

          k =-0.0760-0.0839 0.0000 ( 17948 PWs)   bands (ev):

   -56.0025 -55.9882 -55.9612 -55.9588 -55.9535 -55.8847 -55.8752 -55.8236
   -55.7938 -55.7934 -55.7660 -55.7626 -55.7583 -55.6899 -55.0067 -55.0055
   -32.3463 -32.3256 -32.3184 -32.3086 -32.2962 -32.2929 -32.2732 -32.2462
   -32.2377 -32.2270 -32.2169 -32.2104 -32.1691 -32.1582 -32.1509 -32.1401
   -32.1269 -32.1231 -32.1178 -32.1168 -32.1125 -32.1107 -32.0929 -32.0887
   -32.0884 -32.0820 -32.0760 -32.0478 -32.0314 -32.0257 -32.0175 -32.0162
   -32.0080 -31.9950 -31.9838 -31.9773 -31.9742 -31.9720 -31.9616 -31.9474
   -31.9142 -31.8835 -31.3278 -31.3264 -31.2461 -31.2451 -31.2066 -31.2056
   -19.4301 -19.0934 -16.1873 -16.0794 -16.0712 -15.8959 -15.8822 -15.8593
   -15.8173 -15.8072 -15.7146 -15.7119 -15.6680 -15.6551 -15.6289 -15.5945
   -15.5898 -15.5288 -15.5277 -15.5233 -15.4684 -15.4626 -15.4407 -15.4255
   -15.4035 -15.3937 -15.3485 -15.3371 -15.2738 -15.2037 -15.1919 -13.5087
   -13.5065  -7.8985  -6.8752  -4.6042  -3.7272  -3.4694  -3.3214  -3.2902
    -3.2311  -3.1325  -3.1055  -3.0681  -3.0195  -2.9792  -2.9301  -2.8701
    -2.8467  -2.8431  -2.8322  -2.8266  -2.8074  -2.8007  -2.7614  -2.7368
    -2.7047  -2.6765  -2.6577  -2.6348  -2.6292  -2.6110  -2.5865  -2.5754
    -2.5626  -2.5534  -2.4844  -2.4543  -2.3318  -2.3241  -2.2439  -2.2123
    -2.1500  -2.1433  -2.1205  -2.0782  -2.0693  -2.0542  -1.8793  -1.8556
    -1.7469  -1.7398  -1.7184  -1.6891  -1.5990  -1.5311  -1.4936  -1.4762
    -1.4242  -1.4065  -1.3318  -1.2694  -1.2096  -1.1732  -1.1052  -1.0738
    -1.0574  -0.9798  -0.9704  -0.9339  -0.9093  -0.8914  -0.7723  -0.7653
    -0.7299  -0.6941  -0.6634  -0.6105  -0.5625  -0.5456  -0.5091  -0.4564
    -0.3833  -0.3598  -0.1704   0.0111   0.0177   0.0472   0.1381   0.1769
     0.2955   0.3284   0.3334   0.3684   0.4092   0.5029   0.5255   0.5330
     0.6067   1.3610   1.3619   1.4485   1.4595   2.7085   3.3531   3.4122
     3.4764   3.5121   3.6171   3.6347   3.6492   3.6604   3.6967   3.7957

     the Fermi energy is     3.1368 ev

!    total energy              =   -2963.67533284 Ry
     estimated scf accuracy    <       0.00000005 Ry
     smearing contrib. (-TS)   =      -0.02582028 Ry
     internal energy E=F+TS    =   -2963.64951256 Ry

     The total energy is F=E-TS. E is the sum of the following terms:
     one-electron contribution =  -24422.86533364 Ry
     hartree contribution      =   12298.84352308 Ry
     xc contribution           =    -489.18512042 Ry
     ewald contribution        =    9649.55701284 Ry
     electric field correction =       0.00040559 Ry

     convergence has been achieved in  85 iterations

     Forces acting on atoms (cartesian axes, Ry/au):

     atom    1 type  1   force =    -0.00006420    0.00006866    0.10400900
     atom    2 type  1   force =    -0.00005623    0.00005505    0.10402814
     atom    3 type  2   force =    -0.00018348   -0.00195674    0.10276045
     atom    4 type  2   force =    -0.00007993    0.00161158    0.11465842
     atom    5 type  2   force =    -0.00026264    0.00155962   -0.17905033
     atom    6 type  2   force =    -0.00014395   -0.00104429   -0.17941696
     atom    7 type  1   force =    -0.06954453    0.00066303   -0.02928090
     atom    8 type  1   force =    -0.06908800   -0.00122643   -0.02932601
     atom    9 type  1   force =     0.06922268    0.00119148   -0.02933737
     atom   10 type  1   force =     0.06884696   -0.00085868   -0.02940858
     atom   11 type  1   force =     0.00005847    0.00064189    0.04738140
     atom   12 type  1   force =     0.00063819    0.00090459    0.04974973
     atom   13 type  1   force =     0.00021865   -0.00563257   -0.03308709
     atom   14 type  1   force =     0.00028406    0.00398066   -0.02649497
     atom   15 type  2   force =    -0.00015821   -0.00003861   -0.00072497
     atom   16 type  2   force =    -0.00019596   -0.00005418   -0.00076870
     atom   17 type  2   force =     0.00009053   -0.00093529   -0.00006923
     atom   18 type  2   force =     0.00011768    0.00111459   -0.00008730
     atom   19 type  1   force =    -0.01880251   -0.00005845    0.00453075
     atom   20 type  1   force =    -0.01690015    0.00165140    0.00398491
     atom   21 type  1   force =     0.01838176   -0.00109538    0.00451457
     atom   22 type  1   force =     0.01749311    0.00197795    0.00384241
     atom   23 type  1   force =     0.00017982    0.00005725   -0.00074543
     atom   24 type  1   force =     0.00011294   -0.00023028   -0.00028409
     atom   25 type  1   force =    -0.00031669    0.00016517   -0.00068108
     atom   26 type  1   force =    -0.00019536   -0.00004617   -0.00086107
     atom   27 type  2   force =    -0.00019902    0.00045429    0.00035976
     atom   28 type  2   force =     0.00027273    0.00065724    0.00079525
     atom   29 type  2   force =     0.00028824   -0.00011882    0.00097987
     atom   30 type  2   force =    -0.00018868   -0.00023162    0.00019261
     atom   31 type  1   force =     0.00026530   -0.00008131   -0.00037149
     atom   32 type  1   force =     0.00004776    0.00012584   -0.00010289
     atom   33 type  1   force =    -0.00012802   -0.00017315   -0.00073451
     atom   34 type  1   force =     0.00002039    0.00013049   -0.00043620
     atom   35 type  1   force =     0.00010327   -0.00003574   -0.00118651
     atom   36 type  1   force =     0.00012739   -0.00053899    0.00030614
     atom   37 type  1   force =    -0.00020189    0.00015650    0.00002158
     atom   38 type  1   force =     0.00015628   -0.00003928   -0.00068024
     atom   39 type  2   force =    -0.00011375   -0.00051141    0.00074800
     atom   40 type  2   force =     0.00001639   -0.00072806    0.00003474
     atom   41 type  2   force =     0.00028125   -0.00076679   -0.00005851
     atom   42 type  2   force =    -0.00001079    0.00042538    0.00026295
     atom   43 type  1   force =    -0.00087008   -0.00046852    0.00018609
     atom   44 type  1   force =    -0.00020858   -0.00014979    0.00007733
     atom   45 type  1   force =     0.00018468   -0.00033310    0.00023696
     atom   46 type  1   force =     0.00078413   -0.00019130    0.00005751
     atom   47 type  1   force =    -0.00027984    0.00034562    0.00006632
     atom   48 type  1   force =     0.00013635    0.00057127   -0.00005441
     atom   49 type  3   force =    -0.00014448   -0.00018098   -0.00046051
     atom   50 type  4   force =    -0.00055109    0.00082908   -0.00073848
     atom   51 type  1   force =     0.00694863   -0.00497629    0.00302283
     atom   52 type  4   force =    -0.00544027    0.00353133   -0.00264797
     atom   53 type  4   force =    -0.00094931   -0.00016773    0.00028811

     Total force =     0.374530     Total SCF correction =     0.000648
  @ DRIVER MODE: Message from server: STATUS
  @ DRIVER MODE: Message from server: GETFORCE
  @ DRIVER MODE: Returning v,forces,stress,ensemble

     Writing output data file ./calc.save/
  @ DRIVER MODE: Message from server: EXIT
  @ DRIVE MODE: Exiting

     General routines

     Parallel routines

   This run was terminated on:   0:39:42  16Sep2021

   JOB DONE.