     Program PWSCF v.6.7GPU starts on 16Jul2021 at 13:26:11

     R & G space division:  proc/nbgrp/npool/nimage =      16
     Reading input from /storage/home/hcoda1/3/ntian30/research/carbon/15Jul_vib/ads_slab/CH3N2_b/out_0034/pw.inp
Warning: card &CELL ignored
Warning: card   CELL_DYNAMICS='IPI', ignored
Warning: card / ignored

     Current dimensions of program PWSCF are:
     Max number of different atomic species (ntypx) = 10
     Max number of k-points (npk) =  40000
     Max angular momentum in pseudopotentials (lmaxx) =  3
     Presently no symmetry can be used with electric field

     Message from routine cell_base_init:
     DEPRECATED: use true lattice parameter, not A to a.u. conversion factor

     IMPORTANT: XC functional enforced from input :
     Exchange-correlation= BEEF-VDW
                           (   1   4  43  14   2   0   0)
     Any further DFT definition will be discarded
     Please, verify this is what you really want

  @ DRIVER MODE: Connecting to
 qe_1139763_2351645.sched-torque.pace.gatech.edudgfxwbd1_scratch
  using UNIX socket
  @ DRIVER MODE: Message from server: STATUS
  @ DRIVER MODE: Message from server: INIT
  @ DRIVER MODE: Receiving replica           0          -1
  @ DRIVER MODE: Receiving encoded integer          25
  @ DRIVER MODE:  SCF:  T  FORCE:  T  STRESS:  F  VC:  F  ENSEMBLE:  F
  @ DRIVER MODE:  SCF:  T  FORCE:  T  STRESS:  F  VC:  F  ENSEMBLE:  F

     Using Slab Decomposition

     bravais-lattice index     =            0
     lattice parameter (alat)  =       1.8897  a.u.
     unit-cell volume          =    6658.9804 (a.u.)^3
     number of atoms/cell      =           53
     number of atomic types    =            5
     number of electrons       =       395.00
     number of Kohn-Sham states=          207
     kinetic-energy cutoff     =      29.3995  Ry
     charge density cutoff     =     293.9946  Ry
     scf convergence threshold =      7.3E-08
     mixing beta               =       0.0500
     number of iterations used =            8  plain     mixing
     Exchange-correlation= BEEF-VDW
                           (   1   4  43  14   2   0   0)

     celldm(1)=   1.889726  celldm(2)=   0.000000  celldm(3)=   0.000000
     celldm(4)=   0.000000  celldm(5)=   0.000000  celldm(6)=   0.000000

     crystal axes: (cart. coord. in units of alat)
               a(1) = (   6.579727   0.000000   0.000000 )
               a(2) = (  -0.000775   5.961596   0.000000 )
               a(3) = (   0.000000   0.000000  25.155947 )

     reciprocal axes: (cart. coord. in units 2 pi/alat)
               b(1) = (  0.151982  0.000020  0.000000 )
               b(2) = (  0.000000  0.167740  0.000000 )
               b(3) = (  0.000000  0.000000  0.039752 )

     PseudoPot. # 1 for Ti read from file:
     /storage/coda1/p-amedford6/0/shared/rich_project_chbe-medford/medford-share/data/pseudos_module/espresso/nninc/pbe/van/Ti.UPF
     MD5 check sum: 8e4df49b7f0d34bbd5052bf3f5ea0213
     Pseudo is Ultrasoft, Zval = 12.0
     Generated by new atomic code, or converted to UPF format
     Using radial grid of  851 points,  6 beta functions with:
                l(1) =   0
                l(2) =   0
                l(3) =   1
                l(4) =   1
                l(5) =   2
                l(6) =   2
     Q(r) pseudized with  8 coefficients,  rinner =    1.000   1.000   1.000
                                                       1.000   1.000

     PseudoPot. # 2 for O  read from file:
     /storage/coda1/p-amedford6/0/shared/rich_project_chbe-medford/medford-share/data/pseudos_module/espresso/nninc/pbe/van/O.UPF
     MD5 check sum: 78c19812648e8988a0fe644b0f25305e
     Pseudo is Ultrasoft, Zval =  6.0
     Generated by new atomic code, or converted to UPF format
     Using radial grid of  737 points,  4 beta functions with:
                l(1) =   0
                l(2) =   0
                l(3) =   1
                l(4) =   1
     Q(r) pseudized with  8 coefficients,  rinner =    0.800   0.800   0.800

     PseudoPot. # 3 for N  read from file:
     /storage/coda1/p-amedford6/0/shared/rich_project_chbe-medford/medford-share/data/pseudos_module/espresso/nninc/pbe/van/N.UPF
     MD5 check sum: 90d10febe142ad51ac9d5be1deb811c4
     Pseudo is Ultrasoft, Zval =  5.0
     Generated by new atomic code, or converted to UPF format
     Using radial grid of  729 points,  4 beta functions with:
                l(1) =   0
                l(2) =   0
                l(3) =   1
                l(4) =   1
     Q(r) pseudized with  8 coefficients,  rinner =    0.800   0.800   0.800

     PseudoPot. # 4 for C  read from file:
     /storage/coda1/p-amedford6/0/shared/rich_project_chbe-medford/medford-share/data/pseudos_module/espresso/nninc/pbe/van/C.UPF
     MD5 check sum: 1a69bf6b8db32088f5b2163dbdb77a27
     Pseudo is Ultrasoft, Zval =  4.0
     Generated by new atomic code, or converted to UPF format
     Using radial grid of  721 points,  4 beta functions with:
                l(1) =   0
                l(2) =   0
                l(3) =   1
                l(4) =   1
     Q(r) pseudized with  8 coefficients,  rinner =    0.800   0.800   0.800

     PseudoPot. # 5 for H  read from file:
     /storage/coda1/p-amedford6/0/shared/rich_project_chbe-medford/medford-share/data/pseudos_module/espresso/nninc/pbe/van/H.UPF
     MD5 check sum: b5ee9d7bfd3a09ee7748110bda690ff7
     Pseudo is Ultrasoft, Zval =  1.0
     Generated by new atomic code, or converted to UPF format
     Using radial grid of  615 points,  1 beta functions with:
                l(1) =   0
     Q(r) pseudized with  8 coefficients,  rinner =    0.800

     atomic species   valence    mass     pseudopotential
        Ti1           12.00    47.86700     Ti( 1.00)
        O1             6.00    15.99900     O ( 1.00)
        N1             5.00    14.00700     N ( 1.00)
        C1             4.00    12.01100     C ( 1.00)
        H1             1.00     1.00800     H ( 1.00)

     Starting magnetic structure
     atomic species   magnetization
        Ti1          0.000
        O1           0.000
        N1           0.000
        C1           0.025
        H1           0.000

     No symmetry found

   Cartesian axes

     site n.     atom                  positions (alat units)
         1           Ti1 tau(   1) = (   0.0004258   2.9801865   6.0000000  )
         2           Ti1 tau(   2) = (   3.2906075   1.4906267   6.0002472  )
         3           O1  tau(   3) = (   0.0006271   0.0005054   7.9858123  )
         4           O1  tau(   4) = (   3.2906025   0.0005020   7.3038282  )
         5           O1  tau(   5) = (   4.5942328   1.4918067   9.2879030  )
         6           O1  tau(   6) = (   1.9868534   1.4903216   9.2879459  )
         7           Ti1 tau(   7) = (   3.2907910   2.8959150   9.1758416  )
         8           Ti1 tau(   8) = (   0.0015273   1.4827037   9.2680791  )
         9           O1  tau(   9) = (   3.3037365   0.0094216  11.3222111  )
        10           O1  tau(  10) = (   0.0116148   5.9584955  10.6183126  )
        11           O1  tau(  11) = (   1.3152514   1.5075076  12.6320051  )
        12           O1  tau(  12) = (   5.3186361   1.4995162  12.6508707  )
        13           Ti1 tau(  13) = (   6.5540705   2.9956815  12.5884341  )
        14           Ti1 tau(  14) = (   3.2234832   1.4927074  12.4921739  )
        15           O1  tau(  15) = (   0.0610261   5.9052480  14.6017706  )
        16           O1  tau(  16) = (   3.2936532   0.0132264  13.8830087  )
        17           O1  tau(  17) = (   4.5722397   1.5061520  16.0138922  )
        18           O1  tau(  18) = (   2.0767725   1.5295127  16.0808449  )
        19           Ti1 tau(  19) = (   3.3650854   3.0251465  15.6907462  )
        20           Ti1 tau(  20) = (   0.0387768   1.3037779  15.7216176  )
        21           O1  tau(  21) = (   3.2904802   0.0005063   4.7018136  )
        22           O1  tau(  22) = (   0.0189486   0.1070799  17.1824039  )
        23           O1  tau(  23) = (   1.3043587   1.4918075   6.0039043  )
        24           O1  tau(  24) = (   5.2767064   1.4903225   6.0039473  )
        25           Ti1 tau(  25) = (   0.0000382   5.9609847   6.0000000  )
        26           Ti1 tau(  26) = (   3.2902200   4.4714249   6.0002472  )
        27           O1  tau(  27) = (   0.0002396   2.9813036   7.9858123  )
        28           O1  tau(  28) = (   3.2902150   2.9813002   7.3038282  )
        29           O1  tau(  29) = (   4.5938453   4.4726049   9.2879030  )
        30           O1  tau(  30) = (   1.9864658   4.4711199   9.2879459  )
        31           Ti1 tau(  31) = (   3.2891106   5.8743827   9.1763621  )
        32           Ti1 tau(  32) = (   0.0006254   4.4649316   9.2693709  )
        33           O1  tau(  33) = (   3.3043114   2.9829305  11.3227053  )
        34           O1  tau(  34) = (   0.0092240   2.9805883  10.6323155  )
        35           O1  tau(  35) = (   1.3131995   4.4620516  12.6081187  )
        36           O1  tau(  36) = (   5.3117129   4.4692194  12.6284301  )
        37           Ti1 tau(  37) = (   6.5303063   5.9583428  12.5400172  )
        38           Ti1 tau(  38) = (   3.2255477   4.4746212  12.4748647  )
        39           O1  tau(  39) = (   0.0377805   3.0059521  14.8845374  )
        40           O1  tau(  40) = (   3.3120027   2.9986483  13.8863452  )
        41           O1  tau(  41) = (   4.5434534   4.5277214  16.0148975  )
        42           O1  tau(  42) = (   2.1165747   4.4940517  16.0783766  )
        43           Ti1 tau(  43) = (   3.3042555   0.0241951  15.7004812  )
        44           Ti1 tau(  44) = (   0.0495666   4.4505358  16.3362958  )
        45           O1  tau(  45) = (   3.2900926   2.9813045   4.7018136  )
        46           O1  tau(  46) = (   1.3039711   4.4726057   6.0039043  )
        47           O1  tau(  47) = (   5.2763189   4.4711207   6.0039473  )
        48           N1  tau(  48) = (   0.5348212   3.4288502  18.0689430  )
        49           C1  tau(  49) = (   1.3556880   3.0079929  19.2215664  )
        50           H1  tau(  50) = (   1.4862090   3.8900195  19.8496782  )
        51           H1  tau(  51) = (   0.8469181   2.2141957  19.7647163  )
        52           H1  tau(  52) = (   2.3296892   2.6851793  18.8624704  )
        53           N1  tau(  53) = (   5.9145885   3.2736146  17.9655992  )

     number of k points=    10  Fermi-Dirac smearing, width (Ry)=  0.0073
                       cart. coord. in units 2pi/alat
        k(    1) = (   0.0000000   0.0000000   0.0000000), wk =   0.0625000
        k(    2) = (   0.0000000   0.0419351   0.0000000), wk =   0.1250000
        k(    3) = (   0.0000000  -0.0838702   0.0000000), wk =   0.0625000
        k(    4) = (   0.0379955   0.0000049   0.0000000), wk =   0.1250000
        k(    5) = (   0.0379955   0.0419400   0.0000000), wk =   0.1250000
        k(    6) = (   0.0379955  -0.0838652   0.0000000), wk =   0.1250000
        k(    7) = (   0.0379955  -0.0419301   0.0000000), wk =   0.1250000
        k(    8) = (  -0.0759910  -0.0000099   0.0000000), wk =   0.0625000
[...]
        k(   10) = (  -0.0759910  -0.0838800   0.0000000), wk =   0.0625000

     Initial potential from superposition of free atoms

     starting charge  378.99916, renormalised to  395.00000

     negative rho (up, down):  8.050E-03 8.057E-03

     %%%%%%%%%%%%%%%%%%%%%%%%%%%%%%%%%%%%%%%%%%%%%%%%%%%%%%%%%%%%%%%%%%%%%%%%
     %                                                                      %
     % You are using vdW-DF, which was implemented by the Thonhauser group. %
     % Please cite the following two papers that made this development      %
     % possible and the two reviews that describe the various versions:     %
     %                                                                      %
     %   T. Thonhauser et al., PRL 115, 136402 (2015).                      %
     %   T. Thonhauser et al., PRB 76, 125112 (2007).                       %
     %   K. Berland et al., Rep. Prog. Phys. 78, 066501 (2015).             %
     %   D.C. Langreth et al., J. Phys.: Condens. Matter 21, 084203 (2009). %
     %                                                                      %
     %                                                                      %
     % If you are calculating the stress with vdW-DF, please also cite:     %
     %                                                                      %
     %   R. Sabatini et al., J. Phys.: Condens. Matter 24, 424209 (2012).   %
     %                                                                      %
     %%%%%%%%%%%%%%%%%%%%%%%%%%%%%%%%%%%%%%%%%%%%%%%%%%%%%%%%%%%%%%%%%%%%%%%%

     Adding external electric field

     Computed dipole along edir(3) :
        Dipole               -8.5786 Ry au,        -21.8047 Debye
        Dipole field         -0.0162 Ry au,

        Potential amp.        1.5007 Ry
        Total length         46.3494 bohr

[...]

     Starting wfcs are  299 atomic wfcs
  @ DRIVER MODE: Message from server: STATUS
  @ DRIVER MODE: Message from server: POSDATA
  @ DRIVER MODE: Reading and sharing cell
  @ DRIVER MODE: Reading and sharing positions
  @ DRIVER MODE: Received positions

     Self-consistent Calculation

     iteration #  1     ecut=    29.40 Ry     beta= 0.05
     Davidson diagonalization with overlap
     c_bands:  1 eigenvalues not converged
     c_bands:  1 eigenvalues not converged
     c_bands:  1 eigenvalues not converged
     c_bands:  3 eigenvalues not converged
     c_bands:  1 eigenvalues not converged
     c_bands:  3 eigenvalues not converged
     c_bands:  1 eigenvalues not converged
     c_bands:  2 eigenvalues not converged
     c_bands:  1 eigenvalues not converged
     c_bands:  1 eigenvalues not converged
     c_bands:  1 eigenvalues not converged
     c_bands:  3 eigenvalues not converged
     c_bands:  1 eigenvalues not converged
     c_bands:  3 eigenvalues not converged
     c_bands:  1 eigenvalues not converged
     c_bands:  2 eigenvalues not converged
     ethr =  1.00E-05,  avg # of iterations = 19.2

[...]

     total energy              =   -2599.54262456 Ry
     estimated scf accuracy    <    3761.66624190 Ry

     total magnetization       =     0.00 Bohr mag/cell
     absolute magnetization    =     0.02 Bohr mag/cell

     iteration #  2     ecut=    29.40 Ry     beta= 0.05
     Davidson diagonalization with overlap
     ethr =  1.00E-02,  avg # of iterations = 22.5

[...]

     iteration # 64     ecut=    29.40 Ry     beta= 0.05
     Davidson diagonalization with overlap
     c_bands:  1 eigenvalues not converged
     c_bands:  1 eigenvalues not converged
     ethr =  8.36E-10,  avg # of iterations = 14.2

[...]

     total energy              =   -2939.12592609 Ry
     estimated scf accuracy    <       0.00000010 Ry

[...]

     iteration # 76     ecut=    29.40 Ry     beta= 0.05
     Davidson diagonalization with overlap
     ethr =  2.46E-11,  avg # of iterations =  4.0

     negative rho (up, down):  8.113E-03 8.113E-03

[...]

     Adding external electric field

     Computed dipole along edir(3) :
        Dipole                0.9146 Ry au,          2.3247 Debye
        Dipole field          0.0017 Ry au,

        Potential amp.       -0.1600 Ry
        Total length         46.3494 bohr

     Magnetic moment per site  (integrated on atomic sphere of radius R)
     atom   1 (R=0.727)  charge=  7.9485  magn=  0.0008
     atom   2 (R=0.727)  charge=  7.9315  magn= -0.0002
     atom   3 (R=0.727)  charge=  4.9370  magn= -0.0001
     atom   4 (R=0.727)  charge=  4.9738  magn=  0.0000
     atom   5 (R=0.727)  charge=  4.9424  magn= -0.0001
     atom   6 (R=0.727)  charge=  4.9431  magn= -0.0001
     atom   7 (R=0.727)  charge=  7.9299  magn=  0.0001
     atom   8 (R=0.727)  charge=  7.9249  magn=  0.0006
     atom   9 (R=0.727)  charge=  4.9562  magn= -0.0001
     atom  10 (R=0.727)  charge=  4.9398  magn= -0.0001
     atom  11 (R=0.727)  charge=  4.9438  magn= -0.0001
     atom  12 (R=0.727)  charge=  4.9403  magn= -0.0001
     atom  13 (R=0.727)  charge=  7.9199  magn=  0.0004
     atom  14 (R=0.727)  charge=  7.9286  magn=  0.0002
     atom  15 (R=0.727)  charge=  4.9368  magn= -0.0001
     atom  16 (R=0.727)  charge=  4.9585  magn= -0.0000
     atom  17 (R=0.727)  charge=  4.9269  magn= -0.0000
     atom  18 (R=0.727)  charge=  4.9196  magn= -0.0000
     atom  19 (R=0.727)  charge=  7.9516  magn=  0.0000
     atom  20 (R=0.727)  charge=  7.9765  magn=  0.0000
     atom  21 (R=0.727)  charge=  4.8266  magn=  0.0004
     atom  22 (R=0.727)  charge=  4.9098  magn=  0.0000
     atom  23 (R=0.727)  charge=  4.9340  magn= -0.0001
     atom  24 (R=0.727)  charge=  4.9341  magn= -0.0000
     atom  25 (R=0.727)  charge=  7.9485  magn=  0.0008
     atom  26 (R=0.727)  charge=  7.9316  magn= -0.0002
     atom  27 (R=0.727)  charge=  4.9364  magn= -0.0001
     atom  28 (R=0.727)  charge=  4.9740  magn=  0.0000
     atom  29 (R=0.727)  charge=  4.9433  magn= -0.0000
     atom  30 (R=0.727)  charge=  4.9439  magn= -0.0001
     atom  31 (R=0.727)  charge=  7.9304  magn=  0.0001
     atom  32 (R=0.727)  charge=  7.9251  magn=  0.0006
     atom  33 (R=0.727)  charge=  4.9553  magn= -0.0001
     atom  34 (R=0.727)  charge=  4.9242  magn= -0.0001
     atom  35 (R=0.727)  charge=  4.9448  magn= -0.0001
     atom  36 (R=0.727)  charge=  4.9438  magn= -0.0001
     atom  37 (R=0.727)  charge=  7.9230  magn=  0.0003
     atom  38 (R=0.727)  charge=  7.9295  magn=  0.0003
     atom  39 (R=0.727)  charge=  4.9079  magn= -0.0000
     atom  40 (R=0.727)  charge=  4.9610  magn= -0.0000
     atom  41 (R=0.727)  charge=  4.9356  magn=  0.0000
     atom  42 (R=0.727)  charge=  4.9348  magn=  0.0000
     atom  43 (R=0.727)  charge=  7.9537  magn=  0.0000
     atom  44 (R=0.727)  charge=  7.9729  magn= -0.0003
     atom  45 (R=0.727)  charge=  4.8266  magn=  0.0003
     atom  46 (R=0.727)  charge=  4.9340  magn= -0.0001
     atom  47 (R=0.727)  charge=  4.9341  magn= -0.0001
     atom  48 (R=0.501)  charge=  1.9939  magn= -0.0001
     atom  49 (R=0.448)  charge=  0.8478  magn=  0.0000
     atom  50 (R=0.448)  charge=  0.4992  magn= -0.0000
     atom  51 (R=0.448)  charge=  0.5028  magn= -0.0000
     atom  52 (R=0.448)  charge=  0.5041  magn= -0.0000
     atom  53 (R=0.501)  charge=  1.9521  magn=  0.0002

     End of self-consistent calculation

 ------ SPIN UP ------------

          k = 0.0000 0.0000 0.0000 ( 18029 PWs)   bands (ev):

   -55.7746 -55.7682 -55.7406 -55.7322 -55.6819 -55.6336 -55.5951 -55.5611
   -55.5534 -55.5197 -55.5175 -55.4446 -54.9546 -54.8009 -54.7537 -54.7197
   -32.3167 -32.2579 -32.1730 -32.0945 -32.0668 -32.0545 -32.0452 -32.0198
   -32.0041 -31.9681 -31.9383 -31.9268 -31.9201 -31.9029 -31.8812 -31.8798
   -31.8767 -31.8761 -31.8636 -31.8335 -31.8317 -31.8201 -31.7983 -31.7903
   -31.7871 -31.7806 -31.7791 -31.7532 -31.7389 -31.7343 -31.7241 -31.7084
   -31.7052 -31.6671 -31.6341 -31.5617 -31.4902 -31.3356 -31.1658 -31.1603
   -31.1003 -31.0724 -31.0625 -31.0500 -30.9774 -30.9064 -30.8909 -30.7795
   -19.4611 -16.5150 -16.2503 -15.9650 -15.9130 -15.8390 -15.7454 -15.6225
   -15.5269 -15.4081 -15.3693 -15.3133 -15.3059 -15.2615 -15.2344 -15.2304
   -15.2041 -15.1961 -15.1320 -15.1244 -15.0741 -15.0623 -15.0143 -14.9793
   -14.9676 -14.9127 -14.8438 -14.8029 -14.6836 -14.1584 -13.2561 -13.1396
   -12.3193  -7.2627  -4.9442  -4.7923  -3.8974  -3.7550  -3.7095  -3.6831
    -3.6385  -3.4381  -3.3510  -3.2817  -3.0421  -2.9506  -2.9261  -2.9154
    -2.8663  -2.7096  -2.6689  -2.6033  -2.5871  -2.5602  -2.5383  -2.5301
    -2.4952  -2.4845  -2.4629  -2.4271  -2.3245  -2.2108  -2.1821  -2.1047
    -2.0886  -2.0735  -2.0426  -2.0332  -2.0229  -2.0133  -1.9951  -1.9575
    -1.8975  -1.8499  -1.7853  -1.7008  -1.5589  -1.5374  -1.4587  -1.3831
    -1.3034  -1.2607  -1.2388  -1.2104  -1.1708  -1.0911  -1.0649  -0.9189
    -0.8221  -0.7886  -0.7722  -0.7290  -0.6933  -0.5908  -0.5691  -0.5401
    -0.5311  -0.5035  -0.4292  -0.3732  -0.2412  -0.2105  -0.2067  -0.1690
    -0.0981  -0.0444   0.0092   0.0582   0.0661   0.1019   0.1619   0.1871
     0.1920   0.2348   0.2771   0.3520   0.3781   0.4521   0.4562   0.5203
     0.5642   0.6456   0.7533   0.8753   1.0188   1.1557   1.2001   1.2689
     1.3650   1.4609   1.8389   1.8845   2.1429   3.3391   3.4460   3.4700
     3.4822   3.5892   3.7975   3.8202   3.8698   3.8895   3.8976

[...]

          k =-0.0760-0.0000 0.0000 ( 17886 PWs)   bands (ev):

[...]

 ------ SPIN DOWN ----------

[...]

          k = 0.0380-0.0419 0.0000 ( 17876 PWs)   bands (ev):

[...]

          k =-0.0760-0.0839 0.0000 ( 17948 PWs)   bands (ev):

   -55.7562 -55.7561 -55.7501 -55.7485 -55.6736 -55.6399 -55.5769 -55.5765
   -55.5367 -55.5362 -55.5130 -55.4489 -54.9532 -54.8030 -54.7374 -54.7373
   -32.1199 -32.1163 -32.0728 -32.0727 -32.0506 -32.0504 -32.0171 -32.0023
   -31.9960 -31.9874 -31.9185 -31.9133 -31.9024 -31.8960 -31.8798 -31.8773
   -31.8767 -31.8751 -31.8749 -31.8700 -31.8515 -31.8487 -31.8475 -31.8115
   -31.7821 -31.7801 -31.7783 -31.7660 -31.7658 -31.7561 -31.7552 -31.7537
   -31.7524 -31.7343 -31.7096 -31.6588 -31.4379 -31.3171 -31.1673 -31.1556
   -31.0797 -31.0634 -31.0633 -30.9739 -30.9738 -30.9349 -30.9348 -30.9103
   -19.4587 -15.9155 -15.9094 -15.7482 -15.7137 -15.6477 -15.6390 -15.5713
   -15.5043 -15.4594 -15.4544 -15.3394 -15.3373 -15.3227 -15.3010 -15.2466
   -15.2306 -15.2286 -15.2258 -15.2180 -15.2069 -15.1788 -15.1481 -15.0974
   -15.0923 -15.0716 -15.0614 -14.9396 -14.5303 -14.4686 -13.2401 -13.2400
   -12.3214  -7.2493  -4.9457  -4.7898  -3.6343  -3.2047  -3.1883  -3.0007
    -2.9172  -2.9060  -2.8907  -2.7405  -2.7273  -2.7093  -2.6527  -2.6473
    -2.6352  -2.5983  -2.5823  -2.5583  -2.5190  -2.5128  -2.4657  -2.4631
    -2.4472  -2.4388  -2.4064  -2.4015  -2.3874  -2.3731  -2.3351  -2.2795
    -2.2408  -2.2136  -2.1855  -2.0890  -2.0280  -1.9921  -1.9250  -1.9164
    -1.8656  -1.8409  -1.8264  -1.7629  -1.6899  -1.6595  -1.5767  -1.4843
    -1.4658  -1.4506  -1.3318  -1.3179  -1.2437  -1.2193  -1.1357  -1.1184
    -1.0788  -0.9679  -0.9447  -0.9136  -0.8787  -0.8351  -0.7713  -0.7344
    -0.7324  -0.6835  -0.6395  -0.5835  -0.5221  -0.5103  -0.4950  -0.4861
    -0.4221  -0.3883  -0.3671  -0.2846  -0.2695  -0.1877  -0.0439  -0.0110
     0.1464   0.1953   0.3047   0.3320   0.4228   0.4445   0.5385   0.5417
     0.5740   0.7040   0.7223   0.7399   0.7561   0.7761   0.8001   0.9387
     1.6341   1.6343   1.7058   1.7059   2.0807   3.6733   3.7103   3.7604
     3.7823   3.8865   3.8913   3.8938   3.9018   4.0236   4.0273

     the Fermi energy is     3.3533 ev

!    total energy              =   -2939.12593855 Ry
     estimated scf accuracy    <       0.00000006 Ry
     smearing contrib. (-TS)   =      -0.02052389 Ry
     internal energy E=F+TS    =   -2939.10541466 Ry

     The total energy is F=E-TS. E is the sum of the following terms:
     one-electron contribution =  -24213.53588700 Ry
     hartree contribution      =   12195.52834153 Ry
     xc contribution           =    -485.20368333 Ry
     ewald contribution        =    9564.10423547 Ry
     electric field correction =       0.00157866 Ry

     total magnetization       =     0.00 Bohr mag/cell
     absolute magnetization    =     0.01 Bohr mag/cell

     convergence has been achieved in  76 iterations

     Forces acting on atoms (cartesian axes, Ry/au):

     atom    1 type  1   force =     0.00009290   -0.00021258    0.09581966
     atom    2 type  1   force =     0.00007692   -0.00063221   -0.17548277
     atom    3 type  2   force =     0.00017831   -0.00019104   -0.02305558
     atom    4 type  2   force =     0.00004023   -0.00128198    0.05262273
     atom    5 type  2   force =    -0.00978116   -0.00031335    0.00253960
     atom    6 type  2   force =     0.01166033    0.00022815    0.00292144
     atom    7 type  1   force =     0.00088082   -0.00000902   -0.00988435
     atom    8 type  1   force =     0.00000325    0.00530857    0.01817204
     atom    9 type  2   force =    -0.00001542   -0.00028914   -0.00010629
     atom   10 type  2   force =    -0.00253969    0.00216811   -0.01348875
     atom   11 type  2   force =    -0.00097788    0.00011941    0.00017635
     atom   12 type  2   force =     0.00039999   -0.00024301    0.00048552
     atom   13 type  1   force =     0.00008946   -0.00008879    0.00051204
     atom   14 type  1   force =    -0.00003506   -0.00013114   -0.00015665
     atom   15 type  2   force =    -0.00064432    0.00037374    0.00040855
     atom   16 type  2   force =    -0.00043392    0.00009441    0.00018526
     atom   17 type  2   force =     0.00002093    0.00008025   -0.00012091
     atom   18 type  2   force =     0.00028549    0.00021606    0.00009891
     atom   19 type  1   force =    -0.00068402   -0.00038332    0.00068648
     atom   20 type  1   force =    -0.00016666    0.00015037   -0.00092730
     atom   21 type  2   force =     0.00006829   -0.00005725    0.10321004
     atom   22 type  2   force =     0.00019326    0.00024527   -0.00035310
     atom   23 type  2   force =    -0.07153946   -0.00018763   -0.02753011
     atom   24 type  2   force =     0.07151871    0.00031658   -0.02759068
     atom   25 type  1   force =     0.00011562   -0.00028076    0.09520092
     atom   26 type  1   force =     0.00008181   -0.00049145   -0.17564343
     atom   27 type  2   force =     0.00015993   -0.00012242   -0.02180593
     atom   28 type  2   force =     0.00008081   -0.00106162    0.05249855
     atom   29 type  2   force =    -0.01016319    0.00023473    0.00291510
     atom   30 type  2   force =     0.01197846    0.00052238    0.00329475
     atom   31 type  1   force =     0.00088612    0.00413614   -0.01176963
     atom   32 type  1   force =     0.00013860   -0.00633934    0.01830991
     atom   33 type  2   force =     0.00016188    0.00041839   -0.00009950
     atom   34 type  2   force =    -0.00308769   -0.00010754   -0.00866071
     atom   35 type  2   force =    -0.00021503    0.00006024    0.00001404
     atom   36 type  2   force =    -0.00002127    0.00027520   -0.00006084
     atom   37 type  1   force =     0.00043259   -0.00093924    0.00020143
     atom   38 type  1   force =    -0.00032385    0.00010055    0.00034872
     atom   39 type  2   force =     0.00005403   -0.00029226    0.00066412
     atom   40 type  2   force =    -0.00008003    0.00025930    0.00013654
     atom   41 type  2   force =    -0.00011720   -0.00016927   -0.00036488
     atom   42 type  2   force =    -0.00022766    0.00021222   -0.00047181
     atom   43 type  1   force =     0.00019233    0.00031933    0.00010566
     atom   44 type  1   force =     0.00039843   -0.00017988   -0.00170382
     atom   45 type  2   force =     0.00007471   -0.00005853    0.10316825
     atom   46 type  2   force =    -0.07155582   -0.00009480   -0.02752505
     atom   47 type  2   force =     0.07153878    0.00025682   -0.02758681
     atom   48 type  3   force =     0.00428002    0.00075953    0.00000138
     atom   49 type  4   force =    -0.00003756   -0.00020649   -0.00062861
     atom   50 type  5   force =     0.00022897    0.00023461   -0.00012963
     atom   51 type  5   force =    -0.00082740   -0.00028410    0.00000956
     atom   52 type  5   force =     0.00011440   -0.00081603   -0.00066139
     atom   53 type  3   force =    -0.00295208   -0.00162615    0.00110099

     Total force =     0.364767     Total SCF correction =     0.000524
  @ DRIVER MODE: Message from server: STATUS
  @ DRIVER MODE: Message from server: GETFORCE
  @ DRIVER MODE: Returning v,forces,stress,ensemble

     Writing output data file ./calc.save/
  @ DRIVER MODE: Message from server: EXIT
  @ DRIVE MODE: Exiting

     General routines

     Parallel routines

   This run was terminated on:  14: 0: 2  16Jul2021

   JOB DONE.