     Program PWSCF v.6.7GPU starts on 18Oct2021 at 16:27:41

     R & G space division:  proc/nbgrp/npool/nimage =       8
     Reading input from /storage/home/hcoda1/3/ntian30/research/carbon/CxH_vib/Thiel_calc/ads_slab/HH_perslab/out_0010/pw.inp
Warning: card &CELL ignored
Warning: card   CELL_DYNAMICS='IPI', ignored
Warning: card / ignored

     Current dimensions of program PWSCF are:
     Max number of different atomic species (ntypx) = 10
     Max number of k-points (npk) =  40000
     Max angular momentum in pseudopotentials (lmaxx) =  3
     Presently no symmetry can be used with electric field

     Message from routine cell_base_init:
     DEPRECATED: use true lattice parameter, not A to a.u. conversion factor

     IMPORTANT: XC functional enforced from input :
     Exchange-correlation= BEEF-VDW
                           (   1   4  43  14   2   0   0)
     Any further DFT definition will be discarded
     Please, verify this is what you really want

  @ DRIVER MODE: Connecting to
 qe_1139763_3255127.sched-torque.pace.gatech.edukqqe0_c4_scratch
  using UNIX socket
  @ DRIVER MODE: Message from server: STATUS
  @ DRIVER MODE: Message from server: INIT
  @ DRIVER MODE: Receiving replica           0          -1
  @ DRIVER MODE: Receiving encoded integer          25
  @ DRIVER MODE:  SCF:  T  FORCE:  T  STRESS:  F  VC:  F  ENSEMBLE:  F
  @ DRIVER MODE:  SCF:  T  FORCE:  T  STRESS:  F  VC:  F  ENSEMBLE:  F

     Using Slab Decomposition

     bravais-lattice index     =            0
     lattice parameter (alat)  =       1.8897  a.u.
     unit-cell volume          =    9988.4706 (a.u.)^3
     number of atoms/cell      =           55
     number of atomic types    =            3
     number of electrons       =       428.00
     number of Kohn-Sham states=          224
     kinetic-energy cutoff     =      29.3995  Ry
     charge density cutoff     =     293.9946  Ry
     scf convergence threshold =      7.3E-08
     mixing beta               =       0.0500
     number of iterations used =            8  plain     mixing
     Exchange-correlation= BEEF-VDW
                           (   1   4  43  14   2   0   0)

     celldm(1)=   1.889726  celldm(2)=   0.000000  celldm(3)=   0.000000
     celldm(4)=   0.000000  celldm(5)=   0.000000  celldm(6)=   0.000000

     crystal axes: (cart. coord. in units of alat)
               a(1) = (   6.579727   0.000000   0.000000 )
               a(2) = (  -0.001163   8.942395   0.000000 )
               a(3) = (   0.000000   0.000000  25.155947 )

     reciprocal axes: (cart. coord. in units 2 pi/alat)
               b(1) = (  0.151982  0.000020  0.000000 )
               b(2) = (  0.000000  0.111827  0.000000 )
               b(3) = (  0.000000  0.000000  0.039752 )

     PseudoPot. # 1 for O  read from file:
     /storage/coda1/p-amedford6/0/shared/rich_project_chbe-medford/medford-share/data/pseudos_module/espresso/nninc/pbe/van/O.UPF
     MD5 check sum: 78c19812648e8988a0fe644b0f25305e
     Pseudo is Ultrasoft, Zval =  6.0
     Generated by new atomic code, or converted to UPF format
     Using radial grid of  737 points,  4 beta functions with:
                l(1) =   0
                l(2) =   0
                l(3) =   1
                l(4) =   1
     Q(r) pseudized with  8 coefficients,  rinner =    0.800   0.800   0.800

     PseudoPot. # 2 for Ti read from file:
     /storage/coda1/p-amedford6/0/shared/rich_project_chbe-medford/medford-share/data/pseudos_module/espresso/nninc/pbe/van/Ti.UPF
     MD5 check sum: 8e4df49b7f0d34bbd5052bf3f5ea0213
     Pseudo is Ultrasoft, Zval = 12.0
     Generated by new atomic code, or converted to UPF format
     Using radial grid of  851 points,  6 beta functions with:
                l(1) =   0
                l(2) =   0
                l(3) =   1
                l(4) =   1
                l(5) =   2
                l(6) =   2
     Q(r) pseudized with  8 coefficients,  rinner =    1.000   1.000   1.000
                                                       1.000   1.000

     PseudoPot. # 3 for H  read from file:
     /storage/coda1/p-amedford6/0/shared/rich_project_chbe-medford/medford-share/data/pseudos_module/espresso/nninc/pbe/van/H.UPF
     MD5 check sum: b5ee9d7bfd3a09ee7748110bda690ff7
     Pseudo is Ultrasoft, Zval =  1.0
     Generated by new atomic code, or converted to UPF format
     Using radial grid of  615 points,  1 beta functions with:
                l(1) =   0
     Q(r) pseudized with  8 coefficients,  rinner =    0.800

     atomic species   valence    mass     pseudopotential
        O1             6.00    15.99900     O ( 1.00)
        Ti1           12.00    47.86700     Ti( 1.00)
        H1             1.00     1.00800     H ( 1.00)

     No symmetry found

   Cartesian axes

     site n.     atom                  positions (alat units)
         1           O1  tau(   1) = (   0.0007354   0.0005023  10.5931620  )
         2           O1  tau(   2) = (   3.2895597   8.9328148  13.9563037  )
         3           O1  tau(   3) = (   0.0005978   0.0985611  17.3913433  )
         4           O1  tau(   4) = (   0.0006271   0.0005054   7.9858123  )
         5           O1  tau(   5) = (   3.2896697   8.9342645  11.2049655  )
         6           O1  tau(   6) = (  -0.0003651   8.9329897  14.6433231  )
         7           O1  tau(   7) = (   1.9868534   1.4903216   9.2879459  )
         8           O1  tau(   8) = (   5.2447202   1.6209113  12.6144278  )
         9           O1  tau(   9) = (   1.9863342   1.5414685  16.1562942  )
        10           Ti1 tau(  10) = (   0.0007404   1.4906270   9.2895810  )
        11           Ti1 tau(  11) = (   3.2912862   1.3561633  12.5349423  )
        12           Ti1 tau(  12) = (   0.0004920   1.3470917  15.7786735  )
        13           O1  tau(  13) = (   4.5942328   1.4918067   9.2879030  )
        14           O1  tau(  14) = (   1.3364296   1.6200362  12.6141345  )
        15           O1  tau(  15) = (   4.5940299   1.5415597  16.1565144  )
        16           Ti1 tau(  16) = (   3.2902859   2.9801868   9.2893338  )
        17           Ti1 tau(  17) = (   0.0008425   2.8468918  12.4310082  )
        18           Ti1 tau(  18) = (   3.2897726   2.9778300  15.7754387  )
        19           O1  tau(  19) = (   0.0003479   2.9813005  10.5931620  )
        20           O1  tau(  20) = (   3.2899953   2.9760220  13.9593592  )
        21           O1  tau(  21) = (   0.0002396   2.9813036   7.9858123  )
        22           O1  tau(  22) = (   3.2902535   2.9702742  11.2034491  )
        23           O1  tau(  23) = (   0.0001996   3.0016115  14.8754889  )
        24           O1  tau(  24) = (   1.9864658   4.4711199   9.2879459  )
        25           O1  tau(  25) = (   5.2500601   4.5773527  12.6114266  )
        26           O1  tau(  26) = (   1.9844836   4.4355282  16.1532781  )
        27           Ti1 tau(  27) = (   0.0003529   4.4714252   9.2895810  )
        28           Ti1 tau(  28) = (   3.2906597   4.3244847  12.5371400  )
        29           Ti1 tau(  29) = (  -0.0002816   4.6581729  15.7718077  )
        30           O1  tau(  30) = (   4.5938453   4.4726049   9.2879030  )
        31           O1  tau(  31) = (   1.3301928   4.5768014  12.6113087  )
        32           O1  tau(  32) = (   4.5951179   4.4357094  16.1533535  )
        33           Ti1 tau(  33) = (   3.2898983   5.9609850   9.2893338  )
        34           Ti1 tau(  34) = (   0.0001782   5.8230774  12.4473142  )
        35           Ti1 tau(  35) = (   3.2897114   5.9733655  15.7593407  )
        36           O1  tau(  36) = (  -0.0000397   5.9620987  10.5931620  )
        37           O1  tau(  37) = (   3.2897659   5.9527282  13.9548452  )
        38           O1  tau(  38) = (  -0.0000778   5.8930771  17.3915974  )
        39           O1  tau(  39) = (  -0.0001480   5.9621018   7.9858123  )
        40           O1  tau(  40) = (   3.2899370   5.9442392  11.2047318  )
        41           O1  tau(  41) = (  -0.0000177   6.0388360  14.6471464  )
        42           O1  tau(  42) = (   1.9860782   7.4519181   9.2879459  )
        43           O1  tau(  43) = (   5.2406126   7.5613367  12.5866955  )
        44           O1  tau(  44) = (   1.9997133   7.4594595  16.1095921  )
        45           Ti1 tau(  45) = (  -0.0000347   7.4522234   9.2895810  )
        46           Ti1 tau(  46) = (   3.2905271   7.3121622  12.5249915  )
        47           Ti1 tau(  47) = (   0.0000546   7.4652353  16.1046789  )
        48           O1  tau(  48) = (   4.5934577   7.4534031   9.2879030  )
        49           O1  tau(  49) = (   1.3393442   7.5608695  12.5864666  )
        50           O1  tau(  50) = (   4.5795450   7.4594577  16.1094643  )
        51           Ti1 tau(  51) = (   3.2895107   8.9417832   9.2893338  )
        52           Ti1 tau(  52) = (   0.0001497   8.7881157  12.4544516  )
        53           Ti1 tau(  53) = (   3.2897860   8.9238688  15.7591263  )
        54           H1  tau(  54) = (   6.5785799   5.7919152  18.3498116  )
        55           H1  tau(  55) = (   6.5788772   0.1921499  18.3509732  )

     number of k points=    10  Fermi-Dirac smearing, width (Ry)=  0.0073
                       cart. coord. in units 2pi/alat
        k(    1) = (   0.0000000   0.0000000   0.0000000), wk =   0.1250000
        k(    2) = (   0.0000000   0.0279567   0.0000000), wk =   0.2500000
        k(    3) = (   0.0000000  -0.0559134   0.0000000), wk =   0.1250000
        k(    4) = (   0.0379955   0.0000049   0.0000000), wk =   0.2500000
        k(    5) = (   0.0379955   0.0279617   0.0000000), wk =   0.2500000
        k(    6) = (   0.0379955  -0.0559085   0.0000000), wk =   0.2500000
        k(    7) = (   0.0379955  -0.0279518   0.0000000), wk =   0.2500000
        k(    8) = (  -0.0759910  -0.0000099   0.0000000), wk =   0.1250000
        k(    9) = (  -0.0759910   0.0279468   0.0000000), wk =   0.2500000
        k(   10) = (  -0.0759910  -0.0559233   0.0000000), wk =   0.1250000

     Initial potential from superposition of free atoms

     starting charge  409.99914, renormalised to  428.00000

     negative rho (up, down):  4.037E-02 0.000E+00

     %%%%%%%%%%%%%%%%%%%%%%%%%%%%%%%%%%%%%%%%%%%%%%%%%%%%%%%%%%%%%%%%%%%%%%%%
     %                                                                      %
     % You are using vdW-DF, which was implemented by the Thonhauser group. %
     % Please cite the following two papers that made this development      %
     % possible and the two reviews that describe the various versions:     %
     %                                                                      %
     %   T. Thonhauser et al., PRL 115, 136402 (2015).                      %
     %   T. Thonhauser et al., PRB 76, 125112 (2007).                       %
     %   K. Berland et al., Rep. Prog. Phys. 78, 066501 (2015).             %
     %   D.C. Langreth et al., J. Phys.: Condens. Matter 21, 084203 (2009). %
     %                                                                      %
     %                                                                      %
     % If you are calculating the stress with vdW-DF, please also cite:     %
     %                                                                      %
     %   R. Sabatini et al., J. Phys.: Condens. Matter 24, 424209 (2012).   %
     %                                                                      %
     %%%%%%%%%%%%%%%%%%%%%%%%%%%%%%%%%%%%%%%%%%%%%%%%%%%%%%%%%%%%%%%%%%%%%%%%

     Adding external electric field

     Computed dipole along edir(3) :
        Dipole               -0.7971 Ry au,         -2.0260 Debye
        Dipole field         -0.0010 Ry au,

        Potential amp.        0.0930 Ry
        Total length         46.3494 bohr

     Starting wfcs are  322 atomic wfcs
  @ DRIVER MODE: Message from server: STATUS
  @ DRIVER MODE: Message from server: POSDATA
  @ DRIVER MODE: Reading and sharing cell
  @ DRIVER MODE: Reading and sharing positions
  @ DRIVER MODE: Received positions

     Self-consistent Calculation

     iteration #  1     ecut=    29.40 Ry     beta= 0.05
     Davidson diagonalization with overlap
     c_bands:  4 eigenvalues not converged
     c_bands:  4 eigenvalues not converged
     c_bands:  3 eigenvalues not converged
     c_bands:  2 eigenvalues not converged
     c_bands:  3 eigenvalues not converged
     c_bands:  3 eigenvalues not converged
     c_bands:  4 eigenvalues not converged
     c_bands:  2 eigenvalues not converged
     c_bands:  3 eigenvalues not converged
     ethr =  1.00E-05,  avg # of iterations = 19.7

[...]

     total energy              =   -3251.91304314 Ry
     estimated scf accuracy    <      13.90126537 Ry

     iteration #  2     ecut=    29.40 Ry     beta= 0.05
     Davidson diagonalization with overlap
     ethr =  3.25E-03,  avg # of iterations =  1.0

[...]

     iteration # 32     ecut=    29.40 Ry     beta= 0.05
     Davidson diagonalization with overlap
     ethr =  3.44E-07,  avg # of iterations =  8.6

[...]

     total energy              =   -3250.62456847 Ry
     estimated scf accuracy    <       0.00000016 Ry

     iteration # 56     ecut=    29.40 Ry     beta= 0.05
     Davidson diagonalization with overlap
     c_bands:  2 eigenvalues not converged
     ethr =  3.48E-11,  avg # of iterations = 12.2

     negative rho (up, down):  3.757E-02 0.000E+00

     Adding external electric field

     Computed dipole along edir(3) :
        Dipole                1.9733 Ry au,          5.0156 Debye
        Dipole field          0.0025 Ry au,

        Potential amp.       -0.2301 Ry
        Total length         46.3494 bohr

     End of self-consistent calculation

          k = 0.0000 0.0000 0.0000 ( 26871 PWs)   bands (ev):

   -57.5849 -57.5600 -57.5583 -57.5240 -57.5024 -57.4486 -57.4267 -57.4062
   -57.3763 -57.3748 -57.3734 -57.3652 -57.3518 -57.3449 -57.2009 -56.7061
   -56.6831 -56.6728 -33.9762 -33.9754 -33.9743 -33.9502 -33.9048 -33.8901
   -33.8829 -33.8818 -33.8722 -33.8629 -33.8589 -33.8552 -33.8523 -33.8221
   -33.7847 -33.7578 -33.7542 -33.7393 -33.7297 -33.7114 -33.7102 -33.7078
   -33.6864 -33.6827 -33.6817 -33.6720 -33.6653 -33.6646 -33.6534 -33.6334
   -33.6331 -33.6240 -33.6227 -33.6129 -33.6120 -33.6031 -33.5855 -33.5790
   -33.5744 -33.5705 -33.5281 -33.5190 -33.4777 -33.3683 -33.2480 -33.0275
   -33.0156 -33.0129 -32.9981 -32.9889 -32.9356 -32.8757 -32.8645 -32.7342
   -19.5840 -19.4855 -18.4599 -18.0785 -17.9186 -17.8802 -17.8717 -17.8373
   -17.6850 -17.6807 -17.5957 -17.5566 -17.5436 -17.4480 -17.4001 -17.3853
   -17.3802 -17.3591 -17.3463 -17.3277 -17.3138 -17.2988 -17.2725 -17.2282
   -17.1956 -17.1491 -17.1225 -17.1161 -17.0564 -17.0537 -17.0311 -16.7497
   -15.1699 -15.1109 -15.1046  -7.7545  -7.6028  -5.7849  -5.5888  -5.5457
    -5.4115  -5.0614  -5.0459  -5.0169  -4.9800  -4.9640  -4.9385  -4.8984
    -4.8687  -4.8584  -4.8258  -4.8255  -4.7568  -4.7442  -4.7399  -4.6565
    -4.6245  -4.6069  -4.5827  -4.5359  -4.4729  -4.4482  -4.4424  -4.4393
    -4.4190  -4.3877  -4.3671  -4.2570  -4.1601  -4.1307  -4.0253  -3.9631
    -3.9400  -3.9291  -3.9083  -3.8798  -3.8258  -3.7804  -3.7342  -3.7325
    -3.6526  -3.6122  -3.5743  -3.5352  -3.4796  -3.4412  -3.4397  -3.4148
    -3.3550  -3.3299  -3.3132  -3.2408  -3.1223  -3.0981  -3.0185  -2.9588
    -2.8955  -2.8810  -2.7581  -2.7230  -2.6393  -2.6152  -2.6034  -2.5066
    -2.4390  -2.4155  -2.4012  -2.3995  -2.3515  -2.3222  -2.2905  -2.2788
    -2.2653  -2.2216  -2.1510  -2.1506  -2.0611  -2.0250  -2.0189  -1.9901
    -1.9743  -1.9286  -1.9018  -1.8226  -1.6883  -1.6501  -1.5801  -1.5160
    -1.5154  -1.4377  -1.4033  -1.3772  -0.9911  -0.7811  -0.4806  -0.4149
    -0.4133  -0.1310  -0.1235   0.0132   1.3531   1.4271   1.5601   1.6188
     1.7997   1.8320   1.8690   1.9507   1.9777   2.0083   2.0243   2.0465

[...]

          k = 0.0380-0.0280 0.0000 ( 26873 PWs)   bands (ev):

[...]

          k =-0.0760-0.0000 0.0000 ( 26902 PWs)   bands (ev):

[...]

          k =-0.0760-0.0559 0.0000 ( 26868 PWs)   bands (ev):

   -57.5771 -57.5754 -57.5506 -57.5223 -57.5045 -57.4480 -57.4237 -57.4103
   -57.3740 -57.3713 -57.3710 -57.3678 -57.3614 -57.3399 -57.2008 -56.7012
   -56.6923 -56.6684 -34.0694 -33.9786 -33.9722 -33.9557 -33.9357 -33.9313
   -33.8980 -33.8971 -33.8900 -33.8605 -33.8033 -33.7844 -33.7825 -33.7775
   -33.7334 -33.7267 -33.7256 -33.7220 -33.7071 -33.7041 -33.7034 -33.6943
   -33.6939 -33.6752 -33.6748 -33.6659 -33.6608 -33.6597 -33.6577 -33.6511
   -33.6506 -33.6492 -33.6317 -33.6188 -33.6111 -33.6080 -33.6012 -33.5928
   -33.5721 -33.5688 -33.5564 -33.5529 -33.5052 -33.3920 -33.2477 -33.1132
   -33.0150 -33.0071 -32.9843 -32.9193 -32.9086 -32.8488 -32.8363 -32.8257
   -19.5681 -19.4946 -18.1192 -18.0847 -17.8967 -17.8498 -17.7832 -17.7355
   -17.6734 -17.6605 -17.6440 -17.5884 -17.5875 -17.5122 -17.5013 -17.4337
   -17.4033 -17.3833 -17.3823 -17.3757 -17.3718 -17.3435 -17.3065 -17.2475
   -17.2425 -17.2209 -17.1264 -17.0908 -17.0840 -17.0369 -17.0153 -16.7821
   -15.1684 -15.1609 -15.0464  -7.8067  -7.5382  -5.3805  -5.3342  -5.3113
    -5.2585  -5.2025  -5.0355  -4.9790  -4.9274  -4.9217  -4.8626  -4.8178
    -4.7984  -4.7677  -4.7487  -4.7443  -4.7255  -4.6498  -4.6367  -4.6206
    -4.6014  -4.5747  -4.5608  -4.5511  -4.5173  -4.4410  -4.3669  -4.2982
    -4.2921  -4.2760  -4.2209  -4.2104  -4.1774  -4.1274  -4.1017  -4.0599
    -3.9362  -3.9019  -3.8126  -3.7955  -3.7801  -3.7775  -3.7525  -3.6785
    -3.6725  -3.5771  -3.5397  -3.4505  -3.3689  -3.3610  -3.3469  -3.3093
    -3.3017  -3.2576  -3.2216  -3.1840  -3.1727  -3.1596  -3.0962  -3.0401
    -2.9811  -2.9227  -2.8458  -2.8246  -2.7886  -2.7446  -2.7369  -2.7104
    -2.7030  -2.6925  -2.6844  -2.6697  -2.6101  -2.5933  -2.4634  -2.4258
    -2.4092  -2.2899  -2.2745  -2.2305  -2.1991  -2.1506  -2.1466  -2.0345
    -2.0107  -1.9204  -1.8875  -1.8307  -1.8065  -1.7886  -1.7282  -1.4409
    -1.4268  -1.3910  -1.3516  -1.2763  -1.2640  -1.0189  -0.6167  -0.3610
    -0.3370  -0.2930  -0.1226  -0.1190   1.4386   1.5434   1.5800   1.5936
     1.6973   1.7292   1.7330   1.7433   1.7824   1.8117   1.9056   2.1149

     the Fermi energy is     1.4975 ev

!    total energy              =   -3250.62462531 Ry
     estimated scf accuracy    <       0.00000005 Ry
     smearing contrib. (-TS)   =      -0.05123512 Ry
     internal energy E=F+TS    =   -3250.57339018 Ry

     The total energy is F=E-TS. E is the sum of the following terms:
     one-electron contribution =  -33905.52207137 Ry
     hartree contribution      =   17014.56466894 Ry
     xc contribution           =    -530.16804434 Ry
     ewald contribution        =   14170.54715775 Ry
     electric field correction =       0.00489884 Ry

     convergence has been achieved in  56 iterations

     Forces acting on atoms (cartesian axes, Ry/au):

     atom    1 type  1   force =     0.00000299    0.00711727    0.05670978
     atom    2 type  1   force =     0.00004275    0.00336870    0.00113520
     atom    3 type  1   force =     0.00000144   -0.00203520   -0.00186449
     atom    4 type  1   force =     0.00005043    0.00104417    0.10790265
     atom    5 type  1   force =     0.00004066   -0.00021248    0.01010205
     atom    6 type  1   force =    -0.00002944   -0.00661170   -0.00383693
     atom    7 type  1   force =     0.06423440    0.00010852   -0.02837899
     atom    8 type  1   force =     0.00284650   -0.02998675    0.00401198
     atom    9 type  1   force =     0.01260450   -0.01284148   -0.00053080
     atom   10 type  2   force =    -0.00004643   -0.00847790   -0.19231666
     atom   11 type  2   force =    -0.00023519    0.02102676   -0.01104522
     atom   12 type  2   force =     0.00001611    0.02000197    0.01334407
     atom   13 type  1   force =    -0.06432215   -0.00033479   -0.02835770
     atom   14 type  1   force =    -0.00307894   -0.02969424    0.00397682
     atom   15 type  1   force =    -0.01258744   -0.01285648   -0.00052885
     atom   16 type  2   force =     0.00007896   -0.00104146    0.07103034
     atom   17 type  2   force =     0.00043498    0.03731508    0.00578282
     atom   18 type  2   force =    -0.00001005    0.00096535   -0.00819456
     atom   19 type  1   force =     0.00001030    0.00231810    0.05923280
     atom   20 type  1   force =     0.00004445    0.00210068   -0.00266484
     atom   21 type  1   force =     0.00005752    0.00077101    0.10937629
     atom   22 type  1   force =     0.00004660   -0.00072287    0.01036006
     atom   23 type  1   force =    -0.00002194   -0.00021541   -0.00308884
     atom   24 type  1   force =     0.06385309   -0.00069956   -0.02836283
     atom   25 type  1   force =     0.00325353   -0.02910358    0.00356482
     atom   26 type  1   force =     0.01267569    0.01309406   -0.00039028
     atom   27 type  2   force =    -0.00008391    0.00433439   -0.19448519
     atom   28 type  2   force =    -0.00023595    0.01849598   -0.00940349
     atom   29 type  2   force =     0.00001886   -0.02044600    0.01269666
     atom   30 type  1   force =    -0.06395009   -0.00115858   -0.02833622
     atom   31 type  1   force =    -0.00348564   -0.02885243    0.00352671
     atom   32 type  1   force =    -0.01268472    0.01307828   -0.00040139
     atom   33 type  2   force =     0.00007565   -0.00085154    0.07219240
     atom   34 type  2   force =     0.00042053    0.03346264    0.00559573
     atom   35 type  2   force =    -0.00002078   -0.01673116   -0.00129406
     atom   36 type  1   force =    -0.00000124    0.00273869    0.05601018
     atom   37 type  1   force =     0.00003798    0.00194302    0.00181937
     atom   38 type  1   force =     0.00001424    0.00300937   -0.00358544
     atom   39 type  1   force =     0.00005929   -0.00166019    0.10831144
     atom   40 type  1   force =     0.00004366   -0.00051470    0.00998785
     atom   41 type  1   force =    -0.00002971    0.00773382   -0.00379779
     atom   42 type  1   force =     0.06486687   -0.00062543   -0.02828732
     atom   43 type  1   force =     0.00326999   -0.02817942    0.00163254
     atom   44 type  1   force =     0.01685525   -0.00036650    0.00586510
     atom   45 type  2   force =    -0.00007079    0.00171542   -0.18728146
     atom   46 type  2   force =    -0.00023527    0.01864576   -0.01193317
     atom   47 type  2   force =     0.00001959    0.00130323   -0.00706674
     atom   48 type  1   force =    -0.06495741   -0.00108862   -0.02827000
     atom   49 type  1   force =    -0.00354183   -0.02790355    0.00161139
     atom   50 type  1   force =    -0.01684236   -0.00037601    0.00587474
     atom   51 type  2   force =     0.00011763   -0.00090584    0.07256059
     atom   52 type  2   force =     0.00045624    0.03355553    0.00543334
     atom   53 type  2   force =    -0.00001816    0.01522498   -0.00020785
     atom   54 type  3   force =    -0.00002936   -0.00036458   -0.00214114
     atom   55 type  3   force =    -0.00003189    0.00038570   -0.00359552

     Total force =     0.463783     Total SCF correction =     0.000413
  @ DRIVER MODE: Message from server: STATUS
  @ DRIVER MODE: Message from server: GETFORCE
  @ DRIVER MODE: Returning v,forces,stress,ensemble

     Writing output data file ./calc.save/
  @ DRIVER MODE: Message from server: EXIT
  @ DRIVE MODE: Exiting

     General routines

     Parallel routines

   This run was terminated on:  16:56: 5  18Oct2021

   JOB DONE.