     Program PWSCF v.6.7GPU starts on 24Aug2021 at 12:11:47

     R & G space division:  proc/nbgrp/npool/nimage =      72
     Reading input from /storage/home/hcoda1/3/ntian30/research/carbon/CH2_vib/ads_slab/CH2NNH3_a/out_0007/pw.inp
Warning: card &CELL ignored
Warning: card   CELL_DYNAMICS='IPI', ignored
Warning: card / ignored

     Current dimensions of program PWSCF are:
     Max number of different atomic species (ntypx) = 10
     Max number of k-points (npk) =  40000
     Max angular momentum in pseudopotentials (lmaxx) =  3
     Presently no symmetry can be used with electric field

     Message from routine cell_base_init:
     DEPRECATED: use true lattice parameter, not A to a.u. conversion factor

     IMPORTANT: XC functional enforced from input :
     Exchange-correlation= BEEF-VDW
                           (   1   4  43  14   2   0   0)
     Any further DFT definition will be discarded
     Please, verify this is what you really want

  @ DRIVER MODE: Connecting to
 qe_1139763_2641442.sched-torque.pace.gatech.edu3g1p8fil_scratch
  using UNIX socket
  @ DRIVER MODE: Message from server: STATUS
  @ DRIVER MODE: Message from server: INIT
  @ DRIVER MODE: Receiving replica           0          -1
  @ DRIVER MODE: Receiving encoded integer          25
  @ DRIVER MODE:  SCF:  T  FORCE:  T  STRESS:  F  VC:  F  ENSEMBLE:  F
  @ DRIVER MODE:  SCF:  T  FORCE:  T  STRESS:  F  VC:  F  ENSEMBLE:  F

     Using Slab Decomposition

     bravais-lattice index     =            0
     lattice parameter (alat)  =       1.8897  a.u.
     unit-cell volume          =    6658.9804 (a.u.)^3
     number of atoms/cell      =           55
     number of atomic types    =            5
     number of electrons       =       397.00
     number of Kohn-Sham states=          208
     kinetic-energy cutoff     =      29.3995  Ry
     charge density cutoff     =     293.9946  Ry
     scf convergence threshold =      7.3E-08
     mixing beta               =       0.0500
     number of iterations used =            8  plain     mixing
     Exchange-correlation= BEEF-VDW
                           (   1   4  43  14   2   0   0)

     celldm(1)=   1.889726  celldm(2)=   0.000000  celldm(3)=   0.000000
     celldm(4)=   0.000000  celldm(5)=   0.000000  celldm(6)=   0.000000

     crystal axes: (cart. coord. in units of alat)
               a(1) = (   6.579727   0.000000   0.000000 )
               a(2) = (  -0.000775   5.961596   0.000000 )
               a(3) = (   0.000000   0.000000  25.155947 )

     reciprocal axes: (cart. coord. in units 2 pi/alat)
               b(1) = (  0.151982  0.000020  0.000000 )
               b(2) = (  0.000000  0.167740  0.000000 )
               b(3) = (  0.000000  0.000000  0.039752 )

     PseudoPot. # 1 for Ti read from file:
     /storage/coda1/p-amedford6/0/shared/rich_project_chbe-medford/medford-share/data/pseudos_module/espresso/nninc/pbe/van/Ti.UPF
     MD5 check sum: 8e4df49b7f0d34bbd5052bf3f5ea0213
     Pseudo is Ultrasoft, Zval = 12.0
     Generated by new atomic code, or converted to UPF format
     Using radial grid of  851 points,  6 beta functions with:
                l(1) =   0
                l(2) =   0
                l(3) =   1
                l(4) =   1
                l(5) =   2
                l(6) =   2
     Q(r) pseudized with  8 coefficients,  rinner =    1.000   1.000   1.000
                                                       1.000   1.000

     PseudoPot. # 2 for O  read from file:
     /storage/coda1/p-amedford6/0/shared/rich_project_chbe-medford/medford-share/data/pseudos_module/espresso/nninc/pbe/van/O.UPF
     MD5 check sum: 78c19812648e8988a0fe644b0f25305e
     Pseudo is Ultrasoft, Zval =  6.0
     Generated by new atomic code, or converted to UPF format
     Using radial grid of  737 points,  4 beta functions with:
                l(1) =   0
                l(2) =   0
                l(3) =   1
                l(4) =   1
     Q(r) pseudized with  8 coefficients,  rinner =    0.800   0.800   0.800

     PseudoPot. # 3 for N  read from file:
     /storage/coda1/p-amedford6/0/shared/rich_project_chbe-medford/medford-share/data/pseudos_module/espresso/nninc/pbe/van/N.UPF
     MD5 check sum: 90d10febe142ad51ac9d5be1deb811c4
     Pseudo is Ultrasoft, Zval =  5.0
     Generated by new atomic code, or converted to UPF format
     Using radial grid of  729 points,  4 beta functions with:
                l(1) =   0
                l(2) =   0
                l(3) =   1
                l(4) =   1
     Q(r) pseudized with  8 coefficients,  rinner =    0.800   0.800   0.800

     PseudoPot. # 4 for C  read from file:
     /storage/coda1/p-amedford6/0/shared/rich_project_chbe-medford/medford-share/data/pseudos_module/espresso/nninc/pbe/van/C.UPF
     MD5 check sum: 1a69bf6b8db32088f5b2163dbdb77a27
     Pseudo is Ultrasoft, Zval =  4.0
     Generated by new atomic code, or converted to UPF format
     Using radial grid of  721 points,  4 beta functions with:
                l(1) =   0
                l(2) =   0
                l(3) =   1
                l(4) =   1
     Q(r) pseudized with  8 coefficients,  rinner =    0.800   0.800   0.800

     PseudoPot. # 5 for H  read from file:
     /storage/coda1/p-amedford6/0/shared/rich_project_chbe-medford/medford-share/data/pseudos_module/espresso/nninc/pbe/van/H.UPF
     MD5 check sum: b5ee9d7bfd3a09ee7748110bda690ff7
     Pseudo is Ultrasoft, Zval =  1.0
     Generated by new atomic code, or converted to UPF format
     Using radial grid of  615 points,  1 beta functions with:
                l(1) =   0
     Q(r) pseudized with  8 coefficients,  rinner =    0.800

     atomic species   valence    mass     pseudopotential
        Ti1           12.00    47.86700     Ti( 1.00)
        O1             6.00    15.99900     O ( 1.00)
        N1             5.00    14.00700     N ( 1.00)
        C1             4.00    12.01100     C ( 1.00)
        H1             1.00     1.00800     H ( 1.00)

     No symmetry found

   Cartesian axes

     site n.     atom                  positions (alat units)
         1           Ti1 tau(   1) = (   0.0004258   2.9801865   6.0000000  )
         2           Ti1 tau(   2) = (   3.2906075   1.4906267   6.0002472  )
         3           O1  tau(   3) = (   0.0006271   0.0005054   7.9858123  )
         4           O1  tau(   4) = (   3.2906025   0.0005020   7.3038282  )
         5           O1  tau(   5) = (   4.5942328   1.4918067   9.2879030  )
         6           O1  tau(   6) = (   1.9868534   1.4903216   9.2879459  )
         7           Ti1 tau(   7) = (   3.2907910   2.8959150   9.1758416  )
         8           Ti1 tau(   8) = (   0.0015273   1.4827037   9.2680791  )
         9           O1  tau(   9) = (   3.2870044   0.0008392  11.3329265  )
        10           O1  tau(  10) = (   0.0116148   5.9584955  10.6183126  )
        11           O1  tau(  11) = (   1.3103063   1.4923116  12.6208530  )
        12           O1  tau(  12) = (   5.2933663   1.4849185  12.6124200  )
        13           Ti1 tau(  13) = (   6.5212574   2.9536302  12.6166858  )
        14           Ti1 tau(  14) = (   3.2058376   1.4897313  12.4816367  )
        15           O1  tau(  15) = (   6.5713238   0.0136578  14.6546308  )
        16           O1  tau(  16) = (   3.3039920   0.0133407  13.9274802  )
        17           O1  tau(  17) = (   4.5398155   1.5323753  16.0810081  )
        18           O1  tau(  18) = (   2.0543055   1.5218724  16.0470058  )
        19           Ti1 tau(  19) = (   3.2774803   3.0107093  15.7022328  )
        20           Ti1 tau(  20) = (   6.5342633   1.5374647  15.8423947  )
        21           O1  tau(  21) = (   3.2904802   0.0005063   4.7018136  )
        22           O1  tau(  22) = (   0.0034288   0.0322173  17.2228558  )
        23           O1  tau(  23) = (   1.3043587   1.4918075   6.0039043  )
        24           O1  tau(  24) = (   5.2767064   1.4903225   6.0039473  )
        25           Ti1 tau(  25) = (   0.0000382   5.9609847   6.0000000  )
        26           Ti1 tau(  26) = (   3.2902200   4.4714249   6.0002472  )
        27           O1  tau(  27) = (   0.0002396   2.9813036   7.9858123  )
        28           O1  tau(  28) = (   3.2902150   2.9813002   7.3038282  )
        29           O1  tau(  29) = (   4.5938453   4.4726049   9.2879030  )
        30           O1  tau(  30) = (   1.9864658   4.4711199   9.2879459  )
        31           Ti1 tau(  31) = (   3.2891106   5.8743827   9.1763621  )
        32           Ti1 tau(  32) = (   0.0006254   4.4649316   9.2693709  )
        33           O1  tau(  33) = (   3.2848367   2.9872869  11.3311783  )
        34           O1  tau(  34) = (   0.0092240   2.9805883  10.6323155  )
        35           O1  tau(  35) = (   1.3050274   4.4824158  12.6313026  )
        36           O1  tau(  36) = (   5.2955027   4.4751037  12.6224712  )
        37           Ti1 tau(  37) = (   6.5218534   5.9301143  12.5590122  )
        38           Ti1 tau(  38) = (   3.2037265   4.4702053  12.4865905  )
        39           O1  tau(  39) = (   6.5652647   2.9430126  14.6458727  )
        40           O1  tau(  40) = (   3.3006234   2.9978660  13.9063397  )
        41           O1  tau(  41) = (   4.5289998   4.4870283  16.1192093  )
        42           O1  tau(  42) = (   2.0463452   4.4937679  16.0531255  )
        43           Ti1 tau(  43) = (   3.2679282   0.0255942  15.7259849  )
        44           Ti1 tau(  44) = (   6.5624932   4.6695214  16.1100661  )
        45           O1  tau(  45) = (   3.2900926   2.9813045   4.7018136  )
        46           O1  tau(  46) = (   1.3039711   4.4726057   6.0039043  )
        47           O1  tau(  47) = (   5.2763189   4.4711207   6.0039473  )
        48           N1  tau(  48) = (   0.0665130   2.9625449  17.3937163  )
        49           C1  tau(  49) = (   0.2562726   2.8715582  18.6342609  )
        50           H1  tau(  50) = (   0.3859136   3.7587535  19.2661104  )
        51           H1  tau(  51) = (   0.3502417   1.8926937  19.1273272  )
        52           N1  tau(  52) = (   3.5829462   4.8819607  19.5834040  )
        53           H1  tau(  53) = (   4.1394342   5.6873527  19.8504637  )
        54           H1  tau(  54) = (   4.0752263   4.4438539  18.8113048  )
        55           H1  tau(  55) = (   3.6086599   4.2347498  20.3655469  )

     number of k points=    10  Fermi-Dirac smearing, width (Ry)=  0.0073
                       cart. coord. in units 2pi/alat
        k(    1) = (   0.0000000   0.0000000   0.0000000), wk =   0.1250000
        k(    2) = (   0.0000000   0.0419351   0.0000000), wk =   0.2500000
        k(    3) = (   0.0000000  -0.0838702   0.0000000), wk =   0.1250000
        k(    4) = (   0.0379955   0.0000049   0.0000000), wk =   0.2500000
        k(    5) = (   0.0379955   0.0419400   0.0000000), wk =   0.2500000
        k(    6) = (   0.0379955  -0.0838652   0.0000000), wk =   0.2500000
        k(    7) = (   0.0379955  -0.0419301   0.0000000), wk =   0.2500000
        k(    8) = (  -0.0759910  -0.0000099   0.0000000), wk =   0.1250000
        k(    9) = (  -0.0759910   0.0419252   0.0000000), wk =   0.2500000
        k(   10) = (  -0.0759910  -0.0838800   0.0000000), wk =   0.1250000

     Initial potential from superposition of free atoms

     starting charge  380.99914, renormalised to  397.00000

     negative rho (up, down):  1.455E-02 0.000E+00

     %%%%%%%%%%%%%%%%%%%%%%%%%%%%%%%%%%%%%%%%%%%%%%%%%%%%%%%%%%%%%%%%%%%%%%%%
     %                                                                      %
     % You are using vdW-DF, which was implemented by the Thonhauser group. %
     % Please cite the following two papers that made this development      %
     % possible and the two reviews that describe the various versions:     %
     %                                                                      %
     %   T. Thonhauser et al., PRL 115, 136402 (2015).                      %
     %   T. Thonhauser et al., PRB 76, 125112 (2007).                       %
     %   K. Berland et al., Rep. Prog. Phys. 78, 066501 (2015).             %
     %   D.C. Langreth et al., J. Phys.: Condens. Matter 21, 084203 (2009). %
     %                                                                      %
     %                                                                      %
     % If you are calculating the stress with vdW-DF, please also cite:     %
     %                                                                      %
     %   R. Sabatini et al., J. Phys.: Condens. Matter 24, 424209 (2012).   %
     %                                                                      %
     %%%%%%%%%%%%%%%%%%%%%%%%%%%%%%%%%%%%%%%%%%%%%%%%%%%%%%%%%%%%%%%%%%%%%%%%

     Adding external electric field

     Computed dipole along edir(3) :
        Dipole              -10.1102 Ry au,        -25.6976 Debye
        Dipole field         -0.0191 Ry au,

        Potential amp.        1.7686 Ry
        Total length         46.3494 bohr

     Starting wfcs are  301 atomic wfcs
  @ DRIVER MODE: Message from server: STATUS
  @ DRIVER MODE: Message from server: POSDATA
  @ DRIVER MODE: Reading and sharing cell
  @ DRIVER MODE: Reading and sharing positions
  @ DRIVER MODE: Received positions

     Self-consistent Calculation

     iteration #  1     ecut=    29.40 Ry     beta= 0.05
     Davidson diagonalization with overlap
     c_bands:  2 eigenvalues not converged
     c_bands:  1 eigenvalues not converged
     c_bands:  1 eigenvalues not converged
     c_bands:  1 eigenvalues not converged
     c_bands:  1 eigenvalues not converged
     c_bands:  1 eigenvalues not converged
     c_bands:  1 eigenvalues not converged
     c_bands:  2 eigenvalues not converged
     ethr =  1.00E-05,  avg # of iterations = 19.0

[...]

     total energy              =   -2537.39129064 Ry
     estimated scf accuracy    <    4509.50453142 Ry

     iteration #  2     ecut=    29.40 Ry     beta= 0.05
     Davidson diagonalization with overlap
     ethr =  1.00E-02,  avg # of iterations = 24.1

[...]

     iteration # 70     ecut=    29.40 Ry     beta= 0.05
     Davidson diagonalization with overlap
     c_bands:  1 eigenvalues not converged
     c_bands:  1 eigenvalues not converged
     ethr =  7.82E-11,  avg # of iterations = 14.0

[...]

     total energy              =   -2941.70788901 Ry
     estimated scf accuracy    <       0.00000016 Ry

     iteration # 75     ecut=    29.40 Ry     beta= 0.05
     Davidson diagonalization with overlap
     ethr =  2.97E-11,  avg # of iterations = 10.8

     negative rho (up, down):  1.502E-02 0.000E+00

     Adding external electric field

     Computed dipole along edir(3) :
        Dipole                0.8844 Ry au,          2.2479 Debye
        Dipole field          0.0017 Ry au,

        Potential amp.       -0.1547 Ry
        Total length         46.3494 bohr

     End of self-consistent calculation

          k = 0.0000 0.0000 0.0000 ( 18029 PWs)   bands (ev):

   -55.7603 -55.7516 -55.7262 -55.7157 -55.6460 -55.6052 -55.5892 -55.5707
   -55.5688 -55.5349 -55.5328 -55.4991 -55.2796 -55.0278 -54.7373 -54.7033
   -32.3045 -32.2427 -32.1064 -32.0958 -32.0677 -32.0643 -32.0532 -32.0232
   -32.0028 -31.9788 -31.9721 -31.9518 -31.9313 -31.9124 -31.9037 -31.8907
   -31.8770 -31.8646 -31.8497 -31.8173 -31.8146 -31.8119 -31.7706 -31.7637
   -31.7631 -31.7613 -31.7567 -31.7475 -31.7347 -31.7201 -31.7123 -31.7081
   -31.7033 -31.6992 -31.6858 -31.6761 -31.6449 -31.5339 -31.4607 -31.3091
   -31.2816 -31.2353 -31.1444 -31.0561 -31.0337 -30.9611 -30.8746 -30.7636
   -16.5003 -16.2351 -16.0185 -15.9139 -15.8786 -15.7629 -15.5989 -15.4797
   -15.4271 -15.3290 -15.3153 -15.2959 -15.2624 -15.2461 -15.2258 -15.2065
   -15.2016 -15.1841 -15.1706 -15.1192 -15.0963 -15.0591 -14.9620 -14.9322
   -14.8947 -14.8782 -14.8202 -14.8150 -14.6935 -14.3319 -14.0411 -13.2398
   -13.1234  -7.2877  -4.1715  -4.1270  -4.0132  -3.8762  -3.7691  -3.7137
    -3.6654  -3.6051  -3.3996  -3.3089  -3.2850  -2.9874  -2.9415  -2.9266
    -2.9044  -2.8790  -2.6594  -2.6046  -2.5732  -2.5560  -2.5413  -2.5280
    -2.5204  -2.5010  -2.4667  -2.3693  -2.3161  -2.3007  -2.1776  -2.1490
    -2.0890  -2.0722  -2.0254  -2.0104  -1.9974  -1.9926  -1.9646  -1.9482
    -1.9222  -1.8444  -1.7286  -1.5764  -1.5579  -1.5241  -1.4078  -1.3670
    -1.3032  -1.2197  -1.2014  -1.1853  -1.1512  -1.1398  -1.0602  -0.9473
    -0.9073  -0.8987  -0.7956  -0.7555  -0.7350  -0.6311  -0.6072  -0.5390
    -0.5226  -0.5127  -0.4797  -0.3193  -0.2625  -0.2273  -0.1624  -0.1393
    -0.0814  -0.0621  -0.0319   0.0512   0.0987   0.1258   0.1277   0.1762
     0.2147   0.2316   0.2355   0.2504   0.2705   0.4375   0.5134   0.5274
     0.5969   0.6086   0.7709   0.8152   0.8974   0.9996   1.0438   1.2104
     1.2847   1.3743   1.4770   1.6822   1.8559   1.9015   3.3768   3.4602
     3.5087   3.5212   3.6193   3.6604   3.8297   3.8381   3.8484   3.9228

[...]

          k = 0.0380-0.0419 0.0000 ( 17876 PWs)   bands (ev):

[...]

          k =-0.0760-0.0000 0.0000 ( 17886 PWs)   bands (ev):

[...]

          k =-0.0760-0.0839 0.0000 ( 17948 PWs)   bands (ev):

   -55.7437 -55.7428 -55.7344 -55.7327 -55.6401 -55.5950 -55.5898 -55.5861
   -55.5525 -55.5508 -55.5167 -55.5154 -55.2786 -55.0287 -54.7203 -54.7201
   -32.1096 -32.1068 -32.0583 -32.0576 -32.0391 -32.0381 -32.0231 -32.0109
   -31.9584 -31.9543 -31.9497 -31.9457 -31.9111 -31.8843 -31.8829 -31.8795
   -31.8704 -31.8644 -31.8630 -31.8621 -31.8556 -31.8532 -31.8433 -31.8090
   -31.8027 -31.7959 -31.7833 -31.7707 -31.7513 -31.7509 -31.7479 -31.7468
   -31.7313 -31.7305 -31.7256 -31.7228 -31.6433 -31.5364 -31.4572 -31.3758
   -31.2833 -31.2573 -31.0464 -31.0463 -30.9573 -30.9571 -30.9179 -30.9178
   -15.9397 -15.9084 -15.7033 -15.6763 -15.6726 -15.6565 -15.5315 -15.4685
   -15.4553 -15.4530 -15.3890 -15.3687 -15.3321 -15.3049 -15.2904 -15.2803
   -15.2746 -15.2684 -15.2196 -15.2137 -15.1960 -15.1888 -15.0858 -15.0762
   -15.0723 -15.0173 -14.9368 -14.7954 -14.7106 -14.5052 -14.0408 -13.2253
   -13.2251  -7.2842  -4.1891  -4.0915  -4.0322  -3.4455  -3.2295  -3.1923
    -2.9330  -2.9148  -2.9012  -2.8462  -2.6734  -2.6559  -2.6345  -2.6163
    -2.5827  -2.5817  -2.5626  -2.5608  -2.5498  -2.5160  -2.5038  -2.4740
    -2.4364  -2.4261  -2.4143  -2.4132  -2.3830  -2.3732  -2.3345  -2.3051
    -2.2958  -2.2774  -2.2627  -2.0928  -1.9849  -1.9596  -1.8965  -1.8887
    -1.8597  -1.8237  -1.8163  -1.7956  -1.7448  -1.6596  -1.4916  -1.4594
    -1.4413  -1.3808  -1.3616  -1.3109  -1.2309  -1.1571  -1.1347  -1.1295
    -1.0797  -0.9701  -0.9479  -0.9392  -0.8696  -0.8238  -0.8164  -0.7812
    -0.7524  -0.7195  -0.7152  -0.6231  -0.5737  -0.5307  -0.5258  -0.4775
    -0.4101  -0.3989  -0.3702  -0.2611  -0.2383  -0.1838  -0.1460  -0.0364
     0.0272   0.2252   0.2790   0.3152   0.3723   0.4474   0.5297   0.5449
     0.5494   0.5598   0.6156   0.6692   0.7736   0.7824   0.8375   0.9445
     1.0108   1.6061   1.6485   1.6491   1.7213   1.7214   3.6594   3.6712
     3.7101   3.7308   3.8691   3.8842   3.9079   3.9089   3.9610   4.0458

     the Fermi energy is     3.3743 ev

!    total energy              =   -2941.70789919 Ry
     estimated scf accuracy    <       0.00000002 Ry
     smearing contrib. (-TS)   =      -0.02185559 Ry
     internal energy E=F+TS    =   -2941.68604360 Ry

     The total energy is F=E-TS. E is the sum of the following terms:
     one-electron contribution =  -23925.28490578 Ry
     hartree contribution      =   12052.26446681 Ry
     xc contribution           =    -486.76548000 Ry
     ewald contribution        =    9418.09839934 Ry
     electric field correction =       0.00147602 Ry

     convergence has been achieved in  75 iterations

     Forces acting on atoms (cartesian axes, Ry/au):

     atom    1 type  1   force =     0.00002532   -0.00025605    0.09662804
     atom    2 type  1   force =     0.00003986   -0.00057650   -0.17538497
     atom    3 type  2   force =     0.00011434   -0.00004249   -0.02488283
     atom    4 type  2   force =    -0.00000080   -0.00141871    0.05292622
     atom    5 type  2   force =    -0.01226661   -0.00026845    0.00348292
     atom    6 type  2   force =     0.01361957    0.00026011    0.00255935
     atom    7 type  1   force =     0.00031436    0.00057388   -0.01136065
     atom    8 type  1   force =     0.00052184    0.00783316    0.02845389
     atom    9 type  2   force =     0.00020680    0.00041381    0.00049937
     atom   10 type  2   force =    -0.00291993    0.00138260   -0.01555233
     atom   11 type  2   force =     0.00067398   -0.00000969   -0.00001440
     atom   12 type  2   force =    -0.00009097   -0.00014002   -0.00013473
     atom   13 type  1   force =    -0.00019118   -0.00032327    0.00098155
     atom   14 type  1   force =     0.00018651   -0.00007458   -0.00019893
     atom   15 type  2   force =     0.00016530    0.00048747    0.00022053
     atom   16 type  2   force =    -0.00033489   -0.00035662   -0.00027841
     atom   17 type  2   force =    -0.00065743    0.00000797   -0.00048122
     atom   18 type  2   force =     0.00031411    0.00048004   -0.00001655
     atom   19 type  1   force =    -0.00049681   -0.00078568   -0.00024244
     atom   20 type  1   force =     0.00049602    0.00089427   -0.00124090
     atom   21 type  2   force =     0.00005416   -0.00006295    0.10318290
     atom   22 type  2   force =    -0.00079421    0.00006666    0.00062376
     atom   23 type  2   force =    -0.07150863   -0.00014122   -0.02770962
     atom   24 type  2   force =     0.07143403    0.00031905   -0.02778533
     atom   25 type  1   force =     0.00016229   -0.00024766    0.09626519
     atom   26 type  1   force =     0.00009368   -0.00022959   -0.17562427
     atom   27 type  2   force =     0.00017045   -0.00019021   -0.02393321
     atom   28 type  2   force =    -0.00000097   -0.00117497    0.05283938
     atom   29 type  2   force =    -0.01239588    0.00039195    0.00317829
     atom   30 type  2   force =     0.01364971    0.00085526    0.00222398
     atom   31 type  1   force =     0.00028742    0.00323992   -0.01195253
     atom   32 type  1   force =     0.00065102   -0.01007134    0.02885739
     atom   33 type  2   force =     0.00024435   -0.00024477    0.00063133
     atom   34 type  2   force =    -0.00237850    0.00102429   -0.02369986
     atom   35 type  2   force =     0.00059623   -0.00070625   -0.00008708
     atom   36 type  2   force =    -0.00016526   -0.00078980    0.00017869
     atom   37 type  1   force =    -0.00017503   -0.00014068    0.00047673
     atom   38 type  1   force =     0.00030814    0.00037750   -0.00064823
     atom   39 type  2   force =    -0.00008447   -0.00075151    0.00119573
     atom   40 type  2   force =     0.00026740   -0.00062374   -0.00011815
     atom   41 type  2   force =    -0.00025271   -0.00062066   -0.00003651
     atom   42 type  2   force =    -0.00039764   -0.00028039   -0.00000139
     atom   43 type  1   force =    -0.00047261    0.00070552    0.00005387
     atom   44 type  1   force =    -0.00013193    0.00022606   -0.00045050
     atom   45 type  2   force =     0.00007443   -0.00006731    0.10321094
     atom   46 type  2   force =    -0.07154196   -0.00008795   -0.02773507
     atom   47 type  2   force =     0.07144775    0.00033414   -0.02779897
     atom   48 type  3   force =    -0.00250351   -0.00044620   -0.00458369
     atom   49 type  4   force =     0.00659999   -0.00101669    0.00502886
     atom   50 type  5   force =    -0.00222443    0.00000573    0.00061341
     atom   51 type  5   force =    -0.00208178    0.00116290   -0.00076205
     atom   52 type  3   force =    -0.00161276    0.00028433   -0.00063232
     atom   53 type  5   force =     0.00138649    0.00075673   -0.00011929
     atom   54 type  5   force =     0.00137371   -0.00039396    0.00102527
     atom   55 type  5   force =     0.00020163    0.00045656   -0.00187116

     Total force =     0.368205     Total SCF correction =     0.000334
  @ DRIVER MODE: Message from server: STATUS
  @ DRIVER MODE: Message from server: GETFORCE
  @ DRIVER MODE: Returning v,forces,stress,ensemble

     Writing output data file ./calc.save/
  @ DRIVER MODE: Message from server: EXIT
  @ DRIVE MODE: Exiting

     General routines

     Parallel routines

   This run was terminated on:  12:33:48  24Aug2021

   JOB DONE.