     Program PWSCF v.6.7GPU starts on 22Sep2021 at 20:50:21

     R & G space division:  proc/nbgrp/npool/nimage =      10
     Reading input from /storage/home/hcoda1/3/ntian30/research/carbon/CxH_vib/H2O_calc/ads_slab/CH2HO_a/out_0018/pw.inp
Warning: card &CELL ignored
Warning: card   CELL_DYNAMICS='IPI', ignored
Warning: card / ignored

     Current dimensions of program PWSCF are:
     Max number of different atomic species (ntypx) = 10
     Max number of k-points (npk) =  40000
     Max angular momentum in pseudopotentials (lmaxx) =  3
     Presently no symmetry can be used with electric field

     Message from routine cell_base_init:
     DEPRECATED: use true lattice parameter, not A to a.u. conversion factor

     IMPORTANT: XC functional enforced from input :
     Exchange-correlation= BEEF-VDW
                           (   1   4  43  14   2   0   0)
     Any further DFT definition will be discarded
     Please, verify this is what you really want

  @ DRIVER MODE: Connecting to
 qe_1139763_2937324.sched-torque.pace.gatech.eduf16cjspj_scratch
  using UNIX socket
  @ DRIVER MODE: Message from server: STATUS
  @ DRIVER MODE: Message from server: INIT
  @ DRIVER MODE: Receiving replica           0          -1
  @ DRIVER MODE: Receiving encoded integer          25
  @ DRIVER MODE:  SCF:  T  FORCE:  T  STRESS:  F  VC:  F  ENSEMBLE:  F
  @ DRIVER MODE:  SCF:  T  FORCE:  T  STRESS:  F  VC:  F  ENSEMBLE:  F

     Using Slab Decomposition

     bravais-lattice index     =            0
     lattice parameter (alat)  =       1.8897  a.u.
     unit-cell volume          =    6658.9804 (a.u.)^3
     number of atoms/cell      =           52
     number of atomic types    =            4
     number of electrons       =       391.00
     number of Kohn-Sham states=          205
     kinetic-energy cutoff     =      29.3995  Ry
     charge density cutoff     =     293.9946  Ry
     scf convergence threshold =      7.3E-08
     mixing beta               =       0.0500
     number of iterations used =            8  plain     mixing
     Exchange-correlation= BEEF-VDW
                           (   1   4  43  14   2   0   0)

     celldm(1)=   1.889726  celldm(2)=   0.000000  celldm(3)=   0.000000
     celldm(4)=   0.000000  celldm(5)=   0.000000  celldm(6)=   0.000000

     crystal axes: (cart. coord. in units of alat)
               a(1) = (   6.579727   0.000000   0.000000 )
               a(2) = (  -0.000775   5.961596   0.000000 )
               a(3) = (   0.000000   0.000000  25.155947 )

     reciprocal axes: (cart. coord. in units 2 pi/alat)
               b(1) = (  0.151982  0.000020  0.000000 )
               b(2) = (  0.000000  0.167740  0.000000 )
               b(3) = (  0.000000  0.000000  0.039752 )

     PseudoPot. # 1 for Ti read from file:
     /storage/coda1/p-amedford6/0/shared/rich_project_chbe-medford/medford-share/data/pseudos_module/espresso/nninc/pbe/van/Ti.UPF
     MD5 check sum: 8e4df49b7f0d34bbd5052bf3f5ea0213
     Pseudo is Ultrasoft, Zval = 12.0
     Generated by new atomic code, or converted to UPF format
     Using radial grid of  851 points,  6 beta functions with:
                l(1) =   0
                l(2) =   0
                l(3) =   1
                l(4) =   1
                l(5) =   2
                l(6) =   2
     Q(r) pseudized with  8 coefficients,  rinner =    1.000   1.000   1.000
                                                       1.000   1.000

     PseudoPot. # 2 for O  read from file:
     /storage/coda1/p-amedford6/0/shared/rich_project_chbe-medford/medford-share/data/pseudos_module/espresso/nninc/pbe/van/O.UPF
     MD5 check sum: 78c19812648e8988a0fe644b0f25305e
     Pseudo is Ultrasoft, Zval =  6.0
     Generated by new atomic code, or converted to UPF format
     Using radial grid of  737 points,  4 beta functions with:
                l(1) =   0
                l(2) =   0
                l(3) =   1
                l(4) =   1
     Q(r) pseudized with  8 coefficients,  rinner =    0.800   0.800   0.800

     PseudoPot. # 3 for C  read from file:
     /storage/coda1/p-amedford6/0/shared/rich_project_chbe-medford/medford-share/data/pseudos_module/espresso/nninc/pbe/van/C.UPF
     MD5 check sum: 1a69bf6b8db32088f5b2163dbdb77a27
     Pseudo is Ultrasoft, Zval =  4.0
     Generated by new atomic code, or converted to UPF format
     Using radial grid of  721 points,  4 beta functions with:
                l(1) =   0
                l(2) =   0
                l(3) =   1
                l(4) =   1
     Q(r) pseudized with  8 coefficients,  rinner =    0.800   0.800   0.800

     PseudoPot. # 4 for H  read from file:
     /storage/coda1/p-amedford6/0/shared/rich_project_chbe-medford/medford-share/data/pseudos_module/espresso/nninc/pbe/van/H.UPF
     MD5 check sum: b5ee9d7bfd3a09ee7748110bda690ff7
     Pseudo is Ultrasoft, Zval =  1.0
     Generated by new atomic code, or converted to UPF format
     Using radial grid of  615 points,  1 beta functions with:
                l(1) =   0
     Q(r) pseudized with  8 coefficients,  rinner =    0.800

     atomic species   valence    mass     pseudopotential
        Ti1           12.00    47.86700     Ti( 1.00)
        O1             6.00    15.99900     O ( 1.00)
        C1             4.00    12.01100     C ( 1.00)
        H1             1.00     1.00800     H ( 1.00)

     No symmetry found

   Cartesian axes

     site n.     atom                  positions (alat units)
         1           Ti1 tau(   1) = (   0.0004258   2.9801865   6.0000000  )
         2           Ti1 tau(   2) = (   3.2906075   1.4906267   6.0002472  )
         3           O1  tau(   3) = (   0.0006271   0.0005054   7.9858123  )
         4           O1  tau(   4) = (   3.2906025   0.0005020   7.3038282  )
         5           O1  tau(   5) = (   4.5942328   1.4918067   9.2879030  )
         6           O1  tau(   6) = (   1.9868534   1.4903216   9.2879459  )
         7           Ti1 tau(   7) = (   3.2576197   2.8654215   9.2214558  )
         8           Ti1 tau(   8) = (   6.5344909   1.4429808   9.3601258  )
         9           O1  tau(   9) = (   3.2692782   5.9266415  11.3199434  )
        10           O1  tau(  10) = (   6.5685443   5.9434748  10.5851361  )
        11           O1  tau(  11) = (   1.2543606   1.4786140  12.6270584  )
        12           O1  tau(  12) = (   5.2804994   1.4734118  12.6291387  )
        13           Ti1 tau(  13) = (   6.5561640   2.8465321  12.8092297  )
        14           Ti1 tau(  14) = (   3.2590950   1.2910582  12.6820668  )
        15           O1  tau(  15) = (   6.5637791   5.9505241  14.6246090  )
        16           O1  tau(  16) = (   3.2632455   0.0300109  13.9168947  )
        17           O1  tau(  17) = (   4.5093043   1.5331652  16.1230905  )
        18           O1  tau(  18) = (   1.9844652   1.5452522  16.1286669  )
        19           Ti1 tau(  19) = (   3.2766647   3.0056044  15.6806532  )
        20           Ti1 tau(  20) = (   0.0376264   1.5104518  16.1289793  )
        21           O1  tau(  21) = (   3.2904802   0.0005063   4.7018136  )
        22           O1  tau(  22) = (   6.5370995   5.9187843  17.1758003  )
        23           O1  tau(  23) = (   1.3043587   1.4918075   6.0039043  )
        24           O1  tau(  24) = (   5.2767064   1.4903225   6.0039473  )
        25           Ti1 tau(  25) = (   0.0000382   5.9609847   6.0000000  )
        26           Ti1 tau(  26) = (   3.2902200   4.4714249   6.0002472  )
        27           O1  tau(  27) = (   0.0002396   2.9813036   7.9858123  )
        28           O1  tau(  28) = (   3.2902150   2.9813002   7.3038282  )
        29           O1  tau(  29) = (   4.5938453   4.4726049   9.2879030  )
        30           O1  tau(  30) = (   1.9864658   4.4711199   9.2879459  )
        31           Ti1 tau(  31) = (   3.2565375   5.8496818   9.1814359  )
        32           Ti1 tau(  32) = (   6.5349656   4.3900073   9.3400910  )
        33           O1  tau(  33) = (   3.2728704   3.0037829  11.2907943  )
        34           O1  tau(  34) = (   6.5689136   2.9626257  10.5472476  )
        35           O1  tau(  35) = (   1.2549189   4.4436098  12.6280720  )
        36           O1  tau(  36) = (   5.2752285   4.4450423  12.6314263  )
        37           Ti1 tau(  37) = (   6.5445616   5.8332433  12.5976854  )
        38           Ti1 tau(  38) = (   3.2543598   4.3897341  12.4334224  )
        39           O1  tau(  39) = (   6.5579435   2.9355163  14.7117218  )
        40           O1  tau(  40) = (   3.2602875   2.9656724  13.9017019  )
        41           O1  tau(  41) = (   4.5395605   4.4315404  16.0360363  )
        42           O1  tau(  42) = (   2.0063696   4.4444213  16.0824092  )
        43           Ti1 tau(  43) = (   3.2990179   0.0081159  16.3450624  )
        44           Ti1 tau(  44) = (   6.5722952   4.6241161  15.8901152  )
        45           O1  tau(  45) = (   3.2900926   2.9813045   4.7018136  )
        46           O1  tau(  46) = (   1.3039711   4.4726057   6.0039043  )
        47           O1  tau(  47) = (   5.2763189   4.4711207   6.0039473  )
        48           C1  tau(  48) = (   6.5366691   2.9215611  17.7332970  )
        49           H1  tau(  49) = (   0.8393079   3.1163452  18.3454380  )
        50           H1  tau(  50) = (   5.6239513   3.1093896  18.3113171  )
        51           O1  tau(  51) = (   3.3457726   5.9061862  18.1608053  )
        52           H1  tau(  52) = (   4.0847859   0.3069366  18.6733355  )

     number of k points=    10  Fermi-Dirac smearing, width (Ry)=  0.0073
                       cart. coord. in units 2pi/alat
        k(    1) = (   0.0000000   0.0000000   0.0000000), wk =   0.1250000
        k(    2) = (   0.0000000   0.0419351   0.0000000), wk =   0.2500000
        k(    3) = (   0.0000000  -0.0838702   0.0000000), wk =   0.1250000
        k(    4) = (   0.0379955   0.0000049   0.0000000), wk =   0.2500000
        k(    5) = (   0.0379955   0.0419400   0.0000000), wk =   0.2500000
        k(    6) = (   0.0379955  -0.0838652   0.0000000), wk =   0.2500000
        k(    7) = (   0.0379955  -0.0419301   0.0000000), wk =   0.2500000
        k(    8) = (  -0.0759910  -0.0000099   0.0000000), wk =   0.1250000
        k(    9) = (  -0.0759910   0.0419252   0.0000000), wk =   0.2500000
        k(   10) = (  -0.0759910  -0.0838800   0.0000000), wk =   0.1250000

     Initial potential from superposition of free atoms

     starting charge  374.99918, renormalised to  391.00000

     negative rho (up, down):  1.929E-02 0.000E+00

     %%%%%%%%%%%%%%%%%%%%%%%%%%%%%%%%%%%%%%%%%%%%%%%%%%%%%%%%%%%%%%%%%%%%%%%%
     %                                                                      %
     % You are using vdW-DF, which was implemented by the Thonhauser group. %
     % Please cite the following two papers that made this development      %
     % possible and the two reviews that describe the various versions:     %
     %                                                                      %
     %   T. Thonhauser et al., PRL 115, 136402 (2015).                      %
     %   T. Thonhauser et al., PRB 76, 125112 (2007).                       %
     %   K. Berland et al., Rep. Prog. Phys. 78, 066501 (2015).             %
     %   D.C. Langreth et al., J. Phys.: Condens. Matter 21, 084203 (2009). %
     %                                                                      %
     %                                                                      %
     % If you are calculating the stress with vdW-DF, please also cite:     %
     %                                                                      %
     %   R. Sabatini et al., J. Phys.: Condens. Matter 24, 424209 (2012).   %
     %                                                                      %
     %%%%%%%%%%%%%%%%%%%%%%%%%%%%%%%%%%%%%%%%%%%%%%%%%%%%%%%%%%%%%%%%%%%%%%%%

     Adding external electric field

     Computed dipole along edir(3) :
        Dipole               -4.4324 Ry au,        -11.2661 Debye
        Dipole field         -0.0084 Ry au,

        Potential amp.        0.7754 Ry
        Total length         46.3494 bohr

     Starting wfcs are  295 atomic wfcs
  @ DRIVER MODE: Message from server: STATUS
  @ DRIVER MODE: Message from server: POSDATA
  @ DRIVER MODE: Reading and sharing cell
  @ DRIVER MODE: Reading and sharing positions
  @ DRIVER MODE: Received positions

     Self-consistent Calculation

     iteration #  1     ecut=    29.40 Ry     beta= 0.05
     Davidson diagonalization with overlap
     c_bands:  5 eigenvalues not converged
     c_bands:  2 eigenvalues not converged
     c_bands:  2 eigenvalues not converged
     c_bands:  2 eigenvalues not converged
     c_bands:  2 eigenvalues not converged
     c_bands:  1 eigenvalues not converged
     c_bands:  3 eigenvalues not converged
     c_bands:  1 eigenvalues not converged
     c_bands:  3 eigenvalues not converged
     ethr =  1.00E-05,  avg # of iterations = 20.0

[...]

     total energy              =   -2883.16689961 Ry
     estimated scf accuracy    <     549.94587497 Ry

     iteration #  2     ecut=    29.40 Ry     beta= 0.05
     Davidson diagonalization with overlap
     ethr =  1.00E-02,  avg # of iterations = 14.0

[...]

     iteration # 31     ecut=    29.40 Ry     beta= 0.05
     Davidson diagonalization with overlap
     c_bands:  1 eigenvalues not converged
     c_bands:  2 eigenvalues not converged
     c_bands:  2 eigenvalues not converged
     c_bands:  2 eigenvalues not converged
     ethr =  3.61E-07,  avg # of iterations = 12.4

[...]

     total energy              =   -2931.27744552 Ry
     estimated scf accuracy    <       0.00000008 Ry

     iteration # 57     ecut=    29.40 Ry     beta= 0.05
     Davidson diagonalization with overlap
     ethr =  1.95E-11,  avg # of iterations =  4.4

     negative rho (up, down):  1.858E-02 0.000E+00

     Adding external electric field

     Computed dipole along edir(3) :
        Dipole                0.4337 Ry au,          1.1024 Debye
        Dipole field          0.0008 Ry au,

        Potential amp.       -0.0759 Ry
        Total length         46.3494 bohr

     End of self-consistent calculation

          k = 0.0000 0.0000 0.0000 ( 18029 PWs)   bands (ev):

   -56.6093 -56.5592 -56.1468 -56.0380 -55.9957 -55.9388 -55.9123 -55.8963
   -55.8542 -55.8127 -55.7831 -55.7269 -55.6805 -55.6099 -55.2188 -55.1849
   -33.0211 -32.8743 -32.8200 -32.7881 -32.6924 -32.6473 -32.4987 -32.4861
   -32.4654 -32.4022 -32.3714 -32.3506 -32.3072 -32.2852 -32.2667 -32.2424
   -32.2395 -32.2237 -32.2100 -32.1441 -32.1414 -32.1281 -32.1256 -32.1113
   -32.0994 -32.0936 -32.0896 -32.0863 -32.0608 -32.0404 -32.0169 -31.9995
   -31.9944 -31.9852 -31.9835 -31.9736 -31.9269 -31.8705 -31.8441 -31.8398
   -31.8217 -31.7909 -31.6133 -31.5592 -31.5348 -31.4300 -31.3450 -31.2343
   -16.9534 -16.7670 -16.6233 -16.3998 -16.2553 -16.1514 -15.9354 -15.9250
   -15.8032 -15.7859 -15.7614 -15.6298 -15.6166 -15.6005 -15.5600 -15.5380
   -15.5310 -15.5292 -15.5177 -15.4913 -15.4592 -15.4384 -15.3983 -15.3166
   -15.2409 -15.2341 -15.1987 -15.1433 -15.0800 -14.8602 -13.7216 -13.6132
    -8.8972  -4.6498  -4.2915  -4.0787  -3.9704  -3.8923  -3.7864  -3.6327
    -3.4339  -3.2951  -3.2430  -3.2091  -3.1606  -3.1392  -3.1231  -3.0718
    -3.0325  -2.9808  -2.9513  -2.8896  -2.8649  -2.8257  -2.7886  -2.7637
    -2.7486  -2.7280  -2.7236  -2.5844  -2.5243  -2.5133  -2.4669  -2.4649
    -2.4067  -2.3900  -2.3664  -2.3167  -2.2830  -2.1878  -2.1293  -2.0960
    -2.0491  -1.8292  -1.8110  -1.7451  -1.6708  -1.6181  -1.5597  -1.5170
    -1.4621  -1.4349  -1.3732  -1.3334  -1.2861  -1.2617  -1.2228  -1.1554
    -1.1354  -1.1003  -1.0390  -0.9631  -0.9175  -0.8489  -0.7825  -0.7462
    -0.6905  -0.6817  -0.6516  -0.5613  -0.4774  -0.4576  -0.4239  -0.3834
    -0.3655  -0.2945  -0.2810  -0.2385  -0.2222  -0.1463  -0.1307  -0.1012
    -0.0694  -0.0471  -0.0246   0.0420   0.1638   0.2317   0.2751   0.3095
     0.3274   0.4147   0.4343   0.5222   0.6776   0.7976   0.8368   1.0072
     1.0597   1.3484   1.3943   1.9257   2.6923   2.8567   3.1423   3.2456
     3.2809   3.3575   3.4020   3.4332   3.6308

[...]

          k = 0.0380-0.0419 0.0000 ( 17876 PWs)   bands (ev):

[...]

          k =-0.0760-0.0000 0.0000 ( 17886 PWs)   bands (ev):

[...]

          k =-0.0760-0.0839 0.0000 ( 17948 PWs)   bands (ev):

   -56.6028 -56.5656 -56.1460 -56.0356 -55.9897 -55.9446 -55.9145 -55.8968
   -55.8454 -55.8214 -55.7815 -55.7205 -55.6868 -55.6114 -55.2021 -55.2015
   -32.8701 -32.8536 -32.8239 -32.8217 -32.7547 -32.7229 -32.4229 -32.3793
   -32.3667 -32.3515 -32.3344 -32.2912 -32.2677 -32.2614 -32.2506 -32.2308
   -32.2151 -32.2027 -32.1919 -32.1825 -32.1635 -32.1628 -32.1404 -32.1372
   -32.1354 -32.1247 -32.1095 -32.1049 -32.0726 -32.0680 -32.0549 -32.0421
   -32.0031 -31.9960 -31.9888 -31.9876 -31.9541 -31.9306 -31.9119 -31.8722
   -31.8249 -31.8143 -31.5481 -31.5477 -31.4289 -31.4271 -31.3872 -31.3863
   -16.9413 -16.1450 -16.0838 -16.0743 -16.0610 -16.0312 -15.9898 -15.9182
   -15.9161 -15.8187 -15.7917 -15.7476 -15.7094 -15.6975 -15.6516 -15.6386
   -15.6259 -15.5633 -15.5213 -15.5024 -15.4869 -15.4743 -15.4534 -15.4286
   -15.4172 -15.3970 -15.3294 -15.2478 -15.2172 -15.0023 -13.7176 -13.7163
    -8.9050  -4.6411  -3.3814  -3.3280  -3.2490  -3.2291  -3.2040  -3.1502
    -3.0941  -3.0887  -3.0312  -3.0175  -2.9746  -2.9450  -2.9152  -2.9092
    -2.9021  -2.8923  -2.8788  -2.8551  -2.8010  -2.7981  -2.7804  -2.7712
    -2.7549  -2.7387  -2.7062  -2.6652  -2.6345  -2.6104  -2.5253  -2.4257
    -2.4199  -2.3861  -2.3548  -2.3211  -2.2797  -2.2572  -2.1829  -2.1755
    -2.1595  -2.1098  -2.0113  -1.7782  -1.7709  -1.7154  -1.6829  -1.6752
    -1.6107  -1.5427  -1.5359  -1.4510  -1.4479  -1.4345  -1.3340  -1.3160
    -1.2836  -1.2644  -1.2388  -1.2096  -1.1069  -1.0852  -1.0775  -1.0462
    -1.0007  -0.9796  -0.8881  -0.8699  -0.8516  -0.8234  -0.7417  -0.6894
    -0.6500  -0.6318  -0.4938  -0.4465  -0.4355  -0.2862  -0.2317  -0.1969
    -0.1745  -0.0880   0.0160   0.0559   0.1128   0.1602   0.2196   0.3258
     0.3387   0.3613   0.4245   0.4643   0.4720   0.4877   0.5635   1.1917
     1.1924   1.2006   1.2076   2.0848   3.2335   3.2589   3.2710   3.3045
     3.5171   3.5408   3.5513   3.6095   3.6518

     the Fermi energy is     2.0056 ev

!    total energy              =   -2931.27749432 Ry
     estimated scf accuracy    <       0.00000002 Ry
     smearing contrib. (-TS)   =      -0.01004423 Ry
     internal energy E=F+TS    =   -2931.26745010 Ry

     The total energy is F=E-TS. E is the sum of the following terms:
     one-electron contribution =  -24331.52323467 Ry
     hartree contribution      =   12249.55058254 Ry
     xc contribution           =    -481.69627920 Ry
     ewald contribution        =    9632.40112624 Ry
     electric field correction =       0.00035500 Ry

     convergence has been achieved in  57 iterations

     Forces acting on atoms (cartesian axes, Ry/au):

     atom    1 type  1   force =     0.00036084   -0.00077810    0.13235535
     atom    2 type  1   force =     0.00014331    0.00690765   -0.15727253
     atom    3 type  2   force =    -0.00018558    0.00281979   -0.05348627
     atom    4 type  2   force =    -0.00072830   -0.00116761    0.04119940
     atom    5 type  2   force =    -0.01140372   -0.00238808    0.00284482
     atom    6 type  2   force =     0.00918114   -0.00644287    0.00177482
     atom    7 type  1   force =     0.00043701    0.00029638   -0.00037568
     atom    8 type  1   force =     0.00019785   -0.00002878    0.00094769
     atom    9 type  2   force =    -0.00002292    0.00044161    0.00038786
     atom   10 type  2   force =     0.00025441    0.00023006   -0.00009654
     atom   11 type  2   force =     0.00050060    0.00034053    0.00026929
     atom   12 type  2   force =    -0.00014040    0.00027911   -0.00025051
     atom   13 type  1   force =    -0.00026392   -0.00048117   -0.00093721
     atom   14 type  1   force =     0.00020905    0.00050390   -0.00023797
     atom   15 type  2   force =     0.00007174   -0.00009314    0.00155850
     atom   16 type  2   force =     0.00047702   -0.00017882    0.00005504
     atom   17 type  2   force =     0.00023050   -0.00032568   -0.00044484
     atom   18 type  2   force =    -0.00116390   -0.00025892   -0.00024128
     atom   19 type  1   force =     0.00122589   -0.00002477   -0.00013145
     atom   20 type  1   force =    -0.00047905    0.00020840   -0.00019498
     atom   21 type  2   force =     0.00020962    0.00008693    0.09898564
     atom   22 type  2   force =     0.00008215    0.00092905   -0.00109247
     atom   23 type  2   force =    -0.08051030    0.00137250   -0.03417784
     atom   24 type  2   force =     0.08058608    0.00190249   -0.03418830
     atom   25 type  1   force =     0.00030642   -0.00010577    0.14244048
     atom   26 type  1   force =     0.00016862   -0.00837019   -0.15754879
     atom   27 type  2   force =    -0.00039204   -0.00116966   -0.05198351
     atom   28 type  2   force =    -0.00064112   -0.00038203    0.04299550
     atom   29 type  2   force =    -0.01011292    0.00503421    0.00017324
     atom   30 type  2   force =     0.00778643    0.00127722   -0.00111001
     atom   31 type  1   force =     0.00009806    0.00001491   -0.00024854
     atom   32 type  1   force =     0.00009516   -0.00043285    0.00097885
     atom   33 type  2   force =     0.00003540   -0.00035048   -0.00008578
     atom   34 type  2   force =     0.00024624    0.00012599   -0.00023333
     atom   35 type  2   force =    -0.00051633    0.00035032    0.00019633
     atom   36 type  2   force =     0.00132167    0.00031300   -0.00024175
     atom   37 type  1   force =     0.00000856   -0.00019387   -0.00045858
     atom   38 type  1   force =     0.00029280   -0.00009259   -0.00017318
     atom   39 type  2   force =     0.00004887    0.00008118    0.00017328
     atom   40 type  2   force =     0.00039736    0.00010465   -0.00039106
     atom   41 type  2   force =    -0.00105616    0.00012571   -0.00013796
     atom   42 type  2   force =     0.00028901    0.00028882   -0.00023845
     atom   43 type  1   force =     0.00121203    0.00043699    0.00032660
     atom   44 type  1   force =    -0.00048093    0.00039458   -0.00013189
     atom   45 type  2   force =     0.00020013   -0.00000129    0.09855219
     atom   46 type  2   force =    -0.08049793   -0.00109923   -0.03416168
     atom   47 type  2   force =     0.08058844   -0.00056136   -0.03424459
     atom   48 type  3   force =    -0.00488785    0.00146615    0.00412831
     atom   49 type  4   force =     0.00036294   -0.00021761   -0.00028349
     atom   50 type  4   force =     0.00479520   -0.00101364   -0.00422363
     atom   51 type  2   force =    -0.00004201    0.00054389   -0.00133574
     atom   52 type  4   force =     0.00110485   -0.00071752    0.00001665

     Total force =     0.383825     Total SCF correction =     0.000380
  @ DRIVER MODE: Message from server: STATUS
  @ DRIVER MODE: Message from server: GETFORCE
  @ DRIVER MODE: Returning v,forces,stress,ensemble

     Writing output data file ./calc.save/
  @ DRIVER MODE: Message from server: EXIT
  @ DRIVE MODE: Exiting

     General routines

     Parallel routines

   This run was terminated on:  21: 4:52  22Sep2021

   JOB DONE.