     Program PWSCF v.6.7GPU starts on 15Sep2021 at 22:30:43

     R & G space division:  proc/nbgrp/npool/nimage =      10
     Reading input from /storage/home/hcoda1/3/ntian30/research/carbon/CxH_vib/H2O_calc/ads_slab/CH2OHH2O_a/out_0022/pw.inp
Warning: card &CELL ignored
Warning: card   CELL_DYNAMICS='IPI', ignored
Warning: card / ignored

     Current dimensions of program PWSCF are:
     Max number of different atomic species (ntypx) = 10
     Max number of k-points (npk) =  40000
     Max angular momentum in pseudopotentials (lmaxx) =  3
     Presently no symmetry can be used with electric field

     Message from routine cell_base_init:
     DEPRECATED: use true lattice parameter, not A to a.u. conversion factor

     IMPORTANT: XC functional enforced from input :
     Exchange-correlation= BEEF-VDW
                           (   1   4  43  14   2   0   0)
     Any further DFT definition will be discarded
     Please, verify this is what you really want

  @ DRIVER MODE: Connecting to
 qe_1139763_2852615.sched-torque.pace.gatech.edu18um6qz__scratch
  using UNIX socket
  @ DRIVER MODE: Message from server: STATUS
  @ DRIVER MODE: Message from server: INIT
  @ DRIVER MODE: Receiving replica           0          -1
  @ DRIVER MODE: Receiving encoded integer          25
  @ DRIVER MODE:  SCF:  T  FORCE:  T  STRESS:  F  VC:  F  ENSEMBLE:  F
  @ DRIVER MODE:  SCF:  T  FORCE:  T  STRESS:  F  VC:  F  ENSEMBLE:  F

     Using Slab Decomposition

     bravais-lattice index     =            0
     lattice parameter (alat)  =       1.8897  a.u.
     unit-cell volume          =    6658.9804 (a.u.)^3
     number of atoms/cell      =           55
     number of atomic types    =            4
     number of electrons       =       399.00
     number of Kohn-Sham states=          209
     kinetic-energy cutoff     =      29.3995  Ry
     charge density cutoff     =     293.9946  Ry
     scf convergence threshold =      7.3E-08
     mixing beta               =       0.0500
     number of iterations used =            8  plain     mixing
     Exchange-correlation= BEEF-VDW
                           (   1   4  43  14   2   0   0)

     celldm(1)=   1.889726  celldm(2)=   0.000000  celldm(3)=   0.000000
     celldm(4)=   0.000000  celldm(5)=   0.000000  celldm(6)=   0.000000

     crystal axes: (cart. coord. in units of alat)
               a(1) = (   6.579727   0.000000   0.000000 )
               a(2) = (  -0.000775   5.961596   0.000000 )
               a(3) = (   0.000000   0.000000  25.155947 )

     reciprocal axes: (cart. coord. in units 2 pi/alat)
               b(1) = (  0.151982  0.000020  0.000000 )
               b(2) = (  0.000000  0.167740  0.000000 )
               b(3) = (  0.000000  0.000000  0.039752 )

     PseudoPot. # 1 for Ti read from file:
     /storage/coda1/p-amedford6/0/shared/rich_project_chbe-medford/medford-share/data/pseudos_module/espresso/nninc/pbe/van/Ti.UPF
     MD5 check sum: 8e4df49b7f0d34bbd5052bf3f5ea0213
     Pseudo is Ultrasoft, Zval = 12.0
     Generated by new atomic code, or converted to UPF format
     Using radial grid of  851 points,  6 beta functions with:
                l(1) =   0
                l(2) =   0
                l(3) =   1
                l(4) =   1
                l(5) =   2
                l(6) =   2
     Q(r) pseudized with  8 coefficients,  rinner =    1.000   1.000   1.000
                                                       1.000   1.000

     PseudoPot. # 2 for O  read from file:
     /storage/coda1/p-amedford6/0/shared/rich_project_chbe-medford/medford-share/data/pseudos_module/espresso/nninc/pbe/van/O.UPF
     MD5 check sum: 78c19812648e8988a0fe644b0f25305e
     Pseudo is Ultrasoft, Zval =  6.0
     Generated by new atomic code, or converted to UPF format
     Using radial grid of  737 points,  4 beta functions with:
                l(1) =   0
                l(2) =   0
                l(3) =   1
                l(4) =   1
     Q(r) pseudized with  8 coefficients,  rinner =    0.800   0.800   0.800

     PseudoPot. # 3 for C  read from file:
     /storage/coda1/p-amedford6/0/shared/rich_project_chbe-medford/medford-share/data/pseudos_module/espresso/nninc/pbe/van/C.UPF
     MD5 check sum: 1a69bf6b8db32088f5b2163dbdb77a27
     Pseudo is Ultrasoft, Zval =  4.0
     Generated by new atomic code, or converted to UPF format
     Using radial grid of  721 points,  4 beta functions with:
                l(1) =   0
                l(2) =   0
                l(3) =   1
                l(4) =   1
     Q(r) pseudized with  8 coefficients,  rinner =    0.800   0.800   0.800

     PseudoPot. # 4 for H  read from file:
     /storage/coda1/p-amedford6/0/shared/rich_project_chbe-medford/medford-share/data/pseudos_module/espresso/nninc/pbe/van/H.UPF
     MD5 check sum: b5ee9d7bfd3a09ee7748110bda690ff7
     Pseudo is Ultrasoft, Zval =  1.0
     Generated by new atomic code, or converted to UPF format
     Using radial grid of  615 points,  1 beta functions with:
                l(1) =   0
     Q(r) pseudized with  8 coefficients,  rinner =    0.800

     atomic species   valence    mass     pseudopotential
        Ti1           12.00    47.86700     Ti( 1.00)
        O1             6.00    15.99900     O ( 1.00)
        C1             4.00    12.01100     C ( 1.00)
        H1             1.00     1.00800     H ( 1.00)

     No symmetry found

   Cartesian axes

     site n.     atom                  positions (alat units)
         1           Ti1 tau(   1) = (   0.0004258   2.9801865   6.0000000  )
         2           Ti1 tau(   2) = (   3.2906075   1.4906267   6.0002472  )
         3           O1  tau(   3) = (   0.0006271   0.0005054   7.9858123  )
         4           O1  tau(   4) = (   3.2906025   0.0005020   7.3038282  )
         5           O1  tau(   5) = (   4.5942328   1.4918067   9.2879030  )
         6           O1  tau(   6) = (   1.9868534   1.4903216   9.2879459  )
         7           Ti1 tau(   7) = (   3.2434587   3.0186650   9.1693953  )
         8           Ti1 tau(   8) = (   6.5248695   1.5265067   9.2859949  )
         9           O1  tau(   9) = (   3.3238096   0.0077392  11.3399147  )
        10           O1  tau(  10) = (   0.0083103   0.0007143  10.5763085  )
        11           O1  tau(  11) = (   1.3076427   1.5153157  12.5877682  )
        12           O1  tau(  12) = (   5.3324098   1.4751673  12.6362968  )
        13           Ti1 tau(  13) = (   0.0822926   2.9518924  12.6100891  )
        14           Ti1 tau(  14) = (   3.3652580   1.6116561  12.6031695  )
        15           O1  tau(  15) = (   0.1623142   0.0003102  14.6136642  )
        16           O1  tau(  16) = (   3.2083997   0.0016335  13.9229753  )
        17           O1  tau(  17) = (   4.6427586   1.3635169  15.8692112  )
        18           O1  tau(  18) = (   2.0707938   1.5934636  16.1317492  )
        19           Ti1 tau(  19) = (   3.4055461   2.9583945  15.9219660  )
        20           Ti1 tau(  20) = (   0.0529163   1.3399360  15.9091509  )
        21           O1  tau(  21) = (   3.2904802   0.0005063   4.7018136  )
        22           O1  tau(  22) = (   0.1143047   5.9459637  17.1421970  )
        23           O1  tau(  23) = (   1.3043587   1.4918075   6.0039043  )
        24           O1  tau(  24) = (   5.2767064   1.4903225   6.0039473  )
        25           Ti1 tau(  25) = (   0.0000382   5.9609847   6.0000000  )
        26           Ti1 tau(  26) = (   3.2902200   4.4714249   6.0002472  )
        27           O1  tau(  27) = (   0.0002396   2.9813036   7.9858123  )
        28           O1  tau(  28) = (   3.2902150   2.9813002   7.3038282  )
        29           O1  tau(  29) = (   4.5938453   4.4726049   9.2879030  )
        30           O1  tau(  30) = (   1.9864658   4.4711199   9.2879459  )
        31           Ti1 tau(  31) = (   3.2519499   0.0415563   9.1803751  )
        32           Ti1 tau(  32) = (   6.5223785   4.4699269   9.2708698  )
        33           O1  tau(  33) = (   3.3249262   3.0006027  11.3427062  )
        34           O1  tau(  34) = (   6.5728067   2.9803724  10.5910131  )
        35           O1  tau(  35) = (   1.3048910   4.4590737  12.5876729  )
        36           O1  tau(  36) = (   5.3248012   4.5079456  12.6396186  )
        37           Ti1 tau(  37) = (   0.0305998   5.9348532  12.4502240  )
        38           Ti1 tau(  38) = (   3.3518916   4.5407868  12.4757475  )
        39           O1  tau(  39) = (   0.0741357   2.9755951  14.7167286  )
        40           O1  tau(  40) = (   3.3703583   2.9475192  13.9294239  )
        41           O1  tau(  41) = (   4.6408928   4.5782690  15.8216857  )
        42           O1  tau(  42) = (   2.0743197   4.3710070  16.0958311  )
        43           Ti1 tau(  43) = (   3.3271525   5.9323444  15.7323421  )
        44           Ti1 tau(  44) = (   0.0603002   4.5335970  15.7939964  )
        45           O1  tau(  45) = (   3.2900926   2.9813045   4.7018136  )
        46           O1  tau(  46) = (   1.3039711   4.4726057   6.0039043  )
        47           O1  tau(  47) = (   5.2763189   4.4711207   6.0039473  )
        48           C1  tau(  48) = (   4.5917920   3.0228413  17.9030398  )
        49           O1  tau(  49) = (   6.0625861   3.0006587  17.4562122  )
        50           H1  tau(  50) = (   0.0503952   3.1075262  18.2373115  )
        51           H1  tau(  51) = (   4.5265887   2.1806275  18.5876854  )
        52           H1  tau(  52) = (   4.4781653   3.9549082  18.4551422  )
        53           O1  tau(  53) = (   2.8659371   5.8926936  18.2031264  )
        54           H1  tau(  54) = (   3.0528466   0.8172038  18.5446680  )
        55           H1  tau(  55) = (   1.8959954   5.8777970  18.0521013  )

     number of k points=    10  Fermi-Dirac smearing, width (Ry)=  0.0073
                       cart. coord. in units 2pi/alat
        k(    1) = (   0.0000000   0.0000000   0.0000000), wk =   0.1250000
        k(    2) = (   0.0000000   0.0419351   0.0000000), wk =   0.2500000
        k(    3) = (   0.0000000  -0.0838702   0.0000000), wk =   0.1250000
        k(    4) = (   0.0379955   0.0000049   0.0000000), wk =   0.2500000
        k(    5) = (   0.0379955   0.0419400   0.0000000), wk =   0.2500000
        k(    6) = (   0.0379955  -0.0838652   0.0000000), wk =   0.2500000
        k(    7) = (   0.0379955  -0.0419301   0.0000000), wk =   0.2500000
        k(    8) = (  -0.0759910  -0.0000099   0.0000000), wk =   0.1250000
        k(    9) = (  -0.0759910   0.0419252   0.0000000), wk =   0.2500000
        k(   10) = (  -0.0759910  -0.0838800   0.0000000), wk =   0.1250000

     Initial potential from superposition of free atoms

     starting charge  382.99916, renormalised to  399.00000

     negative rho (up, down):  1.858E-02 0.000E+00

     %%%%%%%%%%%%%%%%%%%%%%%%%%%%%%%%%%%%%%%%%%%%%%%%%%%%%%%%%%%%%%%%%%%%%%%%
     %                                                                      %
     % You are using vdW-DF, which was implemented by the Thonhauser group. %
     % Please cite the following two papers that made this development      %
     % possible and the two reviews that describe the various versions:     %
     %                                                                      %
     %   T. Thonhauser et al., PRL 115, 136402 (2015).                      %
     %   T. Thonhauser et al., PRB 76, 125112 (2007).                       %
     %   K. Berland et al., Rep. Prog. Phys. 78, 066501 (2015).             %
     %   D.C. Langreth et al., J. Phys.: Condens. Matter 21, 084203 (2009). %
     %                                                                      %
     %                                                                      %
     % If you are calculating the stress with vdW-DF, please also cite:     %
     %                                                                      %
     %   R. Sabatini et al., J. Phys.: Condens. Matter 24, 424209 (2012).   %
     %                                                                      %
     %%%%%%%%%%%%%%%%%%%%%%%%%%%%%%%%%%%%%%%%%%%%%%%%%%%%%%%%%%%%%%%%%%%%%%%%

     Adding external electric field

     Computed dipole along edir(3) :
        Dipole               -9.7304 Ry au,        -24.7321 Debye
        Dipole field         -0.0184 Ry au,

        Potential amp.        1.7022 Ry
        Total length         46.3494 bohr

     Starting wfcs are  301 atomic wfcs
  @ DRIVER MODE: Message from server: STATUS
  @ DRIVER MODE: Message from server: POSDATA
  @ DRIVER MODE: Reading and sharing cell
  @ DRIVER MODE: Reading and sharing positions
  @ DRIVER MODE: Received positions

     Self-consistent Calculation

     iteration #  1     ecut=    29.40 Ry     beta= 0.05
     Davidson diagonalization with overlap
     c_bands:  1 eigenvalues not converged
     c_bands:  2 eigenvalues not converged
     c_bands:  3 eigenvalues not converged
     c_bands:  5 eigenvalues not converged
     c_bands:  3 eigenvalues not converged
     c_bands:  2 eigenvalues not converged
     c_bands:  3 eigenvalues not converged
     c_bands:  2 eigenvalues not converged
     ethr =  1.00E-05,  avg # of iterations = 19.8

[...]

     total energy              =   -2478.50432172 Ry
     estimated scf accuracy    <    5415.87172173 Ry

     iteration #  2     ecut=    29.40 Ry     beta= 0.05
     Davidson diagonalization with overlap
     ethr =  1.00E-02,  avg # of iterations = 24.4

[...]

     iteration # 70     ecut=    29.40 Ry     beta= 0.05
     Davidson diagonalization with overlap
     ethr =  4.20E-11,  avg # of iterations =  8.2

[...]

     total energy              =   -2966.15816354 Ry
     estimated scf accuracy    <       0.00000013 Ry

     iteration # 71     ecut=    29.40 Ry     beta= 0.05
     Davidson diagonalization with overlap
     c_bands:  1 eigenvalues not converged
     ethr =  3.36E-11,  avg # of iterations = 12.1

     negative rho (up, down):  1.798E-02 0.000E+00

     Adding external electric field

     Computed dipole along edir(3) :
        Dipole                1.0053 Ry au,          2.5552 Debye
        Dipole field          0.0019 Ry au,

        Potential amp.       -0.1759 Ry
        Total length         46.3494 bohr

     End of self-consistent calculation

          k = 0.0000 0.0000 0.0000 ( 18029 PWs)   bands (ev):

   -55.6885 -55.6519 -55.5809 -55.5727 -55.5160 -55.5138 -55.5079 -55.5053
   -55.4771 -55.4599 -55.4528 -55.4418 -55.4264 -55.3372 -54.6578 -54.6237
   -32.1786 -32.1645 -32.0544 -32.0245 -32.0022 -31.9756 -31.9548 -31.9430
   -31.9295 -31.8701 -31.8427 -31.8360 -31.8325 -31.8234 -31.7960 -31.7865
   -31.7830 -31.7635 -31.7585 -31.7475 -31.7365 -31.7311 -31.6974 -31.6918
   -31.6893 -31.6825 -31.6771 -31.6692 -31.6643 -31.6593 -31.6518 -31.6349
   -31.6309 -31.6289 -31.6231 -31.6202 -31.6119 -31.6112 -31.5858 -31.5630
   -31.5517 -31.4239 -31.0648 -30.9763 -30.9538 -30.8816 -30.7952 -30.6840
   -19.3874 -18.7444 -16.3736 -16.1768 -15.9720 -15.8586 -15.8388 -15.6576
   -15.5338 -15.3874 -15.3351 -15.3060 -15.2854 -15.2161 -15.2092 -15.1942
   -15.1590 -15.1540 -15.1178 -15.0980 -15.0920 -15.0642 -15.0128 -14.9911
   -14.9413 -14.8812 -14.8127 -14.7926 -14.7837 -14.7083 -14.6162 -13.1583
   -13.0417  -9.4491  -6.5051  -6.2853  -4.0757  -3.8441  -3.6863  -3.6429
    -3.6108  -3.5745  -3.4148  -3.3032  -3.1230  -3.0186  -2.9522  -2.9017
    -2.8648  -2.7877  -2.7459  -2.6216  -2.5983  -2.5482  -2.5156  -2.4795
    -2.4725  -2.4514  -2.4063  -2.3888  -2.3732  -2.2163  -2.2060  -2.1724
    -2.1076  -2.0762  -2.0490  -2.0119  -1.9902  -1.9631  -1.9449  -1.8984
    -1.8800  -1.8082  -1.8001  -1.7570  -1.6897  -1.6566  -1.3931  -1.3139
    -1.2943  -1.2561  -1.1922  -1.0954  -1.0917  -1.0851  -1.0846  -1.0277
    -1.0103  -0.8620  -0.8478  -0.8329  -0.7528  -0.6738  -0.5945  -0.5578
    -0.4933  -0.4432  -0.4103  -0.3826  -0.3572  -0.3008  -0.2319  -0.2095
    -0.1390  -0.0651  -0.0318   0.0205   0.0465   0.0914   0.1215   0.1977
     0.2367   0.2707   0.2986   0.3166   0.3267   0.3701   0.3899   0.4793
     0.5568   0.5848   0.5914   0.6656   0.7922   0.8746   0.9864   1.0780
     1.3003   1.3665   1.4178   1.5488   1.5571   1.9383   1.9889   3.4530
     3.5221   3.5816   3.5821   3.6169   3.6975   3.9003   3.9477   4.0052
     4.0390

[...]

          k = 0.0380-0.0419 0.0000 ( 17876 PWs)   bands (ev):

[...]

          k =-0.0760-0.0000 0.0000 ( 17886 PWs)   bands (ev):

[...]

          k =-0.0760-0.0839 0.0000 ( 17948 PWs)   bands (ev):

   -55.6768 -55.6634 -55.5756 -55.5680 -55.5203 -55.5125 -55.5105 -55.5015
   -55.4620 -55.4590 -55.4561 -55.4451 -55.4416 -55.3387 -54.6407 -54.6407
   -32.0975 -31.9860 -31.9751 -31.9732 -31.9509 -31.9005 -31.8737 -31.8528
   -31.8457 -31.8409 -31.8377 -31.8145 -31.8135 -31.7988 -31.7976 -31.7881
   -31.7872 -31.7789 -31.7774 -31.7741 -31.7712 -31.7618 -31.7401 -31.7347
   -31.7287 -31.7170 -31.7101 -31.7033 -31.7009 -31.6864 -31.6724 -31.6651
   -31.6641 -31.6615 -31.6596 -31.6533 -31.6517 -31.6497 -31.6478 -31.6452
   -31.6277 -31.4261 -30.9665 -30.9664 -30.8781 -30.8773 -30.8385 -30.8381
   -19.3809 -18.7433 -15.9917 -15.6527 -15.6397 -15.6346 -15.6039 -15.4824
   -15.4584 -15.4360 -15.3904 -15.3603 -15.3546 -15.3314 -15.2871 -15.2306
   -15.2115 -15.2037 -15.1941 -15.1417 -15.1273 -15.1164 -15.0707 -15.0301
   -15.0275 -15.0039 -14.9776 -14.9723 -14.9720 -14.9443 -14.8768 -13.1453
   -13.1417  -9.4552  -6.5052  -6.2655  -4.0324  -3.7322  -3.1601  -3.0403
    -2.8703  -2.8481  -2.7974  -2.7751  -2.7220  -2.6533  -2.6247  -2.6131
    -2.6114  -2.5776  -2.5149  -2.4809  -2.4770  -2.4377  -2.4195  -2.4117
    -2.3913  -2.3661  -2.3415  -2.3227  -2.3165  -2.2808  -2.2685  -2.2536
    -2.2475  -2.2360  -2.2174  -2.1766  -2.0693  -1.9472  -1.9133  -1.8778
    -1.8381  -1.7791  -1.7728  -1.7588  -1.7245  -1.7238  -1.7077  -1.6296
    -1.4655  -1.4033  -1.3419  -1.3200  -1.2462  -1.2341  -1.2183  -1.1748
    -1.1342  -1.0869  -1.0423  -1.0197  -0.9639  -0.9195  -0.7913  -0.7371
    -0.6525  -0.6474  -0.6248  -0.6097  -0.5557  -0.5311  -0.5059  -0.4614
    -0.4269  -0.3832  -0.3508  -0.3419  -0.3198  -0.2587  -0.1587  -0.1097
    -0.0474  -0.0415   0.0412   0.1707   0.3561   0.3864   0.4448   0.4958
     0.5852   0.6075   0.6563   0.6761   0.7336   0.7607   0.8021   0.8622
     0.9229   0.9511   1.5130   1.7299   1.7363   1.7994   1.8091   3.7445
     3.8321   3.9246   3.9385   3.9728   3.9850   3.9907   4.0202   4.0769
     4.1141

     the Fermi energy is     3.4505 ev

!    total energy              =   -2966.15818284 Ry
     estimated scf accuracy    <       0.00000006 Ry
     smearing contrib. (-TS)   =      -0.02139721 Ry
     internal energy E=F+TS    =   -2966.13678563 Ry

     The total energy is F=E-TS. E is the sum of the following terms:
     one-electron contribution =  -24755.70133299 Ry
     hartree contribution      =   12470.37951497 Ry
     xc contribution           =    -490.96418638 Ry
     ewald contribution        =    9810.14731162 Ry
     electric field correction =       0.00190714 Ry

     convergence has been achieved in  71 iterations

     Forces acting on atoms (cartesian axes, Ry/au):

     atom    1 type  1   force =     0.00075446   -0.00018658    0.09534596
     atom    2 type  1   force =     0.00024765   -0.00217894   -0.17569248
     atom    3 type  2   force =    -0.00066177   -0.00040857   -0.03009822
     atom    4 type  2   force =    -0.00085010    0.00063495    0.05235039
     atom    5 type  2   force =    -0.01385570   -0.00099680    0.00146059
     atom    6 type  2   force =     0.01580766    0.00241302    0.00318447
     atom    7 type  1   force =     0.00034006    0.00039251   -0.00028745
     atom    8 type  1   force =    -0.00036609    0.00139756    0.00064140
     atom    9 type  2   force =     0.00011267   -0.00001701    0.00023702
     atom   10 type  2   force =     0.00017472    0.00017137   -0.00058610
     atom   11 type  2   force =    -0.00021974    0.00024744    0.00018725
     atom   12 type  2   force =    -0.00038870    0.00009036    0.00008211
     atom   13 type  1   force =     0.00022775   -0.00018581   -0.00061164
     atom   14 type  1   force =    -0.00101702    0.00000853    0.00028991
     atom   15 type  2   force =     0.00006762   -0.00109966   -0.00013134
     atom   16 type  2   force =    -0.00001376   -0.00005679   -0.00020584
     atom   17 type  2   force =    -0.00035934   -0.00032515   -0.00015026
     atom   18 type  2   force =     0.00036808   -0.00029372    0.00007001
     atom   19 type  1   force =     0.00008167    0.00033117    0.00024116
     atom   20 type  1   force =     0.00021399    0.00090887    0.00030271
     atom   21 type  2   force =     0.00014686    0.00019865    0.10302119
     atom   22 type  2   force =     0.00016787   -0.00112949    0.00019989
     atom   23 type  2   force =    -0.07129598    0.00093446   -0.02829838
     atom   24 type  2   force =     0.07134833    0.00132938   -0.02833508
     atom   25 type  1   force =     0.00021765    0.00038538    0.10642550
     atom   26 type  1   force =     0.00000327    0.00250651   -0.17558729
     atom   27 type  2   force =    -0.00037749    0.00013301   -0.02787192
     atom   28 type  2   force =    -0.00096278    0.00076095    0.05164842
     atom   29 type  2   force =    -0.01300813   -0.00123252    0.00106733
     atom   30 type  2   force =     0.01545367    0.00037078    0.00294963
     atom   31 type  1   force =     0.00051998    0.00002650   -0.00003501
     atom   32 type  1   force =    -0.00041769   -0.00140622    0.00016933
     atom   33 type  2   force =    -0.00016606   -0.00031586    0.00019903
     atom   34 type  2   force =     0.00000658    0.00010597   -0.00014779
     atom   35 type  2   force =    -0.00060817   -0.00019472    0.00066470
     atom   36 type  2   force =     0.00002132   -0.00037294    0.00024367
     atom   37 type  1   force =     0.00059859    0.00027525    0.00052209
     atom   38 type  1   force =    -0.00091845    0.00014804    0.00046859
     atom   39 type  2   force =    -0.00016926    0.00064347    0.00024525
     atom   40 type  2   force =    -0.00003213   -0.00051706   -0.00066687
     atom   41 type  2   force =     0.00117166   -0.00005001   -0.00014554
     atom   42 type  2   force =    -0.00089501   -0.00016632    0.00014821
     atom   43 type  1   force =     0.00024005   -0.00103125    0.00000167
     atom   44 type  1   force =    -0.00039122    0.00028194   -0.00014637
     atom   45 type  2   force =     0.00012346    0.00015693    0.10333201
     atom   46 type  2   force =    -0.07122118   -0.00125138   -0.02829214
     atom   47 type  2   force =     0.07128990   -0.00085623   -0.02833158
     atom   48 type  3   force =    -0.00047745    0.00746233   -0.00447956
     atom   49 type  2   force =     0.00053925   -0.00019901   -0.00008767
     atom   50 type  4   force =     0.00002546   -0.00039689   -0.00017536
     atom   51 type  4   force =    -0.00112127   -0.00834258    0.00525945
     atom   52 type  4   force =    -0.00033353    0.00069231   -0.00108383
     atom   53 type  2   force =     0.00156971   -0.00034305    0.00086918
     atom   54 type  4   force =    -0.00023647    0.00041624    0.00004421
     atom   55 type  4   force =    -0.00147543    0.00013069   -0.00042460

     Total force =     0.367609     Total SCF correction =     0.000577
  @ DRIVER MODE: Message from server: STATUS
  @ DRIVER MODE: Message from server: GETFORCE
  @ DRIVER MODE: Returning v,forces,stress,ensemble

     Writing output data file ./calc.save/
  @ DRIVER MODE: Message from server: EXIT
  @ DRIVE MODE: Exiting

     General routines

     Parallel routines

   This run was terminated on:  22:49:37  15Sep2021

   JOB DONE.