     Program PWSCF v.6.7GPU starts on 22Sep2021 at 16:52: 2

     R & G space division:  proc/nbgrp/npool/nimage =      10
     Reading input from /storage/home/hcoda1/3/ntian30/research/carbon/CxH_vib/H2O_calc/ads_slab/CHNHHO_a/out_0003/pw.inp
Warning: card &CELL ignored
Warning: card   CELL_DYNAMICS='IPI', ignored
Warning: card / ignored

     Current dimensions of program PWSCF are:
     Max number of different atomic species (ntypx) = 10
     Max number of k-points (npk) =  40000
     Max angular momentum in pseudopotentials (lmaxx) =  3
     Presently no symmetry can be used with electric field

     Message from routine cell_base_init:
     DEPRECATED: use true lattice parameter, not A to a.u. conversion factor

     IMPORTANT: XC functional enforced from input :
     Exchange-correlation= BEEF-VDW
                           (   1   4  43  14   2   0   0)
     Any further DFT definition will be discarded
     Please, verify this is what you really want

  @ DRIVER MODE: Connecting to
 qe_1139763_2937314.sched-torque.pace.gatech.eduvzwa8z9s_scratch
  using UNIX socket
  @ DRIVER MODE: Message from server: STATUS
  @ DRIVER MODE: Message from server: INIT
  @ DRIVER MODE: Receiving replica           0          -1
  @ DRIVER MODE: Receiving encoded integer          25
  @ DRIVER MODE:  SCF:  T  FORCE:  T  STRESS:  F  VC:  F  ENSEMBLE:  F
  @ DRIVER MODE:  SCF:  T  FORCE:  T  STRESS:  F  VC:  F  ENSEMBLE:  F

     Using Slab Decomposition

     bravais-lattice index     =            0
     lattice parameter (alat)  =       1.8897  a.u.
     unit-cell volume          =    6658.9804 (a.u.)^3
     number of atoms/cell      =           53
     number of atomic types    =            5
     number of electrons       =       396.00
     number of Kohn-Sham states=          208
     kinetic-energy cutoff     =      29.3995  Ry
     charge density cutoff     =     293.9946  Ry
     scf convergence threshold =      7.3E-08
     mixing beta               =       0.0500
     number of iterations used =            8  plain     mixing
     Exchange-correlation= BEEF-VDW
                           (   1   4  43  14   2   0   0)

     celldm(1)=   1.889726  celldm(2)=   0.000000  celldm(3)=   0.000000
     celldm(4)=   0.000000  celldm(5)=   0.000000  celldm(6)=   0.000000

     crystal axes: (cart. coord. in units of alat)
               a(1) = (   6.579727   0.000000   0.000000 )
               a(2) = (  -0.000775   5.961596   0.000000 )
               a(3) = (   0.000000   0.000000  25.155947 )

     reciprocal axes: (cart. coord. in units 2 pi/alat)
               b(1) = (  0.151982  0.000020  0.000000 )
               b(2) = (  0.000000  0.167740  0.000000 )
               b(3) = (  0.000000  0.000000  0.039752 )

     PseudoPot. # 1 for Ti read from file:
     /storage/coda1/p-amedford6/0/shared/rich_project_chbe-medford/medford-share/data/pseudos_module/espresso/nninc/pbe/van/Ti.UPF
     MD5 check sum: 8e4df49b7f0d34bbd5052bf3f5ea0213
     Pseudo is Ultrasoft, Zval = 12.0
     Generated by new atomic code, or converted to UPF format
     Using radial grid of  851 points,  6 beta functions with:
                l(1) =   0
                l(2) =   0
                l(3) =   1
                l(4) =   1
                l(5) =   2
                l(6) =   2
     Q(r) pseudized with  8 coefficients,  rinner =    1.000   1.000   1.000
                                                       1.000   1.000

     PseudoPot. # 2 for O  read from file:
     /storage/coda1/p-amedford6/0/shared/rich_project_chbe-medford/medford-share/data/pseudos_module/espresso/nninc/pbe/van/O.UPF
     MD5 check sum: 78c19812648e8988a0fe644b0f25305e
     Pseudo is Ultrasoft, Zval =  6.0
     Generated by new atomic code, or converted to UPF format
     Using radial grid of  737 points,  4 beta functions with:
                l(1) =   0
                l(2) =   0
                l(3) =   1
                l(4) =   1
     Q(r) pseudized with  8 coefficients,  rinner =    0.800   0.800   0.800

     PseudoPot. # 3 for N  read from file:
     /storage/coda1/p-amedford6/0/shared/rich_project_chbe-medford/medford-share/data/pseudos_module/espresso/nninc/pbe/van/N.UPF
     MD5 check sum: 90d10febe142ad51ac9d5be1deb811c4
     Pseudo is Ultrasoft, Zval =  5.0
     Generated by new atomic code, or converted to UPF format
     Using radial grid of  729 points,  4 beta functions with:
                l(1) =   0
                l(2) =   0
                l(3) =   1
                l(4) =   1
     Q(r) pseudized with  8 coefficients,  rinner =    0.800   0.800   0.800

     PseudoPot. # 4 for C  read from file:
     /storage/coda1/p-amedford6/0/shared/rich_project_chbe-medford/medford-share/data/pseudos_module/espresso/nninc/pbe/van/C.UPF
     MD5 check sum: 1a69bf6b8db32088f5b2163dbdb77a27
     Pseudo is Ultrasoft, Zval =  4.0
     Generated by new atomic code, or converted to UPF format
     Using radial grid of  721 points,  4 beta functions with:
                l(1) =   0
                l(2) =   0
                l(3) =   1
                l(4) =   1
     Q(r) pseudized with  8 coefficients,  rinner =    0.800   0.800   0.800

     PseudoPot. # 5 for H  read from file:
     /storage/coda1/p-amedford6/0/shared/rich_project_chbe-medford/medford-share/data/pseudos_module/espresso/nninc/pbe/van/H.UPF
     MD5 check sum: b5ee9d7bfd3a09ee7748110bda690ff7
     Pseudo is Ultrasoft, Zval =  1.0
     Generated by new atomic code, or converted to UPF format
     Using radial grid of  615 points,  1 beta functions with:
                l(1) =   0
     Q(r) pseudized with  8 coefficients,  rinner =    0.800

     atomic species   valence    mass     pseudopotential
        Ti1           12.00    47.86700     Ti( 1.00)
        O1             6.00    15.99900     O ( 1.00)
        N1             5.00    14.00700     N ( 1.00)
        C1             4.00    12.01100     C ( 1.00)
        H1             1.00     1.00800     H ( 1.00)

     No symmetry found

   Cartesian axes

     site n.     atom                  positions (alat units)
         1           Ti1 tau(   1) = (   0.0004258   2.9801865   6.0000000  )
         2           Ti1 tau(   2) = (   3.2906075   1.4906267   6.0002472  )
         3           O1  tau(   3) = (   0.0006271   0.0005054   7.9858123  )
         4           O1  tau(   4) = (   3.2906025   0.0005020   7.3038282  )
         5           O1  tau(   5) = (   4.5942328   1.4918067   9.2879030  )
         6           O1  tau(   6) = (   1.9868534   1.4903216   9.2879459  )
         7           Ti1 tau(   7) = (   3.2907910   2.8959150   9.1758416  )
         8           Ti1 tau(   8) = (   0.0015273   1.4827037   9.2680791  )
         9           O1  tau(   9) = (   3.2817170   5.9459930  11.3074998  )
        10           O1  tau(  10) = (   0.0116148   5.9584955  10.6183126  )
        11           O1  tau(  11) = (   1.2737360   1.4926482  12.6406718  )
        12           O1  tau(  12) = (   5.2902952   1.4950437  12.6299455  )
        13           Ti1 tau(  13) = (   6.5743562   2.8588748  12.6391164  )
        14           Ti1 tau(  14) = (   3.2840152   1.3010445  12.6757008  )
        15           O1  tau(  15) = (   6.5722207   0.0022838  14.6395268  )
        16           O1  tau(  16) = (   3.2882888   0.0547267  13.9272720  )
        17           O1  tau(  17) = (   4.5277618   1.5549090  16.0796657  )
        18           O1  tau(  18) = (   1.9889223   1.5445724  16.0964948  )
        19           Ti1 tau(  19) = (   3.2710169   3.0098750  15.6493427  )
        20           Ti1 tau(  20) = (   0.0212523   1.3583160  16.0154628  )
        21           O1  tau(  21) = (   3.2904802   0.0005063   4.7018136  )
        22           O1  tau(  22) = (   6.5278121   5.9442159  17.1408904  )
        23           O1  tau(  23) = (   1.3043587   1.4918075   6.0039043  )
        24           O1  tau(  24) = (   5.2767064   1.4903225   6.0039473  )
        25           Ti1 tau(  25) = (   0.0000382   5.9609847   6.0000000  )
        26           Ti1 tau(  26) = (   3.2902200   4.4714249   6.0002472  )
        27           O1  tau(  27) = (   0.0002396   2.9813036   7.9858123  )
        28           O1  tau(  28) = (   3.2902150   2.9813002   7.3038282  )
        29           O1  tau(  29) = (   4.5938453   4.4726049   9.2879030  )
        30           O1  tau(  30) = (   1.9864658   4.4711199   9.2879459  )
        31           Ti1 tau(  31) = (   3.2891106   5.8743827   9.1763621  )
        32           Ti1 tau(  32) = (   0.0006254   4.4649316   9.2693709  )
        33           O1  tau(  33) = (   3.2809651   3.0158959  11.2742024  )
        34           O1  tau(  34) = (   0.0092240   2.9805883  10.6323155  )
        35           O1  tau(  35) = (   1.2801966   4.4796301  12.6363892  )
        36           O1  tau(  36) = (   5.2833020   4.4787161  12.6245292  )
        37           Ti1 tau(  37) = (   6.5725262   5.8449372  12.5269696  )
        38           Ti1 tau(  38) = (   3.2830651   4.3950422  12.4122791  )
        39           O1  tau(  39) = (   6.5612936   2.9998473  14.7091997  )
        40           O1  tau(  40) = (   3.2734765   2.9867355  13.8776313  )
        41           O1  tau(  41) = (   4.5260587   4.4294304  16.0527172  )
        42           O1  tau(  42) = (   1.9919704   4.4458081  16.0639873  )
        43           Ti1 tau(  43) = (   3.3135318   0.0270965  16.3071496  )
        44           Ti1 tau(  44) = (   0.0294795   4.5257316  15.8201724  )
        45           O1  tau(  45) = (   3.2900926   2.9813045   4.7018136  )
        46           O1  tau(  46) = (   1.3039711   4.4726057   6.0039043  )
        47           O1  tau(  47) = (   5.2763189   4.4711207   6.0039473  )
        48           N1  tau(  48) = (   6.4282372   2.9640631  17.7102171  )
        49           C1  tau(  49) = (   0.6535733   3.0176064  18.7020832  )
        50           H1  tau(  50) = (   1.7291544   2.9413089  18.4820742  )
        51           H1  tau(  51) = (   5.4410488   3.0579230  17.9716058  )
        52           O1  tau(  52) = (   3.3635319   0.0010587  18.1193045  )
        53           H1  tau(  53) = (   4.1580425   0.0400832  18.6733683  )

     number of k points=    10  Fermi-Dirac smearing, width (Ry)=  0.0073
                       cart. coord. in units 2pi/alat
        k(    1) = (   0.0000000   0.0000000   0.0000000), wk =   0.1250000
        k(    2) = (   0.0000000   0.0419351   0.0000000), wk =   0.2500000
        k(    3) = (   0.0000000  -0.0838702   0.0000000), wk =   0.1250000
        k(    4) = (   0.0379955   0.0000049   0.0000000), wk =   0.2500000
        k(    5) = (   0.0379955   0.0419400   0.0000000), wk =   0.2500000
        k(    6) = (   0.0379955  -0.0838652   0.0000000), wk =   0.2500000
        k(    7) = (   0.0379955  -0.0419301   0.0000000), wk =   0.2500000
        k(    8) = (  -0.0759910  -0.0000099   0.0000000), wk =   0.1250000
        k(    9) = (  -0.0759910   0.0419252   0.0000000), wk =   0.2500000
        k(   10) = (  -0.0759910  -0.0838800   0.0000000), wk =   0.1250000

     Initial potential from superposition of free atoms

     starting charge  379.99917, renormalised to  396.00000

     negative rho (up, down):  1.778E-02 0.000E+00

     %%%%%%%%%%%%%%%%%%%%%%%%%%%%%%%%%%%%%%%%%%%%%%%%%%%%%%%%%%%%%%%%%%%%%%%%
     %                                                                      %
     % You are using vdW-DF, which was implemented by the Thonhauser group. %
     % Please cite the following two papers that made this development      %
     % possible and the two reviews that describe the various versions:     %
     %                                                                      %
     %   T. Thonhauser et al., PRL 115, 136402 (2015).                      %
     %   T. Thonhauser et al., PRB 76, 125112 (2007).                       %
     %   K. Berland et al., Rep. Prog. Phys. 78, 066501 (2015).             %
     %   D.C. Langreth et al., J. Phys.: Condens. Matter 21, 084203 (2009). %
     %                                                                      %
     %                                                                      %
     % If you are calculating the stress with vdW-DF, please also cite:     %
     %                                                                      %
     %   R. Sabatini et al., J. Phys.: Condens. Matter 24, 424209 (2012).   %
     %                                                                      %
     %%%%%%%%%%%%%%%%%%%%%%%%%%%%%%%%%%%%%%%%%%%%%%%%%%%%%%%%%%%%%%%%%%%%%%%%

     Adding external electric field

     Computed dipole along edir(3) :
        Dipole               -8.0653 Ry au,        -20.5000 Debye
        Dipole field         -0.0152 Ry au,

        Potential amp.        1.4109 Ry
        Total length         46.3494 bohr

     Starting wfcs are  299 atomic wfcs
  @ DRIVER MODE: Message from server: STATUS
  @ DRIVER MODE: Message from server: POSDATA
  @ DRIVER MODE: Reading and sharing cell
  @ DRIVER MODE: Reading and sharing positions
  @ DRIVER MODE: Received positions

     Self-consistent Calculation

     iteration #  1     ecut=    29.40 Ry     beta= 0.05
     Davidson diagonalization with overlap
     c_bands:  1 eigenvalues not converged
     c_bands:  1 eigenvalues not converged
     c_bands:  3 eigenvalues not converged
     c_bands:  1 eigenvalues not converged
     c_bands:  1 eigenvalues not converged
     c_bands:  1 eigenvalues not converged
     ethr =  1.00E-05,  avg # of iterations = 18.5

[...]

     total energy              =   -2618.22730721 Ry
     estimated scf accuracy    <    3681.45378835 Ry

     iteration #  2     ecut=    29.40 Ry     beta= 0.05
     Davidson diagonalization with overlap
     ethr =  1.00E-02,  avg # of iterations = 22.1

[...]

     iteration # 54     ecut=    29.40 Ry     beta= 0.05
     Davidson diagonalization with overlap
     c_bands:  1 eigenvalues not converged
     c_bands:  2 eigenvalues not converged
     ethr =  4.80E-07,  avg # of iterations = 10.7

[...]

     total energy              =   -2951.37645592 Ry
     estimated scf accuracy    <       0.00000008 Ry

     iteration # 80     ecut=    29.40 Ry     beta= 0.05
     Davidson diagonalization with overlap
     ethr =  2.00E-11,  avg # of iterations =  5.4

     negative rho (up, down):  1.666E-02 0.000E+00

     Adding external electric field

     Computed dipole along edir(3) :
        Dipole                0.1805 Ry au,          0.4587 Debye
        Dipole field          0.0003 Ry au,

        Potential amp.       -0.0316 Ry
        Total length         46.3494 bohr

     End of self-consistent calculation

          k = 0.0000 0.0000 0.0000 ( 18029 PWs)   bands (ev):

   -56.4287 -56.3948 -56.1517 -56.1508 -56.1170 -55.9509 -55.8978 -55.8657
   -55.8576 -55.8520 -55.8168 -55.7209 -55.6735 -55.5326 -55.2796 -55.2456
   -32.8931 -32.7228 -32.7025 -32.6237 -32.5830 -32.5163 -32.4895 -32.4454
   -32.4347 -32.4218 -32.3713 -32.3686 -32.3665 -32.3632 -32.3532 -32.3112
   -32.2895 -32.2647 -32.2559 -32.1798 -32.1674 -32.1585 -32.1470 -32.1225
   -32.1073 -32.1022 -32.0990 -32.0660 -32.0650 -32.0579 -32.0372 -32.0168
   -31.9998 -31.9741 -31.9683 -31.9545 -31.9430 -31.8689 -31.8687 -31.7919
   -31.7631 -31.7444 -31.6798 -31.6077 -31.5845 -31.4982 -31.4127 -31.3007
   -16.9163 -16.8253 -16.5934 -16.4402 -16.2726 -16.1825 -16.0530 -16.0297
   -15.9171 -15.9019 -15.8134 -15.7816 -15.7423 -15.6673 -15.6106 -15.5872
   -15.5536 -15.5243 -15.5154 -15.5116 -15.5017 -15.4947 -15.4555 -15.3377
   -15.2969 -15.2455 -15.2341 -15.2198 -15.0880 -14.8293 -14.7857 -13.7773
   -13.6634  -8.1993  -4.6843  -4.2804  -4.2155  -4.1212  -3.9438  -3.8885
    -3.8255  -3.6012  -3.5549  -3.5524  -3.3585  -3.2983  -3.2034  -3.1617
    -3.1469  -3.1020  -3.0289  -3.0177  -2.9862  -2.8988  -2.8581  -2.8506
    -2.8233  -2.7794  -2.7693  -2.6894  -2.6454  -2.6247  -2.5527  -2.5052
    -2.4735  -2.4588  -2.4341  -2.4239  -2.3826  -2.3689  -2.3486  -2.2005
    -2.1841  -2.1621  -2.0837  -2.0091  -1.8553  -1.7742  -1.7626  -1.6644
    -1.5866  -1.5723  -1.5230  -1.4741  -1.3873  -1.3735  -1.3667  -1.3275
    -1.2438  -1.2225  -1.1792  -1.1275  -1.0534  -0.9644  -0.9591  -0.9085
    -0.8733  -0.8089  -0.7210  -0.6879  -0.6284  -0.5868  -0.5559  -0.4826
    -0.4334  -0.4069  -0.3841  -0.3732  -0.3126  -0.2511  -0.2045  -0.1778
    -0.1078  -0.0962  -0.0535   0.0121   0.0339   0.0413   0.1606   0.2022
     0.2152   0.2657   0.3783   0.4361   0.5213   0.5818   0.6528   0.7460
     0.7528   0.9604   1.0691   1.3003   1.3407   2.5786   2.7603   2.8819
     2.9511   3.1525   3.1991   3.2363   3.5078   3.5254   3.5337   3.6140

[...]

          k = 0.0380-0.0419 0.0000 ( 17876 PWs)   bands (ev):

[...]

          k =-0.0760-0.0000 0.0000 ( 17886 PWs)   bands (ev):

[...]

          k =-0.0760-0.0839 0.0000 ( 17948 PWs)   bands (ev):

   -56.4122 -56.4112 -56.1510 -56.1356 -56.1320 -55.9448 -55.9038 -55.8632
   -55.8585 -55.8389 -55.8298 -55.7227 -55.6715 -55.5344 -55.2631 -55.2619
   -32.7096 -32.7094 -32.7077 -32.7072 -32.5349 -32.5336 -32.4555 -32.4508
   -32.4232 -32.3804 -32.3687 -32.3435 -32.3387 -32.3277 -32.3212 -32.2868
   -32.2475 -32.2416 -32.2179 -32.1714 -32.1697 -32.1681 -32.1654 -32.1529
   -32.1297 -32.1237 -32.1208 -32.0732 -32.0700 -32.0639 -32.0618 -32.0603
   -32.0450 -32.0099 -31.9836 -31.9587 -31.9480 -31.9350 -31.8814 -31.8743
   -31.7945 -31.7480 -31.5978 -31.5969 -31.4943 -31.4929 -31.4560 -31.4551
   -16.9012 -16.2450 -16.2200 -16.1252 -16.0952 -16.0744 -16.0525 -16.0241
   -15.8939 -15.8848 -15.8713 -15.8028 -15.7518 -15.7321 -15.6975 -15.6903
   -15.6368 -15.6230 -15.6101 -15.5570 -15.5496 -15.5299 -15.5157 -15.4800
   -15.4492 -15.4213 -15.2562 -15.2017 -15.1463 -15.1181 -14.9184 -13.7663
   -13.7657  -8.2108  -4.6762  -4.1036  -3.5229  -3.4886  -3.3699  -3.3570
    -3.2312  -3.2261  -3.1484  -3.0747  -3.0743  -2.9986  -2.9847  -2.9770
    -2.9376  -2.9204  -2.9128  -2.9121  -2.8704  -2.8613  -2.8404  -2.8230
    -2.8200  -2.8041  -2.7654  -2.7241  -2.7036  -2.6893  -2.6360  -2.6223
    -2.5019  -2.4355  -2.4118  -2.4115  -2.3869  -2.3502  -2.3207  -2.3040
    -2.2741  -2.2336  -2.1583  -2.0372  -2.0164  -1.8199  -1.8018  -1.7698
    -1.7485  -1.7060  -1.7015  -1.6340  -1.5837  -1.5687  -1.5515  -1.5271
    -1.4265  -1.3757  -1.3255  -1.3224  -1.2716  -1.2512  -1.2021  -1.1010
    -1.0518  -1.0221  -0.9961  -0.9828  -0.9448  -0.9191  -0.8663  -0.8255
    -0.8211  -0.7938  -0.7504  -0.5820  -0.4114  -0.3676  -0.3463  -0.2753
    -0.2598  -0.2103  -0.0773  -0.0318  -0.0202   0.0156   0.0548   0.0851
     0.0986   0.1613   0.3450   0.3589   0.4273   0.4746   0.4807   0.5685
     0.6642   1.1249   1.1326   1.1595   1.1603   2.6074   3.3051   3.3071
     3.3089   3.3253   3.4066   3.4666   3.4753   3.5135   3.5915   3.6317

     the Fermi energy is     2.7238 ev

!    total energy              =   -2951.37646289 Ry
     estimated scf accuracy    <       0.00000007 Ry
     smearing contrib. (-TS)   =      -0.01730393 Ry
     internal energy E=F+TS    =   -2951.35915895 Ry

     The total energy is F=E-TS. E is the sum of the following terms:
     one-electron contribution =  -24273.30129438 Ry
     hartree contribution      =   12222.67676544 Ry
     xc contribution           =    -487.04475191 Ry
     ewald contribution        =    9586.31006044 Ry
     electric field correction =       0.00006146 Ry

     convergence has been achieved in  80 iterations

     Forces acting on atoms (cartesian axes, Ry/au):

     atom    1 type  1   force =     0.00006436   -0.00027915    0.10085507
     atom    2 type  1   force =    -0.00005350    0.00025205   -0.16919892
     atom    3 type  2   force =     0.00000516   -0.00004380   -0.02994097
     atom    4 type  2   force =     0.00000159   -0.00099503    0.04188786
     atom    5 type  2   force =    -0.00519594   -0.00241836   -0.00304899
     atom    6 type  2   force =     0.00634632   -0.00183680   -0.00465874
     atom    7 type  1   force =    -0.00065871   -0.00537851    0.02534897
     atom    8 type  1   force =     0.00077853    0.01604022    0.04136139
     atom    9 type  2   force =    -0.00021493    0.00022985    0.00012584
     atom   10 type  2   force =    -0.00258224    0.00083422   -0.03444941
     atom   11 type  2   force =     0.00008767    0.00003338    0.00006209
     atom   12 type  2   force =     0.00024822   -0.00035601    0.00004339
     atom   13 type  1   force =    -0.00070207   -0.00012036   -0.00011040
     atom   14 type  1   force =     0.00018332    0.00010415    0.00030636
     atom   15 type  2   force =     0.00022815   -0.00064681   -0.00002699
     atom   16 type  2   force =     0.00004632   -0.00015247   -0.00018703
     atom   17 type  2   force =    -0.00034985   -0.00001319   -0.00006409
     atom   18 type  2   force =     0.00029347   -0.00009590    0.00000700
     atom   19 type  1   force =     0.00005611   -0.00001756    0.00028118
     atom   20 type  1   force =     0.00000100    0.00045630    0.00095354
     atom   21 type  2   force =     0.00007184    0.00015757    0.10149352
     atom   22 type  2   force =    -0.00000745   -0.00062506    0.00014742
     atom   23 type  2   force =    -0.07487426   -0.00008623   -0.02880195
     atom   24 type  2   force =     0.07480493    0.00036271   -0.02883349
     atom   25 type  1   force =     0.00018602   -0.00036324    0.10071302
     atom   26 type  1   force =     0.00000752   -0.00114755   -0.16941070
     atom   27 type  2   force =     0.00004493   -0.00040213   -0.02842902
     atom   28 type  2   force =     0.00000907    0.00074836    0.03786847
     atom   29 type  2   force =    -0.00388781    0.00436452   -0.00527911
     atom   30 type  2   force =     0.00496580    0.00488897   -0.00694942
     atom   31 type  1   force =    -0.00063655    0.00466106    0.01118210
     atom   32 type  1   force =     0.00088932   -0.01905198    0.04072079
     atom   33 type  2   force =     0.00044192   -0.00001492    0.00020093
     atom   34 type  2   force =    -0.00214440    0.00070966   -0.03968043
     atom   35 type  2   force =     0.00011941   -0.00048602   -0.00016466
     atom   36 type  2   force =     0.00015028   -0.00022415    0.00007906
     atom   37 type  1   force =    -0.00004398   -0.00014225    0.00012647
     atom   38 type  1   force =     0.00002378    0.00005325    0.00016987
     atom   39 type  2   force =    -0.00004572    0.00035304   -0.00021138
     atom   40 type  2   force =     0.00032615   -0.00005820    0.00016234
     atom   41 type  2   force =     0.00028234   -0.00000821    0.00040090
     atom   42 type  2   force =    -0.00023012    0.00006958    0.00028958
     atom   43 type  1   force =     0.00019294    0.00022920    0.00065658
     atom   44 type  1   force =    -0.00023378    0.00083350   -0.00087217
     atom   45 type  2   force =     0.00006772   -0.00000200    0.10128081
     atom   46 type  2   force =    -0.07492401   -0.00001569   -0.02883078
     atom   47 type  2   force =     0.07483806    0.00041098   -0.02885837
     atom   48 type  3   force =    -0.00138199    0.00207080    0.00236311
     atom   49 type  4   force =    -0.00036647    0.00047762   -0.00137494
     atom   50 type  5   force =    -0.00047222   -0.00104017    0.00021975
     atom   51 type  5   force =     0.00282739   -0.00175873   -0.00054458
     atom   52 type  2   force =    -0.00019626   -0.00020588    0.00150556
     atom   53 type  5   force =     0.00061259   -0.00035461   -0.00088642

     Total force =     0.369766     Total SCF correction =     0.000794
  @ DRIVER MODE: Message from server: STATUS
  @ DRIVER MODE: Message from server: GETFORCE
  @ DRIVER MODE: Returning v,forces,stress,ensemble

     Writing output data file ./calc.save/
  @ DRIVER MODE: Message from server: EXIT
  @ DRIVE MODE: Exiting

     General routines

     Parallel routines

   This run was terminated on:  17:11:49  22Sep2021

   JOB DONE.