     Program PWSCF v.6.7GPU starts on  9Sep2021 at  4:31:14

     R & G space division:  proc/nbgrp/npool/nimage =      10
     Reading input from /storage/home/hcoda1/3/ntian30/research/carbon/CxH_vib/CH_calc/ads_slab/CHN2H_a/out_0020/pw.inp
Warning: card &CELL ignored
Warning: card   CELL_DYNAMICS='IPI', ignored
Warning: card / ignored

     Current dimensions of program PWSCF are:
     Max number of different atomic species (ntypx) = 10
     Max number of k-points (npk) =  40000
     Max angular momentum in pseudopotentials (lmaxx) =  3
     Presently no symmetry can be used with electric field

     Message from routine cell_base_init:
     DEPRECATED: use true lattice parameter, not A to a.u. conversion factor

     IMPORTANT: XC functional enforced from input :
     Exchange-correlation= BEEF-VDW
                           (   1   4  43  14   2   0   0)
     Any further DFT definition will be discarded
     Please, verify this is what you really want

  @ DRIVER MODE: Connecting to
 qe_1139763_2767376.sched-torque.pace.gatech.edutvyajy24_scratch
  using UNIX socket
  @ DRIVER MODE: Message from server: STATUS
  @ DRIVER MODE: Message from server: INIT
  @ DRIVER MODE: Receiving replica           0          -1
  @ DRIVER MODE: Receiving encoded integer          25
  @ DRIVER MODE:  SCF:  T  FORCE:  T  STRESS:  F  VC:  F  ENSEMBLE:  F
  @ DRIVER MODE:  SCF:  T  FORCE:  T  STRESS:  F  VC:  F  ENSEMBLE:  F

     Using Slab Decomposition

     bravais-lattice index     =            0
     lattice parameter (alat)  =       1.8897  a.u.
     unit-cell volume          =    6658.9804 (a.u.)^3
     number of atoms/cell      =           52
     number of atomic types    =            5
     number of electrons       =       394.00
     number of Kohn-Sham states=          207
     kinetic-energy cutoff     =      29.3995  Ry
     charge density cutoff     =     293.9946  Ry
     scf convergence threshold =      7.3E-08
     mixing beta               =       0.0500
     number of iterations used =            8  plain     mixing
     Exchange-correlation= BEEF-VDW
                           (   1   4  43  14   2   0   0)

     celldm(1)=   1.889726  celldm(2)=   0.000000  celldm(3)=   0.000000
     celldm(4)=   0.000000  celldm(5)=   0.000000  celldm(6)=   0.000000

     crystal axes: (cart. coord. in units of alat)
               a(1) = (   6.579727   0.000000   0.000000 )
               a(2) = (  -0.000775   5.961596   0.000000 )
               a(3) = (   0.000000   0.000000  25.155947 )

     reciprocal axes: (cart. coord. in units 2 pi/alat)
               b(1) = (  0.151982  0.000020  0.000000 )
               b(2) = (  0.000000  0.167740  0.000000 )
               b(3) = (  0.000000  0.000000  0.039752 )

     PseudoPot. # 1 for Ti read from file:
     /storage/coda1/p-amedford6/0/shared/rich_project_chbe-medford/medford-share/data/pseudos_module/espresso/nninc/pbe/van/Ti.UPF
     MD5 check sum: 8e4df49b7f0d34bbd5052bf3f5ea0213
     Pseudo is Ultrasoft, Zval = 12.0
     Generated by new atomic code, or converted to UPF format
     Using radial grid of  851 points,  6 beta functions with:
                l(1) =   0
                l(2) =   0
                l(3) =   1
                l(4) =   1
                l(5) =   2
                l(6) =   2
     Q(r) pseudized with  8 coefficients,  rinner =    1.000   1.000   1.000
                                                       1.000   1.000

     PseudoPot. # 2 for O  read from file:
     /storage/coda1/p-amedford6/0/shared/rich_project_chbe-medford/medford-share/data/pseudos_module/espresso/nninc/pbe/van/O.UPF
     MD5 check sum: 78c19812648e8988a0fe644b0f25305e
     Pseudo is Ultrasoft, Zval =  6.0
     Generated by new atomic code, or converted to UPF format
     Using radial grid of  737 points,  4 beta functions with:
                l(1) =   0
                l(2) =   0
                l(3) =   1
                l(4) =   1
     Q(r) pseudized with  8 coefficients,  rinner =    0.800   0.800   0.800

     PseudoPot. # 3 for N  read from file:
     /storage/coda1/p-amedford6/0/shared/rich_project_chbe-medford/medford-share/data/pseudos_module/espresso/nninc/pbe/van/N.UPF
     MD5 check sum: 90d10febe142ad51ac9d5be1deb811c4
     Pseudo is Ultrasoft, Zval =  5.0
     Generated by new atomic code, or converted to UPF format
     Using radial grid of  729 points,  4 beta functions with:
                l(1) =   0
                l(2) =   0
                l(3) =   1
                l(4) =   1
     Q(r) pseudized with  8 coefficients,  rinner =    0.800   0.800   0.800

     PseudoPot. # 4 for C  read from file:
     /storage/coda1/p-amedford6/0/shared/rich_project_chbe-medford/medford-share/data/pseudos_module/espresso/nninc/pbe/van/C.UPF
     MD5 check sum: 1a69bf6b8db32088f5b2163dbdb77a27
     Pseudo is Ultrasoft, Zval =  4.0
     Generated by new atomic code, or converted to UPF format
     Using radial grid of  721 points,  4 beta functions with:
                l(1) =   0
                l(2) =   0
                l(3) =   1
                l(4) =   1
     Q(r) pseudized with  8 coefficients,  rinner =    0.800   0.800   0.800

     PseudoPot. # 5 for H  read from file:
     /storage/coda1/p-amedford6/0/shared/rich_project_chbe-medford/medford-share/data/pseudos_module/espresso/nninc/pbe/van/H.UPF
     MD5 check sum: b5ee9d7bfd3a09ee7748110bda690ff7
     Pseudo is Ultrasoft, Zval =  1.0
     Generated by new atomic code, or converted to UPF format
     Using radial grid of  615 points,  1 beta functions with:
                l(1) =   0
     Q(r) pseudized with  8 coefficients,  rinner =    0.800

     atomic species   valence    mass     pseudopotential
        Ti1           12.00    47.86700     Ti( 1.00)
        O1             6.00    15.99900     O ( 1.00)
        N1             5.00    14.00700     N ( 1.00)
        C1             4.00    12.01100     C ( 1.00)
        H1             1.00     1.00800     H ( 1.00)

     No symmetry found

   Cartesian axes

     site n.     atom                  positions (alat units)
         1           Ti1 tau(   1) = (   0.0004258   2.9801865   6.0000000  )
         2           Ti1 tau(   2) = (   3.2906075   1.4906267   6.0002472  )
         3           O1  tau(   3) = (   0.0006271   0.0005054   7.9858123  )
         4           O1  tau(   4) = (   3.2906025   0.0005020   7.3038282  )
         5           O1  tau(   5) = (   4.5942328   1.4918067   9.2879030  )
         6           O1  tau(   6) = (   1.9868534   1.4903216   9.2879459  )
         7           Ti1 tau(   7) = (   3.2907910   2.8959150   9.1758416  )
         8           Ti1 tau(   8) = (   0.0015273   1.4827037   9.2680791  )
         9           O1  tau(   9) = (   3.3079035   5.9465650  11.3667630  )
        10           O1  tau(  10) = (   0.0116148   5.9584955  10.6183126  )
        11           O1  tau(  11) = (   1.3159687   1.4802111  12.6598234  )
        12           O1  tau(  12) = (   5.3141237   1.4785834  12.6569702  )
        13           Ti1 tau(  13) = (   0.0356438   2.9569522  12.5500042  )
        14           Ti1 tau(  14) = (   3.3321116   1.4682926  12.5176941  )
        15           O1  tau(  15) = (   0.0287262   5.9365737  14.6848071  )
        16           O1  tau(  16) = (   3.3260766   5.9477468  13.9918032  )
        17           O1  tau(  17) = (   4.5788076   1.5006004  16.1778977  )
        18           O1  tau(  18) = (   2.0653823   1.4932191  16.1519216  )
        19           Ti1 tau(  19) = (   3.3252840   2.9629899  15.7366588  )
        20           Ti1 tau(  20) = (   0.0567170   1.3280226  15.9864722  )
        21           O1  tau(  21) = (   3.2904802   0.0005063   4.7018136  )
        22           O1  tau(  22) = (   0.0395201   5.9563027  17.2132275  )
        23           O1  tau(  23) = (   1.3043587   1.4918075   6.0039043  )
        24           O1  tau(  24) = (   5.2767064   1.4903225   6.0039473  )
        25           Ti1 tau(  25) = (   0.0000382   5.9609847   6.0000000  )
        26           Ti1 tau(  26) = (   3.2902200   4.4714249   6.0002472  )
        27           O1  tau(  27) = (   0.0002396   2.9813036   7.9858123  )
        28           O1  tau(  28) = (   3.2902150   2.9813002   7.3038282  )
        29           O1  tau(  29) = (   4.5938453   4.4726049   9.2879030  )
        30           O1  tau(  30) = (   1.9864658   4.4711199   9.2879459  )
        31           Ti1 tau(  31) = (   3.2891106   5.8743827   9.1763621  )
        32           Ti1 tau(  32) = (   0.0006254   4.4649316   9.2693709  )
        33           O1  tau(  33) = (   3.3109971   2.9638951  11.3609806  )
        34           O1  tau(  34) = (   0.0092240   2.9805883  10.6323155  )
        35           O1  tau(  35) = (   1.3172493   4.4579999  12.6547637  )
        36           O1  tau(  36) = (   5.3123203   4.4599931  12.6537913  )
        37           Ti1 tau(  37) = (   0.0349292   5.9384232  12.5038109  )
        38           Ti1 tau(  38) = (   3.3308216   4.4462378  12.5132791  )
        39           O1  tau(  39) = (   0.0262156   2.9786664  14.8481040  )
        40           O1  tau(  40) = (   3.3240488   2.9673873  13.9486158  )
        41           O1  tau(  41) = (   4.5778164   4.4375445  16.1741249  )
        42           O1  tau(  42) = (   2.0647505   4.4412733  16.1578575  )
        43           Ti1 tau(  43) = (   3.3314326   5.9455663  15.7867969  )
        44           Ti1 tau(  44) = (   0.0345939   4.5236910  15.9072353  )
        45           O1  tau(  45) = (   3.2900926   2.9813045   4.7018136  )
        46           O1  tau(  46) = (   1.3039711   4.4726057   6.0039043  )
        47           O1  tau(  47) = (   5.2763189   4.4711207   6.0039473  )
        48           N1  tau(  48) = (   0.8843530   3.1395628  18.6524426  )
        49           C1  tau(  49) = (   1.8908588   3.1194352  19.2834450  )
        50           H1  tau(  50) = (   2.4245030   3.8971110  19.8100181  )
        51           N1  tau(  51) = (   6.5688057   2.9807634  17.7841789  )
        52           H1  tau(  52) = (   5.6432114   2.8891999  18.2270943  )

     number of k points=    10  Fermi-Dirac smearing, width (Ry)=  0.0073
                       cart. coord. in units 2pi/alat
        k(    1) = (   0.0000000   0.0000000   0.0000000), wk =   0.1250000
        k(    2) = (   0.0000000   0.0419351   0.0000000), wk =   0.2500000
        k(    3) = (   0.0000000  -0.0838702   0.0000000), wk =   0.1250000
        k(    4) = (   0.0379955   0.0000049   0.0000000), wk =   0.2500000
        k(    5) = (   0.0379955   0.0419400   0.0000000), wk =   0.2500000
        k(    6) = (   0.0379955  -0.0838652   0.0000000), wk =   0.2500000
        k(    7) = (   0.0379955  -0.0419301   0.0000000), wk =   0.2500000
        k(    8) = (  -0.0759910  -0.0000099   0.0000000), wk =   0.1250000
        k(    9) = (  -0.0759910   0.0419252   0.0000000), wk =   0.2500000
        k(   10) = (  -0.0759910  -0.0838800   0.0000000), wk =   0.1250000

     Initial potential from superposition of free atoms

     starting charge  377.99917, renormalised to  394.00000

     negative rho (up, down):  1.653E-02 0.000E+00

     %%%%%%%%%%%%%%%%%%%%%%%%%%%%%%%%%%%%%%%%%%%%%%%%%%%%%%%%%%%%%%%%%%%%%%%%
     %                                                                      %
     % You are using vdW-DF, which was implemented by the Thonhauser group. %
     % Please cite the following two papers that made this development      %
     % possible and the two reviews that describe the various versions:     %
     %                                                                      %
     %   T. Thonhauser et al., PRL 115, 136402 (2015).                      %
     %   T. Thonhauser et al., PRB 76, 125112 (2007).                       %
     %   K. Berland et al., Rep. Prog. Phys. 78, 066501 (2015).             %
     %   D.C. Langreth et al., J. Phys.: Condens. Matter 21, 084203 (2009). %
     %                                                                      %
     %                                                                      %
     % If you are calculating the stress with vdW-DF, please also cite:     %
     %                                                                      %
     %   R. Sabatini et al., J. Phys.: Condens. Matter 24, 424209 (2012).   %
     %                                                                      %
     %%%%%%%%%%%%%%%%%%%%%%%%%%%%%%%%%%%%%%%%%%%%%%%%%%%%%%%%%%%%%%%%%%%%%%%%

     Adding external electric field

     Computed dipole along edir(3) :
        Dipole               -8.4995 Ry au,        -21.6035 Debye
        Dipole field         -0.0160 Ry au,

        Potential amp.        1.4869 Ry
        Total length         46.3494 bohr

     Starting wfcs are  298 atomic wfcs
  @ DRIVER MODE: Message from server: STATUS
  @ DRIVER MODE: Message from server: POSDATA
  @ DRIVER MODE: Reading and sharing cell
  @ DRIVER MODE: Reading and sharing positions
  @ DRIVER MODE: Received positions

     Self-consistent Calculation

     iteration #  1     ecut=    29.40 Ry     beta= 0.05
     Davidson diagonalization with overlap
     c_bands:  1 eigenvalues not converged
     c_bands:  1 eigenvalues not converged
     c_bands:  2 eigenvalues not converged
     c_bands:  2 eigenvalues not converged
     c_bands:  2 eigenvalues not converged
     c_bands:  1 eigenvalues not converged
     ethr =  1.00E-05,  avg # of iterations = 19.0

[...]

     total energy              =   -2624.28140049 Ry
     estimated scf accuracy    <    3488.29444074 Ry

[...]

     iteration #  3     ecut=    29.40 Ry     beta= 0.05
     Davidson diagonalization with overlap
     ethr =  1.00E-02,  avg # of iterations = 14.9

[...]

     iteration # 65     ecut=    29.40 Ry     beta= 0.05
     Davidson diagonalization with overlap
     c_bands:  1 eigenvalues not converged
     c_bands:  1 eigenvalues not converged
     ethr =  1.04E-10,  avg # of iterations = 11.6

[...]

     total energy              =   -2937.80835311 Ry
     estimated scf accuracy    <       0.00000008 Ry

     iteration # 67     ecut=    29.40 Ry     beta= 0.05
     Davidson diagonalization with overlap
     ethr =  2.11E-11,  avg # of iterations = 11.9

     negative rho (up, down):  1.631E-02 0.000E+00

     Adding external electric field

     Computed dipole along edir(3) :
        Dipole                1.2964 Ry au,          3.2952 Debye
        Dipole field          0.0024 Ry au,

        Potential amp.       -0.2268 Ry
        Total length         46.3494 bohr

     End of self-consistent calculation

          k = 0.0000 0.0000 0.0000 ( 18029 PWs)   bands (ev):

   -55.4319 -55.3958 -55.3956 -55.3615 -55.3253 -55.3096 -55.2663 -55.2446
   -55.2428 -55.2296 -55.2221 -55.2101 -55.1888 -55.1657 -54.4139 -54.3798
   -32.0009 -31.8860 -31.8291 -31.7953 -31.7514 -31.7435 -31.7339 -31.7250
   -31.6853 -31.6787 -31.6410 -31.6402 -31.6329 -31.6056 -31.5863 -31.5680
   -31.5642 -31.5582 -31.5490 -31.5433 -31.5111 -31.5075 -31.4984 -31.4897
   -31.4750 -31.4527 -31.4491 -31.4469 -31.4415 -31.4361 -31.4331 -31.4189
   -31.4110 -31.4051 -31.3988 -31.3938 -31.3751 -31.3592 -31.3574 -31.3514
   -31.3308 -31.2726 -30.8227 -30.7299 -30.7077 -30.6392 -30.5525 -30.4415
   -20.3287 -16.2472 -15.9749 -15.8321 -15.7084 -15.6224 -15.4959 -15.4595
   -15.3558 -15.3380 -15.2243 -15.1488 -15.0827 -15.0805 -15.0648 -15.0352
   -14.9877 -14.9672 -14.9645 -14.9223 -14.9204 -14.8784 -14.8586 -14.8247
   -14.8068 -14.7880 -14.7733 -14.6483 -14.5785 -14.5197 -14.1640 -12.9167
   -12.7995  -8.7953  -7.1589  -5.4809  -4.7726  -3.5919  -3.4319  -3.3454
    -3.3287  -3.3281  -3.1601  -3.0327  -2.8050  -2.7694  -2.6937  -2.6391
    -2.6212  -2.5995  -2.4221  -2.3973  -2.3385  -2.3114  -2.2732  -2.2422
    -2.2174  -2.1995  -2.1905  -2.1716  -2.1593  -1.9970  -1.8985  -1.8708
    -1.8334  -1.8179  -1.7583  -1.7254  -1.7197  -1.7173  -1.7083  -1.6653
    -1.6476  -1.5979  -1.4973  -1.4652  -1.4396  -1.3144  -1.2976  -1.1518
    -1.0646  -0.9803  -0.9728  -0.9059  -0.9029  -0.8687  -0.8157  -0.7937
    -0.7674  -0.6341  -0.5648  -0.5083  -0.4926  -0.4472  -0.4015  -0.3659
    -0.2742  -0.2077  -0.2003  -0.1882  -0.0243  -0.0106   0.0374   0.0868
     0.1096   0.1606   0.1837   0.2546   0.2875   0.3341   0.3642   0.4615
     0.4993   0.5215   0.5347   0.5544   0.5672   0.6255   0.6945   0.7132
     0.7611   0.8131   0.9287   1.1233   1.1890   1.2006   1.5183   1.5522
     1.6085   1.7938   2.1836   2.2313   3.6680   3.7395   3.8035   3.8186
     3.8263   3.9039   4.0868   4.1513   4.1672   4.1737   4.1847

[...]

          k = 0.0380-0.0419 0.0000 ( 17876 PWs)   bands (ev):

[...]

          k =-0.0760-0.0000 0.0000 ( 17886 PWs)   bands (ev):

[...]

          k =-0.0760-0.0839 0.0000 ( 17948 PWs)   bands (ev):

   -55.4150 -55.4125 -55.3785 -55.3784 -55.3221 -55.3012 -55.2747 -55.2384
   -55.2327 -55.2281 -55.2259 -55.2060 -55.2053 -55.1699 -54.3969 -54.3966
   -31.8059 -31.8029 -31.7475 -31.7247 -31.7011 -31.7011 -31.6895 -31.6707
   -31.6707 -31.6426 -31.6331 -31.6276 -31.6246 -31.5842 -31.5621 -31.5591
   -31.5589 -31.5511 -31.5505 -31.5402 -31.5274 -31.5181 -31.5082 -31.5039
   -31.4997 -31.4981 -31.4979 -31.4955 -31.4690 -31.4643 -31.4613 -31.4586
   -31.4418 -31.4409 -31.4391 -31.4299 -31.4289 -31.4238 -31.3862 -31.3853
   -31.3833 -31.3640 -30.7205 -30.7203 -30.6354 -30.6351 -30.5959 -30.5958
   -20.3274 -15.7048 -15.6823 -15.6234 -15.4182 -15.4161 -15.4027 -15.3891
   -15.3806 -15.2310 -15.2136 -15.1959 -15.1773 -15.1344 -15.1315 -15.1179
   -15.1082 -15.0057 -15.0035 -15.0014 -15.0000 -14.9373 -14.9294 -14.9156
   -14.8810 -14.8779 -14.8489 -14.7790 -14.7760 -14.6468 -14.4855 -12.9011
   -12.9010  -8.7808  -7.1784  -5.4797  -4.7563  -2.9575  -2.8872  -2.8450
    -2.6345  -2.6117  -2.5969  -2.5147  -2.4656  -2.4029  -2.3954  -2.3905
    -2.3298  -2.2954  -2.2817  -2.2630  -2.2546  -2.2386  -2.2158  -2.2055
    -2.1605  -2.1472  -2.1375  -2.1047  -2.0894  -2.0709  -2.0461  -2.0284
    -2.0131  -2.0070  -1.9869  -1.8277  -1.7755  -1.7304  -1.6772  -1.6699
    -1.6238  -1.6162  -1.5225  -1.4877  -1.4590  -1.4331  -1.4236  -1.2328
    -1.2178  -1.1634  -1.1592  -1.1364  -0.9815  -0.9605  -0.9472  -0.9268
    -0.8815  -0.7988  -0.7944  -0.7549  -0.6482  -0.6183  -0.6109  -0.5609
    -0.4401  -0.4176  -0.3961  -0.3894  -0.3835  -0.2907  -0.2733  -0.2663
    -0.2324  -0.1982  -0.1477  -0.1411  -0.0892   0.0937   0.1366   0.2031
     0.2828   0.4475   0.4884   0.5164   0.5586   0.6198   0.6933   0.7066
     0.7738   0.8682   0.8833   0.9095   0.9851   1.0386   1.0464   1.0704
     1.9666   1.9673   2.0512   2.0513   3.8383   3.8498   3.9111   3.9488
     3.9981   4.0875   4.1871   4.2027   4.2471   4.2483   4.3282

     the Fermi energy is     3.7221 ev

!    total energy              =   -2937.80837441 Ry
     estimated scf accuracy    <       0.00000006 Ry
     smearing contrib. (-TS)   =      -0.03812777 Ry
     internal energy E=F+TS    =   -2937.77024665 Ry

     The total energy is F=E-TS. E is the sum of the following terms:
     one-electron contribution =  -24092.50575518 Ry
     hartree contribution      =   12136.33554825 Ry
     xc contribution           =    -484.38905468 Ry
     ewald contribution        =    9502.78584319 Ry
     electric field correction =       0.00317177 Ry

     convergence has been achieved in  67 iterations

     Forces acting on atoms (cartesian axes, Ry/au):

     atom    1 type  1   force =     0.00005918   -0.00011433    0.09407079
     atom    2 type  1   force =    -0.00015739   -0.00022832   -0.17762243
     atom    3 type  2   force =     0.00011350   -0.00019972   -0.02138021
     atom    4 type  2   force =     0.00002615   -0.00184174    0.05754869
     atom    5 type  2   force =    -0.01068979   -0.00139382    0.00633405
     atom    6 type  2   force =     0.01276098   -0.00074727    0.00661693
     atom    7 type  1   force =     0.00011992    0.00198055   -0.01405566
     atom    8 type  1   force =    -0.00046973    0.00581164    0.00396131
     atom    9 type  2   force =     0.00036202    0.00023188   -0.00007399
     atom   10 type  2   force =    -0.00023683    0.00022610   -0.00509254
     atom   11 type  2   force =     0.00004207   -0.00015669   -0.00042799
     atom   12 type  2   force =    -0.00027713    0.00000014    0.00010651
     atom   13 type  1   force =    -0.00025956    0.00001920   -0.00040928
     atom   14 type  1   force =    -0.00009048    0.00015500   -0.00020557
     atom   15 type  2   force =    -0.00042075   -0.00037706    0.00001598
     atom   16 type  2   force =    -0.00018108    0.00019182    0.00009502
     atom   17 type  2   force =     0.00034700   -0.00005955    0.00010859
     atom   18 type  2   force =    -0.00049057   -0.00014501   -0.00042832
     atom   19 type  1   force =    -0.00029466    0.00013458   -0.00038852
     atom   20 type  1   force =    -0.00014253   -0.00042315   -0.00026752
     atom   21 type  2   force =     0.00002029    0.00001889    0.10377551
     atom   22 type  2   force =    -0.00004325    0.00006874    0.00027610
     atom   23 type  2   force =    -0.07065067   -0.00007875   -0.02702742
     atom   24 type  2   force =     0.07054853    0.00036869   -0.02708099
     atom   25 type  1   force =     0.00001398   -0.00008976    0.09369554
     atom   26 type  1   force =    -0.00012534   -0.00015878   -0.17768207
     atom   27 type  2   force =     0.00013770   -0.00024600   -0.02037465
     atom   28 type  2   force =     0.00006899   -0.00155052    0.05702098
     atom   29 type  2   force =    -0.01103808   -0.00053635    0.00635665
     atom   30 type  2   force =     0.01296235   -0.00027347    0.00665070
     atom   31 type  1   force =     0.00029511    0.00519527   -0.01482636
     atom   32 type  1   force =    -0.00040345   -0.00656505    0.00413971
     atom   33 type  2   force =     0.00016105    0.00007871   -0.00031127
     atom   34 type  2   force =     0.00036053   -0.00103601   -0.00201022
     atom   35 type  2   force =    -0.00032001    0.00015254   -0.00019344
     atom   36 type  2   force =    -0.00002391    0.00000646    0.00013688
     atom   37 type  1   force =    -0.00006568    0.00024398   -0.00025166
     atom   38 type  1   force =     0.00005973    0.00024939    0.00016336
     atom   39 type  2   force =    -0.00012908    0.00015855    0.00035269
     atom   40 type  2   force =    -0.00029723    0.00009372   -0.00015896
     atom   41 type  2   force =     0.00017921   -0.00021075    0.00036585
     atom   42 type  2   force =    -0.00027738    0.00017469   -0.00012745
     atom   43 type  1   force =    -0.00023200    0.00012656   -0.00024150
     atom   44 type  1   force =     0.00017637   -0.00001875   -0.00084216
     atom   45 type  2   force =     0.00001552   -0.00000312    0.10378688
     atom   46 type  2   force =    -0.07066092   -0.00004530   -0.02704305
     atom   47 type  2   force =     0.07054335    0.00039597   -0.02707854
     atom   48 type  3   force =     0.01165826    0.00145427    0.00812153
     atom   49 type  4   force =     0.00023479    0.00083258    0.00121270
     atom   50 type  5   force =    -0.00038218   -0.00031349   -0.00041852
     atom   51 type  3   force =    -0.02383812   -0.00291191   -0.00262013
     atom   52 type  5   force =     0.01093122    0.00135475   -0.00627253

     Total force =     0.367262     Total SCF correction =     0.000826
  @ DRIVER MODE: Message from server: STATUS
  @ DRIVER MODE: Message from server: GETFORCE
  @ DRIVER MODE: Returning v,forces,stress,ensemble

     Writing output data file ./calc.save/
  @ DRIVER MODE: Message from server: EXIT
  @ DRIVE MODE: Exiting

     General routines

     Parallel routines

   This run was terminated on:   4:48:42   9Sep2021

   JOB DONE.