     Program PWSCF v.6.7GPU starts on 10Sep2021 at 22:45:44

     R & G space division:  proc/nbgrp/npool/nimage =      10
     Reading input from /storage/home/hcoda1/3/ntian30/research/carbon/CxH_vib/CH2_calc/ads_slab/CH2O_c/out_0015/pw.inp
Warning: card &CELL ignored
Warning: card   CELL_DYNAMICS='IPI', ignored
Warning: card / ignored

     Current dimensions of program PWSCF are:
     Max number of different atomic species (ntypx) = 10
     Max number of k-points (npk) =  40000
     Max angular momentum in pseudopotentials (lmaxx) =  3
     Presently no symmetry can be used with electric field

     Message from routine cell_base_init:
     DEPRECATED: use true lattice parameter, not A to a.u. conversion factor

     IMPORTANT: XC functional enforced from input :
     Exchange-correlation= BEEF-VDW
                           (   1   4  43  14   2   0   0)
     Any further DFT definition will be discarded
     Please, verify this is what you really want

  @ DRIVER MODE: Connecting to
 qe_1139763_2792043.sched-torque.pace.gatech.edu9tozonbn_scratch
  using UNIX socket
  @ DRIVER MODE: Message from server: STATUS
  @ DRIVER MODE: Message from server: INIT
  @ DRIVER MODE: Receiving replica           0          -1
  @ DRIVER MODE: Receiving encoded integer          25
  @ DRIVER MODE:  SCF:  T  FORCE:  T  STRESS:  F  VC:  F  ENSEMBLE:  F
  @ DRIVER MODE:  SCF:  T  FORCE:  T  STRESS:  F  VC:  F  ENSEMBLE:  F

     Using Slab Decomposition

     bravais-lattice index     =            0
     lattice parameter (alat)  =       1.8897  a.u.
     unit-cell volume          =    6658.9804 (a.u.)^3
     number of atoms/cell      =           51
     number of atomic types    =            4
     number of electrons       =       390.00
     number of Kohn-Sham states=          205
     kinetic-energy cutoff     =      29.3995  Ry
     charge density cutoff     =     293.9946  Ry
     scf convergence threshold =      7.3E-08
     mixing beta               =       0.0500
     number of iterations used =            8  plain     mixing
     Exchange-correlation= BEEF-VDW
                           (   1   4  43  14   2   0   0)

     celldm(1)=   1.889726  celldm(2)=   0.000000  celldm(3)=   0.000000
     celldm(4)=   0.000000  celldm(5)=   0.000000  celldm(6)=   0.000000

     crystal axes: (cart. coord. in units of alat)
               a(1) = (   6.579727   0.000000   0.000000 )
               a(2) = (  -0.000775   5.961596   0.000000 )
               a(3) = (   0.000000   0.000000  25.155947 )

     reciprocal axes: (cart. coord. in units 2 pi/alat)
               b(1) = (  0.151982  0.000020  0.000000 )
               b(2) = (  0.000000  0.167740  0.000000 )
               b(3) = (  0.000000  0.000000  0.039752 )

     PseudoPot. # 1 for O  read from file:
     /storage/coda1/p-amedford6/0/shared/rich_project_chbe-medford/medford-share/data/pseudos_module/espresso/nninc/pbe/van/O.UPF
     MD5 check sum: 78c19812648e8988a0fe644b0f25305e
     Pseudo is Ultrasoft, Zval =  6.0
     Generated by new atomic code, or converted to UPF format
     Using radial grid of  737 points,  4 beta functions with:
                l(1) =   0
                l(2) =   0
                l(3) =   1
                l(4) =   1
     Q(r) pseudized with  8 coefficients,  rinner =    0.800   0.800   0.800

     PseudoPot. # 2 for Ti read from file:
     /storage/coda1/p-amedford6/0/shared/rich_project_chbe-medford/medford-share/data/pseudos_module/espresso/nninc/pbe/van/Ti.UPF
     MD5 check sum: 8e4df49b7f0d34bbd5052bf3f5ea0213
     Pseudo is Ultrasoft, Zval = 12.0
     Generated by new atomic code, or converted to UPF format
     Using radial grid of  851 points,  6 beta functions with:
                l(1) =   0
                l(2) =   0
                l(3) =   1
                l(4) =   1
                l(5) =   2
                l(6) =   2
     Q(r) pseudized with  8 coefficients,  rinner =    1.000   1.000   1.000
                                                       1.000   1.000

     PseudoPot. # 3 for C  read from file:
     /storage/coda1/p-amedford6/0/shared/rich_project_chbe-medford/medford-share/data/pseudos_module/espresso/nninc/pbe/van/C.UPF
     MD5 check sum: 1a69bf6b8db32088f5b2163dbdb77a27
     Pseudo is Ultrasoft, Zval =  4.0
     Generated by new atomic code, or converted to UPF format
     Using radial grid of  721 points,  4 beta functions with:
                l(1) =   0
                l(2) =   0
                l(3) =   1
                l(4) =   1
     Q(r) pseudized with  8 coefficients,  rinner =    0.800   0.800   0.800

     PseudoPot. # 4 for H  read from file:
     /storage/coda1/p-amedford6/0/shared/rich_project_chbe-medford/medford-share/data/pseudos_module/espresso/nninc/pbe/van/H.UPF
     MD5 check sum: b5ee9d7bfd3a09ee7748110bda690ff7
     Pseudo is Ultrasoft, Zval =  1.0
     Generated by new atomic code, or converted to UPF format
     Using radial grid of  615 points,  1 beta functions with:
                l(1) =   0
     Q(r) pseudized with  8 coefficients,  rinner =    0.800

     atomic species   valence    mass     pseudopotential
        O1             6.00    15.99900     O ( 1.00)
        Ti1           12.00    47.86700     Ti( 1.00)
        C1             4.00    12.01100     C ( 1.00)
        H1             1.00     1.00800     H ( 1.00)

     No symmetry found

   Cartesian axes

     site n.     atom                  positions (alat units)
         1           O1  tau(   1) = (   3.2904802   0.0005063   4.7018136  )
         2           O1  tau(   2) = (   3.2900926   2.9813045   4.7018136  )
         3           Ti1 tau(   3) = (   0.0004258   2.9801865   6.0000000  )
         4           Ti1 tau(   4) = (   0.0000382   5.9609847   6.0000000  )
         5           Ti1 tau(   5) = (   3.2906075   1.4906267   6.0002472  )
         6           Ti1 tau(   6) = (   3.2902200   4.4714249   6.0002472  )
         7           O1  tau(   7) = (   1.3043587   1.4918075   6.0039043  )
         8           O1  tau(   8) = (   1.3039711   4.4726057   6.0039043  )
         9           O1  tau(   9) = (   5.2767064   1.4903225   6.0039473  )
        10           O1  tau(  10) = (   5.2763189   4.4711207   6.0039473  )
        11           O1  tau(  11) = (   3.2906025   0.0005020   7.3038282  )
        12           O1  tau(  12) = (   3.2902150   2.9813002   7.3038282  )
        13           O1  tau(  13) = (   0.0006271   0.0005054   7.9858123  )
        14           O1  tau(  14) = (   0.0002396   2.9813036   7.9858123  )
        15           Ti1 tau(  15) = (   3.3026304   0.0558743   9.1529855  )
        16           Ti1 tau(  16) = (   3.3164045   3.0327615   9.1572159  )
        17           Ti1 tau(  17) = (   0.0278175   4.5359734   9.2551557  )
        18           Ti1 tau(  18) = (   0.0245227   1.6138560   9.3625275  )
        19           O1  tau(  19) = (   4.5942328   1.4918067   9.2879030  )
        20           O1  tau(  20) = (   4.5938453   4.4726049   9.2879030  )
        21           O1  tau(  21) = (   1.9868534   1.4903216   9.2879459  )
        22           O1  tau(  22) = (   1.9864658   4.4711199   9.2879459  )
        23           O1  tau(  23) = (   0.0082563   0.0105963  10.6032901  )
        24           O1  tau(  24) = (   0.0079484   2.9900140  10.5841352  )
        25           O1  tau(  25) = (   3.3038251   2.9929121  11.3473413  )
        26           O1  tau(  26) = (   3.3033308   0.0102956  11.3494618  )
        27           Ti1 tau(  27) = (   0.0317432   0.0173395  12.5007832  )
        28           Ti1 tau(  28) = (   3.3306627   4.4867663  12.4909107  )
        29           Ti1 tau(  29) = (   3.3307827   1.5098530  12.4883691  )
        30           Ti1 tau(  30) = (   0.0330478   2.9976760  12.7859357  )
        31           O1  tau(  31) = (   1.3012438   4.4818129  12.6408784  )
        32           O1  tau(  32) = (   1.3024292   1.5014896  12.6394904  )
        33           O1  tau(  33) = (   5.3013637   4.4812751  12.6442516  )
        34           O1  tau(  34) = (   5.3009141   1.5012301  12.6421300  )
        35           O1  tau(  35) = (   3.3022887   2.9886358  13.9251823  )
        36           O1  tau(  36) = (   3.3062039   0.0095056  13.9482717  )
        37           O1  tau(  37) = (   0.0260699   0.0177473  14.6866479  )
        38           O1  tau(  38) = (   0.0273203   2.9953000  14.7270975  )
        39           Ti1 tau(  39) = (   3.3120190   2.9903054  15.7171600  )
        40           Ti1 tau(  40) = (   3.3230935   0.0106652  15.7391692  )
        41           Ti1 tau(  41) = (   0.0328368   4.5824378  15.9539421  )
        42           Ti1 tau(  42) = (   0.0326753   1.3890416  16.0019494  )
        43           O1  tau(  43) = (   4.5622593   4.4711273  16.0916796  )
        44           O1  tau(  44) = (   4.5612194   1.5125715  16.1009491  )
        45           O1  tau(  45) = (   2.0595944   1.5153445  16.1103626  )
        46           O1  tau(  46) = (   2.0577381   4.4687033  16.1006481  )
        47           O1  tau(  47) = (   0.0167757   0.0040543  17.2075325  )
        48           O1  tau(  48) = (   6.5679879   3.0050237  17.4360139  )
        49           C1  tau(  49) = (   6.3840651   3.0748419  18.6981053  )
        50           H1  tau(  50) = (   6.3009919   4.0439401  19.1613311  )
        51           H1  tau(  51) = (   6.3054763   2.1576074  19.2739789  )

     number of k points=    10  Fermi-Dirac smearing, width (Ry)=  0.0073
                       cart. coord. in units 2pi/alat
        k(    1) = (   0.0000000   0.0000000   0.0000000), wk =   0.1250000
        k(    2) = (   0.0000000   0.0419351   0.0000000), wk =   0.2500000
        k(    3) = (   0.0000000  -0.0838702   0.0000000), wk =   0.1250000
        k(    4) = (   0.0379955   0.0000049   0.0000000), wk =   0.2500000
        k(    5) = (   0.0379955   0.0419400   0.0000000), wk =   0.2500000
        k(    6) = (   0.0379955  -0.0838652   0.0000000), wk =   0.2500000
        k(    7) = (   0.0379955  -0.0419301   0.0000000), wk =   0.2500000
        k(    8) = (  -0.0759910  -0.0000099   0.0000000), wk =   0.1250000
        k(    9) = (  -0.0759910   0.0419252   0.0000000), wk =   0.2500000
        k(   10) = (  -0.0759910  -0.0838800   0.0000000), wk =   0.1250000

     Initial potential from superposition of free atoms

     starting charge  373.99919, renormalised to  390.00000

     negative rho (up, down):  1.845E-02 0.000E+00

     %%%%%%%%%%%%%%%%%%%%%%%%%%%%%%%%%%%%%%%%%%%%%%%%%%%%%%%%%%%%%%%%%%%%%%%%
     %                                                                      %
     % You are using vdW-DF, which was implemented by the Thonhauser group. %
     % Please cite the following two papers that made this development      %
     % possible and the two reviews that describe the various versions:     %
     %                                                                      %
     %   T. Thonhauser et al., PRL 115, 136402 (2015).                      %
     %   T. Thonhauser et al., PRB 76, 125112 (2007).                       %
     %   K. Berland et al., Rep. Prog. Phys. 78, 066501 (2015).             %
     %   D.C. Langreth et al., J. Phys.: Condens. Matter 21, 084203 (2009). %
     %                                                                      %
     %                                                                      %
     % If you are calculating the stress with vdW-DF, please also cite:     %
     %                                                                      %
     %   R. Sabatini et al., J. Phys.: Condens. Matter 24, 424209 (2012).   %
     %                                                                      %
     %%%%%%%%%%%%%%%%%%%%%%%%%%%%%%%%%%%%%%%%%%%%%%%%%%%%%%%%%%%%%%%%%%%%%%%%

     Adding external electric field

     Computed dipole along edir(3) :
        Dipole               -5.1802 Ry au,        -13.1669 Debye
        Dipole field         -0.0098 Ry au,

        Potential amp.        0.9062 Ry
        Total length         46.3494 bohr

     Starting wfcs are  294 atomic wfcs
  @ DRIVER MODE: Message from server: STATUS
  @ DRIVER MODE: Message from server: POSDATA
  @ DRIVER MODE: Reading and sharing cell
  @ DRIVER MODE: Reading and sharing positions
  @ DRIVER MODE: Received positions

     Self-consistent Calculation

     iteration #  1     ecut=    29.40 Ry     beta= 0.05
     Davidson diagonalization with overlap
     c_bands:  5 eigenvalues not converged
     c_bands:  2 eigenvalues not converged
     c_bands:  2 eigenvalues not converged
     c_bands:  1 eigenvalues not converged
     c_bands:  2 eigenvalues not converged
     c_bands:  2 eigenvalues not converged
     c_bands:  3 eigenvalues not converged
     c_bands:  2 eigenvalues not converged
     ethr =  1.00E-05,  avg # of iterations = 21.9

[...]

     total energy              =   -2823.17091928 Ry
     estimated scf accuracy    <    1180.18075077 Ry

     iteration #  2     ecut=    29.40 Ry     beta= 0.05
     Davidson diagonalization with overlap
     ethr =  1.00E-02,  avg # of iterations = 16.7

[...]

     iteration # 82     ecut=    29.40 Ry     beta= 0.05
     Davidson diagonalization with overlap
     c_bands:  1 eigenvalues not converged
     ethr =  5.98E-11,  avg # of iterations = 10.5

[...]

     total energy              =   -2930.16721083 Ry
     estimated scf accuracy    <       0.00000011 Ry

     iteration # 85     ecut=    29.40 Ry     beta= 0.05
     Davidson diagonalization with overlap
     ethr =  2.70E-11,  avg # of iterations =  5.0

     negative rho (up, down):  1.728E-02 0.000E+00

     Adding external electric field

     Computed dipole along edir(3) :
        Dipole                0.9317 Ry au,          2.3683 Debye
        Dipole field          0.0018 Ry au,

        Potential amp.       -0.1630 Ry
        Total length         46.3494 bohr

     End of self-consistent calculation

          k = 0.0000 0.0000 0.0000 ( 18029 PWs)   bands (ev):

   -55.8210 -55.8094 -55.7846 -55.7732 -55.7117 -55.6972 -55.6747 -55.6022
   -55.6011 -55.5899 -55.5793 -55.5563 -55.5246 -55.4870 -54.8476 -54.8135
   -32.3791 -32.2935 -32.1880 -32.1709 -32.1269 -32.1224 -32.1156 -32.0967
   -32.0694 -32.0523 -32.0501 -32.0239 -31.9940 -31.9910 -31.9795 -31.9577
   -31.9416 -31.9411 -31.9315 -31.9153 -31.8930 -31.8866 -31.8841 -31.8722
   -31.8631 -31.8461 -31.8443 -31.8211 -31.8157 -31.8152 -31.7898 -31.7623
   -31.7561 -31.7342 -31.7333 -31.7305 -31.7089 -31.7087 -31.6949 -31.6776
   -31.6758 -31.6752 -31.2577 -31.1599 -31.1376 -31.0743 -30.9883 -30.8770
   -19.8379 -16.5907 -16.2968 -16.1503 -16.0165 -15.9674 -15.8521 -15.6945
   -15.6154 -15.5490 -15.4936 -15.4413 -15.4040 -15.4025 -15.3730 -15.3595
   -15.3544 -15.3468 -15.2726 -15.2706 -15.2362 -15.2183 -15.2075 -15.1184
   -15.0573 -14.9975 -14.9513 -14.8924 -14.8395 -14.8254 -13.3480 -13.2295
    -9.3211  -5.5510  -5.5325  -3.9398  -3.7632  -3.7240  -3.7079  -3.6514
    -3.5277  -3.4234  -3.3962  -3.1061  -3.0183  -2.9884  -2.9777  -2.9649
    -2.8224  -2.7798  -2.6653  -2.6623  -2.6508  -2.6458  -2.6258  -2.5905
    -2.5834  -2.5391  -2.5163  -2.4070  -2.3677  -2.2578  -2.2442  -2.2153
    -2.1562  -2.1314  -2.1006  -2.0876  -2.0579  -2.0536  -2.0515  -2.0067
    -1.9060  -1.8186  -1.7516  -1.6688  -1.6304  -1.5383  -1.3788  -1.3098
    -1.2689  -1.2340  -1.1845  -1.1654  -1.1349  -1.1129  -1.0913  -1.0834
    -0.9841  -0.8718  -0.8618  -0.7633  -0.7028  -0.6839  -0.6690  -0.5785
    -0.5599  -0.5492  -0.4550  -0.3140  -0.3042  -0.3002  -0.1816  -0.1506
    -0.1275  -0.0826  -0.0577  -0.0230   0.0077   0.0630   0.1070   0.1175
     0.1642   0.1820   0.2074   0.3088   0.3614   0.3731   0.4270   0.4639
     0.6458   0.6659   0.8071   0.8729   1.0790   1.1773   1.2326   1.3461
     1.7649   1.8227   3.3445   3.3760   3.4010   3.4510   3.4968   3.5387
     3.5918   3.7870   3.8042   3.8131   3.8379

[...]

          k = 0.0380-0.0419 0.0000 ( 17876 PWs)   bands (ev):

[...]

          k =-0.0760-0.0000 0.0000 ( 17886 PWs)   bands (ev):

[...]

          k =-0.0760-0.0839 0.0000 ( 17948 PWs)   bands (ev):

   -55.8092 -55.7962 -55.7915 -55.7909 -55.7020 -55.6938 -55.6844 -55.6052
   -55.5978 -55.5759 -55.5731 -55.5708 -55.5307 -55.4895 -54.8310 -54.8299
   -32.1805 -32.1803 -32.1170 -32.1034 -32.1019 -32.0965 -32.0820 -32.0765
   -32.0625 -32.0335 -32.0255 -32.0109 -31.9943 -31.9575 -31.9467 -31.9379
   -31.9363 -31.9335 -31.9253 -31.9218 -31.9047 -31.9019 -31.8982 -31.8972
   -31.8943 -31.8912 -31.8794 -31.8561 -31.8290 -31.8282 -31.8276 -31.8055
   -31.8011 -31.7834 -31.7802 -31.7735 -31.7705 -31.7699 -31.7430 -31.7167
   -31.7090 -31.6846 -31.1510 -31.1495 -31.0711 -31.0701 -31.0318 -31.0308
   -19.8301 -16.0227 -15.9921 -15.8753 -15.7624 -15.7495 -15.7069 -15.6638
   -15.6158 -15.5576 -15.5548 -15.5064 -15.4873 -15.4833 -15.4386 -15.4059
   -15.3580 -15.3519 -15.3409 -15.3396 -15.2861 -15.2825 -15.2358 -15.2281
   -15.2077 -15.1688 -15.1654 -15.0950 -15.0594 -15.0048 -13.3319 -13.3296
    -9.3221  -5.5358  -5.5078  -3.5540  -3.3114  -3.2781  -3.1082  -2.9802
    -2.9705  -2.9121  -2.8281  -2.7908  -2.7460  -2.6962  -2.6928  -2.6712
    -2.6589  -2.6448  -2.6409  -2.6328  -2.5871  -2.5676  -2.5258  -2.4819
    -2.4745  -2.4611  -2.4553  -2.4153  -2.3993  -2.3876  -2.3804  -2.3745
    -2.3028  -2.2267  -2.1556  -2.0805  -2.0273  -2.0076  -1.9766  -1.9420
    -1.9071  -1.8899  -1.8729  -1.7484  -1.7263  -1.5772  -1.5616  -1.5387
    -1.5295  -1.4767  -1.4686  -1.3472  -1.2712  -1.2652  -1.1990  -1.1755
    -1.1469  -1.0983  -1.0760  -0.9961  -0.9537  -0.9112  -0.8569  -0.7966
    -0.7848  -0.7186  -0.7083  -0.6276  -0.6067  -0.5857  -0.5810  -0.5105
    -0.4765  -0.3972  -0.3861  -0.3633  -0.2621  -0.1963  -0.1920   0.0029
     0.1744   0.1795   0.1993   0.2990   0.3296   0.3728   0.4288   0.4439
     0.5305   0.5852   0.6761   0.6962   0.7050   0.7858   1.5360   1.5370
     1.6280   1.6386   3.2988   3.5636   3.6007   3.6047   3.6650   3.8182
     3.8212   3.8384   3.8478   3.9725   3.9802

     the Fermi energy is     3.3297 ev

!    total energy              =   -2930.16721462 Ry
     estimated scf accuracy    <       0.00000006 Ry
     smearing contrib. (-TS)   =      -0.03342681 Ry
     internal energy E=F+TS    =   -2930.13378780 Ry

     The total energy is F=E-TS. E is the sum of the following terms:
     one-electron contribution =  -24668.18608733 Ry
     hartree contribution      =   12419.54512274 Ry
     xc contribution           =    -481.27495375 Ry
     ewald contribution        =    9799.78049222 Ry
     electric field correction =       0.00163832 Ry

     convergence has been achieved in  85 iterations

     Forces acting on atoms (cartesian axes, Ry/au):

     atom    1 type  1   force =    -0.00009992    0.00004815    0.10428481
     atom    2 type  1   force =    -0.00009447    0.00004928    0.10435086
     atom    3 type  2   force =    -0.00025745   -0.00196328    0.10279178
     atom    4 type  2   force =    -0.00014992    0.00159565    0.11370128
     atom    5 type  2   force =    -0.00032947    0.00058657   -0.18044207
     atom    6 type  2   force =    -0.00019432   -0.00014321   -0.18078139
     atom    7 type  1   force =    -0.06895934    0.00062796   -0.02910035
     atom    8 type  1   force =    -0.06848232   -0.00120615   -0.02914022
     atom    9 type  1   force =     0.06859713    0.00111772   -0.02917580
     atom   10 type  1   force =     0.06821116   -0.00080865   -0.02923163
     atom   11 type  1   force =     0.00037388    0.00051008    0.04557714
     atom   12 type  1   force =     0.00056908    0.00076177    0.04711314
     atom   13 type  1   force =     0.00028106   -0.00578161   -0.03304070
     atom   14 type  1   force =     0.00033222    0.00397759   -0.02582310
     atom   15 type  2   force =     0.00003532   -0.00026935    0.00029582
     atom   16 type  2   force =     0.00013763    0.00012926   -0.00005891
     atom   17 type  2   force =    -0.00022309   -0.00066479    0.00128369
     atom   18 type  2   force =    -0.00028682   -0.00036008    0.00065811
     atom   19 type  1   force =    -0.01791033    0.00015204    0.00393831
     atom   20 type  1   force =    -0.01642453    0.00130271    0.00320238
     atom   21 type  1   force =     0.01954347   -0.00097754    0.00433180
     atom   22 type  1   force =     0.01780089    0.00102899    0.00343487
     atom   23 type  1   force =    -0.00014311   -0.00026686    0.00010610
     atom   24 type  1   force =    -0.00022448    0.00003531   -0.00001205
     atom   25 type  1   force =    -0.00002582   -0.00010648   -0.00088653
     atom   26 type  1   force =    -0.00011595    0.00023240   -0.00016807
     atom   27 type  2   force =    -0.00004330   -0.00075572   -0.00090459
     atom   28 type  2   force =     0.00013821    0.00067376    0.00013545
     atom   29 type  2   force =     0.00009295   -0.00088580    0.00051153
     atom   30 type  2   force =    -0.00024715    0.00137095   -0.00044033
     atom   31 type  1   force =    -0.00020179   -0.00033935    0.00040158
     atom   32 type  1   force =    -0.00024867    0.00036327    0.00000336
     atom   33 type  1   force =     0.00000336   -0.00038949    0.00050951
     atom   34 type  1   force =     0.00020774    0.00043793    0.00022033
     atom   35 type  1   force =     0.00014889   -0.00005559   -0.00138679
     atom   36 type  1   force =    -0.00006896    0.00032777   -0.00014374
     atom   37 type  1   force =    -0.00074848    0.00010400    0.00039719
     atom   38 type  1   force =     0.00006257   -0.00023057   -0.00062693
     atom   39 type  2   force =    -0.00077390    0.00065317    0.00131351
     atom   40 type  2   force =    -0.00103343   -0.00006397    0.00041788
     atom   41 type  2   force =     0.00062095   -0.00091951   -0.00053769
     atom   42 type  2   force =     0.00067947    0.00105844   -0.00054914
     atom   43 type  1   force =    -0.00036177    0.00021593    0.00054571
     atom   44 type  1   force =     0.00051035    0.00014615    0.00051259
     atom   45 type  1   force =    -0.00059639   -0.00004744    0.00037558
     atom   46 type  1   force =     0.00020249    0.00015665    0.00054165
     atom   47 type  1   force =    -0.00043608    0.00079704    0.00144250
     atom   48 type  1   force =    -0.00044521    0.00020437    0.00066546
     atom   49 type  3   force =     0.00042241   -0.01132823   -0.00399516
     atom   50 type  4   force =    -0.00029449    0.01016645    0.00436483
     atom   51 type  4   force =     0.00044973   -0.00126768   -0.00098355

     Total force =     0.374790     Total SCF correction =     0.000784
  @ DRIVER MODE: Message from server: STATUS
  @ DRIVER MODE: Message from server: GETFORCE
  @ DRIVER MODE: Returning v,forces,stress,ensemble

     Writing output data file ./calc.save/
  @ DRIVER MODE: Message from server: EXIT
  @ DRIVE MODE: Exiting

     General routines

     Parallel routines

   This run was terminated on:  23:15:25  10Sep2021

   JOB DONE.