     Program PWSCF v.6.7GPU starts on 24Aug2021 at  6:46:42

     R & G space division:  proc/nbgrp/npool/nimage =       6
     Reading input from /storage/home/hcoda1/3/ntian30/research/carbon/CH_vib/ads_slab/CHNHHH_a/out_0033/pw.inp
Warning: card &CELL ignored
Warning: card   CELL_DYNAMICS='IPI', ignored
Warning: card / ignored

     Current dimensions of program PWSCF are:
     Max number of different atomic species (ntypx) = 10
     Max number of k-points (npk) =  40000
     Max angular momentum in pseudopotentials (lmaxx) =  3
     Presently no symmetry can be used with electric field

     Message from routine cell_base_init:
     DEPRECATED: use true lattice parameter, not A to a.u. conversion factor

     IMPORTANT: XC functional enforced from input :
     Exchange-correlation= BEEF-VDW
                           (   1   4  43  14   2   0   0)
     Any further DFT definition will be discarded
     Please, verify this is what you really want

  @ DRIVER MODE: Connecting to
 qe_1139763_2632793.sched-torque.pace.gatech.edurvhugti5_scratch
  using UNIX socket
  @ DRIVER MODE: Message from server: STATUS
  @ DRIVER MODE: Message from server: INIT
  @ DRIVER MODE: Receiving replica           0          -1
  @ DRIVER MODE: Receiving encoded integer          25
  @ DRIVER MODE:  SCF:  T  FORCE:  T  STRESS:  F  VC:  F  ENSEMBLE:  F
  @ DRIVER MODE:  SCF:  T  FORCE:  T  STRESS:  F  VC:  F  ENSEMBLE:  F

     Using Slab Decomposition

     bravais-lattice index     =            0
     lattice parameter (alat)  =       1.8897  a.u.
     unit-cell volume          =    6658.9804 (a.u.)^3
     number of atoms/cell      =           53
     number of atomic types    =            5
     number of electrons       =       391.00
     number of Kohn-Sham states=          205
     kinetic-energy cutoff     =      29.3995  Ry
     charge density cutoff     =     293.9946  Ry
     scf convergence threshold =      7.3E-08
     mixing beta               =       0.0500
     number of iterations used =            8  plain     mixing
     Exchange-correlation= BEEF-VDW
                           (   1   4  43  14   2   0   0)

     celldm(1)=   1.889726  celldm(2)=   0.000000  celldm(3)=   0.000000
     celldm(4)=   0.000000  celldm(5)=   0.000000  celldm(6)=   0.000000

     crystal axes: (cart. coord. in units of alat)
               a(1) = (   6.579727   0.000000   0.000000 )
               a(2) = (  -0.000775   5.961596   0.000000 )
               a(3) = (   0.000000   0.000000  25.155947 )

     reciprocal axes: (cart. coord. in units 2 pi/alat)
               b(1) = (  0.151982  0.000020  0.000000 )
               b(2) = (  0.000000  0.167740  0.000000 )
               b(3) = (  0.000000  0.000000  0.039752 )

     PseudoPot. # 1 for Ti read from file:
     /storage/coda1/p-amedford6/0/shared/rich_project_chbe-medford/medford-share/data/pseudos_module/espresso/nninc/pbe/van/Ti.UPF
     MD5 check sum: 8e4df49b7f0d34bbd5052bf3f5ea0213
     Pseudo is Ultrasoft, Zval = 12.0
     Generated by new atomic code, or converted to UPF format
     Using radial grid of  851 points,  6 beta functions with:
                l(1) =   0
                l(2) =   0
                l(3) =   1
                l(4) =   1
                l(5) =   2
                l(6) =   2
     Q(r) pseudized with  8 coefficients,  rinner =    1.000   1.000   1.000
                                                       1.000   1.000

     PseudoPot. # 2 for O  read from file:
     /storage/coda1/p-amedford6/0/shared/rich_project_chbe-medford/medford-share/data/pseudos_module/espresso/nninc/pbe/van/O.UPF
     MD5 check sum: 78c19812648e8988a0fe644b0f25305e
     Pseudo is Ultrasoft, Zval =  6.0
     Generated by new atomic code, or converted to UPF format
     Using radial grid of  737 points,  4 beta functions with:
                l(1) =   0
                l(2) =   0
                l(3) =   1
                l(4) =   1
     Q(r) pseudized with  8 coefficients,  rinner =    0.800   0.800   0.800

     PseudoPot. # 3 for N  read from file:
     /storage/coda1/p-amedford6/0/shared/rich_project_chbe-medford/medford-share/data/pseudos_module/espresso/nninc/pbe/van/N.UPF
     MD5 check sum: 90d10febe142ad51ac9d5be1deb811c4
     Pseudo is Ultrasoft, Zval =  5.0
     Generated by new atomic code, or converted to UPF format
     Using radial grid of  729 points,  4 beta functions with:
                l(1) =   0
                l(2) =   0
                l(3) =   1
                l(4) =   1
     Q(r) pseudized with  8 coefficients,  rinner =    0.800   0.800   0.800

     PseudoPot. # 4 for C  read from file:
     /storage/coda1/p-amedford6/0/shared/rich_project_chbe-medford/medford-share/data/pseudos_module/espresso/nninc/pbe/van/C.UPF
     MD5 check sum: 1a69bf6b8db32088f5b2163dbdb77a27
     Pseudo is Ultrasoft, Zval =  4.0
     Generated by new atomic code, or converted to UPF format
     Using radial grid of  721 points,  4 beta functions with:
                l(1) =   0
                l(2) =   0
                l(3) =   1
                l(4) =   1
     Q(r) pseudized with  8 coefficients,  rinner =    0.800   0.800   0.800

     PseudoPot. # 5 for H  read from file:
     /storage/coda1/p-amedford6/0/shared/rich_project_chbe-medford/medford-share/data/pseudos_module/espresso/nninc/pbe/van/H.UPF
     MD5 check sum: b5ee9d7bfd3a09ee7748110bda690ff7
     Pseudo is Ultrasoft, Zval =  1.0
     Generated by new atomic code, or converted to UPF format
     Using radial grid of  615 points,  1 beta functions with:
                l(1) =   0
     Q(r) pseudized with  8 coefficients,  rinner =    0.800

     atomic species   valence    mass     pseudopotential
        Ti1           12.00    47.86700     Ti( 1.00)
        O1             6.00    15.99900     O ( 1.00)
        N1             5.00    14.00700     N ( 1.00)
        C1             4.00    12.01100     C ( 1.00)
        H1             1.00     1.00800     H ( 1.00)

     No symmetry found

   Cartesian axes

     site n.     atom                  positions (alat units)
         1           Ti1 tau(   1) = (   0.0004258   2.9801865   6.0000000  )
         2           Ti1 tau(   2) = (   3.2906075   1.4906267   6.0002472  )
         3           O1  tau(   3) = (   0.0006271   0.0005054   7.9858123  )
         4           O1  tau(   4) = (   3.2906025   0.0005020   7.3038282  )
         5           O1  tau(   5) = (   4.5942328   1.4918067   9.2879030  )
         6           O1  tau(   6) = (   1.9868534   1.4903216   9.2879459  )
         7           Ti1 tau(   7) = (   3.2907910   2.8959150   9.1758416  )
         8           Ti1 tau(   8) = (   0.0015273   1.4827037   9.2680791  )
         9           O1  tau(   9) = (   3.3113122   5.9567026  11.3833813  )
        10           O1  tau(  10) = (   0.0116148   5.9584955  10.6183126  )
        11           O1  tau(  11) = (   1.3074368   1.4838846  12.6958875  )
        12           O1  tau(  12) = (   5.3165545   1.4905306  12.6890028  )
        13           Ti1 tau(  13) = (   0.0319163   2.9634337  12.5060949  )
        14           Ti1 tau(  14) = (   3.3348194   1.4676286  12.5406051  )
        15           O1  tau(  15) = (   6.5718004   5.8756060  14.7032446  )
        16           O1  tau(  16) = (   3.3285255   5.9545307  14.0046557  )
        17           O1  tau(  17) = (   4.5620449   1.5282301  16.1894795  )
        18           O1  tau(  18) = (   2.0507131   1.5111456  16.1254446  )
        19           Ti1 tau(  19) = (   3.3090684   3.0029381  15.7706148  )
        20           Ti1 tau(  20) = (   0.0350077   1.2886257  15.8758580  )
        21           O1  tau(  21) = (   3.2904802   0.0005063   4.7018136  )
        22           O1  tau(  22) = (   0.0240991   0.1326893  17.2553962  )
        23           O1  tau(  23) = (   1.3043587   1.4918075   6.0039043  )
        24           O1  tau(  24) = (   5.2767064   1.4903225   6.0039473  )
        25           Ti1 tau(  25) = (   0.0000382   5.9609847   6.0000000  )
        26           Ti1 tau(  26) = (   3.2902200   4.4714249   6.0002472  )
        27           O1  tau(  27) = (   0.0002396   2.9813036   7.9858123  )
        28           O1  tau(  28) = (   3.2902150   2.9813002   7.3038282  )
        29           O1  tau(  29) = (   4.5938453   4.4726049   9.2879030  )
        30           O1  tau(  30) = (   1.9864658   4.4711199   9.2879459  )
        31           Ti1 tau(  31) = (   3.2891106   5.8743827   9.1763621  )
        32           Ti1 tau(  32) = (   0.0006254   4.4649316   9.2693709  )
        33           O1  tau(  33) = (   3.3073171   2.9646269  11.3784001  )
        34           O1  tau(  34) = (   0.0092240   2.9805883  10.6323155  )
        35           O1  tau(  35) = (   1.3112202   4.4579144  12.6624112  )
        36           O1  tau(  36) = (   5.3138049   4.4530836  12.6532163  )
        37           Ti1 tau(  37) = (   0.0383750   5.9352221  12.5084026  )
        38           Ti1 tau(  38) = (   3.3346062   4.4465110  12.5317211  )
        39           O1  tau(  39) = (   0.0124192   3.0170750  14.9941726  )
        40           O1  tau(  40) = (   3.3221393   2.9969786  13.9787254  )
        41           O1  tau(  41) = (   4.5445774   4.4782521  16.2319081  )
        42           O1  tau(  42) = (   2.0501905   4.4790704  16.2078326  )
        43           Ti1 tau(  43) = (   3.3285819   0.0194352  15.8051934  )
        44           Ti1 tau(  44) = (   0.0611752   4.5099810  16.0683830  )
        45           O1  tau(  45) = (   3.2900926   2.9813045   4.7018136  )
        46           O1  tau(  46) = (   1.3039711   4.4726057   6.0039043  )
        47           O1  tau(  47) = (   5.2763189   4.4711207   6.0039473  )
        48           N1  tau(  48) = (   6.2166669   3.4226028  18.2351681  )
        49           C1  tau(  49) = (   0.7325778   3.1430902  19.0455235  )
        50           H1  tau(  50) = (   1.1688338   2.1628109  18.9760543  )
        51           H1  tau(  51) = (   5.7007151   4.2593073  18.4945226  )
        52           H1  tau(  52) = (   5.5741914   2.6425579  18.1107425  )
        53           H1  tau(  53) = (   1.2593429   3.9688434  19.4721980  )

     number of k points=    10  Fermi-Dirac smearing, width (Ry)=  0.0073
                       cart. coord. in units 2pi/alat
        k(    1) = (   0.0000000   0.0000000   0.0000000), wk =   0.1250000
        k(    2) = (   0.0000000   0.0419351   0.0000000), wk =   0.2500000
        k(    3) = (   0.0000000  -0.0838702   0.0000000), wk =   0.1250000
        k(    4) = (   0.0379955   0.0000049   0.0000000), wk =   0.2500000
        k(    5) = (   0.0379955   0.0419400   0.0000000), wk =   0.2500000
        k(    6) = (   0.0379955  -0.0838652   0.0000000), wk =   0.2500000
        k(    7) = (   0.0379955  -0.0419301   0.0000000), wk =   0.2500000
        k(    8) = (  -0.0759910  -0.0000099   0.0000000), wk =   0.1250000
        k(    9) = (  -0.0759910   0.0419252   0.0000000), wk =   0.2500000
        k(   10) = (  -0.0759910  -0.0838800   0.0000000), wk =   0.1250000

     Initial potential from superposition of free atoms

     starting charge  374.99916, renormalised to  391.00000

     negative rho (up, down):  1.698E-02 0.000E+00

     %%%%%%%%%%%%%%%%%%%%%%%%%%%%%%%%%%%%%%%%%%%%%%%%%%%%%%%%%%%%%%%%%%%%%%%%
     %                                                                      %
     % You are using vdW-DF, which was implemented by the Thonhauser group. %
     % Please cite the following two papers that made this development      %
     % possible and the two reviews that describe the various versions:     %
     %                                                                      %
     %   T. Thonhauser et al., PRL 115, 136402 (2015).                      %
     %   T. Thonhauser et al., PRB 76, 125112 (2007).                       %
     %   K. Berland et al., Rep. Prog. Phys. 78, 066501 (2015).             %
     %   D.C. Langreth et al., J. Phys.: Condens. Matter 21, 084203 (2009). %
     %                                                                      %
     %                                                                      %
     % If you are calculating the stress with vdW-DF, please also cite:     %
     %                                                                      %
     %   R. Sabatini et al., J. Phys.: Condens. Matter 24, 424209 (2012).   %
     %                                                                      %
     %%%%%%%%%%%%%%%%%%%%%%%%%%%%%%%%%%%%%%%%%%%%%%%%%%%%%%%%%%%%%%%%%%%%%%%%

     Adding external electric field

     Computed dipole along edir(3) :
        Dipole               -6.8871 Ry au,        -17.5052 Debye
        Dipole field         -0.0130 Ry au,

        Potential amp.        1.2048 Ry
        Total length         46.3494 bohr

     Starting wfcs are  296 atomic wfcs
  @ DRIVER MODE: Message from server: STATUS
  @ DRIVER MODE: Message from server: POSDATA
  @ DRIVER MODE: Reading and sharing cell
  @ DRIVER MODE: Reading and sharing positions
  @ DRIVER MODE: Received positions

     Self-consistent Calculation

     iteration #  1     ecut=    29.40 Ry     beta= 0.05
     Davidson diagonalization with overlap
     c_bands:  1 eigenvalues not converged
     c_bands:  2 eigenvalues not converged
     ethr =  1.00E-05,  avg # of iterations = 15.9

[...]

     total energy              =   -2713.95713399 Ry
     estimated scf accuracy    <    2275.94010768 Ry

     iteration #  2     ecut=    29.40 Ry     beta= 0.05
     Davidson diagonalization with overlap
     ethr =  1.00E-02,  avg # of iterations = 18.4

[...]

     iteration # 73     ecut=    29.40 Ry     beta= 0.05
     Davidson diagonalization with overlap
     c_bands:  1 eigenvalues not converged
     c_bands:  1 eigenvalues not converged
     ethr =  2.29E-10,  avg # of iterations = 14.8

[...]

     total energy              =   -2920.25690593 Ry
     estimated scf accuracy    <       0.00000019 Ry

     iteration # 77     ecut=    29.40 Ry     beta= 0.05
     Davidson diagonalization with overlap
     ethr =  2.49E-11,  avg # of iterations =  6.9

     negative rho (up, down):  1.634E-02 0.000E+00

     Adding external electric field

     Computed dipole along edir(3) :
        Dipole                0.8998 Ry au,          2.2870 Debye
        Dipole field          0.0017 Ry au,

        Potential amp.       -0.1574 Ry
        Total length         46.3494 bohr

     End of self-consistent calculation

          k = 0.0000 0.0000 0.0000 ( 18029 PWs)   bands (ev):

   -55.7206 -55.6842 -55.6742 -55.6401 -55.6073 -55.6042 -55.5698 -55.5456
   -55.5377 -55.5111 -55.5061 -55.4725 -55.4511 -55.2885 -54.7058 -54.6717
   -32.2856 -32.1672 -32.0916 -32.0420 -32.0383 -32.0346 -32.0299 -32.0120
   -31.9632 -31.9531 -31.9331 -31.9279 -31.9192 -31.8895 -31.8746 -31.8739
   -31.8592 -31.8454 -31.8415 -31.8268 -31.8218 -31.7886 -31.7814 -31.7760
   -31.7478 -31.7358 -31.7350 -31.7314 -31.7253 -31.7182 -31.7061 -31.7042
   -31.6945 -31.6918 -31.6590 -31.6576 -31.6537 -31.6341 -31.6235 -31.6176
   -31.5082 -31.4612 -31.1153 -31.0207 -30.9986 -30.9315 -30.8448 -30.7339
   -16.6857 -16.5266 -16.2706 -16.1044 -16.0059 -15.9207 -15.7786 -15.7597
   -15.6437 -15.5670 -15.4245 -15.3874 -15.3746 -15.3581 -15.3351 -15.3229
   -15.2688 -15.2631 -15.2420 -15.2180 -15.2135 -15.1656 -15.1623 -15.1220
   -15.0989 -15.0364 -14.9666 -14.8831 -14.8110 -14.4794 -13.2083 -13.0908
    -9.5461  -6.8711  -4.9816  -3.8841  -3.7412  -3.6744  -3.6219  -3.6157
    -3.4713  -3.3000  -3.1548  -3.1323  -3.1015  -2.9897  -2.9257  -2.9113
    -2.8873  -2.7554  -2.7311  -2.6799  -2.6450  -2.5704  -2.5669  -2.5266
    -2.5129  -2.4680  -2.4619  -2.4360  -2.3030  -2.2889  -2.2512  -2.1880
    -2.1281  -2.1261  -2.0695  -2.0518  -2.0122  -2.0035  -1.9919  -1.9501
    -1.9447  -1.9098  -1.8073  -1.7452  -1.6128  -1.5786  -1.4327  -1.3627
    -1.3139  -1.2954  -1.2121  -1.1905  -1.1394  -1.1016  -1.0903  -1.0588
    -0.9453  -0.8591  -0.8083  -0.7539  -0.7209  -0.7052  -0.6159  -0.5232
    -0.5017  -0.4886  -0.4464  -0.3448  -0.3240  -0.2609  -0.2022  -0.1865
    -0.1773  -0.0810  -0.0502   0.0223   0.0732   0.0943   0.1655   0.1915
     0.2104   0.2157   0.2512   0.2621   0.3388   0.3551   0.3796   0.4665
     0.5924   0.8392   0.8877   0.9017   1.2177   1.2219   1.3170   1.5002
     1.8934   1.9417   3.3703   3.3881   3.4521   3.5212   3.5249   3.5893
     3.6120   3.8572   3.8783   3.8857   3.9023

[...]

          k = 0.0380-0.0419 0.0000 ( 17876 PWs)   bands (ev):

[...]

          k =-0.0760-0.0000 0.0000 ( 17886 PWs)   bands (ev):

[...]

          k =-0.0760-0.0839 0.0000 ( 17948 PWs)   bands (ev):

   -55.7054 -55.6992 -55.6573 -55.6569 -55.6027 -55.5876 -55.5863 -55.5420
   -55.5300 -55.5263 -55.4897 -55.4890 -55.4490 -55.2905 -54.6888 -54.6885
   -32.0924 -32.0876 -31.9961 -31.9824 -31.9822 -31.9782 -31.9506 -31.9485
   -31.9484 -31.9323 -31.9258 -31.9167 -31.9114 -31.8709 -31.8676 -31.8622
   -31.8582 -31.8537 -31.8482 -31.8450 -31.8290 -31.8087 -31.8007 -31.8000
   -31.7828 -31.7780 -31.7770 -31.7765 -31.7627 -31.7591 -31.7427 -31.7390
   -31.7387 -31.7238 -31.7222 -31.7195 -31.6719 -31.6699 -31.6688 -31.6296
   -31.5525 -31.5104 -31.0114 -31.0112 -30.9278 -30.9276 -30.8882 -30.8881
   -16.6541 -16.0098 -15.9450 -15.9069 -15.7589 -15.7178 -15.6829 -15.6712
   -15.5479 -15.5159 -15.4949 -15.4749 -15.4388 -15.4250 -15.4183 -15.3656
   -15.3397 -15.3196 -15.3154 -15.3014 -15.2392 -15.2327 -15.2279 -15.2206
   -15.1730 -15.1694 -15.0780 -15.0751 -15.0510 -14.7661 -13.1923 -13.1923
    -9.5481  -6.8527  -4.9611  -3.2155  -3.1979  -3.1614  -3.1360  -2.9788
    -2.9164  -2.9023  -2.8725  -2.7997  -2.7481  -2.7320  -2.6878  -2.6839
    -2.6305  -2.5973  -2.5725  -2.5587  -2.5526  -2.5388  -2.5172  -2.4807
    -2.4522  -2.4502  -2.4414  -2.3955  -2.3694  -2.3588  -2.3209  -2.3145
    -2.3066  -2.2792  -2.2153  -2.1149  -2.0855  -2.0573  -1.9611  -1.9302
    -1.9250  -1.8451  -1.8121  -1.7573  -1.7504  -1.7423  -1.5768  -1.5051
    -1.4691  -1.4657  -1.4433  -1.3161  -1.3013  -1.2230  -1.1992  -1.1865
    -1.0977  -1.0779  -1.0347  -1.0078  -0.9313  -0.9020  -0.8401  -0.7533
    -0.7147  -0.7077  -0.6788  -0.6749  -0.6257  -0.6147  -0.5295  -0.4910
    -0.4561  -0.4457  -0.3973  -0.2120  -0.1955  -0.1649  -0.0263   0.0249
     0.1498   0.1729   0.2342   0.3077   0.3481   0.3917   0.4284   0.5733
     0.5829   0.6159   0.6606   0.6717   0.7298   0.7386   1.6733   1.6738
     1.7616   1.7619   3.3845   3.6313   3.6338   3.6689   3.6917   3.8469
     3.8916   3.9355   3.9571   3.9601   3.9823

     the Fermi energy is     3.4386 ev

!    total energy              =   -2920.25691829 Ry
     estimated scf accuracy    <       0.00000005 Ry
     smearing contrib. (-TS)   =      -0.04245777 Ry
     internal energy E=F+TS    =   -2920.21446051 Ry

     The total energy is F=E-TS. E is the sum of the following terms:
     one-electron contribution =  -24059.37022103 Ry
     hartree contribution      =   12115.88133003 Ry
     xc contribution           =    -480.86345337 Ry
     ewald contribution        =    9504.13635609 Ry
     electric field correction =       0.00152777 Ry

     convergence has been achieved in  77 iterations

     Forces acting on atoms (cartesian axes, Ry/au):

     atom    1 type  1   force =    -0.00001943   -0.00019459    0.09318829
     atom    2 type  1   force =    -0.00010987   -0.00034130   -0.17840418
     atom    3 type  2   force =     0.00009114   -0.00039354   -0.02008005
     atom    4 type  2   force =     0.00004703   -0.00199819    0.05911929
     atom    5 type  2   force =    -0.01019612   -0.00082158    0.00741742
     atom    6 type  2   force =     0.01220276   -0.00043135    0.00773195
     atom    7 type  1   force =     0.00015369    0.00228814   -0.01368632
     atom    8 type  1   force =    -0.00035285   -0.00183010   -0.00451953
     atom    9 type  2   force =    -0.00034185    0.00036798   -0.00024403
     atom   10 type  2   force =    -0.00026893    0.00141425    0.00222605
     atom   11 type  2   force =    -0.00013635    0.00010473   -0.00011302
     atom   12 type  2   force =    -0.00026837   -0.00022839   -0.00062634
     atom   13 type  1   force =    -0.00048724    0.00090757   -0.00022469
     atom   14 type  1   force =    -0.00069843    0.00043207   -0.00046977
     atom   15 type  2   force =     0.00005005   -0.00021080    0.00012538
     atom   16 type  2   force =    -0.00041140   -0.00009972   -0.00000115
     atom   17 type  2   force =    -0.00011843   -0.00030719   -0.00044906
     atom   18 type  2   force =    -0.00028432   -0.00016402    0.00044989
     atom   19 type  1   force =    -0.00061412   -0.00011163    0.00005899
     atom   20 type  1   force =    -0.00010135   -0.00028216   -0.00026515
     atom   21 type  2   force =     0.00002444   -0.00006160    0.10402241
     atom   22 type  2   force =    -0.00053164   -0.00003805    0.00010651
     atom   23 type  2   force =    -0.07037381   -0.00014669   -0.02689063
     atom   24 type  2   force =     0.07025187    0.00029190   -0.02697425
     atom   25 type  1   force =     0.00002524   -0.00014913    0.09257828
     atom   26 type  1   force =    -0.00014289   -0.00046489   -0.17847289
     atom   27 type  2   force =     0.00015812   -0.00027908   -0.01916164
     atom   28 type  2   force =     0.00005701   -0.00176817    0.05849640
     atom   29 type  2   force =    -0.01067902   -0.00129989    0.00788818
     atom   30 type  2   force =     0.01255374   -0.00083199    0.00815468
     atom   31 type  1   force =     0.00028594    0.00599894   -0.01441834
     atom   32 type  1   force =    -0.00036612    0.00121385   -0.00498947
     atom   33 type  2   force =    -0.00004863   -0.00045764   -0.00009594
     atom   34 type  2   force =     0.00078184   -0.00258419    0.00062444
     atom   35 type  2   force =    -0.00060735   -0.00028777   -0.00013139
     atom   36 type  2   force =     0.00060149    0.00005151    0.00003730
     atom   37 type  1   force =    -0.00046841   -0.00043210    0.00007683
     atom   38 type  1   force =    -0.00026476    0.00035641   -0.00083784
     atom   39 type  2   force =    -0.00063369    0.00035840   -0.00016214
     atom   40 type  2   force =    -0.00015109   -0.00035955   -0.00058120
     atom   41 type  2   force =    -0.00103362    0.00010324    0.00001551
     atom   42 type  2   force =     0.00005840   -0.00013358    0.00028799
     atom   43 type  1   force =     0.00049070   -0.00000277   -0.00040165
     atom   44 type  1   force =     0.00041532    0.00069001   -0.00006300
     atom   45 type  2   force =     0.00003787   -0.00007542    0.10397262
     atom   46 type  2   force =    -0.07034609   -0.00009093   -0.02686930
     atom   47 type  2   force =     0.07024735    0.00035021   -0.02692543
     atom   48 type  3   force =    -0.00039206    0.00208398    0.00017664
     atom   49 type  4   force =    -0.00465089   -0.00774782   -0.00312786
     atom   50 type  5   force =     0.00002741   -0.00119644   -0.00053856
     atom   51 type  5   force =     0.00154010   -0.00096403   -0.00035507
     atom   52 type  5   force =    -0.00000437    0.00063423   -0.00001502
     atom   53 type  5   force =     0.00500201    0.00913885    0.00333988

     Total force =     0.366654     Total SCF correction =     0.000674
  @ DRIVER MODE: Message from server: STATUS
  @ DRIVER MODE: Message from server: GETFORCE
  @ DRIVER MODE: Returning v,forces,stress,ensemble

     Writing output data file ./calc.save/
  @ DRIVER MODE: Message from server: EXIT
  @ DRIVE MODE: Exiting

     General routines

     Parallel routines

   This run was terminated on:   7:17:15  24Aug2021

   JOB DONE.