     Program PWSCF v.6.7GPU starts on 16Sep2021 at  6:53:31

     R & G space division:  proc/nbgrp/npool/nimage =      10
     Reading input from /storage/home/hcoda1/3/ntian30/research/carbon/CxH_vib/H2O_calc/ads_slab/CH3NHH2O_a/out_0048/pw.inp
Warning: card &CELL ignored
Warning: card   CELL_DYNAMICS='IPI', ignored
Warning: card / ignored

     Current dimensions of program PWSCF are:
     Max number of different atomic species (ntypx) = 10
     Max number of k-points (npk) =  40000
     Max angular momentum in pseudopotentials (lmaxx) =  3
     Presently no symmetry can be used with electric field

     Message from routine cell_base_init:
     DEPRECATED: use true lattice parameter, not A to a.u. conversion factor

     IMPORTANT: XC functional enforced from input :
     Exchange-correlation= BEEF-VDW
                           (   1   4  43  14   2   0   0)
     Any further DFT definition will be discarded
     Please, verify this is what you really want

  @ DRIVER MODE: Connecting to
 qe_1139763_2852633.sched-torque.pace.gatech.edu9c54ne9m_scratch
  using UNIX socket
  @ DRIVER MODE: Message from server: STATUS
  @ DRIVER MODE: Message from server: INIT
  @ DRIVER MODE: Receiving replica           0          -1
  @ DRIVER MODE: Receiving encoded integer          25
  @ DRIVER MODE:  SCF:  T  FORCE:  T  STRESS:  F  VC:  F  ENSEMBLE:  F
  @ DRIVER MODE:  SCF:  T  FORCE:  T  STRESS:  F  VC:  F  ENSEMBLE:  F

     Using Slab Decomposition

     bravais-lattice index     =            0
     lattice parameter (alat)  =       1.8897  a.u.
     unit-cell volume          =    6658.9804 (a.u.)^3
     number of atoms/cell      =           56
     number of atomic types    =            5
     number of electrons       =       399.00
     number of Kohn-Sham states=          209
     kinetic-energy cutoff     =      29.3995  Ry
     charge density cutoff     =     293.9946  Ry
     scf convergence threshold =      7.3E-08
     mixing beta               =       0.0500
     number of iterations used =            8  plain     mixing
     Exchange-correlation= BEEF-VDW
                           (   1   4  43  14   2   0   0)

     celldm(1)=   1.889726  celldm(2)=   0.000000  celldm(3)=   0.000000
     celldm(4)=   0.000000  celldm(5)=   0.000000  celldm(6)=   0.000000

     crystal axes: (cart. coord. in units of alat)
               a(1) = (   6.579727   0.000000   0.000000 )
               a(2) = (  -0.000775   5.961596   0.000000 )
               a(3) = (   0.000000   0.000000  25.155947 )

     reciprocal axes: (cart. coord. in units 2 pi/alat)
               b(1) = (  0.151982  0.000020  0.000000 )
               b(2) = (  0.000000  0.167740  0.000000 )
               b(3) = (  0.000000  0.000000  0.039752 )

     PseudoPot. # 1 for Ti read from file:
     /storage/coda1/p-amedford6/0/shared/rich_project_chbe-medford/medford-share/data/pseudos_module/espresso/nninc/pbe/van/Ti.UPF
     MD5 check sum: 8e4df49b7f0d34bbd5052bf3f5ea0213
     Pseudo is Ultrasoft, Zval = 12.0
     Generated by new atomic code, or converted to UPF format
     Using radial grid of  851 points,  6 beta functions with:
                l(1) =   0
                l(2) =   0
                l(3) =   1
                l(4) =   1
                l(5) =   2
                l(6) =   2
     Q(r) pseudized with  8 coefficients,  rinner =    1.000   1.000   1.000
                                                       1.000   1.000

     PseudoPot. # 2 for O  read from file:
     /storage/coda1/p-amedford6/0/shared/rich_project_chbe-medford/medford-share/data/pseudos_module/espresso/nninc/pbe/van/O.UPF
     MD5 check sum: 78c19812648e8988a0fe644b0f25305e
     Pseudo is Ultrasoft, Zval =  6.0
     Generated by new atomic code, or converted to UPF format
     Using radial grid of  737 points,  4 beta functions with:
                l(1) =   0
                l(2) =   0
                l(3) =   1
                l(4) =   1
     Q(r) pseudized with  8 coefficients,  rinner =    0.800   0.800   0.800

     PseudoPot. # 3 for H  read from file:
     /storage/coda1/p-amedford6/0/shared/rich_project_chbe-medford/medford-share/data/pseudos_module/espresso/nninc/pbe/van/H.UPF
     MD5 check sum: b5ee9d7bfd3a09ee7748110bda690ff7
     Pseudo is Ultrasoft, Zval =  1.0
     Generated by new atomic code, or converted to UPF format
     Using radial grid of  615 points,  1 beta functions with:
                l(1) =   0
     Q(r) pseudized with  8 coefficients,  rinner =    0.800

     PseudoPot. # 4 for N  read from file:
     /storage/coda1/p-amedford6/0/shared/rich_project_chbe-medford/medford-share/data/pseudos_module/espresso/nninc/pbe/van/N.UPF
     MD5 check sum: 90d10febe142ad51ac9d5be1deb811c4
     Pseudo is Ultrasoft, Zval =  5.0
     Generated by new atomic code, or converted to UPF format
     Using radial grid of  729 points,  4 beta functions with:
                l(1) =   0
                l(2) =   0
                l(3) =   1
                l(4) =   1
     Q(r) pseudized with  8 coefficients,  rinner =    0.800   0.800   0.800

     PseudoPot. # 5 for C  read from file:
     /storage/coda1/p-amedford6/0/shared/rich_project_chbe-medford/medford-share/data/pseudos_module/espresso/nninc/pbe/van/C.UPF
     MD5 check sum: 1a69bf6b8db32088f5b2163dbdb77a27
     Pseudo is Ultrasoft, Zval =  4.0
     Generated by new atomic code, or converted to UPF format
     Using radial grid of  721 points,  4 beta functions with:
                l(1) =   0
                l(2) =   0
                l(3) =   1
                l(4) =   1
     Q(r) pseudized with  8 coefficients,  rinner =    0.800   0.800   0.800

     atomic species   valence    mass     pseudopotential
        Ti1           12.00    47.86700     Ti( 1.00)
        O1             6.00    15.99900     O ( 1.00)
        H1             1.00     1.00800     H ( 1.00)
        N1             5.00    14.00700     N ( 1.00)
        C1             4.00    12.01100     C ( 1.00)

     No symmetry found

   Cartesian axes

     site n.     atom                  positions (alat units)
         1           Ti1 tau(   1) = (   0.0004258   2.9801865   6.0000000  )
         2           Ti1 tau(   2) = (   3.2906075   1.4906267   6.0002472  )
         3           O1  tau(   3) = (   0.0006271   0.0005054   7.9858123  )
         4           O1  tau(   4) = (   3.2906025   0.0005020   7.3038282  )
         5           O1  tau(   5) = (   4.5942328   1.4918067   9.2879030  )
         6           O1  tau(   6) = (   1.9868534   1.4903216   9.2879459  )
         7           Ti1 tau(   7) = (   3.2907910   2.8959150   9.1758416  )
         8           Ti1 tau(   8) = (   0.0015273   1.4827037   9.2680791  )
         9           O1  tau(   9) = (   3.2896571   0.0076959  11.3233140  )
        10           O1  tau(  10) = (   0.0116148   5.9584955  10.6183126  )
        11           O1  tau(  11) = (   1.3168077   1.5009220  12.6157425  )
        12           O1  tau(  12) = (   5.2956243   1.4929856  12.6075824  )
        13           Ti1 tau(  13) = (   6.5239244   2.9540340  12.6210794  )
        14           Ti1 tau(  14) = (   3.2085880   1.4976218  12.4699624  )
        15           O1  tau(  15) = (   6.5712616   0.0419518  14.6436513  )
        16           O1  tau(  16) = (   3.3111435   0.0202601  13.9161875  )
        17           O1  tau(  17) = (   4.5291760   1.5523016  16.0784362  )
        18           O1  tau(  18) = (   2.0445308   1.5488630  16.0432715  )
        19           Ti1 tau(  19) = (   3.3059752   3.0257308  15.6838679  )
        20           Ti1 tau(  20) = (   0.0592185   1.5662548  15.8694889  )
        21           O1  tau(  21) = (   3.2904802   0.0005063   4.7018136  )
        22           O1  tau(  22) = (   0.0264932   0.0561689  17.2024660  )
        23           O1  tau(  23) = (   1.3043587   1.4918075   6.0039043  )
        24           O1  tau(  24) = (   5.2767064   1.4903225   6.0039473  )
        25           Ti1 tau(  25) = (   0.0000382   5.9609847   6.0000000  )
        26           Ti1 tau(  26) = (   3.2902200   4.4714249   6.0002472  )
        27           O1  tau(  27) = (   0.0002396   2.9813036   7.9858123  )
        28           O1  tau(  28) = (   3.2902150   2.9813002   7.3038282  )
        29           O1  tau(  29) = (   4.5938453   4.4726049   9.2879030  )
        30           O1  tau(  30) = (   1.9864658   4.4711199   9.2879459  )
        31           Ti1 tau(  31) = (   3.2891106   5.8743827   9.1763621  )
        32           Ti1 tau(  32) = (   0.0006254   4.4649316   9.2693709  )
        33           O1  tau(  33) = (   3.2898653   2.9926188  11.3210358  )
        34           O1  tau(  34) = (   0.0092240   2.9805883  10.6323155  )
        35           O1  tau(  35) = (   1.3106253   4.4883450  12.6271249  )
        36           O1  tau(  36) = (   5.2968722   4.4793810  12.6200386  )
        37           Ti1 tau(  37) = (   6.5212985   5.9329073  12.5685303  )
        38           Ti1 tau(  38) = (   3.2059443   4.4781599  12.4721232  )
        39           O1  tau(  39) = (   6.5764971   2.9600267  14.6431433  )
        40           O1  tau(  40) = (   3.3056941   3.0038382  13.8936370  )
        41           O1  tau(  41) = (   4.5394310   4.5052612  16.0827012  )
        42           O1  tau(  42) = (   2.0570581   4.5113261  16.0718816  )
        43           Ti1 tau(  43) = (   3.3383738   0.0382055  15.7109988  )
        44           Ti1 tau(  44) = (   0.0469139   4.6840235  16.0886640  )
        45           O1  tau(  45) = (   3.2900926   2.9813045   4.7018136  )
        46           O1  tau(  46) = (   1.3039711   4.4726057   6.0039043  )
        47           O1  tau(  47) = (   5.2763189   4.4711207   6.0039473  )
        48           H1  tau(  48) = (   5.6101632   2.9904038  17.7880820  )
        49           N1  tau(  49) = (   6.5649722   3.0046358  17.4438072  )
        50           C1  tau(  50) = (   0.8874553   2.9889031  18.6120612  )
        51           H1  tau(  51) = (   1.3591778   3.9628686  18.7739097  )
        52           H1  tau(  52) = (   0.3310755   2.7322232  19.5165709  )
        53           H1  tau(  53) = (   1.6717793   2.2402645  18.4914768  )
        54           O1  tau(  54) = (   3.2567199   5.9268012  21.6217354  )
        55           H1  tau(  55) = (   4.0245811   5.9269051  22.2191127  )
        56           H1  tau(  56) = (   2.4887544   5.9269923  22.2092946  )

     number of k points=    10  Fermi-Dirac smearing, width (Ry)=  0.0073
                       cart. coord. in units 2pi/alat
        k(    1) = (   0.0000000   0.0000000   0.0000000), wk =   0.1250000
        k(    2) = (   0.0000000   0.0419351   0.0000000), wk =   0.2500000
        k(    3) = (   0.0000000  -0.0838702   0.0000000), wk =   0.1250000
        k(    4) = (   0.0379955   0.0000049   0.0000000), wk =   0.2500000
        k(    5) = (   0.0379955   0.0419400   0.0000000), wk =   0.2500000
        k(    6) = (   0.0379955  -0.0838652   0.0000000), wk =   0.2500000
        k(    7) = (   0.0379955  -0.0419301   0.0000000), wk =   0.2500000
        k(    8) = (  -0.0759910  -0.0000099   0.0000000), wk =   0.1250000
        k(    9) = (  -0.0759910   0.0419252   0.0000000), wk =   0.2500000
        k(   10) = (  -0.0759910  -0.0838800   0.0000000), wk =   0.1250000

     Initial potential from superposition of free atoms

     starting charge  382.99914, renormalised to  399.00000

     negative rho (up, down):  9.612E-03 0.000E+00

     %%%%%%%%%%%%%%%%%%%%%%%%%%%%%%%%%%%%%%%%%%%%%%%%%%%%%%%%%%%%%%%%%%%%%%%%
     %                                                                      %
     % You are using vdW-DF, which was implemented by the Thonhauser group. %
     % Please cite the following two papers that made this development      %
     % possible and the two reviews that describe the various versions:     %
     %                                                                      %
     %   T. Thonhauser et al., PRL 115, 136402 (2015).                      %
     %   T. Thonhauser et al., PRB 76, 125112 (2007).                       %
     %   K. Berland et al., Rep. Prog. Phys. 78, 066501 (2015).             %
     %   D.C. Langreth et al., J. Phys.: Condens. Matter 21, 084203 (2009). %
     %                                                                      %
     %                                                                      %
     % If you are calculating the stress with vdW-DF, please also cite:     %
     %                                                                      %
     %   R. Sabatini et al., J. Phys.: Condens. Matter 24, 424209 (2012).   %
     %                                                                      %
     %%%%%%%%%%%%%%%%%%%%%%%%%%%%%%%%%%%%%%%%%%%%%%%%%%%%%%%%%%%%%%%%%%%%%%%%

     Adding external electric field

     Computed dipole along edir(3) :
        Dipole              -12.5502 Ry au,        -31.8994 Debye
        Dipole field         -0.0237 Ry au,

        Potential amp.        2.1955 Ry
        Total length         46.3494 bohr

     Starting wfcs are  302 atomic wfcs
  @ DRIVER MODE: Message from server: STATUS
  @ DRIVER MODE: Message from server: POSDATA
  @ DRIVER MODE: Reading and sharing cell
  @ DRIVER MODE: Reading and sharing positions
  @ DRIVER MODE: Received positions

     Self-consistent Calculation

     iteration #  1     ecut=    29.40 Ry     beta= 0.05
     Davidson diagonalization with overlap
     c_bands:  2 eigenvalues not converged
     c_bands:  2 eigenvalues not converged
     c_bands:  4 eigenvalues not converged
     c_bands:  4 eigenvalues not converged
     c_bands:  3 eigenvalues not converged
     c_bands:  3 eigenvalues not converged
     c_bands:  5 eigenvalues not converged
     c_bands:  4 eigenvalues not converged
     c_bands:  5 eigenvalues not converged
     ethr =  1.00E-05,  avg # of iterations = 22.0

[...]

     total energy              =   -2445.30048544 Ry
     estimated scf accuracy    <    5721.64637557 Ry

     iteration #  2     ecut=    29.40 Ry     beta= 0.05
     Davidson diagonalization with overlap
     ethr =  1.00E-02,  avg # of iterations = 22.1

[...]

     iteration # 85     ecut=    29.40 Ry     beta= 0.05
     Davidson diagonalization with overlap
     c_bands:  1 eigenvalues not converged
     ethr =  3.44E-11,  avg # of iterations = 11.1

[...]

     total energy              =   -2955.21559790 Ry
     estimated scf accuracy    <       0.00000010 Ry

     iteration # 86     ecut=    29.40 Ry     beta= 0.05
     Davidson diagonalization with overlap
     ethr =  2.49E-11,  avg # of iterations =  5.5

     negative rho (up, down):  1.109E-02 0.000E+00

     Adding external electric field

     Computed dipole along edir(3) :
        Dipole                1.3294 Ry au,          3.3789 Debye
        Dipole field          0.0025 Ry au,

        Potential amp.       -0.2325 Ry
        Total length         46.3494 bohr

     End of self-consistent calculation

          k = 0.0000 0.0000 0.0000 ( 18029 PWs)   bands (ev):

   -55.4949 -55.4860 -55.4609 -55.4500 -55.4048 -55.3359 -55.3329 -55.2990
   -55.2983 -55.2651 -55.2569 -55.2233 -55.0697 -54.7871 -54.4662 -54.4322
   -32.0443 -31.9763 -31.8495 -31.8347 -31.8140 -31.7984 -31.7879 -31.7481
   -31.7360 -31.7358 -31.7092 -31.7015 -31.6684 -31.6471 -31.6385 -31.6350
   -31.6282 -31.5982 -31.5763 -31.5521 -31.5443 -31.5397 -31.5238 -31.5026
   -31.4934 -31.4886 -31.4851 -31.4768 -31.4602 -31.4574 -31.4523 -31.4482
   -31.4344 -31.4293 -31.4104 -31.4059 -31.3697 -31.3337 -31.2391 -31.0612
   -31.0550 -30.9858 -30.8730 -30.7854 -30.7630 -30.6898 -30.6033 -30.4923
   -18.5543 -16.2529 -15.9711 -15.7912 -15.6485 -15.6163 -15.5283 -15.3303
   -15.2047 -15.1894 -15.0852 -15.0531 -15.0286 -15.0219 -14.9932 -14.9897
   -14.9344 -14.9271 -14.9183 -14.9054 -14.8463 -14.8223 -14.7818 -14.6910
   -14.6668 -14.6515 -14.6241 -14.5414 -14.5359 -14.0931 -13.6303 -12.9688
   -12.8525  -8.4737  -6.3319  -3.9135  -3.6234  -3.4495  -3.4109  -3.3967
    -3.3461  -3.0957  -3.0781  -2.8440  -2.7112  -2.6943  -2.6787  -2.6655
    -2.6484  -2.6297  -2.4327  -2.3926  -2.3252  -2.3091  -2.2871  -2.2789
    -2.2726  -2.2631  -2.2593  -2.2148  -2.1595  -2.0461  -2.0281  -1.9217
    -1.8780  -1.8522  -1.8039  -1.7594  -1.7533  -1.7428  -1.7234  -1.7115
    -1.6894  -1.6717  -1.5365  -1.4737  -1.3412  -1.2954  -1.2878  -1.0938
    -1.0562  -0.9636  -0.9371  -0.9206  -0.9124  -0.8803  -0.7984  -0.7065
    -0.6529  -0.6410  -0.5870  -0.5079  -0.4942  -0.3943  -0.3852  -0.3796
    -0.3264  -0.2632  -0.2534  -0.2445  -0.1991  -0.1313  -0.0553   0.0200
     0.0725   0.0938   0.1203   0.1994   0.2284   0.3232   0.3443   0.3893
     0.3962   0.4425   0.4844   0.4932   0.4988   0.5146   0.5340   0.6818
     0.7898   0.8453   0.8783   0.8893   1.0466   1.0825   1.1703   1.2572
     1.4829   1.5556   1.6501   1.7488   1.8050   2.1263   2.1716   3.6486
     3.7276   3.7816   3.7907   3.8864   3.8936   4.0980   4.1075   4.1185
     4.1907

[...]

          k = 0.0380-0.0419 0.0000 ( 17876 PWs)   bands (ev):

[...]

          k =-0.0760-0.0000 0.0000 ( 17886 PWs)   bands (ev):

[...]

          k =-0.0760-0.0839 0.0000 ( 17948 PWs)   bands (ev):

   -55.4782 -55.4774 -55.4681 -55.4676 -55.4002 -55.3405 -55.3176 -55.3135
   -55.2827 -55.2809 -55.2405 -55.2398 -55.0687 -54.7880 -54.4492 -54.4490
   -31.8486 -31.8468 -31.7918 -31.7913 -31.7816 -31.7736 -31.7728 -31.7573
   -31.6979 -31.6958 -31.6892 -31.6855 -31.6642 -31.6316 -31.6150 -31.6117
   -31.6032 -31.5994 -31.5977 -31.5969 -31.5939 -31.5809 -31.5786 -31.5461
   -31.5361 -31.5349 -31.5100 -31.4959 -31.4790 -31.4785 -31.4732 -31.4727
   -31.4558 -31.4557 -31.4552 -31.4516 -31.4020 -31.3364 -31.2344 -31.1240
   -31.0573 -31.0108 -30.7757 -30.7756 -30.6859 -30.6857 -30.6466 -30.6466
   -18.5542 -15.7041 -15.6718 -15.4335 -15.4275 -15.4176 -15.4030 -15.2613
   -15.2068 -15.1980 -15.1912 -15.1654 -15.1438 -15.0915 -15.0646 -15.0269
   -15.0211 -15.0157 -15.0129 -14.9507 -14.9448 -14.9236 -14.9163 -14.8022
   -14.7995 -14.7982 -14.7265 -14.6573 -14.5217 -14.2617 -13.6517 -12.9545
   -12.9542  -8.4775  -6.3335  -3.9248  -2.9977  -2.9601  -2.8132  -2.7173
    -2.6744  -2.6604  -2.6431  -2.5650  -2.4296  -2.4048  -2.3885  -2.3716
    -2.3570  -2.3198  -2.3133  -2.3007  -2.2882  -2.2808  -2.2626  -2.2266
    -2.1880  -2.1601  -2.1524  -2.1429  -2.1183  -2.1062  -2.0805  -2.0753
    -2.0408  -2.0325  -2.0161  -1.9924  -1.7352  -1.7121  -1.6936  -1.6231
    -1.6158  -1.5836  -1.5750  -1.5556  -1.5425  -1.4902  -1.3910  -1.2245
    -1.1911  -1.1847  -1.1643  -1.0992  -1.0780  -0.9284  -0.9013  -0.8821
    -0.8447  -0.7954  -0.7631  -0.7242  -0.6881  -0.6524  -0.5903  -0.5822
    -0.5024  -0.4538  -0.4528  -0.4274  -0.4133  -0.3564  -0.2775  -0.2588
    -0.2479  -0.2062  -0.1932  -0.1119  -0.0892   0.0087   0.0230   0.0882
     0.1218   0.1922   0.3872   0.4908   0.5499   0.5754   0.6287   0.7240
     0.7780   0.7919   0.8260   0.8312   0.8922   0.9336   1.0480   1.0549
     1.1226   1.2247   1.7510   1.9200   1.9208   1.9913   1.9915   3.9099
     3.9164   3.9672   3.9959   4.1484   4.1531   4.1755   4.1765   4.2969
     4.3179

     the Fermi energy is     3.6415 ev

!    total energy              =   -2955.21560079 Ry
     estimated scf accuracy    <       0.00000005 Ry
     smearing contrib. (-TS)   =      -0.02204754 Ry
     internal energy E=F+TS    =   -2955.19355325 Ry

     The total energy is F=E-TS. E is the sum of the following terms:
     one-electron contribution =  -23379.72828488 Ry
     hartree contribution      =   11781.76600089 Ry
     xc contribution           =    -489.67336664 Ry
     ewald contribution        =    9132.43876249 Ry
     electric field correction =       0.00333489 Ry

     convergence has been achieved in  86 iterations

     Forces acting on atoms (cartesian axes, Ry/au):

     atom    1 type  1   force =     0.00012519   -0.00019419    0.09688433
     atom    2 type  1   force =     0.00003840   -0.00046440   -0.17495556
     atom    3 type  2   force =     0.00013059    0.00001873   -0.02537577
     atom    4 type  2   force =    -0.00003067   -0.00126685    0.05222396
     atom    5 type  2   force =    -0.01214709    0.00000685    0.00288568
     atom    6 type  2   force =     0.01359840    0.00055018    0.00226002
     atom    7 type  1   force =     0.00059983    0.00031196   -0.01253757
     atom    8 type  1   force =     0.00044412    0.00705946    0.03084102
     atom    9 type  2   force =     0.00032373    0.00016159    0.00045541
     atom   10 type  2   force =    -0.00271548    0.00207564   -0.01689117
     atom   11 type  2   force =     0.00017209   -0.00036333    0.00012639
     atom   12 type  2   force =     0.00007300   -0.00035825    0.00022647
     atom   13 type  1   force =    -0.00019483    0.00036072   -0.00001719
     atom   14 type  1   force =    -0.00012061    0.00032933   -0.00037326
     atom   15 type  2   force =    -0.00003011   -0.00030704   -0.00006577
     atom   16 type  2   force =     0.00014779    0.00038066    0.00128110
     atom   17 type  2   force =    -0.00028775   -0.00036451    0.00029635
     atom   18 type  2   force =     0.00036491   -0.00033902    0.00005115
     atom   19 type  1   force =     0.00021221   -0.00039124    0.00041308
     atom   20 type  1   force =    -0.00047264    0.00023319    0.00032648
     atom   21 type  2   force =     0.00006018   -0.00002249    0.10305043
     atom   22 type  2   force =     0.00017613   -0.00079175    0.00030495
     atom   23 type  2   force =    -0.07166865   -0.00015182   -0.02782921
     atom   24 type  2   force =     0.07156840    0.00034597   -0.02788978
     atom   25 type  1   force =     0.00008925   -0.00016746    0.09665551
     atom   26 type  1   force =     0.00009123   -0.00025282   -0.17508461
     atom   27 type  2   force =     0.00011814   -0.00011067   -0.02444958
     atom   28 type  2   force =     0.00004228   -0.00101618    0.05205609
     atom   29 type  2   force =    -0.01234184    0.00067101    0.00265310
     atom   30 type  2   force =     0.01366402    0.00106087    0.00203586
     atom   31 type  1   force =     0.00049382    0.00307162   -0.01335290
     atom   32 type  1   force =     0.00030885   -0.00926805    0.03126905
     atom   33 type  2   force =    -0.00012681    0.00016174    0.00078866
     atom   34 type  2   force =    -0.00202619    0.00178891   -0.02551779
     atom   35 type  2   force =     0.00025958    0.00019437    0.00035654
     atom   36 type  2   force =     0.00022645    0.00010827    0.00034363
     atom   37 type  1   force =    -0.00026810   -0.00064263    0.00015860
     atom   38 type  1   force =    -0.00008298    0.00003381   -0.00023551
     atom   39 type  2   force =     0.00005551   -0.00079101    0.00028499
     atom   40 type  2   force =     0.00024785    0.00003398   -0.00010075
     atom   41 type  2   force =    -0.00040676    0.00008997   -0.00005558
     atom   42 type  2   force =     0.00038081   -0.00012405   -0.00032307
     atom   43 type  1   force =    -0.00032151    0.00050992   -0.00071545
     atom   44 type  1   force =    -0.00043575   -0.00060701    0.00124609
     atom   45 type  2   force =     0.00004069   -0.00004910    0.10309791
     atom   46 type  2   force =    -0.07166448   -0.00006464   -0.02782825
     atom   47 type  2   force =     0.07158238    0.00035606   -0.02789541
     atom   48 type  3   force =     0.00028353   -0.00044461    0.00011439
     atom   49 type  4   force =    -0.00008096   -0.00042438   -0.00024764
     atom   50 type  5   force =    -0.00024261   -0.00012001    0.00087448
     atom   51 type  3   force =    -0.00050192   -0.00037215    0.00041722
     atom   52 type  3   force =     0.00045659   -0.00066825   -0.00072288
     atom   53 type  3   force =     0.00029427    0.00029351   -0.00002513
     atom   54 type  2   force =     0.00896436   -0.00007226    0.00792333
     atom   55 type  3   force =    -0.00904909   -0.00001949   -0.00828675
     atom   56 type  3   force =    -0.00041777    0.00002138   -0.00112571

     Total force =     0.368674     Total SCF correction =     0.000605
  @ DRIVER MODE: Message from server: STATUS
  @ DRIVER MODE: Message from server: GETFORCE
  @ DRIVER MODE: Returning v,forces,stress,ensemble

     Writing output data file ./calc.save/
  @ DRIVER MODE: Message from server: EXIT
  @ DRIVE MODE: Exiting

     General routines

     Parallel routines

   This run was terminated on:   7:15:31  16Sep2021

   JOB DONE.