     Program PWSCF v.6.7GPU starts on 16Jul2021 at  4:52:56

     R & G space division:  proc/nbgrp/npool/nimage =      16
     Reading input from /storage/home/hcoda1/3/ntian30/research/carbon/15Jul_vib/ads_slab/CH3NH_b/out_0025/pw.inp
Warning: card &CELL ignored
Warning: card   CELL_DYNAMICS='IPI', ignored
Warning: card / ignored

     Current dimensions of program PWSCF are:
     Max number of different atomic species (ntypx) = 10
     Max number of k-points (npk) =  40000
     Max angular momentum in pseudopotentials (lmaxx) =  3
     Presently no symmetry can be used with electric field

     Message from routine cell_base_init:
     DEPRECATED: use true lattice parameter, not A to a.u. conversion factor

     IMPORTANT: XC functional enforced from input :
     Exchange-correlation= BEEF-VDW
                           (   1   4  43  14   2   0   0)
     Any further DFT definition will be discarded
     Please, verify this is what you really want

  @ DRIVER MODE: Connecting to
 qe_1139763_2351649.sched-torque.pace.gatech.edu6qj1kvd1_scratch
  using UNIX socket
  @ DRIVER MODE: Message from server: STATUS
  @ DRIVER MODE: Message from server: INIT
  @ DRIVER MODE: Receiving replica           0          -1
  @ DRIVER MODE: Receiving encoded integer          25
  @ DRIVER MODE:  SCF:  T  FORCE:  T  STRESS:  F  VC:  F  ENSEMBLE:  F
  @ DRIVER MODE:  SCF:  T  FORCE:  T  STRESS:  F  VC:  F  ENSEMBLE:  F

     Using Slab Decomposition

     bravais-lattice index     =            0
     lattice parameter (alat)  =       1.8897  a.u.
     unit-cell volume          =    6658.9804 (a.u.)^3
     number of atoms/cell      =           53
     number of atomic types    =            5
     number of electrons       =       391.00
     number of Kohn-Sham states=          205
     kinetic-energy cutoff     =      29.3995  Ry
     charge density cutoff     =     293.9946  Ry
     scf convergence threshold =      7.3E-08
     mixing beta               =       0.0500
     number of iterations used =            8  plain     mixing
     Exchange-correlation= BEEF-VDW
                           (   1   4  43  14   2   0   0)

     celldm(1)=   1.889726  celldm(2)=   0.000000  celldm(3)=   0.000000
     celldm(4)=   0.000000  celldm(5)=   0.000000  celldm(6)=   0.000000

     crystal axes: (cart. coord. in units of alat)
               a(1) = (   6.579727   0.000000   0.000000 )
               a(2) = (  -0.000775   5.961596   0.000000 )
               a(3) = (   0.000000   0.000000  25.155947 )

     reciprocal axes: (cart. coord. in units 2 pi/alat)
               b(1) = (  0.151982  0.000020  0.000000 )
               b(2) = (  0.000000  0.167740  0.000000 )
               b(3) = (  0.000000  0.000000  0.039752 )

     PseudoPot. # 1 for Ti read from file:
     /storage/coda1/p-amedford6/0/shared/rich_project_chbe-medford/medford-share/data/pseudos_module/espresso/nninc/pbe/van/Ti.UPF
     MD5 check sum: 8e4df49b7f0d34bbd5052bf3f5ea0213
     Pseudo is Ultrasoft, Zval = 12.0
     Generated by new atomic code, or converted to UPF format
     Using radial grid of  851 points,  6 beta functions with:
                l(1) =   0
                l(2) =   0
                l(3) =   1
                l(4) =   1
                l(5) =   2
                l(6) =   2
     Q(r) pseudized with  8 coefficients,  rinner =    1.000   1.000   1.000
                                                       1.000   1.000

     PseudoPot. # 2 for O  read from file:
     /storage/coda1/p-amedford6/0/shared/rich_project_chbe-medford/medford-share/data/pseudos_module/espresso/nninc/pbe/van/O.UPF
     MD5 check sum: 78c19812648e8988a0fe644b0f25305e
     Pseudo is Ultrasoft, Zval =  6.0
     Generated by new atomic code, or converted to UPF format
     Using radial grid of  737 points,  4 beta functions with:
                l(1) =   0
                l(2) =   0
                l(3) =   1
                l(4) =   1
     Q(r) pseudized with  8 coefficients,  rinner =    0.800   0.800   0.800

     PseudoPot. # 3 for H  read from file:
     /storage/coda1/p-amedford6/0/shared/rich_project_chbe-medford/medford-share/data/pseudos_module/espresso/nninc/pbe/van/H.UPF
     MD5 check sum: b5ee9d7bfd3a09ee7748110bda690ff7
     Pseudo is Ultrasoft, Zval =  1.0
     Generated by new atomic code, or converted to UPF format
     Using radial grid of  615 points,  1 beta functions with:
                l(1) =   0
     Q(r) pseudized with  8 coefficients,  rinner =    0.800

     PseudoPot. # 4 for N  read from file:
     /storage/coda1/p-amedford6/0/shared/rich_project_chbe-medford/medford-share/data/pseudos_module/espresso/nninc/pbe/van/N.UPF
     MD5 check sum: 90d10febe142ad51ac9d5be1deb811c4
     Pseudo is Ultrasoft, Zval =  5.0
     Generated by new atomic code, or converted to UPF format
     Using radial grid of  729 points,  4 beta functions with:
                l(1) =   0
                l(2) =   0
                l(3) =   1
                l(4) =   1
     Q(r) pseudized with  8 coefficients,  rinner =    0.800   0.800   0.800

     PseudoPot. # 5 for C  read from file:
     /storage/coda1/p-amedford6/0/shared/rich_project_chbe-medford/medford-share/data/pseudos_module/espresso/nninc/pbe/van/C.UPF
     MD5 check sum: 1a69bf6b8db32088f5b2163dbdb77a27
     Pseudo is Ultrasoft, Zval =  4.0
     Generated by new atomic code, or converted to UPF format
     Using radial grid of  721 points,  4 beta functions with:
                l(1) =   0
                l(2) =   0
                l(3) =   1
                l(4) =   1
     Q(r) pseudized with  8 coefficients,  rinner =    0.800   0.800   0.800

     atomic species   valence    mass     pseudopotential
        Ti1           12.00    47.86700     Ti( 1.00)
        O1             6.00    15.99900     O ( 1.00)
        H1             1.00     1.00800     H ( 1.00)
        N1             5.00    14.00700     N ( 1.00)
        C1             4.00    12.01100     C ( 1.00)

     Starting magnetic structure
     atomic species   magnetization
        Ti1          0.000
        O1           0.000
        H1           0.000
        N1           0.000
        C1           0.025

     No symmetry found

   Cartesian axes

     site n.     atom                  positions (alat units)
         1           Ti1 tau(   1) = (   0.0004258   2.9801865   6.0000000  )
         2           Ti1 tau(   2) = (   3.2906075   1.4906267   6.0002472  )
         3           O1  tau(   3) = (   0.0006271   0.0005054   7.9858123  )
         4           O1  tau(   4) = (   3.2906025   0.0005020   7.3038282  )
         5           O1  tau(   5) = (   4.5942328   1.4918067   9.2879030  )
         6           O1  tau(   6) = (   1.9868534   1.4903216   9.2879459  )
         7           Ti1 tau(   7) = (   3.2907910   2.8959150   9.1758416  )
         8           Ti1 tau(   8) = (   0.0015273   1.4827037   9.2680791  )
         9           O1  tau(   9) = (   3.2906183   5.9580730  11.3246990  )
        10           O1  tau(  10) = (   0.0116148   5.9584955  10.6183126  )
        11           O1  tau(  11) = (   1.3160896   1.4863360  12.6200149  )
        12           O1  tau(  12) = (   5.2947061   1.4800608  12.6053981  )
        13           Ti1 tau(  13) = (   6.5224157   2.9421717  12.6196007  )
        14           Ti1 tau(  14) = (   3.2076970   1.4879367  12.4696142  )
        15           O1  tau(  15) = (   6.5517659   0.0158556  14.6493665  )
        16           O1  tau(  16) = (   3.3109316   0.0069331  13.9179417  )
        17           O1  tau(  17) = (   4.5083530   1.5297238  16.0872293  )
        18           O1  tau(  18) = (   2.0274073   1.5273405  16.0409094  )
        19           Ti1 tau(  19) = (   3.2920608   3.0081397  15.6838061  )
        20           Ti1 tau(  20) = (   0.0536170   1.5416865  15.8648894  )
        21           O1  tau(  21) = (   3.2904802   0.0005063   4.7018136  )
        22           O1  tau(  22) = (   0.0122827   0.0301012  17.2134340  )
        23           O1  tau(  23) = (   1.3043587   1.4918075   6.0039043  )
        24           O1  tau(  24) = (   5.2767064   1.4903225   6.0039473  )
        25           Ti1 tau(  25) = (   0.0000382   5.9609847   6.0000000  )
        26           Ti1 tau(  26) = (   3.2902200   4.4714249   6.0002472  )
        27           O1  tau(  27) = (   0.0002396   2.9813036   7.9858123  )
        28           O1  tau(  28) = (   3.2902150   2.9813002   7.3038282  )
        29           O1  tau(  29) = (   4.5938453   4.4726049   9.2879030  )
        30           O1  tau(  30) = (   1.9864658   4.4711199   9.2879459  )
        31           Ti1 tau(  31) = (   3.2891106   5.8743827   9.1763621  )
        32           Ti1 tau(  32) = (   0.0006254   4.4649316   9.2693709  )
        33           O1  tau(  33) = (   3.2866862   2.9837957  11.3234553  )
        34           O1  tau(  34) = (   0.0092240   2.9805883  10.6323155  )
        35           O1  tau(  35) = (   1.3095649   4.4762946  12.6335636  )
        36           O1  tau(  36) = (   5.2963019   4.4650584  12.6194355  )
        37           Ti1 tau(  37) = (   6.5192018   5.9199268  12.5733442  )
        38           Ti1 tau(  38) = (   3.2055211   4.4685508  12.4747853  )
        39           O1  tau(  39) = (   6.5624772   2.9349094  14.6472044  )
        40           O1  tau(  40) = (   3.3065106   2.9879112  13.8942307  )
        41           O1  tau(  41) = (   4.5199725   4.4841037  16.0899424  )
        42           O1  tau(  42) = (   2.0389375   4.4882992  16.0664246  )
        43           Ti1 tau(  43) = (   3.3279474   0.0221627  15.7114356  )
        44           Ti1 tau(  44) = (   0.0314192   4.6578676  16.1055029  )
        45           O1  tau(  45) = (   3.2900926   2.9813045   4.7018136  )
        46           O1  tau(  46) = (   1.3039711   4.4726057   6.0039043  )
        47           O1  tau(  47) = (   5.2763189   4.4711207   6.0039473  )
        48           H1  tau(  48) = (   5.5751926   2.9245997  17.7795037  )
        49           N1  tau(  49) = (   6.5345126   2.9709300  17.4463781  )
        50           C1  tau(  50) = (   0.8205834   2.9192471  18.6315588  )
        51           H1  tau(  51) = (   0.6379014   3.7726647  19.2931901  )
        52           H1  tau(  52) = (   0.6516828   1.9903841  19.1881566  )
        53           H1  tau(  53) = (   1.8691752   2.9530840  18.3388921  )

     number of k points=    10  Fermi-Dirac smearing, width (Ry)=  0.0073
                       cart. coord. in units 2pi/alat
        k(    1) = (   0.0000000   0.0000000   0.0000000), wk =   0.0625000
        k(    2) = (   0.0000000   0.0419351   0.0000000), wk =   0.1250000
        k(    3) = (   0.0000000  -0.0838702   0.0000000), wk =   0.0625000
        k(    4) = (   0.0379955   0.0000049   0.0000000), wk =   0.1250000
        k(    5) = (   0.0379955   0.0419400   0.0000000), wk =   0.1250000
        k(    6) = (   0.0379955  -0.0838652   0.0000000), wk =   0.1250000
        k(    7) = (   0.0379955  -0.0419301   0.0000000), wk =   0.1250000
        k(    8) = (  -0.0759910  -0.0000099   0.0000000), wk =   0.0625000
[...]

     starting charge  374.99916, renormalised to  391.00000

     negative rho (up, down):  8.889E-03 8.897E-03

     %%%%%%%%%%%%%%%%%%%%%%%%%%%%%%%%%%%%%%%%%%%%%%%%%%%%%%%%%%%%%%%%%%%%%%%%
     %                                                                      %
     % You are using vdW-DF, which was implemented by the Thonhauser group. %
     % Please cite the following two papers that made this development      %
     % possible and the two reviews that describe the various versions:     %
     %                                                                      %
     %   T. Thonhauser et al., PRL 115, 136402 (2015).                      %
     %   T. Thonhauser et al., PRB 76, 125112 (2007).                       %
     %   K. Berland et al., Rep. Prog. Phys. 78, 066501 (2015).             %
     %   D.C. Langreth et al., J. Phys.: Condens. Matter 21, 084203 (2009). %
     %                                                                      %
     %                                                                      %
     % If you are calculating the stress with vdW-DF, please also cite:     %
     %                                                                      %
     %   R. Sabatini et al., J. Phys.: Condens. Matter 24, 424209 (2012).   %
     %                                                                      %
     %%%%%%%%%%%%%%%%%%%%%%%%%%%%%%%%%%%%%%%%%%%%%%%%%%%%%%%%%%%%%%%%%%%%%%%%

     Adding external electric field

     Computed dipole along edir(3) :
        Dipole               -5.8162 Ry au,        -14.7834 Debye
        Dipole field         -0.0110 Ry au,

        Potential amp.        1.0175 Ry
        Total length         46.3494 bohr

[...]

     Starting wfcs are  296 atomic wfcs
  @ DRIVER MODE: Message from server: STATUS
  @ DRIVER MODE: Message from server: POSDATA
  @ DRIVER MODE: Reading and sharing cell
  @ DRIVER MODE: Reading and sharing positions
  @ DRIVER MODE: Received positions

     Self-consistent Calculation

     iteration #  1     ecut=    29.40 Ry     beta= 0.05
     Davidson diagonalization with overlap
     c_bands:  2 eigenvalues not converged
     c_bands:  1 eigenvalues not converged
     c_bands:  1 eigenvalues not converged
     c_bands:  3 eigenvalues not converged
     c_bands:  4 eigenvalues not converged
     c_bands:  2 eigenvalues not converged
     c_bands:  1 eigenvalues not converged
     c_bands:  1 eigenvalues not converged
     c_bands:  2 eigenvalues not converged
     c_bands:  3 eigenvalues not converged
     c_bands:  1 eigenvalues not converged
     c_bands:  1 eigenvalues not converged
     c_bands:  3 eigenvalues not converged
     c_bands:  4 eigenvalues not converged
     c_bands:  3 eigenvalues not converged
     c_bands:  1 eigenvalues not converged
     c_bands:  1 eigenvalues not converged
     c_bands:  2 eigenvalues not converged
     ethr =  1.00E-05,  avg # of iterations = 19.6

[...]

     total energy              =   -2770.80000066 Ry
     estimated scf accuracy    <    1640.07763522 Ry

     total magnetization       =     0.01 Bohr mag/cell
     absolute magnetization    =     0.02 Bohr mag/cell

[...]

     iteration #  3     ecut=    29.40 Ry     beta= 0.05
     Davidson diagonalization with overlap
     ethr =  1.00E-02,  avg # of iterations = 15.7

[...]

     iteration # 60     ecut=    29.40 Ry     beta= 0.05
     Davidson diagonalization with overlap
     c_bands:  3 eigenvalues not converged
     c_bands:  1 eigenvalues not converged
     c_bands:  1 eigenvalues not converged
     ethr =  4.72E-11,  avg # of iterations = 17.0

[...]

     total energy              =   -2920.42459800 Ry
     estimated scf accuracy    <       0.00000030 Ry

[...]

     iteration # 63     ecut=    29.40 Ry     beta= 0.05
     Davidson diagonalization with overlap
     ethr =  4.72E-11,  avg # of iterations = 10.1

     negative rho (up, down):  9.092E-03 9.092E-03

[...]

     Adding external electric field

     Computed dipole along edir(3) :
        Dipole                0.6853 Ry au,          1.7419 Debye
        Dipole field          0.0013 Ry au,

        Potential amp.       -0.1199 Ry
        Total length         46.3494 bohr

     Magnetic moment per site  (integrated on atomic sphere of radius R)
     atom   1 (R=0.715)  charge=  7.8452  magn=  0.0044
     atom   2 (R=0.715)  charge=  7.8287  magn=  0.0002
     atom   3 (R=0.715)  charge=  4.8552  magn= -0.0003
     atom   4 (R=0.715)  charge=  4.8904  magn= -0.0001
     atom   5 (R=0.715)  charge=  4.8609  magn= -0.0001
     atom   6 (R=0.715)  charge=  4.8616  magn= -0.0001
     atom   7 (R=0.715)  charge=  7.8276  magn=  0.0002
     atom   8 (R=0.715)  charge=  7.8194  magn=  0.0010
     atom   9 (R=0.715)  charge=  4.8766  magn= -0.0000
     atom  10 (R=0.715)  charge=  4.8485  magn= -0.0001
     atom  11 (R=0.715)  charge=  4.8624  magn= -0.0000
     atom  12 (R=0.715)  charge=  4.8618  magn= -0.0000
     atom  13 (R=0.715)  charge=  7.8170  magn=  0.0002
     atom  14 (R=0.715)  charge=  7.8304  magn=  0.0001
     atom  15 (R=0.715)  charge=  4.8497  magn= -0.0000
     atom  16 (R=0.715)  charge=  4.8722  magn= -0.0000
     atom  17 (R=0.715)  charge=  4.8476  magn= -0.0000
     atom  18 (R=0.715)  charge=  4.8546  magn= -0.0000
     atom  19 (R=0.715)  charge=  7.8557  magn= -0.0000
     atom  20 (R=0.715)  charge=  7.8308  magn=  0.0001
     atom  21 (R=0.715)  charge=  4.7478  magn= -0.0002
     atom  22 (R=0.715)  charge=  4.8259  magn= -0.0000
     atom  23 (R=0.715)  charge=  4.8531  magn= -0.0005
     atom  24 (R=0.715)  charge=  4.8531  magn= -0.0005
     atom  25 (R=0.715)  charge=  7.8452  magn=  0.0042
     atom  26 (R=0.715)  charge=  7.8288  magn=  0.0002
     atom  27 (R=0.715)  charge=  4.8545  magn= -0.0003
     atom  28 (R=0.715)  charge=  4.8906  magn= -0.0001
     atom  29 (R=0.715)  charge=  4.8616  magn= -0.0001
     atom  30 (R=0.715)  charge=  4.8623  magn= -0.0001
     atom  31 (R=0.715)  charge=  7.8277  magn=  0.0002
     atom  32 (R=0.715)  charge=  7.8194  magn=  0.0010
     atom  33 (R=0.715)  charge=  4.8755  magn= -0.0000
     atom  34 (R=0.715)  charge=  4.8372  magn= -0.0001
     atom  35 (R=0.715)  charge=  4.8620  magn= -0.0000
     atom  36 (R=0.715)  charge=  4.8623  magn= -0.0000
     atom  37 (R=0.715)  charge=  7.8196  magn=  0.0002
     atom  38 (R=0.715)  charge=  7.8303  magn=  0.0001
     atom  39 (R=0.715)  charge=  4.8446  magn= -0.0000
     atom  40 (R=0.715)  charge=  4.8783  magn= -0.0000
     atom  41 (R=0.715)  charge=  4.8509  magn=  0.0000
     atom  42 (R=0.715)  charge=  4.8519  magn=  0.0000
     atom  43 (R=0.715)  charge=  7.8536  magn= -0.0000
     atom  44 (R=0.715)  charge=  7.8555  magn=  0.0000
     atom  45 (R=0.715)  charge=  4.7478  magn= -0.0002
     atom  46 (R=0.715)  charge=  4.8532  magn= -0.0005
     atom  47 (R=0.715)  charge=  4.8532  magn= -0.0005
     atom  48 (R=0.419)  charge=  0.4545  magn=  0.0000
     atom  49 (R=0.419)  charge=  1.3289  magn= -0.0000
     atom  50 (R=0.449)  charge=  0.8456  magn=  0.0000
     atom  51 (R=0.419)  charge=  0.4421  magn= -0.0000
     atom  52 (R=0.419)  charge=  0.4404  magn= -0.0000
     atom  53 (R=0.419)  charge=  0.4477  magn= -0.0000

     End of self-consistent calculation

 ------ SPIN UP ------------

          k = 0.0000 0.0000 0.0000 ( 18029 PWs)   bands (ev):

   -55.9993 -55.9875 -55.9652 -55.9513 -55.9022 -55.8378 -55.8377 -55.8033
   -55.7995 -55.7656 -55.7593 -55.7256 -55.5384 -55.2710 -54.9675 -54.9334
   -32.5463 -32.4782 -32.3494 -32.3392 -32.3148 -32.3001 -32.2925 -32.2501
   -32.2394 -32.2353 -32.2113 -32.2039 -32.1700 -32.1520 -32.1394 -32.1335
   -32.1298 -32.1002 -32.0775 -32.0571 -32.0481 -32.0408 -32.0251 -31.9982
   -31.9910 -31.9903 -31.9857 -31.9774 -31.9624 -31.9568 -31.9532 -31.9429
   -31.9358 -31.9290 -31.9124 -31.9068 -31.8717 -31.8077 -31.7093 -31.5458
   -31.5409 -31.4659 -31.3740 -31.2865 -31.2640 -31.1908 -31.1043 -30.9932
   -16.7552 -16.4718 -16.2924 -16.1491 -16.1172 -16.0317 -15.8307 -15.7039
   -15.6919 -15.5882 -15.5552 -15.5284 -15.5223 -15.4959 -15.4906 -15.4297
   -15.4278 -15.4140 -15.4047 -15.3480 -15.3234 -15.2701 -15.1909 -15.1577
   -15.1524 -15.1243 -15.0427 -15.0376 -14.5841 -14.1771 -13.4692 -13.3529
    -8.9234  -4.3638  -4.1263  -3.9519  -3.9124  -3.8972  -3.8472  -3.5932
    -3.5781  -3.3296  -3.2238  -3.1916  -3.1774  -3.1686  -3.1483  -3.1373
    -2.8909  -2.8237  -2.8092  -2.7873  -2.7793  -2.7731  -2.7610  -2.7604
    -2.7207  -2.6582  -2.5326  -2.4996  -2.4194  -2.3821  -2.3528  -2.3045
    -2.2603  -2.2533  -2.2427  -2.2237  -2.2110  -2.1872  -2.1706  -2.0368
    -1.9710  -1.8346  -1.8006  -1.7812  -1.5951  -1.5364  -1.4718  -1.4332
    -1.4198  -1.4127  -1.3810  -1.2992  -1.2078  -1.1517  -1.1418  -1.0852
    -1.0080  -0.9963  -0.8890  -0.8838  -0.8572  -0.7653  -0.7550  -0.7439
    -0.7245  -0.6577  -0.5562  -0.4791  -0.4345  -0.4043  -0.3737  -0.3040
    -0.2740  -0.1716  -0.1560  -0.1074  -0.1029  -0.0612  -0.0157  -0.0066
     0.0022   0.0102   0.0354   0.1778   0.2888   0.3437   0.3843   0.3900
     0.5445   0.5719   0.6690   0.7574   0.9823   1.0551   1.1483   1.2479
     1.3259   1.6261   1.6713   3.1461   3.2225   3.2798   3.2896   3.3916
     3.3978   3.5953   3.6074   3.6201   3.6882

[...]

          k =-0.0760-0.0000 0.0000 ( 17886 PWs)   bands (ev):

[...]

 ------ SPIN DOWN ----------

[...]

          k = 0.0380-0.0419 0.0000 ( 17876 PWs)   bands (ev):

[...]

          k =-0.0760-0.0839 0.0000 ( 17948 PWs)   bands (ev):

   -55.9744 -55.9735 -55.9704 -55.9678 -55.8972 -55.8427 -55.8208 -55.8194
   -55.7815 -55.7797 -55.7425 -55.7414 -55.5372 -55.2718 -54.9500 -54.9497
   -32.3511 -32.3475 -32.2901 -32.2895 -32.2807 -32.2694 -32.2683 -32.2598
   -32.1979 -32.1967 -32.1917 -32.1874 -32.1642 -32.1332 -32.1180 -32.1138
   -32.1010 -32.0978 -32.0927 -32.0925 -32.0918 -32.0821 -32.0797 -32.0486
   -32.0404 -32.0392 -32.0094 -31.9984 -31.9785 -31.9782 -31.9750 -31.9740
   -31.9572 -31.9566 -31.9547 -31.9519 -31.8766 -31.8100 -31.7046 -31.6101
   -31.5426 -31.4903 -31.2762 -31.2760 -31.1865 -31.1863 -31.1472 -31.1470
   -16.2090 -16.1739 -15.9371 -15.9260 -15.9192 -15.9037 -15.7577 -15.7109
   -15.6993 -15.6924 -15.6695 -15.6464 -15.5887 -15.5600 -15.5308 -15.5224
   -15.5163 -15.5140 -15.4523 -15.4472 -15.4242 -15.4173 -15.3035 -15.2997
   -15.2902 -15.2141 -15.1596 -15.0198 -14.7459 -14.2006 -13.4554 -13.4551
    -8.9281  -4.3754  -3.5031  -3.4629  -3.2731  -3.2493  -3.1778  -3.1612
    -3.1364  -3.0687  -2.9044  -2.8877  -2.8762  -2.8612  -2.8189  -2.8127
    -2.8023  -2.7896  -2.7829  -2.7641  -2.7306  -2.6980  -2.6596  -2.6521
    -2.6435  -2.6184  -2.6073  -2.5861  -2.5741  -2.5431  -2.5342  -2.5164
    -2.4869  -2.2252  -2.2054  -2.1945  -2.1233  -2.1166  -2.0833  -2.0653
    -2.0555  -2.0423  -1.9855  -1.8818  -1.7245  -1.6931  -1.6850  -1.6680
    -1.5851  -1.5758  -1.4221  -1.4008  -1.3804  -1.3436  -1.2897  -1.2668
    -1.2262  -1.1678  -1.1502  -1.0865  -1.0689  -1.0104  -0.9552  -0.9534
    -0.9325  -0.8568  -0.7754  -0.7596  -0.7465  -0.7075  -0.6976  -0.6103
    -0.5866  -0.4934  -0.4792  -0.4222  -0.3958  -0.2943  -0.1354  -0.0106
     0.0431   0.0691   0.1266   0.2252   0.2698   0.2811   0.3251   0.3312
     0.3931   0.4333   0.5466   0.5525   0.6273   0.7186   1.2628   1.4193
     1.4199   1.4906   1.4907   3.4117   3.4169   3.4642   3.4936   3.6511
     3.6557   3.6769   3.6780   3.8022   3.8192

     the Fermi energy is     3.1414 ev

!    total energy              =   -2920.42462961 Ry
     estimated scf accuracy    <       0.00000004 Ry
     smearing contrib. (-TS)   =      -0.02203138 Ry
     internal energy E=F+TS    =   -2920.40259823 Ry

     The total energy is F=E-TS. E is the sum of the following terms:
     one-electron contribution =  -24701.77203942 Ry
     hartree contribution      =   12435.50050437 Ry
     xc contribution           =    -480.87114802 Ry
     ewald contribution        =    9826.73919850 Ry
     electric field correction =       0.00088633 Ry

     total magnetization       =     0.02 Bohr mag/cell
     absolute magnetization    =     0.03 Bohr mag/cell

     convergence has been achieved in  63 iterations

     Forces acting on atoms (cartesian axes, Ry/au):

     atom    1 type  1   force =     0.00010868   -0.00026273    0.09689353
     atom    2 type  1   force =     0.00001932   -0.00054847   -0.17509794
     atom    3 type  2   force =     0.00013532   -0.00007890   -0.02544867
     atom    4 type  2   force =    -0.00000622   -0.00137382    0.05231223
     atom    5 type  2   force =    -0.01236273   -0.00013464    0.00302802
     atom    6 type  2   force =     0.01378156    0.00023144    0.00239122
     atom    7 type  1   force =     0.00059756    0.00033535   -0.01266380
     atom    8 type  1   force =     0.00047278    0.00593626    0.03106004
     atom    9 type  2   force =    -0.00033313    0.00024080    0.00042483
     atom   10 type  2   force =    -0.00269612    0.00069431   -0.01624900
     atom   11 type  2   force =    -0.00039667    0.00012170    0.00016827
     atom   12 type  2   force =     0.00013008    0.00013496    0.00019463
     atom   13 type  1   force =    -0.00014388    0.00021775    0.00024929
     atom   14 type  1   force =    -0.00002656   -0.00021063   -0.00015366
     atom   15 type  2   force =     0.00020517    0.00011671    0.00031915
     atom   16 type  2   force =    -0.00006658    0.00027371    0.00023416
     atom   17 type  2   force =    -0.00007856   -0.00021150   -0.00022375
     atom   18 type  2   force =     0.00035683   -0.00009510    0.00023665
     atom   19 type  1   force =    -0.00001721    0.00020018   -0.00007682
     atom   20 type  1   force =    -0.00005063    0.00001437   -0.00035941
     atom   21 type  2   force =     0.00006661   -0.00005874    0.10308726
     atom   22 type  2   force =    -0.00013774    0.00002071    0.00029056
     atom   23 type  2   force =    -0.07162609   -0.00015944   -0.02783955
     atom   24 type  2   force =     0.07155215    0.00032494   -0.02790001
     atom   25 type  1   force =     0.00011578   -0.00023992    0.09667986
     atom   26 type  1   force =     0.00012285   -0.00032527   -0.17526230
     atom   27 type  2   force =     0.00013452   -0.00023350   -0.02452604
     atom   28 type  2   force =     0.00002772   -0.00112769    0.05222569
     atom   29 type  2   force =    -0.01248353    0.00014667    0.00268291
     atom   30 type  2   force =     0.01379166    0.00069221    0.00202618
     atom   31 type  1   force =     0.00050016    0.00289717   -0.01338173
     atom   32 type  1   force =     0.00030216   -0.00821351    0.03147817
     atom   33 type  2   force =    -0.00005709   -0.00006449   -0.00009039
     atom   34 type  2   force =    -0.00183958    0.00055934   -0.02457044
     atom   35 type  2   force =    -0.00012546    0.00010456    0.00004568
     atom   36 type  2   force =    -0.00025309    0.00020574    0.00012027
     atom   37 type  1   force =    -0.00008073    0.00028341    0.00024184
     atom   38 type  1   force =    -0.00023177   -0.00003373   -0.00016873
     atom   39 type  2   force =     0.00006236    0.00022600   -0.00017775
     atom   40 type  2   force =    -0.00016916    0.00027021   -0.00014935
     atom   41 type  2   force =     0.00002116    0.00007087    0.00023869
     atom   42 type  2   force =    -0.00008515   -0.00003350    0.00042822
     atom   43 type  1   force =    -0.00018699   -0.00017690    0.00050471
     atom   44 type  1   force =     0.00030770   -0.00029723    0.00012876
     atom   45 type  2   force =     0.00004888   -0.00006303    0.10310801
     atom   46 type  2   force =    -0.07163412   -0.00008712   -0.02783678
     atom   47 type  2   force =     0.07156596    0.00033576   -0.02791187
     atom   48 type  3   force =    -0.00046402    0.00019875    0.00000352
     atom   49 type  4   force =     0.00039641    0.00016542   -0.00105303
     atom   50 type  5   force =    -0.00065569   -0.00098766    0.00074538
     atom   51 type  3   force =    -0.00049816   -0.00096287   -0.00048960
     atom   52 type  3   force =     0.00245699    0.00212317   -0.00071722
     atom   53 type  3   force =    -0.00057369   -0.00116208    0.00080012

     Total force =     0.368403     Total SCF correction =     0.000552
  @ DRIVER MODE: Message from server: STATUS
  @ DRIVER MODE: Message from server: GETFORCE
  @ DRIVER MODE: Returning v,forces,stress,ensemble

     Writing output data file ./calc.save/
  @ DRIVER MODE: Message from server: EXIT
  @ DRIVE MODE: Exiting

     General routines

     Parallel routines

   This run was terminated on:   5:24:52  16Jul2021

   JOB DONE.