     Program PWSCF v.6.7GPU starts on 16Sep2021 at  3:26:19

     R & G space division:  proc/nbgrp/npool/nimage =      10
     Reading input from /storage/home/hcoda1/3/ntian30/research/carbon/CxH_vib/H2O_calc/ads_slab/CH2NNHHH2O_a/out_0035/pw.inp
Warning: card &CELL ignored
Warning: card   CELL_DYNAMICS='IPI', ignored
Warning: card / ignored

     Current dimensions of program PWSCF are:
     Max number of different atomic species (ntypx) = 10
     Max number of k-points (npk) =  40000
     Max angular momentum in pseudopotentials (lmaxx) =  3
     Presently no symmetry can be used with electric field

     Message from routine cell_base_init:
     DEPRECATED: use true lattice parameter, not A to a.u. conversion factor

     IMPORTANT: XC functional enforced from input :
     Exchange-correlation= BEEF-VDW
                           (   1   4  43  14   2   0   0)
     Any further DFT definition will be discarded
     Please, verify this is what you really want

  @ DRIVER MODE: Connecting to
 qe_1139763_2852611.sched-torque.pace.gatech.edue69o9bd5_scratch
  using UNIX socket
  @ DRIVER MODE: Message from server: STATUS
  @ DRIVER MODE: Message from server: INIT
  @ DRIVER MODE: Receiving replica           0          -1
  @ DRIVER MODE: Receiving encoded integer          25
  @ DRIVER MODE:  SCF:  T  FORCE:  T  STRESS:  F  VC:  F  ENSEMBLE:  F
  @ DRIVER MODE:  SCF:  T  FORCE:  T  STRESS:  F  VC:  F  ENSEMBLE:  F

     Using Slab Decomposition

     bravais-lattice index     =            0
     lattice parameter (alat)  =       1.8897  a.u.
     unit-cell volume          =    6658.9804 (a.u.)^3
     number of atoms/cell      =           57
     number of atomic types    =            5
     number of electrons       =       404.00
     number of Kohn-Sham states=          212
     kinetic-energy cutoff     =      29.3995  Ry
     charge density cutoff     =     293.9946  Ry
     scf convergence threshold =      7.3E-08
     mixing beta               =       0.0500
     number of iterations used =            8  plain     mixing
     Exchange-correlation= BEEF-VDW
                           (   1   4  43  14   2   0   0)

     celldm(1)=   1.889726  celldm(2)=   0.000000  celldm(3)=   0.000000
     celldm(4)=   0.000000  celldm(5)=   0.000000  celldm(6)=   0.000000

     crystal axes: (cart. coord. in units of alat)
               a(1) = (   6.579727   0.000000   0.000000 )
               a(2) = (  -0.000775   5.961596   0.000000 )
               a(3) = (   0.000000   0.000000  25.155947 )

     reciprocal axes: (cart. coord. in units 2 pi/alat)
               b(1) = (  0.151982  0.000020  0.000000 )
               b(2) = (  0.000000  0.167740  0.000000 )
               b(3) = (  0.000000  0.000000  0.039752 )

     PseudoPot. # 1 for Ti read from file:
     /storage/coda1/p-amedford6/0/shared/rich_project_chbe-medford/medford-share/data/pseudos_module/espresso/nninc/pbe/van/Ti.UPF
     MD5 check sum: 8e4df49b7f0d34bbd5052bf3f5ea0213
     Pseudo is Ultrasoft, Zval = 12.0
     Generated by new atomic code, or converted to UPF format
     Using radial grid of  851 points,  6 beta functions with:
                l(1) =   0
                l(2) =   0
                l(3) =   1
                l(4) =   1
                l(5) =   2
                l(6) =   2
     Q(r) pseudized with  8 coefficients,  rinner =    1.000   1.000   1.000
                                                       1.000   1.000

     PseudoPot. # 2 for O  read from file:
     /storage/coda1/p-amedford6/0/shared/rich_project_chbe-medford/medford-share/data/pseudos_module/espresso/nninc/pbe/van/O.UPF
     MD5 check sum: 78c19812648e8988a0fe644b0f25305e
     Pseudo is Ultrasoft, Zval =  6.0
     Generated by new atomic code, or converted to UPF format
     Using radial grid of  737 points,  4 beta functions with:
                l(1) =   0
                l(2) =   0
                l(3) =   1
                l(4) =   1
     Q(r) pseudized with  8 coefficients,  rinner =    0.800   0.800   0.800

     PseudoPot. # 3 for N  read from file:
     /storage/coda1/p-amedford6/0/shared/rich_project_chbe-medford/medford-share/data/pseudos_module/espresso/nninc/pbe/van/N.UPF
     MD5 check sum: 90d10febe142ad51ac9d5be1deb811c4
     Pseudo is Ultrasoft, Zval =  5.0
     Generated by new atomic code, or converted to UPF format
     Using radial grid of  729 points,  4 beta functions with:
                l(1) =   0
                l(2) =   0
                l(3) =   1
                l(4) =   1
     Q(r) pseudized with  8 coefficients,  rinner =    0.800   0.800   0.800

     PseudoPot. # 4 for C  read from file:
     /storage/coda1/p-amedford6/0/shared/rich_project_chbe-medford/medford-share/data/pseudos_module/espresso/nninc/pbe/van/C.UPF
     MD5 check sum: 1a69bf6b8db32088f5b2163dbdb77a27
     Pseudo is Ultrasoft, Zval =  4.0
     Generated by new atomic code, or converted to UPF format
     Using radial grid of  721 points,  4 beta functions with:
                l(1) =   0
                l(2) =   0
                l(3) =   1
                l(4) =   1
     Q(r) pseudized with  8 coefficients,  rinner =    0.800   0.800   0.800

     PseudoPot. # 5 for H  read from file:
     /storage/coda1/p-amedford6/0/shared/rich_project_chbe-medford/medford-share/data/pseudos_module/espresso/nninc/pbe/van/H.UPF
     MD5 check sum: b5ee9d7bfd3a09ee7748110bda690ff7
     Pseudo is Ultrasoft, Zval =  1.0
     Generated by new atomic code, or converted to UPF format
     Using radial grid of  615 points,  1 beta functions with:
                l(1) =   0
     Q(r) pseudized with  8 coefficients,  rinner =    0.800

     atomic species   valence    mass     pseudopotential
        Ti1           12.00    47.86700     Ti( 1.00)
        O1             6.00    15.99900     O ( 1.00)
        N1             5.00    14.00700     N ( 1.00)
        C1             4.00    12.01100     C ( 1.00)
        H1             1.00     1.00800     H ( 1.00)

     No symmetry found

   Cartesian axes

     site n.     atom                  positions (alat units)
         1           Ti1 tau(   1) = (   0.0004258   2.9801865   6.0000000  )
         2           Ti1 tau(   2) = (   3.2906075   1.4906267   6.0002472  )
         3           O1  tau(   3) = (   0.0006271   0.0005054   7.9858123  )
         4           O1  tau(   4) = (   3.2906025   0.0005020   7.3038282  )
         5           O1  tau(   5) = (   4.5942328   1.4918067   9.2879030  )
         6           O1  tau(   6) = (   1.9868534   1.4903216   9.2879459  )
         7           Ti1 tau(   7) = (   3.2907910   2.8959150   9.1758416  )
         8           Ti1 tau(   8) = (   0.0015273   1.4827037   9.2680791  )
         9           O1  tau(   9) = (   3.3121314   5.9338840  11.3691909  )
        10           O1  tau(  10) = (   0.0116148   5.9584955  10.6183126  )
        11           O1  tau(  11) = (   1.3134021   1.4784130  12.6451072  )
        12           O1  tau(  12) = (   5.3172625   1.4801399  12.6491864  )
        13           Ti1 tau(  13) = (   0.0380378   2.9573341  12.5222382  )
        14           Ti1 tau(  14) = (   3.3404755   1.4532591  12.5245293  )
        15           O1  tau(  15) = (   0.0239237   0.0366503  14.6894071  )
        16           O1  tau(  16) = (   3.3255740   5.9570089  14.0129324  )
        17           O1  tau(  17) = (   4.5846449   1.4795273  16.1858442  )
        18           O1  tau(  18) = (   2.0539891   1.4908220  16.1938258  )
        19           Ti1 tau(  19) = (   3.3028508   2.9322526  15.7076921  )
        20           Ti1 tau(  20) = (   0.0088316   1.3655950  16.0522487  )
        21           O1  tau(  21) = (   3.2904802   0.0005063   4.7018136  )
        22           O1  tau(  22) = (   0.0586005   5.8320325  17.2288864  )
        23           O1  tau(  23) = (   1.3043587   1.4918075   6.0039043  )
        24           O1  tau(  24) = (   5.2767064   1.4903225   6.0039473  )
        25           Ti1 tau(  25) = (   0.0000382   5.9609847   6.0000000  )
        26           Ti1 tau(  26) = (   3.2902200   4.4714249   6.0002472  )
        27           O1  tau(  27) = (   0.0002396   2.9813036   7.9858123  )
        28           O1  tau(  28) = (   3.2902150   2.9813002   7.3038282  )
        29           O1  tau(  29) = (   4.5938453   4.4726049   9.2879030  )
        30           O1  tau(  30) = (   1.9864658   4.4711199   9.2879459  )
        31           Ti1 tau(  31) = (   3.2891106   5.8743827   9.1763621  )
        32           Ti1 tau(  32) = (   0.0006254   4.4649316   9.2693709  )
        33           O1  tau(  33) = (   3.3142679   2.9660735  11.3641874  )
        34           O1  tau(  34) = (   0.0092240   2.9805883  10.6323155  )
        35           O1  tau(  35) = (   1.3108675   4.4558178  12.6782323  )
        36           O1  tau(  36) = (   5.3175068   4.4537340  12.6790822  )
        37           Ti1 tau(  37) = (   0.0418451   5.9490355  12.4996082  )
        38           Ti1 tau(  38) = (   3.3402151   4.4429940  12.5219265  )
        39           O1  tau(  39) = (   0.0332256   2.9148708  14.9327709  )
        40           O1  tau(  40) = (   3.3156017   2.9437717  13.9283311  )
        41           O1  tau(  41) = (   4.5915719   4.3868214  16.1197993  )
        42           O1  tau(  42) = (   2.0539401   4.4017640  16.0846163  )
        43           Ti1 tau(  43) = (   3.3369130   5.9116756  15.8392261  )
        44           Ti1 tau(  44) = (   0.0533093   4.5818758  15.8415549  )
        45           O1  tau(  45) = (   3.2900926   2.9813045   4.7018136  )
        46           O1  tau(  46) = (   1.3039711   4.4726057   6.0039043  )
        47           O1  tau(  47) = (   5.2763189   4.4711207   6.0039473  )
        48           N1  tau(  48) = (   6.5287229   2.7802708  18.1865785  )
        49           C1  tau(  49) = (   0.9724842   2.7744648  18.9576868  )
        50           H1  tau(  50) = (   0.9153086   3.0669255  20.0057840  )
        51           H1  tau(  51) = (   1.9225290   2.4867234  18.5393133  )
        52           N1  tau(  52) = (   5.2958906   3.1014149  18.7352402  )
        53           H1  tau(  53) = (   5.3913054   3.6367428  19.5874321  )
        54           H1  tau(  54) = (   4.7863746   3.6605970  18.0522289  )
        55           O1  tau(  55) = (   3.2511457   5.8152340  18.3397965  )
        56           H1  tau(  56) = (   3.7467739   0.6636339  18.5518981  )
        57           H1  tau(  57) = (   2.3053106   0.0674530  18.4201010  )

     number of k points=    10  Fermi-Dirac smearing, width (Ry)=  0.0073
                       cart. coord. in units 2pi/alat
        k(    1) = (   0.0000000   0.0000000   0.0000000), wk =   0.1250000
        k(    2) = (   0.0000000   0.0419351   0.0000000), wk =   0.2500000
        k(    3) = (   0.0000000  -0.0838702   0.0000000), wk =   0.1250000
        k(    4) = (   0.0379955   0.0000049   0.0000000), wk =   0.2500000
        k(    5) = (   0.0379955   0.0419400   0.0000000), wk =   0.2500000
        k(    6) = (   0.0379955  -0.0838652   0.0000000), wk =   0.2500000
        k(    7) = (   0.0379955  -0.0419301   0.0000000), wk =   0.2500000
        k(    8) = (  -0.0759910  -0.0000099   0.0000000), wk =   0.1250000
        k(    9) = (  -0.0759910   0.0419252   0.0000000), wk =   0.2500000
        k(   10) = (  -0.0759910  -0.0838800   0.0000000), wk =   0.1250000

     Initial potential from superposition of free atoms

     starting charge  387.99913, renormalised to  404.00000

     negative rho (up, down):  1.528E-02 0.000E+00

     %%%%%%%%%%%%%%%%%%%%%%%%%%%%%%%%%%%%%%%%%%%%%%%%%%%%%%%%%%%%%%%%%%%%%%%%
     %                                                                      %
     % You are using vdW-DF, which was implemented by the Thonhauser group. %
     % Please cite the following two papers that made this development      %
     % possible and the two reviews that describe the various versions:     %
     %                                                                      %
     %   T. Thonhauser et al., PRL 115, 136402 (2015).                      %
     %   T. Thonhauser et al., PRB 76, 125112 (2007).                       %
     %   K. Berland et al., Rep. Prog. Phys. 78, 066501 (2015).             %
     %   D.C. Langreth et al., J. Phys.: Condens. Matter 21, 084203 (2009). %
     %                                                                      %
     %                                                                      %
     % If you are calculating the stress with vdW-DF, please also cite:     %
     %                                                                      %
     %   R. Sabatini et al., J. Phys.: Condens. Matter 24, 424209 (2012).   %
     %                                                                      %
     %%%%%%%%%%%%%%%%%%%%%%%%%%%%%%%%%%%%%%%%%%%%%%%%%%%%%%%%%%%%%%%%%%%%%%%%

     Adding external electric field

     Computed dipole along edir(3) :
        Dipole              -14.3236 Ry au,        -36.4070 Debye
        Dipole field         -0.0270 Ry au,

        Potential amp.        2.5057 Ry
        Total length         46.3494 bohr

     Starting wfcs are  306 atomic wfcs
  @ DRIVER MODE: Message from server: STATUS
  @ DRIVER MODE: Message from server: POSDATA
  @ DRIVER MODE: Reading and sharing cell
  @ DRIVER MODE: Reading and sharing positions
  @ DRIVER MODE: Received positions

     Self-consistent Calculation

     iteration #  1     ecut=    29.40 Ry     beta= 0.05
     Davidson diagonalization with overlap
     c_bands:  4 eigenvalues not converged
     c_bands:  3 eigenvalues not converged
     c_bands:  5 eigenvalues not converged
     c_bands:  1 eigenvalues not converged
     c_bands:  2 eigenvalues not converged
     c_bands:  1 eigenvalues not converged
     c_bands:  2 eigenvalues not converged
     c_bands:  4 eigenvalues not converged
     c_bands:  5 eigenvalues not converged
     ethr =  1.00E-05,  avg # of iterations = 24.6

[...]

     total energy              =   -2233.91596140 Ry
     estimated scf accuracy    <    8445.26753125 Ry

     iteration #  2     ecut=    29.40 Ry     beta= 0.05
     Davidson diagonalization with overlap
     ethr =  1.00E-02,  avg # of iterations = 27.0

[...]

     iteration # 66     ecut=    29.40 Ry     beta= 0.05
     Davidson diagonalization with overlap
     ethr =  1.16E-10,  avg # of iterations =  7.1

[...]

     total energy              =   -2975.20584783 Ry
     estimated scf accuracy    <       0.00000072 Ry

     iteration # 68     ecut=    29.40 Ry     beta= 0.05
     Davidson diagonalization with overlap
     c_bands:  3 eigenvalues not converged
     ethr =  4.36E-11,  avg # of iterations = 12.0

     negative rho (up, down):  1.521E-02 0.000E+00

     Adding external electric field

     Computed dipole along edir(3) :
        Dipole                1.4006 Ry au,          3.5599 Debye
        Dipole field          0.0026 Ry au,

        Potential amp.       -0.2450 Ry
        Total length         46.3494 bohr

     End of self-consistent calculation

          k = 0.0000 0.0000 0.0000 ( 18029 PWs)   bands (ev):

   -55.1890 -55.1531 -55.1494 -55.1153 -55.1015 -55.0696 -55.0358 -55.0316
   -55.0078 -54.9786 -54.9728 -54.9697 -54.9451 -54.8745 -54.1726 -54.1386
   -31.7543 -31.6410 -31.5996 -31.5582 -31.5078 -31.4972 -31.4904 -31.4832
   -31.4383 -31.4041 -31.4004 -31.3939 -31.3920 -31.3656 -31.3430 -31.3339
   -31.3330 -31.3267 -31.3072 -31.3012 -31.2819 -31.2773 -31.2624 -31.2486
   -31.2377 -31.2355 -31.2147 -31.2083 -31.2064 -31.1998 -31.1940 -31.1763
   -31.1715 -31.1610 -31.1561 -31.1433 -31.1219 -31.1182 -31.1067 -31.0899
   -31.0891 -31.0042 -30.5816 -30.4882 -30.4661 -30.3981 -30.3113 -30.2003
   -18.9179 -18.5561 -16.0149 -15.7497 -15.6138 -15.5037 -15.3879 -15.2583
   -15.2106 -15.0794 -15.0198 -14.9064 -14.8785 -14.8364 -14.8173 -14.8119
   -14.7539 -14.7264 -14.7195 -14.6943 -14.6840 -14.6627 -14.6233 -14.6170
   -14.5810 -14.5704 -14.5663 -14.4213 -14.3437 -14.2794 -13.9686 -13.6880
   -12.6748 -12.5575  -8.8178  -6.7061  -6.4734  -6.0714  -4.1461  -3.3580
    -3.2024  -3.1898  -3.1267  -3.0860  -3.0739  -3.0098  -2.9399  -2.7368
    -2.6019  -2.5748  -2.4558  -2.3897  -2.3852  -2.3322  -2.1892  -2.1847
    -2.1294  -2.0899  -2.0397  -2.0196  -1.9962  -1.9725  -1.9387  -1.9193
    -1.8924  -1.7577  -1.7378  -1.6640  -1.6016  -1.5909  -1.5328  -1.5090
    -1.4901  -1.4848  -1.4760  -1.4640  -1.4249  -1.4113  -1.3679  -1.3106
    -1.2080  -1.1189  -1.0270  -0.9484  -0.8855  -0.8235  -0.7620  -0.7529
    -0.6759  -0.6635  -0.5723  -0.5491  -0.5186  -0.4057  -0.3438  -0.3391
    -0.2757  -0.1739  -0.1453  -0.1294  -0.0579   0.0203   0.0392   0.0469
     0.0551   0.1787   0.2318   0.2638   0.2974   0.3683   0.3899   0.4385
     0.4860   0.4924   0.5719   0.6312   0.6854   0.7342   0.7526   0.7767
     0.7943   0.8039   0.8213   0.9027   0.9254   0.9580   1.0116   1.1672
     1.3263   1.4261   1.4422   1.7602   1.7734   1.8506   2.0350   2.4256
     2.4736   3.9069   3.9838   4.0427   4.0490   4.0582   4.1441   4.3886
     4.4042   4.4170   4.4292   4.4729

[...]

          k = 0.0380-0.0419 0.0000 ( 17876 PWs)   bands (ev):

[...]

          k =-0.0760-0.0000 0.0000 ( 17886 PWs)   bands (ev):

[...]

          k =-0.0760-0.0839 0.0000 ( 17948 PWs)   bands (ev):

   -55.1719 -55.1700 -55.1323 -55.1322 -55.0992 -55.0587 -55.0425 -55.0337
   -54.9933 -54.9867 -54.9719 -54.9621 -54.9618 -54.8764 -54.1556 -54.1555
   -31.5637 -31.5535 -31.5245 -31.4561 -31.4560 -31.4498 -31.4409 -31.4237
   -31.4236 -31.4025 -31.3919 -31.3891 -31.3767 -31.3508 -31.3264 -31.3209
   -31.3207 -31.3204 -31.3180 -31.3087 -31.3032 -31.2847 -31.2714 -31.2687
   -31.2546 -31.2518 -31.2517 -31.2510 -31.2412 -31.2368 -31.2268 -31.2255
   -31.2174 -31.2065 -31.2006 -31.1908 -31.1896 -31.1530 -31.1423 -31.1419
   -31.0981 -31.0905 -30.4788 -30.4787 -30.3942 -30.3940 -30.3547 -30.3547
   -18.9155 -18.5554 -15.5320 -15.4854 -15.3300 -15.1956 -15.1924 -15.1522
   -15.0966 -15.0250 -15.0041 -14.9609 -14.9501 -14.9315 -14.8949 -14.8874
   -14.8613 -14.7904 -14.7809 -14.7725 -14.7387 -14.6996 -14.6889 -14.6875
   -14.6707 -14.6409 -14.6377 -14.5402 -14.5380 -14.4459 -14.3083 -13.7033
   -12.6591 -12.6589  -8.7826  -6.7057  -6.4228  -6.0986  -4.1899  -3.2135
    -2.9350  -2.7496  -2.6441  -2.5422  -2.4151  -2.4093  -2.3240  -2.3155
    -2.2347  -2.2003  -2.1881  -2.1725  -2.0813  -2.0678  -2.0576  -2.0357
    -2.0192  -2.0013  -1.9695  -1.9634  -1.9398  -1.9130  -1.9027  -1.9012
    -1.8818  -1.8489  -1.8176  -1.7987  -1.7781  -1.7475  -1.7362  -1.6690
    -1.6284  -1.5404  -1.5055  -1.3905  -1.3887  -1.3665  -1.3119  -1.2917
    -1.2705  -1.2215  -1.2123  -1.1665  -1.0238  -0.9375  -0.9266  -0.8886
    -0.8396  -0.7910  -0.7439  -0.7285  -0.6624  -0.6416  -0.5484  -0.5332
    -0.4305  -0.3898  -0.3779  -0.3621  -0.2798  -0.2153  -0.1686  -0.1485
    -0.1440  -0.0935  -0.0792  -0.0659   0.0057   0.0531   0.0769   0.0914
     0.1328   0.3013   0.3616   0.3749   0.4940   0.5430   0.6451   0.7065
     0.7824   0.8034   0.8397   0.9302   0.9366   1.0132   1.1080   1.1220
     1.1579   1.2027   1.2515   1.2744   1.2793   2.2079   2.2092   2.2935
     2.2937   4.0508   4.1269   4.1850   4.2329   4.2413   4.3624   4.4242
     4.4668   4.4890   4.4914   4.5657

     the Fermi energy is     3.9650 ev

!    total energy              =   -2975.20588339 Ry
     estimated scf accuracy    <       0.00000005 Ry
     smearing contrib. (-TS)   =      -0.03732342 Ry
     internal energy E=F+TS    =   -2975.16855997 Ry

     The total energy is F=E-TS. E is the sum of the following terms:
     one-electron contribution =  -23538.68273220 Ry
     hartree contribution      =   11867.35273171 Ry
     xc contribution           =    -494.97950342 Ry
     ewald contribution        =    9191.13724223 Ry
     electric field correction =       0.00370172 Ry

     convergence has been achieved in  68 iterations

     Forces acting on atoms (cartesian axes, Ry/au):

     atom    1 type  1   force =     0.00005667   -0.00019534    0.09360746
     atom    2 type  1   force =    -0.00020111   -0.00020986   -0.17801541
     atom    3 type  2   force =     0.00011000   -0.00020495   -0.02065853
     atom    4 type  2   force =     0.00004823   -0.00197831    0.05807046
     atom    5 type  2   force =    -0.01003003   -0.00166954    0.00693068
     atom    6 type  2   force =     0.01217682   -0.00103821    0.00744408
     atom    7 type  1   force =     0.00022747    0.00249173   -0.01210445
     atom    8 type  1   force =    -0.00049490    0.00202582   -0.00193982
     atom    9 type  2   force =     0.00006916    0.00006136   -0.00005710
     atom   10 type  2   force =    -0.00044399   -0.00135156   -0.00317107
     atom   11 type  2   force =     0.00016040   -0.00007411   -0.00008253
     atom   12 type  2   force =    -0.00067011   -0.00011445    0.00007638
     atom   13 type  1   force =     0.00051187    0.00098504    0.00024911
     atom   14 type  1   force =    -0.00140332    0.00026992    0.00016026
     atom   15 type  2   force =    -0.00018437    0.00093268    0.00022306
     atom   16 type  2   force =    -0.00001184   -0.00043441    0.00014192
     atom   17 type  2   force =     0.00070643    0.00003061   -0.00023592
     atom   18 type  2   force =     0.00055120    0.00014452   -0.00035078
     atom   19 type  1   force =    -0.00117368    0.00093056    0.00050684
     atom   20 type  1   force =     0.00060806    0.00001869   -0.00081796
     atom   21 type  2   force =     0.00001505   -0.00002064    0.10386359
     atom   22 type  2   force =     0.00006071    0.00085445   -0.00004048
     atom   23 type  2   force =    -0.07052904   -0.00011604   -0.02696400
     atom   24 type  2   force =     0.07046737    0.00031181   -0.02702673
     atom   25 type  1   force =     0.00001750   -0.00018925    0.09306745
     atom   26 type  1   force =    -0.00009094   -0.00048409   -0.17793525
     atom   27 type  2   force =     0.00017163   -0.00036566   -0.01954439
     atom   28 type  2   force =     0.00011070   -0.00160481    0.05714920
     atom   29 type  2   force =    -0.01008055   -0.00085906    0.00630868
     atom   30 type  2   force =     0.01214264   -0.00061328    0.00686837
     atom   31 type  1   force =     0.00031930    0.00503670   -0.01527899
     atom   32 type  1   force =    -0.00039257   -0.00267257   -0.00236668
     atom   33 type  2   force =    -0.00003060   -0.00025721   -0.00005242
     atom   34 type  2   force =     0.00046315    0.00031407   -0.00055580
     atom   35 type  2   force =    -0.00011348   -0.00037357   -0.00008090
     atom   36 type  2   force =    -0.00045182   -0.00036694    0.00023566
     atom   37 type  1   force =     0.00026539   -0.00103623    0.00051474
     atom   38 type  1   force =    -0.00122332    0.00025096    0.00127476
     atom   39 type  2   force =    -0.00012546   -0.00047258    0.00025815
     atom   40 type  2   force =     0.00003044   -0.00041850    0.00044469
     atom   41 type  2   force =    -0.00017129    0.00000382    0.00006797
     atom   42 type  2   force =     0.00128520   -0.00025753    0.00006089
     atom   43 type  1   force =    -0.00121760   -0.00069793   -0.00007789
     atom   44 type  1   force =     0.00095220    0.00058133   -0.00004653
     atom   45 type  2   force =     0.00004153   -0.00002150    0.10380075
     atom   46 type  2   force =    -0.07055580   -0.00007832   -0.02697407
     atom   47 type  2   force =     0.07046423    0.00038883   -0.02700287
     atom   48 type  3   force =    -0.00012451   -0.00045772    0.00018441
     atom   49 type  4   force =     0.00037126    0.00067333   -0.00011491
     atom   50 type  5   force =    -0.00041732   -0.00000552   -0.00052610
     atom   51 type  5   force =    -0.00039450   -0.00002579   -0.00005977
     atom   52 type  3   force =    -0.00198825   -0.00491971   -0.01094569
     atom   53 type  5   force =     0.00167438    0.00710703    0.01177302
     atom   54 type  5   force =    -0.00065643    0.00004722   -0.00047528
     atom   55 type  2   force =    -0.00053145    0.00074324   -0.00009420
     atom   56 type  5   force =    -0.00038439   -0.00037366    0.00081059
     atom   57 type  5   force =     0.00001368   -0.00024486   -0.00049666

     Total force =     0.366187     Total SCF correction =     0.000530
  @ DRIVER MODE: Message from server: STATUS
  @ DRIVER MODE: Message from server: GETFORCE
  @ DRIVER MODE: Returning v,forces,stress,ensemble

     Writing output data file ./calc.save/
  @ DRIVER MODE: Message from server: EXIT
  @ DRIVE MODE: Exiting

     General routines

     Parallel routines

   This run was terminated on:   3:45:39  16Sep2021

   JOB DONE.