     Program PWSCF v.6.7GPU starts on 22Sep2021 at 22:47: 8

     R & G space division:  proc/nbgrp/npool/nimage =       8
     Reading input from /storage/home/hcoda1/3/ntian30/research/carbon/CxH_vib/H2O_calc/ads_slab/CH3N2HHO_a/out_0002/pw.inp
Warning: card &CELL ignored
Warning: card   CELL_DYNAMICS='IPI', ignored
Warning: card / ignored

     Current dimensions of program PWSCF are:
     Max number of different atomic species (ntypx) = 10
     Max number of k-points (npk) =  40000
     Max angular momentum in pseudopotentials (lmaxx) =  3
     Presently no symmetry can be used with electric field

     Message from routine cell_base_init:
     DEPRECATED: use true lattice parameter, not A to a.u. conversion factor

     IMPORTANT: XC functional enforced from input :
     Exchange-correlation= BEEF-VDW
                           (   1   4  43  14   2   0   0)
     Any further DFT definition will be discarded
     Please, verify this is what you really want

  @ DRIVER MODE: Connecting to
 qe_1139763_2941009.sched-torque.pace.gatech.eduh0q7efbo_scratch
  using UNIX socket
  @ DRIVER MODE: Message from server: STATUS
  @ DRIVER MODE: Message from server: INIT
  @ DRIVER MODE: Receiving replica           0          -1
  @ DRIVER MODE: Receiving encoded integer          25
  @ DRIVER MODE:  SCF:  T  FORCE:  T  STRESS:  F  VC:  F  ENSEMBLE:  F
  @ DRIVER MODE:  SCF:  T  FORCE:  T  STRESS:  F  VC:  F  ENSEMBLE:  F

     Using Slab Decomposition

     bravais-lattice index     =            0
     lattice parameter (alat)  =       1.8897  a.u.
     unit-cell volume          =    6658.9804 (a.u.)^3
     number of atoms/cell      =           56
     number of atomic types    =            5
     number of electrons       =       403.00
     number of Kohn-Sham states=          211
     kinetic-energy cutoff     =      29.3995  Ry
     charge density cutoff     =     293.9946  Ry
     scf convergence threshold =      7.3E-08
     mixing beta               =       0.0500
     number of iterations used =            8  plain     mixing
     Exchange-correlation= BEEF-VDW
                           (   1   4  43  14   2   0   0)

     celldm(1)=   1.889726  celldm(2)=   0.000000  celldm(3)=   0.000000
     celldm(4)=   0.000000  celldm(5)=   0.000000  celldm(6)=   0.000000

     crystal axes: (cart. coord. in units of alat)
               a(1) = (   6.579727   0.000000   0.000000 )
               a(2) = (  -0.000775   5.961596   0.000000 )
               a(3) = (   0.000000   0.000000  25.155947 )

     reciprocal axes: (cart. coord. in units 2 pi/alat)
               b(1) = (  0.151982  0.000020  0.000000 )
               b(2) = (  0.000000  0.167740  0.000000 )
               b(3) = (  0.000000  0.000000  0.039752 )

     PseudoPot. # 1 for Ti read from file:
     /storage/coda1/p-amedford6/0/shared/rich_project_chbe-medford/medford-share/data/pseudos_module/espresso/nninc/pbe/van/Ti.UPF
     MD5 check sum: 8e4df49b7f0d34bbd5052bf3f5ea0213
     Pseudo is Ultrasoft, Zval = 12.0
     Generated by new atomic code, or converted to UPF format
     Using radial grid of  851 points,  6 beta functions with:
                l(1) =   0
                l(2) =   0
                l(3) =   1
                l(4) =   1
                l(5) =   2
                l(6) =   2
     Q(r) pseudized with  8 coefficients,  rinner =    1.000   1.000   1.000
                                                       1.000   1.000

     PseudoPot. # 2 for O  read from file:
     /storage/coda1/p-amedford6/0/shared/rich_project_chbe-medford/medford-share/data/pseudos_module/espresso/nninc/pbe/van/O.UPF
     MD5 check sum: 78c19812648e8988a0fe644b0f25305e
     Pseudo is Ultrasoft, Zval =  6.0
     Generated by new atomic code, or converted to UPF format
     Using radial grid of  737 points,  4 beta functions with:
                l(1) =   0
                l(2) =   0
                l(3) =   1
                l(4) =   1
     Q(r) pseudized with  8 coefficients,  rinner =    0.800   0.800   0.800

     PseudoPot. # 3 for N  read from file:
     /storage/coda1/p-amedford6/0/shared/rich_project_chbe-medford/medford-share/data/pseudos_module/espresso/nninc/pbe/van/N.UPF
     MD5 check sum: 90d10febe142ad51ac9d5be1deb811c4
     Pseudo is Ultrasoft, Zval =  5.0
     Generated by new atomic code, or converted to UPF format
     Using radial grid of  729 points,  4 beta functions with:
                l(1) =   0
                l(2) =   0
                l(3) =   1
                l(4) =   1
     Q(r) pseudized with  8 coefficients,  rinner =    0.800   0.800   0.800

     PseudoPot. # 4 for C  read from file:
     /storage/coda1/p-amedford6/0/shared/rich_project_chbe-medford/medford-share/data/pseudos_module/espresso/nninc/pbe/van/C.UPF
     MD5 check sum: 1a69bf6b8db32088f5b2163dbdb77a27
     Pseudo is Ultrasoft, Zval =  4.0
     Generated by new atomic code, or converted to UPF format
     Using radial grid of  721 points,  4 beta functions with:
                l(1) =   0
                l(2) =   0
                l(3) =   1
                l(4) =   1
     Q(r) pseudized with  8 coefficients,  rinner =    0.800   0.800   0.800

     PseudoPot. # 5 for H  read from file:
     /storage/coda1/p-amedford6/0/shared/rich_project_chbe-medford/medford-share/data/pseudos_module/espresso/nninc/pbe/van/H.UPF
     MD5 check sum: b5ee9d7bfd3a09ee7748110bda690ff7
     Pseudo is Ultrasoft, Zval =  1.0
     Generated by new atomic code, or converted to UPF format
     Using radial grid of  615 points,  1 beta functions with:
                l(1) =   0
     Q(r) pseudized with  8 coefficients,  rinner =    0.800

     atomic species   valence    mass     pseudopotential
        Ti1           12.00    47.86700     Ti( 1.00)
        O1             6.00    15.99900     O ( 1.00)
        N1             5.00    14.00700     N ( 1.00)
        C1             4.00    12.01100     C ( 1.00)
        H1             1.00     1.00800     H ( 1.00)

     No symmetry found

   Cartesian axes

     site n.     atom                  positions (alat units)
         1           Ti1 tau(   1) = (   0.0004258   2.9801865   6.0000000  )
         2           Ti1 tau(   2) = (   3.2906075   1.4906267   6.0002472  )
         3           O1  tau(   3) = (   0.0006271   0.0005054   7.9858123  )
         4           O1  tau(   4) = (   3.2906025   0.0005020   7.3038282  )
         5           O1  tau(   5) = (   4.5942328   1.4918067   9.2879030  )
         6           O1  tau(   6) = (   1.9868534   1.4903216   9.2879459  )
         7           Ti1 tau(   7) = (   3.2907910   2.8959150   9.1758416  )
         8           Ti1 tau(   8) = (   0.0015273   1.4827037   9.2680791  )
         9           O1  tau(   9) = (   3.2827749   5.9542966  11.3123607  )
        10           O1  tau(  10) = (   0.0116148   5.9584955  10.6183126  )
        11           O1  tau(  11) = (   1.2790800   1.4852124  12.6463597  )
        12           O1  tau(  12) = (   5.2943908   1.4901875  12.6352807  )
        13           Ti1 tau(  13) = (   6.5507123   3.1127926  12.6266869  )
        14           Ti1 tau(  14) = (   3.2873181   1.3120036  12.6863921  )
        15           O1  tau(  15) = (   6.5656690   0.0172326  14.6855350  )
        16           O1  tau(  16) = (   3.2842416   0.0515509  13.9244022  )
        17           O1  tau(  17) = (   4.5437539   1.5966601  16.0680646  )
        18           O1  tau(  18) = (   2.0303991   1.5956099  16.0781401  )
        19           Ti1 tau(  19) = (   3.2961159   3.0594788  15.6697774  )
        20           Ti1 tau(  20) = (   6.5318457   1.5630605  15.7780207  )
        21           O1  tau(  21) = (   3.2904802   0.0005063   4.7018136  )
        22           O1  tau(  22) = (   6.5726385   0.0820865  17.2550913  )
        23           O1  tau(  23) = (   1.3043587   1.4918075   6.0039043  )
        24           O1  tau(  24) = (   5.2767064   1.4903225   6.0039473  )
        25           Ti1 tau(  25) = (   0.0000382   5.9609847   6.0000000  )
        26           Ti1 tau(  26) = (   3.2902200   4.4714249   6.0002472  )
        27           O1  tau(  27) = (   0.0002396   2.9813036   7.9858123  )
        28           O1  tau(  28) = (   3.2902150   2.9813002   7.3038282  )
        29           O1  tau(  29) = (   4.5938453   4.4726049   9.2879030  )
        30           O1  tau(  30) = (   1.9864658   4.4711199   9.2879459  )
        31           Ti1 tau(  31) = (   3.2891106   5.8743827   9.1763621  )
        32           Ti1 tau(  32) = (   0.0006254   4.4649316   9.2693709  )
        33           O1  tau(  33) = (   3.2807365   3.0201584  11.2787527  )
        34           O1  tau(  34) = (   0.0092240   2.9805883  10.6323155  )
        35           O1  tau(  35) = (   1.2751182   4.4744369  12.6357194  )
        36           O1  tau(  36) = (   5.2842299   4.4734050  12.6250694  )
        37           Ti1 tau(  37) = (   0.0094520   0.1224552  12.5707632  )
        38           Ti1 tau(  38) = (   3.2670701   4.4034752  12.4162930  )
        39           O1  tau(  39) = (   6.5622168   3.0106679  14.6773207  )
        40           O1  tau(  40) = (   3.2891587   3.0115246  13.8909557  )
        41           O1  tau(  41) = (   4.5321968   4.4927823  16.1577793  )
        42           O1  tau(  42) = (   2.0250423   4.4919485  16.1304878  )
        43           Ti1 tau(  43) = (   3.2250977   0.0853664  16.3312049  )
        44           Ti1 tau(  44) = (   6.5532039   4.7053171  16.1332850  )
        45           O1  tau(  45) = (   3.2900926   2.9813045   4.7018136  )
        46           O1  tau(  46) = (   1.3039711   4.4726057   6.0039043  )
        47           O1  tau(  47) = (   5.2763189   4.4711207   6.0039473  )
        48           N1  tau(  48) = (   0.0750423   2.5931692  18.6004617  )
        49           N1  tau(  49) = (   0.0051179   2.9528117  17.3995676  )
        50           C1  tau(  50) = (   0.1360749   3.5155665  19.7334966  )
        51           H1  tau(  51) = (   6.1082608   4.3937080  19.5213757  )
        52           H1  tau(  52) = (   6.3628389   3.0028702  20.6266755  )
        53           H1  tau(  53) = (   1.1699357   3.8405576  19.8861820  )
        54           H1  tau(  54) = (   0.1060244   1.5775976  18.7788705  )
        55           O1  tau(  55) = (   3.2396048   0.1449850  18.2004881  )
        56           H1  tau(  56) = (   3.4111690   5.2654565  18.6466900  )

     number of k points=    10  Fermi-Dirac smearing, width (Ry)=  0.0073
                       cart. coord. in units 2pi/alat
        k(    1) = (   0.0000000   0.0000000   0.0000000), wk =   0.1250000
        k(    2) = (   0.0000000   0.0419351   0.0000000), wk =   0.2500000
        k(    3) = (   0.0000000  -0.0838702   0.0000000), wk =   0.1250000
        k(    4) = (   0.0379955   0.0000049   0.0000000), wk =   0.2500000
        k(    5) = (   0.0379955   0.0419400   0.0000000), wk =   0.2500000
        k(    6) = (   0.0379955  -0.0838652   0.0000000), wk =   0.2500000
        k(    7) = (   0.0379955  -0.0419301   0.0000000), wk =   0.2500000
        k(    8) = (  -0.0759910  -0.0000099   0.0000000), wk =   0.1250000
        k(    9) = (  -0.0759910   0.0419252   0.0000000), wk =   0.2500000
        k(   10) = (  -0.0759910  -0.0838800   0.0000000), wk =   0.1250000

     Initial potential from superposition of free atoms

     starting charge  386.99914, renormalised to  403.00000

     negative rho (up, down):  1.429E-02 0.000E+00

     %%%%%%%%%%%%%%%%%%%%%%%%%%%%%%%%%%%%%%%%%%%%%%%%%%%%%%%%%%%%%%%%%%%%%%%%
     %                                                                      %
     % You are using vdW-DF, which was implemented by the Thonhauser group. %
     % Please cite the following two papers that made this development      %
     % possible and the two reviews that describe the various versions:     %
     %                                                                      %
     %   T. Thonhauser et al., PRL 115, 136402 (2015).                      %
     %   T. Thonhauser et al., PRB 76, 125112 (2007).                       %
     %   K. Berland et al., Rep. Prog. Phys. 78, 066501 (2015).             %
     %   D.C. Langreth et al., J. Phys.: Condens. Matter 21, 084203 (2009). %
     %                                                                      %
     %                                                                      %
     % If you are calculating the stress with vdW-DF, please also cite:     %
     %                                                                      %
     %   R. Sabatini et al., J. Phys.: Condens. Matter 24, 424209 (2012).   %
     %                                                                      %
     %%%%%%%%%%%%%%%%%%%%%%%%%%%%%%%%%%%%%%%%%%%%%%%%%%%%%%%%%%%%%%%%%%%%%%%%

     Adding external electric field

     Computed dipole along edir(3) :
        Dipole              -12.7219 Ry au,        -32.3358 Debye
        Dipole field         -0.0240 Ry au,

        Potential amp.        2.2255 Ry
        Total length         46.3494 bohr

     Starting wfcs are  305 atomic wfcs
  @ DRIVER MODE: Message from server: STATUS
  @ DRIVER MODE: Message from server: POSDATA
  @ DRIVER MODE: Reading and sharing cell
  @ DRIVER MODE: Reading and sharing positions
  @ DRIVER MODE: Received positions

     Self-consistent Calculation

     iteration #  1     ecut=    29.40 Ry     beta= 0.05
     Davidson diagonalization with overlap
     c_bands:  5 eigenvalues not converged
     c_bands:  4 eigenvalues not converged
     c_bands:  3 eigenvalues not converged
     c_bands:  4 eigenvalues not converged
     c_bands:  5 eigenvalues not converged
     c_bands:  4 eigenvalues not converged
     c_bands:  1 eigenvalues not converged
     c_bands:  4 eigenvalues not converged
     ethr =  1.00E-05,  avg # of iterations = 25.4

[...]

     total energy              =   -2361.22363755 Ry
     estimated scf accuracy    <    6936.00676127 Ry

     iteration #  2     ecut=    29.40 Ry     beta= 0.05
     Davidson diagonalization with overlap
     ethr =  1.00E-02,  avg # of iterations = 24.3

[...]

     iteration # 70     ecut=    29.40 Ry     beta= 0.05
     Davidson diagonalization with overlap
     c_bands:  1 eigenvalues not converged
     ethr =  2.08E-07,  avg # of iterations =  8.6

[...]

     total energy              =   -2973.99525952 Ry
     estimated scf accuracy    <       0.00000010 Ry

     iteration # 93     ecut=    29.40 Ry     beta= 0.05
     Davidson diagonalization with overlap
     ethr =  2.41E-11,  avg # of iterations =  4.8

     negative rho (up, down):  1.502E-02 0.000E+00

     Adding external electric field

     Computed dipole along edir(3) :
        Dipole                1.1956 Ry au,          3.0390 Debye
        Dipole field          0.0023 Ry au,

        Potential amp.       -0.2092 Ry
        Total length         46.3494 bohr

     End of self-consistent calculation

          k = 0.0000 0.0000 0.0000 ( 18029 PWs)   bands (ev):

   -55.6999 -55.6660 -55.3857 -55.3517 -55.2768 -55.1689 -55.1138 -55.0360
   -54.9899 -54.9578 -54.8294 -54.7355 -54.6947 -54.6239 -54.5268 -54.4928
   -32.1599 -31.9942 -31.9703 -31.8612 -31.8550 -31.7834 -31.7617 -31.6511
   -31.6061 -31.6039 -31.5929 -31.5391 -31.5366 -31.5174 -31.4963 -31.4916
   -31.4879 -31.3946 -31.3861 -31.3702 -31.3346 -31.3155 -31.3050 -31.2942
   -31.2742 -31.2705 -31.2369 -31.1992 -31.1756 -31.1741 -31.1646 -31.1466
   -31.0963 -31.0294 -30.9908 -30.9516 -30.9497 -30.9262 -30.9199 -30.9057
   -30.8950 -30.8564 -30.8378 -30.8339 -30.8331 -30.7444 -30.6592 -30.5474
   -19.0700 -16.2301 -16.0563 -15.7650 -15.5941 -15.3870 -15.3584 -15.2632
   -15.1604 -15.1435 -15.0398 -14.9748 -14.8900 -14.8210 -14.8014 -14.7529
   -14.7231 -14.6950 -14.6804 -14.6708 -14.6328 -14.6009 -14.5839 -14.5082
   -14.4633 -14.4449 -14.4175 -14.3524 -14.2564 -13.9908 -13.9277 -13.0248
   -12.9114 -12.5797  -9.3466  -6.2124  -4.7686  -4.7268  -3.7774  -3.5353
    -3.4446  -3.3300  -3.1214  -3.0720  -2.8937  -2.7730  -2.7527  -2.5324
    -2.5046  -2.3928  -2.3778  -2.3290  -2.3250  -2.2909  -2.2244  -2.1961
    -2.1243  -2.0639  -2.0369  -2.0032  -1.9503  -1.8954  -1.8894  -1.8762
    -1.8189  -1.7504  -1.7228  -1.7136  -1.6697  -1.6060  -1.5973  -1.5811
    -1.5620  -1.5405  -1.3975  -1.2913  -1.2300  -1.1918  -1.1423  -1.0855
    -1.0329  -1.0196  -0.9192  -0.8393  -0.7978  -0.6804  -0.6527  -0.6122
    -0.5277  -0.5034  -0.4609  -0.4415  -0.4003  -0.3931  -0.2883  -0.2708
    -0.2366  -0.1939  -0.0750  -0.0269  -0.0187   0.0622   0.1218   0.2020
     0.2435   0.2590   0.2838   0.3696   0.3973   0.4147   0.4228   0.4951
     0.5142   0.5627   0.6164   0.6992   0.7116   0.7515   0.7858   0.7988
     0.9286   0.9369   1.0264   1.0506   1.0615   1.1260   1.2201   1.2799
     1.3915   1.4054   1.4981   1.4982   1.5187   1.7173   1.8917   2.0504
     2.0908   3.5015   3.6208   3.6829   3.7207   3.9313   3.9429   4.2054
     4.2808   4.3737   4.4140

[...]

          k = 0.0380-0.0419 0.0000 ( 17876 PWs)   bands (ev):

[...]

          k =-0.0760-0.0000 0.0000 ( 17886 PWs)   bands (ev):

[...]

          k =-0.0760-0.0839 0.0000 ( 17948 PWs)   bands (ev):

   -55.6832 -55.6826 -55.3713 -55.3660 -55.2762 -55.1631 -55.1196 -55.0282
   -54.9975 -54.9583 -54.8273 -54.7332 -54.6967 -54.6261 -54.5103 -54.5092
   -31.9801 -31.9796 -31.9755 -31.9753 -31.8067 -31.8061 -31.6894 -31.6839
   -31.5695 -31.5654 -31.5639 -31.5577 -31.5531 -31.4924 -31.4822 -31.4671
   -31.4342 -31.3851 -31.3833 -31.3607 -31.3457 -31.3456 -31.3336 -31.3335
   -31.2571 -31.2434 -31.2367 -31.2326 -31.2050 -31.1937 -31.1645 -31.1553
   -31.0885 -31.0392 -31.0346 -30.9913 -30.9580 -30.9533 -30.9523 -30.9107
   -30.8725 -30.8463 -30.8455 -30.8369 -30.7408 -30.7395 -30.7023 -30.7015
   -19.0667 -16.2230 -15.4710 -15.4607 -15.3167 -15.3074 -15.2296 -15.1401
   -15.1219 -15.0931 -15.0444 -15.0223 -14.9409 -14.8846 -14.8651 -14.8397
   -14.8210 -14.8068 -14.7490 -14.7459 -14.7304 -14.7169 -14.6507 -14.6124
   -14.5821 -14.5757 -14.4675 -14.3880 -14.3038 -14.1550 -14.0643 -13.0144
   -13.0139 -12.5801  -9.3532  -6.2050  -4.7587  -4.7272  -3.7705  -3.4165
    -2.6496  -2.6064  -2.5155  -2.4372  -2.4298  -2.3833  -2.3827  -2.3011
    -2.2486  -2.1906  -2.1664  -2.1582  -2.1577  -2.1266  -2.1175  -2.0633
    -2.0583  -2.0407  -2.0378  -1.9814  -1.9565  -1.9422  -1.8904  -1.8351
    -1.7844  -1.7478  -1.7260  -1.6864  -1.6667  -1.6638  -1.5782  -1.5627
    -1.5370  -1.5095  -1.4647  -1.4343  -1.3790  -1.3573  -1.3009  -1.1736
    -1.1022  -1.0166  -0.9111  -0.8897  -0.8569  -0.8235  -0.8109  -0.7883
    -0.7557  -0.6402  -0.6296  -0.5803  -0.5482  -0.5201  -0.5031  -0.4753
    -0.4525  -0.3514  -0.3093  -0.2798  -0.2397  -0.2057  -0.1775  -0.1443
    -0.0929  -0.0535  -0.0437  -0.0124   0.0214   0.0360   0.1891   0.2687
     0.4016   0.4296   0.5199   0.5665   0.5986   0.6278   0.6562   0.7753
     0.8229   0.8453   0.8820   0.9036   1.0022   1.0990   1.1193   1.1874
     1.2220   1.3271   1.3581   1.4458   1.4971   1.8801   1.8879   1.9089
     1.9094   3.3790   4.0466   4.0493   4.0610   4.0743   4.2396   4.2424
     4.3430   4.3671   4.5033

     the Fermi energy is     3.4580 ev

!    total energy              =   -2973.99526347 Ry
     estimated scf accuracy    <       0.00000007 Ry
     smearing contrib. (-TS)   =      -0.01689161 Ry
     internal energy E=F+TS    =   -2973.97837187 Ry

     The total energy is F=E-TS. E is the sum of the following terms:
     one-electron contribution =  -23437.86414398 Ry
     hartree contribution      =   11816.38750797 Ry
     xc contribution           =    -493.95550590 Ry
     ewald contribution        =    9141.45107233 Ry
     electric field correction =       0.00269771 Ry

     convergence has been achieved in  93 iterations

     Forces acting on atoms (cartesian axes, Ry/au):

     atom    1 type  1   force =     0.00012079   -0.00024166    0.10266966
     atom    2 type  1   force =    -0.00012210    0.00009358   -0.16807279
     atom    3 type  2   force =    -0.00001017    0.00045729   -0.03240354
     atom    4 type  2   force =     0.00002667   -0.00097398    0.04009828
     atom    5 type  2   force =    -0.00542801   -0.00191539   -0.00433751
     atom    6 type  2   force =     0.00666426   -0.00136039   -0.00593736
     atom    7 type  1   force =    -0.00054026   -0.00531803    0.03004394
     atom    8 type  1   force =     0.00069574    0.00861187    0.04850916
     atom    9 type  2   force =     0.00012243   -0.00131120   -0.00107275
     atom   10 type  2   force =    -0.00253634    0.00301177   -0.03414865
     atom   11 type  2   force =    -0.00037708   -0.00008954   -0.00023520
     atom   12 type  2   force =     0.00047290   -0.00036983   -0.00011543
     atom   13 type  1   force =     0.00021914   -0.00161200    0.00019006
     atom   14 type  1   force =     0.00016690   -0.00077361    0.00069835
     atom   15 type  2   force =     0.00012050    0.00003436   -0.00029478
     atom   16 type  2   force =    -0.00012749    0.00004299    0.00172993
     atom   17 type  2   force =    -0.00103354   -0.00058189    0.00040683
     atom   18 type  2   force =     0.00067720   -0.00112624    0.00047698
     atom   19 type  1   force =     0.00057464   -0.00098164   -0.00073936
     atom   20 type  1   force =    -0.00081082   -0.00038667   -0.00016942
     atom   21 type  2   force =     0.00004999    0.00012344    0.10113844
     atom   22 type  2   force =    -0.00013604    0.00053221    0.00038045
     atom   23 type  2   force =    -0.07541036   -0.00012197   -0.02929237
     atom   24 type  2   force =     0.07532260    0.00029927   -0.02930896
     atom   25 type  1   force =     0.00013611   -0.00022638    0.10282055
     atom   26 type  1   force =    -0.00004049   -0.00130539   -0.16847229
     atom   27 type  2   force =     0.00011835    0.00017417   -0.03117605
     atom   28 type  2   force =    -0.00000942    0.00072053    0.03581520
     atom   29 type  2   force =    -0.00425813    0.00378554   -0.00626625
     atom   30 type  2   force =     0.00527993    0.00442208   -0.00779087
     atom   31 type  1   force =    -0.00053633    0.00494855    0.01592652
     atom   32 type  1   force =     0.00077394   -0.01041636    0.04919366
     atom   33 type  2   force =     0.00002654   -0.00091270   -0.00138768
     atom   34 type  2   force =    -0.00240495    0.00222361   -0.04431745
     atom   35 type  2   force =     0.00055568    0.00020075   -0.00014126
     atom   36 type  2   force =    -0.00018278    0.00023098   -0.00006825
     atom   37 type  1   force =     0.00026993    0.00037921   -0.00045444
     atom   38 type  1   force =     0.00041913    0.00140230    0.00105594
     atom   39 type  2   force =     0.00033385    0.00046551    0.00008877
     atom   40 type  2   force =     0.00005990    0.00015761    0.00047048
     atom   41 type  2   force =    -0.00093922   -0.00022166    0.00007737
     atom   42 type  2   force =     0.00042513    0.00024553    0.00032469
     atom   43 type  1   force =     0.00026463    0.00027829   -0.00153831
     atom   44 type  1   force =    -0.00074969   -0.00018966   -0.00090164
     atom   45 type  2   force =     0.00006926   -0.00002250    0.10094629
     atom   46 type  2   force =    -0.07546840   -0.00005020   -0.02930967
     atom   47 type  2   force =     0.07538084    0.00038437   -0.02930543
     atom   48 type  3   force =    -0.00452633    0.00042846   -0.00077456
     atom   49 type  3   force =     0.00151056   -0.00096293   -0.00021244
     atom   50 type  4   force =     0.00343792    0.00138185    0.00071176
     atom   51 type  5   force =     0.00001204   -0.00111649   -0.00191354
     atom   52 type  5   force =    -0.00019004   -0.00084743   -0.00070044
     atom   53 type  5   force =    -0.00034605    0.00015989   -0.00002662
     atom   54 type  5   force =     0.00095042   -0.00101816   -0.00124402
     atom   55 type  2   force =    -0.00031421    0.00041298   -0.00096115
     atom   56 type  5   force =     0.00124037   -0.00115511   -0.00068283

     Total force =     0.372789     Total SCF correction =     0.000819
  @ DRIVER MODE: Message from server: STATUS
  @ DRIVER MODE: Message from server: GETFORCE
  @ DRIVER MODE: Returning v,forces,stress,ensemble

     Writing output data file ./calc.save/
  @ DRIVER MODE: Message from server: EXIT
  @ DRIVE MODE: Exiting

     General routines

     Parallel routines

   This run was terminated on:  23:16:37  22Sep2021

   JOB DONE.