     Program PWSCF v.6.8 starts on 20Sep2021 at 14:50:46

     R & G space division:  proc/nbgrp/npool/nimage =      10

     Reading input from /storage/home/hcoda1/3/ntian30/research/carbon/CH3_end_on/ads_slab/CH3OHN2_a/CH3_end_on.log/pw.inp
Warning: card &CELL ignored
Warning: card   CELL_DYNAMICS='IPI', ignored
Warning: card / ignored

     Current dimensions of program PWSCF are:
     Max number of different atomic species (ntypx) = 10
     Max number of k-points (npk) =  40000
     Max angular momentum in pseudopotentials (lmaxx) =  4
     Presently no symmetry can be used with electric field

     Message from routine cell_base_init:
     DEPRECATED: use true lattice parameter, not A to a.u. conversion factor

     IMPORTANT: XC functional enforced from input :
     Exchange-correlation= BEEF-VDW
                           (   1   4  43  14   2   0   0)
     Any further DFT definition will be discarded
     Please, verify this is what you really want

  @ DRIVER MODE: Connecting to
 qe_1139763_2911619.sched-torque.pace.gatech.edu9uoo8jbq_scratch
  using UNIX socket
  @ DRIVER MODE: Message from server: STATUS
  @ DRIVER MODE: Message from server: INIT
  @ DRIVER MODE: Receiving replica           0          -1
  @ DRIVER MODE: Receiving encoded integer          25
  @ DRIVER MODE:  SCF:  T  FORCE:  T  STRESS:  F  VC:  F  ENSEMBLE:  F
  @ DRIVER MODE:  SCF:  T  FORCE:  T  STRESS:  F  VC:  F  ENSEMBLE:  F

     Using Slab Decomposition

     bravais-lattice index     =            0
     lattice parameter (alat)  =       1.8897  a.u.
     unit-cell volume          =    6658.9804 (a.u.)^3
     number of atoms/cell      =           55
     number of atomic types    =            5
     number of electrons       =       402.00
     number of Kohn-Sham states=          211
     kinetic-energy cutoff     =      29.3995  Ry
     charge density cutoff     =     293.9946  Ry
     scf convergence threshold =      7.3E-08
     mixing beta               =       0.0500
     number of iterations used =            8  plain     mixing
     Exchange-correlation= BEEF-VDW
                           (   1   4  43  14   2   0   0)

     celldm(1)=   1.889726  celldm(2)=   0.000000  celldm(3)=   0.000000
     celldm(4)=   0.000000  celldm(5)=   0.000000  celldm(6)=   0.000000

     crystal axes: (cart. coord. in units of alat)
               a(1) = (   6.579727   0.000000   0.000000 )
               a(2) = (  -0.000775   5.961596   0.000000 )
               a(3) = (   0.000000   0.000000  25.155947 )

     reciprocal axes: (cart. coord. in units 2 pi/alat)
               b(1) = (  0.151982  0.000020  0.000000 )
               b(2) = (  0.000000  0.167740  0.000000 )
               b(3) = (  0.000000  0.000000  0.039752 )

     PseudoPot. # 1 for Ti read from file:
     /storage/coda1/p-amedford6/0/shared/rich_project_chbe-medford/medford-share/data/pseudos_module/espresso/nninc/pbe/van/Ti.UPF
     MD5 check sum: 8e4df49b7f0d34bbd5052bf3f5ea0213
     Pseudo is Ultrasoft, Zval = 12.0
     Generated by new atomic code, or converted to UPF format
     Using radial grid of  851 points,  6 beta functions with:
                l(1) =   0
                l(2) =   0
                l(3) =   1
                l(4) =   1
                l(5) =   2
                l(6) =   2
     Q(r) pseudized with  8 coefficients,  rinner =    1.000   1.000   1.000
                                                       1.000   1.000

     PseudoPot. # 2 for O  read from file:
     /storage/coda1/p-amedford6/0/shared/rich_project_chbe-medford/medford-share/data/pseudos_module/espresso/nninc/pbe/van/O.UPF
     MD5 check sum: 78c19812648e8988a0fe644b0f25305e
     Pseudo is Ultrasoft, Zval =  6.0
     Generated by new atomic code, or converted to UPF format
     Using radial grid of  737 points,  4 beta functions with:
                l(1) =   0
                l(2) =   0
                l(3) =   1
                l(4) =   1
     Q(r) pseudized with  8 coefficients,  rinner =    0.800   0.800   0.800

     PseudoPot. # 3 for C  read from file:
     /storage/coda1/p-amedford6/0/shared/rich_project_chbe-medford/medford-share/data/pseudos_module/espresso/nninc/pbe/van/C.UPF
     MD5 check sum: 1a69bf6b8db32088f5b2163dbdb77a27
     Pseudo is Ultrasoft, Zval =  4.0
     Generated by new atomic code, or converted to UPF format
     Using radial grid of  721 points,  4 beta functions with:
                l(1) =   0
                l(2) =   0
                l(3) =   1
                l(4) =   1
     Q(r) pseudized with  8 coefficients,  rinner =    0.800   0.800   0.800

     PseudoPot. # 4 for H  read from file:
     /storage/coda1/p-amedford6/0/shared/rich_project_chbe-medford/medford-share/data/pseudos_module/espresso/nninc/pbe/van/H.UPF
     MD5 check sum: b5ee9d7bfd3a09ee7748110bda690ff7
     Pseudo is Ultrasoft, Zval =  1.0
     Generated by new atomic code, or converted to UPF format
     Using radial grid of  615 points,  1 beta functions with:
                l(1) =   0
     Q(r) pseudized with  8 coefficients,  rinner =    0.800

     PseudoPot. # 5 for N  read from file:
     /storage/coda1/p-amedford6/0/shared/rich_project_chbe-medford/medford-share/data/pseudos_module/espresso/nninc/pbe/van/N.UPF
     MD5 check sum: 90d10febe142ad51ac9d5be1deb811c4
     Pseudo is Ultrasoft, Zval =  5.0
     Generated by new atomic code, or converted to UPF format
     Using radial grid of  729 points,  4 beta functions with:
                l(1) =   0
                l(2) =   0
                l(3) =   1
                l(4) =   1
     Q(r) pseudized with  8 coefficients,  rinner =    0.800   0.800   0.800

     atomic species   valence    mass     pseudopotential
        Ti1           12.00    47.86700     Ti( 1.00)
        O1             6.00    15.99900     O ( 1.00)
        C1             4.00    12.01100     C ( 1.00)
        H1             1.00     1.00800     H ( 1.00)
        N1             5.00    14.00700     N ( 1.00)

     No symmetry found

   Cartesian axes

     site n.     atom                  positions (alat units)
         1           Ti1 tau(   1) = (   0.0004258   2.9801865   6.0000000  )
         2           Ti1 tau(   2) = (   3.2906075   1.4906267   6.0002472  )
         3           O1  tau(   3) = (   0.0006271   0.0005054   7.9858123  )
         4           O1  tau(   4) = (   3.2906025   0.0005020   7.3038282  )
         5           O1  tau(   5) = (   4.5942328   1.4918067   9.2879030  )
         6           O1  tau(   6) = (   1.9868534   1.4903216   9.2879459  )
         7           Ti1 tau(   7) = (   3.3184627   3.0104606   9.1553648  )
         8           Ti1 tau(   8) = (   0.0346466   1.5145919   9.2725854  )
         9           O1  tau(   9) = (   3.3323670   0.0074739  11.3628161  )
        10           O1  tau(  10) = (   0.0072146   0.0022432  10.6032180  )
        11           O1  tau(  11) = (   1.3334854   1.5010653  12.6312402  )
        12           O1  tau(  12) = (   5.3322653   1.4967215  12.6661074  )
        13           Ti1 tau(  13) = (   0.0399007   3.0049294  12.5399032  )
        14           Ti1 tau(  14) = (   3.3257882   1.5006484  12.5017209  )
        15           O1  tau(  15) = (   0.0958175   0.0109015  14.6781201  )
        16           O1  tau(  16) = (   3.3209445   0.0065530  13.9947117  )
        17           O1  tau(  17) = (   4.6470289   1.5235192  16.1521327  )
        18           O1  tau(  18) = (   2.1274687   1.5288575  16.1863263  )
        19           Ti1 tau(  19) = (   3.3866828   2.9872137  15.7186651  )
        20           Ti1 tau(  20) = (   0.0851359   1.3433488  15.9962781  )
        21           O1  tau(  21) = (   3.2904802   0.0005063   4.7018136  )
        22           O1  tau(  22) = (   0.0861787   0.0156205  17.2101336  )
        23           O1  tau(  23) = (   1.3043587   1.4918075   6.0039043  )
        24           O1  tau(  24) = (   5.2767064   1.4903225   6.0039473  )
        25           Ti1 tau(  25) = (   0.0000382   5.9609847   6.0000000  )
        26           Ti1 tau(  26) = (   3.2902200   4.4714249   6.0002472  )
        27           O1  tau(  27) = (   0.0002396   2.9813036   7.9858123  )
        28           O1  tau(  28) = (   3.2902150   2.9813002   7.3038282  )
        29           O1  tau(  29) = (   4.5938453   4.4726049   9.2879030  )
        30           O1  tau(  30) = (   1.9864658   4.4711199   9.2879459  )
        31           Ti1 tau(  31) = (   3.3160408   0.0312979   9.1533790  )
        32           Ti1 tau(  32) = (   0.0342031   4.4824714   9.2635914  )
        33           O1  tau(  33) = (   3.3296961   2.9874083  11.3532073  )
        34           O1  tau(  34) = (   0.0071558   2.9827229  10.6249429  )
        35           O1  tau(  35) = (   1.3339759   4.4780823  12.6303471  )
        36           O1  tau(  36) = (   5.3316377   4.4803543  12.6653953  )
        37           Ti1 tau(  37) = (   0.0318003   0.0267859  12.4824326  )
        38           Ti1 tau(  38) = (   3.3243002   4.4792164  12.4996646  )
        39           O1  tau(  39) = (   0.1017966   3.0039049  14.8467192  )
        40           O1  tau(  40) = (   3.3365867   2.9884115  13.9371009  )
        41           O1  tau(  41) = (   4.6519449   4.4651455  16.1366910  )
        42           O1  tau(  42) = (   2.1329502   4.4467914  16.2189938  )
        43           Ti1 tau(  43) = (   3.3530478   0.0116223  15.7847896  )
        44           Ti1 tau(  44) = (   0.0420906   4.5503417  15.8661587  )
        45           O1  tau(  45) = (   3.2900926   2.9813045   4.7018136  )
        46           O1  tau(  46) = (   1.3039711   4.4726057   6.0039043  )
        47           O1  tau(  47) = (   5.2763189   4.4711207   6.0039473  )
        48           C1  tau(  48) = (   6.0571888   3.1179766  18.9039971  )
        49           O1  tau(  49) = (   0.2335693   3.0433622  17.6694830  )
        50           H1  tau(  50) = (   5.0284728   2.8969007  18.6408099  )
        51           H1  tau(  51) = (   1.1757692   3.2348548  17.8288520  )
        52           H1  tau(  52) = (   6.4315421   2.3664480  19.5988381  )
        53           H1  tau(  53) = (   6.1352977   4.1238860  19.3131673  )
        54           N1  tau(  54) = (   6.0571888   3.1179766  21.5039971  )
        55           N1  tau(  55) = (   6.0571888   3.1179766  20.3740171  )

     number of k points=    10  Fermi-Dirac smearing, width (Ry)=  0.0073
                       cart. coord. in units 2pi/alat
        k(    1) = (   0.0000000   0.0000000   0.0000000), wk =   0.1250000
        k(    2) = (   0.0000000   0.0419351   0.0000000), wk =   0.2500000
        k(    3) = (   0.0000000  -0.0838702   0.0000000), wk =   0.1250000
        k(    4) = (   0.0379955   0.0000049   0.0000000), wk =   0.2500000
        k(    5) = (   0.0379955   0.0419400   0.0000000), wk =   0.2500000
        k(    6) = (   0.0379955  -0.0838652   0.0000000), wk =   0.2500000
        k(    7) = (   0.0379955  -0.0419301   0.0000000), wk =   0.2500000
        k(    8) = (  -0.0759910  -0.0000099   0.0000000), wk =   0.1250000
        k(    9) = (  -0.0759910   0.0419252   0.0000000), wk =   0.2500000
[...]
        46           O1  tau(  46) = (   1.3039711   4.4726057   6.0039043  )
        47           O1  tau(  47) = (   5.2763189   4.4711207   6.0039473  )
        48           C1  tau(  48) = (   6.0696702   3.0850719  18.9362100  )
        49           O1  tau(  49) = (   0.2137583   3.0151386  17.6806925  )
        50           H1  tau(  50) = (   5.0335823   2.8592912  18.7093337  )
        51           H1  tau(  51) = (   1.1582740   3.2076169  17.8247857  )
        52           H1  tau(  52) = (   6.4678329   2.3372224  19.6210602  )
        53           H1  tau(  53) = (   6.1561101   4.0908046  19.3440889  )
        54           N1  tau(  54) = (   5.8695868   3.1445622  22.9774957  )
        55           N1  tau(  55) = (   5.1187419   3.2278357  22.1692190  )

     number of k points=    10  Fermi-Dirac smearing, width (Ry)=  0.0073
                       cart. coord. in units 2pi/alat
        k(    1) = (   0.0000000   0.0000000   0.0000000), wk =   0.1250000
        k(    2) = (   0.0000000   0.0419351   0.0000000), wk =   0.2500000
        k(    3) = (   0.0000000  -0.0838702   0.0000000), wk =   0.1250000
        k(    4) = (   0.0379955   0.0000049   0.0000000), wk =   0.2500000
        k(    5) = (   0.0379955   0.0419400   0.0000000), wk =   0.2500000
        k(    6) = (   0.0379955  -0.0838652   0.0000000), wk =   0.2500000
        k(    7) = (   0.0379955  -0.0419301   0.0000000), wk =   0.2500000
        k(    8) = (  -0.0759910  -0.0000099   0.0000000), wk =   0.1250000
        k(    9) = (  -0.0759910   0.0419252   0.0000000), wk =   0.2500000
        k(   10) = (  -0.0759910  -0.0838800   0.0000000), wk =   0.1250000

     Initial potential from superposition of free atoms

     starting charge  385.99915, renormalised to  402.00000

[...]

     %%%%%%%%%%%%%%%%%%%%%%%%%%%%%%%%%%%%%%%%%%%%%%%%%%%%%%%%%%%%%%%%%%%%%%%%
     %                                                                      %
     % You are using vdW-DF, which was implemented by the Thonhauser group. %
     % Please cite the following two papers that made this development      %
     % possible and the two reviews that describe the various versions:     %
     %                                                                      %
     %   T. Thonhauser et al., PRL 115, 136402 (2015).                      %
     %   T. Thonhauser et al., PRB 76, 125112 (2007).                       %
     %   K. Berland et al., Rep. Prog. Phys. 78, 066501 (2015).             %
     %   D.C. Langreth et al., J. Phys.: Condens. Matter 21, 084203 (2009). %
     %                                                                      %
     %                                                                      %
     % If you are calculating the stress with vdW-DF, please also cite:     %
     %                                                                      %
     %   R. Sabatini et al., J. Phys.: Condens. Matter 24, 424209 (2012).   %
     %                                                                      %
     %%%%%%%%%%%%%%%%%%%%%%%%%%%%%%%%%%%%%%%%%%%%%%%%%%%%%%%%%%%%%%%%%%%%%%%%

[...]

     Starting wfcs are  304 atomic wfcs
  @ DRIVER MODE: Message from server: STATUS
  @ DRIVER MODE: Message from server: POSDATA
  @ DRIVER MODE: Reading and sharing cell
  @ DRIVER MODE: Reading and sharing positions
  @ DRIVER MODE: Received positions

[...]

     Self-consistent Calculation

[...]

     iteration # 15     ecut=    29.40 Ry     beta= 0.05
     Davidson diagonalization with overlap
     c_bands:  1 eigenvalues not converged
     c_bands:  4 eigenvalues not converged
     c_bands:  1 eigenvalues not converged
     c_bands:  1 eigenvalues not converged
     c_bands:  1 eigenvalues not converged
     c_bands:  1 eigenvalues not converged
     c_bands:  1 eigenvalues not converged
     ethr =  7.28E-11,  avg # of iterations = 18.9

[...]

     total energy              =   -2972.82602248 Ry
     estimated scf accuracy    <       0.00000072 Ry

     iteration # 16     ecut=    29.40 Ry     beta= 0.05
     Davidson diagonalization with overlap
     ethr =  7.28E-11,  avg # of iterations = 13.3

[...]

     End of self-consistent calculation

[...]

          k = 0.0380-0.0419 0.0000 ( 17876 PWs)   bands (ev):

[...]

          k =-0.0760-0.0839 0.0000 ( 17948 PWs)   bands (ev):

   -55.0407 -55.0392 -55.0125 -55.0086 -54.9455 -54.9439 -54.9415 -54.9091
   -54.8956 -54.8761 -54.8728 -54.8451 -54.8264 -54.8244 -54.1027 -54.1027
   -31.4832 -31.4361 -31.4331 -31.3609 -31.3397 -31.3360 -31.3214 -31.3054
   -31.2977 -31.2781 -31.2631 -31.2590 -31.2546 -31.2326 -31.2099 -31.1999
   -31.1944 -31.1926 -31.1863 -31.1828 -31.1810 -31.1786 -31.1705 -31.1427
   -31.1390 -31.1363 -31.1361 -31.1324 -31.1296 -31.1289 -31.1274 -31.1089
   -31.0997 -31.0915 -31.0880 -31.0755 -31.0749 -31.0508 -31.0491 -31.0323
   -31.0127 -31.0096 -30.4201 -30.4201 -30.3446 -30.3445 -30.3051 -30.3051
   -21.7632 -19.8396 -15.4215 -15.3353 -15.2574 -15.0722 -15.0616 -15.0538
   -15.0429 -14.9290 -14.9056 -14.8752 -14.8342 -14.8198 -14.8169 -14.7969
   -14.7871 -14.6554 -14.6504 -14.6491 -14.6406 -14.5765 -14.5737 -14.5571
   -14.5399 -14.5020 -14.5005 -14.4841 -14.4810 -14.3575 -14.2308 -12.6022
   -12.6013 -10.8120  -6.9889  -6.5692  -4.9247  -4.9138  -4.7814  -4.6166
    -3.6554  -2.6881  -2.6107  -2.5261  -2.5196  -2.2812  -2.2776  -2.2348
    -2.1751  -2.1252  -2.0729  -2.0490  -2.0458  -1.9708  -1.9663  -1.9646
    -1.9558  -1.9197  -1.9154  -1.8761  -1.8520  -1.8269  -1.7754  -1.7632
    -1.7519  -1.7269  -1.7238  -1.7145  -1.6873  -1.6822  -1.6650  -1.5888
    -1.5115  -1.4373  -1.4247  -1.3846  -1.2854  -1.2727  -1.2071  -1.1932
    -1.1489  -1.1308  -1.0986  -1.0380  -0.9993  -0.8961  -0.8546  -0.8491
    -0.7913  -0.7336  -0.6874  -0.6516  -0.6059  -0.5517  -0.5239  -0.4774
    -0.4101  -0.3633  -0.2755  -0.2658  -0.2248  -0.0875  -0.0827  -0.0586
    -0.0493  -0.0461   0.0418   0.0581   0.1008   0.1456   0.1977   0.2227
     0.2330   0.4339   0.4411   0.5228   0.6192   0.6349   0.7909   0.8060
     0.8703   0.9373   0.9852   1.0162   1.0850   1.1896   1.2131   1.2397
     1.3280   1.3682   1.3769   1.4098   2.2582   2.2590   2.3622   2.3655
     4.1834   4.2541   4.2869   4.3597   4.4215   4.5457   4.5512   4.5587
     4.5900   4.5965   4.6293

     the Fermi energy is     4.0936 ev

!    total energy              =   -2972.82602215 Ry
     estimated scf accuracy    <       0.00000006 Ry
     smearing contrib. (-TS)   =      -0.03703749 Ry
     internal energy E=F+TS    =   -2972.78898466 Ry

     The total energy is F=E-TS. E is the sum of the following terms:
     one-electron contribution =  -22555.12876120 Ry
     hartree contribution      =   11373.52866880 Ry
     xc contribution           =    -493.19565990 Ry
     ewald contribution        =    8702.00389420 Ry
     electric field correction =       0.00287344 Ry

     convergence has been achieved in  16 iterations

     Forces acting on atoms (cartesian axes, Ry/au):

     atom    1 type  1   force =    -0.00034233    0.00004438    0.09308267
     atom    2 type  1   force =    -0.00036148    0.00057833   -0.18337180
     atom    3 type  2   force =     0.00046773    0.00011881   -0.02308807
     atom    4 type  2   force =     0.00093226    0.00041449    0.05022630
     atom    5 type  2   force =    -0.01317107   -0.00007412    0.00386725
     atom    6 type  2   force =     0.01618316   -0.00067821    0.00560361
     atom    7 type  1   force =    -0.00083988   -0.00023451   -0.00009220
     atom    8 type  1   force =     0.00035329    0.00007241   -0.00019078
     atom    9 type  2   force =    -0.00025031    0.00009267    0.00018826
     atom   10 type  2   force =    -0.00015895    0.00005567    0.00028803
     atom   11 type  2   force =    -0.00040929    0.00000369    0.00035968
     atom   12 type  2   force =    -0.00025304    0.00009306   -0.00001750
     atom   13 type  1   force =     0.00036728    0.00052055   -0.00045046
     atom   14 type  1   force =    -0.00043903   -0.00012672   -0.00034159
     atom   15 type  2   force =    -0.00035037    0.00025417   -0.00001498
     atom   16 type  2   force =     0.00023746    0.00002925    0.00010041
     atom   17 type  2   force =    -0.00035126    0.00005878    0.00017335
     atom   18 type  2   force =    -0.00039882    0.00006617   -0.00003838
     atom   19 type  1   force =     0.00022199    0.00041018   -0.00015290
     atom   20 type  1   force =    -0.00048389    0.00024068    0.00019612
     atom   21 type  2   force =    -0.00004245    0.00010570    0.10493278
     atom   22 type  2   force =    -0.00004082    0.00000736    0.00075071
     atom   23 type  2   force =    -0.06788758    0.00008241   -0.02683191
     atom   24 type  2   force =     0.06766887    0.00050806   -0.02688151
     atom   25 type  1   force =    -0.00040290    0.00016485    0.09694198
     atom   26 type  1   force =    -0.00027388   -0.00022676   -0.18346855
     atom   27 type  2   force =     0.00041955    0.00018273   -0.02186868
     atom   28 type  2   force =     0.00096777    0.00039047    0.04998452
     atom   29 type  2   force =    -0.01317578    0.00022812    0.00391855
     atom   30 type  2   force =     0.01624990   -0.00019018    0.00561451
     atom   31 type  1   force =    -0.00089681   -0.00013475   -0.00001193
     atom   32 type  1   force =     0.00036369   -0.00004824   -0.00005110
     atom   33 type  2   force =    -0.00009636    0.00001190   -0.00004050
     atom   34 type  2   force =    -0.00016149   -0.00003655    0.00017181
     atom   35 type  2   force =    -0.00041733    0.00002800    0.00036100
     atom   36 type  2   force =    -0.00018139    0.00004479   -0.00001830
     atom   37 type  1   force =     0.00029118   -0.00073692    0.00016101
     atom   38 type  1   force =    -0.00049035    0.00034372   -0.00000689
     atom   39 type  2   force =    -0.00039566   -0.00015780    0.00019631
     atom   40 type  2   force =    -0.00013411   -0.00009138    0.00012843
     atom   41 type  2   force =    -0.00050591   -0.00019563    0.00008700
     atom   42 type  2   force =    -0.00015967   -0.00013764   -0.00027978
     atom   43 type  1   force =     0.00023154   -0.00040263    0.00017394
     atom   44 type  1   force =    -0.00027983   -0.00025124   -0.00032768
     atom   45 type  2   force =    -0.00004781    0.00012906    0.10495053
     atom   46 type  2   force =    -0.06787087   -0.00052221   -0.02683982
     atom   47 type  2   force =     0.06764629   -0.00005613   -0.02690816
     atom   48 type  3   force =    -0.00001606    0.00006594   -0.00041513
     atom   49 type  2   force =    -0.00033503   -0.00014204   -0.00020561
     atom   50 type  4   force =    -0.00017772   -0.00014764   -0.00027329
     atom   51 type  4   force =     0.00006164   -0.00039552    0.00017361
     atom   52 type  4   force =    -0.00002910   -0.00019574   -0.00035136
     atom   53 type  4   force =    -0.00036900   -0.00000501   -0.00030360
     atom   54 type  5   force =    -0.00037603   -0.00001912   -0.00026752
     atom   55 type  5   force =    -0.00008995   -0.00013974    0.00047761

     Total force =     0.368298     Total SCF correction =     0.000829
  @ DRIVER MODE: Message from server: STATUS
  @ DRIVER MODE: Message from server: GETFORCE
  @ DRIVER MODE: Returning v,forces,stress,ensemble

     Writing config to output data dir ./calc.save/
  @ DRIVER MODE: Message from server: STATUS
  @ DRIVER MODE: Message from server: INIT
  @ DRIVER MODE: Receiving replica           0           0
  @ DRIVER MODE: Receiving encoded integer           2
  @ DRIVER MODE:  SCF:  T  FORCE:  T  STRESS:  F  VC:  F  ENSEMBLE:  F
  @ DRIVER MODE:  SCF:  F  FORCE:  F  STRESS:  F  VC:  F  ENSEMBLE:  T
  @ DRIVER MODE: Message from server: STATUS
  @ DRIVER MODE: Message from server: POSDATA
  @ DRIVER MODE: Reading and sharing positions
  @ DRIVER MODE: Received positions
     NEW-OLD atomic charge density approx. for the potential

[...]

     Adding external electric field

     Computed dipole along edir(3) :
        Dipole                1.2340 Ry au,          3.1364 Debye
        Dipole field          0.0023 Ry au,

        Potential amp.       -0.2159 Ry
        Total length         46.3494 bohr

  @ DRIVER MODE: BEEF-vdw

[...]

     negative rho (up, down):  1.103E-02 0.000E+00

     negative rho (up, down):  1.103E-02 0.000E+00
 BEEFens 2000 ensemble energies
             -0.354089050055950E+02
             -0.204132316572496E+01
             -0.729904633404092E+01
              0.245626306790855E+02
             -0.121714877267809E+02
             -0.940127132780054E+01
             -0.245847413736528E+02
             -0.514033872865059E+02
             -0.219201979269429E+02
             -0.230912711689414E+02
             -0.213966844676306E+02
              0.430500553856324E+01
              0.202418924586367E+01
             -0.108330201252788E+01
              0.177163612033861E+01
              0.270606845562860E+02
             -0.104516854383973E+02
             -0.736478902984864E+01
              0.120014461963888E+02
             -0.632234771429176E+02
              0.316784982489328E+02
             -0.135802399054874E+02
             -0.247399279037067E+01
             -0.572191504638664E+01
             -0.968401216268603E+00
             -0.221330369857354E+01
              0.490669586328924E+02
             -0.152912779068967E+02
             -0.411375117659622E+01
             -0.310112415895263E+02
              0.401071759669715E+02
             -0.443610483502550E+01
             -0.218363827458877E+02
              0.114514717632974E+02
             -0.209449399171712E+01
              0.133001261143679E+02
             -0.560472550995570E+00
              0.276436839772349E+01
              0.193233911237952E+02
             -0.558342121262647E+02
              0.311065402131736E+02
              0.827391471006051E+01
             -0.639123798261713E+01
             -0.178363263834093E+02
              0.705355808044737E+01
             -0.111404442682852E+02
              0.254526370675278E+02
              0.203130605007868E+02
             -0.130949370671387E+02
             -0.167370946838220E+02
             -0.176534821318921E+02
             -0.212401087001520E+02
              0.107912806235594E+02
             -0.276780666818681E+02
              0.847287140302939E+01
              0.353197057907162E+02
              0.407279735159898E+02
              0.189727194093346E+02
              0.851097419450662E+01
              0.177040087048683E+02
[...]
             -0.416698659495000E+02
              0.283578505012855E+01
             -0.144394851612808E+01
             -0.579945148572227E+01
              0.629743698436300E-01
             -0.371088716372606E+02
             -0.717324223462344E+01
              0.505422519445135E+01
              0.755645340000066E+01
              0.277911462595628E+02
             -0.242764753289069E+02
              0.317264401066515E+02
             -0.227020461935817E+02
              0.145881121606811E+02
              0.229957951716627E+02

 BEEF-vdW xc energy contributions
           1 :   -417.758805824155
           2 :    363.682254799039
           3 :   -276.712845535173
           4 :    186.209639539800
           5 :   -115.248700085126
           6 :    72.8149289729038
           7 :   -55.0004114861244
           8 :    51.5978408998390
           9 :   -53.0870717760248
          10 :    54.2287607367886
          11 :   -53.8046162590646
          12 :    52.3283770066456
          13 :   -50.1541860737403
          14 :    46.9870543427307
          15 :   -42.4655791816513
          16 :    36.8108356572604
          17 :   -30.9633168803736
          18 :    26.1477399695249
          19 :   -23.2558122910417
          20 :    22.4537020871859
          21 :   -23.2446485906666
          22 :    24.8378075609536
          23 :   -26.5118827540273
          24 :    27.7295165232291
          25 :   -28.1101588755373
          26 :    27.4356182785530
          27 :   -25.7068090763578
          28 :    23.1718749378476
          29 :   -20.3063957068345
          30 :    17.7141756061520
          31 :   -49.1640780083029
          32 :   -33.3336601141848
  @ DRIVER MODE: Message from server: STATUS
  @ DRIVER MODE: Message from server: GETFORCE
  @ DRIVER MODE: Returning v,forces,stress,ensemble
  @ DRIVE MODE: Returning Ensemble Energies

     Writing config to output data dir ./calc.save/
  @ DRIVER MODE: Message from server: EXIT
  @ DRIVE MODE: Exiting

     General routines

     Parallel routines

   This run was terminated on:   0:53:28  21Sep2021

   JOB DONE.