     Program PWSCF v.6.7GPU starts on  2Aug2021 at 18: 6:33

     R & G space division:  proc/nbgrp/npool/nimage =      16
     Reading input from /storage/home/hcoda1/3/ntian30/research/carbon/02Aug_vib_paired/ads_slab/CH3NNHH_a/out_0018/pw.inp
Warning: card &CELL ignored
Warning: card   CELL_DYNAMICS='IPI', ignored
Warning: card / ignored

     Current dimensions of program PWSCF are:
     Max number of different atomic species (ntypx) = 10
     Max number of k-points (npk) =  40000
     Max angular momentum in pseudopotentials (lmaxx) =  3
     Presently no symmetry can be used with electric field

     Message from routine cell_base_init:
     DEPRECATED: use true lattice parameter, not A to a.u. conversion factor

     IMPORTANT: XC functional enforced from input :
     Exchange-correlation= BEEF-VDW
                           (   1   4  43  14   2   0   0)
     Any further DFT definition will be discarded
     Please, verify this is what you really want

  @ DRIVER MODE: Connecting to
 qe_1139763_2482543.sched-torque.pace.gatech.edupalee5mi_scratch
  using UNIX socket
  @ DRIVER MODE: Message from server: STATUS
  @ DRIVER MODE: Message from server: INIT
  @ DRIVER MODE: Receiving replica           0          -1
  @ DRIVER MODE: Receiving encoded integer          25
  @ DRIVER MODE:  SCF:  T  FORCE:  T  STRESS:  F  VC:  F  ENSEMBLE:  F
  @ DRIVER MODE:  SCF:  T  FORCE:  T  STRESS:  F  VC:  F  ENSEMBLE:  F

     Using Slab Decomposition

     bravais-lattice index     =            0
     lattice parameter (alat)  =       1.8897  a.u.
     unit-cell volume          =    6658.9804 (a.u.)^3
     number of atoms/cell      =           55
     number of atomic types    =            5
     number of electrons       =       397.00
     number of Kohn-Sham states=          208
     kinetic-energy cutoff     =      29.3995  Ry
     charge density cutoff     =     293.9946  Ry
     scf convergence threshold =      7.3E-08
     mixing beta               =       0.0500
     number of iterations used =            8  plain     mixing
     Exchange-correlation= BEEF-VDW
                           (   1   4  43  14   2   0   0)

     celldm(1)=   1.889726  celldm(2)=   0.000000  celldm(3)=   0.000000
     celldm(4)=   0.000000  celldm(5)=   0.000000  celldm(6)=   0.000000

     crystal axes: (cart. coord. in units of alat)
               a(1) = (   6.579727   0.000000   0.000000 )
               a(2) = (  -0.000775   5.961596   0.000000 )
               a(3) = (   0.000000   0.000000  25.155947 )

     reciprocal axes: (cart. coord. in units 2 pi/alat)
               b(1) = (  0.151982  0.000020  0.000000 )
               b(2) = (  0.000000  0.167740  0.000000 )
               b(3) = (  0.000000  0.000000  0.039752 )

     PseudoPot. # 1 for Ti read from file:
     /storage/coda1/p-amedford6/0/shared/rich_project_chbe-medford/medford-share/data/pseudos_module/espresso/nninc/pbe/van/Ti.UPF
     MD5 check sum: 8e4df49b7f0d34bbd5052bf3f5ea0213
     Pseudo is Ultrasoft, Zval = 12.0
     Generated by new atomic code, or converted to UPF format
     Using radial grid of  851 points,  6 beta functions with:
                l(1) =   0
                l(2) =   0
                l(3) =   1
                l(4) =   1
                l(5) =   2
                l(6) =   2
     Q(r) pseudized with  8 coefficients,  rinner =    1.000   1.000   1.000
                                                       1.000   1.000

     PseudoPot. # 2 for O  read from file:
     /storage/coda1/p-amedford6/0/shared/rich_project_chbe-medford/medford-share/data/pseudos_module/espresso/nninc/pbe/van/O.UPF
     MD5 check sum: 78c19812648e8988a0fe644b0f25305e
     Pseudo is Ultrasoft, Zval =  6.0
     Generated by new atomic code, or converted to UPF format
     Using radial grid of  737 points,  4 beta functions with:
                l(1) =   0
                l(2) =   0
                l(3) =   1
                l(4) =   1
     Q(r) pseudized with  8 coefficients,  rinner =    0.800   0.800   0.800

     PseudoPot. # 3 for N  read from file:
     /storage/coda1/p-amedford6/0/shared/rich_project_chbe-medford/medford-share/data/pseudos_module/espresso/nninc/pbe/van/N.UPF
     MD5 check sum: 90d10febe142ad51ac9d5be1deb811c4
     Pseudo is Ultrasoft, Zval =  5.0
     Generated by new atomic code, or converted to UPF format
     Using radial grid of  729 points,  4 beta functions with:
                l(1) =   0
                l(2) =   0
                l(3) =   1
                l(4) =   1
     Q(r) pseudized with  8 coefficients,  rinner =    0.800   0.800   0.800

     PseudoPot. # 4 for C  read from file:
     /storage/coda1/p-amedford6/0/shared/rich_project_chbe-medford/medford-share/data/pseudos_module/espresso/nninc/pbe/van/C.UPF
     MD5 check sum: 1a69bf6b8db32088f5b2163dbdb77a27
     Pseudo is Ultrasoft, Zval =  4.0
     Generated by new atomic code, or converted to UPF format
     Using radial grid of  721 points,  4 beta functions with:
                l(1) =   0
                l(2) =   0
                l(3) =   1
                l(4) =   1
     Q(r) pseudized with  8 coefficients,  rinner =    0.800   0.800   0.800

     PseudoPot. # 5 for H  read from file:
     /storage/coda1/p-amedford6/0/shared/rich_project_chbe-medford/medford-share/data/pseudos_module/espresso/nninc/pbe/van/H.UPF
     MD5 check sum: b5ee9d7bfd3a09ee7748110bda690ff7
     Pseudo is Ultrasoft, Zval =  1.0
     Generated by new atomic code, or converted to UPF format
     Using radial grid of  615 points,  1 beta functions with:
                l(1) =   0
     Q(r) pseudized with  8 coefficients,  rinner =    0.800

     atomic species   valence    mass     pseudopotential
        Ti1           12.00    47.86700     Ti( 1.00)
        O1             6.00    15.99900     O ( 1.00)
        N1             5.00    14.00700     N ( 1.00)
        C1             4.00    12.01100     C ( 1.00)
        H1             1.00     1.00800     H ( 1.00)

     No symmetry found

   Cartesian axes

     site n.     atom                  positions (alat units)
         1           Ti1 tau(   1) = (   0.0004258   2.9801865   6.0000000  )
         2           Ti1 tau(   2) = (   3.2906075   1.4906267   6.0002472  )
         3           O1  tau(   3) = (   0.0006271   0.0005054   7.9858123  )
         4           O1  tau(   4) = (   3.2906025   0.0005020   7.3038282  )
         5           O1  tau(   5) = (   4.5942328   1.4918067   9.2879030  )
         6           O1  tau(   6) = (   1.9868534   1.4903216   9.2879459  )
         7           Ti1 tau(   7) = (   3.2907910   2.8959150   9.1758416  )
         8           Ti1 tau(   8) = (   0.0015273   1.4827037   9.2680791  )
         9           O1  tau(   9) = (   3.3049802   0.0007868  11.3057318  )
        10           O1  tau(  10) = (   0.0116148   5.9584955  10.6183126  )
        11           O1  tau(  11) = (   1.3244024   1.4905818  12.6109357  )
        12           O1  tau(  12) = (   5.3168099   1.4893704  12.6271843  )
        13           Ti1 tau(  13) = (   6.5373159   3.0114403  12.6515439  )
        14           Ti1 tau(  14) = (   3.2156784   1.4952808  12.4541107  )
        15           O1  tau(  15) = (   0.0550716   5.9579553  14.6769760  )
        16           O1  tau(  16) = (   3.3119233   0.0240268  13.8744051  )
        17           O1  tau(  17) = (   4.5754650   1.5399768  16.1198157  )
        18           O1  tau(  18) = (   2.0928293   1.5118261  15.9950610  )
        19           Ti1 tau(  19) = (   3.3312717   3.0210965  15.6459898  )
        20           Ti1 tau(  20) = (   0.0837956   1.4057146  15.8023643  )
        21           O1  tau(  21) = (   3.2904802   0.0005063   4.7018136  )
        22           O1  tau(  22) = (   0.0662678   0.0194342  17.2484716  )
        23           O1  tau(  23) = (   1.3043587   1.4918075   6.0039043  )
        24           O1  tau(  24) = (   5.2767064   1.4903225   6.0039473  )
        25           Ti1 tau(  25) = (   0.0000382   5.9609847   6.0000000  )
        26           Ti1 tau(  26) = (   3.2902200   4.4714249   6.0002472  )
        27           O1  tau(  27) = (   0.0002396   2.9813036   7.9858123  )
        28           O1  tau(  28) = (   3.2902150   2.9813002   7.3038282  )
        29           O1  tau(  29) = (   4.5938453   4.4726049   9.2879030  )
        30           O1  tau(  30) = (   1.9864658   4.4711199   9.2879459  )
        31           Ti1 tau(  31) = (   3.2891106   5.8743827   9.1763621  )
        32           Ti1 tau(  32) = (   0.0006254   4.4649316   9.2693709  )
        33           O1  tau(  33) = (   3.3066024   2.9928613  11.3071500  )
        34           O1  tau(  34) = (   0.0092240   2.9805883  10.6323155  )
        35           O1  tau(  35) = (   1.3207996   4.4694119  12.6241097  )
        36           O1  tau(  36) = (   5.3140488   4.4801720  12.6365454  )
        37           Ti1 tau(  37) = (   6.5381296   0.0208815  12.5444857  )
        38           Ti1 tau(  38) = (   3.2183512   4.4801350  12.4586296  )
        39           O1  tau(  39) = (   0.0202472   2.9427232  14.7250097  )
        40           O1  tau(  40) = (   3.3152672   2.9848540  13.8607131  )
        41           O1  tau(  41) = (   4.5737023   4.5140360  15.9163038  )
        42           O1  tau(  42) = (   2.1295162   4.4918226  16.0779194  )
        43           Ti1 tau(  43) = (   3.3279662   0.0229233  15.6733299  )
        44           Ti1 tau(  44) = (   6.5520288   4.5036137  16.2892914  )
        45           O1  tau(  45) = (   3.2900926   2.9813045   4.7018136  )
        46           O1  tau(  46) = (   1.3039711   4.4726057   6.0039043  )
        47           O1  tau(  47) = (   5.2763189   4.4711207   6.0039473  )
        48           N1  tau(  48) = (   0.3708600   2.9881754  17.6030774  )
        49           C1  tau(  49) = (   1.3543844   2.7351176  18.6431602  )
        50           H1  tau(  50) = (   1.5086739   3.6319226  19.2691966  )
        51           H1  tau(  51) = (   1.0320479   1.9069190  19.2840631  )
        52           H1  tau(  52) = (   2.3019873   2.4496563  18.1994378  )
        53           N1  tau(  53) = (   5.7269228   3.4566738  18.1314761  )
        54           H1  tau(  54) = (   5.8315057   4.0292447  18.9662490  )
        55           H1  tau(  55) = (   5.0361168   2.7172796  18.2515220  )

     number of k points=    10  Fermi-Dirac smearing, width (Ry)=  0.0073
                       cart. coord. in units 2pi/alat
        k(    1) = (   0.0000000   0.0000000   0.0000000), wk =   0.1250000
        k(    2) = (   0.0000000   0.0419351   0.0000000), wk =   0.2500000
        k(    3) = (   0.0000000  -0.0838702   0.0000000), wk =   0.1250000
        k(    4) = (   0.0379955   0.0000049   0.0000000), wk =   0.2500000
        k(    5) = (   0.0379955   0.0419400   0.0000000), wk =   0.2500000
        k(    6) = (   0.0379955  -0.0838652   0.0000000), wk =   0.2500000
        k(    7) = (   0.0379955  -0.0419301   0.0000000), wk =   0.2500000
        k(    8) = (  -0.0759910  -0.0000099   0.0000000), wk =   0.1250000
        k(    9) = (  -0.0759910   0.0419252   0.0000000), wk =   0.2500000
        k(   10) = (  -0.0759910  -0.0838800   0.0000000), wk =   0.1250000

     Initial potential from superposition of free atoms

     starting charge  380.99914, renormalised to  397.00000

     negative rho (up, down):  1.665E-02 0.000E+00

     %%%%%%%%%%%%%%%%%%%%%%%%%%%%%%%%%%%%%%%%%%%%%%%%%%%%%%%%%%%%%%%%%%%%%%%%
     %                                                                      %
     % You are using vdW-DF, which was implemented by the Thonhauser group. %
     % Please cite the following two papers that made this development      %
     % possible and the two reviews that describe the various versions:     %
     %                                                                      %
     %   T. Thonhauser et al., PRL 115, 136402 (2015).                      %
     %   T. Thonhauser et al., PRB 76, 125112 (2007).                       %
     %   K. Berland et al., Rep. Prog. Phys. 78, 066501 (2015).             %
     %   D.C. Langreth et al., J. Phys.: Condens. Matter 21, 084203 (2009). %
     %                                                                      %
     %                                                                      %
     % If you are calculating the stress with vdW-DF, please also cite:     %
     %                                                                      %
     %   R. Sabatini et al., J. Phys.: Condens. Matter 24, 424209 (2012).   %
     %                                                                      %
     %%%%%%%%%%%%%%%%%%%%%%%%%%%%%%%%%%%%%%%%%%%%%%%%%%%%%%%%%%%%%%%%%%%%%%%%

     Adding external electric field

     Computed dipole along edir(3) :
        Dipole               -9.2548 Ry au,        -23.5233 Debye
        Dipole field         -0.0175 Ry au,

        Potential amp.        1.6190 Ry
        Total length         46.3494 bohr

     Starting wfcs are  301 atomic wfcs
  @ DRIVER MODE: Message from server: STATUS
  @ DRIVER MODE: Message from server: POSDATA
  @ DRIVER MODE: Reading and sharing cell
  @ DRIVER MODE: Reading and sharing positions
  @ DRIVER MODE: Received positions

     Self-consistent Calculation

     iteration #  1     ecut=    29.40 Ry     beta= 0.05
     Davidson diagonalization with overlap
     c_bands:  1 eigenvalues not converged
     c_bands:  2 eigenvalues not converged
     c_bands:  1 eigenvalues not converged
     c_bands:  2 eigenvalues not converged
     c_bands:  2 eigenvalues not converged
     c_bands:  1 eigenvalues not converged
     c_bands:  2 eigenvalues not converged
     c_bands:  2 eigenvalues not converged
     c_bands:  4 eigenvalues not converged
     ethr =  1.00E-05,  avg # of iterations = 19.7

[...]

     total energy              =   -2525.58837727 Ry
     estimated scf accuracy    <    4612.84586506 Ry

     iteration #  2     ecut=    29.40 Ry     beta= 0.05
     Davidson diagonalization with overlap
     ethr =  1.00E-02,  avg # of iterations = 23.3

[...]

     iteration # 65     ecut=    29.40 Ry     beta= 0.05
     Davidson diagonalization with overlap
     c_bands:  1 eigenvalues not converged
     ethr =  4.31E-10,  avg # of iterations = 15.7

[...]

     total energy              =   -2941.63747737 Ry
     estimated scf accuracy    <       0.00000009 Ry

     iteration # 70     ecut=    29.40 Ry     beta= 0.05
     Davidson diagonalization with overlap
     ethr =  2.37E-11,  avg # of iterations = 11.3

     negative rho (up, down):  1.674E-02 0.000E+00

     Adding external electric field

     Computed dipole along edir(3) :
        Dipole                1.1497 Ry au,          2.9222 Debye
        Dipole field          0.0022 Ry au,

        Potential amp.       -0.2011 Ry
        Total length         46.3494 bohr

     End of self-consistent calculation

          k = 0.0000 0.0000 0.0000 ( 18029 PWs)   bands (ev):

   -55.5729 -55.5698 -55.5361 -55.5357 -55.4593 -55.4228 -55.4213 -55.3877
   -55.3704 -55.3364 -55.3251 -55.2912 -55.0327 -54.8880 -54.5359 -54.5019
   -32.1357 -32.0509 -31.9565 -31.8921 -31.8873 -31.8724 -31.8624 -31.8177
   -31.8104 -31.8042 -31.7838 -31.7587 -31.7549 -31.7255 -31.7220 -31.7148
   -31.6729 -31.6598 -31.6571 -31.6480 -31.6472 -31.6271 -31.6111 -31.5955
   -31.5686 -31.5676 -31.5660 -31.5580 -31.5555 -31.5290 -31.5054 -31.5046
   -31.4992 -31.4920 -31.4796 -31.4739 -31.4388 -31.3091 -31.2576 -31.1590
   -31.1409 -31.0487 -30.9423 -30.8557 -30.8332 -30.7594 -30.6730 -30.5616
   -17.5931 -16.3617 -16.0482 -15.8372 -15.7260 -15.7216 -15.6379 -15.4165
   -15.2967 -15.2810 -15.1650 -15.1601 -15.1010 -15.0605 -15.0541 -15.0485
   -15.0138 -15.0013 -14.9830 -14.9530 -14.9143 -14.8965 -14.8769 -14.7709
   -14.7090 -14.6987 -14.6830 -14.6159 -14.5723 -14.2079 -13.0382 -12.9220
   -12.5398  -9.2014  -6.3486  -5.0985  -4.1999  -3.7400  -3.5489  -3.4730
    -3.4382  -3.3738  -3.3329  -3.1814  -3.1746  -2.7968  -2.7760  -2.7568
    -2.7352  -2.7327  -2.4645  -2.4113  -2.3954  -2.3929  -2.3753  -2.3574
    -2.3363  -2.3255  -2.2970  -2.2908  -2.1554  -2.1107  -2.0320  -2.0017
    -1.9916  -1.8779  -1.8548  -1.8332  -1.8223  -1.8078  -1.7796  -1.7717
    -1.7515  -1.6426  -1.5338  -1.4605  -1.4147  -1.3611  -1.3446  -1.1618
    -1.1116  -1.0525  -1.0275  -1.0025  -0.9871  -0.9535  -0.8796  -0.8564
    -0.7136  -0.6754  -0.6227  -0.5963  -0.5657  -0.5099  -0.4750  -0.4469
    -0.3501  -0.3377  -0.3259  -0.3130  -0.2536  -0.0652  -0.0179   0.0003
     0.0159   0.1160   0.1556   0.1785   0.2154   0.2711   0.2970   0.3638
     0.3937   0.4135   0.4233   0.4472   0.4696   0.6011   0.6288   0.6589
     0.7179   0.7718   0.8484   0.9606   1.0465   1.0996   1.2007   1.4192
     1.4863   1.5701   1.6801   1.7023   2.0559   2.1008   3.5653   3.6556
     3.6938   3.7078   3.8148   3.8665   4.0141   4.0239   4.0666   4.0957

[...]

          k = 0.0380-0.0419 0.0000 ( 17876 PWs)   bands (ev):

[...]

          k =-0.0760-0.0000 0.0000 ( 17886 PWs)   bands (ev):

[...]

          k =-0.0760-0.0839 0.0000 ( 17948 PWs)   bands (ev):

   -55.5576 -55.5533 -55.5521 -55.5511 -55.4485 -55.4321 -55.4077 -55.4026
   -55.3548 -55.3516 -55.3098 -55.3066 -55.0313 -54.8893 -54.5189 -54.5187
   -31.9407 -31.9319 -31.8666 -31.8659 -31.8483 -31.8473 -31.8427 -31.8276
   -31.8007 -31.7870 -31.7675 -31.7487 -31.7206 -31.7121 -31.7068 -31.6818
   -31.6797 -31.6730 -31.6716 -31.6674 -31.6644 -31.6513 -31.6481 -31.6443
   -31.6251 -31.6129 -31.6028 -31.6011 -31.5521 -31.5500 -31.5428 -31.5410
   -31.5342 -31.5307 -31.5252 -31.5236 -31.4144 -31.3212 -31.2595 -31.2201
   -31.1465 -31.0606 -30.8460 -30.8459 -30.7552 -30.7550 -30.7163 -30.7162
   -17.5813 -15.8194 -15.7838 -15.5260 -15.5184 -15.5167 -15.4749 -15.3525
   -15.3039 -15.2771 -15.2656 -15.2467 -15.2404 -15.1357 -15.1229 -15.1058
   -15.0957 -15.0698 -15.0261 -15.0203 -15.0131 -15.0028 -14.9909 -14.9267
   -14.8715 -14.8677 -14.7596 -14.6649 -14.5225 -14.4380 -13.0240 -13.0237
   -12.5591  -9.1622  -6.3082  -5.1279  -4.1340  -3.4012  -3.1205  -3.0766
    -2.7879  -2.7687  -2.7548  -2.6384  -2.5185  -2.5096  -2.4848  -2.4617
    -2.4288  -2.4146  -2.4062  -2.3977  -2.3793  -2.3604  -2.3494  -2.3110
    -2.2418  -2.2345  -2.2259  -2.2167  -2.2001  -2.1762  -2.1664  -2.1382
    -2.1139  -2.0809  -2.0217  -1.9907  -1.8404  -1.7939  -1.7407  -1.6952
    -1.6868  -1.6577  -1.6240  -1.6164  -1.5091  -1.4948  -1.4592  -1.3291
    -1.2676  -1.2597  -1.2271  -1.1418  -1.1019  -0.9728  -0.9595  -0.9236
    -0.8699  -0.8589  -0.8217  -0.7844  -0.7322  -0.6805  -0.6365  -0.6121
    -0.5956  -0.5235  -0.5228  -0.4772  -0.4193  -0.3510  -0.3260  -0.3183
    -0.2869  -0.2427  -0.1971  -0.1321  -0.0575  -0.0370  -0.0216   0.0761
     0.1523   0.3683   0.4139   0.5155   0.5356   0.5604   0.6239   0.6723
     0.7423   0.7562   0.7856   0.8592   0.8810   0.9724   0.9829   0.9993
     1.1778   1.6336   1.8518   1.8527   1.9205   1.9211   3.8593   3.8729
     3.8990   3.9230   4.0845   4.0883   4.1005   4.1032   4.2240   4.2569

     the Fermi energy is     3.5640 ev

!    total energy              =   -2941.63749843 Ry
     estimated scf accuracy    <       0.00000005 Ry
     smearing contrib. (-TS)   =      -0.02170787 Ry
     internal energy E=F+TS    =   -2941.61579056 Ry

     The total energy is F=E-TS. E is the sum of the following terms:
     one-electron contribution =  -24404.79354548 Ry
     hartree contribution      =   12294.34094797 Ry
     xc contribution           =    -486.94045662 Ry
     ewald contribution        =    9655.77476928 Ry
     electric field correction =       0.00249429 Ry

     convergence has been achieved in  70 iterations

     Forces acting on atoms (cartesian axes, Ry/au):

     atom    1 type  1   force =     0.00002398   -0.00018504    0.09684405
     atom    2 type  1   force =     0.00010619   -0.00067135   -0.17456553
     atom    3 type  2   force =     0.00019894   -0.00005486   -0.02506121
     atom    4 type  2   force =     0.00001394   -0.00122864    0.05108237
     atom    5 type  2   force =    -0.01107691   -0.00078505    0.00212821
     atom    6 type  2   force =     0.01302946   -0.00028600    0.00280615
     atom    7 type  1   force =     0.00114232    0.00019855   -0.01339996
     atom    8 type  1   force =    -0.00018252    0.01540720    0.02794468
     atom    9 type  2   force =    -0.00011508    0.00045280    0.00001528
     atom   10 type  2   force =    -0.00221720    0.00097508   -0.01126047
     atom   11 type  2   force =     0.00026899   -0.00011330    0.00017326
     atom   12 type  2   force =    -0.00024372   -0.00012142    0.00040017
     atom   13 type  1   force =    -0.00007830   -0.00027587    0.00008965
     atom   14 type  1   force =     0.00012446    0.00012724   -0.00005667
     atom   15 type  2   force =     0.00010650   -0.00049746   -0.00031742
     atom   16 type  2   force =    -0.00044155    0.00017261    0.00029315
     atom   17 type  2   force =    -0.00018469   -0.00002898   -0.00007832
     atom   18 type  2   force =    -0.00036872   -0.00000690    0.00019481
     atom   19 type  1   force =    -0.00002711    0.00040922   -0.00024869
     atom   20 type  1   force =    -0.00031106   -0.00011612    0.00019188
     atom   21 type  2   force =     0.00005049   -0.00009826    0.10297390
     atom   22 type  2   force =    -0.00077020   -0.00041284    0.00027249
     atom   23 type  2   force =    -0.07179074   -0.00021978   -0.02779048
     atom   24 type  2   force =     0.07176144    0.00023771   -0.02784812
     atom   25 type  1   force =     0.00004570   -0.00022728    0.09636596
     atom   26 type  1   force =    -0.00001233   -0.00030365   -0.17482248
     atom   27 type  2   force =     0.00020152   -0.00025076   -0.02390836
     atom   28 type  2   force =     0.00007547   -0.00095949    0.05130813
     atom   29 type  2   force =    -0.01107498    0.00095798    0.00149141
     atom   30 type  2   force =     0.01287985    0.00120131    0.00211968
     atom   31 type  1   force =     0.00115103    0.00256964   -0.01571629
     atom   32 type  1   force =    -0.00001603   -0.01667696    0.02886942
     atom   33 type  2   force =    -0.00017829   -0.00045447    0.00043747
     atom   34 type  2   force =    -0.00258518    0.00114798   -0.01890433
     atom   35 type  2   force =    -0.00013661   -0.00011047    0.00003828
     atom   36 type  2   force =    -0.00001431   -0.00018754    0.00022603
     atom   37 type  1   force =    -0.00024281   -0.00016490    0.00046593
     atom   38 type  1   force =     0.00010599   -0.00053749    0.00034570
     atom   39 type  2   force =     0.00004916    0.00045544    0.00022768
     atom   40 type  2   force =    -0.00032068   -0.00013301   -0.00068791
     atom   41 type  2   force =     0.00015656    0.00001735    0.00004800
     atom   42 type  2   force =    -0.00014019    0.00019350    0.00017567
     atom   43 type  1   force =     0.00004597   -0.00050042   -0.00075240
     atom   44 type  1   force =    -0.00053437    0.00147077   -0.00022249
     atom   45 type  2   force =     0.00006189   -0.00011140    0.10296391
     atom   46 type  2   force =    -0.07181229   -0.00017074   -0.02780457
     atom   47 type  2   force =     0.07176824    0.00021521   -0.02785056
     atom   48 type  3   force =     0.00030941   -0.00063663    0.00094333
     atom   49 type  4   force =     0.00048091    0.00468444    0.00452097
     atom   50 type  5   force =    -0.00076475   -0.00436762   -0.00444021
     atom   51 type  5   force =    -0.00093895   -0.00117854   -0.00045091
     atom   52 type  5   force =     0.00143915    0.00010300    0.00024739
     atom   53 type  3   force =     0.00026688    0.00043627    0.00064202
     atom   54 type  5   force =     0.00066858   -0.00023698    0.00108825
     atom   55 type  5   force =     0.00004654    0.00087690   -0.00174791

     Total force =     0.367190     Total SCF correction =     0.000714
  @ DRIVER MODE: Message from server: STATUS
  @ DRIVER MODE: Message from server: GETFORCE
  @ DRIVER MODE: Returning v,forces,stress,ensemble

     Writing output data file ./calc.save/
  @ DRIVER MODE: Message from server: EXIT
  @ DRIVE MODE: Exiting

     General routines

     Parallel routines

   This run was terminated on:  18:22: 8   2Aug2021

   JOB DONE.