     Program PWSCF v.6.7GPU starts on 23Sep2021 at 11: 8:26

     R & G space division:  proc/nbgrp/npool/nimage =       8
     Reading input from /storage/home/hcoda1/3/ntian30/research/carbon/CxH_vib/H2O_calc/ads_slab/CH3OHHO_e/out_0033/pw.inp
Warning: card &CELL ignored
Warning: card   CELL_DYNAMICS='IPI', ignored
Warning: card / ignored

     Current dimensions of program PWSCF are:
     Max number of different atomic species (ntypx) = 10
     Max number of k-points (npk) =  40000
     Max angular momentum in pseudopotentials (lmaxx) =  3
     Presently no symmetry can be used with electric field

     Message from routine cell_base_init:
     DEPRECATED: use true lattice parameter, not A to a.u. conversion factor

     IMPORTANT: XC functional enforced from input :
     Exchange-correlation= BEEF-VDW
                           (   1   4  43  14   2   0   0)
     Any further DFT definition will be discarded
     Please, verify this is what you really want

  @ DRIVER MODE: Connecting to
 qe_1139763_2941008.sched-torque.pace.gatech.edu2aclnxgv_scratch
  using UNIX socket
  @ DRIVER MODE: Message from server: STATUS
  @ DRIVER MODE: Message from server: INIT
  @ DRIVER MODE: Receiving replica           0          -1
  @ DRIVER MODE: Receiving encoded integer          25
  @ DRIVER MODE:  SCF:  T  FORCE:  T  STRESS:  F  VC:  F  ENSEMBLE:  F
  @ DRIVER MODE:  SCF:  T  FORCE:  T  STRESS:  F  VC:  F  ENSEMBLE:  F

     Using Slab Decomposition

     bravais-lattice index     =            0
     lattice parameter (alat)  =       1.8897  a.u.
     unit-cell volume          =    6658.9804 (a.u.)^3
     number of atoms/cell      =           55
     number of atomic types    =            4
     number of electrons       =       399.00
     number of Kohn-Sham states=          209
     kinetic-energy cutoff     =      29.3995  Ry
     charge density cutoff     =     293.9946  Ry
     scf convergence threshold =      7.3E-08
     mixing beta               =       0.0500
     number of iterations used =            8  plain     mixing
     Exchange-correlation= BEEF-VDW
                           (   1   4  43  14   2   0   0)

     celldm(1)=   1.889726  celldm(2)=   0.000000  celldm(3)=   0.000000
     celldm(4)=   0.000000  celldm(5)=   0.000000  celldm(6)=   0.000000

     crystal axes: (cart. coord. in units of alat)
               a(1) = (   6.579727   0.000000   0.000000 )
               a(2) = (  -0.000775   5.961596   0.000000 )
               a(3) = (   0.000000   0.000000  25.155947 )

     reciprocal axes: (cart. coord. in units 2 pi/alat)
               b(1) = (  0.151982  0.000020  0.000000 )
               b(2) = (  0.000000  0.167740  0.000000 )
               b(3) = (  0.000000  0.000000  0.039752 )

     PseudoPot. # 1 for Ti read from file:
     /storage/coda1/p-amedford6/0/shared/rich_project_chbe-medford/medford-share/data/pseudos_module/espresso/nninc/pbe/van/Ti.UPF
     MD5 check sum: 8e4df49b7f0d34bbd5052bf3f5ea0213
     Pseudo is Ultrasoft, Zval = 12.0
     Generated by new atomic code, or converted to UPF format
     Using radial grid of  851 points,  6 beta functions with:
                l(1) =   0
                l(2) =   0
                l(3) =   1
                l(4) =   1
                l(5) =   2
                l(6) =   2
     Q(r) pseudized with  8 coefficients,  rinner =    1.000   1.000   1.000
                                                       1.000   1.000

     PseudoPot. # 2 for O  read from file:
     /storage/coda1/p-amedford6/0/shared/rich_project_chbe-medford/medford-share/data/pseudos_module/espresso/nninc/pbe/van/O.UPF
     MD5 check sum: 78c19812648e8988a0fe644b0f25305e
     Pseudo is Ultrasoft, Zval =  6.0
     Generated by new atomic code, or converted to UPF format
     Using radial grid of  737 points,  4 beta functions with:
                l(1) =   0
                l(2) =   0
                l(3) =   1
                l(4) =   1
     Q(r) pseudized with  8 coefficients,  rinner =    0.800   0.800   0.800

     PseudoPot. # 3 for C  read from file:
     /storage/coda1/p-amedford6/0/shared/rich_project_chbe-medford/medford-share/data/pseudos_module/espresso/nninc/pbe/van/C.UPF
     MD5 check sum: 1a69bf6b8db32088f5b2163dbdb77a27
     Pseudo is Ultrasoft, Zval =  4.0
     Generated by new atomic code, or converted to UPF format
     Using radial grid of  721 points,  4 beta functions with:
                l(1) =   0
                l(2) =   0
                l(3) =   1
                l(4) =   1
     Q(r) pseudized with  8 coefficients,  rinner =    0.800   0.800   0.800

     PseudoPot. # 4 for H  read from file:
     /storage/coda1/p-amedford6/0/shared/rich_project_chbe-medford/medford-share/data/pseudos_module/espresso/nninc/pbe/van/H.UPF
     MD5 check sum: b5ee9d7bfd3a09ee7748110bda690ff7
     Pseudo is Ultrasoft, Zval =  1.0
     Generated by new atomic code, or converted to UPF format
     Using radial grid of  615 points,  1 beta functions with:
                l(1) =   0
     Q(r) pseudized with  8 coefficients,  rinner =    0.800

     atomic species   valence    mass     pseudopotential
        Ti1           12.00    47.86700     Ti( 1.00)
        O1             6.00    15.99900     O ( 1.00)
        C1             4.00    12.01100     C ( 1.00)
        H1             1.00     1.00800     H ( 1.00)

     No symmetry found

   Cartesian axes

     site n.     atom                  positions (alat units)
         1           Ti1 tau(   1) = (   0.0004258   2.9801865   6.0000000  )
         2           Ti1 tau(   2) = (   3.2906075   1.4906267   6.0002472  )
         3           O1  tau(   3) = (   0.0006271   0.0005054   7.9858123  )
         4           O1  tau(   4) = (   3.2906025   0.0005020   7.3038282  )
         5           O1  tau(   5) = (   4.5942328   1.4918067   9.2879030  )
         6           O1  tau(   6) = (   1.9868534   1.4903216   9.2879459  )
         7           Ti1 tau(   7) = (   3.3364693   3.0244086   9.1899460  )
         8           Ti1 tau(   8) = (   0.0614121   1.5180315   9.2736979  )
         9           O1  tau(   9) = (   3.3192415   0.0109611  11.3574448  )
        10           O1  tau(  10) = (   0.0135824   0.0030625  10.5923660  )
        11           O1  tau(  11) = (   1.3113730   1.4888140  12.6397483  )
        12           O1  tau(  12) = (   5.3365169   1.4868518  12.6422516  )
        13           Ti1 tau(  13) = (   0.0249591   3.0356721  12.5595363  )
        14           Ti1 tau(  14) = (   3.3216347   1.5719315  12.4302660  )
        15           O1  tau(  15) = (   0.0475996   5.9320359  14.6592625  )
        16           O1  tau(  16) = (   3.3253441   5.8716044  14.0084122  )
        17           O1  tau(  17) = (   4.6294077   1.4993822  16.1384749  )
        18           O1  tau(  18) = (   2.0712093   1.5368213  16.0656395  )
        19           Ti1 tau(  19) = (   3.3420502   2.9337026  15.6791356  )
        20           Ti1 tau(  20) = (   0.0819182   1.3209985  15.9439250  )
        21           O1  tau(  21) = (   3.2904802   0.0005063   4.7018136  )
        22           O1  tau(  22) = (   0.1121901   0.0005398  17.1797988  )
        23           O1  tau(  23) = (   1.3043587   1.4918075   6.0039043  )
        24           O1  tau(  24) = (   5.2767064   1.4903225   6.0039473  )
        25           Ti1 tau(  25) = (   0.0000382   5.9609847   6.0000000  )
        26           Ti1 tau(  26) = (   3.2902200   4.4714249   6.0002472  )
        27           O1  tau(  27) = (   0.0002396   2.9813036   7.9858123  )
        28           O1  tau(  28) = (   3.2902150   2.9813002   7.3038282  )
        29           O1  tau(  29) = (   4.5938453   4.4726049   9.2879030  )
        30           O1  tau(  30) = (   1.9864658   4.4711199   9.2879459  )
        31           Ti1 tau(  31) = (   3.3365859   0.0383882   9.1683042  )
        32           Ti1 tau(  32) = (   0.0607984   4.4756772   9.2727477  )
        33           O1  tau(  33) = (   3.3154497   2.9528697  11.3100477  )
        34           O1  tau(  34) = (   0.0130381   2.9821538  10.6068333  )
        35           O1  tau(  35) = (   1.3079814   4.4632751  12.6339740  )
        36           O1  tau(  36) = (   5.3374838   4.4678533  12.6371107  )
        37           Ti1 tau(  37) = (   0.0367351   0.0553833  12.4739561  )
        38           Ti1 tau(  38) = (   3.3178111   4.6524667  12.7070490  )
        39           O1  tau(  39) = (   0.0226182   2.9861015  14.7894940  )
        40           O1  tau(  40) = (   3.3464301   2.9603322  13.9061577  )
        41           O1  tau(  41) = (   4.6320376   4.4053937  16.1659747  )
        42           O1  tau(  42) = (   2.0651706   4.3480327  16.1155179  )
        43           Ti1 tau(  43) = (   3.4032537   5.9185344  16.2710929  )
        44           Ti1 tau(  44) = (   0.0646745   4.5145260  15.8553686  )
        45           O1  tau(  45) = (   3.2900926   2.9813045   4.7018136  )
        46           O1  tau(  46) = (   1.3039711   4.4726057   6.0039043  )
        47           O1  tau(  47) = (   5.2763189   4.4711207   6.0039473  )
        48           C1  tau(  48) = (   5.9353497   3.0583042  18.8699169  )
        49           O1  tau(  49) = (   0.1856485   3.0014673  17.6677584  )
        50           H1  tau(  50) = (   4.9577780   2.6849493  18.5881267  )
        51           H1  tau(  51) = (   1.1185258   3.1466834  17.9024234  )
        52           H1  tau(  52) = (   6.3707541   2.4080388  19.6265123  )
        53           H1  tau(  53) = (   5.8722695   4.0804670  19.2075282  )
        54           O1  tau(  54) = (   3.1419305   5.9539177  18.1124628  )
        55           H1  tau(  55) = (   2.2021640   0.0520986  18.3490109  )

     number of k points=    10  Fermi-Dirac smearing, width (Ry)=  0.0073
                       cart. coord. in units 2pi/alat
        k(    1) = (   0.0000000   0.0000000   0.0000000), wk =   0.1250000
        k(    2) = (   0.0000000   0.0419351   0.0000000), wk =   0.2500000
        k(    3) = (   0.0000000  -0.0838702   0.0000000), wk =   0.1250000
        k(    4) = (   0.0379955   0.0000049   0.0000000), wk =   0.2500000
        k(    5) = (   0.0379955   0.0419400   0.0000000), wk =   0.2500000
        k(    6) = (   0.0379955  -0.0838652   0.0000000), wk =   0.2500000
        k(    7) = (   0.0379955  -0.0419301   0.0000000), wk =   0.2500000
        k(    8) = (  -0.0759910  -0.0000099   0.0000000), wk =   0.1250000
        k(    9) = (  -0.0759910   0.0419252   0.0000000), wk =   0.2500000
        k(   10) = (  -0.0759910  -0.0838800   0.0000000), wk =   0.1250000

     Initial potential from superposition of free atoms

     starting charge  382.99916, renormalised to  399.00000

     negative rho (up, down):  1.653E-02 0.000E+00

     %%%%%%%%%%%%%%%%%%%%%%%%%%%%%%%%%%%%%%%%%%%%%%%%%%%%%%%%%%%%%%%%%%%%%%%%
     %                                                                      %
     % You are using vdW-DF, which was implemented by the Thonhauser group. %
     % Please cite the following two papers that made this development      %
     % possible and the two reviews that describe the various versions:     %
     %                                                                      %
     %   T. Thonhauser et al., PRL 115, 136402 (2015).                      %
     %   T. Thonhauser et al., PRB 76, 125112 (2007).                       %
     %   K. Berland et al., Rep. Prog. Phys. 78, 066501 (2015).             %
     %   D.C. Langreth et al., J. Phys.: Condens. Matter 21, 084203 (2009). %
     %                                                                      %
     %                                                                      %
     % If you are calculating the stress with vdW-DF, please also cite:     %
     %                                                                      %
     %   R. Sabatini et al., J. Phys.: Condens. Matter 24, 424209 (2012).   %
     %                                                                      %
     %%%%%%%%%%%%%%%%%%%%%%%%%%%%%%%%%%%%%%%%%%%%%%%%%%%%%%%%%%%%%%%%%%%%%%%%

     Adding external electric field

     Computed dipole along edir(3) :
        Dipole              -10.2322 Ry au,        -26.0076 Debye
        Dipole field         -0.0193 Ry au,

        Potential amp.        1.7900 Ry
        Total length         46.3494 bohr

     Starting wfcs are  301 atomic wfcs
  @ DRIVER MODE: Message from server: STATUS
  @ DRIVER MODE: Message from server: POSDATA
  @ DRIVER MODE: Reading and sharing cell
  @ DRIVER MODE: Reading and sharing positions
  @ DRIVER MODE: Received positions

     Self-consistent Calculation

     iteration #  1     ecut=    29.40 Ry     beta= 0.05
     Davidson diagonalization with overlap
     c_bands:  3 eigenvalues not converged
     c_bands:  3 eigenvalues not converged
     c_bands:  4 eigenvalues not converged
     c_bands:  1 eigenvalues not converged
     c_bands:  5 eigenvalues not converged
     c_bands:  5 eigenvalues not converged
     c_bands:  4 eigenvalues not converged
     c_bands:  4 eigenvalues not converged
     c_bands:  4 eigenvalues not converged
     ethr =  1.00E-05,  avg # of iterations = 21.1

[...]

     total energy              =   -2463.83321995 Ry
     estimated scf accuracy    <    5598.09921453 Ry

     iteration #  2     ecut=    29.40 Ry     beta= 0.05
     Davidson diagonalization with overlap
     ethr =  1.00E-02,  avg # of iterations = 24.6

[...]

     iteration # 57     ecut=    29.40 Ry     beta= 0.05
     Davidson diagonalization with overlap
     c_bands:  1 eigenvalues not converged
     c_bands:  1 eigenvalues not converged
     ethr =  7.92E-11,  avg # of iterations = 16.1

[...]

     total energy              =   -2966.27800865 Ry
     estimated scf accuracy    <       0.00000010 Ry

     iteration # 59     ecut=    29.40 Ry     beta= 0.05
     Davidson diagonalization with overlap
     ethr =  2.58E-11,  avg # of iterations = 11.3

     negative rho (up, down):  1.671E-02 0.000E+00

     Adding external electric field

     Computed dipole along edir(3) :
        Dipole                1.0459 Ry au,          2.6584 Debye
        Dipole field          0.0020 Ry au,

        Potential amp.       -0.1830 Ry
        Total length         46.3494 bohr

     End of self-consistent calculation

          k = 0.0000 0.0000 0.0000 ( 18029 PWs)   bands (ev):

   -55.7007 -55.6312 -55.5963 -55.5168 -55.4930 -55.4658 -55.4336 -55.4264
   -55.4222 -55.4095 -55.3971 -55.3698 -55.2838 -55.2118 -54.5893 -54.5553
   -32.1102 -32.0923 -32.0119 -32.0014 -31.9578 -31.9490 -31.9211 -31.9185
   -31.8914 -31.8748 -31.8656 -31.7930 -31.7903 -31.7847 -31.7573 -31.7394
   -31.7323 -31.7204 -31.7103 -31.6974 -31.6939 -31.6898 -31.6455 -31.6448
   -31.6432 -31.6356 -31.6308 -31.6238 -31.6117 -31.5958 -31.5907 -31.5808
   -31.5748 -31.5597 -31.5553 -31.5459 -31.5355 -31.5116 -31.4724 -31.4558
   -31.4235 -31.4163 -30.9954 -30.9095 -30.8870 -30.8124 -30.7260 -30.6144
   -20.0617 -16.5160 -16.2842 -16.1046 -15.9033 -15.8397 -15.7814 -15.5930
   -15.5176 -15.3769 -15.2320 -15.2195 -15.1654 -15.1649 -15.1560 -15.1328
   -15.1020 -15.0578 -15.0485 -15.0424 -15.0368 -14.9813 -14.9394 -14.9313
   -14.9247 -14.8839 -14.7556 -14.7152 -14.6590 -14.4882 -14.4451 -13.0893
   -12.9732 -10.9481  -6.7798  -4.9684  -4.7875  -4.0102  -3.6362  -3.5356
    -3.5178  -3.4553  -3.3991  -3.1866  -3.0685  -3.0149  -2.9024  -2.7757
    -2.7374  -2.6827  -2.6568  -2.5651  -2.5439  -2.5127  -2.4882  -2.4306
    -2.4009  -2.3927  -2.3809  -2.3087  -2.2989  -2.1686  -2.1647  -2.0915
    -2.0234  -2.0022  -1.9834  -1.9657  -1.9339  -1.9335  -1.8870  -1.8664
    -1.8450  -1.8138  -1.7419  -1.7207  -1.6602  -1.6196  -1.3867  -1.2250
    -1.2022  -1.1321  -1.1146  -1.0837  -1.0453  -1.0305  -1.0250  -0.9863
    -0.9698  -0.8615  -0.7651  -0.7531  -0.6925  -0.6531  -0.6519  -0.5182
    -0.4702  -0.3964  -0.3704  -0.3454  -0.3224  -0.2298  -0.1870  -0.1695
    -0.1062  -0.0762   0.0354   0.0752   0.0929   0.1316   0.1873   0.2553
     0.2855   0.3223   0.3302   0.3624   0.4115   0.4362   0.4690   0.4958
     0.5348   0.6396   0.6790   0.6944   0.8384   0.8395   0.9272   1.0545
     1.1026   1.3836   1.4356   1.4738   1.6285   2.0032   2.0493   3.4877
     3.6046   3.6154   3.6337   3.7041   3.7943   3.9500   3.9780   4.0492
     4.1437

[...]

          k = 0.0380-0.0419 0.0000 ( 17876 PWs)   bands (ev):

[...]

          k =-0.0760-0.0000 0.0000 ( 17886 PWs)   bands (ev):

[...]

          k =-0.0760-0.0839 0.0000 ( 17948 PWs)   bands (ev):

   -55.7000 -55.6176 -55.6097 -55.5099 -55.4882 -55.4724 -55.4272 -55.4267
   -55.4210 -55.4093 -55.4003 -55.3793 -55.2798 -55.2156 -54.5724 -54.5720
   -32.0117 -31.9528 -31.9437 -31.9294 -31.9217 -31.9177 -31.9138 -31.8998
   -31.8328 -31.8318 -31.7963 -31.7664 -31.7618 -31.7541 -31.7379 -31.7375
   -31.7325 -31.7294 -31.7268 -31.7167 -31.7141 -31.7117 -31.6997 -31.6979
   -31.6706 -31.6682 -31.6348 -31.6297 -31.6287 -31.6282 -31.6180 -31.6141
   -31.6076 -31.6056 -31.5986 -31.5976 -31.5956 -31.5590 -31.5393 -31.4768
   -31.4628 -31.4202 -30.8998 -30.8996 -30.8091 -30.8076 -30.7694 -30.7685
   -20.0581 -16.4911 -15.8997 -15.7558 -15.5932 -15.5749 -15.4973 -15.4018
   -15.3852 -15.3562 -15.3467 -15.3263 -15.3007 -15.2985 -15.2504 -15.1953
   -15.1535 -15.1305 -15.1261 -15.0801 -15.0707 -15.0671 -15.0115 -14.9988
   -14.9895 -14.9509 -14.8911 -14.8625 -14.7845 -14.7567 -14.6034 -13.0754
   -13.0748 -10.9502  -6.7810  -4.9501  -4.7800  -3.9735  -3.0496  -2.9766
    -2.9067  -2.8162  -2.7351  -2.6777  -2.6270  -2.6081  -2.5648  -2.5448
    -2.4743  -2.4404  -2.4328  -2.4114  -2.4091  -2.3826  -2.3668  -2.3543
    -2.3316  -2.3015  -2.2874  -2.2735  -2.2551  -2.2345  -2.2140  -2.1944
    -2.1816  -2.1709  -2.1513  -2.0437  -2.0202  -1.9835  -1.8306  -1.8191
    -1.7531  -1.7205  -1.6903  -1.6850  -1.6521  -1.6445  -1.6020  -1.4920
    -1.4638  -1.4161  -1.3644  -1.2682  -1.2631  -1.2163  -1.1635  -1.1243
    -1.0950  -1.0479  -1.0451  -0.9997  -0.8582  -0.8315  -0.7928  -0.6687
    -0.5966  -0.5812  -0.5672  -0.5502  -0.5242  -0.4771  -0.4716  -0.4151
    -0.3936  -0.3216  -0.3194  -0.2951  -0.2708  -0.1640  -0.0493   0.0419
     0.0765   0.1329   0.1727   0.2057   0.2887   0.3625   0.4459   0.5319
     0.5583   0.5691   0.6904   0.7175   0.7685   0.8211   0.8371   0.8969
     0.9298   0.9727   1.0009   1.7967   1.8100   1.8658   1.8706   3.6759
     3.9250   3.9769   3.9951   4.0078   4.0413   4.0612   4.1080   4.1259
     4.1519

     the Fermi energy is     3.5012 ev

!    total energy              =   -2966.27805507 Ry
     estimated scf accuracy    <       0.00000004 Ry
     smearing contrib. (-TS)   =      -0.02072893 Ry
     internal energy E=F+TS    =   -2966.25732613 Ry

     The total energy is F=E-TS. E is the sum of the following terms:
     one-electron contribution =  -24039.01922664 Ry
     hartree contribution      =   12112.02889368 Ry
     xc contribution           =    -490.95077926 Ry
     ewald contribution        =    9451.68172174 Ry
     electric field correction =       0.00206434 Ry

     convergence has been achieved in  59 iterations

     Forces acting on atoms (cartesian axes, Ry/au):

     atom    1 type  1   force =    -0.00039696    0.00004585    0.09457764
     atom    2 type  1   force =    -0.00032953    0.00499116   -0.17462474
     atom    3 type  2   force =     0.00082522   -0.00023438   -0.02594441
     atom    4 type  2   force =     0.00125367    0.00075011    0.05283315
     atom    5 type  2   force =    -0.01097795   -0.00285313    0.00048665
     atom    6 type  2   force =     0.01164453   -0.00410203    0.00186421
     atom    7 type  1   force =     0.00052239    0.00038308   -0.00013306
     atom    8 type  1   force =    -0.00044533    0.00019906    0.00077347
     atom    9 type  2   force =    -0.00044519    0.00028085   -0.00024746
     atom   10 type  2   force =     0.00031661   -0.00035137   -0.00045033
     atom   11 type  2   force =     0.00061387    0.00031973   -0.00023017
     atom   12 type  2   force =    -0.00038198   -0.00046282   -0.00038335
     atom   13 type  1   force =    -0.00129978   -0.00080141    0.00033408
     atom   14 type  1   force =     0.00029446    0.00009950    0.00057317
     atom   15 type  2   force =     0.00048654    0.00068024    0.00017887
     atom   16 type  2   force =    -0.00049070    0.00051145    0.00055339
     atom   17 type  2   force =     0.00003637    0.00032201    0.00005153
     atom   18 type  2   force =    -0.00028475   -0.00001254    0.00036545
     atom   19 type  1   force =    -0.00041062    0.00114049   -0.00022036
     atom   20 type  1   force =    -0.00016588   -0.00028519   -0.00068685
     atom   21 type  2   force =    -0.00001387    0.00005523    0.10310000
     atom   22 type  2   force =    -0.00036212   -0.00058929   -0.00049798
     atom   23 type  2   force =    -0.07206431    0.00005493   -0.02788999
     atom   24 type  2   force =     0.07192268    0.00054576   -0.02799576
     atom   25 type  1   force =    -0.00044273    0.00000136    0.10115897
     atom   26 type  1   force =    -0.00006121   -0.00460518   -0.17488776
     atom   27 type  2   force =     0.00089899    0.00114533   -0.02444278
     atom   28 type  2   force =     0.00113698    0.00015025    0.05239677
     atom   29 type  2   force =    -0.01186280    0.00306284    0.00195523
     atom   30 type  2   force =     0.01326395    0.00116186    0.00308945
     atom   31 type  1   force =     0.00058354    0.00002146   -0.00052914
     atom   32 type  1   force =    -0.00035632    0.00069830    0.00047848
     atom   33 type  2   force =    -0.00020183    0.00092930    0.00017963
     atom   34 type  2   force =     0.00013896   -0.00012858   -0.00095830
     atom   35 type  2   force =     0.00034281    0.00007528    0.00054004
     atom   36 type  2   force =     0.00009130    0.00016507    0.00047546
     atom   37 type  1   force =    -0.00146363   -0.00060460    0.00030486
     atom   38 type  1   force =     0.00077873   -0.00027170   -0.00013296
     atom   39 type  2   force =     0.00045219   -0.00020774    0.00122604
     atom   40 type  2   force =    -0.00010985    0.00034791    0.00051914
     atom   41 type  2   force =    -0.00052713    0.00001651   -0.00067510
     atom   42 type  2   force =    -0.00002231   -0.00019111   -0.00056204
     atom   43 type  1   force =    -0.00004103   -0.00028251   -0.00060631
     atom   44 type  1   force =    -0.00023081   -0.00045874   -0.00114558
     atom   45 type  2   force =    -0.00001301    0.00013108    0.10267660
     atom   46 type  2   force =    -0.07203574   -0.00056698   -0.02787436
     atom   47 type  2   force =     0.07188790   -0.00007748   -0.02795386
     atom   48 type  3   force =     0.00048359   -0.01227177   -0.00420009
     atom   49 type  2   force =    -0.00068903   -0.00018472   -0.00093568
     atom   50 type  4   force =     0.00017430   -0.00040304   -0.00008426
     atom   51 type  4   force =    -0.00009172   -0.00010869   -0.00032424
     atom   52 type  4   force =    -0.00010965   -0.00051272   -0.00020847
     atom   53 type  4   force =    -0.00127841    0.01246678    0.00311284
     atom   54 type  2   force =     0.00104690    0.00006668    0.00067761
     atom   55 type  4   force =    -0.00159033   -0.00025172    0.00034267

     Total force =     0.364862     Total SCF correction =     0.000528
  @ DRIVER MODE: Message from server: STATUS
  @ DRIVER MODE: Message from server: GETFORCE
  @ DRIVER MODE: Returning v,forces,stress,ensemble

     Writing output data file ./calc.save/
  @ DRIVER MODE: Message from server: EXIT
  @ DRIVE MODE: Exiting

     General routines

     Parallel routines

   This run was terminated on:  11:30: 9  23Sep2021

   JOB DONE.