     Program PWSCF v.6.7GPU starts on 16Sep2021 at  3:29:14

     R & G space division:  proc/nbgrp/npool/nimage =      10
     Reading input from /storage/home/hcoda1/3/ntian30/research/carbon/CxH_vib/H2O_calc/ads_slab/CHOHH2O_a/out_0035/pw.inp
Warning: card &CELL ignored
Warning: card   CELL_DYNAMICS='IPI', ignored
Warning: card / ignored

     Current dimensions of program PWSCF are:
     Max number of different atomic species (ntypx) = 10
     Max number of k-points (npk) =  40000
     Max angular momentum in pseudopotentials (lmaxx) =  3
     Presently no symmetry can be used with electric field

     Message from routine cell_base_init:
     DEPRECATED: use true lattice parameter, not A to a.u. conversion factor

     IMPORTANT: XC functional enforced from input :
     Exchange-correlation= BEEF-VDW
                           (   1   4  43  14   2   0   0)
     Any further DFT definition will be discarded
     Please, verify this is what you really want

  @ DRIVER MODE: Connecting to
 qe_1139763_2852632.sched-torque.pace.gatech.edumddvhyg5_scratch
  using UNIX socket
  @ DRIVER MODE: Message from server: STATUS
  @ DRIVER MODE: Message from server: INIT
  @ DRIVER MODE: Receiving replica           0          -1
  @ DRIVER MODE: Receiving encoded integer          25
  @ DRIVER MODE:  SCF:  T  FORCE:  T  STRESS:  F  VC:  F  ENSEMBLE:  F
  @ DRIVER MODE:  SCF:  T  FORCE:  T  STRESS:  F  VC:  F  ENSEMBLE:  F

     Using Slab Decomposition

     bravais-lattice index     =            0
     lattice parameter (alat)  =       1.8897  a.u.
     unit-cell volume          =    6658.9804 (a.u.)^3
     number of atoms/cell      =           54
     number of atomic types    =            4
     number of electrons       =       398.00
     number of Kohn-Sham states=          209
     kinetic-energy cutoff     =      29.3995  Ry
     charge density cutoff     =     293.9946  Ry
     scf convergence threshold =      7.3E-08
     mixing beta               =       0.0500
     number of iterations used =            8  plain     mixing
     Exchange-correlation= BEEF-VDW
                           (   1   4  43  14   2   0   0)

     celldm(1)=   1.889726  celldm(2)=   0.000000  celldm(3)=   0.000000
     celldm(4)=   0.000000  celldm(5)=   0.000000  celldm(6)=   0.000000

     crystal axes: (cart. coord. in units of alat)
               a(1) = (   6.579727   0.000000   0.000000 )
               a(2) = (  -0.000775   5.961596   0.000000 )
               a(3) = (   0.000000   0.000000  25.155947 )

     reciprocal axes: (cart. coord. in units 2 pi/alat)
               b(1) = (  0.151982  0.000020  0.000000 )
               b(2) = (  0.000000  0.167740  0.000000 )
               b(3) = (  0.000000  0.000000  0.039752 )

     PseudoPot. # 1 for Ti read from file:
     /storage/coda1/p-amedford6/0/shared/rich_project_chbe-medford/medford-share/data/pseudos_module/espresso/nninc/pbe/van/Ti.UPF
     MD5 check sum: 8e4df49b7f0d34bbd5052bf3f5ea0213
     Pseudo is Ultrasoft, Zval = 12.0
     Generated by new atomic code, or converted to UPF format
     Using radial grid of  851 points,  6 beta functions with:
                l(1) =   0
                l(2) =   0
                l(3) =   1
                l(4) =   1
                l(5) =   2
                l(6) =   2
     Q(r) pseudized with  8 coefficients,  rinner =    1.000   1.000   1.000
                                                       1.000   1.000

     PseudoPot. # 2 for O  read from file:
     /storage/coda1/p-amedford6/0/shared/rich_project_chbe-medford/medford-share/data/pseudos_module/espresso/nninc/pbe/van/O.UPF
     MD5 check sum: 78c19812648e8988a0fe644b0f25305e
     Pseudo is Ultrasoft, Zval =  6.0
     Generated by new atomic code, or converted to UPF format
     Using radial grid of  737 points,  4 beta functions with:
                l(1) =   0
                l(2) =   0
                l(3) =   1
                l(4) =   1
     Q(r) pseudized with  8 coefficients,  rinner =    0.800   0.800   0.800

     PseudoPot. # 3 for C  read from file:
     /storage/coda1/p-amedford6/0/shared/rich_project_chbe-medford/medford-share/data/pseudos_module/espresso/nninc/pbe/van/C.UPF
     MD5 check sum: 1a69bf6b8db32088f5b2163dbdb77a27
     Pseudo is Ultrasoft, Zval =  4.0
     Generated by new atomic code, or converted to UPF format
     Using radial grid of  721 points,  4 beta functions with:
                l(1) =   0
                l(2) =   0
                l(3) =   1
                l(4) =   1
     Q(r) pseudized with  8 coefficients,  rinner =    0.800   0.800   0.800

     PseudoPot. # 4 for H  read from file:
     /storage/coda1/p-amedford6/0/shared/rich_project_chbe-medford/medford-share/data/pseudos_module/espresso/nninc/pbe/van/H.UPF
     MD5 check sum: b5ee9d7bfd3a09ee7748110bda690ff7
     Pseudo is Ultrasoft, Zval =  1.0
     Generated by new atomic code, or converted to UPF format
     Using radial grid of  615 points,  1 beta functions with:
                l(1) =   0
     Q(r) pseudized with  8 coefficients,  rinner =    0.800

     atomic species   valence    mass     pseudopotential
        Ti1           12.00    47.86700     Ti( 1.00)
        O1             6.00    15.99900     O ( 1.00)
        C1             4.00    12.01100     C ( 1.00)
        H1             1.00     1.00800     H ( 1.00)

     No symmetry found

   Cartesian axes

     site n.     atom                  positions (alat units)
         1           Ti1 tau(   1) = (   0.0004258   2.9801865   6.0000000  )
         2           Ti1 tau(   2) = (   3.2906075   1.4906267   6.0002472  )
         3           O1  tau(   3) = (   0.0006271   0.0005054   7.9858123  )
         4           O1  tau(   4) = (   3.2906025   0.0005020   7.3038282  )
         5           O1  tau(   5) = (   4.5942328   1.4918067   9.2879030  )
         6           O1  tau(   6) = (   1.9868534   1.4903216   9.2879459  )
         7           Ti1 tau(   7) = (   3.3203992   3.0065636   9.1614972  )
         8           Ti1 tau(   8) = (   0.0364112   1.5055733   9.2692997  )
         9           O1  tau(   9) = (   3.3037507   0.0048223  11.3846665  )
        10           O1  tau(  10) = (   0.0023770   0.0017864  10.5989407  )
        11           O1  tau(  11) = (   1.2986710   1.4943985  12.6419360  )
        12           O1  tau(  12) = (   5.3019195   1.4930987  12.6558330  )
        13           Ti1 tau(  13) = (   0.0201679   2.9954199  12.5459836  )
        14           Ti1 tau(  14) = (   3.3085843   1.4996073  12.5278567  )
        15           O1  tau(  15) = (   0.0306707   0.0063333  14.6434371  )
        16           O1  tau(  16) = (   3.2901280   5.9588824  14.0411263  )
        17           O1  tau(  17) = (   4.5937705   1.5245028  16.1210063  )
        18           O1  tau(  18) = (   2.0412355   1.5396885  16.1535958  )
        19           Ti1 tau(  19) = (   3.3250740   2.9785215  15.7238461  )
        20           Ti1 tau(  20) = (   0.0142243   1.3716099  15.9029131  )
        21           O1  tau(  21) = (   3.2904802   0.0005063   4.7018136  )
        22           O1  tau(  22) = (   0.0234726   5.9563001  17.1693433  )
        23           O1  tau(  23) = (   1.3043587   1.4918075   6.0039043  )
        24           O1  tau(  24) = (   5.2767064   1.4903225   6.0039473  )
        25           Ti1 tau(  25) = (   0.0000382   5.9609847   6.0000000  )
        26           Ti1 tau(  26) = (   3.2902200   4.4714249   6.0002472  )
        27           O1  tau(  27) = (   0.0002396   2.9813036   7.9858123  )
        28           O1  tau(  28) = (   3.2902150   2.9813002   7.3038282  )
        29           O1  tau(  29) = (   4.5938453   4.4726049   9.2879030  )
        30           O1  tau(  30) = (   1.9864658   4.4711199   9.2879459  )
        31           Ti1 tau(  31) = (   3.3166040   0.0254347   9.1556988  )
        32           Ti1 tau(  32) = (   0.0362352   4.4699824   9.2670842  )
        33           O1  tau(  33) = (   3.3035804   2.9865095  11.3763011  )
        34           O1  tau(  34) = (   0.0042610   2.9829788  10.6236548  )
        35           O1  tau(  35) = (   1.2977823   4.4749822  12.6434080  )
        36           O1  tau(  36) = (   5.3021498   4.4756442  12.6578133  )
        37           Ti1 tau(  37) = (   0.0128731   0.0155586  12.4748574  )
        38           Ti1 tau(  38) = (   3.3087006   4.4877506  12.5360639  )
        39           O1  tau(  39) = (   0.0289868   2.9802581  14.8446641  )
        40           O1  tau(  40) = (   3.2975897   2.9808645  13.9396156  )
        41           O1  tau(  41) = (   4.5936103   4.4348319  16.1149158  )
        42           O1  tau(  42) = (   2.0365336   4.4144103  16.1518429  )
        43           Ti1 tau(  43) = (   3.2980932   5.9591119  15.8729608  )
        44           Ti1 tau(  44) = (   0.0070259   4.5936845  15.8821292  )
        45           O1  tau(  45) = (   3.2900926   2.9813045   4.7018136  )
        46           O1  tau(  46) = (   1.3039711   4.4726057   6.0039043  )
        47           O1  tau(  47) = (   5.2763189   4.4711207   6.0039473  )
        48           C1  tau(  48) = (   6.0563806   2.9601134  19.0478501  )
        49           O1  tau(  49) = (   0.1703025   2.9720528  17.8813388  )
        50           H1  tau(  50) = (   5.0099104   2.8626262  18.6876999  )
        51           H1  tau(  51) = (   1.1251272   3.0566160  18.0647747  )
        52           O1  tau(  52) = (   3.2803433   5.9178330  18.2983259  )
        53           H1  tau(  53) = (   4.0549949   5.9397654  18.8687675  )
        54           H1  tau(  54) = (   2.4787048   0.0262026  18.8357284  )

     number of k points=    10  Fermi-Dirac smearing, width (Ry)=  0.0073
                       cart. coord. in units 2pi/alat
        k(    1) = (   0.0000000   0.0000000   0.0000000), wk =   0.1250000
        k(    2) = (   0.0000000   0.0419351   0.0000000), wk =   0.2500000
        k(    3) = (   0.0000000  -0.0838702   0.0000000), wk =   0.1250000
        k(    4) = (   0.0379955   0.0000049   0.0000000), wk =   0.2500000
        k(    5) = (   0.0379955   0.0419400   0.0000000), wk =   0.2500000
        k(    6) = (   0.0379955  -0.0838652   0.0000000), wk =   0.2500000
        k(    7) = (   0.0379955  -0.0419301   0.0000000), wk =   0.2500000
        k(    8) = (  -0.0759910  -0.0000099   0.0000000), wk =   0.1250000
        k(    9) = (  -0.0759910   0.0419252   0.0000000), wk =   0.2500000
        k(   10) = (  -0.0759910  -0.0838800   0.0000000), wk =   0.1250000

     Initial potential from superposition of free atoms

     starting charge  381.99917, renormalised to  398.00000

     negative rho (up, down):  1.670E-02 0.000E+00

     %%%%%%%%%%%%%%%%%%%%%%%%%%%%%%%%%%%%%%%%%%%%%%%%%%%%%%%%%%%%%%%%%%%%%%%%
     %                                                                      %
     % You are using vdW-DF, which was implemented by the Thonhauser group. %
     % Please cite the following two papers that made this development      %
     % possible and the two reviews that describe the various versions:     %
     %                                                                      %
     %   T. Thonhauser et al., PRL 115, 136402 (2015).                      %
     %   T. Thonhauser et al., PRB 76, 125112 (2007).                       %
     %   K. Berland et al., Rep. Prog. Phys. 78, 066501 (2015).             %
     %   D.C. Langreth et al., J. Phys.: Condens. Matter 21, 084203 (2009). %
     %                                                                      %
     %                                                                      %
     % If you are calculating the stress with vdW-DF, please also cite:     %
     %                                                                      %
     %   R. Sabatini et al., J. Phys.: Condens. Matter 24, 424209 (2012).   %
     %                                                                      %
     %%%%%%%%%%%%%%%%%%%%%%%%%%%%%%%%%%%%%%%%%%%%%%%%%%%%%%%%%%%%%%%%%%%%%%%%

     Adding external electric field

     Computed dipole along edir(3) :
        Dipole              -10.5123 Ry au,        -26.7196 Debye
        Dipole field         -0.0198 Ry au,

        Potential amp.        1.8390 Ry
        Total length         46.3494 bohr

     Starting wfcs are  300 atomic wfcs
  @ DRIVER MODE: Message from server: STATUS
  @ DRIVER MODE: Message from server: POSDATA
  @ DRIVER MODE: Reading and sharing cell
  @ DRIVER MODE: Reading and sharing positions
  @ DRIVER MODE: Received positions

     Self-consistent Calculation

     iteration #  1     ecut=    29.40 Ry     beta= 0.05
     Davidson diagonalization with overlap
     c_bands:  2 eigenvalues not converged
     c_bands:  3 eigenvalues not converged
     c_bands:  1 eigenvalues not converged
     c_bands:  4 eigenvalues not converged
     c_bands:  4 eigenvalues not converged
     c_bands:  4 eigenvalues not converged
     c_bands:  1 eigenvalues not converged
     c_bands:  3 eigenvalues not converged
     c_bands:  4 eigenvalues not converged
     ethr =  1.00E-05,  avg # of iterations = 19.9

[...]

     total energy              =   -2479.41384931 Ry
     estimated scf accuracy    <    5441.07099711 Ry

     iteration #  2     ecut=    29.40 Ry     beta= 0.05
     Davidson diagonalization with overlap
     ethr =  1.00E-02,  avg # of iterations = 24.9

[...]

     iteration # 63     ecut=    29.40 Ry     beta= 0.05
     Davidson diagonalization with overlap
     c_bands:  1 eigenvalues not converged
     c_bands:  1 eigenvalues not converged
     ethr =  2.50E-11,  avg # of iterations = 15.3

[...]

     total energy              =   -2964.77940376 Ry
     estimated scf accuracy    <       0.00000014 Ry

     iteration # 64     ecut=    29.40 Ry     beta= 0.05
     Davidson diagonalization with overlap
     ethr =  2.50E-11,  avg # of iterations =  8.5

     negative rho (up, down):  1.519E-02 0.000E+00

     Adding external electric field

     Computed dipole along edir(3) :
        Dipole                0.7083 Ry au,          1.8002 Debye
        Dipole field          0.0013 Ry au,

        Potential amp.       -0.1239 Ry
        Total length         46.3494 bohr

     End of self-consistent calculation

          k = 0.0000 0.0000 0.0000 ( 18029 PWs)   bands (ev):

   -55.7053 -55.6926 -55.6690 -55.6669 -55.6581 -55.6071 -55.5557 -55.5541
   -55.5420 -55.5213 -55.5084 -55.4872 -55.4865 -55.4745 -54.7732 -54.7391
   -32.2658 -32.1866 -32.1835 -32.0882 -32.0510 -32.0313 -32.0201 -32.0097
   -31.9815 -31.9459 -31.9362 -31.9212 -31.8968 -31.8896 -31.8823 -31.8636
   -31.8461 -31.8452 -31.8422 -31.8348 -31.8190 -31.8077 -31.8075 -31.7981
   -31.7963 -31.7807 -31.7777 -31.7495 -31.7376 -31.7238 -31.7124 -31.7115
   -31.7068 -31.7023 -31.6961 -31.6880 -31.6558 -31.6544 -31.6495 -31.6457
   -31.6193 -31.5633 -31.1849 -31.0834 -31.0617 -31.0011 -30.9147 -30.8037
   -21.1387 -19.2886 -16.5241 -16.2821 -16.1393 -16.0362 -15.9313 -15.7989
   -15.7119 -15.5884 -15.5253 -15.3983 -15.3591 -15.3537 -15.3471 -15.3186
   -15.2972 -15.2743 -15.2504 -15.2097 -15.2052 -15.2016 -15.1724 -15.1604
   -15.1028 -15.0901 -15.0462 -14.9281 -14.8766 -14.8156 -14.4979 -13.2739
   -13.1548 -10.3428  -7.2748  -5.7029  -4.7279  -4.0175  -3.9370  -3.8117
    -3.7179  -3.6494  -3.6119  -3.5422  -3.4642  -3.2615  -3.1312  -3.1231
    -2.9904  -2.9537  -2.9091  -2.8076  -2.7421  -2.6800  -2.6697  -2.5941
    -2.5898  -2.5816  -2.5683  -2.4760  -2.4697  -2.4211  -2.3796  -2.3008
    -2.2652  -2.1478  -2.1169  -2.1081  -2.0645  -2.0486  -2.0419  -2.0294
    -1.9798  -1.9539  -1.9361  -1.9347  -1.7930  -1.7511  -1.6056  -1.4801
    -1.4474  -1.4327  -1.3097  -1.2671  -1.2506  -1.1933  -1.1727  -1.1626
    -1.1237  -1.0426  -0.9597  -0.9348  -0.8634  -0.8204  -0.7162  -0.6221
    -0.5777  -0.5291  -0.5063  -0.4969  -0.4775  -0.4131  -0.3651  -0.2785
    -0.2244  -0.1614  -0.1344  -0.1275  -0.0731  -0.0429   0.0370   0.0840
     0.1183   0.1323   0.2182   0.2326   0.2453   0.2766   0.2790   0.3920
     0.4458   0.5026   0.5095   0.6578   0.8244   0.8502   0.9294   1.1441
     1.2525   1.2549   1.4158   1.4723   1.8375   1.8918   3.3821   3.4522
     3.4867   3.5007   3.5100   3.5879   3.8175   3.8699   3.9020   3.9206
     3.9300

[...]

          k = 0.0380-0.0419 0.0000 ( 17876 PWs)   bands (ev):

[...]

          k =-0.0760-0.0000 0.0000 ( 17886 PWs)   bands (ev):

[...]

          k =-0.0760-0.0839 0.0000 ( 17948 PWs)   bands (ev):

   -55.6898 -55.6844 -55.6776 -55.6729 -55.6652 -55.6008 -55.5604 -55.5403
   -55.5363 -55.5351 -55.4932 -55.4926 -55.4905 -55.4887 -54.7561 -54.7560
   -32.1085 -32.0760 -32.0650 -32.0038 -31.9993 -31.9801 -31.9715 -31.9623
   -31.9602 -31.9356 -31.9345 -31.9098 -31.9003 -31.8721 -31.8584 -31.8568
   -31.8554 -31.8471 -31.8421 -31.8381 -31.8303 -31.8230 -31.8056 -31.8029
   -31.7999 -31.7978 -31.7977 -31.7965 -31.7931 -31.7852 -31.7830 -31.7535
   -31.7388 -31.7385 -31.7231 -31.7139 -31.7121 -31.7069 -31.6814 -31.6766
   -31.6754 -31.6525 -31.0743 -31.0743 -30.9977 -30.9974 -30.9580 -30.9578
   -21.1374 -19.2881 -16.1552 -15.9599 -15.8094 -15.7252 -15.7185 -15.6594
   -15.5792 -15.5381 -15.4923 -15.4804 -15.4701 -15.4356 -15.4264 -15.4151
   -15.3525 -15.3024 -15.2989 -15.2835 -15.2341 -15.2266 -15.2162 -15.2106
   -15.2019 -15.1589 -15.1546 -15.1400 -15.1292 -14.9858 -14.8298 -13.2562
   -13.2554 -10.3462  -7.2725  -5.7059  -4.7066  -3.9470  -3.8604  -3.2353
    -3.2324  -2.9702  -2.9488  -2.8900  -2.8787  -2.8144  -2.7834  -2.7074
    -2.7011  -2.6560  -2.6155  -2.6072  -2.5943  -2.5699  -2.5367  -2.5238
    -2.4814  -2.4719  -2.4458  -2.4412  -2.4222  -2.4062  -2.3812  -2.3753
    -2.3431  -2.3230  -2.3151  -2.3115  -2.2344  -2.1723  -2.0492  -2.0271
    -1.9869  -1.9375  -1.9218  -1.8513  -1.8155  -1.8008  -1.7432  -1.7087
    -1.6825  -1.5090  -1.4971  -1.4767  -1.3858  -1.3530  -1.3422  -1.3134
    -1.2575  -1.2270  -1.2230  -1.1453  -1.0341  -1.0117  -0.9123  -0.8671
    -0.8659  -0.7773  -0.7439  -0.7054  -0.7033  -0.6663  -0.6098  -0.5881
    -0.5309  -0.5257  -0.4779  -0.4570  -0.4335  -0.4026  -0.2299  -0.1748
    -0.1192  -0.0219   0.0065   0.2343   0.2652   0.2723   0.3380   0.3686
     0.4747   0.4960   0.5591   0.5741   0.6754   0.7062   0.7237   0.7286
     0.7749   1.4791   1.6043   1.6069   1.7058   1.7095   3.5315   3.5456
     3.6473   3.6992   3.7365   3.8401   3.8889   3.9212   3.9288   3.9438
     4.0175

     the Fermi energy is     3.4301 ev

!    total energy              =   -2964.77944456 Ry
     estimated scf accuracy    <       0.00000005 Ry
     smearing contrib. (-TS)   =      -0.03745627 Ry
     internal energy E=F+TS    =   -2964.74198828 Ry

     The total energy is F=E-TS. E is the sum of the following terms:
     one-electron contribution =  -24112.92718435 Ry
     hartree contribution      =   12146.67253234 Ry
     xc contribution           =    -490.02637652 Ry
     ewald contribution        =    9491.53809362 Ry
     electric field correction =       0.00094662 Ry

     convergence has been achieved in  64 iterations

     Forces acting on atoms (cartesian axes, Ry/au):

     atom    1 type  1   force =    -0.00035009   -0.00001950    0.09254182
     atom    2 type  1   force =    -0.00033738    0.00121692   -0.18261484
     atom    3 type  2   force =     0.00043859    0.00022689   -0.02455622
     atom    4 type  2   force =     0.00073444    0.00044700    0.05162610
     atom    5 type  2   force =    -0.01466591   -0.00007407    0.00465851
     atom    6 type  2   force =     0.01553873   -0.00056660    0.00541250
     atom    7 type  1   force =    -0.00051001   -0.00017389    0.00010485
     atom    8 type  1   force =     0.00022685    0.00005978    0.00020434
     atom    9 type  2   force =    -0.00016897   -0.00017430   -0.00032670
     atom   10 type  2   force =     0.00006380   -0.00004648    0.00031514
     atom   11 type  2   force =    -0.00032404    0.00021126    0.00002978
     atom   12 type  2   force =     0.00039482    0.00008129   -0.00021636
     atom   13 type  1   force =    -0.00020956   -0.00025399    0.00021456
     atom   14 type  1   force =     0.00013681   -0.00022326   -0.00046255
     atom   15 type  2   force =    -0.00032522    0.00033292   -0.00012834
     atom   16 type  2   force =     0.00008800    0.00001739   -0.00032123
     atom   17 type  2   force =    -0.00007747   -0.00015314    0.00023796
     atom   18 type  2   force =     0.00011361   -0.00004706   -0.00028619
     atom   19 type  1   force =    -0.00102160    0.00007388   -0.00034676
     atom   20 type  1   force =     0.00041693    0.00012498   -0.00003813
     atom   21 type  2   force =    -0.00009923    0.00005746    0.10491935
     atom   22 type  2   force =    -0.00038007   -0.00001465    0.00050965
     atom   23 type  2   force =    -0.06835732    0.00002902   -0.02694318
     atom   24 type  2   force =     0.06805300    0.00046673   -0.02701821
     atom   25 type  1   force =    -0.00030729   -0.00001748    0.09721624
     atom   26 type  1   force =    -0.00030390   -0.00119805   -0.18266399
     atom   27 type  2   force =     0.00035288    0.00023749   -0.02297914
     atom   28 type  2   force =     0.00081354    0.00042641    0.05201633
     atom   29 type  2   force =    -0.01465115    0.00064482    0.00458707
     atom   30 type  2   force =     0.01566432    0.00039656    0.00531512
     atom   31 type  1   force =    -0.00046826   -0.00000195    0.00012168
     atom   32 type  1   force =     0.00022887    0.00006439    0.00018810
     atom   33 type  2   force =    -0.00008792    0.00012892    0.00014547
     atom   34 type  2   force =     0.00001459    0.00001870    0.00016722
     atom   35 type  2   force =    -0.00016411   -0.00030713    0.00011832
     atom   36 type  2   force =     0.00022894   -0.00020094   -0.00011319
     atom   37 type  1   force =    -0.00029937    0.00016128   -0.00047462
     atom   38 type  1   force =     0.00013116    0.00038407   -0.00035345
     atom   39 type  2   force =    -0.00036998   -0.00027939   -0.00019088
     atom   40 type  2   force =     0.00018454   -0.00008421   -0.00002445
     atom   41 type  2   force =    -0.00031444   -0.00009887   -0.00013408
     atom   42 type  2   force =     0.00033244   -0.00019958   -0.00063953
     atom   43 type  1   force =    -0.00104423   -0.00027326    0.00014025
     atom   44 type  1   force =     0.00041005   -0.00069280    0.00002753
     atom   45 type  2   force =    -0.00007325    0.00005389    0.10482203
     atom   46 type  2   force =    -0.06834854   -0.00060752   -0.02693344
     atom   47 type  2   force =     0.06804411   -0.00013657   -0.02700916
     atom   48 type  3   force =    -0.00002299   -0.00009033   -0.00023934
     atom   49 type  2   force =    -0.00015302   -0.00000846   -0.00008431
     atom   50 type  4   force =     0.00016384    0.00018842   -0.00015613
     atom   51 type  4   force =     0.00018594   -0.00008182   -0.00014097
     atom   52 type  2   force =    -0.00957595   -0.00146574   -0.00761621
     atom   53 type  4   force =     0.00853365    0.00093021    0.00751328
     atom   54 type  4   force =     0.00151685    0.00051034   -0.00014161

     Total force =     0.368863     Total SCF correction =     0.000655
  @ DRIVER MODE: Message from server: STATUS
  @ DRIVER MODE: Message from server: GETFORCE
  @ DRIVER MODE: Returning v,forces,stress,ensemble

     Writing output data file ./calc.save/
  @ DRIVER MODE: Message from server: EXIT
  @ DRIVE MODE: Exiting

     General routines

     Parallel routines

   This run was terminated on:   3:46:27  16Sep2021

   JOB DONE.