     Program PWSCF v.6.7GPU starts on 10Sep2021 at 12:40:18

     R & G space division:  proc/nbgrp/npool/nimage =      10
     Reading input from /storage/home/hcoda1/3/ntian30/research/carbon/CxH_vib/CH3_calc/ads_slab/CH3N2H2O_e/out_0046/pw.inp
Warning: card &CELL ignored
Warning: card   CELL_DYNAMICS='IPI', ignored
Warning: card / ignored

     Current dimensions of program PWSCF are:
     Max number of different atomic species (ntypx) = 10
     Max number of k-points (npk) =  40000
     Max angular momentum in pseudopotentials (lmaxx) =  3
     Presently no symmetry can be used with electric field

     Message from routine cell_base_init:
     DEPRECATED: use true lattice parameter, not A to a.u. conversion factor

     IMPORTANT: XC functional enforced from input :
     Exchange-correlation= BEEF-VDW
                           (   1   4  43  14   2   0   0)
     Any further DFT definition will be discarded
     Please, verify this is what you really want

  @ DRIVER MODE: Connecting to
 qe_1139763_2779715.sched-torque.pace.gatech.edupaoefqs9_scratch
  using UNIX socket
  @ DRIVER MODE: Message from server: STATUS
  @ DRIVER MODE: Message from server: INIT
  @ DRIVER MODE: Receiving replica           0          -1
  @ DRIVER MODE: Receiving encoded integer          25
  @ DRIVER MODE:  SCF:  T  FORCE:  T  STRESS:  F  VC:  F  ENSEMBLE:  F
  @ DRIVER MODE:  SCF:  T  FORCE:  T  STRESS:  F  VC:  F  ENSEMBLE:  F

     Using Slab Decomposition

     bravais-lattice index     =            0
     lattice parameter (alat)  =       1.8897  a.u.
     unit-cell volume          =    6658.9804 (a.u.)^3
     number of atoms/cell      =           56
     number of atomic types    =            5
     number of electrons       =       403.00
     number of Kohn-Sham states=          211
     kinetic-energy cutoff     =      29.3995  Ry
     charge density cutoff     =     293.9946  Ry
     scf convergence threshold =      7.3E-08
     mixing beta               =       0.0500
     number of iterations used =            8  plain     mixing
     Exchange-correlation= BEEF-VDW
                           (   1   4  43  14   2   0   0)

     celldm(1)=   1.889726  celldm(2)=   0.000000  celldm(3)=   0.000000
     celldm(4)=   0.000000  celldm(5)=   0.000000  celldm(6)=   0.000000

     crystal axes: (cart. coord. in units of alat)
               a(1) = (   6.579727   0.000000   0.000000 )
               a(2) = (  -0.000775   5.961596   0.000000 )
               a(3) = (   0.000000   0.000000  25.155947 )

     reciprocal axes: (cart. coord. in units 2 pi/alat)
               b(1) = (  0.151982  0.000020  0.000000 )
               b(2) = (  0.000000  0.167740  0.000000 )
               b(3) = (  0.000000  0.000000  0.039752 )

     PseudoPot. # 1 for Ti read from file:
     /storage/coda1/p-amedford6/0/shared/rich_project_chbe-medford/medford-share/data/pseudos_module/espresso/nninc/pbe/van/Ti.UPF
     MD5 check sum: 8e4df49b7f0d34bbd5052bf3f5ea0213
     Pseudo is Ultrasoft, Zval = 12.0
     Generated by new atomic code, or converted to UPF format
     Using radial grid of  851 points,  6 beta functions with:
                l(1) =   0
                l(2) =   0
                l(3) =   1
                l(4) =   1
                l(5) =   2
                l(6) =   2
     Q(r) pseudized with  8 coefficients,  rinner =    1.000   1.000   1.000
                                                       1.000   1.000

     PseudoPot. # 2 for O  read from file:
     /storage/coda1/p-amedford6/0/shared/rich_project_chbe-medford/medford-share/data/pseudos_module/espresso/nninc/pbe/van/O.UPF
     MD5 check sum: 78c19812648e8988a0fe644b0f25305e
     Pseudo is Ultrasoft, Zval =  6.0
     Generated by new atomic code, or converted to UPF format
     Using radial grid of  737 points,  4 beta functions with:
                l(1) =   0
                l(2) =   0
                l(3) =   1
                l(4) =   1
     Q(r) pseudized with  8 coefficients,  rinner =    0.800   0.800   0.800

     PseudoPot. # 3 for N  read from file:
     /storage/coda1/p-amedford6/0/shared/rich_project_chbe-medford/medford-share/data/pseudos_module/espresso/nninc/pbe/van/N.UPF
     MD5 check sum: 90d10febe142ad51ac9d5be1deb811c4
     Pseudo is Ultrasoft, Zval =  5.0
     Generated by new atomic code, or converted to UPF format
     Using radial grid of  729 points,  4 beta functions with:
                l(1) =   0
                l(2) =   0
                l(3) =   1
                l(4) =   1
     Q(r) pseudized with  8 coefficients,  rinner =    0.800   0.800   0.800

     PseudoPot. # 4 for C  read from file:
     /storage/coda1/p-amedford6/0/shared/rich_project_chbe-medford/medford-share/data/pseudos_module/espresso/nninc/pbe/van/C.UPF
     MD5 check sum: 1a69bf6b8db32088f5b2163dbdb77a27
     Pseudo is Ultrasoft, Zval =  4.0
     Generated by new atomic code, or converted to UPF format
     Using radial grid of  721 points,  4 beta functions with:
                l(1) =   0
                l(2) =   0
                l(3) =   1
                l(4) =   1
     Q(r) pseudized with  8 coefficients,  rinner =    0.800   0.800   0.800

     PseudoPot. # 5 for H  read from file:
     /storage/coda1/p-amedford6/0/shared/rich_project_chbe-medford/medford-share/data/pseudos_module/espresso/nninc/pbe/van/H.UPF
     MD5 check sum: b5ee9d7bfd3a09ee7748110bda690ff7
     Pseudo is Ultrasoft, Zval =  1.0
     Generated by new atomic code, or converted to UPF format
     Using radial grid of  615 points,  1 beta functions with:
                l(1) =   0
     Q(r) pseudized with  8 coefficients,  rinner =    0.800

     atomic species   valence    mass     pseudopotential
        Ti1           12.00    47.86700     Ti( 1.00)
        O1             6.00    15.99900     O ( 1.00)
        N1             5.00    14.00700     N ( 1.00)
        C1             4.00    12.01100     C ( 1.00)
        H1             1.00     1.00800     H ( 1.00)

     No symmetry found

   Cartesian axes

     site n.     atom                  positions (alat units)
         1           Ti1 tau(   1) = (   0.0004258   2.9801865   6.0000000  )
         2           Ti1 tau(   2) = (   3.2906075   1.4906267   6.0002472  )
         3           O1  tau(   3) = (   0.0006271   0.0005054   7.9858123  )
         4           O1  tau(   4) = (   3.2906025   0.0005020   7.3038282  )
         5           O1  tau(   5) = (   4.5942328   1.4918067   9.2879030  )
         6           O1  tau(   6) = (   1.9868534   1.4903216   9.2879459  )
         7           Ti1 tau(   7) = (   3.2907910   2.8959150   9.1758416  )
         8           Ti1 tau(   8) = (   0.0015273   1.4827037   9.2680791  )
         9           O1  tau(   9) = (   3.2823942   0.0140684  11.3428430  )
        10           O1  tau(  10) = (   0.0116148   5.9584955  10.6183126  )
        11           O1  tau(  11) = (   1.2742013   1.4978990  12.6323156  )
        12           O1  tau(  12) = (   5.2614901   1.5083079  12.6129891  )
        13           Ti1 tau(  13) = (   0.0550148   2.9595524  12.6160221  )
        14           Ti1 tau(  14) = (   3.3718896   1.5084997  12.4944496  )
        15           O1  tau(  15) = (   6.5380961   0.0278828  14.6255036  )
        16           O1  tau(  16) = (   3.2758616   0.0189586  13.9121306  )
        17           O1  tau(  17) = (   4.4976875   1.5333668  16.0433440  )
        18           O1  tau(  18) = (   1.9922867   1.5271532  16.0291573  )
        19           Ti1 tau(  19) = (   3.1858679   3.0241111  15.7732818  )
        20           Ti1 tau(  20) = (   6.4842391   1.5502874  15.8011710  )
        21           O1  tau(  21) = (   3.2904802   0.0005063   4.7018136  )
        22           O1  tau(  22) = (   6.5196731   0.0665875  17.1891134  )
        23           O1  tau(  23) = (   1.3043587   1.4918075   6.0039043  )
        24           O1  tau(  24) = (   5.2767064   1.4903225   6.0039473  )
        25           Ti1 tau(  25) = (   0.0000382   5.9609847   6.0000000  )
        26           Ti1 tau(  26) = (   3.2902200   4.4714249   6.0002472  )
        27           O1  tau(  27) = (   0.0002396   2.9813036   7.9858123  )
        28           O1  tau(  28) = (   3.2902150   2.9813002   7.3038282  )
        29           O1  tau(  29) = (   4.5938453   4.4726049   9.2879030  )
        30           O1  tau(  30) = (   1.9864658   4.4711199   9.2879459  )
        31           Ti1 tau(  31) = (   3.2891106   5.8743827   9.1763621  )
        32           Ti1 tau(  32) = (   0.0006254   4.4649316   9.2693709  )
        33           O1  tau(  33) = (   3.2807012   2.9937711  11.3380227  )
        34           O1  tau(  34) = (   0.0092240   2.9805883  10.6323155  )
        35           O1  tau(  35) = (   1.2734598   4.4826339  12.6318047  )
        36           O1  tau(  36) = (   5.2665626   4.4910389  12.6093644  )
        37           Ti1 tau(  37) = (   0.0550181   5.9329888  12.5453996  )
        38           Ti1 tau(  38) = (   3.3741151   4.4737790  12.4977360  )
        39           O1  tau(  39) = (   6.5373474   2.9946220  14.6524478  )
        40           O1  tau(  40) = (   3.2677173   3.0168568  13.9399215  )
        41           O1  tau(  41) = (   4.4884636   4.5316779  16.1079578  )
        42           O1  tau(  42) = (   1.9830865   4.5332738  16.0531499  )
        43           Ti1 tau(  43) = (   3.2469912   0.0413792  15.7000251  )
        44           Ti1 tau(  44) = (   6.5198411   4.7064707  16.0702691  )
        45           O1  tau(  45) = (   3.2900926   2.9813045   4.7018136  )
        46           O1  tau(  46) = (   1.3039711   4.4726057   6.0039043  )
        47           O1  tau(  47) = (   5.2763189   4.4711207   6.0039473  )
        48           N1  tau(  48) = (   0.0943371   2.6987919  18.6315974  )
        49           N1  tau(  49) = (   6.5718678   2.9345059  17.4339123  )
        50           C1  tau(  50) = (   0.1779456   3.8407003  19.5793842  )
        51           H1  tau(  51) = (   6.4148796   4.7858965  19.1557567  )
        52           H1  tau(  52) = (   6.1971438   3.5603257  20.4715321  )
        53           H1  tau(  53) = (   1.2306852   3.9282498  19.8556806  )
        54           O1  tau(  54) = (   3.3096034   3.0730741  18.2289406  )
        55           H1  tau(  55) = (   4.0988663   3.6397178  18.3192648  )
        56           H1  tau(  56) = (   3.5789210   2.1977314  18.5501991  )

     number of k points=    10  Fermi-Dirac smearing, width (Ry)=  0.0073
                       cart. coord. in units 2pi/alat
        k(    1) = (   0.0000000   0.0000000   0.0000000), wk =   0.1250000
        k(    2) = (   0.0000000   0.0419351   0.0000000), wk =   0.2500000
        k(    3) = (   0.0000000  -0.0838702   0.0000000), wk =   0.1250000
        k(    4) = (   0.0379955   0.0000049   0.0000000), wk =   0.2500000
        k(    5) = (   0.0379955   0.0419400   0.0000000), wk =   0.2500000
        k(    6) = (   0.0379955  -0.0838652   0.0000000), wk =   0.2500000
        k(    7) = (   0.0379955  -0.0419301   0.0000000), wk =   0.2500000
        k(    8) = (  -0.0759910  -0.0000099   0.0000000), wk =   0.1250000
        k(    9) = (  -0.0759910   0.0419252   0.0000000), wk =   0.2500000
        k(   10) = (  -0.0759910  -0.0838800   0.0000000), wk =   0.1250000

     Initial potential from superposition of free atoms

     starting charge  386.99914, renormalised to  403.00000

     negative rho (up, down):  1.478E-02 0.000E+00

     %%%%%%%%%%%%%%%%%%%%%%%%%%%%%%%%%%%%%%%%%%%%%%%%%%%%%%%%%%%%%%%%%%%%%%%%
     %                                                                      %
     % You are using vdW-DF, which was implemented by the Thonhauser group. %
     % Please cite the following two papers that made this development      %
     % possible and the two reviews that describe the various versions:     %
     %                                                                      %
     %   T. Thonhauser et al., PRL 115, 136402 (2015).                      %
     %   T. Thonhauser et al., PRB 76, 125112 (2007).                       %
     %   K. Berland et al., Rep. Prog. Phys. 78, 066501 (2015).             %
     %   D.C. Langreth et al., J. Phys.: Condens. Matter 21, 084203 (2009). %
     %                                                                      %
     %                                                                      %
     % If you are calculating the stress with vdW-DF, please also cite:     %
     %                                                                      %
     %   R. Sabatini et al., J. Phys.: Condens. Matter 24, 424209 (2012).   %
     %                                                                      %
     %%%%%%%%%%%%%%%%%%%%%%%%%%%%%%%%%%%%%%%%%%%%%%%%%%%%%%%%%%%%%%%%%%%%%%%%

     Adding external electric field

     Computed dipole along edir(3) :
        Dipole              -13.2300 Ry au,        -33.6274 Debye
        Dipole field         -0.0250 Ry au,

        Potential amp.        2.3144 Ry
        Total length         46.3494 bohr

     Starting wfcs are  305 atomic wfcs
  @ DRIVER MODE: Message from server: STATUS
  @ DRIVER MODE: Message from server: POSDATA
  @ DRIVER MODE: Reading and sharing cell
  @ DRIVER MODE: Reading and sharing positions
  @ DRIVER MODE: Received positions

     Self-consistent Calculation

     iteration #  1     ecut=    29.40 Ry     beta= 0.05
     Davidson diagonalization with overlap
     c_bands:  5 eigenvalues not converged
     c_bands:  2 eigenvalues not converged
     c_bands:  5 eigenvalues not converged
     c_bands:  5 eigenvalues not converged
     c_bands:  1 eigenvalues not converged
     c_bands:  1 eigenvalues not converged
     c_bands:  4 eigenvalues not converged
     c_bands:  2 eigenvalues not converged
     c_bands:  1 eigenvalues not converged
     ethr =  1.00E-05,  avg # of iterations = 26.9

[...]

     total energy              =   -2368.03151026 Ry
     estimated scf accuracy    <    6913.56229954 Ry

     iteration #  2     ecut=    29.40 Ry     beta= 0.05
     Davidson diagonalization with overlap
     ethr =  1.00E-02,  avg # of iterations = 23.2

[...]

     iteration # 79     ecut=    29.40 Ry     beta= 0.05
     Davidson diagonalization with overlap
     c_bands:  1 eigenvalues not converged
     ethr =  5.73E-10,  avg # of iterations = 12.4

[...]

     total energy              =   -2973.98642045 Ry
     estimated scf accuracy    <       0.00000010 Ry

     iteration # 87     ecut=    29.40 Ry     beta= 0.05
     Davidson diagonalization with overlap
     ethr =  2.53E-11,  avg # of iterations =  7.3

     negative rho (up, down):  1.504E-02 0.000E+00

     Adding external electric field

     Computed dipole along edir(3) :
        Dipole                0.9060 Ry au,          2.3027 Debye
        Dipole field          0.0017 Ry au,

        Potential amp.       -0.1585 Ry
        Total length         46.3494 bohr

     End of self-consistent calculation

          k = 0.0000 0.0000 0.0000 ( 18029 PWs)   bands (ev):

   -55.6036 -55.5696 -55.5679 -55.5321 -55.4996 -55.4494 -55.4394 -55.4150
   -55.4029 -55.3810 -55.3798 -55.3458 -55.0096 -54.8381 -54.5833 -54.5492
   -32.1128 -32.0863 -31.9599 -31.9434 -31.9136 -31.8965 -31.8821 -31.8695
   -31.8469 -31.8071 -31.7993 -31.7684 -31.7560 -31.7467 -31.7383 -31.7281
   -31.7082 -31.6990 -31.6966 -31.6609 -31.6569 -31.6466 -31.6338 -31.6082
   -31.6035 -31.5989 -31.5936 -31.5867 -31.5791 -31.5699 -31.5551 -31.5549
   -31.5459 -31.5326 -31.5217 -31.5099 -31.4915 -31.2866 -31.2003 -31.0987
   -31.0938 -31.0571 -30.9905 -30.9019 -30.8795 -30.8072 -30.7207 -30.6097
   -18.9980 -18.3010 -16.3185 -16.0774 -15.8754 -15.7603 -15.7196 -15.5270
   -15.4289 -15.3304 -15.2336 -15.1653 -15.1419 -15.1348 -15.1310 -15.1053
   -15.0804 -15.0687 -15.0474 -15.0308 -15.0161 -14.9563 -14.9428 -14.9339
   -14.8444 -14.7896 -14.7550 -14.7359 -14.6785 -14.6598 -14.1786 -13.0856
   -12.9692 -11.2888  -6.8785  -6.7192  -4.1967  -4.0548  -3.8017  -3.6887
    -3.5570  -3.5096  -3.4478  -3.4185  -3.2213  -3.1008  -3.0105  -2.8444
    -2.7868  -2.7594  -2.7298  -2.6576  -2.5223  -2.4720  -2.4205  -2.4141
    -2.4024  -2.3710  -2.3663  -2.3450  -2.2459  -2.2424  -2.1903  -2.1508
    -2.0815  -2.0021  -1.9822  -1.9353  -1.9167  -1.9046  -1.8765  -1.8531
    -1.8424  -1.8075  -1.7946  -1.7212  -1.6183  -1.5500  -1.4955  -1.4635
    -1.3973  -1.3853  -1.2182  -1.1523  -1.1079  -1.0722  -1.0533  -1.0328
    -0.9990  -0.9915  -0.8825  -0.7582  -0.7541  -0.6741  -0.6137  -0.5357
    -0.5263  -0.4487  -0.3925  -0.3743  -0.3620  -0.3508  -0.3221  -0.2481
    -0.1036  -0.0604  -0.0358  -0.0005   0.0290   0.0946   0.1381   0.2074
     0.2423   0.2834   0.3186   0.3425   0.3668   0.3746   0.3898   0.4017
     0.4210   0.6035   0.6635   0.6846   0.7497   0.7789   0.9221   0.9884
     1.0526   1.1592   1.3641   1.4389   1.5297   1.6311   2.0104   2.0562
     2.7722   3.5306   3.6154   3.6622   3.7041   3.7767   3.7943   3.9670
     3.9861   4.0287   4.1202

[...]

          k = 0.0380-0.0419 0.0000 ( 17876 PWs)   bands (ev):

[...]

          k =-0.0760-0.0000 0.0000 ( 17886 PWs)   bands (ev):

[...]

          k =-0.0760-0.0839 0.0000 ( 17948 PWs)   bands (ev):

   -55.5872 -55.5858 -55.5510 -55.5488 -55.4928 -55.4561 -55.4271 -55.4152
   -55.3985 -55.3970 -55.3656 -55.3602 -55.0080 -54.8396 -54.5663 -54.5661
   -31.9270 -31.9116 -31.9021 -31.9010 -31.8825 -31.8812 -31.8519 -31.8173
   -31.7950 -31.7913 -31.7822 -31.7622 -31.7593 -31.7403 -31.7187 -31.7142
   -31.7122 -31.7076 -31.7069 -31.7055 -31.7051 -31.7029 -31.6987 -31.6594
   -31.6480 -31.6348 -31.6247 -31.6111 -31.5983 -31.5977 -31.5958 -31.5884
   -31.5796 -31.5760 -31.5689 -31.5654 -31.4274 -31.2884 -31.2058 -31.1547
   -31.0998 -31.0831 -30.8923 -30.8922 -30.8034 -30.8032 -30.7640 -30.7639
   -18.9927 -18.3030 -15.7650 -15.6830 -15.5606 -15.5219 -15.4784 -15.4345
   -15.4145 -15.3215 -15.3015 -15.2924 -15.2409 -15.2267 -15.2040 -15.1606
   -15.1382 -15.1288 -15.1249 -15.0891 -15.0606 -15.0439 -15.0405 -15.0347
   -14.9725 -14.9235 -14.9215 -14.9166 -14.7900 -14.6612 -14.3572 -13.0709
   -13.0709 -11.2865  -6.8797  -6.7326  -4.1257  -3.8651  -3.7819  -3.2588
    -3.0499  -2.8848  -2.8184  -2.7280  -2.6986  -2.6913  -2.5478  -2.5153
    -2.4855  -2.4379  -2.4332  -2.4292  -2.4219  -2.4061  -2.3991  -2.3831
    -2.3316  -2.3191  -2.2942  -2.2813  -2.2740  -2.2564  -2.2345  -2.2243
    -2.2024  -2.1680  -2.1540  -2.1188  -2.1118  -2.0217  -1.8362  -1.8236
    -1.7794  -1.7465  -1.7324  -1.7071  -1.6701  -1.6566  -1.6486  -1.5970
    -1.4735  -1.4320  -1.3445  -1.2965  -1.2793  -1.2240  -1.1630  -1.1382
    -1.0679  -1.0243  -0.9877  -0.9654  -0.9420  -0.7982  -0.7858  -0.7321
    -0.7189  -0.6817  -0.6332  -0.5762  -0.5638  -0.5537  -0.5369  -0.5037
    -0.4352  -0.3660  -0.3543  -0.3261  -0.2750  -0.2585  -0.2152  -0.1261
    -0.1071  -0.0701   0.0272   0.1293   0.2206   0.3555   0.4411   0.4646
     0.5209   0.5979   0.6959   0.7056   0.7141   0.7503   0.7741   0.8341
     0.9280   0.9479   0.9748   1.0976   1.8024   1.8031   1.8758   1.8760
     2.8134   3.7916   3.8511   3.8968   3.9158   4.0085   4.0415   4.0635
     4.0665   4.1133   4.2033

     the Fermi energy is     3.5296 ev

!    total energy              =   -2973.98642547 Ry
     estimated scf accuracy    <       0.00000007 Ry
     smearing contrib. (-TS)   =      -0.02191979 Ry
     internal energy E=F+TS    =   -2973.96450568 Ry

     The total energy is F=E-TS. E is the sum of the following terms:
     one-electron contribution =  -23875.27415869 Ry
     hartree contribution      =   12032.10391306 Ry
     xc contribution           =    -494.07712918 Ry
     ewald contribution        =    9363.28132027 Ry
     electric field correction =       0.00154887 Ry

     convergence has been achieved in  87 iterations

     Forces acting on atoms (cartesian axes, Ry/au):

     atom    1 type  1   force =     0.00007135   -0.00017220    0.09640404
     atom    2 type  1   force =    -0.00015406   -0.00063882   -0.17548240
     atom    3 type  2   force =    -0.00003645    0.00001887   -0.02464140
     atom    4 type  2   force =     0.00005878   -0.00136677    0.05309932
     atom    5 type  2   force =    -0.01207953    0.00003057    0.00386562
     atom    6 type  2   force =     0.01329710    0.00070877    0.00206787
     atom    7 type  1   force =    -0.00148445    0.00063493   -0.01048358
     atom    8 type  1   force =     0.00072241    0.00972757    0.02662407
     atom    9 type  2   force =    -0.00040789    0.00009232   -0.00033107
     atom   10 type  2   force =    -0.00181159    0.00306214   -0.01772021
     atom   11 type  2   force =    -0.00013583   -0.00024095    0.00012731
     atom   12 type  2   force =    -0.00017873   -0.00029392   -0.00029519
     atom   13 type  1   force =    -0.00022552   -0.00021281   -0.00010099
     atom   14 type  1   force =    -0.00036160   -0.00017354   -0.00035054
     atom   15 type  2   force =     0.00003496   -0.00091685    0.00022984
     atom   16 type  2   force =     0.00006054    0.00015220   -0.00002032
     atom   17 type  2   force =    -0.00003160   -0.00062062    0.00018587
     atom   18 type  2   force =     0.00023181   -0.00042686    0.00040908
     atom   19 type  1   force =     0.00042291   -0.00031005    0.00010019
     atom   20 type  1   force =     0.00027394   -0.00068034    0.00016962
     atom   21 type  2   force =     0.00008423   -0.00004733    0.10323002
     atom   22 type  2   force =     0.00052050   -0.00050157   -0.00026565
     atom   23 type  2   force =    -0.07145351   -0.00009372   -0.02774752
     atom   24 type  2   force =     0.07139067    0.00029279   -0.02775011
     atom   25 type  1   force =     0.00007307   -0.00028755    0.09588479
     atom   26 type  1   force =    -0.00024812   -0.00022894   -0.17575819
     atom   27 type  2   force =     0.00006838   -0.00008944   -0.02365448
     atom   28 type  2   force =     0.00006175   -0.00118997    0.05338220
     atom   29 type  2   force =    -0.01231461    0.00061564    0.00390501
     atom   30 type  2   force =     0.01347002    0.00109809    0.00207268
     atom   31 type  1   force =    -0.00129865    0.00372946   -0.00846370
     atom   32 type  1   force =     0.00085377   -0.01167162    0.02704276
     atom   33 type  2   force =    -0.00002308    0.00013399   -0.00012061
     atom   34 type  2   force =    -0.00128533    0.00169422   -0.02363610
     atom   35 type  2   force =    -0.00022023   -0.00003398    0.00004822
     atom   36 type  2   force =     0.00004494   -0.00002276    0.00018627
     atom   37 type  1   force =    -0.00000282   -0.00018970    0.00015647
     atom   38 type  1   force =    -0.00056785   -0.00029759    0.00054616
     atom   39 type  2   force =     0.00021930   -0.00058489    0.00050425
     atom   40 type  2   force =    -0.00001409   -0.00008642    0.00015663
     atom   41 type  2   force =     0.00024355   -0.00045706   -0.00023868
     atom   42 type  2   force =     0.00014489   -0.00033670   -0.00042472
     atom   43 type  1   force =     0.00071358   -0.00031527    0.00008678
     atom   44 type  1   force =     0.00001513   -0.00019531   -0.00085066
     atom   45 type  2   force =     0.00008963   -0.00005665    0.10321065
     atom   46 type  2   force =    -0.07144982   -0.00007141   -0.02775033
     atom   47 type  2   force =     0.07139691    0.00036707   -0.02776690
     atom   48 type  3   force =    -0.00040806   -0.00063587    0.00100708
     atom   49 type  3   force =     0.00021917    0.00061803   -0.00035482
     atom   50 type  4   force =    -0.00050193    0.00131098   -0.00039321
     atom   51 type  5   force =     0.00139276   -0.00071966    0.00025841
     atom   52 type  5   force =     0.00024592    0.00006917   -0.00038873
     atom   53 type  5   force =    -0.00003545   -0.00011529    0.00040746
     atom   54 type  2   force =     0.00633448    0.00587586    0.00020147
     atom   55 type  5   force =    -0.00797631   -0.00757800   -0.00029943
     atom   56 type  5   force =     0.00195068    0.00162773   -0.00028058

     Total force =     0.368081     Total SCF correction =     0.000701
  @ DRIVER MODE: Message from server: STATUS
  @ DRIVER MODE: Message from server: GETFORCE
  @ DRIVER MODE: Returning v,forces,stress,ensemble

     Writing output data file ./calc.save/
  @ DRIVER MODE: Message from server: EXIT
  @ DRIVE MODE: Exiting

     General routines

     Parallel routines

   This run was terminated on:  13: 3:52  10Sep2021

   JOB DONE.