     Program PWSCF v.6.7GPU starts on  5Oct2021 at 20: 4:51

     R & G space division:  proc/nbgrp/npool/nimage =       8
     Reading input from /storage/home/hcoda1/3/ntian30/research/carbon/CxH_vib/pristine/ads_slab/CH2N2_a/out_0025/pw.inp
Warning: card &CELL ignored
Warning: card   CELL_DYNAMICS='IPI', ignored
Warning: card / ignored

     Current dimensions of program PWSCF are:
     Max number of different atomic species (ntypx) = 10
     Max number of k-points (npk) =  40000
     Max angular momentum in pseudopotentials (lmaxx) =  3
     Presently no symmetry can be used with electric field

     Message from routine cell_base_init:
     DEPRECATED: use true lattice parameter, not A to a.u. conversion factor

     IMPORTANT: XC functional enforced from input :
     Exchange-correlation= BEEF-VDW
                           (   1   4  43  14   2   0   0)
     Any further DFT definition will be discarded
     Please, verify this is what you really want

  @ DRIVER MODE: Connecting to
 qe_1139763_3091261.sched-torque.pace.gatech.edu0l5qdscf_scratch
  using UNIX socket
  @ DRIVER MODE: Message from server: STATUS
  @ DRIVER MODE: Message from server: INIT
  @ DRIVER MODE: Receiving replica           0          -1
  @ DRIVER MODE: Receiving encoded integer          25
  @ DRIVER MODE:  SCF:  T  FORCE:  T  STRESS:  F  VC:  F  ENSEMBLE:  F
  @ DRIVER MODE:  SCF:  T  FORCE:  T  STRESS:  F  VC:  F  ENSEMBLE:  F

     Using Slab Decomposition

     bravais-lattice index     =            0
     lattice parameter (alat)  =       1.8897  a.u.
     unit-cell volume          =    6658.9804 (a.u.)^3
     number of atoms/cell      =           53
     number of atomic types    =            5
     number of electrons       =       400.00
     number of Kohn-Sham states=          210
     kinetic-energy cutoff     =      29.3995  Ry
     charge density cutoff     =     293.9946  Ry
     scf convergence threshold =      7.3E-08
     mixing beta               =       0.0500
     number of iterations used =            8  plain     mixing
     Exchange-correlation= BEEF-VDW
                           (   1   4  43  14   2   0   0)

     celldm(1)=   1.889726  celldm(2)=   0.000000  celldm(3)=   0.000000
     celldm(4)=   0.000000  celldm(5)=   0.000000  celldm(6)=   0.000000

     crystal axes: (cart. coord. in units of alat)
               a(1) = (   6.579727   0.000000   0.000000 )
               a(2) = (  -0.000775   5.961596   0.000000 )
               a(3) = (   0.000000   0.000000  25.155947 )

     reciprocal axes: (cart. coord. in units 2 pi/alat)
               b(1) = (  0.151982  0.000020  0.000000 )
               b(2) = (  0.000000  0.167740  0.000000 )
               b(3) = (  0.000000  0.000000  0.039752 )

     PseudoPot. # 1 for Ti read from file:
     /storage/coda1/p-amedford6/0/shared/rich_project_chbe-medford/medford-share/data/pseudos_module/espresso/nninc/pbe/van/Ti.UPF
     MD5 check sum: 8e4df49b7f0d34bbd5052bf3f5ea0213
     Pseudo is Ultrasoft, Zval = 12.0
     Generated by new atomic code, or converted to UPF format
     Using radial grid of  851 points,  6 beta functions with:
                l(1) =   0
                l(2) =   0
                l(3) =   1
                l(4) =   1
                l(5) =   2
                l(6) =   2
     Q(r) pseudized with  8 coefficients,  rinner =    1.000   1.000   1.000
                                                       1.000   1.000

     PseudoPot. # 2 for O  read from file:
     /storage/coda1/p-amedford6/0/shared/rich_project_chbe-medford/medford-share/data/pseudos_module/espresso/nninc/pbe/van/O.UPF
     MD5 check sum: 78c19812648e8988a0fe644b0f25305e
     Pseudo is Ultrasoft, Zval =  6.0
     Generated by new atomic code, or converted to UPF format
     Using radial grid of  737 points,  4 beta functions with:
                l(1) =   0
                l(2) =   0
                l(3) =   1
                l(4) =   1
     Q(r) pseudized with  8 coefficients,  rinner =    0.800   0.800   0.800

     PseudoPot. # 3 for N  read from file:
     /storage/coda1/p-amedford6/0/shared/rich_project_chbe-medford/medford-share/data/pseudos_module/espresso/nninc/pbe/van/N.UPF
     MD5 check sum: 90d10febe142ad51ac9d5be1deb811c4
     Pseudo is Ultrasoft, Zval =  5.0
     Generated by new atomic code, or converted to UPF format
     Using radial grid of  729 points,  4 beta functions with:
                l(1) =   0
                l(2) =   0
                l(3) =   1
                l(4) =   1
     Q(r) pseudized with  8 coefficients,  rinner =    0.800   0.800   0.800

     PseudoPot. # 4 for C  read from file:
     /storage/coda1/p-amedford6/0/shared/rich_project_chbe-medford/medford-share/data/pseudos_module/espresso/nninc/pbe/van/C.UPF
     MD5 check sum: 1a69bf6b8db32088f5b2163dbdb77a27
     Pseudo is Ultrasoft, Zval =  4.0
     Generated by new atomic code, or converted to UPF format
     Using radial grid of  721 points,  4 beta functions with:
                l(1) =   0
                l(2) =   0
                l(3) =   1
                l(4) =   1
     Q(r) pseudized with  8 coefficients,  rinner =    0.800   0.800   0.800

     PseudoPot. # 5 for H  read from file:
     /storage/coda1/p-amedford6/0/shared/rich_project_chbe-medford/medford-share/data/pseudos_module/espresso/nninc/pbe/van/H.UPF
     MD5 check sum: b5ee9d7bfd3a09ee7748110bda690ff7
     Pseudo is Ultrasoft, Zval =  1.0
     Generated by new atomic code, or converted to UPF format
     Using radial grid of  615 points,  1 beta functions with:
                l(1) =   0
     Q(r) pseudized with  8 coefficients,  rinner =    0.800

     atomic species   valence    mass     pseudopotential
        Ti1           12.00    47.86700     Ti( 1.00)
        O1             6.00    15.99900     O ( 1.00)
        N1             5.00    14.00700     N ( 1.00)
        C1             4.00    12.01100     C ( 1.00)
        H1             1.00     1.00800     H ( 1.00)

     No symmetry found

   Cartesian axes

     site n.     atom                  positions (alat units)
         1           Ti1 tau(   1) = (   0.0004258   2.9801865   6.0000000  )
         2           Ti1 tau(   2) = (   3.2906075   1.4906267   6.0002472  )
         3           O1  tau(   3) = (   0.0006271   0.0005054   7.9858123  )
         4           O1  tau(   4) = (   3.2906025   0.0005020   7.3038282  )
         5           O1  tau(   5) = (   4.5942328   1.4918067   9.2879030  )
         6           O1  tau(   6) = (   1.9868534   1.4903216   9.2879459  )
         7           Ti1 tau(   7) = (   3.2967797   2.8647345   9.1688538  )
         8           Ti1 tau(   8) = (   0.0139078   1.4260134   9.3797207  )
         9           O1  tau(   9) = (   3.2818202   5.9426219  11.3413624  )
        10           O1  tau(  10) = (  -0.0006713   5.9438105  10.5613913  )
        11           O1  tau(  11) = (   1.2629550   1.4689526  12.6431422  )
        12           O1  tau(  12) = (   5.2627372   1.4724369  12.6244454  )
        13           Ti1 tau(  13) = (   0.0649248   2.9521173  12.8162972  )
        14           Ti1 tau(  14) = (   3.3900010   1.4623865  12.4921655  )
        15           O1  tau(  15) = (   6.5612248   5.9427239  14.6529025  )
        16           O1  tau(  16) = (   3.2707349   5.9499158  13.9186396  )
        17           O1  tau(  17) = (   4.5120437   1.4930778  16.0516072  )
        18           O1  tau(  18) = (   2.0188724   1.4901805  16.0528637  )
        19           Ti1 tau(  19) = (   3.2526435   2.9656207  15.7242400  )
        20           Ti1 tau(  20) = (   6.5390660   1.5270114  16.1581541  )
        21           O1  tau(  21) = (   3.2904802   0.0005063   4.7018136  )
        22           O1  tau(  22) = (   6.5517350   0.0054997  17.2382445  )
        23           O1  tau(  23) = (   1.3043587   1.4918075   6.0039043  )
        24           O1  tau(  24) = (   5.2767064   1.4903225   6.0039473  )
        25           Ti1 tau(  25) = (   0.0000382   5.9609847   6.0000000  )
        26           Ti1 tau(  26) = (   3.2902200   4.4714249   6.0002472  )
        27           O1  tau(  27) = (   0.0002396   2.9813036   7.9858123  )
        28           O1  tau(  28) = (   3.2902150   2.9813002   7.3038282  )
        29           O1  tau(  29) = (   4.5938453   4.4726049   9.2879030  )
        30           O1  tau(  30) = (   1.9864658   4.4711199   9.2879459  )
        31           Ti1 tau(  31) = (   3.2991641   5.8454459   9.1677744  )
        32           Ti1 tau(  32) = (   0.0142928   4.4069258   9.3804372  )
        33           O1  tau(  33) = (   3.2794024   2.9620648  11.3429404  )
        34           O1  tau(  34) = (   0.0008107   2.9631099  10.5617750  )
        35           O1  tau(  35) = (   1.2628400   4.4505553  12.6449227  )
        36           O1  tau(  36) = (   5.2621040   4.4508628  12.6271667  )
        37           Ti1 tau(  37) = (   0.0634051   5.9337149  12.8176510  )
        38           Ti1 tau(  38) = (   3.3888395   4.4462795  12.4902329  )
        39           O1  tau(  39) = (   6.5643088   2.9532696  14.6533357  )
        40           O1  tau(  40) = (   3.2687884   2.9653797  13.9163527  )
        41           O1  tau(  41) = (   4.5138939   4.4677068  16.0260545  )
        42           O1  tau(  42) = (   2.0159196   4.4685127  16.0260682  )
        43           Ti1 tau(  43) = (   3.2551286   5.9518885  15.7372992  )
        44           Ti1 tau(  44) = (   6.5382561   4.5045293  16.1449140  )
        45           O1  tau(  45) = (   3.2900926   2.9813045   4.7018136  )
        46           O1  tau(  46) = (   6.5520679   2.9954315  17.2342401  )
        47           O1  tau(  47) = (   1.3039711   4.4726057   6.0039043  )
        48           O1  tau(  48) = (   5.2763189   4.4711207   6.0039473  )
        49           N1  tau(  49) = (   3.2718132   4.4933032  18.6889481  )
        50           N1  tau(  50) = (   3.2619367   3.3563452  18.5802627  )
        51           C1  tau(  51) = (   3.2831389   5.7900214  18.6539038  )
        52           H1  tau(  52) = (   2.3406966   0.3270794  18.8225995  )
        53           H1  tau(  53) = (   4.2301870   0.3074325  18.8013464  )

     number of k points=    10  Fermi-Dirac smearing, width (Ry)=  0.0073
                       cart. coord. in units 2pi/alat
        k(    1) = (   0.0000000   0.0000000   0.0000000), wk =   0.1250000
        k(    2) = (   0.0000000   0.0419351   0.0000000), wk =   0.2500000
        k(    3) = (   0.0000000  -0.0838702   0.0000000), wk =   0.1250000
        k(    4) = (   0.0379955   0.0000049   0.0000000), wk =   0.2500000
        k(    5) = (   0.0379955   0.0419400   0.0000000), wk =   0.2500000
        k(    6) = (   0.0379955  -0.0838652   0.0000000), wk =   0.2500000
        k(    7) = (   0.0379955  -0.0419301   0.0000000), wk =   0.2500000
        k(    8) = (  -0.0759910  -0.0000099   0.0000000), wk =   0.1250000
        k(    9) = (  -0.0759910   0.0419252   0.0000000), wk =   0.2500000
        k(   10) = (  -0.0759910  -0.0838800   0.0000000), wk =   0.1250000

     Initial potential from superposition of free atoms

     starting charge  383.99917, renormalised to  400.00000

     negative rho (up, down):  1.829E-02 0.000E+00

     %%%%%%%%%%%%%%%%%%%%%%%%%%%%%%%%%%%%%%%%%%%%%%%%%%%%%%%%%%%%%%%%%%%%%%%%
     %                                                                      %
     % You are using vdW-DF, which was implemented by the Thonhauser group. %
     % Please cite the following two papers that made this development      %
     % possible and the two reviews that describe the various versions:     %
     %                                                                      %
     %   T. Thonhauser et al., PRL 115, 136402 (2015).                      %
     %   T. Thonhauser et al., PRB 76, 125112 (2007).                       %
     %   K. Berland et al., Rep. Prog. Phys. 78, 066501 (2015).             %
     %   D.C. Langreth et al., J. Phys.: Condens. Matter 21, 084203 (2009). %
     %                                                                      %
     %                                                                      %
     % If you are calculating the stress with vdW-DF, please also cite:     %
     %                                                                      %
     %   R. Sabatini et al., J. Phys.: Condens. Matter 24, 424209 (2012).   %
     %                                                                      %
     %%%%%%%%%%%%%%%%%%%%%%%%%%%%%%%%%%%%%%%%%%%%%%%%%%%%%%%%%%%%%%%%%%%%%%%%

     Adding external electric field

     Computed dipole along edir(3) :
        Dipole               -9.8398 Ry au,        -25.0102 Debye
        Dipole field         -0.0186 Ry au,

        Potential amp.        1.7213 Ry
        Total length         46.3494 bohr

     Starting wfcs are  302 atomic wfcs
  @ DRIVER MODE: Message from server: STATUS
  @ DRIVER MODE: Message from server: POSDATA
  @ DRIVER MODE: Reading and sharing cell
  @ DRIVER MODE: Reading and sharing positions
  @ DRIVER MODE: Received positions

     Self-consistent Calculation

     iteration #  1     ecut=    29.40 Ry     beta= 0.05
     Davidson diagonalization with overlap
     c_bands:  1 eigenvalues not converged
     c_bands:  2 eigenvalues not converged
     c_bands:  1 eigenvalues not converged
     c_bands:  2 eigenvalues not converged
     c_bands:  2 eigenvalues not converged
     c_bands:  2 eigenvalues not converged
     c_bands:  1 eigenvalues not converged
     c_bands:  3 eigenvalues not converged
     ethr =  1.00E-05,  avg # of iterations = 20.0

[...]

     total energy              =   -2519.77198267 Ry
     estimated scf accuracy    <    5012.98934707 Ry

     iteration #  2     ecut=    29.40 Ry     beta= 0.05
     Davidson diagonalization with overlap
     ethr =  1.00E-02,  avg # of iterations = 25.5

[...]

     iteration # 47     ecut=    29.40 Ry     beta= 0.05
     Davidson diagonalization with overlap
     c_bands:  2 eigenvalues not converged
     c_bands:  2 eigenvalues not converged
     c_bands:  2 eigenvalues not converged
     c_bands:  2 eigenvalues not converged
     c_bands:  1 eigenvalues not converged
     ethr =  1.10E-07,  avg # of iterations = 12.8

[...]

     total energy              =   -2970.35076764 Ry
     estimated scf accuracy    <       0.00000011 Ry

     iteration # 67     ecut=    29.40 Ry     beta= 0.05
     Davidson diagonalization with overlap
     ethr =  2.67E-11,  avg # of iterations =  5.2

     negative rho (up, down):  1.789E-02 0.000E+00

     Adding external electric field

     Computed dipole along edir(3) :
        Dipole                0.5374 Ry au,          1.3660 Debye
        Dipole field          0.0010 Ry au,

        Potential amp.       -0.0940 Ry
        Total length         46.3494 bohr

     End of self-consistent calculation

          k = 0.0000 0.0000 0.0000 ( 18029 PWs)   bands (ev):

   -56.2391 -56.2056 -55.8893 -55.8535 -55.7648 -55.7298 -55.6311 -55.6080
   -55.5965 -55.5740 -55.5271 -55.4921 -55.4804 -55.4437 -55.0122 -54.9782
   -32.6661 -32.4868 -32.4589 -32.4305 -32.4243 -32.3395 -32.2930 -32.2389
   -32.1855 -32.1341 -32.1032 -32.1000 -32.0684 -32.0671 -32.0508 -32.0455
   -32.0323 -32.0122 -32.0068 -31.9905 -31.9056 -31.8830 -31.8716 -31.8604
   -31.8517 -31.8463 -31.8232 -31.8137 -31.8005 -31.7725 -31.7659 -31.7434
   -31.7367 -31.7243 -31.7061 -31.7043 -31.7035 -31.6869 -31.6849 -31.6562
   -31.6311 -31.5512 -31.4116 -31.3394 -31.3156 -31.2299 -31.1450 -31.0331
   -21.0558 -16.5567 -16.3932 -16.1719 -16.0186 -15.9294 -15.7983 -15.6032
   -15.5778 -15.4847 -15.4823 -15.4583 -15.3880 -15.3873 -15.3538 -15.3487
   -15.3202 -15.2989 -15.2593 -15.2427 -15.2403 -15.1978 -15.1379 -15.1120
   -15.0194 -14.9724 -14.8673 -14.8620 -14.8315 -14.7465 -14.7154 -14.2854
   -13.5061 -13.3928  -6.8420  -5.8807  -5.1033  -3.9843  -3.9326  -3.8948
    -3.7783  -3.7592  -3.6331  -3.3549  -3.2998  -3.0487  -2.9937  -2.9770
    -2.9315  -2.9097  -2.8424  -2.8388  -2.7376  -2.7327  -2.6870  -2.6798
    -2.6467  -2.6443  -2.6282  -2.5675  -2.5462  -2.4616  -2.4529  -2.4216
    -2.3959  -2.2799  -2.2352  -2.1905  -2.1886  -2.1598  -2.0607  -2.0530
    -2.0388  -2.0098  -1.9275  -1.8767  -1.7497  -1.6490  -1.6331  -1.5881
    -1.5269  -1.4944  -1.2953  -1.2479  -1.2443  -1.2230  -1.2008  -1.1883
    -1.1192  -1.0531  -0.9304  -0.8562  -0.8295  -0.7749  -0.7542  -0.7483
    -0.7290  -0.6509  -0.6210  -0.6148  -0.5919  -0.4508  -0.3053  -0.2664
    -0.2439  -0.2293  -0.2077  -0.1286  -0.1121  -0.0760  -0.0349  -0.0165
     0.0027   0.0511   0.0798   0.0884   0.1930   0.2133   0.2745   0.2958
     0.3054   0.3414   0.3851   0.5307   0.6176   0.7310   0.7402   0.8200
     0.9676   0.9745   1.0153   1.2174   1.2296   1.2770   1.6009   1.6740
     3.0329   3.2164   3.4482   3.5187   3.5391   3.6315   3.7374   3.7673
     3.8342   3.9128

[...]

          k = 0.0380-0.0419 0.0000 ( 17876 PWs)   bands (ev):

[...]

          k =-0.0760-0.0000 0.0000 ( 17886 PWs)   bands (ev):

[...]

          k =-0.0760-0.0839 0.0000 ( 17948 PWs)   bands (ev):

   -56.2224 -56.2222 -55.8716 -55.8710 -55.7495 -55.7450 -55.6144 -55.6130
   -55.5913 -55.5905 -55.5102 -55.5089 -55.4624 -55.4616 -54.9952 -54.9951
   -32.4836 -32.4835 -32.4725 -32.4723 -32.3834 -32.3832 -32.2305 -32.2261
   -32.1354 -32.1306 -32.0776 -32.0766 -32.0674 -32.0567 -32.0369 -32.0285
   -31.9547 -31.9472 -31.9356 -31.9340 -31.9213 -31.9205 -31.8544 -31.8540
   -31.8427 -31.8414 -31.8365 -31.8360 -31.8295 -31.8291 -31.8015 -31.8007
   -31.7895 -31.7832 -31.7262 -31.7252 -31.7167 -31.7156 -31.6988 -31.6975
   -31.6821 -31.6812 -31.3285 -31.3285 -31.2258 -31.2257 -31.1876 -31.1875
   -21.0547 -15.9776 -15.9659 -15.7725 -15.7675 -15.7044 -15.7043 -15.6640
   -15.6616 -15.6115 -15.6101 -15.4720 -15.4689 -15.4679 -15.4638 -15.3880
   -15.3866 -15.3727 -15.3716 -15.3206 -15.3189 -15.1847 -15.1836 -15.0972
   -15.0962 -15.0525 -15.0518 -14.9956 -14.9949 -14.8947 -14.8815 -14.2977
   -13.4952 -13.4951  -6.6869  -5.8512  -5.0917  -4.1559  -3.2633  -3.2500
    -2.9840  -2.9781  -2.8904  -2.8630  -2.8517  -2.8261  -2.8249  -2.7392
    -2.7314  -2.7075  -2.7021  -2.6746  -2.6705  -2.6133  -2.6120  -2.5891
    -2.5834  -2.5739  -2.5728  -2.5674  -2.5653  -2.4758  -2.4723  -2.4591
    -2.4571  -2.3843  -2.3784  -2.3441  -2.3318  -2.1237  -2.1232  -2.0535
    -2.0524  -1.9346  -1.9333  -1.9170  -1.9130  -1.8769  -1.8371  -1.5985
    -1.5963  -1.5389  -1.5361  -1.4865  -1.4723  -1.3671  -1.3379  -1.2106
    -1.1914  -1.1750  -1.1675  -1.0175  -1.0139  -1.0121  -1.0085  -0.9847
    -0.9812  -0.8654  -0.8519  -0.7656  -0.7585  -0.7417  -0.7382  -0.7000
    -0.6825  -0.5323  -0.5319  -0.5088  -0.5030  -0.3615  -0.3604  -0.3012
    -0.2946  -0.0524  -0.0442   0.0676   0.0678   0.2979   0.3316   0.3527
     0.3638   0.5061   0.5146   0.5284   0.5373   0.6625   0.6671   0.6839
     0.6898   0.7770   0.7770   1.2144   1.4029   1.4035   1.4554   1.4555
     3.5740   3.5784   3.5829   3.5874   3.6277   3.6293   3.6749   3.6766
     3.9326   3.9552

     the Fermi energy is     2.4057 ev

!    total energy              =   -2970.35079572 Ry
     estimated scf accuracy    <       0.00000003 Ry
     smearing contrib. (-TS)   =      -0.00009808 Ry
     internal energy E=F+TS    =   -2970.35069764 Ry

     The total energy is F=E-TS. E is the sum of the following terms:
     one-electron contribution =  -24066.96003033 Ry
     hartree contribution      =   12123.79285548 Ry
     xc contribution           =    -491.49065325 Ry
     ewald contribution        =    9464.30658543 Ry
     electric field correction =       0.00054504 Ry

     convergence has been achieved in  67 iterations

     Forces acting on atoms (cartesian axes, Ry/au):

     atom    1 type  1   force =     0.00011535   -0.00011671    0.14846842
     atom    2 type  1   force =    -0.00010856   -0.00049025   -0.16836771
     atom    3 type  2   force =     0.00014059    0.00223494   -0.05994631
     atom    4 type  2   force =     0.00015550   -0.00146699    0.03992570
     atom    5 type  2   force =    -0.02119612   -0.00097386    0.00398649
     atom    6 type  2   force =     0.02099321    0.00032841    0.00312025
     atom    7 type  1   force =    -0.00011826   -0.00019791   -0.00000152
     atom    8 type  1   force =    -0.00021810    0.00002450    0.00005607
     atom    9 type  2   force =    -0.00023637   -0.00005739    0.00013504
     atom   10 type  2   force =     0.00001524   -0.00000180    0.00005716
     atom   11 type  2   force =    -0.00000577   -0.00006494   -0.00013084
     atom   12 type  2   force =    -0.00009413   -0.00013399   -0.00007054
     atom   13 type  1   force =    -0.00008561   -0.00001082   -0.00007986
     atom   14 type  1   force =     0.00006150   -0.00002467    0.00003223
     atom   15 type  2   force =     0.00010664    0.00001316   -0.00004893
     atom   16 type  2   force =     0.00007569   -0.00004196    0.00013844
     atom   17 type  2   force =     0.00001482   -0.00013644    0.00024249
     atom   18 type  2   force =     0.00022755   -0.00007116   -0.00004563
     atom   19 type  1   force =     0.00021440    0.00008234   -0.00006431
     atom   20 type  1   force =    -0.00015020   -0.00008913   -0.00007253
     atom   21 type  2   force =     0.00004216   -0.00004457    0.10203274
     atom   22 type  2   force =     0.00006284   -0.00006757   -0.00009624
     atom   23 type  2   force =    -0.07528282    0.00016033   -0.03469609
     atom   24 type  2   force =     0.07521692    0.00058536   -0.03477217
     atom   25 type  1   force =     0.00011385   -0.00013744    0.14837464
     atom   26 type  1   force =    -0.00013912   -0.00086196   -0.16860194
     atom   27 type  2   force =     0.00012391    0.00218473   -0.05989903
     atom   28 type  2   force =     0.00009039   -0.00145686    0.04020854
     atom   29 type  2   force =    -0.02099360   -0.00107849    0.00396430
     atom   30 type  2   force =     0.02118708    0.00040873    0.00311649
     atom   31 type  1   force =    -0.00019757   -0.00010535    0.00000279
     atom   32 type  1   force =    -0.00011239   -0.00005722   -0.00006981
     atom   33 type  2   force =     0.00013134    0.00008297    0.00005279
     atom   34 type  2   force =    -0.00008757    0.00002806   -0.00002114
     atom   35 type  2   force =    -0.00003802    0.00002796    0.00003065
     atom   36 type  2   force =    -0.00014036    0.00022553   -0.00015151
     atom   37 type  1   force =    -0.00007348   -0.00014425   -0.00005025
     atom   38 type  1   force =     0.00004904    0.00005105    0.00019346
     atom   39 type  2   force =    -0.00007871   -0.00001045   -0.00019061
     atom   40 type  2   force =     0.00011497    0.00001776    0.00007208
     atom   41 type  2   force =     0.00020998   -0.00011186    0.00009816
     atom   42 type  2   force =     0.00024030   -0.00005611    0.00025246
     atom   43 type  1   force =    -0.00010349    0.00030636    0.00015159
     atom   44 type  1   force =    -0.00006324    0.00010166    0.00008204
     atom   45 type  2   force =     0.00003718   -0.00004615    0.10203073
     atom   46 type  2   force =     0.00004639    0.00003164   -0.00011886
     atom   47 type  2   force =    -0.07528468    0.00019781   -0.03469448
     atom   48 type  2   force =     0.07522310    0.00062926   -0.03476834
     atom   49 type  3   force =     0.00015038   -0.00044697   -0.00114700
     atom   50 type  3   force =     0.00004795    0.00079621    0.00110097
     atom   51 type  4   force =    -0.01162224   -0.00457438   -0.00195651
     atom   52 type  5   force =    -0.00035122   -0.00060239    0.00010693
     atom   53 type  5   force =     0.01157335    0.00516127    0.00202850

     Total force =     0.402121     Total SCF correction =     0.000570
  @ DRIVER MODE: Message from server: STATUS
  @ DRIVER MODE: Message from server: GETFORCE
  @ DRIVER MODE: Returning v,forces,stress,ensemble

     Writing output data file ./calc.save/
  @ DRIVER MODE: Message from server: EXIT
  @ DRIVE MODE: Exiting

     General routines

     Parallel routines

   This run was terminated on:  20:26:21   5Oct2021

   JOB DONE.