     Program PWSCF v.6.7GPU starts on 25Aug2021 at  3:11:22

     R & G space division:  proc/nbgrp/npool/nimage =       6
     Reading input from /storage/home/hcoda1/3/ntian30/research/carbon/CH3_vib_end_on/ads_slab/CH3N2H_a/out_0022/pw.inp
Warning: card &CELL ignored
Warning: card   CELL_DYNAMICS='IPI', ignored
Warning: card / ignored

     Current dimensions of program PWSCF are:
     Max number of different atomic species (ntypx) = 10
     Max number of k-points (npk) =  40000
     Max angular momentum in pseudopotentials (lmaxx) =  3
     Presently no symmetry can be used with electric field

     Message from routine cell_base_init:
     DEPRECATED: use true lattice parameter, not A to a.u. conversion factor

     IMPORTANT: XC functional enforced from input :
     Exchange-correlation= BEEF-VDW
                           (   1   4  43  14   2   0   0)
     Any further DFT definition will be discarded
     Please, verify this is what you really want

  @ DRIVER MODE: Connecting to
 qe_1139763_2643869.sched-torque.pace.gatech.eduny2ae1d9_scratch
  using UNIX socket
  @ DRIVER MODE: Message from server: STATUS
  @ DRIVER MODE: Message from server: INIT
  @ DRIVER MODE: Receiving replica           0          -1
  @ DRIVER MODE: Receiving encoded integer          25
  @ DRIVER MODE:  SCF:  T  FORCE:  T  STRESS:  F  VC:  F  ENSEMBLE:  F
  @ DRIVER MODE:  SCF:  T  FORCE:  T  STRESS:  F  VC:  F  ENSEMBLE:  F

     Using Slab Decomposition

     bravais-lattice index     =            0
     lattice parameter (alat)  =       1.8897  a.u.
     unit-cell volume          =    6658.9804 (a.u.)^3
     number of atoms/cell      =           54
     number of atomic types    =            5
     number of electrons       =       396.00
     number of Kohn-Sham states=          208
     kinetic-energy cutoff     =      29.3995  Ry
     charge density cutoff     =     293.9946  Ry
     scf convergence threshold =      7.3E-08
     mixing beta               =       0.0500
     number of iterations used =            8  plain     mixing
     Exchange-correlation= BEEF-VDW
                           (   1   4  43  14   2   0   0)

     celldm(1)=   1.889726  celldm(2)=   0.000000  celldm(3)=   0.000000
     celldm(4)=   0.000000  celldm(5)=   0.000000  celldm(6)=   0.000000

     crystal axes: (cart. coord. in units of alat)
               a(1) = (   6.579727   0.000000   0.000000 )
               a(2) = (  -0.000775   5.961596   0.000000 )
               a(3) = (   0.000000   0.000000  25.155947 )

     reciprocal axes: (cart. coord. in units 2 pi/alat)
               b(1) = (  0.151982  0.000020  0.000000 )
               b(2) = (  0.000000  0.167740  0.000000 )
               b(3) = (  0.000000  0.000000  0.039752 )

     PseudoPot. # 1 for Ti read from file:
     /storage/coda1/p-amedford6/0/shared/rich_project_chbe-medford/medford-share/data/pseudos_module/espresso/nninc/pbe/van/Ti.UPF
     MD5 check sum: 8e4df49b7f0d34bbd5052bf3f5ea0213
     Pseudo is Ultrasoft, Zval = 12.0
     Generated by new atomic code, or converted to UPF format
     Using radial grid of  851 points,  6 beta functions with:
                l(1) =   0
                l(2) =   0
                l(3) =   1
                l(4) =   1
                l(5) =   2
                l(6) =   2
     Q(r) pseudized with  8 coefficients,  rinner =    1.000   1.000   1.000
                                                       1.000   1.000

     PseudoPot. # 2 for O  read from file:
     /storage/coda1/p-amedford6/0/shared/rich_project_chbe-medford/medford-share/data/pseudos_module/espresso/nninc/pbe/van/O.UPF
     MD5 check sum: 78c19812648e8988a0fe644b0f25305e
     Pseudo is Ultrasoft, Zval =  6.0
     Generated by new atomic code, or converted to UPF format
     Using radial grid of  737 points,  4 beta functions with:
                l(1) =   0
                l(2) =   0
                l(3) =   1
                l(4) =   1
     Q(r) pseudized with  8 coefficients,  rinner =    0.800   0.800   0.800

     PseudoPot. # 3 for N  read from file:
     /storage/coda1/p-amedford6/0/shared/rich_project_chbe-medford/medford-share/data/pseudos_module/espresso/nninc/pbe/van/N.UPF
     MD5 check sum: 90d10febe142ad51ac9d5be1deb811c4
     Pseudo is Ultrasoft, Zval =  5.0
     Generated by new atomic code, or converted to UPF format
     Using radial grid of  729 points,  4 beta functions with:
                l(1) =   0
                l(2) =   0
                l(3) =   1
                l(4) =   1
     Q(r) pseudized with  8 coefficients,  rinner =    0.800   0.800   0.800

     PseudoPot. # 4 for C  read from file:
     /storage/coda1/p-amedford6/0/shared/rich_project_chbe-medford/medford-share/data/pseudos_module/espresso/nninc/pbe/van/C.UPF
     MD5 check sum: 1a69bf6b8db32088f5b2163dbdb77a27
     Pseudo is Ultrasoft, Zval =  4.0
     Generated by new atomic code, or converted to UPF format
     Using radial grid of  721 points,  4 beta functions with:
                l(1) =   0
                l(2) =   0
                l(3) =   1
                l(4) =   1
     Q(r) pseudized with  8 coefficients,  rinner =    0.800   0.800   0.800

     PseudoPot. # 5 for H  read from file:
     /storage/coda1/p-amedford6/0/shared/rich_project_chbe-medford/medford-share/data/pseudos_module/espresso/nninc/pbe/van/H.UPF
     MD5 check sum: b5ee9d7bfd3a09ee7748110bda690ff7
     Pseudo is Ultrasoft, Zval =  1.0
     Generated by new atomic code, or converted to UPF format
     Using radial grid of  615 points,  1 beta functions with:
                l(1) =   0
     Q(r) pseudized with  8 coefficients,  rinner =    0.800

     atomic species   valence    mass     pseudopotential
        Ti1           12.00    47.86700     Ti( 1.00)
        O1             6.00    15.99900     O ( 1.00)
        N1             5.00    14.00700     N ( 1.00)
        C1             4.00    12.01100     C ( 1.00)
        H1             1.00     1.00800     H ( 1.00)

     No symmetry found

   Cartesian axes

     site n.     atom                  positions (alat units)
         1           Ti1 tau(   1) = (   0.0004258   2.9801865   6.0000000  )
         2           Ti1 tau(   2) = (   3.2906075   1.4906267   6.0002472  )
         3           O1  tau(   3) = (   0.0006271   0.0005054   7.9858123  )
         4           O1  tau(   4) = (   3.2906025   0.0005020   7.3038282  )
         5           O1  tau(   5) = (   4.5942328   1.4918067   9.2879030  )
         6           O1  tau(   6) = (   1.9868534   1.4903216   9.2879459  )
         7           Ti1 tau(   7) = (   3.2907910   2.8959150   9.1758416  )
         8           Ti1 tau(   8) = (   0.0015273   1.4827037   9.2680791  )
         9           O1  tau(   9) = (   3.2896288   0.0042867  11.3205077  )
        10           O1  tau(  10) = (   0.0116148   5.9584955  10.6183126  )
        11           O1  tau(  11) = (   1.2848067   1.4985890  12.6232755  )
        12           O1  tau(  12) = (   5.2688617   1.4893877  12.6055203  )
        13           Ti1 tau(  13) = (   0.0799559   3.0171279  12.6206390  )
        14           Ti1 tau(  14) = (   3.4009582   1.4891986  12.4726338  )
        15           O1  tau(  15) = (   6.5707323   0.0080309  14.6263129  )
        16           O1  tau(  16) = (   3.2902489   0.0120312  13.8979102  )
        17           O1  tau(  17) = (   4.5126121   1.5346005  16.0500440  )
        18           O1  tau(  18) = (   2.0453867   1.5362785  16.0447169  )
        19           Ti1 tau(  19) = (   3.2767562   3.0203775  15.6892921  )
        20           Ti1 tau(  20) = (   6.5596632   1.5778499  15.8310978  )
        21           O1  tau(  21) = (   3.2904802   0.0005063   4.7018136  )
        22           O1  tau(  22) = (   6.5709656   0.0671247  17.2345223  )
        23           O1  tau(  23) = (   1.3043587   1.4918075   6.0039043  )
        24           O1  tau(  24) = (   5.2767064   1.4903225   6.0039473  )
        25           Ti1 tau(  25) = (   0.0000382   5.9609847   6.0000000  )
        26           Ti1 tau(  26) = (   3.2902200   4.4714249   6.0002472  )
        27           O1  tau(  27) = (   0.0002396   2.9813036   7.9858123  )
        28           O1  tau(  28) = (   3.2902150   2.9813002   7.3038282  )
        29           O1  tau(  29) = (   4.5938453   4.4726049   9.2879030  )
        30           O1  tau(  30) = (   1.9864658   4.4711199   9.2879459  )
        31           Ti1 tau(  31) = (   3.2891106   5.8743827   9.1763621  )
        32           Ti1 tau(  32) = (   0.0006254   4.4649316   9.2693709  )
        33           O1  tau(  33) = (   3.2919429   2.9835650  11.3172650  )
        34           O1  tau(  34) = (   0.0092240   2.9805883  10.6323155  )
        35           O1  tau(  35) = (   1.2842535   4.4799506  12.6241420  )
        36           O1  tau(  36) = (   5.2755836   4.4732255  12.6042992  )
        37           Ti1 tau(  37) = (   0.0783641   0.0295629  12.6394962  )
        38           Ti1 tau(  38) = (   3.4022659   4.4693352  12.4708195  )
        39           O1  tau(  39) = (   6.5693815   2.9799975  14.6326336  )
        40           O1  tau(  40) = (   3.2899495   3.0014797  13.8849495  )
        41           O1  tau(  41) = (   4.5062741   4.5069571  16.0893315  )
        42           O1  tau(  42) = (   2.0480812   4.5060041  16.0753496  )
        43           Ti1 tau(  43) = (   3.2742444   0.0367023  15.7020416  )
        44           Ti1 tau(  44) = (   6.5658628   4.6518251  16.1481936  )
        45           O1  tau(  45) = (   3.2900926   2.9813045   4.7018136  )
        46           O1  tau(  46) = (   1.3039711   4.4726057   6.0039043  )
        47           O1  tau(  47) = (   5.2763189   4.4711207   6.0039473  )
        48           N1  tau(  48) = (   6.5201982   2.6597193  18.5868863  )
        49           N1  tau(  49) = (   6.5663212   2.9659568  17.3251533  )
        50           C1  tau(  50) = (   0.1092964   3.6297355  19.6533281  )
        51           H1  tau(  51) = (   6.1365678   4.5455971  19.4091500  )
        52           H1  tau(  52) = (   6.3142024   3.1981282  20.5813133  )
        53           H1  tau(  53) = (   1.1661384   3.8973747  19.7839464  )
        54           H1  tau(  54) = (   6.5756389   1.6632157  18.8047554  )

     number of k points=    10  Fermi-Dirac smearing, width (Ry)=  0.0073
                       cart. coord. in units 2pi/alat
        k(    1) = (   0.0000000   0.0000000   0.0000000), wk =   0.1250000
        k(    2) = (   0.0000000   0.0419351   0.0000000), wk =   0.2500000
        k(    3) = (   0.0000000  -0.0838702   0.0000000), wk =   0.1250000
        k(    4) = (   0.0379955   0.0000049   0.0000000), wk =   0.2500000
        k(    5) = (   0.0379955   0.0419400   0.0000000), wk =   0.2500000
        k(    6) = (   0.0379955  -0.0838652   0.0000000), wk =   0.2500000
        k(    7) = (   0.0379955  -0.0419301   0.0000000), wk =   0.2500000
        k(    8) = (  -0.0759910  -0.0000099   0.0000000), wk =   0.1250000
        k(    9) = (  -0.0759910   0.0419252   0.0000000), wk =   0.2500000
        k(   10) = (  -0.0759910  -0.0838800   0.0000000), wk =   0.1250000

     Initial potential from superposition of free atoms

     starting charge  379.99915, renormalised to  396.00000

     negative rho (up, down):  1.474E-02 0.000E+00

     %%%%%%%%%%%%%%%%%%%%%%%%%%%%%%%%%%%%%%%%%%%%%%%%%%%%%%%%%%%%%%%%%%%%%%%%
     %                                                                      %
     % You are using vdW-DF, which was implemented by the Thonhauser group. %
     % Please cite the following two papers that made this development      %
     % possible and the two reviews that describe the various versions:     %
     %                                                                      %
     %   T. Thonhauser et al., PRL 115, 136402 (2015).                      %
     %   T. Thonhauser et al., PRB 76, 125112 (2007).                       %
     %   K. Berland et al., Rep. Prog. Phys. 78, 066501 (2015).             %
     %   D.C. Langreth et al., J. Phys.: Condens. Matter 21, 084203 (2009). %
     %                                                                      %
     %                                                                      %
     % If you are calculating the stress with vdW-DF, please also cite:     %
     %                                                                      %
     %   R. Sabatini et al., J. Phys.: Condens. Matter 24, 424209 (2012).   %
     %                                                                      %
     %%%%%%%%%%%%%%%%%%%%%%%%%%%%%%%%%%%%%%%%%%%%%%%%%%%%%%%%%%%%%%%%%%%%%%%%

     Adding external electric field

     Computed dipole along edir(3) :
        Dipole               -9.2704 Ry au,        -23.5631 Debye
        Dipole field         -0.0175 Ry au,

        Potential amp.        1.6217 Ry
        Total length         46.3494 bohr

     Starting wfcs are  300 atomic wfcs
  @ DRIVER MODE: Message from server: STATUS
  @ DRIVER MODE: Message from server: POSDATA
  @ DRIVER MODE: Reading and sharing cell
  @ DRIVER MODE: Reading and sharing positions
  @ DRIVER MODE: Received positions

     Self-consistent Calculation

     iteration #  1     ecut=    29.40 Ry     beta= 0.05
     Davidson diagonalization with overlap
     c_bands:  1 eigenvalues not converged
     c_bands:  1 eigenvalues not converged
     c_bands:  1 eigenvalues not converged
     ethr =  1.00E-05,  avg # of iterations = 18.1

[...]

     total energy              =   -2584.98927799 Ry
     estimated scf accuracy    <    3950.33129635 Ry

     iteration #  2     ecut=    29.40 Ry     beta= 0.05
     Davidson diagonalization with overlap
     ethr =  1.00E-02,  avg # of iterations = 22.7

[...]

     iteration # 64     ecut=    29.40 Ry     beta= 0.05
     Davidson diagonalization with overlap
     c_bands:  1 eigenvalues not converged
     ethr =  9.06E-11,  avg # of iterations = 13.3

[...]

     total energy              =   -2940.39759879 Ry
     estimated scf accuracy    <       0.00000008 Ry

     iteration # 69     ecut=    29.40 Ry     beta= 0.05
     Davidson diagonalization with overlap
     ethr =  2.12E-11,  avg # of iterations =  9.3

     negative rho (up, down):  1.567E-02 0.000E+00

     Adding external electric field

     Computed dipole along edir(3) :
        Dipole                1.1313 Ry au,          2.8754 Debye
        Dipole field          0.0021 Ry au,

        Potential amp.       -0.1979 Ry
        Total length         46.3494 bohr

     End of self-consistent calculation

          k = 0.0000 0.0000 0.0000 ( 18029 PWs)   bands (ev):

   -55.6440 -55.6100 -55.5518 -55.5141 -55.4081 -55.3856 -55.3743 -55.3504
   -55.3433 -55.3360 -55.3166 -55.2664 -54.7258 -54.5859 -54.5576 -54.5518
   -32.1185 -32.0953 -31.9382 -31.9252 -31.8950 -31.8646 -31.8463 -31.8399
   -31.7972 -31.7803 -31.7796 -31.7408 -31.7316 -31.7137 -31.7027 -31.6925
   -31.6823 -31.6737 -31.6401 -31.6290 -31.6063 -31.5863 -31.5789 -31.5646
   -31.5517 -31.5454 -31.5387 -31.5370 -31.5313 -31.5142 -31.5049 -31.5034
   -31.4995 -31.4626 -31.4480 -31.3805 -31.2237 -30.9916 -30.9489 -30.9343
   -30.9069 -30.8950 -30.8842 -30.8084 -30.7660 -30.7373 -30.7221 -30.6111
   -18.0009 -16.2781 -16.0504 -15.7729 -15.6719 -15.6486 -15.5277 -15.3955
   -15.2951 -15.1998 -15.1596 -15.1054 -15.1007 -15.0713 -15.0412 -15.0052
   -14.9774 -14.9382 -14.9196 -14.9005 -14.8749 -14.8658 -14.7558 -14.7419
   -14.7176 -14.6262 -14.6160 -14.5426 -14.5170 -14.0868 -13.0882 -12.9724
   -12.0114  -8.9214  -5.7264  -4.4567  -4.1374  -3.6610  -3.5352  -3.5050
    -3.4035  -3.2253  -3.1388  -3.0787  -2.9394  -2.7652  -2.7302  -2.7204
    -2.7003  -2.6425  -2.4445  -2.4189  -2.3874  -2.3478  -2.3379  -2.3354
    -2.3214  -2.2596  -2.1929  -2.1287  -2.0293  -2.0241  -1.9688  -1.9557
    -1.9385  -1.9036  -1.8603  -1.8209  -1.7995  -1.7574  -1.7389  -1.7322
    -1.6904  -1.6078  -1.5059  -1.3484  -1.3283  -1.3013  -1.2530  -1.1980
    -1.0333  -1.0176  -0.9804  -0.9744  -0.9423  -0.8670  -0.7997  -0.7148
    -0.6783  -0.6017  -0.5859  -0.5569  -0.4828  -0.3971  -0.3744  -0.3595
    -0.3519  -0.3363  -0.2780  -0.1633  -0.0684  -0.0383   0.0828   0.0873
     0.1225   0.1667   0.1833   0.2652   0.3012   0.3150   0.3664   0.3668
     0.3785   0.4223   0.4453   0.5080   0.5639   0.6480   0.7213   0.7867
     0.8235   0.9398   1.0107   1.0760   1.1083   1.2374   1.3658   1.3742
     1.4358   1.6314   1.6338   2.0042   2.0485   3.5272   3.5484   3.6410
     3.6846   3.7825   3.8215   3.9658   4.0211   4.0585   4.1721   4.2044

[...]

          k = 0.0380-0.0419 0.0000 ( 17876 PWs)   bands (ev):

[...]

          k =-0.0760-0.0000 0.0000 ( 17886 PWs)   bands (ev):

[...]

          k =-0.0760-0.0839 0.0000 ( 17948 PWs)   bands (ev):

   -55.6271 -55.6268 -55.5387 -55.5270 -55.3912 -55.3909 -55.3765 -55.3522
   -55.3349 -55.3321 -55.3313 -55.2710 -54.7243 -54.5688 -54.5687 -54.5591
   -31.9340 -31.9339 -31.9235 -31.9234 -31.9031 -31.8937 -31.7964 -31.7866
   -31.7628 -31.7500 -31.7479 -31.7475 -31.7031 -31.7002 -31.6874 -31.6841
   -31.6756 -31.6718 -31.6713 -31.6458 -31.6017 -31.5995 -31.5869 -31.5839
   -31.5794 -31.5778 -31.5762 -31.5658 -31.5632 -31.5574 -31.5498 -31.5468
   -31.5396 -31.5295 -31.5034 -31.4687 -31.1329 -30.9693 -30.9353 -30.9224
   -30.8970 -30.8969 -30.8046 -30.8045 -30.7851 -30.7673 -30.7654 -30.7653
   -17.9951 -15.7010 -15.6897 -15.5108 -15.5056 -15.4450 -15.4388 -15.2861
   -15.2852 -15.2666 -15.2584 -15.1353 -15.1315 -15.0997 -15.0961 -15.0537
   -15.0450 -15.0272 -15.0188 -15.0172 -15.0106 -14.9836 -14.9326 -14.8992
   -14.8937 -14.7163 -14.7155 -14.5951 -14.5623 -14.2221 -13.0745 -13.0744
   -12.0123  -8.9313  -5.7182  -4.3956  -4.1397  -2.9908  -2.9788  -2.9532
    -2.7055  -2.7004  -2.6759  -2.6655  -2.4603  -2.4476  -2.4264  -2.4208
    -2.3934  -2.3876  -2.3728  -2.3656  -2.2825  -2.2719  -2.2608  -2.2366
    -2.2322  -2.2283  -2.2123  -2.2049  -2.1950  -2.1614  -2.1257  -2.0965
    -2.0619  -2.0392  -1.9200  -1.8094  -1.7320  -1.7253  -1.6948  -1.6890
    -1.6830  -1.6766  -1.6435  -1.5392  -1.4817  -1.4271  -1.2906  -1.2657
    -1.2480  -1.2021  -1.1140  -1.0333  -0.9702  -0.9527  -0.9055  -0.8624
    -0.8375  -0.7530  -0.7290  -0.7214  -0.6535  -0.6211  -0.5767  -0.5710
    -0.5562  -0.4904  -0.4423  -0.3929  -0.3696  -0.3389  -0.2936  -0.2730
    -0.2101  -0.1575  -0.1108  -0.1053  -0.0570  -0.0488   0.0165   0.1660
     0.2157   0.4690   0.4834   0.5143   0.6389   0.7099   0.7153   0.7433
     0.7752   0.8267   0.8387   0.9721   0.9839   0.9865   1.1517   1.1761
     1.2639   1.8042   1.8044   1.8676   1.8680   3.4297   3.9200   3.9373
     3.9624   3.9775   4.0487   4.0496   4.0579   4.0654   4.2463   4.2634

     the Fermi energy is     3.5044 ev

!    total energy              =   -2940.39762406 Ry
     estimated scf accuracy    <       0.00000002 Ry
     smearing contrib. (-TS)   =      -0.02302041 Ry
     internal energy E=F+TS    =   -2940.37460364 Ry

     The total energy is F=E-TS. E is the sum of the following terms:
     one-electron contribution =  -24109.25050540 Ry
     hartree contribution      =   12145.84952545 Ry
     xc contribution           =    -486.03970229 Ry
     ewald contribution        =    9509.06366349 Ry
     electric field correction =       0.00241511 Ry

     convergence has been achieved in  69 iterations

     Forces acting on atoms (cartesian axes, Ry/au):

     atom    1 type  1   force =     0.00016249   -0.00011938    0.09935016
     atom    2 type  1   force =    -0.00012700   -0.00047334   -0.17358171
     atom    3 type  2   force =    -0.00005086   -0.00000078   -0.02877578
     atom    4 type  2   force =     0.00007394   -0.00125071    0.04997082
     atom    5 type  2   force =    -0.01305145    0.00057558    0.00122176
     atom    6 type  2   force =     0.01459886    0.00138439   -0.00010247
     atom    7 type  1   force =    -0.00144658   -0.00059259   -0.00835396
     atom    8 type  1   force =     0.00087978   -0.00412617    0.04513010
     atom    9 type  2   force =    -0.00003395   -0.00065957   -0.00024941
     atom   10 type  2   force =    -0.00129066    0.00227578   -0.02840915
     atom   11 type  2   force =     0.00018672    0.00061504   -0.00003077
     atom   12 type  2   force =     0.00026634    0.00040875    0.00011442
     atom   13 type  1   force =     0.00037707    0.00021509   -0.00059301
     atom   14 type  1   force =     0.00002875    0.00047489    0.00031248
     atom   15 type  2   force =     0.00034161   -0.00009518   -0.00006083
     atom   16 type  2   force =    -0.00040933   -0.00023214   -0.00018545
     atom   17 type  2   force =    -0.00101160    0.00014538   -0.00052611
     atom   18 type  2   force =     0.00089723    0.00019838    0.00023415
     atom   19 type  1   force =     0.00022428   -0.00006748    0.00002517
     atom   20 type  1   force =    -0.00047332   -0.00080814    0.00022687
     atom   21 type  2   force =     0.00009141   -0.00007127    0.10273191
     atom   22 type  2   force =     0.00011848    0.00008306    0.00004251
     atom   23 type  2   force =    -0.07212966   -0.00015695   -0.02832231
     atom   24 type  2   force =     0.07212640    0.00030213   -0.02831999
     atom   25 type  1   force =     0.00012458   -0.00019968    0.09865686
     atom   26 type  1   force =    -0.00010939   -0.00045929   -0.17379134
     atom   27 type  2   force =     0.00001121   -0.00002656   -0.02805648
     atom   28 type  2   force =     0.00011471   -0.00099973    0.04942513
     atom   29 type  2   force =    -0.01337168    0.00005325    0.00128269
     atom   30 type  2   force =     0.01482694    0.00041788   -0.00006010
     atom   31 type  1   force =    -0.00139692    0.00251519   -0.00864060
     atom   32 type  1   force =     0.00106278    0.00237362    0.04545062
     atom   33 type  2   force =    -0.00013302    0.00104593    0.00057111
     atom   34 type  2   force =    -0.00071733    0.00120165   -0.03115007
     atom   35 type  2   force =     0.00067958   -0.00051202   -0.00017803
     atom   36 type  2   force =    -0.00162057   -0.00011195    0.00006824
     atom   37 type  1   force =    -0.00017581   -0.00152881    0.00019709
     atom   38 type  1   force =     0.00077665   -0.00004849    0.00050495
     atom   39 type  2   force =     0.00032741    0.00017273   -0.00057011
     atom   40 type  2   force =    -0.00040456    0.00033105   -0.00004255
     atom   41 type  2   force =     0.00041937   -0.00058571    0.00001690
     atom   42 type  2   force =    -0.00041654   -0.00071627    0.00052457
     atom   43 type  1   force =     0.00036123   -0.00033232   -0.00057357
     atom   44 type  1   force =    -0.00037400   -0.00068418   -0.00020389
     atom   45 type  2   force =     0.00011025   -0.00006801    0.10275391
     atom   46 type  2   force =    -0.07215360   -0.00009742   -0.02831930
     atom   47 type  2   force =     0.07213718    0.00034343   -0.02829707
     atom   48 type  3   force =    -0.00027917    0.00059354   -0.00099678
     atom   49 type  3   force =     0.00000379   -0.00056381   -0.00021778
     atom   50 type  4   force =    -0.00286302    0.00830583   -0.00091922
     atom   51 type  5   force =     0.00412065   -0.00956397    0.00190875
     atom   52 type  5   force =     0.00015890    0.00040269   -0.00048017
     atom   53 type  5   force =    -0.00093032    0.00025530   -0.00089517
     atom   54 type  5   force =    -0.00063825    0.00046133    0.00018198

     Total force =     0.372422     Total SCF correction =     0.000467
  @ DRIVER MODE: Message from server: STATUS
  @ DRIVER MODE: Message from server: GETFORCE
  @ DRIVER MODE: Returning v,forces,stress,ensemble

     Writing output data file ./calc.save/
  @ DRIVER MODE: Message from server: EXIT
  @ DRIVE MODE: Exiting

     General routines

     Parallel routines

   This run was terminated on:   3:41:10  25Aug2021

   JOB DONE.