     Program PWSCF v.6.7GPU starts on 19Oct2021 at  1:28:17

     R & G space division:  proc/nbgrp/npool/nimage =       8
     Reading input from /storage/home/hcoda1/3/ntian30/research/carbon/CxH_vib/Thiel_calc/ads_slab/NH2NH2_perslab/out_0032/pw.inp
Warning: card &CELL ignored
Warning: card   CELL_DYNAMICS='IPI', ignored
Warning: card / ignored

     Current dimensions of program PWSCF are:
     Max number of different atomic species (ntypx) = 10
     Max number of k-points (npk) =  40000
     Max angular momentum in pseudopotentials (lmaxx) =  3
     Presently no symmetry can be used with electric field

     Message from routine cell_base_init:
     DEPRECATED: use true lattice parameter, not A to a.u. conversion factor

     IMPORTANT: XC functional enforced from input :
     Exchange-correlation= BEEF-VDW
                           (   1   4  43  14   2   0   0)
     Any further DFT definition will be discarded
     Please, verify this is what you really want

  @ DRIVER MODE: Connecting to
 qe_1139763_3255136.sched-torque.pace.gatech.eduqx3n24if_scratch
  using UNIX socket
  @ DRIVER MODE: Message from server: STATUS
  @ DRIVER MODE: Message from server: INIT
  @ DRIVER MODE: Receiving replica           0          -1
  @ DRIVER MODE: Receiving encoded integer          25
  @ DRIVER MODE:  SCF:  T  FORCE:  T  STRESS:  F  VC:  F  ENSEMBLE:  F
  @ DRIVER MODE:  SCF:  T  FORCE:  T  STRESS:  F  VC:  F  ENSEMBLE:  F

     Using Slab Decomposition

     bravais-lattice index     =            0
     lattice parameter (alat)  =       1.8897  a.u.
     unit-cell volume          =    9988.4706 (a.u.)^3
     number of atoms/cell      =           59
     number of atomic types    =            4
     number of electrons       =       440.00
     number of Kohn-Sham states=          230
     kinetic-energy cutoff     =      29.3995  Ry
     charge density cutoff     =     293.9946  Ry
     scf convergence threshold =      7.3E-08
     mixing beta               =       0.0500
     number of iterations used =            8  plain     mixing
     Exchange-correlation= BEEF-VDW
                           (   1   4  43  14   2   0   0)

     celldm(1)=   1.889726  celldm(2)=   0.000000  celldm(3)=   0.000000
     celldm(4)=   0.000000  celldm(5)=   0.000000  celldm(6)=   0.000000

     crystal axes: (cart. coord. in units of alat)
               a(1) = (   6.579727   0.000000   0.000000 )
               a(2) = (  -0.001163   8.942395   0.000000 )
               a(3) = (   0.000000   0.000000  25.155947 )

     reciprocal axes: (cart. coord. in units 2 pi/alat)
               b(1) = (  0.151982  0.000020  0.000000 )
               b(2) = (  0.000000  0.111827  0.000000 )
               b(3) = (  0.000000  0.000000  0.039752 )

     PseudoPot. # 1 for O  read from file:
     /storage/coda1/p-amedford6/0/shared/rich_project_chbe-medford/medford-share/data/pseudos_module/espresso/nninc/pbe/van/O.UPF
     MD5 check sum: 78c19812648e8988a0fe644b0f25305e
     Pseudo is Ultrasoft, Zval =  6.0
     Generated by new atomic code, or converted to UPF format
     Using radial grid of  737 points,  4 beta functions with:
                l(1) =   0
                l(2) =   0
                l(3) =   1
                l(4) =   1
     Q(r) pseudized with  8 coefficients,  rinner =    0.800   0.800   0.800

     PseudoPot. # 2 for Ti read from file:
     /storage/coda1/p-amedford6/0/shared/rich_project_chbe-medford/medford-share/data/pseudos_module/espresso/nninc/pbe/van/Ti.UPF
     MD5 check sum: 8e4df49b7f0d34bbd5052bf3f5ea0213
     Pseudo is Ultrasoft, Zval = 12.0
     Generated by new atomic code, or converted to UPF format
     Using radial grid of  851 points,  6 beta functions with:
                l(1) =   0
                l(2) =   0
                l(3) =   1
                l(4) =   1
                l(5) =   2
                l(6) =   2
     Q(r) pseudized with  8 coefficients,  rinner =    1.000   1.000   1.000
                                                       1.000   1.000

     PseudoPot. # 3 for N  read from file:
     /storage/coda1/p-amedford6/0/shared/rich_project_chbe-medford/medford-share/data/pseudos_module/espresso/nninc/pbe/van/N.UPF
     MD5 check sum: 90d10febe142ad51ac9d5be1deb811c4
     Pseudo is Ultrasoft, Zval =  5.0
     Generated by new atomic code, or converted to UPF format
     Using radial grid of  729 points,  4 beta functions with:
                l(1) =   0
                l(2) =   0
                l(3) =   1
                l(4) =   1
     Q(r) pseudized with  8 coefficients,  rinner =    0.800   0.800   0.800

     PseudoPot. # 4 for H  read from file:
     /storage/coda1/p-amedford6/0/shared/rich_project_chbe-medford/medford-share/data/pseudos_module/espresso/nninc/pbe/van/H.UPF
     MD5 check sum: b5ee9d7bfd3a09ee7748110bda690ff7
     Pseudo is Ultrasoft, Zval =  1.0
     Generated by new atomic code, or converted to UPF format
     Using radial grid of  615 points,  1 beta functions with:
                l(1) =   0
     Q(r) pseudized with  8 coefficients,  rinner =    0.800

     atomic species   valence    mass     pseudopotential
        O1             6.00    15.99900     O ( 1.00)
        Ti1           12.00    47.86700     Ti( 1.00)
        N1             5.00    14.00700     N ( 1.00)
        H1             1.00     1.00800     H ( 1.00)

     No symmetry found

   Cartesian axes

     site n.     atom                  positions (alat units)
         1           O1  tau(   1) = (   0.0007354   0.0005023  10.5931620  )
         2           O1  tau(   2) = (   3.2892726   8.9022636  13.7900476  )
         3           O1  tau(   3) = (  -0.0000012   0.0159539  17.0845323  )
         4           O1  tau(   4) = (   0.0006271   0.0005054   7.9858123  )
         5           O1  tau(   5) = (   3.2903981   0.0001071  11.1466942  )
         6           O1  tau(   6) = (   6.5796972   0.0370899  14.4522764  )
         7           O1  tau(   7) = (   1.9868534   1.4903216   9.2879459  )
         8           O1  tau(   8) = (   5.2071659   1.5879261  12.5336177  )
         9           O1  tau(   9) = (   2.0150580   1.5800225  15.9505780  )
        10           Ti1 tau(  10) = (   0.0007404   1.4906270   9.2895810  )
        11           Ti1 tau(  11) = (   3.2907621   1.2831726  12.4565622  )
        12           Ti1 tau(  12) = (   6.5792216   1.1939559  15.8009323  )
        13           O1  tau(  13) = (   4.5942328   1.4918067   9.2879030  )
        14           O1  tau(  14) = (   1.3733293   1.5875306  12.5337771  )
        15           O1  tau(  15) = (   4.5635363   1.5794237  15.9511286  )
        16           Ti1 tau(  16) = (   3.2902859   2.9801868   9.2893338  )
        17           Ti1 tau(  17) = (   0.0006963   2.7899128  12.4910476  )
        18           Ti1 tau(  18) = (   3.2889055   2.8853182  15.6510148  )
        19           O1  tau(  19) = (   0.0003479   2.9813005  10.5931620  )
        20           O1  tau(  20) = (   3.2901137   2.9323735  13.8075185  )
        21           O1  tau(  21) = (   0.0002396   2.9813036   7.9858123  )
        22           O1  tau(  22) = (   3.2901566   2.9796509  11.1657827  )
        23           O1  tau(  23) = (  -0.0001005   3.0518452  14.6148139  )
        24           O1  tau(  24) = (   1.9864658   4.4711199   9.2879459  )
        25           O1  tau(  25) = (   5.2244327   4.5330399  12.5550231  )
        26           O1  tau(  26) = (   2.0317078   4.4891842  16.0144209  )
        27           Ti1 tau(  27) = (   0.0003529   4.4714252   9.2895810  )
        28           Ti1 tau(  28) = (   3.2908221   4.3047718  12.5439168  )
        29           Ti1 tau(  29) = (   0.0007318   4.2809743  15.9563396  )
        30           O1  tau(  30) = (   4.5938453   4.4726049   9.2879030  )
        31           O1  tau(  31) = (   1.3553747   4.5324408  12.5551093  )
        32           O1  tau(  32) = (   4.5484712   4.4888783  16.0159471  )
        33           Ti1 tau(  33) = (   3.2898983   5.9609850   9.2893338  )
        34           Ti1 tau(  34) = (   0.0004637   5.7541984  12.5654138  )
        35           Ti1 tau(  35) = (   3.2913524   5.8154114  16.2798070  )
        36           O1  tau(  36) = (  -0.0000397   5.9620987  10.5931620  )
        37           O1  tau(  37) = (   3.2897947   5.8994426  13.7907643  )
        38           O1  tau(  38) = (   0.0001798   5.9238570  17.1594641  )
        39           O1  tau(  39) = (  -0.0001480   5.9621018   7.9858123  )
        40           O1  tau(  40) = (   3.2896433   5.9245955  11.1661191  )
        41           O1  tau(  41) = (   0.0000838   5.9808129  14.5563373  )
        42           O1  tau(  42) = (   1.9860782   7.4519181   9.2879459  )
        43           O1  tau(  43) = (   5.2244350   7.5051086  12.5363475  )
        44           O1  tau(  44) = (   2.0177701   7.5673364  15.9764862  )
        45           Ti1 tau(  45) = (  -0.0000347   7.4522234   9.2895810  )
        46           Ti1 tau(  46) = (   3.2896674   7.1828241  12.5854878  )
        47           Ti1 tau(  47) = (   0.0003403   7.2137487  16.0183084  )
        48           O1  tau(  48) = (   4.5934577   7.4534031   9.2879030  )
        49           O1  tau(  49) = (   1.3543201   7.5047529  12.5365769  )
        50           O1  tau(  50) = (   4.5609347   7.5656990  15.9757490  )
        51           Ti1 tau(  51) = (   3.2895107   8.9417832   9.2893338  )
        52           Ti1 tau(  52) = (  -0.0005834   8.7067995  12.4790564  )
        53           Ti1 tau(  53) = (   3.2900135   8.8028796  15.6464995  )
        54           N1  tau(  54) = (   3.2900669   5.9334594  18.1702238  )
        55           H1  tau(  55) = (   3.2900466   5.1481598  18.8081281  )
        56           H1  tau(  56) = (   3.2872703   6.8047138  18.6863891  )
        57           N1  tau(  57) = (   0.0002662   3.1405291  17.5522950  )
        58           H1  tau(  58) = (   0.0007553   2.2326612  18.0099153  )
        59           H1  tau(  59) = (   0.0074605   3.8386968  18.2941669  )

     number of k points=    10  Fermi-Dirac smearing, width (Ry)=  0.0073
                       cart. coord. in units 2pi/alat
        k(    1) = (   0.0000000   0.0000000   0.0000000), wk =   0.1250000
        k(    2) = (   0.0000000   0.0279567   0.0000000), wk =   0.2500000
        k(    3) = (   0.0000000  -0.0559134   0.0000000), wk =   0.1250000
        k(    4) = (   0.0379955   0.0000049   0.0000000), wk =   0.2500000
        k(    5) = (   0.0379955   0.0279617   0.0000000), wk =   0.2500000
        k(    6) = (   0.0379955  -0.0559085   0.0000000), wk =   0.2500000
        k(    7) = (   0.0379955  -0.0279518   0.0000000), wk =   0.2500000
        k(    8) = (  -0.0759910  -0.0000099   0.0000000), wk =   0.1250000
        k(    9) = (  -0.0759910   0.0279468   0.0000000), wk =   0.2500000
        k(   10) = (  -0.0759910  -0.0559233   0.0000000), wk =   0.1250000

     Initial potential from superposition of free atoms

     starting charge  421.99910, renormalised to  440.00000

     negative rho (up, down):  3.741E-02 0.000E+00

     %%%%%%%%%%%%%%%%%%%%%%%%%%%%%%%%%%%%%%%%%%%%%%%%%%%%%%%%%%%%%%%%%%%%%%%%
     %                                                                      %
     % You are using vdW-DF, which was implemented by the Thonhauser group. %
     % Please cite the following two papers that made this development      %
     % possible and the two reviews that describe the various versions:     %
     %                                                                      %
     %   T. Thonhauser et al., PRL 115, 136402 (2015).                      %
     %   T. Thonhauser et al., PRB 76, 125112 (2007).                       %
     %   K. Berland et al., Rep. Prog. Phys. 78, 066501 (2015).             %
     %   D.C. Langreth et al., J. Phys.: Condens. Matter 21, 084203 (2009). %
     %                                                                      %
     %                                                                      %
     % If you are calculating the stress with vdW-DF, please also cite:     %
     %                                                                      %
     %   R. Sabatini et al., J. Phys.: Condens. Matter 24, 424209 (2012).   %
     %                                                                      %
     %%%%%%%%%%%%%%%%%%%%%%%%%%%%%%%%%%%%%%%%%%%%%%%%%%%%%%%%%%%%%%%%%%%%%%%%

     Adding external electric field

     Computed dipole along edir(3) :
        Dipole               -3.9767 Ry au,        -10.1078 Debye
        Dipole field         -0.0050 Ry au,

        Potential amp.        0.4638 Ry
        Total length         46.3494 bohr

     Starting wfcs are  332 atomic wfcs
  @ DRIVER MODE: Message from server: STATUS
  @ DRIVER MODE: Message from server: POSDATA
  @ DRIVER MODE: Reading and sharing cell
  @ DRIVER MODE: Reading and sharing positions
  @ DRIVER MODE: Received positions

     Self-consistent Calculation

     iteration #  1     ecut=    29.40 Ry     beta= 0.05
     Davidson diagonalization with overlap
     c_bands:  1 eigenvalues not converged
     c_bands:  2 eigenvalues not converged
     c_bands:  3 eigenvalues not converged
     c_bands:  4 eigenvalues not converged
     c_bands:  1 eigenvalues not converged
     c_bands:  4 eigenvalues not converged
     c_bands:  4 eigenvalues not converged
     c_bands:  3 eigenvalues not converged
     c_bands:  3 eigenvalues not converged
     ethr =  1.00E-05,  avg # of iterations = 19.2

[...]

     total energy              =   -3293.79824718 Ry
     estimated scf accuracy    <      28.14784672 Ry

     iteration #  2     ecut=    29.40 Ry     beta= 0.05
     Davidson diagonalization with overlap
     ethr =  6.40E-03,  avg # of iterations =  1.0

[...]

     iteration # 26     ecut=    29.40 Ry     beta= 0.05
     Davidson diagonalization with overlap
     c_bands:  1 eigenvalues not converged
     ethr =  4.40E-07,  avg # of iterations =  7.6

[...]

     total energy              =   -3293.29557556 Ry
     estimated scf accuracy    <       0.00000008 Ry

     iteration # 51     ecut=    29.40 Ry     beta= 0.05
     Davidson diagonalization with overlap
     ethr =  1.89E-11,  avg # of iterations =  2.0

     negative rho (up, down):  3.610E-02 0.000E+00

     Adding external electric field

     Computed dipole along edir(3) :
        Dipole                0.9490 Ry au,          2.4121 Debye
        Dipole field          0.0012 Ry au,

        Potential amp.       -0.1107 Ry
        Total length         46.3494 bohr

     End of self-consistent calculation

          k = 0.0000 0.0000 0.0000 ( 26871 PWs)   bands (ev):

   -58.4698 -58.4463 -58.4403 -58.4026 -58.3577 -58.0054 -57.9663 -57.9630
   -57.8791 -57.7594 -57.6861 -57.5725 -57.4753 -57.2238 -57.1424 -57.0726
   -57.0324 -57.0196 -34.8704 -34.8350 -34.8078 -34.7914 -34.7880 -34.7816
   -34.7329 -34.6723 -34.6453 -34.5946 -34.5820 -34.5794 -34.5736 -34.5518
   -34.5067 -34.4070 -34.3713 -34.3458 -34.3224 -34.3178 -34.2736 -34.2406
   -34.2286 -34.2242 -34.1893 -34.1866 -34.1539 -34.0567 -34.0455 -33.9869
   -33.9832 -33.9541 -33.8986 -33.8831 -33.8637 -33.8045 -33.7407 -33.7266
   -33.6849 -33.6722 -33.5822 -33.4613 -33.4481 -33.4169 -33.4152 -33.3804
   -33.3745 -33.3701 -33.3549 -33.3448 -33.2765 -33.2120 -33.1909 -33.0709
   -19.0218 -18.5587 -18.5000 -18.3504 -18.3014 -18.2811 -18.2749 -18.1242
   -17.9075 -17.8621 -17.8478 -17.8266 -17.7437 -17.7236 -17.7077 -17.6860
   -17.6707 -17.6499 -17.5613 -17.5557 -17.5347 -17.5102 -17.4903 -17.4356
   -17.3761 -17.3544 -17.2666 -17.1916 -17.1513 -16.9284 -16.6713 -16.5919
   -15.5383 -15.4972 -15.4887 -15.2743 -15.1459  -6.7509  -6.5937  -6.3567
    -6.1624  -5.9502  -5.8141  -5.6964  -5.6431  -5.5619  -5.4959  -5.4583
    -5.4562  -5.3955  -5.3487  -5.2547  -5.2485  -5.1565  -5.1069  -5.0906
    -5.0613  -5.0125  -4.9664  -4.9209  -4.9054  -4.8443  -4.8006  -4.7903
    -4.7408  -4.6792  -4.6753  -4.6550  -4.6528  -4.6186  -4.5847  -4.4635
    -4.4603  -4.4152  -4.3518  -4.3005  -4.2632  -4.2227  -4.1896  -4.1891
    -4.1723  -4.1281  -4.0932  -3.9213  -3.8680  -3.8298  -3.7976  -3.7193
    -3.6519  -3.5947  -3.5593  -3.5165  -3.4279  -3.3590  -3.3513  -3.3426
    -3.2761  -3.2329  -3.1954  -3.1641  -3.1454  -3.0824  -3.0297  -3.0295
    -2.9881  -2.9715  -2.9573  -2.9117  -2.8571  -2.8333  -2.8310  -2.7918
    -2.7850  -2.7427  -2.6452  -2.6159  -2.5553  -2.5170  -2.4623  -2.4144
    -2.4083  -2.3735  -2.3361  -2.2678  -2.1757  -2.1255  -1.9947  -1.9897
    -1.9121  -1.9019  -1.8353  -1.8069  -1.7906  -1.7436  -1.7163  -1.6023
    -1.5265  -1.4078  -1.1941  -0.9901  -0.8441  -0.7650  -0.7504  -0.7065
    -0.5674  -0.5483  -0.4627  -0.4516   0.8062   0.9417   1.1015   1.1194
     1.3193   1.4481   1.4662   1.5086   1.5656   1.7168

[...]

          k = 0.0380-0.0280 0.0000 ( 26873 PWs)   bands (ev):

[...]

          k =-0.0760-0.0000 0.0000 ( 26902 PWs)   bands (ev):

[...]

          k =-0.0760-0.0559 0.0000 ( 26868 PWs)   bands (ev):

   -58.4639 -58.4578 -58.4346 -58.4024 -58.3578 -58.0053 -57.9664 -57.9629
   -57.8790 -57.7596 -57.6860 -57.5724 -57.4753 -57.2239 -57.1423 -57.0713
   -57.0364 -57.0168 -34.8984 -34.8828 -34.8386 -34.8101 -34.7788 -34.6882
   -34.6717 -34.6234 -34.6169 -34.6047 -34.6023 -34.5911 -34.5766 -34.5552
   -34.5537 -34.4352 -34.3792 -34.3591 -34.3445 -34.3242 -34.2559 -34.2228
   -34.2191 -34.1888 -34.1801 -34.1641 -34.1177 -34.0646 -34.0568 -34.0304
   -33.9906 -33.9744 -33.9033 -33.8975 -33.8761 -33.7895 -33.7406 -33.7046
   -33.6830 -33.6581 -33.5701 -33.4812 -33.4518 -33.4508 -33.4185 -33.4162
   -33.3855 -33.3669 -33.3653 -33.2683 -33.2335 -33.1826 -33.1807 -33.1519
   -18.8087 -18.6601 -18.4147 -18.3160 -18.1528 -18.1055 -18.0525 -18.0422
   -18.0364 -17.9406 -17.9233 -17.8789 -17.8723 -17.8224 -17.7977 -17.7861
   -17.7791 -17.7473 -17.6802 -17.6240 -17.5386 -17.4463 -17.4339 -17.4181
   -17.4114 -17.3323 -17.2339 -17.1884 -17.1511 -16.9514 -16.6809 -16.5539
   -15.5501 -15.5370 -15.4274 -15.2694 -15.1467  -6.7466  -6.6047  -6.1206
    -5.9255  -5.8938  -5.8528  -5.5353  -5.4924  -5.3879  -5.3589  -5.3552
    -5.3280  -5.2838  -5.2454  -5.1902  -5.1550  -5.1372  -5.1286  -5.1110
    -5.0841  -5.0362  -5.0112  -4.9687  -4.9635  -4.9483  -4.9183  -4.8952
    -4.8461  -4.8371  -4.7657  -4.7560  -4.7220  -4.5276  -4.4736  -4.4114
    -4.3622  -4.2961  -4.2468  -4.1893  -4.1887  -4.1066  -4.1019  -4.0378
    -3.9778  -3.8912  -3.8108  -3.8031  -3.7804  -3.7524  -3.7194  -3.6869
    -3.6636  -3.6433  -3.6038  -3.5558  -3.5181  -3.4447  -3.4121  -3.4059
    -3.3650  -3.3458  -3.3345  -3.3304  -3.3138  -3.2102  -3.2029  -3.1430
    -3.1091  -3.1037  -3.0335  -3.0273  -2.9760  -2.9502  -2.8809  -2.8441
    -2.8339  -2.7453  -2.7379  -2.7343  -2.6525  -2.6431  -2.5430  -2.5098
    -2.4251  -2.3002  -2.1802  -2.1784  -2.1690  -2.0474  -2.0455  -2.0338
    -1.9897  -1.9269  -1.9023  -1.7195  -1.7161  -1.6709  -1.6006  -1.5793
    -1.5551  -1.5402  -1.4240  -1.4023  -0.9976  -0.7161  -0.6824  -0.6774
    -0.6437  -0.6149  -0.5817  -0.5729   0.8578   1.0184   1.0962   1.1617
     1.1874   1.2312   1.2629   1.4376   1.5002   1.5070

     the Fermi energy is     0.2186 ev

!    total energy              =   -3293.29567094 Ry
     estimated scf accuracy    <       0.00000006 Ry
     smearing contrib. (-TS)   =      -0.00052625 Ry
     internal energy E=F+TS    =   -3293.29514469 Ry

     The total energy is F=E-TS. E is the sum of the following terms:
     one-electron contribution =  -34586.25803542 Ry
     hartree contribution      =   17354.96435473 Ry
     xc contribution           =    -542.07657657 Ry
     ewald contribution        =   14480.07397956 Ry
     electric field correction =       0.00113301 Ry

     convergence has been achieved in  51 iterations

     Forces acting on atoms (cartesian axes, Ry/au):

     atom    1 type  1   force =    -0.00000703    0.00891209    0.04220111
     atom    2 type  1   force =     0.00002501   -0.00249115   -0.00298669
     atom    3 type  1   force =    -0.00004110   -0.00630480   -0.00114790
     atom    4 type  1   force =     0.00004686    0.00395047    0.10169360
     atom    5 type  1   force =     0.00002084   -0.00058741    0.00718126
     atom    6 type  1   force =    -0.00001166    0.00086025    0.00284992
     atom    7 type  1   force =     0.07636257    0.00119558   -0.03509956
     atom    8 type  1   force =     0.00753715   -0.02412231    0.00123087
     atom    9 type  1   force =     0.00797139   -0.02075339    0.00173396
     atom   10 type  2   force =    -0.00003449   -0.00384912   -0.16973977
     atom   11 type  2   force =    -0.00011639    0.02224402   -0.00322938
     atom   12 type  2   force =     0.00009866    0.02019987   -0.00570043
     atom   13 type  1   force =    -0.07645593    0.00074247   -0.03504976
     atom   14 type  1   force =    -0.00761730   -0.02399773    0.00122559
     atom   15 type  1   force =    -0.00776125   -0.02078609    0.00181042
     atom   16 type  2   force =     0.00010168    0.00207470    0.07523285
     atom   17 type  2   force =     0.00020608    0.02910973    0.00187042
     atom   18 type  2   force =    -0.00008588    0.02414798    0.00015451
     atom   19 type  1   force =     0.00000386    0.00222160    0.05609240
     atom   20 type  1   force =     0.00000306   -0.00075189   -0.00271025
     atom   21 type  1   force =     0.00004777   -0.00274031    0.10232899
     atom   22 type  1   force =     0.00000970   -0.00165783    0.00633900
     atom   23 type  1   force =    -0.00008710   -0.00390370    0.00178484
     atom   24 type  1   force =     0.07835987   -0.00055978   -0.03677679
     atom   25 type  1   force =     0.00978638   -0.02948341   -0.00097323
     atom   26 type  1   force =     0.01098077   -0.02686073   -0.00653028
     atom   27 type  2   force =    -0.00005892    0.01458679   -0.15613003
     atom   28 type  2   force =    -0.00013427    0.02623628   -0.00048050
     atom   29 type  2   force =    -0.00015893    0.02324865    0.00311685
     atom   30 type  1   force =    -0.07845520   -0.00098817   -0.03672590
     atom   31 type  1   force =    -0.00984650   -0.02934385   -0.00097213
     atom   32 type  1   force =    -0.01096715   -0.02689546   -0.00668969
     atom   33 type  2   force =     0.00010061   -0.00383898    0.07803878
     atom   34 type  2   force =     0.00019211    0.03434888    0.00328397
     atom   35 type  2   force =    -0.00004632    0.03156189    0.00677096
     atom   36 type  1   force =     0.00002039    0.00148363    0.05145264
     atom   37 type  1   force =     0.00002101   -0.00165074   -0.00240932
     atom   38 type  1   force =     0.00005084   -0.00344985    0.00002414
     atom   39 type  1   force =     0.00004896    0.00037061    0.09995524
     atom   40 type  1   force =     0.00001695   -0.00068980    0.00653456
     atom   41 type  1   force =    -0.00000911   -0.00091258    0.00423928
     atom   42 type  1   force =     0.07943808    0.00171988   -0.03466772
     atom   43 type  1   force =     0.00606941   -0.02324916    0.00044324
     atom   44 type  1   force =     0.00713108   -0.02148890    0.00387955
     atom   45 type  2   force =    -0.00005334   -0.01584094   -0.15541562
     atom   46 type  2   force =    -0.00011027    0.01694915    0.00085721
     atom   47 type  2   force =     0.00000937    0.02050183   -0.00089785
     atom   48 type  1   force =    -0.07952976    0.00128062   -0.03461367
     atom   49 type  1   force =    -0.00618166   -0.02313475    0.00043191
     atom   50 type  1   force =    -0.00698721   -0.02152395    0.00387695
     atom   51 type  2   force =     0.00008300   -0.00447269    0.06173457
     atom   52 type  2   force =     0.00020320    0.02906711    0.00061210
     atom   53 type  2   force =    -0.00016561    0.02936398    0.00014283
     atom   54 type  3   force =    -0.00003418    0.00161956   -0.00123688
     atom   55 type  4   force =     0.00008110   -0.00046018    0.00024955
     atom   56 type  4   force =    -0.00005495   -0.00007723   -0.00008179
     atom   57 type  3   force =     0.00019183   -0.00116856    0.00120325
     atom   58 type  4   force =    -0.00015028    0.00184972   -0.00059375
     atom   59 type  4   force =    -0.00005777   -0.00181190    0.00028153

     Total force =     0.439102     Total SCF correction =     0.000509
  @ DRIVER MODE: Message from server: STATUS
  @ DRIVER MODE: Message from server: GETFORCE
  @ DRIVER MODE: Returning v,forces,stress,ensemble

     Writing output data file ./calc.save/
  @ DRIVER MODE: Message from server: EXIT
  @ DRIVE MODE: Exiting

     General routines

     Parallel routines

   This run was terminated on:   1:54:24  19Oct2021

   JOB DONE.