     Program PWSCF v.6.7GPU starts on 23Sep2021 at  5:17:28

     R & G space division:  proc/nbgrp/npool/nimage =       8
     Reading input from /storage/home/hcoda1/3/ntian30/research/carbon/CxH_vib/H2O_calc/ads_slab/CH3NHNHHO_a/out_0018/pw.inp
Warning: card &CELL ignored
Warning: card   CELL_DYNAMICS='IPI', ignored
Warning: card / ignored

     Current dimensions of program PWSCF are:
     Max number of different atomic species (ntypx) = 10
     Max number of k-points (npk) =  40000
     Max angular momentum in pseudopotentials (lmaxx) =  3
     Presently no symmetry can be used with electric field

     Message from routine cell_base_init:
     DEPRECATED: use true lattice parameter, not A to a.u. conversion factor

     IMPORTANT: XC functional enforced from input :
     Exchange-correlation= BEEF-VDW
                           (   1   4  43  14   2   0   0)
     Any further DFT definition will be discarded
     Please, verify this is what you really want

  @ DRIVER MODE: Connecting to
 qe_1139763_2941006.sched-torque.pace.gatech.edua_8ffn61_scratch
  using UNIX socket
  @ DRIVER MODE: Message from server: STATUS
  @ DRIVER MODE: Message from server: INIT
  @ DRIVER MODE: Receiving replica           0          -1
  @ DRIVER MODE: Receiving encoded integer          25
  @ DRIVER MODE:  SCF:  T  FORCE:  T  STRESS:  F  VC:  F  ENSEMBLE:  F
  @ DRIVER MODE:  SCF:  T  FORCE:  T  STRESS:  F  VC:  F  ENSEMBLE:  F

     Using Slab Decomposition

     bravais-lattice index     =            0
     lattice parameter (alat)  =       1.8897  a.u.
     unit-cell volume          =    6658.9804 (a.u.)^3
     number of atoms/cell      =           57
     number of atomic types    =            5
     number of electrons       =       404.00
     number of Kohn-Sham states=          212
     kinetic-energy cutoff     =      29.3995  Ry
     charge density cutoff     =     293.9946  Ry
     scf convergence threshold =      7.3E-08
     mixing beta               =       0.0500
     number of iterations used =            8  plain     mixing
     Exchange-correlation= BEEF-VDW
                           (   1   4  43  14   2   0   0)

     celldm(1)=   1.889726  celldm(2)=   0.000000  celldm(3)=   0.000000
     celldm(4)=   0.000000  celldm(5)=   0.000000  celldm(6)=   0.000000

     crystal axes: (cart. coord. in units of alat)
               a(1) = (   6.579727   0.000000   0.000000 )
               a(2) = (  -0.000775   5.961596   0.000000 )
               a(3) = (   0.000000   0.000000  25.155947 )

     reciprocal axes: (cart. coord. in units 2 pi/alat)
               b(1) = (  0.151982  0.000020  0.000000 )
               b(2) = (  0.000000  0.167740  0.000000 )
               b(3) = (  0.000000  0.000000  0.039752 )

     PseudoPot. # 1 for Ti read from file:
     /storage/coda1/p-amedford6/0/shared/rich_project_chbe-medford/medford-share/data/pseudos_module/espresso/nninc/pbe/van/Ti.UPF
     MD5 check sum: 8e4df49b7f0d34bbd5052bf3f5ea0213
     Pseudo is Ultrasoft, Zval = 12.0
     Generated by new atomic code, or converted to UPF format
     Using radial grid of  851 points,  6 beta functions with:
                l(1) =   0
                l(2) =   0
                l(3) =   1
                l(4) =   1
                l(5) =   2
                l(6) =   2
     Q(r) pseudized with  8 coefficients,  rinner =    1.000   1.000   1.000
                                                       1.000   1.000

     PseudoPot. # 2 for O  read from file:
     /storage/coda1/p-amedford6/0/shared/rich_project_chbe-medford/medford-share/data/pseudos_module/espresso/nninc/pbe/van/O.UPF
     MD5 check sum: 78c19812648e8988a0fe644b0f25305e
     Pseudo is Ultrasoft, Zval =  6.0
     Generated by new atomic code, or converted to UPF format
     Using radial grid of  737 points,  4 beta functions with:
                l(1) =   0
                l(2) =   0
                l(3) =   1
                l(4) =   1
     Q(r) pseudized with  8 coefficients,  rinner =    0.800   0.800   0.800

     PseudoPot. # 3 for N  read from file:
     /storage/coda1/p-amedford6/0/shared/rich_project_chbe-medford/medford-share/data/pseudos_module/espresso/nninc/pbe/van/N.UPF
     MD5 check sum: 90d10febe142ad51ac9d5be1deb811c4
     Pseudo is Ultrasoft, Zval =  5.0
     Generated by new atomic code, or converted to UPF format
     Using radial grid of  729 points,  4 beta functions with:
                l(1) =   0
                l(2) =   0
                l(3) =   1
                l(4) =   1
     Q(r) pseudized with  8 coefficients,  rinner =    0.800   0.800   0.800

     PseudoPot. # 4 for C  read from file:
     /storage/coda1/p-amedford6/0/shared/rich_project_chbe-medford/medford-share/data/pseudos_module/espresso/nninc/pbe/van/C.UPF
     MD5 check sum: 1a69bf6b8db32088f5b2163dbdb77a27
     Pseudo is Ultrasoft, Zval =  4.0
     Generated by new atomic code, or converted to UPF format
     Using radial grid of  721 points,  4 beta functions with:
                l(1) =   0
                l(2) =   0
                l(3) =   1
                l(4) =   1
     Q(r) pseudized with  8 coefficients,  rinner =    0.800   0.800   0.800

     PseudoPot. # 5 for H  read from file:
     /storage/coda1/p-amedford6/0/shared/rich_project_chbe-medford/medford-share/data/pseudos_module/espresso/nninc/pbe/van/H.UPF
     MD5 check sum: b5ee9d7bfd3a09ee7748110bda690ff7
     Pseudo is Ultrasoft, Zval =  1.0
     Generated by new atomic code, or converted to UPF format
     Using radial grid of  615 points,  1 beta functions with:
                l(1) =   0
     Q(r) pseudized with  8 coefficients,  rinner =    0.800

     atomic species   valence    mass     pseudopotential
        Ti1           12.00    47.86700     Ti( 1.00)
        O1             6.00    15.99900     O ( 1.00)
        N1             5.00    14.00700     N ( 1.00)
        C1             4.00    12.01100     C ( 1.00)
        H1             1.00     1.00800     H ( 1.00)

     No symmetry found

   Cartesian axes

     site n.     atom                  positions (alat units)
         1           Ti1 tau(   1) = (   0.0004258   2.9801865   6.0000000  )
         2           Ti1 tau(   2) = (   3.2906075   1.4906267   6.0002472  )
         3           O1  tau(   3) = (   0.0006271   0.0005054   7.9858123  )
         4           O1  tau(   4) = (   3.2906025   0.0005020   7.3038282  )
         5           O1  tau(   5) = (   4.5942328   1.4918067   9.2879030  )
         6           O1  tau(   6) = (   1.9868534   1.4903216   9.2879459  )
         7           Ti1 tau(   7) = (   3.2907910   2.8959150   9.1758416  )
         8           Ti1 tau(   8) = (   0.0015273   1.4827037   9.2680791  )
         9           O1  tau(   9) = (   3.2953096   5.9421394  11.2884464  )
        10           O1  tau(  10) = (   0.0116148   5.9584955  10.6183126  )
        11           O1  tau(  11) = (   1.3041449   1.4755329  12.6321863  )
        12           O1  tau(  12) = (   5.3089623   1.4871430  12.6059879  )
        13           Ti1 tau(  13) = (   6.5683417   3.1096339  12.6902584  )
        14           Ti1 tau(  14) = (   3.3171551   1.3050273  12.6602886  )
        15           O1  tau(  15) = (   6.5441980   0.0188234  14.6400653  )
        16           O1  tau(  16) = (   3.3305379   0.0354930  13.9003223  )
        17           O1  tau(  17) = (   4.5569828   1.5958521  16.0354584  )
        18           O1  tau(  18) = (   2.0254723   1.5302355  15.9749146  )
        19           Ti1 tau(  19) = (   3.2479256   3.0467527  15.6517507  )
        20           Ti1 tau(  20) = (   6.4631478   1.5268535  15.8454044  )
        21           O1  tau(  21) = (   3.2904802   0.0005063   4.7018136  )
        22           O1  tau(  22) = (   6.5640117   0.0389496  17.1838934  )
        23           O1  tau(  23) = (   1.3043587   1.4918075   6.0039043  )
        24           O1  tau(  24) = (   5.2767064   1.4903225   6.0039473  )
        25           Ti1 tau(  25) = (   0.0000382   5.9609847   6.0000000  )
        26           Ti1 tau(  26) = (   3.2902200   4.4714249   6.0002472  )
        27           O1  tau(  27) = (   0.0002396   2.9813036   7.9858123  )
        28           O1  tau(  28) = (   3.2902150   2.9813002   7.3038282  )
        29           O1  tau(  29) = (   4.5938453   4.4726049   9.2879030  )
        30           O1  tau(  30) = (   1.9864658   4.4711199   9.2879459  )
        31           Ti1 tau(  31) = (   3.2891106   5.8743827   9.1763621  )
        32           Ti1 tau(  32) = (   0.0006254   4.4649316   9.2693709  )
        33           O1  tau(  33) = (   3.2909858   3.0116154  11.2527998  )
        34           O1  tau(  34) = (   0.0092240   2.9805883  10.6323155  )
        35           O1  tau(  35) = (   1.2990260   4.4726261  12.6330189  )
        36           O1  tau(  36) = (   5.2946483   4.4606482  12.6134978  )
        37           Ti1 tau(  37) = (   0.0333947   0.1262769  12.6104238  )
        38           Ti1 tau(  38) = (   3.2900473   4.3917186  12.4086616  )
        39           O1  tau(  39) = (   6.5591047   2.9728048  14.6463482  )
        40           O1  tau(  40) = (   3.3071982   2.9909887  13.8663713  )
        41           O1  tau(  41) = (   4.5374868   4.4330245  16.1128471  )
        42           O1  tau(  42) = (   2.0037144   4.4952966  15.9584979  )
        43           Ti1 tau(  43) = (   3.1911318   0.0573200  16.2061952  )
        44           Ti1 tau(  44) = (   6.5299348   4.6473693  16.0672121  )
        45           O1  tau(  45) = (   3.2900926   2.9813045   4.7018136  )
        46           O1  tau(  46) = (   1.3039711   4.4726057   6.0039043  )
        47           O1  tau(  47) = (   5.2763189   4.4711207   6.0039473  )
        48           N1  tau(  48) = (   1.2509970   2.8552009  18.3001485  )
        49           N1  tau(  49) = (   0.1090600   2.9410495  17.4585617  )
        50           C1  tau(  50) = (   1.1117997   3.5424446  19.5807766  )
        51           H1  tau(  51) = (   0.2696121   3.1616043  20.1716506  )
        52           H1  tau(  52) = (   2.0314425   3.4001925  20.1392599  )
        53           H1  tau(  53) = (   0.9679189   4.6079482  19.3970517  )
        54           H1  tau(  54) = (   1.5306055   1.8840965  18.4148701  )
        55           H1  tau(  55) = (   5.8389999   2.9001924  18.0325661  )
        56           O1  tau(  56) = (   3.2424369   0.1001929  18.0579484  )
        57           H1  tau(  57) = (   3.9792659   5.6040190  18.4897823  )

     number of k points=    10  Fermi-Dirac smearing, width (Ry)=  0.0073
                       cart. coord. in units 2pi/alat
        k(    1) = (   0.0000000   0.0000000   0.0000000), wk =   0.1250000
        k(    2) = (   0.0000000   0.0419351   0.0000000), wk =   0.2500000
        k(    3) = (   0.0000000  -0.0838702   0.0000000), wk =   0.1250000
        k(    4) = (   0.0379955   0.0000049   0.0000000), wk =   0.2500000
        k(    5) = (   0.0379955   0.0419400   0.0000000), wk =   0.2500000
        k(    6) = (   0.0379955  -0.0838652   0.0000000), wk =   0.2500000
        k(    7) = (   0.0379955  -0.0419301   0.0000000), wk =   0.2500000
        k(    8) = (  -0.0759910  -0.0000099   0.0000000), wk =   0.1250000
        k(    9) = (  -0.0759910   0.0419252   0.0000000), wk =   0.2500000
        k(   10) = (  -0.0759910  -0.0838800   0.0000000), wk =   0.1250000

     Initial potential from superposition of free atoms

     starting charge  387.99913, renormalised to  404.00000

     negative rho (up, down):  1.467E-02 0.000E+00

     %%%%%%%%%%%%%%%%%%%%%%%%%%%%%%%%%%%%%%%%%%%%%%%%%%%%%%%%%%%%%%%%%%%%%%%%
     %                                                                      %
     % You are using vdW-DF, which was implemented by the Thonhauser group. %
     % Please cite the following two papers that made this development      %
     % possible and the two reviews that describe the various versions:     %
     %                                                                      %
     %   T. Thonhauser et al., PRL 115, 136402 (2015).                      %
     %   T. Thonhauser et al., PRB 76, 125112 (2007).                       %
     %   K. Berland et al., Rep. Prog. Phys. 78, 066501 (2015).             %
     %   D.C. Langreth et al., J. Phys.: Condens. Matter 21, 084203 (2009). %
     %                                                                      %
     %                                                                      %
     % If you are calculating the stress with vdW-DF, please also cite:     %
     %                                                                      %
     %   R. Sabatini et al., J. Phys.: Condens. Matter 24, 424209 (2012).   %
     %                                                                      %
     %%%%%%%%%%%%%%%%%%%%%%%%%%%%%%%%%%%%%%%%%%%%%%%%%%%%%%%%%%%%%%%%%%%%%%%%

     Adding external electric field

     Computed dipole along edir(3) :
        Dipole              -12.7346 Ry au,        -32.3681 Debye
        Dipole field         -0.0240 Ry au,

        Potential amp.        2.2277 Ry
        Total length         46.3494 bohr

     Starting wfcs are  306 atomic wfcs
  @ DRIVER MODE: Message from server: STATUS
  @ DRIVER MODE: Message from server: POSDATA
  @ DRIVER MODE: Reading and sharing cell
  @ DRIVER MODE: Reading and sharing positions
  @ DRIVER MODE: Received positions

     Self-consistent Calculation

     iteration #  1     ecut=    29.40 Ry     beta= 0.05
     Davidson diagonalization with overlap
     c_bands:  4 eigenvalues not converged
     c_bands:  5 eigenvalues not converged
     c_bands:  5 eigenvalues not converged
     c_bands:  5 eigenvalues not converged
     c_bands:  1 eigenvalues not converged
     c_bands:  3 eigenvalues not converged
     c_bands:  4 eigenvalues not converged
     c_bands:  4 eigenvalues not converged
     ethr =  1.00E-05,  avg # of iterations = 24.4

[...]

     total energy              =   -2345.46316450 Ry
     estimated scf accuracy    <    7121.45519397 Ry

     iteration #  2     ecut=    29.40 Ry     beta= 0.05
     Davidson diagonalization with overlap
     ethr =  1.00E-02,  avg # of iterations = 24.2

[...]

     iteration # 51     ecut=    29.40 Ry     beta= 0.05
     Davidson diagonalization with overlap
     c_bands:  1 eigenvalues not converged
     c_bands:  1 eigenvalues not converged
     ethr =  2.18E-07,  avg # of iterations =  7.5

[...]

     total energy              =   -2975.25022805 Ry
     estimated scf accuracy    <       0.00000013 Ry

     iteration # 80     ecut=    29.40 Ry     beta= 0.05
     Davidson diagonalization with overlap
     ethr =  3.30E-11,  avg # of iterations =  5.1

     negative rho (up, down):  1.542E-02 0.000E+00

     Adding external electric field

     Computed dipole along edir(3) :
        Dipole                0.5431 Ry au,          1.3804 Debye
        Dipole field          0.0010 Ry au,

        Potential amp.       -0.0950 Ry
        Total length         46.3494 bohr

     End of self-consistent calculation

          k = 0.0000 0.0000 0.0000 ( 18029 PWs)   bands (ev):

   -56.4236 -56.3899 -55.7678 -55.7330 -55.5362 -55.4752 -55.3639 -55.2081
   -55.2040 -55.1356 -55.1004 -55.0867 -55.0528 -55.0474 -54.9814 -54.8622
   -32.8567 -32.7079 -32.6799 -32.5911 -32.4998 -32.4823 -32.2478 -32.0143
   -31.9873 -31.9644 -31.9115 -31.9060 -31.8764 -31.7644 -31.7523 -31.7434
   -31.7013 -31.6927 -31.6774 -31.6371 -31.6318 -31.6211 -31.5728 -31.5517
   -31.5111 -31.4793 -31.4771 -31.4265 -31.4144 -31.4073 -31.4024 -31.3833
   -31.3634 -31.3630 -31.3262 -31.3080 -31.3026 -31.2970 -31.2788 -31.2344
   -31.2312 -31.2141 -31.2016 -31.1812 -31.1105 -31.1063 -31.1024 -31.0554
   -16.6134 -16.5389 -16.1867 -16.1695 -15.8620 -15.7975 -15.7724 -15.7373
   -15.6757 -15.5524 -15.4347 -15.3890 -15.3814 -15.3331 -15.1736 -15.0764
   -14.9817 -14.9099 -14.9024 -14.8552 -14.8471 -14.8180 -14.8064 -14.7979
   -14.7322 -14.6974 -14.5892 -14.5446 -14.4483 -14.2537 -14.1755 -13.5843
   -13.4744 -11.5136  -8.6740  -5.0172  -4.2240  -4.1641  -3.7787  -3.6894
    -3.5218  -3.4482  -3.2901  -3.2587  -3.1774  -3.0700  -3.0077  -2.9507
    -2.9398  -2.8345  -2.6861  -2.6344  -2.6296  -2.6062  -2.6004  -2.5149
    -2.4412  -2.4075  -2.3412  -2.2702  -2.2396  -2.1546  -2.1481  -2.1213
    -2.1002  -2.0715  -2.0293  -1.9788  -1.9511  -1.9353  -1.8210  -1.7816
    -1.7531  -1.7077  -1.6744  -1.6006  -1.5651  -1.5184  -1.4431  -1.3803
    -1.2567  -1.2319  -1.1645  -1.1503  -1.1208  -1.0058  -0.9582  -0.9244
    -0.8628  -0.8302  -0.7638  -0.7401  -0.7084  -0.6705  -0.6622  -0.6223
    -0.5151  -0.4856  -0.3590  -0.3413  -0.2893  -0.2191  -0.2089  -0.1545
    -0.1328  -0.0970  -0.0511  -0.0158   0.0273   0.0958   0.1341   0.2215
     0.2645   0.3274   0.4234   0.4529   0.4747   0.5372   0.5551   0.5881
     0.6337   0.7274   0.7366   0.7970   0.8729   0.9180   0.9362   0.9969
     1.0567   1.0759   1.1747   1.2024   1.2133   1.2681   1.4766   1.5168
     1.6938   2.4510   2.8409   2.9875   3.2732   3.3047   3.5650   3.8000
     3.8300   3.8320   3.9146   4.0159

[...]

          k = 0.0380-0.0419 0.0000 ( 17876 PWs)   bands (ev):

[...]

          k =-0.0760-0.0000 0.0000 ( 17886 PWs)   bands (ev):

[...]

          k =-0.0760-0.0839 0.0000 ( 17948 PWs)   bands (ev):

   -56.4069 -56.4065 -55.7550 -55.7455 -55.5311 -55.4802 -55.3625 -55.2093
   -55.1993 -55.1400 -55.0982 -55.0702 -55.0691 -55.0459 -54.9836 -54.8636
   -32.6937 -32.6934 -32.6737 -32.6731 -32.5439 -32.5438 -32.0729 -32.0645
   -31.9492 -31.9417 -31.9380 -31.9356 -31.8342 -31.7953 -31.7585 -31.7501
   -31.7057 -31.7006 -31.6618 -31.6127 -31.5804 -31.5612 -31.5366 -31.4967
   -31.4841 -31.4813 -31.4309 -31.4291 -31.4158 -31.4150 -31.4137 -31.3929
   -31.3794 -31.3534 -31.3318 -31.3196 -31.3066 -31.2948 -31.2936 -31.2934
   -31.2563 -31.2553 -31.2382 -31.2317 -31.1882 -31.1727 -31.1116 -31.0869
   -16.5122 -16.1744 -15.9942 -15.9902 -15.9107 -15.9081 -15.6999 -15.6943
   -15.5238 -15.4947 -15.4203 -15.3020 -15.2502 -15.1939 -15.1860 -15.1435
   -15.0892 -15.0699 -15.0273 -15.0102 -14.9474 -14.9038 -14.8552 -14.8094
   -14.7905 -14.7517 -14.6307 -14.5816 -14.5748 -14.3882 -14.3564 -13.5784
   -13.5777 -11.5201  -8.6807  -5.0257  -4.2218  -3.7494  -3.4158  -3.0962
    -3.0781  -3.0326  -3.0235  -2.8079  -2.7873  -2.7622  -2.6887  -2.6761
    -2.6264  -2.6188  -2.5269  -2.4864  -2.4441  -2.4296  -2.4155  -2.3603
    -2.3340  -2.2883  -2.2850  -2.2501  -2.2153  -2.1836  -2.1568  -2.1130
    -2.0903  -2.0777  -2.0387  -2.0107  -1.9802  -1.9315  -1.9091  -1.8821
    -1.8671  -1.8479  -1.6897  -1.6351  -1.5787  -1.5420  -1.5087  -1.4408
    -1.4296  -1.3746  -1.3149  -1.2821  -1.2528  -1.2350  -1.1494  -1.1168
    -1.1002  -1.0652  -1.0230  -0.9625  -0.9042  -0.8564  -0.7786  -0.6848
    -0.6555  -0.6380  -0.6108  -0.6033  -0.5634  -0.5104  -0.4219  -0.3699
    -0.3177  -0.3007  -0.2574  -0.2523  -0.2209  -0.1853  -0.1143   0.0083
     0.0735   0.1098   0.1650   0.2210   0.2771   0.3420   0.3841   0.4658
     0.5448   0.5664   0.6519   0.6854   0.8094   0.8525   0.9678   1.0092
     1.0465   1.0914   1.1607   1.2579   1.2826   1.3276   1.3294   1.3460
     1.3604   2.4766   3.4076   3.4105   3.4610   3.4685   3.7428   3.7511
     3.8847   3.8865   4.0107   4.0234

     the Fermi energy is     2.7222 ev

!    total energy              =   -2975.25023848 Ry
     estimated scf accuracy    <       0.00000006 Ry
     smearing contrib. (-TS)   =      -0.00755392 Ry
     internal energy E=F+TS    =   -2975.24268456 Ry

     The total energy is F=E-TS. E is the sum of the following terms:
     one-electron contribution =  -23771.82895439 Ry
     hartree contribution      =   11981.58487369 Ry
     xc contribution           =    -494.80825103 Ry
     ewald contribution        =    9309.80909057 Ry
     electric field correction =       0.00055659 Ry

     convergence has been achieved in  80 iterations

     Forces acting on atoms (cartesian axes, Ry/au):

     atom    1 type  1   force =     0.00002324   -0.00034485    0.11619568
     atom    2 type  1   force =    -0.00014400    0.00031344   -0.16022446
     atom    3 type  2   force =     0.00004527    0.00032761   -0.05315825
     atom    4 type  2   force =     0.00007096   -0.00041488    0.02652031
     atom    5 type  2   force =    -0.00502126   -0.00225851   -0.01002007
     atom    6 type  2   force =     0.00670465   -0.00183149   -0.01075231
     atom    7 type  1   force =    -0.00038712   -0.00640410    0.04567566
     atom    8 type  1   force =     0.00056909    0.01080094    0.08181641
     atom    9 type  2   force =    -0.00001688    0.00036485   -0.00013085
     atom   10 type  2   force =    -0.00139958    0.00154993   -0.05453128
     atom   11 type  2   force =     0.00074670    0.00028257   -0.00023661
     atom   12 type  2   force =    -0.00116564    0.00020985    0.00018419
     atom   13 type  1   force =    -0.00022467   -0.00091854    0.00034967
     atom   14 type  1   force =     0.00047021    0.00124404   -0.00029406
     atom   15 type  2   force =    -0.00000356   -0.00051538    0.00042821
     atom   16 type  2   force =    -0.00030091    0.00060681    0.00095593
     atom   17 type  2   force =    -0.00072298   -0.00045221    0.00020963
     atom   18 type  2   force =     0.00074431   -0.00022314    0.00021100
     atom   19 type  1   force =    -0.00063280   -0.00055071   -0.00039956
     atom   20 type  1   force =     0.00042616   -0.00039525   -0.00031637
     atom   21 type  2   force =     0.00007510    0.00015281    0.09918376
     atom   22 type  2   force =     0.00028387   -0.00043605    0.00087048
     atom   23 type  2   force =    -0.07949885   -0.00002146   -0.03163535
     atom   24 type  2   force =     0.07941767    0.00040771   -0.03166964
     atom   25 type  1   force =     0.00017980   -0.00036516    0.11646453
     atom   26 type  1   force =    -0.00008738   -0.00142254   -0.16036795
     atom   27 type  2   force =     0.00013479   -0.00011821   -0.05154397
     atom   28 type  2   force =     0.00003106    0.00129411    0.02171310
     atom   29 type  2   force =    -0.00383686    0.00422921   -0.01242038
     atom   30 type  2   force =     0.00542120    0.00484113   -0.01301294
     atom   31 type  1   force =    -0.00015221    0.00313909    0.03065989
     atom   32 type  1   force =     0.00050904   -0.01302169    0.08267859
     atom   33 type  2   force =     0.00017933   -0.00051038    0.00025346
     atom   34 type  2   force =    -0.00049704    0.00168294   -0.06789902
     atom   35 type  2   force =    -0.00044161   -0.00065028   -0.00009869
     atom   36 type  2   force =     0.00006901   -0.00003811   -0.00001793
     atom   37 type  1   force =    -0.00012322   -0.00121178   -0.00020585
     atom   38 type  1   force =     0.00047693   -0.00033591    0.00013277
     atom   39 type  2   force =     0.00015592    0.00034227    0.00000339
     atom   40 type  2   force =    -0.00012914   -0.00023753    0.00022129
     atom   41 type  2   force =     0.00114839   -0.00003065    0.00021104
     atom   42 type  2   force =    -0.00104065   -0.00035411    0.00021806
     atom   43 type  1   force =     0.00005405   -0.00080014   -0.00005200
     atom   44 type  1   force =     0.00045485    0.00063434   -0.00046547
     atom   45 type  2   force =     0.00007451   -0.00003131    0.09900295
     atom   46 type  2   force =    -0.07951186   -0.00001610   -0.03165049
     atom   47 type  2   force =     0.07945018    0.00042895   -0.03167260
     atom   48 type  3   force =    -0.00059919    0.00291483    0.00553360
     atom   49 type  3   force =    -0.00090390    0.00044333    0.00109880
     atom   50 type  4   force =    -0.00195271    0.00234965   -0.01739692
     atom   51 type  5   force =    -0.00427557   -0.00145162    0.00364119
     atom   52 type  5   force =     0.00427675   -0.00118298    0.00430985
     atom   53 type  5   force =     0.00075242   -0.00149573    0.00155107
     atom   54 type  5   force =    -0.00028662   -0.00182931    0.00010089
     atom   55 type  5   force =    -0.00057629    0.00012176    0.00011512
     atom   56 type  2   force =     0.00113440   -0.00023492    0.00015926
     atom   57 type  5   force =    -0.00014735    0.00142284   -0.00049679

     Total force =     0.399590     Total SCF correction =     0.000553
  @ DRIVER MODE: Message from server: STATUS
  @ DRIVER MODE: Message from server: GETFORCE
  @ DRIVER MODE: Returning v,forces,stress,ensemble

     Writing output data file ./calc.save/
  @ DRIVER MODE: Message from server: EXIT
  @ DRIVE MODE: Exiting

     General routines

     Parallel routines

   This run was terminated on:   5:43:38  23Sep2021

   JOB DONE.