     Program PWSCF v.6.7GPU starts on 10Sep2021 at  6:10: 7

     R & G space division:  proc/nbgrp/npool/nimage =      10
     Reading input from /storage/home/hcoda1/3/ntian30/research/carbon/CxH_vib/CH3_calc/ads_slab/CH3N2OH_j/out_0028/pw.inp
Warning: card &CELL ignored
Warning: card   CELL_DYNAMICS='IPI', ignored
Warning: card / ignored

     Current dimensions of program PWSCF are:
     Max number of different atomic species (ntypx) = 10
     Max number of k-points (npk) =  40000
     Max angular momentum in pseudopotentials (lmaxx) =  3
     Presently no symmetry can be used with electric field

     Message from routine cell_base_init:
     DEPRECATED: use true lattice parameter, not A to a.u. conversion factor

     IMPORTANT: XC functional enforced from input :
     Exchange-correlation= BEEF-VDW
                           (   1   4  43  14   2   0   0)
     Any further DFT definition will be discarded
     Please, verify this is what you really want

  @ DRIVER MODE: Connecting to
 qe_1139763_2779713.sched-torque.pace.gatech.edubi4np9t1_scratch
  using UNIX socket
  @ DRIVER MODE: Message from server: STATUS
  @ DRIVER MODE: Message from server: INIT
  @ DRIVER MODE: Receiving replica           0          -1
  @ DRIVER MODE: Receiving encoded integer          25
  @ DRIVER MODE:  SCF:  T  FORCE:  T  STRESS:  F  VC:  F  ENSEMBLE:  F
  @ DRIVER MODE:  SCF:  T  FORCE:  T  STRESS:  F  VC:  F  ENSEMBLE:  F

     Using Slab Decomposition

     bravais-lattice index     =            0
     lattice parameter (alat)  =       1.8897  a.u.
     unit-cell volume          =    6658.9804 (a.u.)^3
     number of atoms/cell      =           55
     number of atomic types    =            5
     number of electrons       =       402.00
     number of Kohn-Sham states=          211
     kinetic-energy cutoff     =      29.3995  Ry
     charge density cutoff     =     293.9946  Ry
     scf convergence threshold =      7.3E-08
     mixing beta               =       0.0500
     number of iterations used =            8  plain     mixing
     Exchange-correlation= BEEF-VDW
                           (   1   4  43  14   2   0   0)

     celldm(1)=   1.889726  celldm(2)=   0.000000  celldm(3)=   0.000000
     celldm(4)=   0.000000  celldm(5)=   0.000000  celldm(6)=   0.000000

     crystal axes: (cart. coord. in units of alat)
               a(1) = (   6.579727   0.000000   0.000000 )
               a(2) = (  -0.000775   5.961596   0.000000 )
               a(3) = (   0.000000   0.000000  25.155947 )

     reciprocal axes: (cart. coord. in units 2 pi/alat)
               b(1) = (  0.151982  0.000020  0.000000 )
               b(2) = (  0.000000  0.167740  0.000000 )
               b(3) = (  0.000000  0.000000  0.039752 )

     PseudoPot. # 1 for Ti read from file:
     /storage/coda1/p-amedford6/0/shared/rich_project_chbe-medford/medford-share/data/pseudos_module/espresso/nninc/pbe/van/Ti.UPF
     MD5 check sum: 8e4df49b7f0d34bbd5052bf3f5ea0213
     Pseudo is Ultrasoft, Zval = 12.0
     Generated by new atomic code, or converted to UPF format
     Using radial grid of  851 points,  6 beta functions with:
                l(1) =   0
                l(2) =   0
                l(3) =   1
                l(4) =   1
                l(5) =   2
                l(6) =   2
     Q(r) pseudized with  8 coefficients,  rinner =    1.000   1.000   1.000
                                                       1.000   1.000

     PseudoPot. # 2 for O  read from file:
     /storage/coda1/p-amedford6/0/shared/rich_project_chbe-medford/medford-share/data/pseudos_module/espresso/nninc/pbe/van/O.UPF
     MD5 check sum: 78c19812648e8988a0fe644b0f25305e
     Pseudo is Ultrasoft, Zval =  6.0
     Generated by new atomic code, or converted to UPF format
     Using radial grid of  737 points,  4 beta functions with:
                l(1) =   0
                l(2) =   0
                l(3) =   1
                l(4) =   1
     Q(r) pseudized with  8 coefficients,  rinner =    0.800   0.800   0.800

     PseudoPot. # 3 for N  read from file:
     /storage/coda1/p-amedford6/0/shared/rich_project_chbe-medford/medford-share/data/pseudos_module/espresso/nninc/pbe/van/N.UPF
     MD5 check sum: 90d10febe142ad51ac9d5be1deb811c4
     Pseudo is Ultrasoft, Zval =  5.0
     Generated by new atomic code, or converted to UPF format
     Using radial grid of  729 points,  4 beta functions with:
                l(1) =   0
                l(2) =   0
                l(3) =   1
                l(4) =   1
     Q(r) pseudized with  8 coefficients,  rinner =    0.800   0.800   0.800

     PseudoPot. # 4 for C  read from file:
     /storage/coda1/p-amedford6/0/shared/rich_project_chbe-medford/medford-share/data/pseudos_module/espresso/nninc/pbe/van/C.UPF
     MD5 check sum: 1a69bf6b8db32088f5b2163dbdb77a27
     Pseudo is Ultrasoft, Zval =  4.0
     Generated by new atomic code, or converted to UPF format
     Using radial grid of  721 points,  4 beta functions with:
                l(1) =   0
                l(2) =   0
                l(3) =   1
                l(4) =   1
     Q(r) pseudized with  8 coefficients,  rinner =    0.800   0.800   0.800

     PseudoPot. # 5 for H  read from file:
     /storage/coda1/p-amedford6/0/shared/rich_project_chbe-medford/medford-share/data/pseudos_module/espresso/nninc/pbe/van/H.UPF
     MD5 check sum: b5ee9d7bfd3a09ee7748110bda690ff7
     Pseudo is Ultrasoft, Zval =  1.0
     Generated by new atomic code, or converted to UPF format
     Using radial grid of  615 points,  1 beta functions with:
                l(1) =   0
     Q(r) pseudized with  8 coefficients,  rinner =    0.800

     atomic species   valence    mass     pseudopotential
        Ti1           12.00    47.86700     Ti( 1.00)
        O1             6.00    15.99900     O ( 1.00)
        N1             5.00    14.00700     N ( 1.00)
        C1             4.00    12.01100     C ( 1.00)
        H1             1.00     1.00800     H ( 1.00)

     No symmetry found

   Cartesian axes

     site n.     atom                  positions (alat units)
         1           Ti1 tau(   1) = (   0.0004258   2.9801865   6.0000000  )
         2           Ti1 tau(   2) = (   3.2906075   1.4906267   6.0002472  )
         3           O1  tau(   3) = (   0.0006271   0.0005054   7.9858123  )
         4           O1  tau(   4) = (   3.2906025   0.0005020   7.3038282  )
         5           O1  tau(   5) = (   4.5942328   1.4918067   9.2879030  )
         6           O1  tau(   6) = (   1.9868534   1.4903216   9.2879459  )
         7           Ti1 tau(   7) = (   3.2907910   2.8959150   9.1758416  )
         8           Ti1 tau(   8) = (   0.0015273   1.4827037   9.2680791  )
         9           O1  tau(   9) = (   3.2817971   0.0424577  11.2706337  )
        10           O1  tau(  10) = (   0.0116148   5.9584955  10.6183126  )
        11           O1  tau(  11) = (   1.2813654   1.4951502  12.6332405  )
        12           O1  tau(  12) = (   5.2815101   1.4921423  12.6269808  )
        13           Ti1 tau(  13) = (   6.5662594   2.8603684  12.6843660  )
        14           Ti1 tau(  14) = (   3.2717346   1.4252475  12.4210995  )
        15           O1  tau(  15) = (   6.5710910   0.0045200  14.6317625  )
        16           O1  tau(  16) = (   3.2759495   0.0084639  13.8932321  )
        17           O1  tau(  17) = (   4.5517014   1.4983445  16.0008815  )
        18           O1  tau(  18) = (   2.0271237   1.5070609  16.0478782  )
        19           Ti1 tau(  19) = (   3.2345769   3.0092735  16.2435900  )
        20           Ti1 tau(  20) = (   6.4941389   1.4975806  15.8145731  )
        21           O1  tau(  21) = (   3.2904802   0.0005063   4.7018136  )
        22           O1  tau(  22) = (   6.5579512   0.0396517  17.1742205  )
        23           O1  tau(  23) = (   1.3043587   1.4918075   6.0039043  )
        24           O1  tau(  24) = (   5.2767064   1.4903225   6.0039473  )
        25           Ti1 tau(  25) = (   0.0000382   5.9609847   6.0000000  )
        26           Ti1 tau(  26) = (   3.2902200   4.4714249   6.0002472  )
        27           O1  tau(  27) = (   0.0002396   2.9813036   7.9858123  )
        28           O1  tau(  28) = (   3.2902150   2.9813002   7.3038282  )
        29           O1  tau(  29) = (   4.5938453   4.4726049   9.2879030  )
        30           O1  tau(  30) = (   1.9864658   4.4711199   9.2879459  )
        31           Ti1 tau(  31) = (   3.2891106   5.8743827   9.1763621  )
        32           Ti1 tau(  32) = (   0.0006254   4.4649316   9.2693709  )
        33           O1  tau(  33) = (   3.2800217   2.9666125  11.2981572  )
        34           O1  tau(  34) = (   0.0092240   2.9805883  10.6323155  )
        35           O1  tau(  35) = (   1.2755083   4.4823741  12.6262202  )
        36           O1  tau(  36) = (   5.2848398   4.4807727  12.6177486  )
        37           Ti1 tau(  37) = (   6.5672004   5.8338186  12.5551636  )
        38           Ti1 tau(  38) = (   3.2732152   4.2974050  12.6602233  )
        39           O1  tau(  39) = (   6.5693882   2.9786051  14.6782399  )
        40           O1  tau(  40) = (   3.2805734   3.0393479  13.9038923  )
        41           O1  tau(  41) = (   4.5335661   4.5240572  16.0872286  )
        42           O1  tau(  42) = (   2.0073973   4.5295938  16.0607137  )
        43           Ti1 tau(  43) = (   3.2598295   0.0330142  15.6732764  )
        44           Ti1 tau(  44) = (   6.5464637   4.6748829  16.0422594  )
        45           O1  tau(  45) = (   3.2900926   2.9813045   4.7018136  )
        46           O1  tau(  46) = (   1.3039711   4.4726057   6.0039043  )
        47           O1  tau(  47) = (   5.2763189   4.4711207   6.0039473  )
        48           N1  tau(  48) = (   0.1126456   2.6876119  18.6539570  )
        49           N1  tau(  49) = (   0.0165868   2.9082207  17.4746156  )
        50           C1  tau(  50) = (   0.2746321   3.7930379  19.6319179  )
        51           H1  tau(  51) = (   0.1055085   4.7742840  19.1878107  )
        52           H1  tau(  52) = (   6.1760284   3.5971646  20.4591619  )
        53           H1  tau(  53) = (   1.2982147   3.7051261  19.9977701  )
        54           O1  tau(  54) = (   3.2987527   2.9937385  18.0942264  )
        55           H1  tau(  55) = (   3.7476408   3.7324850  18.5320624  )

     number of k points=    10  Fermi-Dirac smearing, width (Ry)=  0.0073
                       cart. coord. in units 2pi/alat
        k(    1) = (   0.0000000   0.0000000   0.0000000), wk =   0.1250000
        k(    2) = (   0.0000000   0.0419351   0.0000000), wk =   0.2500000
        k(    3) = (   0.0000000  -0.0838702   0.0000000), wk =   0.1250000
        k(    4) = (   0.0379955   0.0000049   0.0000000), wk =   0.2500000
        k(    5) = (   0.0379955   0.0419400   0.0000000), wk =   0.2500000
        k(    6) = (   0.0379955  -0.0838652   0.0000000), wk =   0.2500000
        k(    7) = (   0.0379955  -0.0419301   0.0000000), wk =   0.2500000
        k(    8) = (  -0.0759910  -0.0000099   0.0000000), wk =   0.1250000
        k(    9) = (  -0.0759910   0.0419252   0.0000000), wk =   0.2500000
        k(   10) = (  -0.0759910  -0.0838800   0.0000000), wk =   0.1250000

     Initial potential from superposition of free atoms

     starting charge  385.99915, renormalised to  402.00000

     negative rho (up, down):  1.467E-02 0.000E+00

     %%%%%%%%%%%%%%%%%%%%%%%%%%%%%%%%%%%%%%%%%%%%%%%%%%%%%%%%%%%%%%%%%%%%%%%%
     %                                                                      %
     % You are using vdW-DF, which was implemented by the Thonhauser group. %
     % Please cite the following two papers that made this development      %
     % possible and the two reviews that describe the various versions:     %
     %                                                                      %
     %   T. Thonhauser et al., PRL 115, 136402 (2015).                      %
     %   T. Thonhauser et al., PRB 76, 125112 (2007).                       %
     %   K. Berland et al., Rep. Prog. Phys. 78, 066501 (2015).             %
     %   D.C. Langreth et al., J. Phys.: Condens. Matter 21, 084203 (2009). %
     %                                                                      %
     %                                                                      %
     % If you are calculating the stress with vdW-DF, please also cite:     %
     %                                                                      %
     %   R. Sabatini et al., J. Phys.: Condens. Matter 24, 424209 (2012).   %
     %                                                                      %
     %%%%%%%%%%%%%%%%%%%%%%%%%%%%%%%%%%%%%%%%%%%%%%%%%%%%%%%%%%%%%%%%%%%%%%%%

     Adding external electric field

     Computed dipole along edir(3) :
        Dipole              -11.9798 Ry au,        -30.4497 Debye
        Dipole field         -0.0226 Ry au,

        Potential amp.        2.0957 Ry
        Total length         46.3494 bohr

     Starting wfcs are  304 atomic wfcs
  @ DRIVER MODE: Message from server: STATUS
  @ DRIVER MODE: Message from server: POSDATA
  @ DRIVER MODE: Reading and sharing cell
  @ DRIVER MODE: Reading and sharing positions
  @ DRIVER MODE: Received positions

     Self-consistent Calculation

     iteration #  1     ecut=    29.40 Ry     beta= 0.05
     Davidson diagonalization with overlap
     c_bands:  4 eigenvalues not converged
     c_bands:  3 eigenvalues not converged
     c_bands:  5 eigenvalues not converged
     c_bands:  5 eigenvalues not converged
     c_bands:  3 eigenvalues not converged
     c_bands:  4 eigenvalues not converged
     c_bands:  2 eigenvalues not converged
     c_bands:  1 eigenvalues not converged
     ethr =  1.00E-05,  avg # of iterations = 25.4

[...]

     total energy              =   -2401.01752915 Ry
     estimated scf accuracy    <    6440.98603950 Ry

     iteration #  2     ecut=    29.40 Ry     beta= 0.05
     Davidson diagonalization with overlap
     ethr =  1.00E-02,  avg # of iterations = 22.6

[...]

     iteration # 37     ecut=    29.40 Ry     beta= 0.05
     Davidson diagonalization with overlap
     c_bands:  2 eigenvalues not converged
     ethr =  1.37E-06,  avg # of iterations =  6.3

[...]

     total energy              =   -2972.74456512 Ry
     estimated scf accuracy    <       0.00000012 Ry

     iteration # 65     ecut=    29.40 Ry     beta= 0.05
     Davidson diagonalization with overlap
     ethr =  3.01E-11,  avg # of iterations =  6.1

     negative rho (up, down):  1.549E-02 0.000E+00

     Adding external electric field

     Computed dipole along edir(3) :
        Dipole                0.6102 Ry au,          1.5509 Debye
        Dipole field          0.0012 Ry au,

        Potential amp.       -0.1067 Ry
        Total length         46.3494 bohr

     End of self-consistent calculation

          k = 0.0000 0.0000 0.0000 ( 18029 PWs)   bands (ev):

   -56.2385 -56.2047 -55.8238 -55.7902 -55.5912 -55.5317 -55.4804 -55.4052
   -55.3812 -55.3261 -55.2360 -55.1638 -55.0836 -55.0112 -54.9899 -54.9773
   -32.6889 -32.5309 -32.5040 -32.3970 -32.3130 -32.3044 -32.3029 -32.0713
   -32.0427 -32.0237 -31.9715 -31.9650 -31.9310 -31.8975 -31.8691 -31.8174
   -31.8080 -31.7924 -31.7545 -31.7349 -31.7276 -31.7069 -31.6940 -31.6924
   -31.6906 -31.6505 -31.6031 -31.5740 -31.5547 -31.5363 -31.5351 -31.4975
   -31.4878 -31.4277 -31.4179 -31.4080 -31.3680 -31.3442 -31.3393 -31.3206
   -31.3151 -31.2916 -31.2389 -31.2267 -31.2266 -31.2118 -31.1421 -31.0302
   -18.8599 -16.5326 -16.3531 -16.1976 -15.9865 -15.8184 -15.7263 -15.7182
   -15.6701 -15.5491 -15.5219 -15.4272 -15.3359 -15.2622 -15.2619 -15.2374
   -15.1409 -15.0844 -15.0582 -15.0178 -14.9978 -14.9909 -14.9779 -14.8796
   -14.8630 -14.8577 -14.7151 -14.6933 -14.6078 -14.3595 -14.2625 -13.5091
   -13.3969 -11.5259  -6.9448  -4.4202  -4.1677  -4.0419  -4.0087  -3.8340
    -3.7485  -3.5308  -3.4317  -3.3551  -3.2326  -3.1471  -2.9572  -2.9460
    -2.8920  -2.8225  -2.7479  -2.6888  -2.6368  -2.6260  -2.5528  -2.5144
    -2.4734  -2.4657  -2.4037  -2.3877  -2.3011  -2.2900  -2.2166  -2.1822
    -2.1513  -2.1209  -2.1020  -2.0415  -2.0337  -2.0046  -1.9720  -1.9197
    -1.8557  -1.8118  -1.7242  -1.6713  -1.6554  -1.5637  -1.5437  -1.5332
    -1.5173  -1.3213  -1.2475  -1.2258  -1.2149  -1.0670  -1.0244  -0.9995
    -0.9196  -0.8956  -0.8487  -0.8087  -0.7608  -0.7040  -0.6729  -0.6671
    -0.6424  -0.5910  -0.4035  -0.3705  -0.3215  -0.2919  -0.2543  -0.1979
    -0.1674  -0.1363  -0.0538  -0.0486  -0.0396  -0.0021   0.0477   0.1287
     0.1885   0.2090   0.3015   0.3077   0.3496   0.3842   0.4405   0.4678
     0.5518   0.5956   0.6110   0.6657   0.6859   0.8743   0.9113   0.9480
     0.9854   1.0131   1.0588   1.1737   1.2420   1.5437   1.5612   1.6007
     2.7528   2.9877   3.1166   3.2725   3.4200   3.5146   3.8252   3.8534
     3.8887   3.9473   3.9750

[...]

          k = 0.0380-0.0419 0.0000 ( 17876 PWs)   bands (ev):

[...]

          k =-0.0760-0.0000 0.0000 ( 17886 PWs)   bands (ev):

[...]

          k =-0.0760-0.0839 0.0000 ( 17948 PWs)   bands (ev):

   -56.2221 -56.2210 -55.8081 -55.8056 -55.5859 -55.5369 -55.4776 -55.4078
   -55.3752 -55.3319 -55.2342 -55.1622 -55.0853 -54.9945 -54.9938 -54.9914
   -32.5170 -32.5158 -32.5052 -32.5045 -32.3494 -32.3483 -32.1276 -32.1237
   -32.0024 -32.0003 -31.9969 -31.9953 -31.8915 -31.8528 -31.8162 -31.8093
   -31.8041 -31.7645 -31.7528 -31.7474 -31.7211 -31.7064 -31.6988 -31.6674
   -31.6617 -31.6258 -31.6211 -31.6019 -31.5946 -31.5646 -31.5585 -31.5448
   -31.4883 -31.4339 -31.4315 -31.4215 -31.3657 -31.3440 -31.3338 -31.3333
   -31.2960 -31.2956 -31.2454 -31.2284 -31.2232 -31.2222 -31.1848 -31.1841
   -18.8562 -16.3404 -15.9425 -15.9301 -15.8068 -15.8002 -15.6280 -15.6115
   -15.5906 -15.5336 -15.5122 -15.4647 -15.3246 -15.3152 -15.2551 -15.2223
   -15.1972 -15.1808 -15.1518 -15.1514 -15.1322 -15.0585 -15.0310 -15.0038
   -14.9549 -14.9508 -14.7851 -14.7193 -14.7054 -14.4915 -14.4591 -13.5000
   -13.4998 -11.5239  -6.9586  -4.3677  -4.0386  -3.9914  -3.9361  -3.1109
    -3.0562  -2.9459  -2.9191  -2.8451  -2.8228  -2.7152  -2.6915  -2.6504
    -2.6370  -2.6334  -2.5781  -2.5558  -2.5336  -2.4895  -2.4775  -2.4647
    -2.4399  -2.3921  -2.3819  -2.3631  -2.3474  -2.3312  -2.2372  -2.2331
    -2.2141  -2.1694  -2.1659  -2.1535  -2.0758  -2.0060  -1.9634  -1.9571
    -1.9250  -1.8685  -1.7908  -1.6800  -1.6586  -1.6067  -1.5780  -1.5020
    -1.4730  -1.4280  -1.3337  -1.3263  -1.2990  -1.2812  -1.2205  -1.2060
    -1.0633  -1.0300  -1.0246  -1.0176  -1.0149  -0.9177  -0.8565  -0.7970
    -0.7447  -0.6623  -0.6485  -0.6275  -0.6087  -0.5993  -0.5801  -0.5561
    -0.4944  -0.4530  -0.4026  -0.3855  -0.2816  -0.2023  -0.1681  -0.1016
    -0.0241   0.0650   0.1436   0.1570   0.1946   0.2491   0.3377   0.3794
     0.4219   0.4905   0.5326   0.6056   0.6672   0.7522   0.7761   0.8648
     0.9762   0.9929   1.0432   1.1307   1.4035   1.4102   1.4168   1.4177
     2.7585   3.5355   3.5394   3.5692   3.5775   3.7772   3.7892   3.9153
     3.9723   4.0186   4.0319

     the Fermi energy is     2.9245 ev

!    total energy              =   -2972.74460166 Ry
     estimated scf accuracy    <       0.00000006 Ry
     smearing contrib. (-TS)   =      -0.01283924 Ry
     internal energy E=F+TS    =   -2972.73176241 Ry

     The total energy is F=E-TS. E is the sum of the following terms:
     one-electron contribution =  -23700.67038242 Ry
     hartree contribution      =   11943.62327056 Ry
     xc contribution           =    -493.12570940 Ry
     ewald contribution        =    9277.44035627 Ry
     electric field correction =       0.00070256 Ry

     convergence has been achieved in  65 iterations

     Forces acting on atoms (cartesian axes, Ry/au):

     atom    1 type  1   force =     0.00008954   -0.00038180    0.10705559
     atom    2 type  1   force =    -0.00004657   -0.00169669   -0.16535357
     atom    3 type  2   force =     0.00003428   -0.00025804   -0.03868282
     atom    4 type  2   force =     0.00004420    0.00076299    0.03117394
     atom    5 type  2   force =    -0.00356087    0.00294885   -0.00840690
     atom    6 type  2   force =     0.00469964    0.00361652   -0.01017635
     atom    7 type  1   force =    -0.00073275    0.00049214    0.02121526
     atom    8 type  1   force =     0.00101302    0.01539679    0.06093579
     atom    9 type  2   force =     0.00011275   -0.00014358    0.00009931
     atom   10 type  2   force =    -0.00289478    0.00226759   -0.04713264
     atom   11 type  2   force =    -0.00004723   -0.00020902   -0.00002151
     atom   12 type  2   force =     0.00001065   -0.00003149    0.00020028
     atom   13 type  1   force =     0.00028068   -0.00013927    0.00011037
     atom   14 type  1   force =     0.00040312   -0.00014594    0.00024382
     atom   15 type  2   force =     0.00015736    0.00014818   -0.00029795
     atom   16 type  2   force =     0.00014488   -0.00015912    0.00004089
     atom   17 type  2   force =     0.00016949    0.00017488    0.00025963
     atom   18 type  2   force =     0.00014451    0.00027251    0.00007046
     atom   19 type  1   force =     0.00004201   -0.00013844   -0.00017461
     atom   20 type  1   force =    -0.00032013    0.00013491    0.00003060
     atom   21 type  2   force =     0.00010218    0.00000190    0.10026912
     atom   22 type  2   force =     0.00002360    0.00005626   -0.00027946
     atom   23 type  2   force =    -0.07669100   -0.00004476   -0.03004929
     atom   24 type  2   force =     0.07667728    0.00038590   -0.03007553
     atom   25 type  1   force =     0.00005097   -0.00043412    0.10700295
     atom   26 type  1   force =    -0.00010160    0.00063045   -0.16565654
     atom   27 type  2   force =     0.00012117   -0.00027253   -0.03749421
     atom   28 type  2   force =     0.00004477   -0.00043925    0.03535068
     atom   29 type  2   force =    -0.00569955   -0.00043712   -0.00599342
     atom   30 type  2   force =     0.00686307    0.00006149   -0.00768188
     atom   31 type  1   force =    -0.00057339   -0.00239038    0.03459232
     atom   32 type  1   force =     0.00111157   -0.01878164    0.06145861
     atom   33 type  2   force =     0.00022528   -0.00012499    0.00006264
     atom   34 type  2   force =    -0.00253804    0.00012731   -0.05385013
     atom   35 type  2   force =     0.00021875   -0.00024757   -0.00011300
     atom   36 type  2   force =     0.00018012   -0.00002325    0.00028538
     atom   37 type  1   force =     0.00035099   -0.00019150   -0.00011907
     atom   38 type  1   force =     0.00046942   -0.00022778    0.00029638
     atom   39 type  2   force =     0.00016101   -0.00045001    0.00025785
     atom   40 type  2   force =    -0.00019112   -0.00005746   -0.00011420
     atom   41 type  2   force =     0.00009265   -0.00039329    0.00010485
     atom   42 type  2   force =     0.00023477   -0.00042730    0.00011710
     atom   43 type  1   force =    -0.00024916    0.00003788   -0.00024816
     atom   44 type  1   force =    -0.00006381   -0.00023361    0.00028477
     atom   45 type  2   force =     0.00009441    0.00010812    0.10046825
     atom   46 type  2   force =    -0.07667009   -0.00006006   -0.03006274
     atom   47 type  2   force =     0.07666090    0.00036132   -0.03009062
     atom   48 type  3   force =    -0.00038905   -0.00040753    0.00124322
     atom   49 type  3   force =     0.00020757    0.00017245   -0.00090971
     atom   50 type  4   force =     0.00056280    0.00372400   -0.00197042
     atom   51 type  5   force =     0.00099487   -0.00095292    0.00002229
     atom   52 type  5   force =    -0.00116639   -0.00215903    0.00085341
     atom   53 type  5   force =    -0.00045527   -0.00012033    0.00067317
     atom   54 type  2   force =     0.00043455    0.00123460    0.00067424
     atom   55 type  5   force =    -0.00083802   -0.00093723   -0.00049845

     Total force =     0.381344     Total SCF correction =     0.000844
  @ DRIVER MODE: Message from server: STATUS
  @ DRIVER MODE: Message from server: GETFORCE
  @ DRIVER MODE: Returning v,forces,stress,ensemble

     Writing output data file ./calc.save/
  @ DRIVER MODE: Message from server: EXIT
  @ DRIVE MODE: Exiting

     General routines

     Parallel routines

   This run was terminated on:   6:28:47  10Sep2021

   JOB DONE.