     Program PWSCF v.6.7GPU starts on 24Sep2021 at  7:24: 5

     R & G space division:  proc/nbgrp/npool/nimage =       8
     Reading input from /storage/home/hcoda1/3/ntian30/research/carbon/CxH_vib/H2O_calc/ads_slab/CH2NHNH2HO_a/out_0046/pw.inp
Warning: card &CELL ignored
Warning: card   CELL_DYNAMICS='IPI', ignored
Warning: card / ignored

     Current dimensions of program PWSCF are:
     Max number of different atomic species (ntypx) = 10
     Max number of k-points (npk) =  40000
     Max angular momentum in pseudopotentials (lmaxx) =  3
     Presently no symmetry can be used with electric field

     Message from routine cell_base_init:
     DEPRECATED: use true lattice parameter, not A to a.u. conversion factor

     IMPORTANT: XC functional enforced from input :
     Exchange-correlation= BEEF-VDW
                           (   1   4  43  14   2   0   0)
     Any further DFT definition will be discarded
     Please, verify this is what you really want

  @ DRIVER MODE: Connecting to
 qe_1139763_2947313.sched-torque.pace.gatech.educ4zcsf37_scratch
  using UNIX socket
  @ DRIVER MODE: Message from server: STATUS
  @ DRIVER MODE: Message from server: INIT
  @ DRIVER MODE: Receiving replica           0          -1
  @ DRIVER MODE: Receiving encoded integer          25
  @ DRIVER MODE:  SCF:  T  FORCE:  T  STRESS:  F  VC:  F  ENSEMBLE:  F
  @ DRIVER MODE:  SCF:  T  FORCE:  T  STRESS:  F  VC:  F  ENSEMBLE:  F

     Using Slab Decomposition

     bravais-lattice index     =            0
     lattice parameter (alat)  =       1.8897  a.u.
     unit-cell volume          =    6658.9804 (a.u.)^3
     number of atoms/cell      =           57
     number of atomic types    =            5
     number of electrons       =       404.00
     number of Kohn-Sham states=          212
     kinetic-energy cutoff     =      29.3995  Ry
     charge density cutoff     =     293.9946  Ry
     scf convergence threshold =      7.3E-08
     mixing beta               =       0.0500
     number of iterations used =            8  plain     mixing
     Exchange-correlation= BEEF-VDW
                           (   1   4  43  14   2   0   0)

     celldm(1)=   1.889726  celldm(2)=   0.000000  celldm(3)=   0.000000
     celldm(4)=   0.000000  celldm(5)=   0.000000  celldm(6)=   0.000000

     crystal axes: (cart. coord. in units of alat)
               a(1) = (   6.579727   0.000000   0.000000 )
               a(2) = (  -0.000775   5.961596   0.000000 )
               a(3) = (   0.000000   0.000000  25.155947 )

     reciprocal axes: (cart. coord. in units 2 pi/alat)
               b(1) = (  0.151982  0.000020  0.000000 )
               b(2) = (  0.000000  0.167740  0.000000 )
               b(3) = (  0.000000  0.000000  0.039752 )

     PseudoPot. # 1 for Ti read from file:
     /storage/coda1/p-amedford6/0/shared/rich_project_chbe-medford/medford-share/data/pseudos_module/espresso/nninc/pbe/van/Ti.UPF
     MD5 check sum: 8e4df49b7f0d34bbd5052bf3f5ea0213
     Pseudo is Ultrasoft, Zval = 12.0
     Generated by new atomic code, or converted to UPF format
     Using radial grid of  851 points,  6 beta functions with:
                l(1) =   0
                l(2) =   0
                l(3) =   1
                l(4) =   1
                l(5) =   2
                l(6) =   2
     Q(r) pseudized with  8 coefficients,  rinner =    1.000   1.000   1.000
                                                       1.000   1.000

     PseudoPot. # 2 for O  read from file:
     /storage/coda1/p-amedford6/0/shared/rich_project_chbe-medford/medford-share/data/pseudos_module/espresso/nninc/pbe/van/O.UPF
     MD5 check sum: 78c19812648e8988a0fe644b0f25305e
     Pseudo is Ultrasoft, Zval =  6.0
     Generated by new atomic code, or converted to UPF format
     Using radial grid of  737 points,  4 beta functions with:
                l(1) =   0
                l(2) =   0
                l(3) =   1
                l(4) =   1
     Q(r) pseudized with  8 coefficients,  rinner =    0.800   0.800   0.800

     PseudoPot. # 3 for N  read from file:
     /storage/coda1/p-amedford6/0/shared/rich_project_chbe-medford/medford-share/data/pseudos_module/espresso/nninc/pbe/van/N.UPF
     MD5 check sum: 90d10febe142ad51ac9d5be1deb811c4
     Pseudo is Ultrasoft, Zval =  5.0
     Generated by new atomic code, or converted to UPF format
     Using radial grid of  729 points,  4 beta functions with:
                l(1) =   0
                l(2) =   0
                l(3) =   1
                l(4) =   1
     Q(r) pseudized with  8 coefficients,  rinner =    0.800   0.800   0.800

     PseudoPot. # 4 for C  read from file:
     /storage/coda1/p-amedford6/0/shared/rich_project_chbe-medford/medford-share/data/pseudos_module/espresso/nninc/pbe/van/C.UPF
     MD5 check sum: 1a69bf6b8db32088f5b2163dbdb77a27
     Pseudo is Ultrasoft, Zval =  4.0
     Generated by new atomic code, or converted to UPF format
     Using radial grid of  721 points,  4 beta functions with:
                l(1) =   0
                l(2) =   0
                l(3) =   1
                l(4) =   1
     Q(r) pseudized with  8 coefficients,  rinner =    0.800   0.800   0.800

     PseudoPot. # 5 for H  read from file:
     /storage/coda1/p-amedford6/0/shared/rich_project_chbe-medford/medford-share/data/pseudos_module/espresso/nninc/pbe/van/H.UPF
     MD5 check sum: b5ee9d7bfd3a09ee7748110bda690ff7
     Pseudo is Ultrasoft, Zval =  1.0
     Generated by new atomic code, or converted to UPF format
     Using radial grid of  615 points,  1 beta functions with:
                l(1) =   0
     Q(r) pseudized with  8 coefficients,  rinner =    0.800

     atomic species   valence    mass     pseudopotential
        Ti1           12.00    47.86700     Ti( 1.00)
        O1             6.00    15.99900     O ( 1.00)
        N1             5.00    14.00700     N ( 1.00)
        C1             4.00    12.01100     C ( 1.00)
        H1             1.00     1.00800     H ( 1.00)

     No symmetry found

   Cartesian axes

     site n.     atom                  positions (alat units)
         1           Ti1 tau(   1) = (   0.0004258   2.9801865   6.0000000  )
         2           Ti1 tau(   2) = (   3.2906075   1.4906267   6.0002472  )
         3           O1  tau(   3) = (   0.0006271   0.0005054   7.9858123  )
         4           O1  tau(   4) = (   3.2906025   0.0005020   7.3038282  )
         5           O1  tau(   5) = (   4.5942328   1.4918067   9.2879030  )
         6           O1  tau(   6) = (   1.9868534   1.4903216   9.2879459  )
         7           Ti1 tau(   7) = (   3.2907910   2.8959150   9.1758416  )
         8           Ti1 tau(   8) = (   0.0015273   1.4827037   9.2680791  )
         9           O1  tau(   9) = (   3.2769995   5.9424463  11.3879711  )
        10           O1  tau(  10) = (   0.0116148   5.9584955  10.6183126  )
        11           O1  tau(  11) = (   1.2559300   1.4809235  12.6914295  )
        12           O1  tau(  12) = (   5.2914439   1.4888754  12.6824943  )
        13           Ti1 tau(  13) = (   6.5693074   2.9549812  12.5071532  )
        14           Ti1 tau(  14) = (   3.2720578   1.2926143  12.7373905  )
        15           O1  tau(  15) = (   6.5263330   5.9075480  14.6758232  )
        16           O1  tau(  16) = (   3.2750150   0.0724425  14.0538047  )
        17           O1  tau(  17) = (   4.5404297   1.6145126  16.1214498  )
        18           O1  tau(  18) = (   1.9612862   1.5681812  16.1371236  )
        19           Ti1 tau(  19) = (   3.2615978   3.0295928  15.7214328  )
        20           Ti1 tau(  20) = (   6.4910920   1.3289874  15.8500745  )
        21           O1  tau(  21) = (   3.2904802   0.0005063   4.7018136  )
        22           O1  tau(  22) = (   6.5149858   0.1606772  17.2625446  )
        23           O1  tau(  23) = (   1.3043587   1.4918075   6.0039043  )
        24           O1  tau(  24) = (   5.2767064   1.4903225   6.0039473  )
        25           Ti1 tau(  25) = (   0.0000382   5.9609847   6.0000000  )
        26           Ti1 tau(  26) = (   3.2902200   4.4714249   6.0002472  )
        27           O1  tau(  27) = (   0.0002396   2.9813036   7.9858123  )
        28           O1  tau(  28) = (   3.2902150   2.9813002   7.3038282  )
        29           O1  tau(  29) = (   4.5938453   4.4726049   9.2879030  )
        30           O1  tau(  30) = (   1.9864658   4.4711199   9.2879459  )
        31           Ti1 tau(  31) = (   3.2891106   5.8743827   9.1763621  )
        32           Ti1 tau(  32) = (   0.0006254   4.4649316   9.2693709  )
        33           O1  tau(  33) = (   3.2749377   2.9871965  11.3337082  )
        34           O1  tau(  34) = (   0.0092240   2.9805883  10.6323155  )
        35           O1  tau(  35) = (   1.2597673   4.4587344  12.6634223  )
        36           O1  tau(  36) = (   5.2866262   4.4511231  12.6493885  )
        37           Ti1 tau(  37) = (   6.5604603   5.9292220  12.4937940  )
        38           Ti1 tau(  38) = (   3.2724722   4.3622713  12.4512132  )
        39           O1  tau(  39) = (   6.5737517   3.0258615  14.9025115  )
        40           O1  tau(  40) = (   3.2593133   3.0063273  13.9441864  )
        41           O1  tau(  41) = (   4.5441350   4.4310557  16.1689449  )
        42           O1  tau(  42) = (   1.9655774   4.4762250  16.2070539  )
        43           Ti1 tau(  43) = (   3.1776431   0.0563557  16.2565842  )
        44           Ti1 tau(  44) = (   6.5216753   4.5226504  15.9439936  )
        45           O1  tau(  45) = (   3.2900926   2.9813045   4.7018136  )
        46           O1  tau(  46) = (   1.3039711   4.4726057   6.0039043  )
        47           O1  tau(  47) = (   5.2763189   4.4711207   6.0039473  )
        48           N1  tau(  48) = (   0.8157702   2.5297039  18.7633901  )
        49           N1  tau(  49) = (   6.4302604   3.3580032  18.1334362  )
        50           C1  tau(  50) = (   1.9549655   3.0231469  19.2293773  )
        51           H1  tau(  51) = (   2.0901252   4.0892486  19.3254668  )
        52           H1  tau(  52) = (   2.7239663   2.3052050  19.4587972  )
        53           H1  tau(  53) = (   0.7490178   1.5515861  18.4517582  )
        54           H1  tau(  54) = (   6.4535031   4.2829477  18.5696568  )
        55           H1  tau(  55) = (   5.5068980   2.9616776  18.2836589  )
        56           O1  tau(  56) = (   3.3967406   0.0908776  18.1493316  )
        57           H1  tau(  57) = (   4.3453859   0.1513423  18.3540861  )

     number of k points=    10  Fermi-Dirac smearing, width (Ry)=  0.0073
                       cart. coord. in units 2pi/alat
        k(    1) = (   0.0000000   0.0000000   0.0000000), wk =   0.1250000
        k(    2) = (   0.0000000   0.0419351   0.0000000), wk =   0.2500000
        k(    3) = (   0.0000000  -0.0838702   0.0000000), wk =   0.1250000
        k(    4) = (   0.0379955   0.0000049   0.0000000), wk =   0.2500000
        k(    5) = (   0.0379955   0.0419400   0.0000000), wk =   0.2500000
        k(    6) = (   0.0379955  -0.0838652   0.0000000), wk =   0.2500000
        k(    7) = (   0.0379955  -0.0419301   0.0000000), wk =   0.2500000
        k(    8) = (  -0.0759910  -0.0000099   0.0000000), wk =   0.1250000
        k(    9) = (  -0.0759910   0.0419252   0.0000000), wk =   0.2500000
        k(   10) = (  -0.0759910  -0.0838800   0.0000000), wk =   0.1250000

     Initial potential from superposition of free atoms

     starting charge  387.99913, renormalised to  404.00000

     negative rho (up, down):  1.608E-02 0.000E+00

     %%%%%%%%%%%%%%%%%%%%%%%%%%%%%%%%%%%%%%%%%%%%%%%%%%%%%%%%%%%%%%%%%%%%%%%%
     %                                                                      %
     % You are using vdW-DF, which was implemented by the Thonhauser group. %
     % Please cite the following two papers that made this development      %
     % possible and the two reviews that describe the various versions:     %
     %                                                                      %
     %   T. Thonhauser et al., PRL 115, 136402 (2015).                      %
     %   T. Thonhauser et al., PRB 76, 125112 (2007).                       %
     %   K. Berland et al., Rep. Prog. Phys. 78, 066501 (2015).             %
     %   D.C. Langreth et al., J. Phys.: Condens. Matter 21, 084203 (2009). %
     %                                                                      %
     %                                                                      %
     % If you are calculating the stress with vdW-DF, please also cite:     %
     %                                                                      %
     %   R. Sabatini et al., J. Phys.: Condens. Matter 24, 424209 (2012).   %
     %                                                                      %
     %%%%%%%%%%%%%%%%%%%%%%%%%%%%%%%%%%%%%%%%%%%%%%%%%%%%%%%%%%%%%%%%%%%%%%%%

     Adding external electric field

     Computed dipole along edir(3) :
        Dipole              -13.8429 Ry au,        -35.1851 Debye
        Dipole field         -0.0261 Ry au,

        Potential amp.        2.4216 Ry
        Total length         46.3494 bohr

     Starting wfcs are  306 atomic wfcs
  @ DRIVER MODE: Message from server: STATUS
  @ DRIVER MODE: Message from server: POSDATA
  @ DRIVER MODE: Reading and sharing cell
  @ DRIVER MODE: Reading and sharing positions
  @ DRIVER MODE: Received positions

     Self-consistent Calculation

     iteration #  1     ecut=    29.40 Ry     beta= 0.05
     Davidson diagonalization with overlap
     c_bands:  1 eigenvalues not converged
     c_bands:  2 eigenvalues not converged
     c_bands:  1 eigenvalues not converged
     c_bands:  1 eigenvalues not converged
     c_bands:  1 eigenvalues not converged
     c_bands:  2 eigenvalues not converged
     c_bands:  5 eigenvalues not converged
     c_bands:  3 eigenvalues not converged
     ethr =  1.00E-05,  avg # of iterations = 32.8

[...]

     total energy              =   -2231.88610494 Ry
     estimated scf accuracy    <    8426.13804366 Ry

     iteration #  2     ecut=    29.40 Ry     beta= 0.05
     Davidson diagonalization with overlap
     ethr =  1.00E-02,  avg # of iterations = 26.6

[...]

     iteration # 99     ecut=    29.40 Ry     beta= 0.05
     Davidson diagonalization with overlap
     c_bands:  1 eigenvalues not converged
     ethr =  4.34E-11,  avg # of iterations = 11.6

[...]

     total energy              =   -2975.15010959 Ry
     estimated scf accuracy    <       0.00000009 Ry

     iteration #101     ecut=    29.40 Ry     beta= 0.05
     Davidson diagonalization with overlap
     ethr =  2.28E-11,  avg # of iterations = 10.4

     negative rho (up, down):  1.524E-02 0.000E+00

     Adding external electric field

     Computed dipole along edir(3) :
        Dipole                1.1807 Ry au,          3.0009 Debye
        Dipole field          0.0022 Ry au,

        Potential amp.       -0.2065 Ry
        Total length         46.3494 bohr

     End of self-consistent calculation

          k = 0.0000 0.0000 0.0000 ( 18029 PWs)   bands (ev):

   -55.4169 -55.3348 -55.3007 -55.2298 -55.1917 -55.1808 -55.1658 -55.1649
   -55.1500 -55.1303 -55.1022 -55.0309 -55.0224 -54.9965 -54.3291 -54.2950
   -31.8229 -31.7721 -31.7435 -31.7156 -31.6690 -31.6686 -31.6337 -31.6246
   -31.6208 -31.6086 -31.5801 -31.5420 -31.5046 -31.4877 -31.4716 -31.4641
   -31.4471 -31.4446 -31.4431 -31.4087 -31.3923 -31.3809 -31.3748 -31.3714
   -31.3666 -31.3605 -31.3572 -31.3353 -31.3298 -31.3265 -31.3262 -31.3029
   -31.2948 -31.2909 -31.2788 -31.2548 -31.2360 -31.2329 -31.2106 -31.2005
   -31.1967 -31.1938 -30.7361 -30.6471 -30.6248 -30.5534 -30.4669 -30.3553
   -19.3756 -16.2696 -16.0497 -15.8842 -15.6688 -15.6226 -15.5325 -15.3701
   -15.2580 -15.1877 -15.0785 -15.0032 -14.9291 -14.8947 -14.8857 -14.8722
   -14.8666 -14.8157 -14.8067 -14.7929 -14.7828 -14.7727 -14.7702 -14.7311
   -14.6970 -14.6488 -14.6165 -14.4937 -14.4551 -14.4186 -14.2944 -14.2753
   -12.8281 -12.7113 -10.1891  -7.8365  -6.5583  -5.3924  -4.1883  -3.8077
    -3.6634  -3.3926  -3.2841  -3.2528  -3.1890  -3.1576  -2.9031  -2.8035
    -2.7847  -2.6485  -2.5299  -2.4832  -2.4226  -2.3521  -2.3206  -2.2976
    -2.2723  -2.2159  -2.1524  -2.1386  -2.1246  -2.0483  -2.0439  -1.9689
    -1.9203  -1.9077  -1.8026  -1.7299  -1.6988  -1.6857  -1.6741  -1.6577
    -1.6327  -1.6257  -1.6020  -1.5398  -1.4742  -1.4652  -1.3996  -1.3735
    -1.1023  -1.0368  -0.9724  -0.9425  -0.8659  -0.8278  -0.8100  -0.7863
    -0.7432  -0.7400  -0.7191  -0.6578  -0.5602  -0.5051  -0.4740  -0.4554
    -0.4027  -0.2890  -0.2687  -0.1582  -0.1292  -0.1220  -0.0833  -0.0349
     0.0064   0.0456   0.1082   0.1776   0.2280   0.2787   0.3112   0.3369
     0.3774   0.4130   0.4728   0.5504   0.5742   0.6187   0.6489   0.6691
     0.6786   0.7354   0.7523   0.8402   0.9210   0.9325   1.0311   1.0622
     1.1126   1.2970   1.3341   1.6330   1.6796   1.6972   1.8857   2.2670
     2.3134   3.7325   3.8570   3.8869   3.8971   3.9357   3.9693   4.0250
     4.2198   4.2310   4.3429   4.4270

[...]

          k = 0.0380-0.0419 0.0000 ( 17876 PWs)   bands (ev):

[...]

          k =-0.0760-0.0000 0.0000 ( 17886 PWs)   bands (ev):

[...]

          k =-0.0760-0.0839 0.0000 ( 17948 PWs)   bands (ev):

   -55.4160 -55.3179 -55.3175 -55.2185 -55.2029 -55.1784 -55.1667 -55.1473
   -55.1470 -55.1437 -55.1090 -55.0245 -55.0196 -55.0077 -54.3124 -54.3115
   -31.6844 -31.6747 -31.6563 -31.6382 -31.6379 -31.6215 -31.6101 -31.6098
   -31.5685 -31.5374 -31.5218 -31.4967 -31.4874 -31.4792 -31.4674 -31.4548
   -31.4531 -31.4477 -31.4445 -31.4377 -31.4373 -31.4274 -31.4117 -31.4038
   -31.3997 -31.3822 -31.3681 -31.3679 -31.3615 -31.3592 -31.3539 -31.3442
   -31.3298 -31.3256 -31.3243 -31.3209 -31.2856 -31.2853 -31.2467 -31.2394
   -31.2147 -31.2062 -30.6379 -30.6372 -30.5495 -30.5483 -30.5105 -30.5098
   -19.3710 -16.2404 -15.7542 -15.4860 -15.3609 -15.3490 -15.2277 -15.2112
   -15.1489 -15.1410 -15.1113 -15.0982 -15.0874 -15.0436 -15.0146 -14.9313
   -14.9155 -14.8747 -14.8713 -14.8255 -14.8233 -14.8216 -14.7999 -14.7783
   -14.7723 -14.7473 -14.7311 -14.6845 -14.6711 -14.5336 -14.4422 -14.3985
   -12.8133 -12.8127 -10.1602  -7.8037  -6.5499  -5.4754  -4.1466  -3.8257
    -3.6233  -2.8416  -2.6988  -2.5974  -2.4874  -2.4553  -2.4067  -2.3575
    -2.3440  -2.3124  -2.2402  -2.2123  -2.1970  -2.1612  -2.1598  -2.1367
    -2.1269  -2.1073  -2.0787  -2.0592  -2.0494  -2.0428  -2.0159  -2.0003
    -1.9862  -1.9606  -1.9330  -1.9120  -1.8987  -1.8909  -1.8400  -1.7348
    -1.6462  -1.5673  -1.5311  -1.5054  -1.4930  -1.4464  -1.4331  -1.4211
    -1.3860  -1.3625  -1.2276  -1.2058  -1.0677  -1.0129  -0.9789  -0.9327
    -0.8791  -0.8703  -0.8537  -0.8137  -0.7740  -0.6413  -0.6103  -0.5754
    -0.5084  -0.4444  -0.3574  -0.3433  -0.3190  -0.3019  -0.2663  -0.2469
    -0.2328  -0.2028  -0.1733  -0.0951  -0.0612  -0.0492  -0.0302   0.0688
     0.1682   0.2080   0.2721   0.3416   0.3828   0.4079   0.4369   0.6217
     0.6513   0.7946   0.8033   0.8077   0.9530   0.9533   1.0018   1.0513
     1.0807   1.1228   1.1519   1.1664   1.2014   2.0560   2.0644   2.1337
     2.1338   3.7692   3.9347   4.1577   4.1803   4.2386   4.2500   4.2807
     4.3064   4.3356   4.3762   4.3971

     the Fermi energy is     3.7823 ev

!    total energy              =   -2975.15011140 Ry
     estimated scf accuracy    <       0.00000003 Ry
     smearing contrib. (-TS)   =      -0.03328912 Ry
     internal energy E=F+TS    =   -2975.11682229 Ry

     The total energy is F=E-TS. E is the sum of the following terms:
     one-electron contribution =  -23379.81003756 Ry
     hartree contribution      =   11787.15458817 Ry
     xc contribution           =    -494.90571169 Ry
     ewald contribution        =    9112.44170823 Ry
     electric field correction =       0.00263057 Ry

     convergence has been achieved in 101 iterations

     Forces acting on atoms (cartesian axes, Ry/au):

     atom    1 type  1   force =     0.00028030   -0.00019645    0.09346077
     atom    2 type  1   force =    -0.00005465    0.00053260   -0.17634710
     atom    3 type  2   force =     0.00004344   -0.00029556   -0.02070912
     atom    4 type  2   force =     0.00001637   -0.00222078    0.05685742
     atom    5 type  2   force =    -0.00785638   -0.00263356    0.00513211
     atom    6 type  2   force =     0.00892235   -0.00211649    0.00325133
     atom    7 type  1   force =    -0.00078062   -0.00334162    0.00577406
     atom    8 type  1   force =     0.00086313    0.00107631   -0.00172854
     atom    9 type  2   force =    -0.00018798    0.00014704    0.00004493
     atom   10 type  2   force =    -0.00341736    0.00105443   -0.00644694
     atom   11 type  2   force =     0.00019288   -0.00013216    0.00032272
     atom   12 type  2   force =    -0.00012751   -0.00022708    0.00004484
     atom   13 type  1   force =     0.00000328   -0.00006149   -0.00021358
     atom   14 type  1   force =     0.00053399   -0.00038512   -0.00025551
     atom   15 type  2   force =    -0.00003015   -0.00102093   -0.00045914
     atom   16 type  2   force =     0.00021044    0.00062642    0.00084112
     atom   17 type  2   force =    -0.00132599    0.00034818   -0.00045986
     atom   18 type  2   force =     0.00135301   -0.00000611   -0.00070900
     atom   19 type  1   force =     0.00006128    0.00053048   -0.00001078
     atom   20 type  1   force =     0.00046978    0.00021276   -0.00040408
     atom   21 type  2   force =     0.00011629    0.00005465    0.10358951
     atom   22 type  2   force =     0.00009932    0.00011265    0.00054057
     atom   23 type  2   force =    -0.07136055   -0.00017255   -0.02700499
     atom   24 type  2   force =     0.07135518    0.00027554   -0.02703616
     atom   25 type  1   force =     0.00007459   -0.00017756    0.09323278
     atom   26 type  1   force =     0.00008344   -0.00125945   -0.17654515
     atom   27 type  2   force =     0.00007670   -0.00015088   -0.01947828
     atom   28 type  2   force =     0.00001709   -0.00059871    0.05222203
     atom   29 type  2   force =    -0.00742371    0.00177154    0.00489408
     atom   30 type  2   force =     0.00835314    0.00235674    0.00299741
     atom   31 type  1   force =    -0.00097851    0.00885080   -0.00435122
     atom   32 type  1   force =     0.00094367   -0.00222001   -0.00239051
     atom   33 type  2   force =    -0.00022437   -0.00135757   -0.00066335
     atom   34 type  2   force =    -0.00214369   -0.00210136   -0.00765102
     atom   35 type  2   force =    -0.00000614    0.00016602    0.00027401
     atom   36 type  2   force =     0.00016561    0.00015992    0.00021327
     atom   37 type  1   force =     0.00003154   -0.00031074    0.00013811
     atom   38 type  1   force =     0.00035368    0.00047414    0.00017678
     atom   39 type  2   force =    -0.00000156    0.00076665   -0.00019385
     atom   40 type  2   force =     0.00021187   -0.00015433    0.00040949
     atom   41 type  2   force =    -0.00044113   -0.00014297    0.00025500
     atom   42 type  2   force =     0.00084736   -0.00024517    0.00003968
     atom   43 type  1   force =     0.00037304   -0.00059567   -0.00008662
     atom   44 type  1   force =     0.00014316    0.00097791    0.00029022
     atom   45 type  2   force =     0.00010183   -0.00008970    0.10334329
     atom   46 type  2   force =    -0.07139744   -0.00003190   -0.02703934
     atom   47 type  2   force =     0.07137577    0.00038253   -0.02707323
     atom   48 type  3   force =    -0.00212101   -0.00055701   -0.00007922
     atom   49 type  3   force =     0.00551174    0.00517359   -0.00030599
     atom   50 type  4   force =     0.00046780    0.00058257    0.00005350
     atom   51 type  5   force =     0.00052304   -0.00093535   -0.00047511
     atom   52 type  5   force =    -0.00010000    0.00008457   -0.00015651
     atom   53 type  5   force =    -0.00017726    0.00048240    0.00002726
     atom   54 type  5   force =     0.00102828    0.00057927   -0.00072532
     atom   55 type  5   force =    -0.00497125   -0.00428397    0.00157442
     atom   56 type  2   force =     0.00077777    0.00085439   -0.00021899
     atom   57 type  5   force =    -0.00085492   -0.00061187   -0.00078217

     Total force =     0.363247     Total SCF correction =     0.000576
  @ DRIVER MODE: Message from server: STATUS
  @ DRIVER MODE: Message from server: GETFORCE
  @ DRIVER MODE: Returning v,forces,stress,ensemble

     Writing output data file ./calc.save/
  @ DRIVER MODE: Message from server: EXIT
  @ DRIVE MODE: Exiting

     General routines

     Parallel routines

   This run was terminated on:   7:57:40  24Sep2021

   JOB DONE.