     Program PWSCF v.6.7GPU starts on 25Aug2021 at  1:51: 7

     R & G space division:  proc/nbgrp/npool/nimage =      72
     Reading input from /storage/home/hcoda1/3/ntian30/research/carbon/CH2_vib/ads_slab/CH2NHHH_a/out_0041/pw.inp
Warning: card &CELL ignored
Warning: card   CELL_DYNAMICS='IPI', ignored
Warning: card / ignored

     Current dimensions of program PWSCF are:
     Max number of different atomic species (ntypx) = 10
     Max number of k-points (npk) =  40000
     Max angular momentum in pseudopotentials (lmaxx) =  3
     Presently no symmetry can be used with electric field

     Message from routine cell_base_init:
     DEPRECATED: use true lattice parameter, not A to a.u. conversion factor

     IMPORTANT: XC functional enforced from input :
     Exchange-correlation= BEEF-VDW
                           (   1   4  43  14   2   0   0)
     Any further DFT definition will be discarded
     Please, verify this is what you really want

  @ DRIVER MODE: Connecting to
 qe_1139763_2641440.sched-torque.pace.gatech.edueir08lvx_scratch
  using UNIX socket
  @ DRIVER MODE: Message from server: STATUS
  @ DRIVER MODE: Message from server: INIT
  @ DRIVER MODE: Receiving replica           0          -1
  @ DRIVER MODE: Receiving encoded integer          25
  @ DRIVER MODE:  SCF:  T  FORCE:  T  STRESS:  F  VC:  F  ENSEMBLE:  F
  @ DRIVER MODE:  SCF:  T  FORCE:  T  STRESS:  F  VC:  F  ENSEMBLE:  F

     Using Slab Decomposition

     bravais-lattice index     =            0
     lattice parameter (alat)  =       1.8897  a.u.
     unit-cell volume          =    6658.9804 (a.u.)^3
     number of atoms/cell      =           54
     number of atomic types    =            5
     number of electrons       =       392.00
     number of Kohn-Sham states=          206
     kinetic-energy cutoff     =      29.3995  Ry
     charge density cutoff     =     293.9946  Ry
     scf convergence threshold =      7.3E-08
     mixing beta               =       0.0500
     number of iterations used =            8  plain     mixing
     Exchange-correlation= BEEF-VDW
                           (   1   4  43  14   2   0   0)

     celldm(1)=   1.889726  celldm(2)=   0.000000  celldm(3)=   0.000000
     celldm(4)=   0.000000  celldm(5)=   0.000000  celldm(6)=   0.000000

     crystal axes: (cart. coord. in units of alat)
               a(1) = (   6.579727   0.000000   0.000000 )
               a(2) = (  -0.000775   5.961596   0.000000 )
               a(3) = (   0.000000   0.000000  25.155947 )

     reciprocal axes: (cart. coord. in units 2 pi/alat)
               b(1) = (  0.151982  0.000020  0.000000 )
               b(2) = (  0.000000  0.167740  0.000000 )
               b(3) = (  0.000000  0.000000  0.039752 )

     PseudoPot. # 1 for Ti read from file:
     /storage/coda1/p-amedford6/0/shared/rich_project_chbe-medford/medford-share/data/pseudos_module/espresso/nninc/pbe/van/Ti.UPF
     MD5 check sum: 8e4df49b7f0d34bbd5052bf3f5ea0213
     Pseudo is Ultrasoft, Zval = 12.0
     Generated by new atomic code, or converted to UPF format
     Using radial grid of  851 points,  6 beta functions with:
                l(1) =   0
                l(2) =   0
                l(3) =   1
                l(4) =   1
                l(5) =   2
                l(6) =   2
     Q(r) pseudized with  8 coefficients,  rinner =    1.000   1.000   1.000
                                                       1.000   1.000

     PseudoPot. # 2 for O  read from file:
     /storage/coda1/p-amedford6/0/shared/rich_project_chbe-medford/medford-share/data/pseudos_module/espresso/nninc/pbe/van/O.UPF
     MD5 check sum: 78c19812648e8988a0fe644b0f25305e
     Pseudo is Ultrasoft, Zval =  6.0
     Generated by new atomic code, or converted to UPF format
     Using radial grid of  737 points,  4 beta functions with:
                l(1) =   0
                l(2) =   0
                l(3) =   1
                l(4) =   1
     Q(r) pseudized with  8 coefficients,  rinner =    0.800   0.800   0.800

     PseudoPot. # 3 for N  read from file:
     /storage/coda1/p-amedford6/0/shared/rich_project_chbe-medford/medford-share/data/pseudos_module/espresso/nninc/pbe/van/N.UPF
     MD5 check sum: 90d10febe142ad51ac9d5be1deb811c4
     Pseudo is Ultrasoft, Zval =  5.0
     Generated by new atomic code, or converted to UPF format
     Using radial grid of  729 points,  4 beta functions with:
                l(1) =   0
                l(2) =   0
                l(3) =   1
                l(4) =   1
     Q(r) pseudized with  8 coefficients,  rinner =    0.800   0.800   0.800

     PseudoPot. # 4 for C  read from file:
     /storage/coda1/p-amedford6/0/shared/rich_project_chbe-medford/medford-share/data/pseudos_module/espresso/nninc/pbe/van/C.UPF
     MD5 check sum: 1a69bf6b8db32088f5b2163dbdb77a27
     Pseudo is Ultrasoft, Zval =  4.0
     Generated by new atomic code, or converted to UPF format
     Using radial grid of  721 points,  4 beta functions with:
                l(1) =   0
                l(2) =   0
                l(3) =   1
                l(4) =   1
     Q(r) pseudized with  8 coefficients,  rinner =    0.800   0.800   0.800

     PseudoPot. # 5 for H  read from file:
     /storage/coda1/p-amedford6/0/shared/rich_project_chbe-medford/medford-share/data/pseudos_module/espresso/nninc/pbe/van/H.UPF
     MD5 check sum: b5ee9d7bfd3a09ee7748110bda690ff7
     Pseudo is Ultrasoft, Zval =  1.0
     Generated by new atomic code, or converted to UPF format
     Using radial grid of  615 points,  1 beta functions with:
                l(1) =   0
     Q(r) pseudized with  8 coefficients,  rinner =    0.800

     atomic species   valence    mass     pseudopotential
        Ti1           12.00    47.86700     Ti( 1.00)
        O1             6.00    15.99900     O ( 1.00)
        N1             5.00    14.00700     N ( 1.00)
        C1             4.00    12.01100     C ( 1.00)
        H1             1.00     1.00800     H ( 1.00)

     No symmetry found

   Cartesian axes

     site n.     atom                  positions (alat units)
         1           Ti1 tau(   1) = (   0.0004258   2.9801865   6.0000000  )
         2           Ti1 tau(   2) = (   3.2906075   1.4906267   6.0002472  )
         3           O1  tau(   3) = (   0.0006271   0.0005054   7.9858123  )
         4           O1  tau(   4) = (   3.2906025   0.0005020   7.3038282  )
         5           O1  tau(   5) = (   4.5942328   1.4918067   9.2879030  )
         6           O1  tau(   6) = (   1.9868534   1.4903216   9.2879459  )
         7           Ti1 tau(   7) = (   3.2907910   2.8959150   9.1758416  )
         8           Ti1 tau(   8) = (   0.0015273   1.4827037   9.2680791  )
         9           O1  tau(   9) = (   3.2947057   0.0061428  11.3716447  )
        10           O1  tau(  10) = (   0.0116148   5.9584955  10.6183126  )
        11           O1  tau(  11) = (   1.2915649   1.4936813  12.6925814  )
        12           O1  tau(  12) = (   5.2970661   1.4944705  12.6810846  )
        13           Ti1 tau(  13) = (   0.0178387   2.9746902  12.5081746  )
        14           Ti1 tau(  14) = (   3.3154821   1.4870708  12.5273966  )
        15           O1  tau(  15) = (   6.5751158   5.8850184  14.6937530  )
        16           O1  tau(  16) = (   3.3021755   5.9482827  13.9948957  )
        17           O1  tau(  17) = (   4.5403780   1.5298489  16.1548813  )
        18           O1  tau(  18) = (   2.0255877   1.5226301  16.1187562  )
        19           Ti1 tau(  19) = (   3.2919084   3.0021400  15.7465462  )
        20           Ti1 tau(  20) = (   0.0121818   1.3098915  15.8601907  )
        21           O1  tau(  21) = (   3.2904802   0.0005063   4.7018136  )
        22           O1  tau(  22) = (   6.5726150   0.1553292  17.2405045  )
        23           O1  tau(  23) = (   1.3043587   1.4918075   6.0039043  )
        24           O1  tau(  24) = (   5.2767064   1.4903225   6.0039473  )
        25           Ti1 tau(  25) = (   0.0000382   5.9609847   6.0000000  )
        26           Ti1 tau(  26) = (   3.2902200   4.4714249   6.0002472  )
        27           O1  tau(  27) = (   0.0002396   2.9813036   7.9858123  )
        28           O1  tau(  28) = (   3.2902150   2.9813002   7.3038282  )
        29           O1  tau(  29) = (   4.5938453   4.4726049   9.2879030  )
        30           O1  tau(  30) = (   1.9864658   4.4711199   9.2879459  )
        31           Ti1 tau(  31) = (   3.2891106   5.8743827   9.1763621  )
        32           Ti1 tau(  32) = (   0.0006254   4.4649316   9.2693709  )
        33           O1  tau(  33) = (   3.2927311   2.9710310  11.3658552  )
        34           O1  tau(  34) = (   0.0092240   2.9805883  10.6323155  )
        35           O1  tau(  35) = (   1.2954064   4.4636889  12.6531092  )
        36           O1  tau(  36) = (   5.2951753   4.4642890  12.6444158  )
        37           Ti1 tau(  37) = (   0.0208150   5.9452171  12.5004641  )
        38           Ti1 tau(  38) = (   3.3163264   4.4646888  12.5160798  )
        39           O1  tau(  39) = (   6.5606049   3.0383603  14.9590055  )
        40           O1  tau(  40) = (   3.3003749   3.0012653  13.9593002  )
        41           O1  tau(  41) = (   4.5325621   4.4784225  16.2386555  )
        42           O1  tau(  42) = (   2.0180351   4.4745910  16.2101397  )
        43           Ti1 tau(  43) = (   3.2993765   0.0184524  15.7908042  )
        44           Ti1 tau(  44) = (   0.0223033   4.5207704  16.0490861  )
        45           O1  tau(  45) = (   3.2900926   2.9813045   4.7018136  )
        46           O1  tau(  46) = (   1.3039711   4.4726057   6.0039043  )
        47           O1  tau(  47) = (   5.2763189   4.4711207   6.0039473  )
        48           N1  tau(  48) = (   6.4337409   3.4053151  18.1409392  )
        49           C1  tau(  49) = (   1.0285230   3.1422446  19.0018829  )
        50           H1  tau(  50) = (   0.7475518   3.0234394  20.0507379  )
        51           H1  tau(  51) = (   1.7227964   3.9744885  18.9089305  )
        52           H1  tau(  52) = (   5.9280473   4.2150708  18.4935385  )
        53           H1  tau(  53) = (   5.7900178   2.6175148  18.1880975  )
        54           H1  tau(  54) = (   1.5159085   2.2300880  18.6541165  )

     number of k points=    10  Fermi-Dirac smearing, width (Ry)=  0.0073
                       cart. coord. in units 2pi/alat
        k(    1) = (   0.0000000   0.0000000   0.0000000), wk =   0.1250000
        k(    2) = (   0.0000000   0.0419351   0.0000000), wk =   0.2500000
        k(    3) = (   0.0000000  -0.0838702   0.0000000), wk =   0.1250000
        k(    4) = (   0.0379955   0.0000049   0.0000000), wk =   0.2500000
        k(    5) = (   0.0379955   0.0419400   0.0000000), wk =   0.2500000
        k(    6) = (   0.0379955  -0.0838652   0.0000000), wk =   0.2500000
        k(    7) = (   0.0379955  -0.0419301   0.0000000), wk =   0.2500000
        k(    8) = (  -0.0759910  -0.0000099   0.0000000), wk =   0.1250000
        k(    9) = (  -0.0759910   0.0419252   0.0000000), wk =   0.2500000
        k(   10) = (  -0.0759910  -0.0838800   0.0000000), wk =   0.1250000

     Initial potential from superposition of free atoms

     starting charge  375.99915, renormalised to  392.00000

     negative rho (up, down):  1.645E-02 0.000E+00

     %%%%%%%%%%%%%%%%%%%%%%%%%%%%%%%%%%%%%%%%%%%%%%%%%%%%%%%%%%%%%%%%%%%%%%%%
     %                                                                      %
     % You are using vdW-DF, which was implemented by the Thonhauser group. %
     % Please cite the following two papers that made this development      %
     % possible and the two reviews that describe the various versions:     %
     %                                                                      %
     %   T. Thonhauser et al., PRL 115, 136402 (2015).                      %
     %   T. Thonhauser et al., PRB 76, 125112 (2007).                       %
     %   K. Berland et al., Rep. Prog. Phys. 78, 066501 (2015).             %
     %   D.C. Langreth et al., J. Phys.: Condens. Matter 21, 084203 (2009). %
     %                                                                      %
     %                                                                      %
     % If you are calculating the stress with vdW-DF, please also cite:     %
     %                                                                      %
     %   R. Sabatini et al., J. Phys.: Condens. Matter 24, 424209 (2012).   %
     %                                                                      %
     %%%%%%%%%%%%%%%%%%%%%%%%%%%%%%%%%%%%%%%%%%%%%%%%%%%%%%%%%%%%%%%%%%%%%%%%

     Adding external electric field

     Computed dipole along edir(3) :
        Dipole               -7.5115 Ry au,        -19.0924 Debye
        Dipole field         -0.0142 Ry au,

        Potential amp.        1.3140 Ry
        Total length         46.3494 bohr

     Starting wfcs are  297 atomic wfcs
  @ DRIVER MODE: Message from server: STATUS
  @ DRIVER MODE: Message from server: POSDATA
  @ DRIVER MODE: Reading and sharing cell
  @ DRIVER MODE: Reading and sharing positions
  @ DRIVER MODE: Received positions

     Self-consistent Calculation

     iteration #  1     ecut=    29.40 Ry     beta= 0.05
     Davidson diagonalization with overlap
     c_bands:  1 eigenvalues not converged
     c_bands:  1 eigenvalues not converged
     c_bands:  2 eigenvalues not converged
     c_bands:  1 eigenvalues not converged
     c_bands:  1 eigenvalues not converged
     c_bands:  1 eigenvalues not converged
     ethr =  1.00E-05,  avg # of iterations = 19.3

[...]

     total energy              =   -2681.20080686 Ry
     estimated scf accuracy    <    2661.10512486 Ry

[...]

     iteration #  3     ecut=    29.40 Ry     beta= 0.05
     Davidson diagonalization with overlap
     ethr =  1.00E-02,  avg # of iterations = 14.7

[...]

     iteration # 75     ecut=    29.40 Ry     beta= 0.05
     Davidson diagonalization with overlap
     c_bands:  1 eigenvalues not converged
     c_bands:  4 eigenvalues not converged
     ethr =  6.89E-11,  avg # of iterations = 18.0

[...]

     total energy              =   -2921.63252348 Ry
     estimated scf accuracy    <       0.00000018 Ry

     iteration # 78     ecut=    29.40 Ry     beta= 0.05
     Davidson diagonalization with overlap
     ethr =  4.50E-11,  avg # of iterations = 10.8

     negative rho (up, down):  1.723E-02 0.000E+00

     Adding external electric field

     Computed dipole along edir(3) :
        Dipole                1.3054 Ry au,          3.3181 Debye
        Dipole field          0.0025 Ry au,

        Potential amp.       -0.2284 Ry
        Total length         46.3494 bohr

     End of self-consistent calculation

          k = 0.0000 0.0000 0.0000 ( 18029 PWs)   bands (ev):

   -55.4316 -55.3946 -55.3819 -55.3568 -55.3478 -55.3142 -55.3092 -55.2748
   -55.2485 -55.2316 -55.2140 -55.2129 -55.1793 -55.0998 -54.4101 -54.3760
   -32.0011 -31.8864 -31.8745 -31.7981 -31.7487 -31.7385 -31.7360 -31.7191
   -31.6740 -31.6708 -31.6420 -31.6398 -31.6268 -31.6194 -31.6017 -31.5946
   -31.5871 -31.5748 -31.5697 -31.5464 -31.5345 -31.5307 -31.5027 -31.4959
   -31.4870 -31.4793 -31.4747 -31.4511 -31.4399 -31.4392 -31.4315 -31.4127
   -31.4120 -31.4056 -31.3997 -31.3963 -31.3626 -31.3533 -31.3413 -31.3243
   -31.3057 -31.2957 -30.8194 -30.7254 -30.7033 -30.6359 -30.5491 -30.4381
   -16.2943 -16.1613 -15.9763 -15.8316 -15.7493 -15.6299 -15.5185 -15.5046
   -15.3641 -15.2824 -15.1666 -15.1416 -15.1130 -15.0903 -15.0820 -15.0649
   -14.9739 -14.9691 -14.9568 -14.9244 -14.9232 -14.8789 -14.8683 -14.8264
   -14.8051 -14.8029 -14.6830 -14.5893 -14.5173 -14.2878 -12.9129 -12.7955
   -10.2071  -6.3077  -4.8118  -3.9526  -3.6105  -3.4522  -3.3693  -3.3348
    -3.3226  -3.1910  -3.0538  -2.9018  -2.8537  -2.8144  -2.7236  -2.6470
    -2.6393  -2.6203  -2.4662  -2.4312  -2.3867  -2.3380  -2.2999  -2.2418
    -2.2212  -2.2128  -2.2002  -2.1829  -2.1743  -2.0565  -2.0007  -1.9169
    -1.8577  -1.8349  -1.7846  -1.7645  -1.7445  -1.7207  -1.7115  -1.6704
    -1.6455  -1.6253  -1.5720  -1.4606  -1.3568  -1.3064  -1.1872  -1.0665
    -1.0293  -1.0173  -0.9659  -0.9382  -0.9166  -0.8595  -0.8080  -0.7785
    -0.7247  -0.6634  -0.6021  -0.5524  -0.4793  -0.4757  -0.4169  -0.3678
    -0.2469  -0.2144  -0.1976  -0.1697  -0.0792  -0.0409   0.0028   0.0828
     0.0940   0.1134   0.2073   0.2177   0.2917   0.3401   0.3570   0.4503
     0.4851   0.4975   0.5020   0.5243   0.5542   0.6042   0.6460   0.6724
     0.7393   0.8657   1.0786   1.1590   1.1829   1.5090   1.5188   1.6125
     1.7962   2.1883   2.2364   3.6662   3.7368   3.8125   3.8189   3.8317
     3.9045   4.1389   4.1627   4.1703   4.1770   4.1980

[...]

          k = 0.0380-0.0419 0.0000 ( 17876 PWs)   bands (ev):

[...]

          k =-0.0760-0.0000 0.0000 ( 17886 PWs)   bands (ev):

[...]

          k =-0.0760-0.0839 0.0000 ( 17948 PWs)   bands (ev):

   -55.4175 -55.4086 -55.3650 -55.3646 -55.3554 -55.3106 -55.2933 -55.2907
   -55.2352 -55.2329 -55.2291 -55.1967 -55.1957 -55.1010 -54.3932 -54.3928
   -31.8082 -31.8039 -31.8011 -31.7185 -31.6926 -31.6898 -31.6894 -31.6562
   -31.6560 -31.6405 -31.6339 -31.6312 -31.6245 -31.6025 -31.5872 -31.5705
   -31.5664 -31.5640 -31.5621 -31.5573 -31.5570 -31.5542 -31.5112 -31.5091
   -31.5062 -31.5022 -31.4997 -31.4866 -31.4847 -31.4844 -31.4824 -31.4660
   -31.4624 -31.4465 -31.4426 -31.4291 -31.4258 -31.4234 -31.3777 -31.3774
   -31.3714 -31.3104 -30.7162 -30.7158 -30.6320 -30.6317 -30.5926 -30.5924
   -16.1310 -15.7824 -15.6962 -15.6403 -15.4648 -15.4370 -15.4228 -15.4033
   -15.2743 -15.2486 -15.2229 -15.2005 -15.1794 -15.1418 -15.1342 -15.1293
   -15.0515 -15.0385 -15.0328 -15.0181 -14.9489 -14.9398 -14.9359 -14.9298
   -14.8796 -14.8758 -14.8327 -14.7821 -14.7788 -14.5639 -12.8970 -12.8968
   -10.2104  -6.2781  -4.8086  -3.9160  -2.9658  -2.9303  -2.8964  -2.8948
    -2.6810  -2.6431  -2.6079  -2.5839  -2.4923  -2.4500  -2.4312  -2.4305
    -2.3561  -2.3358  -2.3243  -2.2726  -2.2677  -2.2558  -2.2323  -2.1999
    -2.1747  -2.1601  -2.1503  -2.1319  -2.0882  -2.0745  -2.0546  -2.0342
    -2.0284  -2.0157  -1.9867  -1.9469  -1.8161  -1.8049  -1.7444  -1.6369
    -1.6319  -1.5569  -1.5464  -1.5016  -1.4880  -1.4635  -1.4289  -1.2491
    -1.2072  -1.1764  -1.1669  -1.1127  -1.0362  -1.0196  -0.9569  -0.9354
    -0.9175  -0.8128  -0.7697  -0.7546  -0.6647  -0.6561  -0.5730  -0.5235
    -0.4629  -0.4371  -0.4025  -0.3866  -0.3846  -0.3367  -0.3310  -0.2471
    -0.2014  -0.1652  -0.1517  -0.1194   0.0794   0.0864   0.1089   0.2546
     0.2743   0.4096   0.4367   0.4880   0.5677   0.6010   0.6815   0.7144
     0.8437   0.8745   0.8770   0.9468   0.9611   1.0232   1.0336   1.9692
     1.9699   2.0565   2.0565   3.8171   3.9087   3.9287   3.9713   4.0844
     4.1590   4.1834   4.2051   4.2520   4.2553   4.3239

     the Fermi energy is     3.7301 ev

!    total energy              =   -2921.63253049 Ry
     estimated scf accuracy    <       0.00000007 Ry
     smearing contrib. (-TS)   =      -0.03702751 Ry
     internal energy E=F+TS    =   -2921.59550297 Ry

     The total energy is F=E-TS. E is the sum of the following terms:
     one-electron contribution =  -24082.63191553 Ry
     hartree contribution      =   12130.45069558 Ry
     xc contribution           =    -481.75899029 Ry
     ewald contribution        =    9512.34149131 Ry
     electric field correction =       0.00321596 Ry

     convergence has been achieved in  78 iterations

     Forces acting on atoms (cartesian axes, Ry/au):

     atom    1 type  1   force =     0.00005427   -0.00024718    0.09320565
     atom    2 type  1   force =    -0.00012803   -0.00043323   -0.17822388
     atom    3 type  2   force =     0.00002127   -0.00041167   -0.02023592
     atom    4 type  2   force =    -0.00001367   -0.00187691    0.05854008
     atom    5 type  2   force =    -0.00995357   -0.00082872    0.00750543
     atom    6 type  2   force =     0.01147373   -0.00027586    0.00680454
     atom    7 type  1   force =    -0.00039104    0.00194759   -0.01462989
     atom    8 type  1   force =     0.00011215   -0.00011829   -0.00500986
     atom    9 type  2   force =    -0.00011799   -0.00005364   -0.00000414
     atom   10 type  2   force =    -0.00118024    0.00218498   -0.00031956
     atom   11 type  2   force =    -0.00001745   -0.00019197    0.00007600
     atom   12 type  2   force =     0.00059435   -0.00050889    0.00013547
     atom   13 type  1   force =    -0.00072037    0.00034050   -0.00034223
     atom   14 type  1   force =    -0.00000696   -0.00059697    0.00004271
     atom   15 type  2   force =     0.00003802   -0.00055437   -0.00039882
     atom   16 type  2   force =     0.00023461    0.00060358    0.00051590
     atom   17 type  2   force =     0.00004323   -0.00054739    0.00032248
     atom   18 type  2   force =     0.00014884   -0.00009558    0.00034133
     atom   19 type  1   force =     0.00012119   -0.00029496    0.00173609
     atom   20 type  1   force =    -0.00027509    0.00043360    0.00020783
     atom   21 type  2   force =     0.00001004   -0.00009862    0.10386793
     atom   22 type  2   force =     0.00018794   -0.00013616    0.00049573
     atom   23 type  2   force =    -0.07048758   -0.00018186   -0.02692199
     atom   24 type  2   force =     0.07030756    0.00025973   -0.02696373
     atom   25 type  1   force =    -0.00001257   -0.00016082    0.09270598
     atom   26 type  1   force =    -0.00020708   -0.00050169   -0.17824656
     atom   27 type  2   force =     0.00007346   -0.00023680   -0.01929353
     atom   28 type  2   force =     0.00001677   -0.00165609    0.05788325
     atom   29 type  2   force =    -0.01051844   -0.00098059    0.00820622
     atom   30 type  2   force =     0.01191961   -0.00053758    0.00743310
     atom   31 type  1   force =    -0.00033957    0.00605577   -0.01541973
     atom   32 type  1   force =     0.00011709   -0.00038854   -0.00543637
     atom   33 type  2   force =     0.00030796   -0.00010147   -0.00032969
     atom   34 type  2   force =    -0.00063573   -0.00204096   -0.00050018
     atom   35 type  2   force =    -0.00039893   -0.00002398    0.00024878
     atom   36 type  2   force =     0.00066956   -0.00007263   -0.00003037
     atom   37 type  1   force =    -0.00035634   -0.00023754    0.00026240
     atom   38 type  1   force =     0.00001892    0.00041800   -0.00003741
     atom   39 type  2   force =     0.00022998   -0.00010527    0.00017771
     atom   40 type  2   force =     0.00017075    0.00025759    0.00012110
     atom   41 type  2   force =    -0.00045587    0.00027708   -0.00012429
     atom   42 type  2   force =     0.00046622    0.00084390   -0.00013033
     atom   43 type  1   force =     0.00048879    0.00057187    0.00022832
     atom   44 type  1   force =     0.00049873    0.00049654    0.00030153
     atom   45 type  2   force =     0.00001756   -0.00009351    0.10385623
     atom   46 type  2   force =    -0.07045155   -0.00012661   -0.02686377
     atom   47 type  2   force =     0.07028567    0.00029823   -0.02691783
     atom   48 type  3   force =    -0.00050723   -0.00063377    0.00071684
     atom   49 type  4   force =     0.00220980   -0.00366130   -0.00309344
     atom   50 type  5   force =    -0.00004787   -0.00075976    0.00012406
     atom   51 type  5   force =    -0.00029297    0.00034680    0.00006743
     atom   52 type  5   force =    -0.00105345   -0.00037730    0.00009100
     atom   53 type  5   force =    -0.00081503    0.00051815   -0.00010890
     atom   54 type  5   force =    -0.00145340    0.00429457    0.00336131

     Total force =     0.366082     Total SCF correction =     0.000515
  @ DRIVER MODE: Message from server: STATUS
  @ DRIVER MODE: Message from server: GETFORCE
  @ DRIVER MODE: Returning v,forces,stress,ensemble

     Writing output data file ./calc.save/
  @ DRIVER MODE: Message from server: EXIT
  @ DRIVE MODE: Exiting

     General routines

     Parallel routines

   This run was terminated on:   2:14: 2  25Aug2021

   JOB DONE.